
 displacements (vx,vy,vz) for set NALL and time  0.5000000E-01

         1  0.000000E+00  0.000000E+00  0.000000E+00
         2 -3.333333E+00  0.000000E+00  0.000000E+00
         3 -6.666667E+00  0.000000E+00  0.000000E+00
         4 -1.000000E+01  0.000000E+00  0.000000E+00
         5  0.000000E+00  9.956754E-01  0.000000E+00
         6 -3.333333E+00  9.956754E-01  0.000000E+00
         7 -6.666667E+00  9.956754E-01  0.000000E+00
         8 -1.000000E+01  9.956754E-01  0.000000E+00
         9  0.000000E+00  1.991351E+00  0.000000E+00
        10 -3.333333E+00  1.991351E+00  0.000000E+00
        11 -6.666667E+00  1.991351E+00  0.000000E+00
        12 -1.000000E+01  1.991351E+00  0.000000E+00
        13  0.000000E+00  2.987026E+00  0.000000E+00
        14 -3.333333E+00  2.987026E+00  0.000000E+00
        15 -6.666667E+00  2.987026E+00  0.000000E+00
        16 -1.000000E+01  2.987026E+00  0.000000E+00
        17  0.000000E+00  0.000000E+00  1.393945E+00
        18 -3.333333E+00  0.000000E+00  1.393945E+00
        19 -6.666667E+00  0.000000E+00  1.393945E+00
        20 -1.000000E+01  0.000000E+00  1.393945E+00
        21  0.000000E+00  9.956754E-01  1.393945E+00
        22 -3.333333E+00  9.956754E-01  1.393945E+00
        23 -6.666667E+00  9.956754E-01  1.393945E+00
        24 -1.000000E+01  9.956754E-01  1.393945E+00
        25  0.000000E+00  1.991351E+00  1.393945E+00
        26 -3.333333E+00  1.991351E+00  1.393945E+00
        27 -6.666667E+00  1.991351E+00  1.393945E+00
        28 -1.000000E+01  1.991351E+00  1.393945E+00
        29  0.000000E+00  2.987026E+00  1.393945E+00
        30 -3.333333E+00  2.987026E+00  1.393945E+00
        31 -6.666667E+00  2.987026E+00  1.393945E+00
        32 -1.000000E+01  2.987026E+00  1.393945E+00

 stresses (elem, integ.pnt.,sxx,syy,szz,sxy,sxz,syz) for set EALL and time  0.5000000E-01

         1   1 -1.380527E+03  4.562217E-05  4.562217E-05 -3.149802E-14  2.207844E-15 -1.061174E-33
         1   2 -1.380527E+03  4.562217E-05  4.562217E-05 -6.622342E-14  1.305953E-14 -1.987503E-14
         1   3 -1.380527E+03  4.562217E-05  4.562217E-05 -4.603224E-15  1.500278E-16 -1.766669E-14
         1   4 -1.380527E+03  4.562217E-05  4.562217E-05 -3.932862E-14  8.696353E-14 -3.975005E-14
         1   5 -1.380527E+03  4.562217E-05  4.562217E-05 -2.166587E-14 -1.070166E-14  1.766669E-14
         1   6 -1.380527E+03  4.562217E-05  4.562217E-05 -7.375397E-14  1.500278E-16 -4.637506E-14
         1   7 -1.380527E+03  4.562217E-05  4.562217E-05 -1.736270E-14 -5.148799E-14  1.766669E-14
         1   8 -1.380527E+03  4.562217E-05  4.562217E-05 -6.945080E-14  6.001112E-16 -6.625009E-14
         2   1 -1.380527E+03  4.562217E-05  4.562217E-05 -1.432048E-13  8.696353E-14 -1.325002E-14
         2   2 -1.380527E+03  4.562217E-05  4.562217E-05 -1.432048E-13  1.151779E-13 -3.312504E-15
         2   3 -1.380527E+03  4.562217E-05  4.562217E-05 -1.559642E-13  3.042223E-14 -3.533338E-14
         2   4 -1.380527E+03  4.562217E-05  4.562217E-05 -1.082168E-13  2.474560E-13 -2.208336E-14
         2   5 -1.380527E+03  4.562217E-05  4.562217E-05 -6.945080E-14  1.134577E-13 -4.416672E-14
         2   6 -1.380527E+03  4.562217E-05  4.562217E-05 -2.604405E-13  6.788057E-14  4.858340E-14
         2   7 -1.380527E+03  4.562217E-05  4.562217E-05  5.223813E-14 -1.721267E-14 -4.416672E-14
         2   8 -1.380527E+03  4.562217E-05  4.562217E-05 -2.950159E-13  1.824584E-13  1.104168E-14
         3   1 -1.380527E+03  4.562217E-05  4.562217E-05 -3.902857E-14  1.845349E-13  4.416672E-15
         3   2 -1.380527E+03  4.562217E-05  4.562217E-05  8.251033E-14 -7.590555E-14  9.937513E-15
         3   3 -1.380527E+03  4.562217E-05  4.562217E-05 -3.472540E-14  2.735000E-13 -1.766669E-14
         3   4 -1.380527E+03  4.562217E-05  4.562217E-05 -4.340675E-14  3.603135E-13  1.545835E-14
         3   5 -1.380527E+03  4.562217E-05  4.562217E-05 -2.778032E-13  1.304453E-13  2.870837E-14
         3   6 -1.380527E+03  4.562217E-05  4.562217E-05 -3.472540E-14 -1.169732E-13  1.325002E-14
         3   7 -1.380527E+03  4.562217E-05  4.562217E-05 -2.605905E-13  3.300413E-13  1.766669E-14
         3   8 -1.380527E+03  4.562217E-05  4.562217E-05 -1.751273E-14  2.085024E-13 -2.208336E-15
         4   1 -1.380527E+03  4.562217E-05  4.562217E-05  4.967397E-14  8.831378E-15 -1.766669E-14
         4   2 -1.380527E+03  4.562217E-05  4.562217E-05  4.533329E-14  9.564488E-14  1.987503E-14
         4   3 -1.380527E+03  4.562217E-05  4.562217E-05  1.309704E-14  1.313455E-14  3.533338E-14
         4   4 -1.380527E+03  4.562217E-05  4.562217E-05  8.756364E-15  9.126669E-14  1.766669E-14
         4   5 -1.380527E+03  4.562217E-05  4.562217E-05  8.756364E-15 -4.276913E-14 -3.091671E-14
         4   6 -1.380527E+03  4.562217E-05  4.562217E-05  6.084446E-14  2.234099E-14  2.208336E-14
         4   7 -1.380527E+03  4.562217E-05  4.562217E-05  1.736270E-14 -8.381294E-15  1.766669E-14
         4   8 -1.380527E+03  4.562217E-05  4.562217E-05  6.945080E-14  6.975085E-14  2.650003E-14
         5   1 -1.380527E+03  4.562217E-05  4.562217E-05  1.393517E-13  2.517591E-13 -3.091671E-14
         5   2 -1.380527E+03  4.562217E-05  4.562217E-05  8.726358E-14 -2.821439E-14  1.987503E-14
         5   3 -1.380527E+03  4.562217E-05  4.562217E-05  3.532551E-14 -4.303168E-15  2.650003E-14
         5   4 -1.380527E+03  4.562217E-05  4.562217E-05  3.098484E-14  2.474560E-13  4.637506E-14
         5   5 -1.380527E+03  4.562217E-05  4.562217E-05  1.216889E-13  1.519611E-13  2.525977E-31
         5   6 -1.380527E+03  4.562217E-05  4.562217E-05  1.564143E-13 -1.453751E-13  6.845842E-14
         5   7 -1.380527E+03  4.562217E-05  4.562217E-05  7.005091E-14  5.223813E-14  1.766669E-14
         5   8 -1.380527E+03  4.562217E-05  4.562217E-05  8.741361E-14  2.519092E-13  3.975005E-14
         6   1 -1.380527E+03  4.562217E-05  4.562217E-05  1.389016E-13  1.433548E-13 -8.833345E-15
         6   2 -1.380527E+03  4.562217E-05  4.562217E-05  5.208810E-14 -3.037347E-13  2.650003E-14
         6   3 -1.380527E+03  4.562217E-05  4.562217E-05  1.389016E-13  1.954429E-13  4.858340E-14
         6   4 -1.380527E+03  4.562217E-05  4.562217E-05  1.302202E-13  3.690699E-13  5.741674E-14
         6   5 -1.380527E+03  4.562217E-05  4.562217E-05  1.561143E-13  2.196592E-14  8.833345E-15
         6   6 -1.380527E+03  4.562217E-05  4.562217E-05 -1.751273E-14 -8.221027E-14  2.208336E-15
         6   7 -1.380527E+03  4.562217E-05  4.562217E-05  1.389016E-13  2.261652E-13  7.066676E-14
         6   8 -1.380527E+03  4.562217E-05  4.562217E-05  1.551910E-31  1.740771E-13  2.650003E-14
         7   1 -1.380527E+03  4.562217E-05  4.562217E-05  1.309704E-14  1.090795E-14  1.325002E-14
         7   2 -1.380527E+03  4.562217E-05  4.562217E-05  1.302953E-13  1.237655E-13 -6.625009E-15
         7   3 -1.380527E+03  4.562217E-05  4.562217E-05  2.170337E-14  8.831378E-15 -9.275012E-14
         7   4 -1.380527E+03  4.562217E-05  4.562217E-05  1.389016E-13  5.223813E-14 -9.495846E-14
         7   5 -1.380527E+03  4.562217E-05  4.562217E-05  6.674864E-33 -4.115633E-15  5.300007E-14
         7   6 -1.380527E+03  4.562217E-05  4.562217E-05  6.945080E-14  5.231314E-14  8.833345E-15
         7   7 -1.380527E+03  4.562217E-05  4.562217E-05 -5.636608E-33 -2.559397E-14 -1.766669E-14
         7   8 -1.380527E+03  4.562217E-05  4.562217E-05  6.945080E-14  5.253818E-14 -2.208336E-14
         8   1 -1.380527E+03  4.562217E-05  4.562217E-05  1.396517E-13  2.300933E-13 -4.416672E-15
         8   2 -1.380527E+03  4.562217E-05  4.562217E-05  3.002567E-13 -7.592430E-14  6.404175E-14
         8   3 -1.380527E+03  4.562217E-05  4.562217E-05  1.914398E-13  3.042223E-14 -3.975005E-14
         8   4 -1.380527E+03  4.562217E-05  4.562217E-05  2.218245E-13 -2.166587E-14  1.479585E-13
         8   5 -1.380527E+03  4.562217E-05  4.562217E-05  8.726358E-14  2.128806E-13 -8.833345E-15
         8   6 -1.380527E+03  4.562217E-05  4.562217E-05 -1.558142E-13 -2.802685E-14  7.066676E-14
         8   7 -1.380527E+03  4.562217E-05  4.562217E-05  6.945080E-14 -1.721267E-14 -7.066676E-14
         8   8 -1.380527E+03  4.562217E-05  4.562217E-05 -1.041762E-13  9.564488E-14  1.457502E-13
         9   1 -1.380527E+03  4.562217E-05  4.562217E-05  2.778032E-13  1.932913E-13  1.766669E-14
         9   2 -1.380527E+03  4.562217E-05  4.562217E-05  1.128575E-13 -1.192373E-13  6.845842E-14
         9   3 -1.380527E+03  4.562217E-05  4.562217E-05  2.778032E-13 -8.606336E-15 -3.032163E-32
         9   4 -1.380527E+03  4.562217E-05  4.562217E-05  1.215389E-13  7.820716E-14  8.833345E-14
         9   5 -1.380527E+03  4.562217E-05  4.562217E-05 -1.389016E-13  4.378182E-14  7.066676E-14
         9   6 -1.380527E+03  4.562217E-05  4.562217E-05 -3.472540E-14 -7.775708E-14  1.082085E-13
         9   7 -1.380527E+03  4.562217E-05  4.562217E-05 -1.389016E-13 -3.442534E-14  7.066676E-14
         9   8 -1.380527E+03  4.562217E-05  4.562217E-05 -3.472540E-14  3.000556E-16  1.148335E-13

 strains (elem, integ.pnt.,exx,eyy,ezz,exy,exz,eyz) forset EALL and time  0.5000000E-01

         1   1 -6.644444E-03  1.993333E-03  1.993333E-03 -1.950256E-19  1.322750E-20 -1.763242E-38
         1   2 -6.644444E-03  1.993333E-03  1.993333E-03 -4.104204E-19  8.053839E-20 -1.222156E-19
         1   3 -6.644444E-03  1.993333E-03  1.993333E-03 -2.528162E-20 -9.387041E-22 -1.086361E-19
         1   4 -6.644444E-03  1.993333E-03  1.993333E-03 -2.406765E-19  5.375484E-19 -2.444313E-19
         1   5 -6.644444E-03  1.993333E-03  1.993333E-03 -1.348564E-19 -6.824959E-20  1.086361E-19
         1   6 -6.644444E-03  1.993333E-03  1.993333E-03 -4.579487E-19 -9.387041E-22 -2.851698E-19
         1   7 -6.644444E-03  1.993333E-03  1.993333E-03 -1.076974E-19 -3.268471E-19  1.086361E-19
         1   8 -6.644444E-03  1.993333E-03  1.993333E-03 -4.307897E-19 -3.754816E-21 -4.073854E-19
         2   1 -6.644444E-03  1.993333E-03  1.993333E-03 -8.887384E-19  5.375484E-19 -8.147709E-20
         2   2 -6.644444E-03  1.993333E-03  1.993333E-03 -8.887384E-19  7.125567E-19 -2.036927E-20
         2   3 -6.644444E-03  1.993333E-03  1.993333E-03 -9.711542E-19  1.882358E-19 -2.172722E-19
         2   4 -6.644444E-03  1.993333E-03  1.993333E-03 -6.749863E-19  1.534453E-18 -1.357951E-19
         2   5 -6.644444E-03  1.993333E-03  1.993333E-03 -4.307897E-19  6.962784E-19 -2.715903E-19
         2   6 -6.644444E-03  1.993333E-03  1.993333E-03 -1.615461E-18  4.135727E-19  2.987493E-19
         2   7 -6.644444E-03  1.993333E-03  1.993333E-03  3.221535E-19 -1.086361E-19 -2.715903E-19
         2   8 -6.644444E-03  1.993333E-03  1.993333E-03 -1.831795E-18  1.129884E-18  6.789757E-20
         3   1 -6.644444E-03  1.993333E-03  1.993333E-03 -2.425539E-19  1.143933E-18  2.715903E-20
         3   2 -6.644444E-03  1.993333E-03  1.993333E-03  5.113280E-19 -4.715282E-19  6.110782E-20
         3   3 -6.644444E-03  1.993333E-03  1.993333E-03 -2.153948E-19  1.696000E-18 -1.086361E-19
         3   4 -6.644444E-03  1.993333E-03  1.993333E-03 -2.692435E-19  2.234487E-18  9.505660E-20
         3   5 -6.644444E-03  1.993333E-03  1.993333E-03 -1.723159E-18  8.063226E-19  1.765337E-19
         3   6 -6.644444E-03  1.993333E-03  1.993333E-03 -2.153948E-19 -7.283656E-19  8.147709E-20
         3   7 -6.644444E-03  1.993333E-03  1.993333E-03 -1.614523E-18  2.045312E-18  1.086361E-19
         3   8 -6.644444E-03  1.993333E-03  1.993333E-03 -1.067587E-19  1.291430E-18 -1.357951E-20
         4   1 -6.644444E-03  1.993333E-03  1.993333E-03  3.111555E-19  5.291000E-20 -1.086361E-19
         4   2 -6.644444E-03  1.993333E-03  1.993333E-03  2.842311E-19  5.913971E-19  1.222156E-19
         4   3 -6.644444E-03  1.993333E-03  1.993333E-03  8.030371E-20  8.006903E-20  2.172722E-19
         4   4 -6.644444E-03  1.993333E-03  1.993333E-03  5.337936E-20  5.647074E-19  1.086361E-19
         4   5 -6.644444E-03  1.993333E-03  1.993333E-03  5.337936E-20 -2.732330E-19 -1.901132E-19
         4   6 -6.644444E-03  1.993333E-03  1.993333E-03  3.764716E-19  1.306323E-19  1.357951E-19
         4   7 -6.644444E-03  1.993333E-03  1.993333E-03  1.076974E-19 -5.572612E-20  1.086361E-19
         4   8 -6.644444E-03  1.993333E-03  1.993333E-03  4.307897E-19  4.289123E-19  1.629542E-19
         5   1 -6.644444E-03  1.993333E-03  1.993333E-03  8.587632E-19  1.561613E-18 -1.901132E-19
         5   2 -6.644444E-03  1.993333E-03  1.993333E-03  5.356710E-19 -1.750083E-19  1.222156E-19
         5   3 -6.644444E-03  1.993333E-03  1.993333E-03  2.116400E-19 -2.715903E-20  1.629542E-19
         5   4 -6.644444E-03  1.993333E-03  1.993333E-03  1.847157E-19  1.534453E-18  2.851698E-19
         5   5 -6.644444E-03  1.993333E-03  1.993333E-03  7.529432E-19  9.421177E-19  1.645692E-36
         5   6 -6.644444E-03  1.993333E-03  1.993333E-03  9.683380E-19 -9.022005E-19  4.209650E-19
         5   7 -6.644444E-03  1.993333E-03  1.993333E-03  4.270348E-19  3.221535E-19  1.086361E-19
         5   8 -6.644444E-03  1.993333E-03  1.993333E-03  5.347323E-19  1.560674E-18  2.444313E-19
         6   1 -6.644444E-03  1.993333E-03  1.993333E-03  8.615793E-19  8.877997E-19 -5.431806E-20
         6   2 -6.644444E-03  1.993333E-03  1.993333E-03  3.230922E-19 -1.885409E-18  1.629542E-19
         6   3 -6.644444E-03  1.993333E-03  1.993333E-03  8.615793E-19  1.210892E-18  2.987493E-19
         6   4 -6.644444E-03  1.993333E-03  1.993333E-03  8.077306E-19  2.287866E-18  3.530674E-19
         6   5 -6.644444E-03  1.993333E-03  1.993333E-03  9.702154E-19  1.329790E-19  5.431806E-20
         6   6 -6.644444E-03  1.993333E-03  1.993333E-03 -1.067587E-19 -5.132055E-19  1.357951E-20
         6   7 -6.644444E-03  1.993333E-03  1.993333E-03  8.615793E-19  1.397250E-18  4.345445E-19
         6   8 -6.644444E-03  1.993333E-03  1.993333E-03  3.526483E-38  1.074158E-18  1.629542E-19
         7   1 -6.644444E-03  1.993333E-03  1.993333E-03  8.030371E-20  6.695887E-20  8.147709E-20
         7   2 -6.644444E-03  1.993333E-03  1.993333E-03  8.072613E-19  7.669921E-19 -4.073854E-20
         7   3 -6.644444E-03  1.993333E-03  1.993333E-03  1.346218E-19  5.291000E-20 -5.703396E-19
         7   4 -6.644444E-03  1.993333E-03  1.993333E-03  8.615793E-19  3.221535E-19 -5.839191E-19
         7   5 -6.644444E-03  1.993333E-03  1.993333E-03 -3.526483E-38 -2.833241E-20  3.259084E-19
         7   6 -6.644444E-03  1.993333E-03  1.993333E-03  4.307897E-19  3.216842E-19  5.431806E-20
         7   7 -6.644444E-03  1.993333E-03  1.993333E-03 -7.052966E-38 -1.643622E-19 -1.086361E-19
         7   8 -6.644444E-03  1.993333E-03  1.993333E-03  4.307897E-19  3.202761E-19 -1.357951E-19
         8   1 -6.644444E-03  1.993333E-03  1.993333E-03  8.568858E-19  1.426756E-18 -2.715903E-20
         8   2 -6.644444E-03  1.993333E-03  1.993333E-03  1.853087E-18 -4.714109E-19  3.938059E-19
         8   3 -6.644444E-03  1.993333E-03  1.993333E-03  1.181855E-18  1.882358E-19 -2.444313E-19
         8   4 -6.644444E-03  1.993333E-03  1.993333E-03  1.370326E-18 -1.348564E-19  9.098275E-19
         8   5 -6.644444E-03  1.993333E-03  1.993333E-03  5.356710E-19  1.318120E-18 -5.431806E-20
         8   6 -6.644444E-03  1.993333E-03  1.993333E-03 -9.720929E-19 -1.761817E-19  4.345445E-19
         8   7 -6.644444E-03  1.993333E-03  1.993333E-03  4.307897E-19 -1.086361E-19 -4.345445E-19
         8   8 -6.644444E-03  1.993333E-03  1.993333E-03 -6.461845E-19  5.913971E-19  8.962480E-19
         9   1 -6.644444E-03  1.993333E-03  1.993333E-03  1.723159E-18  1.197312E-18  1.086361E-19
         9   2 -6.644444E-03  1.993333E-03  1.993333E-03  7.000332E-19 -7.412411E-19  4.209650E-19
         9   3 -6.644444E-03  1.993333E-03  1.993333E-03  1.723159E-18 -5.431806E-20  0.000000E+00
         9   4 -6.644444E-03  1.993333E-03  1.993333E-03  7.538819E-19  4.841690E-19  5.431806E-19
         9   5 -6.644444E-03  1.993333E-03  1.993333E-03 -8.615793E-19  2.668968E-19  4.345445E-19
         9   6 -6.644444E-03  1.993333E-03  1.993333E-03 -2.153948E-19 -4.869851E-19  6.653962E-19
         9   7 -6.644444E-03  1.993333E-03  1.993333E-03 -8.615793E-19 -2.172722E-19  4.345445E-19
         9   8 -6.644444E-03  1.993333E-03  1.993333E-03 -2.153948E-19 -1.877408E-21  7.061348E-19

 displacements (vx,vy,vz) for set NALL and time  0.1000000E+00

         1  0.000000E+00  0.000000E+00  0.000000E+00
         2 -6.666667E+00  0.000000E+00  0.000000E+00
         3 -1.333333E+01  0.000000E+00  0.000000E+00
         4 -2.000000E+01  0.000000E+00  0.000000E+00
         5  0.000000E+00  1.982735E+00  0.000000E+00
         6 -6.666667E+00  1.982735E+00  0.000000E+00
         7 -1.333333E+01  1.982735E+00  0.000000E+00
         8 -2.000000E+01  1.982735E+00  0.000000E+00
         9  0.000000E+00  3.965471E+00  0.000000E+00
        10 -6.666667E+00  3.965471E+00  0.000000E+00
        11 -1.333333E+01  3.965471E+00  0.000000E+00
        12 -2.000000E+01  3.965471E+00  0.000000E+00
        13  0.000000E+00  5.948206E+00  0.000000E+00
        14 -6.666667E+00  5.948206E+00  0.000000E+00
        15 -1.333333E+01  5.948206E+00  0.000000E+00
        16 -2.000000E+01  5.948206E+00  0.000000E+00
        17  0.000000E+00  0.000000E+00  2.775830E+00
        18 -6.666667E+00  0.000000E+00  2.775830E+00
        19 -1.333333E+01  0.000000E+00  2.775830E+00
        20 -2.000000E+01  0.000000E+00  2.775830E+00
        21  0.000000E+00  1.982735E+00  2.775830E+00
        22 -6.666667E+00  1.982735E+00  2.775830E+00
        23 -1.333333E+01  1.982735E+00  2.775830E+00
        24 -2.000000E+01  1.982735E+00  2.775830E+00
        25  0.000000E+00  3.965471E+00  2.775830E+00
        26 -6.666667E+00  3.965471E+00  2.775830E+00
        27 -1.333333E+01  3.965471E+00  2.775830E+00
        28 -2.000000E+01  3.965471E+00  2.775830E+00
        29  0.000000E+00  5.948206E+00  2.775830E+00
        30 -6.666667E+00  5.948206E+00  2.775830E+00
        31 -1.333333E+01  5.948206E+00  2.775830E+00
        32 -2.000000E+01  5.948206E+00  2.775830E+00

 stresses (elem, integ.pnt.,sxx,syy,szz,sxy,sxz,syz) for set EALL and time  0.1000000E+00

         1   1 -2.722613E+03 -4.608926E-13 -4.608926E-13 -2.596668E-14  3.442452E-14 -4.455275E-15
         1   2 -2.722613E+03 -2.304463E-13 -2.304463E-13  8.457842E-15  1.204858E-13 -1.113819E-14
         1   3 -2.722613E+03 -2.304463E-13 -2.304463E-13 -5.931509E-16  2.596668E-14 -8.910551E-15
         1   4 -2.722613E+03  2.304463E-13  2.304463E-13  3.383137E-14  1.292402E-13 -7.128440E-14
         1   5 -2.722613E+03 -2.304463E-13  1.168100E-32 -3.442452E-14  1.750884E-14  2.227638E-14
         1   6 -2.722613E+03 -2.304463E-13 -4.106166E-32 -4.232022E-32  1.035701E-13 -2.004874E-14
         1   7 -2.722613E+03 -4.608926E-13 -4.608926E-13 -3.442452E-14 -3.323822E-14  6.105458E-32
         1   8 -2.722613E+03 -4.608926E-13 -4.608926E-13 -6.067494E-32  1.186302E-15 -8.019496E-14
         2   1 -2.722613E+03 -4.608926E-13 -4.608926E-13  2.385222E-14  2.412682E-13  1.002670E-31
         2   2 -2.722613E+03 -6.913389E-13 -6.913389E-13 -1.966173E-15  2.498743E-13 -1.782110E-14
         2   3 -2.722613E+03 -6.913389E-13 -6.913389E-13  2.655983E-14 -2.375765E-32 -7.128440E-14
         2   4 -2.722613E+03 -6.913389E-13 -6.913389E-13  1.556518E-13  2.409716E-13 -4.009748E-14
         2   5 -2.722613E+03 -4.608926E-13 -4.608926E-13 -8.457842E-15  2.077334E-13 -4.900803E-14
         2   6 -2.722613E+03 -4.608926E-13 -4.608926E-13  6.039120E-14 -2.053608E-13  4.678039E-14
         2   7 -2.722613E+03 -6.913389E-13 -6.913389E-13 -1.715294E-13 -6.884904E-14 -3.564220E-14
         2   8 -2.722613E+03 -6.913389E-13 -6.913389E-13  5.931509E-16  1.376981E-13  2.673165E-14
         3   1 -2.722613E+03 -2.304463E-13 -2.304463E-13  2.023182E-13  2.240560E-13 -4.455275E-15
         3   2 -2.722613E+03 -2.304463E-13 -4.608926E-13  1.678937E-13 -4.300099E-13  4.455275E-15
         3   3 -2.722613E+03 -2.304463E-13 -2.304463E-13  1.896314E-13  2.331069E-13 -8.910551E-15
         3   4 -2.722613E+03 -2.304463E-13 -4.608926E-13 -1.029770E-13  6.806257E-13  2.673165E-14
         3   5 -2.722613E+03 -2.304463E-13 -2.304463E-13  1.691568E-14  9.600202E-14 -8.910551E-15
         3   6 -2.722613E+03 -4.608926E-13 -4.608926E-13 -5.193336E-14 -2.568493E-13 -9.578842E-14
         3   7 -2.722613E+03 -6.913389E-13 -6.913389E-13 -2.077334E-13  2.777688E-13 -3.564220E-14
         3   8 -2.722613E+03 -4.608926E-13 -6.913389E-13 -1.186302E-15  3.679712E-14 -1.616977E-31
         4   1 -2.722613E+03 -4.608926E-13  4.248143E-33  5.074705E-14  5.193336E-14 -6.237385E-14
         4   2 -2.722613E+03 -2.304463E-13 -2.304463E-13 -8.695103E-14  1.379947E-13 -1.782110E-14
         4   3 -2.722613E+03 -4.608926E-13 -4.608926E-13  6.766274E-14  6.884904E-14 -8.910551E-14
         4   4 -2.722613E+03  3.408589E-31 -2.886804E-32 -7.003534E-14  2.065471E-13 -1.336583E-13
         4   5 -2.722613E+03 -2.304463E-13  1.807177E-31 -3.442452E-14 -7.716404E-15 -9.801606E-14
         4   6 -2.722613E+03 -2.304463E-13 -4.747367E-32  2.858357E-32  6.973877E-14  4.009748E-14
         4   7 -2.722613E+03 -4.608926E-13 -4.608926E-13 -3.442452E-14  1.365118E-13 -1.425688E-13
         4   8 -2.722613E+03 -6.913389E-13 -6.913389E-13 -4.905043E-31  2.053608E-13 -9.801606E-14
         5   1 -2.722613E+03 -4.608926E-13 -4.608926E-13  4.406866E-14  2.753962E-13 -8.019496E-14
         5   2 -2.722613E+03 -4.608926E-13 -4.608926E-13  2.161913E-13 -9.036436E-14  2.673165E-14
         5   3 -2.722613E+03  4.555401E-31 -2.309443E-32 -2.053608E-13  1.080302E-31 -5.346330E-14
         5   4 -2.722613E+03  2.304463E-13  4.608926E-13  1.302783E-13  3.614575E-13  4.900803E-14
         5   5 -2.722613E+03 -4.608926E-13 -4.608926E-13 -3.383137E-14  3.614575E-13 -4.455275E-14
         5   6 -2.722613E+03 -2.304463E-13 -2.304463E-13  3.501767E-14 -1.764257E-13  1.693005E-13
         5   7 -2.722613E+03 -4.608926E-13 -4.608926E-13  1.376981E-13 -6.884904E-14 -3.564220E-14
         5   8 -2.722613E+03 -4.608926E-13 -4.608926E-13  3.442452E-14  1.204858E-13  1.069266E-13
         6   1 -2.722613E+03 -4.608926E-13 -2.304463E-13 -2.960245E-14  2.204202E-13 -3.564220E-14
         6   2 -2.722613E+03 -2.304463E-13 -2.304463E-13  5.645885E-14 -6.401928E-13  1.247477E-13
         6   3 -2.722613E+03 -4.608926E-13 -2.304463E-13 -5.074705E-14  2.161913E-13  8.019496E-14
         6   4 -2.722613E+03 -2.304463E-13 -4.608926E-13  1.902246E-13  6.637100E-13  1.514794E-13
         6   5 -2.722613E+03  1.891661E-31  5.394111E-31  8.457842E-14 -8.279897E-14  7.128440E-14
         6   6 -2.722613E+03 -4.608926E-13 -4.608926E-13  1.572938E-14 -2.979522E-13  1.470241E-13
         6   7 -2.722613E+03 -4.608926E-13 -4.608926E-13 -2.077334E-13  2.101060E-13  1.069266E-13
         6   8 -2.722613E+03 -6.913389E-13 -9.217852E-13 -1.186302E-15  2.445305E-13  1.336583E-13
         7   1 -2.722613E+03  1.362022E-31  7.259327E-32  6.751445E-14  3.004731E-14  5.346330E-14
         7   2 -2.722613E+03  3.738154E-31 -4.608926E-13  4.169606E-14  2.452006E-13 -1.069266E-13
         7   3 -2.722613E+03  4.608926E-13  4.608926E-13  5.905661E-14  2.626325E-14 -1.603899E-13
         7   4 -2.722613E+03  2.304463E-13 -8.675168E-32  3.323822E-14  1.123246E-13 -1.202924E-13
         7   5 -2.722613E+03 -4.608926E-13 -4.608926E-13 -3.501767E-14  1.026804E-13  1.247477E-13
         7   6 -2.722613E+03 -2.304463E-13  1.447451E-31 -1.038667E-13  2.231662E-13 -8.019496E-14
         7   7 -2.722613E+03 -2.304463E-13  2.901830E-31  1.341392E-13 -4.985733E-14  3.564220E-14
         7   8 -2.722613E+03 -4.608926E-13 -4.608926E-13  6.529013E-14  1.050530E-13  2.673165E-14
         8   1 -2.722613E+03  2.304463E-13  2.304463E-13  2.372604E-15  5.423345E-13 -1.247477E-13
         8   2 -2.722613E+03 -2.304463E-13  5.476666E-32  1.400707E-13 -2.136704E-14 -5.791858E-14
         8   3 -2.722613E+03  4.608926E-13  4.608926E-13 -6.529013E-14 -1.026804E-13 -8.910551E-15
         8   4 -2.722613E+03  2.304463E-13  2.304463E-13 -1.365335E-14  1.727158E-13  7.573968E-14
         8   5 -2.722613E+03 -2.304463E-13  1.903310E-31  7.003534E-14  3.620506E-13 -1.960321E-13
         8   6 -2.722613E+03  4.608926E-13  2.878228E-31 -3.323822E-14 -5.534669E-14 -1.381135E-13
         8   7 -2.722613E+03  1.210663E-31 -6.913389E-13 -6.766274E-14 -1.353255E-13 -7.128440E-14
         8   8 -2.722613E+03 -4.608926E-13 -6.913389E-13 -6.766274E-14  3.466178E-13  4.455275E-14
         9   1 -2.722613E+03 -4.608926E-13 -2.304463E-13  1.784435E-31  3.538893E-13  6.875283E-32
         9   2 -2.722613E+03  6.033420E-31 -2.304463E-13  8.606130E-14 -2.657520E-13  1.470241E-13
         9   3 -2.722613E+03 -4.608926E-13 -6.913389E-13  1.353255E-13  2.500226E-13  1.069266E-13
         9   4 -2.722613E+03  2.890475E-30 -4.608926E-13  3.762971E-13  1.467491E-13  2.405849E-13
         9   5 -2.722613E+03 -3.692093E-31 -2.304463E-13 -1.739021E-13  2.529884E-13 -1.960321E-13
         9   6 -2.722613E+03 -2.304463E-13 -4.608926E-13  3.264507E-14 -2.633794E-13  6.237385E-14
         9   7 -2.722613E+03 -1.844629E-31 -6.913389E-13 -4.745207E-15  1.739021E-13 -1.069266E-13
         9   8 -2.722613E+03  1.695360E-30 -6.913389E-13  2.018019E-13 -3.264507E-14  6.237385E-14

 strains (elem, integ.pnt.,exx,eyy,ezz,exy,exz,eyz) forset EALL and time  0.1000000E+00

         1   1 -1.324444E-02  3.973333E-03  3.973333E-03 -1.595242E-19  2.139492E-19 -2.721254E-20
         1   2 -1.324444E-02  3.973333E-03  3.973333E-03  5.442508E-20  7.488223E-19 -6.803135E-20
         1   3 -1.324444E-02  3.973333E-03  3.973333E-03  3.751080E-21  1.595242E-19 -5.442508E-20
         1   4 -1.324444E-02  3.973333E-03  3.973333E-03  2.177003E-19  8.013718E-19 -4.354006E-19
         1   5 -1.324444E-02  3.973333E-03  3.973333E-03 -2.139492E-19  1.050991E-19  1.360627E-19
         1   6 -1.324444E-02  3.973333E-03  3.973333E-03  1.175494E-38  6.399721E-19 -1.224564E-19
         1   7 -1.324444E-02  3.973333E-03  3.973333E-03 -2.139492E-19 -2.214514E-19  1.880791E-37
         1   8 -1.324444E-02  3.973333E-03  3.973333E-03  4.701977E-38 -7.502160E-21 -4.898257E-19
         2   1 -1.324444E-02  3.973333E-03  3.973333E-03  1.459179E-19  1.495769E-18  8.463559E-37
         2   2 -1.324444E-02  3.973333E-03  3.973333E-03 -1.454404E-20  1.549256E-18 -1.088502E-19
         2   3 -1.324444E-02  3.973333E-03  3.973333E-03  1.557731E-19  2.350989E-37 -4.354006E-19
         2   4 -1.324444E-02  3.973333E-03  3.973333E-03  9.580827E-19  1.497645E-18 -2.449128E-19
         2   5 -1.324444E-02  3.973333E-03  3.973333E-03 -5.442508E-20  1.276193E-18 -2.993379E-19
         2   6 -1.324444E-02  3.973333E-03  3.973333E-03  3.734734E-19 -1.291198E-18  2.857317E-19
         2   7 -1.324444E-02  3.973333E-03  3.973333E-03 -1.073497E-18 -4.278985E-19 -2.177003E-19
         2   8 -1.324444E-02  3.973333E-03  3.973333E-03 -3.751080E-21  8.557969E-19  1.632752E-19
         3   1 -1.324444E-02  3.973333E-03  3.973333E-03  1.256483E-18  1.388794E-18 -2.721254E-20
         3   2 -1.324444E-02  3.973333E-03  3.973333E-03  1.042534E-18 -2.676241E-18  2.721254E-20
         3   3 -1.324444E-02  3.973333E-03  3.973333E-03  1.174845E-18  1.439468E-18 -5.442508E-20
         3   4 -1.324444E-02  3.973333E-03  3.973333E-03 -6.437232E-19  4.220808E-18  1.632752E-19
         3   5 -1.324444E-02  3.973333E-03  3.973333E-03  1.088502E-19  5.799204E-19 -5.442508E-20
         3   6 -1.324444E-02  3.973333E-03  3.973333E-03 -3.190483E-19 -1.613059E-18 -5.850696E-19
         3   7 -1.324444E-02  3.973333E-03  3.973333E-03 -1.276193E-18  1.696590E-18 -2.177003E-19
         3   8 -1.324444E-02  3.973333E-03  3.973333E-03  7.502160E-21  1.989449E-19 -5.642373E-37
         4   1 -1.324444E-02  3.973333E-03  3.973333E-03  3.265505E-19  3.190483E-19 -3.809755E-19
         4   2 -1.324444E-02  3.973333E-03  3.973333E-03 -5.292465E-19  8.539214E-19 -1.088502E-19
         4   3 -1.324444E-02  3.973333E-03  3.973333E-03  4.354006E-19  4.278985E-19 -5.442508E-19
         4   4 -1.324444E-02  3.973333E-03  3.973333E-03 -4.203963E-19  1.283695E-18 -8.163762E-19
         4   5 -1.324444E-02  3.973333E-03  3.973333E-03 -2.139492E-19 -5.911393E-20 -5.986758E-19
         4   6 -1.324444E-02  3.973333E-03  3.973333E-03 -1.763242E-37  4.222718E-19  2.449128E-19
         4   7 -1.324444E-02  3.973333E-03  3.973333E-03 -2.139492E-19  8.632991E-19 -8.708012E-19
         4   8 -1.324444E-02  3.973333E-03  3.973333E-03  2.350989E-37  1.291198E-18 -5.986758E-19
         5   1 -1.324444E-02  3.973333E-03  3.973333E-03  2.608721E-19  1.711594E-18 -4.898257E-19
         5   2 -1.324444E-02  3.973333E-03  3.973333E-03  1.330618E-18 -5.616167E-19  1.632752E-19
         5   3 -1.324444E-02  3.973333E-03  3.973333E-03 -1.291198E-18  3.761582E-37 -3.265505E-19
         5   4 -1.324444E-02  3.973333E-03  3.973333E-03  7.948074E-19  2.246467E-18  2.993379E-19
         5   5 -1.324444E-02  3.973333E-03  3.973333E-03 -2.177003E-19  2.246467E-18 -2.721254E-19
         5   6 -1.324444E-02  3.973333E-03  3.973333E-03  2.101981E-19 -1.096490E-18  1.034076E-18
         5   7 -1.324444E-02  3.973333E-03  3.973333E-03  8.557969E-19 -4.278985E-19 -2.177003E-19
         5   8 -1.324444E-02  3.973333E-03  3.973333E-03  2.139492E-19  7.488223E-19  6.531009E-19
         6   1 -1.324444E-02  3.973333E-03  3.973333E-03 -1.904878E-19  1.357831E-18 -2.177003E-19
         6   2 -1.324444E-02  3.973333E-03  3.973333E-03  3.443853E-19 -3.990900E-18  7.619511E-19
         6   3 -1.324444E-02  3.973333E-03  3.973333E-03 -3.265505E-19  1.330618E-18  4.898257E-19
         6   4 -1.324444E-02  3.973333E-03  3.973333E-03  1.171094E-18  4.111958E-18  9.252263E-19
         6   5 -1.324444E-02  3.973333E-03  3.973333E-03  5.442508E-19 -5.555040E-19  4.354006E-19
         6   6 -1.324444E-02  3.973333E-03  3.973333E-03  1.163523E-19 -1.892687E-18  8.980138E-19
         6   7 -1.324444E-02  3.973333E-03  3.973333E-03 -1.276193E-18  1.261189E-18  6.531009E-19
         6   8 -1.324444E-02  3.973333E-03  3.973333E-03  7.502160E-21  1.475138E-18  8.163762E-19
         7   1 -1.324444E-02  3.973333E-03  3.973333E-03  4.363384E-19  1.876745E-19  3.265505E-19
         7   2 -1.324444E-02  3.973333E-03  3.973333E-03  2.758765E-19  1.524857E-18 -6.531009E-19
         7   3 -1.324444E-02  3.973333E-03  3.973333E-03  3.819133E-19  1.576486E-19 -9.796514E-19
         7   4 -1.324444E-02  3.973333E-03  3.973333E-03  2.214514E-19  6.925217E-19 -7.347385E-19
         7   5 -1.324444E-02  3.973333E-03  3.973333E-03 -2.101981E-19  6.455988E-19  7.619511E-19
         7   6 -1.324444E-02  3.973333E-03  3.973333E-03 -6.380966E-19  1.394421E-18 -4.898257E-19
         7   7 -1.324444E-02  3.973333E-03  3.973333E-03  8.783034E-19 -3.321771E-19  2.177003E-19
         7   8 -1.324444E-02  3.973333E-03  3.973333E-03  4.504049E-19  6.305944E-19  1.632752E-19
         8   1 -1.324444E-02  3.973333E-03  3.973333E-03 -1.500432E-20  3.368763E-18 -7.619511E-19
         8   2 -1.324444E-02  3.973333E-03  3.973333E-03  8.407926E-19 -1.346560E-19 -3.537630E-19
         8   3 -1.324444E-02  3.973333E-03  3.973333E-03 -4.504049E-19 -6.455988E-19 -5.442508E-20
         8   4 -1.324444E-02  3.973333E-03  3.973333E-03 -1.294811E-19  1.065995E-18  4.626132E-19
         8   5 -1.324444E-02  3.973333E-03  3.973333E-03  4.203963E-19  2.242716E-18 -1.197352E-18
         8   6 -1.324444E-02  3.973333E-03  3.973333E-03 -2.214514E-19 -3.514186E-19 -8.435887E-19
         8   7 -1.324444E-02  3.973333E-03  3.973333E-03 -4.354006E-19 -8.708012E-19 -4.354006E-19
         8   8 -1.324444E-02  3.973333E-03  3.973333E-03 -4.354006E-19  2.124488E-18  2.721254E-19
         9   1 -1.324444E-02  3.973333E-03  3.973333E-03  1.645692E-37  2.186415E-18 -1.880791E-37
         9   2 -1.324444E-02  3.973333E-03  3.973333E-03  5.348731E-19 -1.664671E-18  8.980138E-19
         9   3 -1.324444E-02  3.973333E-03  3.973333E-03  8.708012E-19  1.548319E-18  6.531009E-19
         9   4 -1.324444E-02  3.973333E-03  3.973333E-03  2.368446E-18  9.064709E-19  1.469477E-18
         9   5 -1.324444E-02  3.973333E-03  3.973333E-03 -1.058493E-18  1.529563E-18 -1.197352E-18
         9   6 -1.324444E-02  3.973333E-03  3.973333E-03  2.252025E-19 -1.679675E-18  3.809755E-19
         9   7 -1.324444E-02  3.973333E-03  3.973333E-03  3.000864E-20  1.058493E-18 -6.531009E-19
         9   8 -1.324444E-02  3.973333E-03  3.973333E-03  1.313704E-18 -2.252025E-19  3.809755E-19

 displacements (vx,vy,vz) for set NALL and time  0.1500000E+00

         1  0.000000E+00  0.000000E+00  0.000000E+00
         2 -1.000000E+01  0.000000E+00  0.000000E+00
         3 -2.000000E+01  0.000000E+00  0.000000E+00
         4 -3.000000E+01  0.000000E+00  0.000000E+00
         5  0.000000E+00  2.961231E+00  0.000000E+00
         6 -1.000000E+01  2.961231E+00  0.000000E+00
         7 -2.000000E+01  2.961231E+00  0.000000E+00
         8 -3.000000E+01  2.961231E+00  0.000000E+00
         9  0.000000E+00  5.922462E+00  0.000000E+00
        10 -1.000000E+01  5.922462E+00  0.000000E+00
        11 -2.000000E+01  5.922462E+00  0.000000E+00
        12 -3.000000E+01  5.922462E+00  0.000000E+00
        13  0.000000E+00  8.883693E+00  0.000000E+00
        14 -1.000000E+01  8.883693E+00  0.000000E+00
        15 -2.000000E+01  8.883693E+00  0.000000E+00
        16 -3.000000E+01  8.883693E+00  0.000000E+00
        17  0.000000E+00  0.000000E+00  4.145724E+00
        18 -1.000000E+01  0.000000E+00  4.145724E+00
        19 -2.000000E+01  0.000000E+00  4.145724E+00
        20 -3.000000E+01  0.000000E+00  4.145724E+00
        21  0.000000E+00  2.961231E+00  4.145724E+00
        22 -1.000000E+01  2.961231E+00  4.145724E+00
        23 -2.000000E+01  2.961231E+00  4.145724E+00
        24 -3.000000E+01  2.961231E+00  4.145724E+00
        25  0.000000E+00  5.922462E+00  4.145724E+00
        26 -1.000000E+01  5.922462E+00  4.145724E+00
        27 -2.000000E+01  5.922462E+00  4.145724E+00
        28 -3.000000E+01  5.922462E+00  4.145724E+00
        29  0.000000E+00  8.883693E+00  4.145724E+00
        30 -1.000000E+01  8.883693E+00  4.145724E+00
        31 -2.000000E+01  8.883693E+00  4.145724E+00
        32 -3.000000E+01  8.883693E+00  4.145724E+00

 stresses (elem, integ.pnt.,sxx,syy,szz,sxy,sxz,syz) for set EALL and time  0.1500000E+00

         1   1 -4.026999E+03 -6.960419E-13 -4.640279E-13 -3.040936E-14  3.040936E-14 -3.595461E-14
         1   2 -4.026999E+03 -4.640279E-13 -4.640279E-13 -1.498483E-13  1.498483E-13 -4.494327E-15
         1   3 -4.026999E+03 -2.320140E-13  1.570333E-32 -1.794211E-14  1.750240E-14 -5.393192E-14
         1   4 -4.026999E+03 -3.264015E-32 -5.915020E-32 -1.373810E-13  1.198786E-13 -5.842625E-14
         1   5 -4.026999E+03 -1.489926E-32  7.557216E-32 -5.162781E-14 -3.192689E-14 -1.797731E-14
         1   6 -4.026999E+03 -1.190721E-31 -1.654537E-31 -2.563802E-13  8.751202E-14  2.696596E-14
         1   7 -4.026999E+03  9.381536E-32  6.044744E-32 -3.500481E-14 -3.236659E-14 -7.190923E-14
         1   8 -4.026999E+03 -2.915340E-31 -3.856479E-31 -3.762588E-13  2.065112E-13 -2.696596E-14
         2   1 -4.026999E+03 -2.320140E-13 -2.320140E-13 -2.730032E-13  4.528211E-13 -8.988654E-15
         2   2 -4.026999E+03  2.320140E-13 -2.320140E-13 -1.620957E-13 -1.955615E-13 -6.741490E-15
         2   3 -4.026999E+03  4.640279E-13  2.320140E-13 -1.365016E-13 -1.697476E-13 -3.595461E-14
         2   4 -4.026999E+03  6.960419E-13  2.320140E-13 -1.876897E-13  6.492621E-13 -4.044894E-14
         2   5 -4.026999E+03  1.937628E-33 -1.019291E-30 -1.365016E-13  4.628914E-13 -8.988654E-15
         2   6 -4.026999E+03 -7.266105E-33 -4.640279E-13  3.412540E-13 -4.045824E-14  2.247163E-14
         2   7 -4.026999E+03  2.320140E-13 -1.207713E-31 -1.365016E-13  7.000962E-14 -3.595461E-14
         2   8 -4.026999E+03  2.320140E-13 -2.320140E-13  2.730032E-13  7.183923E-13  3.595461E-14
         3   1 -4.026999E+03 -2.320140E-13 -2.320140E-13 -1.240344E-13 -1.922852E-13 -2.696596E-14
         3   2 -4.026999E+03  2.320140E-13  3.563991E-32  2.684078E-13 -3.629122E-13 -1.033695E-13
         3   3 -4.026999E+03 -6.960419E-13 -9.280558E-13 -1.198786E-13  5.127604E-13 -8.988654E-14
         3   4 -4.026999E+03 -2.320140E-13 -6.960419E-13  2.896262E-13  5.127604E-13 -1.662901E-13
         3   5 -4.026999E+03 -4.142841E-31 -4.640279E-13  5.127604E-13  3.324600E-14 -8.988654E-14
         3   6 -4.026999E+03 -2.320140E-13 -2.320140E-13  2.397572E-13 -6.663248E-13 -2.516823E-13
         3   7 -4.026999E+03  2.138598E-31 -4.640279E-13 -6.649199E-14  4.130225E-13 -1.078638E-13
         3   8 -4.026999E+03 -4.640279E-13 -6.960419E-13 -2.029936E-13  5.495241E-13 -3.775235E-13
         4   1 -4.026999E+03 -4.640279E-13 -2.320140E-13  1.496070E-13  3.872086E-14 -1.078638E-13
         4   2 -4.026999E+03 -2.320140E-13 -2.320140E-13  1.496070E-13  2.264106E-13  2.247163E-14
         4   3 -4.026999E+03 -2.320140E-13  9.240953E-32  1.329840E-13  5.074840E-14 -1.617958E-13
         4   4 -4.026999E+03  2.320140E-13  2.320140E-13  1.329840E-13  1.531246E-13 -2.112334E-13
         4   5 -4.026999E+03 -4.640279E-13  1.943852E-31  3.236659E-14  1.838181E-14 -1.258412E-13
         4   6 -4.026999E+03 -2.320140E-13  2.320140E-13  6.649199E-14  1.890088E-13  7.640356E-14
         4   7 -4.026999E+03 -2.320140E-13  5.532845E-31  3.236659E-14  1.006174E-13 -2.157277E-13
         4   8 -4.026999E+03 -4.640279E-13  3.328359E-31  6.649199E-14  3.394952E-13 -1.258412E-13
         5   1 -4.026999E+03  3.651638E-31 -2.612206E-31  1.789385E-13  2.780384E-13 -1.078638E-13
         5   2 -4.026999E+03  4.640279E-13  2.320140E-13  2.386580E-13 -8.880970E-14  1.033695E-13
         5   3 -4.026999E+03  2.320140E-13  4.640279E-13  3.412540E-13 -3.228722E-13 -1.977504E-13
         5   4 -4.026999E+03  4.640279E-13  2.320140E-13  2.132838E-13  8.715169E-13 -8.539221E-14
         5   5 -4.026999E+03  4.012313E-31  4.640279E-13  2.029936E-13  4.462684E-13 -1.797731E-14
         5   6 -4.026999E+03  4.640279E-13  2.320140E-13 -1.382604E-13  9.648308E-14  6.741490E-14
         5   7 -4.026999E+03 -2.320140E-13 -1.238435E-31  3.359776E-13  3.517625E-15 -7.190923E-14
         5   8 -4.026999E+03 -3.620670E-31 -2.320140E-13 -7.352724E-14  9.249035E-13 -1.139184E-30
         6   1 -4.026999E+03  4.640279E-13  4.640279E-13 -3.324600E-14  7.175129E-13 -1.078638E-13
         6   2 -4.026999E+03  6.960419E-13  6.960419E-13  6.913021E-14 -9.887573E-13 -8.943335E-31
         6   3 -4.026999E+03 -9.280558E-13 -9.280558E-13 -9.973799E-14  5.460064E-13 -7.248751E-31
         6   4 -4.026999E+03 -2.320140E-13 -6.960419E-13  1.562025E-13  5.460064E-13  4.494327E-14
         6   5 -4.026999E+03  5.531694E-31 -4.640279E-13 -1.329840E-13  2.765208E-13 -5.393192E-14
         6   6 -4.026999E+03 -4.640279E-13 -4.640279E-13  1.400192E-13 -1.020244E-12  4.943760E-14
         6   7 -4.026999E+03  6.074230E-31 -4.640279E-13 -1.329840E-13  4.795144E-13  7.190923E-14
         6   8 -4.026999E+03 -2.320140E-13 -4.640279E-13 -2.694856E-13  6.160161E-13 -1.997650E-30
         7   1 -4.026999E+03 -4.640279E-13 -4.640279E-13  1.565994E-13  5.490415E-14 -1.438185E-13
         7   2 -4.026999E+03 -6.960419E-13 -2.320140E-13 -1.334665E-13  1.231550E-13 -1.842674E-13
         7   3 -4.026999E+03 -4.640279E-13 -6.960419E-13  1.530389E-14  5.074840E-14 -2.876369E-13
         7   4 -4.026999E+03 -9.280558E-13 -6.960419E-13 -2.747620E-13  1.662300E-14  1.842674E-13
         7   5 -4.026999E+03  2.320140E-13  2.320140E-13 -3.676362E-14  1.087090E-13 -1.438185E-13
         7   6 -4.026999E+03 -2.320140E-13 -2.320140E-13 -1.732652E-13  1.172404E-13 -1.617958E-13
         7   7 -4.026999E+03  6.170100E-31  1.812600E-31  3.060778E-14  1.006174E-13 -1.438185E-13
         7   8 -4.026999E+03 -2.320140E-13 -2.320140E-13 -1.400192E-13  6.649199E-14  1.258412E-13
         8   1 -4.026999E+03 -4.640279E-13 -3.926304E-31 -1.448131E-13  4.445096E-13 -2.157277E-13
         8   2 -4.026999E+03 -6.960419E-13 -6.960419E-13 -5.949960E-14  3.336021E-13 -1.213468E-13
         8   3 -4.026999E+03 -2.320140E-13  2.320140E-13 -1.697476E-13  1.198786E-13  1.797731E-14
         8   4 -4.026999E+03 -6.960419E-13 -2.320140E-13 -1.782790E-13  1.143641E-12  4.044894E-14
         8   5 -4.026999E+03  6.960419E-13  6.960419E-13  1.662300E-13  3.106462E-13 -1.078638E-13
         8   6 -4.026999E+03 -1.892722E-31  4.640279E-13 -1.067732E-13  2.850522E-13  3.056142E-13
         8   7 -4.026999E+03  1.160070E-12  1.160070E-12 -1.329840E-13  2.065112E-13 -7.190923E-14
         8   8 -4.026999E+03  1.198703E-30  4.640279E-13 -4.401126E-13  6.160161E-13  2.157277E-13
         9   1 -4.026999E+03  4.640279E-13  6.960419E-13 -3.294249E-13  5.210719E-13  5.393192E-14
         9   2 -4.026999E+03  2.320140E-13  2.320140E-13 -1.587979E-13 -4.685647E-13  7.190923E-14
         9   3 -4.026999E+03  8.155772E-31  2.320140E-13 -3.044904E-13  1.008898E-12  1.797731E-14
         9   4 -4.026999E+03 -4.640279E-13 -4.640279E-13  1.970092E-14  1.898882E-13  2.022447E-13
         9   5 -4.026999E+03 -4.640279E-13 -4.640279E-13 -3.727412E-13  5.311423E-13  3.595461E-14
         9   6 -4.026999E+03 -6.960419E-13 -6.960419E-13  1.732652E-13 -8.338738E-13 -1.528071E-13
         9   7 -4.026999E+03 -4.640279E-13 -4.640279E-13 -2.730032E-13  4.865497E-13 -7.190923E-14
         9   8 -4.026999E+03 -6.960419E-13 -6.960419E-13 -1.365016E-13  4.865497E-13  1.258412E-13

 strains (elem, integ.pnt.,exx,eyy,ezz,exy,exz,eyz) forset EALL and time  0.1500000E+00

         1   1 -1.980000E-02  5.940000E-03  5.940000E-03 -1.824275E-19  1.824275E-19 -2.181247E-19
         1   2 -1.980000E-02  5.940000E-03  5.940000E-03 -9.261902E-19  9.261902E-19 -2.726558E-20
         1   3 -1.980000E-02  5.940000E-03  5.940000E-03 -1.006308E-19  1.034413E-19 -3.271870E-19
         1   4 -1.980000E-02  5.940000E-03  5.940000E-03 -8.443935E-19  7.409522E-19 -3.544526E-19
         1   5 -1.980000E-02  5.940000E-03  5.940000E-03 -3.159449E-19 -2.265562E-19 -1.090623E-19
         1   6 -1.980000E-02  5.940000E-03  5.940000E-03 -1.590967E-18  5.172065E-19  1.635935E-19
         1   7 -1.980000E-02  5.940000E-03  5.940000E-03 -2.068826E-19 -2.237457E-19 -4.362493E-19
         1   8 -1.980000E-02  5.940000E-03  5.940000E-03 -2.331919E-18  1.263780E-18 -1.635935E-19
         2   1 -1.980000E-02  5.940000E-03  5.940000E-03 -1.700029E-18  2.811457E-18 -5.453117E-20
         2   2 -1.980000E-02  5.940000E-03  5.940000E-03 -1.009392E-18 -1.226112E-18 -4.089837E-20
         2   3 -1.980000E-02  5.940000E-03  5.940000E-03 -8.500145E-19 -1.068139E-18 -2.181247E-19
         2   4 -1.980000E-02  5.940000E-03  5.940000E-03 -1.168770E-18  4.031948E-18 -2.453902E-19
         2   5 -1.980000E-02  5.940000E-03  5.940000E-03 -8.500145E-19  2.854746E-18 -5.453117E-20
         2   6 -1.980000E-02  5.940000E-03  5.940000E-03  2.125036E-18 -2.796821E-19  1.363279E-19
         2   7 -1.980000E-02  5.940000E-03  5.940000E-03 -8.500145E-19  4.137652E-19 -2.181247E-19
         2   8 -1.980000E-02  5.940000E-03  5.940000E-03  1.700029E-18  4.451334E-18  2.181247E-19
         3   1 -1.980000E-02  5.940000E-03  5.940000E-03 -7.682178E-19 -1.193225E-18 -1.635935E-19
         3   2 -1.980000E-02  5.940000E-03  5.940000E-03  1.675574E-18 -2.255743E-18 -6.271084E-19
         3   3 -1.980000E-02  5.940000E-03  5.940000E-03 -7.409522E-19  3.181933E-18 -5.453117E-19
         3   4 -1.980000E-02  5.940000E-03  5.940000E-03  1.809091E-18  3.181933E-18 -1.008827E-18
         3   5 -1.980000E-02  5.940000E-03  5.940000E-03  3.181933E-18  2.181247E-19 -5.453117E-19
         3   6 -1.980000E-02  5.940000E-03  5.940000E-03  1.481904E-18 -4.138200E-18 -1.526873E-18
         3   7 -1.980000E-02  5.940000E-03  5.940000E-03 -4.362493E-19  2.527559E-18 -6.543740E-19
         3   8 -1.980000E-02  5.940000E-03  5.940000E-03 -1.286264E-18  3.377574E-18 -2.290309E-18
         4   1 -1.980000E-02  5.940000E-03  5.940000E-03  9.815610E-19  2.369587E-19 -6.543740E-19
         4   2 -1.980000E-02  5.940000E-03  5.940000E-03  9.815610E-19  1.405729E-18  1.363279E-19
         4   3 -1.980000E-02  5.940000E-03  5.940000E-03  8.724987E-19  3.215660E-19 -9.815610E-19
         4   4 -1.980000E-02  5.940000E-03  5.940000E-03  8.724987E-19  9.590768E-19 -1.281482E-18
         4   5 -1.980000E-02  5.940000E-03  5.940000E-03  2.237457E-19  9.782026E-20 -7.634363E-19
         4   6 -1.980000E-02  5.940000E-03  5.940000E-03  4.362493E-19  1.160338E-18  4.635149E-19
         4   7 -1.980000E-02  5.940000E-03  5.940000E-03  2.237457E-19  6.487530E-19 -1.308748E-18
         4   8 -1.980000E-02  5.940000E-03  5.940000E-03  4.362493E-19  2.136278E-18 -7.634363E-19
         5   1 -1.980000E-02  5.940000E-03  5.940000E-03  1.117049E-18  1.721674E-18 -6.543740E-19
         5   2 -1.980000E-02  5.940000E-03  5.940000E-03  1.488931E-18 -5.627404E-19  6.271084E-19
         5   3 -1.980000E-02  5.940000E-03  5.940000E-03  2.125036E-18 -2.027216E-18 -1.199686E-18
         5   4 -1.980000E-02  5.940000E-03  5.940000E-03  1.328148E-18  5.410411E-18 -5.180461E-19
         5   5 -1.980000E-02  5.940000E-03  5.940000E-03  1.286264E-18  2.745684E-18 -1.090623E-19
         5   6 -1.980000E-02  5.940000E-03  5.940000E-03 -8.387724E-19  5.675219E-19  4.089837E-19
         5   7 -1.980000E-02  5.940000E-03  5.940000E-03  2.158762E-18 -2.248415E-20 -4.362493E-19
         5   8 -1.980000E-02  5.940000E-03  5.940000E-03 -3.912810E-19  5.715114E-18 -2.369797E-35
         6   1 -1.980000E-02  5.940000E-03  5.940000E-03 -2.181247E-19  4.456955E-18 -6.543740E-19
         6   2 -1.980000E-02  5.940000E-03  5.940000E-03  4.193862E-19 -6.168226E-18 -7.899322E-36
         6   3 -1.980000E-02  5.940000E-03  5.940000E-03 -6.543740E-19  3.400058E-18  0.000000E+00
         6   4 -1.980000E-02  5.940000E-03  5.940000E-03  9.394032E-19  3.400058E-18  2.726558E-19
         6   5 -1.980000E-02  5.940000E-03  5.940000E-03 -8.724987E-19  1.677545E-18 -3.271870E-19
         6   6 -1.980000E-02  5.940000E-03  5.940000E-03  8.275304E-19 -6.397593E-18  2.999214E-19
         6   7 -1.980000E-02  5.940000E-03  5.940000E-03 -8.724987E-19  2.963809E-18  4.362493E-19
         6   8 -1.980000E-02  5.940000E-03  5.940000E-03 -1.722513E-18  3.813823E-18 -7.899322E-36
         7   1 -1.980000E-02  5.940000E-03  5.940000E-03  1.044524E-18  3.488315E-19 -8.724987E-19
         7   2 -1.980000E-02  5.940000E-03  5.940000E-03 -7.617571E-19  7.738388E-19 -1.117889E-18
         7   3 -1.980000E-02  5.940000E-03  5.940000E-03  1.174939E-19  3.215660E-19 -1.744997E-18
         7   4 -1.980000E-02  5.940000E-03  5.940000E-03 -1.688787E-18  1.090623E-19  1.117889E-18
         7   5 -1.980000E-02  5.940000E-03  5.940000E-03 -1.956405E-19  7.046894E-19 -8.724987E-19
         7   6 -1.980000E-02  5.940000E-03  5.940000E-03 -1.045655E-18  7.578153E-19 -9.815610E-19
         7   7 -1.980000E-02  5.940000E-03  5.940000E-03  2.349878E-19  6.487530E-19 -8.724987E-19
         7   8 -1.980000E-02  5.940000E-03  5.940000E-03 -8.275304E-19  4.362493E-19  7.634363E-19
         8   1 -1.980000E-02  5.940000E-03  5.940000E-03 -9.045457E-19  2.756926E-18 -1.308748E-18
         8   2 -1.980000E-02  5.940000E-03  5.940000E-03 -3.732866E-19  2.066289E-18 -7.361707E-19
         8   3 -1.980000E-02  5.940000E-03  5.940000E-03 -1.068139E-18  7.409522E-19  1.090623E-19
         8   4 -1.980000E-02  5.940000E-03  5.940000E-03 -1.121265E-18  7.116061E-18  2.453902E-19
         8   5 -1.980000E-02  5.940000E-03  5.940000E-03  1.090623E-18  1.890048E-18 -6.543740E-19
         8   6 -1.980000E-02  5.940000E-03  5.940000E-03 -6.094057E-19  1.730671E-18  1.854060E-18
         8   7 -1.980000E-02  5.940000E-03  5.940000E-03 -8.724987E-19  1.263780E-18 -4.362493E-19
         8   8 -1.980000E-02  5.940000E-03  5.940000E-03 -2.785031E-18  3.813823E-18  1.308748E-18
         9   1 -1.980000E-02  5.940000E-03  5.940000E-03 -2.092989E-18  3.236465E-18  3.271870E-19
         9   2 -1.980000E-02  5.940000E-03  5.940000E-03 -1.030471E-18 -2.926141E-18  4.362493E-19
         9   3 -1.980000E-02  5.940000E-03  5.940000E-03 -1.929396E-18  6.254804E-18  1.090623E-19
         9   4 -1.980000E-02  5.940000E-03  5.940000E-03  8.938870E-20  1.154717E-18  1.226951E-18
         9   5 -1.980000E-02  5.940000E-03  5.940000E-03 -2.354403E-18  3.279754E-18  2.181247E-19
         9   6 -1.980000E-02  5.940000E-03  5.940000E-03  1.045655E-18 -5.220391E-18 -9.270298E-19
         9   7 -1.980000E-02  5.940000E-03  5.940000E-03 -1.700029E-18  2.918840E-18 -4.362493E-19
         9   8 -1.980000E-02  5.940000E-03  5.940000E-03 -8.500145E-19  2.918840E-18  7.634363E-19

 displacements (vx,vy,vz) for set NALL and time  0.2000000E+00

         1  0.000000E+00  0.000000E+00  0.000000E+00
         2 -1.333333E+01  0.000000E+00  0.000000E+00
         3 -2.666667E+01  0.000000E+00  0.000000E+00
         4 -4.000000E+01  0.000000E+00  0.000000E+00
         5  0.000000E+00  3.931212E+00  0.000000E+00
         6 -1.333333E+01  3.931212E+00  0.000000E+00
         7 -2.666667E+01  3.931212E+00  0.000000E+00
         8 -4.000000E+01  3.931212E+00  0.000000E+00
         9  0.000000E+00  7.862424E+00  0.000000E+00
        10 -1.333333E+01  7.862424E+00  0.000000E+00
        11 -2.666667E+01  7.862424E+00  0.000000E+00
        12 -4.000000E+01  7.862424E+00  0.000000E+00
        13  0.000000E+00  1.179364E+01  0.000000E+00
        14 -1.333333E+01  1.179364E+01  0.000000E+00
        15 -2.666667E+01  1.179364E+01  0.000000E+00
        16 -4.000000E+01  1.179364E+01  0.000000E+00
        17  0.000000E+00  0.000000E+00  5.503697E+00
        18 -1.333333E+01  0.000000E+00  5.503697E+00
        19 -2.666667E+01  0.000000E+00  5.503697E+00
        20 -4.000000E+01  0.000000E+00  5.503697E+00
        21  0.000000E+00  3.931212E+00  5.503697E+00
        22 -1.333333E+01  3.931212E+00  5.503697E+00
        23 -2.666667E+01  3.931212E+00  5.503697E+00
        24 -4.000000E+01  3.931212E+00  5.503697E+00
        25  0.000000E+00  7.862424E+00  5.503697E+00
        26 -1.333333E+01  7.862424E+00  5.503697E+00
        27 -2.666667E+01  7.862424E+00  5.503697E+00
        28 -4.000000E+01  7.862424E+00  5.503697E+00
        29  0.000000E+00  1.179364E+01  5.503697E+00
        30 -1.333333E+01  1.179364E+01  5.503697E+00
        31 -2.666667E+01  1.179364E+01  5.503697E+00
        32 -4.000000E+01  1.179364E+01  5.503697E+00

 stresses (elem, integ.pnt.,sxx,syy,szz,sxy,sxz,syz) for set EALL and time  0.2000000E+00

         1   1 -5.294410E+03  9.344124E-13  9.344124E-13 -5.074203E-14  2.595048E-14  6.347371E-14
         1   2 -5.294410E+03  1.401619E-12  1.401619E-12 -2.029681E-13  2.542896E-13 -4.533837E-15
         1   3 -5.294410E+03  1.401619E-12  9.344124E-13  1.459613E-14  8.630845E-14  2.163635E-31
         1   4 -5.294410E+03  1.868825E-12  1.401619E-12 -1.376299E-13  4.922447E-13 -6.347371E-14
         1   5 -5.294410E+03  9.344124E-13  9.344124E-13 -2.237236E-32 -6.718597E-15  2.085565E-13
         1   6 -5.294410E+03  9.344124E-13  9.344124E-13  5.412483E-13  2.216205E-13 -1.360151E-14
         1   7 -5.294410E+03  1.401619E-12  1.401619E-12 -1.982555E-31 -6.070240E-14  1.813535E-13
         1   8 -5.294410E+03  1.401619E-12  1.401619E-12  5.412483E-13  2.099217E-13 -7.254139E-14
         2   1 -5.294410E+03  1.401619E-12  9.344124E-13 -1.393957E-13  3.814344E-13 -9.067674E-15
         2   2 -5.294410E+03  1.868825E-12  9.344124E-13  2.974438E-14  5.759455E-13  1.813535E-14
         2   3 -5.294410E+03  2.336031E-12  1.868825E-12 -8.399058E-14  1.353121E-13 -7.254139E-14
         2   4 -5.294410E+03  2.336031E-12  2.336031E-12  5.249137E-13  7.780444E-13 -7.254139E-14
         2   5 -5.294410E+03  9.344124E-13  9.344124E-13  7.955379E-13  3.907606E-13 -1.813535E-14
         2   6 -5.294410E+03  9.344124E-13  9.344124E-13  6.602258E-13  2.300775E-13  1.858873E-13
         2   7 -5.294410E+03  1.401619E-12  1.401619E-12  4.759101E-13  2.006502E-13 -1.088121E-13
         2   8 -5.294410E+03  1.868825E-12  1.868825E-12  6.112222E-13  6.404145E-13  9.067674E-14
         3   1 -5.294410E+03  1.401619E-12  1.401619E-12  4.963283E-13  4.572577E-13  9.067674E-15
         3   2 -5.294410E+03  1.401619E-12  1.401619E-12  3.271882E-13 -8.112930E-13  1.813535E-14
         3   3 -5.294410E+03  9.344124E-13  9.344124E-13  3.615684E-13  7.628688E-13 -7.254139E-14
         3   4 -5.294410E+03  9.344124E-13  9.344124E-13 -3.488200E-13  1.439429E-12  9.974441E-14
         3   5 -5.294410E+03  1.401619E-12  9.344124E-13  5.412483E-13  3.569326E-13  1.269474E-13
         3   6 -5.294410E+03  9.344124E-13  9.344124E-13 -1.353121E-13 -3.872838E-13  8.614290E-14
         3   7 -5.294410E+03 -1.248576E-31 -4.452245E-30 -1.136010E-31  8.864821E-13  7.254139E-14
         3   8 -5.294410E+03 -4.672062E-13 -1.401619E-12  9.793069E-31  2.099217E-13  1.541505E-13
         4   1 -5.294410E+03  3.110928E-31  9.344124E-13  3.266908E-14  1.204262E-13 -1.088121E-13
         4   2 -5.294410E+03  9.344124E-13  4.672062E-13  3.032932E-13  5.517334E-13 -4.533837E-14
         4   3 -5.294410E+03  9.344124E-13  1.401619E-12  1.306763E-13  1.364710E-13 -1.450828E-13
         4   4 -5.294410E+03  1.868825E-12  1.401619E-12  4.013005E-13  3.732671E-13 -1.178798E-13
         4   5 -5.294410E+03  2.336031E-12  2.336031E-12 -2.051293E-31 -1.783791E-14 -1.813535E-14
         4   6 -5.294410E+03  1.868825E-12  1.868825E-12  1.052483E-30  3.288993E-13  1.541505E-13
         4   7 -5.294410E+03  1.868825E-12  1.868825E-12 -6.765604E-14 -2.687439E-14 -7.254139E-14
         4   8 -5.294410E+03  1.868825E-12  1.868825E-12 -9.744227E-31  3.452338E-13 -3.627069E-14
         5   1 -5.294410E+03  1.401619E-12  1.401619E-12  2.566075E-13  7.943790E-13 -1.269474E-13
         5   2 -5.294410E+03  1.868825E-12  1.868825E-12  3.411775E-13 -1.528056E-13  2.720302E-14
         5   3 -5.294410E+03  1.868825E-12  1.868825E-12  2.798957E-13  1.516466E-13 -1.269474E-13
         5   4 -5.294410E+03  1.401619E-12  1.401619E-12  2.629816E-13  7.605509E-13  9.974441E-14
         5   5 -5.294410E+03  9.344124E-13  9.344124E-13  2.052860E-13  8.072367E-13 -1.813535E-14
         5   6 -5.294410E+03  1.401619E-12  1.401619E-12 -1.012523E-12  6.302028E-14  2.538949E-13
         5   7 -5.294410E+03  4.826130E-31  0.000000E+00 -1.306763E-13  0.000000E+00  0.000000E+00
         5   8 -5.294410E+03  4.202211E-30  6.008770E-31 -1.077861E-12  8.118724E-13  1.994888E-13
         6   1 -5.294410E+03  4.672062E-13  1.401619E-12 -2.123490E-13  7.383670E-13 -7.254139E-14
         6   2 -5.294410E+03  1.401619E-12  1.401619E-12 -4.320893E-14 -1.223658E-12  1.994888E-13
         6   3 -5.294410E+03  4.672062E-13  1.401619E-12 -1.306763E-13  4.759101E-13  1.450828E-13
         6   4 -5.294410E+03  9.344124E-13  9.344124E-13  3.429159E-13  1.355439E-12  2.720302E-13
         6   5 -5.294410E+03  4.672062E-13  9.344124E-13 -5.412483E-13  2.122396E-13 -5.440604E-14
         6   6 -5.294410E+03  4.672062E-13  3.170241E-30 -1.353121E-13 -4.812348E-13  6.347371E-14
         6   7 -5.294410E+03  9.344124E-13  9.344124E-13 -1.082497E-12  4.851816E-13  1.450828E-13
         6   8 -5.294410E+03 -2.575187E-31 -9.344124E-13 -1.353121E-13  5.528377E-13 -5.440604E-14
         7   1 -5.294410E+03  4.535374E-31  1.401619E-12  1.137623E-13  6.852524E-14 -1.813535E-14
         7   2 -5.294410E+03  1.401619E-12  1.401619E-12 -1.399478E-13  3.476064E-13 -1.994888E-13
         7   3 -5.294410E+03  3.433020E-30  1.401619E-12  2.444386E-13  8.630845E-14 -2.357595E-13
         7   4 -5.294410E+03  1.401619E-12  1.401619E-12 -9.271509E-15  3.569326E-13  2.720302E-14
         7   5 -5.294410E+03  9.344124E-13  1.868825E-12 -6.765604E-14 -6.973888E-14  2.901656E-13
         7   6 -5.294410E+03  9.344124E-13  1.868825E-12 -2.706241E-13  2.262563E-13  8.160906E-14
         7   7 -5.294410E+03  9.344124E-13  1.401619E-12 -6.765604E-14  4.635755E-15  2.176242E-13
         7   8 -5.294410E+03 -4.672062E-13  4.672062E-13 -2.706241E-13  4.105720E-13 -7.254139E-14
         8   1 -5.294410E+03  9.344124E-13  9.344124E-13  9.557996E-14  9.728453E-13 -2.357595E-13
         8   2 -5.294410E+03  1.401619E-12  1.401619E-12  2.308920E-13  4.257476E-14  9.067674E-14
         8   3 -5.294410E+03  1.868825E-12  1.868825E-12 -5.374877E-14 -4.900362E-14 -1.088121E-13
         8   4 -5.294410E+03  2.336031E-12  2.336031E-12 -3.006745E-15  6.613848E-13  8.160906E-14
         8   5 -5.294410E+03  1.821826E-30 -1.447937E-30 -4.013005E-13  8.981809E-13 -7.254139E-14
         8   6 -5.294410E+03  4.672062E-13  4.672062E-13  4.635755E-15 -1.517560E-14  8.160906E-14
         8   7 -5.294410E+03  1.868825E-12  2.336031E-12  7.234799E-31 -1.960145E-13 -2.901656E-13
         8   8 -5.294410E+03  2.336031E-12  2.336031E-12  6.765604E-14  7.849980E-13  2.901656E-13
         9   1 -5.294410E+03  1.868825E-12  1.868825E-12 -1.306763E-13  8.141903E-13  1.269474E-13
         9   2 -5.294410E+03  1.401619E-12  1.401619E-12  7.229179E-14 -4.543604E-13  3.536393E-13
         9   3 -5.294410E+03  1.401619E-12  1.401619E-12 -1.306763E-13  7.955379E-13  1.813535E-14
         9   4 -5.294410E+03  1.401619E-12  1.401619E-12  3.767440E-13  3.896017E-13  4.805867E-13
         9   5 -5.294410E+03  9.344124E-13  9.344124E-13  1.539135E-30  6.858319E-13  3.627069E-14
         9   6 -5.294410E+03  9.344124E-13  9.344124E-13 -1.353121E-13 -3.797507E-13  2.357595E-13
         9   7 -5.294410E+03 -4.672062E-13 -1.401619E-12 -4.391403E-31  4.759101E-13 -7.254139E-14
         9   8 -5.294410E+03 -4.672062E-13 -4.672062E-13  1.166913E-30  1.376299E-13  4.171130E-13

 strains (elem, integ.pnt.,exx,eyy,ezz,exy,exz,eyz) forset EALL and time  0.2000000E+00

         1   1 -2.631111E-02  7.893333E-03  7.893333E-03 -3.165870E-19  1.545499E-19  3.824543E-19
         1   2 -2.631111E-02  7.893333E-03  7.893333E-03 -1.266348E-18  1.579192E-18 -2.731817E-20
         1   3 -2.631111E-02  7.893333E-03  7.893333E-03  1.205036E-19  5.164141E-19 -1.504633E-36
         1   4 -2.631111E-02  7.893333E-03  7.893333E-03 -8.292575E-19  3.049110E-18 -3.824543E-19
         1   5 -2.631111E-02  7.893333E-03  7.893333E-03 -8.463559E-37 -6.399546E-20  1.256636E-18
         1   6 -2.631111E-02  7.893333E-03  7.893333E-03  3.376928E-18  1.360646E-18 -8.195450E-20
         1   7 -2.631111E-02  7.893333E-03  7.893333E-03 -3.385424E-36 -4.670399E-19  1.092727E-18
         1   8 -2.631111E-02  7.893333E-03  7.893333E-03  3.376928E-18  1.221424E-18 -4.370907E-19
         2   1 -2.631111E-02  7.893333E-03  7.893333E-03 -8.715503E-19  2.368787E-18 -5.463633E-20
         2   2 -2.631111E-02  7.893333E-03  7.893333E-03  1.837399E-19  3.582371E-18  1.092727E-19
         2   3 -2.631111E-02  7.893333E-03  7.893333E-03 -5.313887E-19  8.442321E-19 -4.370907E-19
         2   4 -2.631111E-02  7.893333E-03  7.893333E-03  3.267656E-18  4.854335E-18 -4.370907E-19
         2   5 -2.631111E-02  7.893333E-03  7.893333E-03  4.956120E-18  2.415936E-18 -1.092727E-19
         2   6 -2.631111E-02  7.893333E-03  7.893333E-03  4.111888E-18  1.413411E-18  1.120045E-18
         2   7 -2.631111E-02  7.893333E-03  7.893333E-03  2.939838E-18  1.281323E-18 -6.556360E-19
         2   8 -2.631111E-02  7.893333E-03  7.893333E-03  3.784070E-18  4.025077E-18  5.463633E-19
         3   1 -2.631111E-02  7.893333E-03  7.893333E-03  3.076429E-18  2.845540E-18  5.463633E-20
         3   2 -2.631111E-02  7.893333E-03  7.893333E-03  2.021138E-18 -5.069136E-18  1.092727E-19
         3   3 -2.631111E-02  7.893333E-03  7.893333E-03  2.174929E-18  4.737575E-18 -4.370907E-19
         3   4 -2.631111E-02  7.893333E-03  7.893333E-03 -2.257289E-18  8.958735E-18  6.009996E-19
         3   5 -2.631111E-02  7.893333E-03  7.893333E-03  3.376928E-18  2.204878E-18  7.649086E-19
         3   6 -2.631111E-02  7.893333E-03  7.893333E-03 -8.442321E-19 -2.438398E-18  5.190451E-19
         3   7 -2.631111E-02  7.893333E-03  7.893333E-03 -2.256949E-36  5.442585E-18  4.370907E-19
         3   8 -2.631111E-02  7.893333E-03  7.893333E-03 -5.642373E-37  1.221424E-18  9.288176E-19
         4   1 -2.631111E-02  7.893333E-03  7.893333E-03  2.185453E-19  7.256003E-19 -6.556360E-19
         4   2 -2.631111E-02  7.893333E-03  7.893333E-03  1.907010E-18  3.416590E-18 -2.731817E-19
         4   3 -2.631111E-02  7.893333E-03  7.893333E-03  8.741813E-19  8.367448E-19 -8.741813E-19
         4   4 -2.631111E-02  7.893333E-03  7.893333E-03  2.562645E-18  2.314151E-18 -7.102723E-19
         4   5 -2.631111E-02  7.893333E-03  7.893333E-03 -1.222514E-36 -2.069610E-19 -1.092727E-19
         4   6 -2.631111E-02  7.893333E-03  7.893333E-03 -1.528143E-36  1.956384E-18  9.288176E-19
         4   7 -2.631111E-02  7.893333E-03  7.893333E-03 -4.221160E-19 -2.559818E-19 -4.370907E-19
         4   8 -2.631111E-02  7.893333E-03  7.893333E-03 -1.410593E-36  2.065656E-18 -2.185453E-19
         5   1 -2.631111E-02  7.893333E-03  7.893333E-03  1.564217E-18  4.963607E-18 -7.649086E-19
         5   2 -2.631111E-02  7.893333E-03  7.893333E-03  2.091862E-18 -9.460175E-19  1.639090E-19
         5   3 -2.631111E-02  7.893333E-03  7.893333E-03  1.628566E-18  9.535048E-19 -7.649086E-19
         5   4 -2.631111E-02  7.893333E-03  7.893333E-03  1.523037E-18  4.752549E-18  6.009996E-19
         5   5 -2.631111E-02  7.893333E-03  7.893333E-03  1.251374E-18  5.095342E-18 -1.092727E-19
         5   6 -2.631111E-02  7.893333E-03  7.893333E-03 -6.346715E-18  4.520653E-19  1.529817E-18
         5   7 -2.631111E-02  7.893333E-03  7.893333E-03 -8.741813E-19  1.504633E-36  0.000000E+00
         5   8 -2.631111E-02  7.893333E-03  7.893333E-03 -6.783806E-18  5.065393E-18  1.201999E-18
         6   1 -2.631111E-02  7.893333E-03  7.893333E-03 -1.420545E-18  4.573666E-18 -4.370907E-19
         6   2 -2.631111E-02  7.893333E-03  7.893333E-03 -3.652545E-19 -7.667700E-18  1.201999E-18
         6   3 -2.631111E-02  7.893333E-03  7.893333E-03 -8.741813E-19  2.939838E-18  8.741813E-19
         6   4 -2.631111E-02  7.893333E-03  7.893333E-03  2.080631E-18  8.427346E-18  1.639090E-18
         6   5 -2.631111E-02  7.893333E-03  7.893333E-03 -3.376928E-18  1.206450E-18 -3.278180E-19
         6   6 -2.631111E-02  7.893333E-03  7.893333E-03 -8.442321E-19 -3.120240E-18  3.824543E-19
         6   7 -2.631111E-02  7.893333E-03  7.893333E-03 -6.753857E-18  2.879939E-18  8.741813E-19
         6   8 -2.631111E-02  7.893333E-03  7.893333E-03 -8.442321E-19  3.302055E-18 -3.278180E-19
         7   1 -2.631111E-02  7.893333E-03  7.893333E-03  7.686523E-19  4.165006E-19 -1.092727E-19
         7   2 -2.631111E-02  7.893333E-03  7.893333E-03 -8.142829E-19  2.157729E-18 -1.201999E-18
         7   3 -2.631111E-02  7.893333E-03  7.893333E-03  1.642834E-18  5.164141E-19 -1.420545E-18
         7   4 -2.631111E-02  7.893333E-03  7.893333E-03  5.989843E-20  2.204878E-18  1.639090E-19
         7   5 -2.631111E-02  7.893333E-03  7.893333E-03 -4.221160E-19 -5.160607E-19  1.748363E-18
         7   6 -2.631111E-02  7.893333E-03  7.893333E-03 -1.688464E-18  1.330697E-18  4.917270E-19
         7   7 -2.631111E-02  7.893333E-03  7.893333E-03 -4.221160E-19 -2.994921E-20  1.311272E-18
         7   8 -2.631111E-02  7.893333E-03  7.893333E-03 -1.688464E-18  2.502747E-18 -4.370907E-19
         8   1 -2.631111E-02  7.893333E-03  7.893333E-03  4.565157E-19  6.066046E-18 -1.420545E-18
         8   2 -2.631111E-02  7.893333E-03  7.893333E-03  1.300748E-18  2.619507E-19  5.463633E-19
         8   3 -2.631111E-02  7.893333E-03  7.893333E-03 -5.119637E-19 -3.278180E-19 -6.556360E-19
         8   4 -2.631111E-02  7.893333E-03  7.893333E-03 -1.953766E-19  4.104400E-18  4.917270E-19
         8   5 -2.631111E-02  7.893333E-03  7.893333E-03 -2.562645E-18  5.581807E-18 -4.370907E-19
         8   6 -2.631111E-02  7.893333E-03  7.893333E-03 -2.994921E-20 -1.167600E-19  4.917270E-19
         8   7 -2.631111E-02  7.893333E-03  7.893333E-03  0.000000E+00 -1.311272E-18 -1.748363E-18
         8   8 -2.631111E-02  7.893333E-03  7.893333E-03  4.221160E-19  4.809411E-18  1.748363E-18
         9   1 -2.631111E-02  7.893333E-03  7.893333E-03 -8.741813E-19  5.050418E-18  7.649086E-19
         9   2 -2.631111E-02  7.893333E-03  7.893333E-03  3.921668E-19 -2.864258E-18  2.130817E-18
         9   3 -2.631111E-02  7.893333E-03  7.893333E-03 -8.741813E-19  4.956120E-18  1.092727E-19
         9   4 -2.631111E-02  7.893333E-03  7.893333E-03  2.291689E-18  2.423424E-18  2.895726E-18
         9   5 -2.631111E-02  7.893333E-03  7.893333E-03  1.504633E-36  4.161262E-18  2.185453E-19
         9   6 -2.631111E-02  7.893333E-03  7.893333E-03 -8.442321E-19 -2.487066E-18  1.420545E-18
         9   7 -2.631111E-02  7.893333E-03  7.893333E-03  3.761582E-37  2.939838E-18 -4.370907E-19
         9   8 -2.631111E-02  7.893333E-03  7.893333E-03 -1.222514E-36  8.292575E-19  2.513271E-18

 displacements (vx,vy,vz) for set NALL and time  0.2500000E+00

         1  0.000000E+00  0.000000E+00  0.000000E+00
         2 -1.666667E+01  0.000000E+00  0.000000E+00
         3 -3.333333E+01  0.000000E+00  0.000000E+00
         4 -5.000000E+01  0.000000E+00  0.000000E+00
         5  0.000000E+00  4.892728E+00  0.000000E+00
         6 -1.666667E+01  4.892728E+00  0.000000E+00
         7 -3.333333E+01  4.892728E+00  0.000000E+00
         8 -5.000000E+01  4.892728E+00  0.000000E+00
         9  0.000000E+00  9.785456E+00  0.000000E+00
        10 -1.666667E+01  9.785456E+00  0.000000E+00
        11 -3.333333E+01  9.785456E+00  0.000000E+00
        12 -5.000000E+01  9.785456E+00  0.000000E+00
        13  0.000000E+00  1.467818E+01  0.000000E+00
        14 -1.666667E+01  1.467818E+01  0.000000E+00
        15 -3.333333E+01  1.467818E+01  0.000000E+00
        16 -5.000000E+01  1.467818E+01  0.000000E+00
        17  0.000000E+00  0.000000E+00  6.849819E+00
        18 -1.666667E+01  0.000000E+00  6.849819E+00
        19 -3.333333E+01  0.000000E+00  6.849819E+00
        20 -5.000000E+01  0.000000E+00  6.849819E+00
        21  0.000000E+00  4.892728E+00  6.849819E+00
        22 -1.666667E+01  4.892728E+00  6.849819E+00
        23 -3.333333E+01  4.892728E+00  6.849819E+00
        24 -5.000000E+01  4.892728E+00  6.849819E+00
        25  0.000000E+00  9.785456E+00  6.849819E+00
        26 -1.666667E+01  9.785456E+00  6.849819E+00
        27 -3.333333E+01  9.785456E+00  6.849819E+00
        28 -5.000000E+01  9.785456E+00  6.849819E+00
        29  0.000000E+00  1.467818E+01  6.849819E+00
        30 -1.666667E+01  1.467818E+01  6.849819E+00
        31 -3.333333E+01  1.467818E+01  6.849819E+00
        32 -5.000000E+01  1.467818E+01  6.849819E+00

 stresses (elem, integ.pnt.,sxx,syy,szz,sxy,sxz,syz) for set EALL and time  0.2500000E+00

         1   1 -6.525553E+03 -9.408566E-13 -9.408566E-13 -5.431107E-14 -7.866945E-14  3.659052E-14
         1   2 -6.525553E+03  9.408566E-13 -9.267610E-31 -4.734653E-13 -4.642913E-13  9.147630E-15
         1   3 -6.525553E+03  9.295408E-32 -1.313422E-33 -6.634875E-14  3.210048E-14 -3.659052E-14
         1   4 -6.525553E+03  1.881713E-12  9.408566E-13 -4.855030E-13 -1.020289E-13 -5.488578E-14
         1   5 -6.525553E+03 -4.704283E-13 -9.408566E-13 -1.605024E-14  1.059083E-13  2.927242E-13
         1   6 -6.525553E+03 -4.704283E-13 -4.704283E-13  2.522085E-13 -2.797136E-13  2.744289E-14
         1   7 -6.525553E+03  9.408566E-13 -4.704283E-13 -6.420095E-14 -2.407007E-31  2.927242E-13
         1   8 -6.525553E+03 -4.704283E-13 -4.704283E-13  2.040578E-13 -1.341294E-13 -3.659052E-14
         2   1 -6.525553E+03 -9.408566E-13 -9.408566E-13 -1.341294E-13 -1.204650E-31  3.659052E-14
         2   2 -6.525553E+03  9.408566E-13  0.000000E+00 -8.215423E-13 -6.706468E-13 -2.286907E-14
         2   3 -6.525553E+03 -1.881713E-12 -1.411285E-12 -2.011940E-13 -4.023881E-13  3.659052E-14
         2   4 -6.525553E+03  1.178612E-32 -1.411285E-12 -4.526866E-13  1.005970E-12 -9.147630E-15
         2   5 -6.525553E+03 -9.408566E-13 -4.704283E-13  2.682587E-13 -6.706468E-14 -1.829526E-14
         2   6 -6.525553E+03 -4.704283E-13 -4.704283E-13 -4.023881E-13 -9.221393E-13  2.744289E-14
         2   7 -6.525553E+03 -1.411285E-12 -1.881713E-12  2.682587E-13 -4.023881E-13 -9.519063E-31
         2   8 -6.525553E+03 -1.411285E-12 -1.411285E-12 -4.694527E-13  1.073035E-12  1.280668E-13
         3   1 -6.525553E+03 -1.881713E-12 -1.411285E-12 -5.405300E-13 -7.807008E-13  5.757098E-30
         3   2 -6.525553E+03  3.851309E-32 -9.408566E-13  5.325049E-13 -7.471684E-13 -9.147630E-14
         3   3 -6.525553E+03  9.408566E-13  9.408566E-13 -5.525677E-13  2.682587E-13 -1.097716E-13
         3   4 -6.525553E+03  2.822570E-12  1.411285E-12  5.539995E-13  1.475423E-12 -2.012479E-13
         3   5 -6.525553E+03 -9.408566E-13 -4.704283E-13 -5.525677E-13  3.909332E-13 -3.659052E-14
         3   6 -6.525553E+03 -4.704283E-13 -4.704283E-13  3.863378E-13 -1.084490E-12 -3.018718E-13
         3   7 -6.525553E+03 -4.704283E-13 -4.704283E-13 -6.007184E-13  6.763742E-13 -1.463621E-13
         3   8 -6.525553E+03 -4.704283E-13 -9.408566E-13 -6.007184E-13  6.763742E-13 -2.012479E-13
         4   1 -6.525553E+03 -9.408566E-13 -4.704283E-13  6.634875E-14 -2.550722E-14 -1.097716E-13
         4   2 -6.525553E+03  1.411285E-12  4.704283E-13  4.855030E-13 -2.602336E-13 -6.403341E-14
         4   3 -6.525553E+03  6.623854E-31  3.548455E-32  1.787004E-13 -1.020289E-13 -7.318104E-14
         4   4 -6.525553E+03  2.352141E-12  1.411285E-12  5.978546E-13 -3.702876E-13 -1.646573E-13
         4   5 -6.525553E+03  9.408566E-13 -4.704283E-13 -1.312656E-13  1.533431E-14 -2.561336E-13
         4   6 -6.525553E+03  9.408566E-13 -9.023411E-32 -3.324597E-13 -1.020289E-13  5.488578E-14
         4   7 -6.525553E+03  9.408566E-13 -4.704283E-13 -6.706468E-14 -5.727450E-15 -1.463621E-13
         4   8 -6.525553E+03  9.408566E-13 -4.704283E-13 -2.682587E-13 -4.081155E-13 -1.463621E-13
         5   1 -6.525553E+03 -6.669930E-31  9.408566E-13  7.646505E-13  6.116072E-13 -1.097716E-13
         5   2 -6.525553E+03 -8.084909E-31  9.408566E-13  1.116740E-12 -9.979450E-13  1.372144E-13
         5   3 -6.525553E+03  9.408566E-13 -4.704283E-13  7.841306E-13 -1.073035E-12 -1.175938E-29
         5   4 -6.525553E+03 -9.408566E-13 -4.704283E-13  1.236817E-12 -4.023881E-13 -2.103955E-13
         5   5 -6.525553E+03  4.704283E-13  4.704283E-13 -3.210048E-14  3.353234E-13 -1.097716E-13
         5   6 -6.525553E+03  4.704283E-13  4.704283E-13 -5.015532E-13 -1.307761E-12  2.286907E-13
         5   7 -6.525553E+03  1.881713E-12  4.704283E-13 -5.250625E-13 -6.763742E-13 -1.463621E-13
         5   8 -6.525553E+03  9.408566E-13  6.331779E-32 -7.933212E-13 -5.727450E-15  3.659052E-14
         6   1 -6.525553E+03 -1.411285E-12 -9.408566E-13  2.201080E-13  1.341294E-13 -1.463621E-13
         6   2 -6.525553E+03 -3.342484E-31  1.411285E-12  4.213020E-13 -7.377114E-13  1.189192E-13
         6   3 -6.525553E+03 -4.704283E-13 -6.919858E-31  1.398568E-13 -7.726757E-13  1.463621E-13
         6   4 -6.525553E+03 -4.704283E-13  1.204154E-30  3.745832E-13  1.373394E-12 -4.573815E-14
         6   5 -6.525553E+03  9.408566E-13  1.881713E-12 -1.137236E-12 -9.630143E-14 -2.561336E-13
         6   6 -6.525553E+03  7.907886E-32  4.704283E-13  2.040578E-13 -1.102272E-12  2.561336E-13
         6   7 -6.525553E+03 -4.704283E-13 -4.704283E-13 -1.073035E-12 -1.398568E-13 -1.463621E-13
         6   8 -6.525553E+03 -9.408566E-13 -4.704283E-13  4.023881E-13  1.335566E-12  3.293147E-13
         7   1 -6.525553E+03 -4.704283E-13 -4.704283E-13  7.452374E-14 -1.690936E-13  2.927242E-13
         7   2 -6.525553E+03 -4.704283E-13 -4.704283E-13 -5.961230E-13 -5.714816E-13  9.147630E-15
         7   3 -6.525553E+03 -4.704283E-13 -9.408566E-13  1.226745E-13 -2.300787E-31 -1.097716E-13
         7   4 -6.525553E+03 -9.408566E-13 -1.411285E-12 -5.479723E-13 -1.341294E-13 -9.147630E-15
         7   5 -6.525553E+03 -9.408566E-13 -9.408566E-13 -6.706468E-14 -2.249362E-14  2.195431E-13
         7   6 -6.525553E+03 -1.411285E-12 -9.408566E-13 -2.682587E-13 -4.751802E-13  1.097716E-13
         7   7 -6.525553E+03 -9.408566E-13 -9.408566E-13 -6.706468E-14  2.514373E-31 -2.927242E-13
         7   8 -6.525553E+03 -1.411285E-12 -1.411285E-12 -2.682587E-13  1.050738E-32 -3.659052E-14
         8   1 -6.525553E+03 -9.408566E-13 -9.408566E-13 -5.542993E-13 -4.614276E-13  1.463621E-13
         8   2 -6.525553E+03  9.408566E-13 -4.704283E-13 -1.351450E-13 -1.484164E-12  1.189192E-13
         8   3 -6.525553E+03  4.704283E-13 -5.716355E-31 -1.897391E-13 -6.385463E-13 -2.927242E-13
         8   4 -6.525553E+03  4.704283E-13  4.704283E-13 -2.065053E-13 -3.702876E-13 -1.006239E-13
         8   5 -6.525553E+03 -1.411285E-12 -1.052349E-30 -5.250625E-13 -2.418857E-13  3.659052E-14
         8   6 -6.525553E+03 -1.411285E-12 -3.612432E-30 -1.897391E-13 -1.348453E-12  4.665291E-13
         8   7 -6.525553E+03  9.408566E-13 -4.704283E-13  2.891618E-30 -6.821017E-13 -1.463621E-13
         8   8 -6.525553E+03 -4.704283E-13 -4.704283E-13  1.271846E-30  3.238685E-13  2.927242E-13
         9   1 -6.525553E+03 -1.881713E-12 -1.411285E-12 -1.032279E-14 -5.124421E-13  2.195431E-13
         9   2 -6.525553E+03  4.704283E-13  4.704283E-13  3.585329E-13 -2.106510E-13  2.744289E-14
         9   3 -6.525553E+03 -9.408566E-13 -4.704283E-13  1.341294E-13 -3.003592E-13  3.293147E-13
         9   4 -6.525553E+03  9.408566E-13 -4.704283E-13  5.365174E-13  3.702876E-13  1.006239E-13
         9   5 -6.525553E+03  1.881713E-12  9.408566E-13  0.000000E+00 -1.719573E-13  0.000000E+00
         9   6 -6.525553E+03  4.704283E-13  1.881713E-12  4.023881E-13 -1.714445E-12 -1.646573E-13
         9   7 -6.525553E+03  9.408566E-13 -4.704283E-13  2.408841E-30 -7.933212E-13 -1.463621E-13
         9   8 -6.525553E+03 -9.408566E-13 -4.704283E-13  5.365174E-13  8.162310E-13  1.829526E-13

 strains (elem, integ.pnt.,exx,eyy,ezz,exy,exz,eyz) forset EALL and time  0.2500000E+00

         1   1 -3.277778E-02  9.833333E-03  9.833333E-03 -3.417889E-19 -4.505907E-19  2.189623E-19
         1   2 -3.277778E-02  9.833333E-03  9.833333E-03 -2.961944E-18 -2.861134E-18  5.474058E-20
         1   3 -3.277778E-02  9.833333E-03  9.833333E-03 -4.238998E-19  2.189623E-19 -2.189623E-19
         1   4 -3.277778E-02  9.833333E-03  9.833333E-03 -3.044055E-18 -6.194874E-19 -3.284435E-19
         1   5 -3.277778E-02  9.833333E-03  9.833333E-03 -1.094812E-19  8.084426E-19  1.751699E-18
         1   6 -3.277778E-02  9.833333E-03  9.833333E-03  1.567418E-18 -1.602100E-18  1.642217E-19
         1   7 -3.277778E-02  9.833333E-03  9.833333E-03 -4.379246E-19  0.000000E+00  1.751699E-18
         1   8 -3.277778E-02  9.833333E-03  9.833333E-03  1.238975E-18 -8.384497E-19 -2.189623E-19
         2   1 -3.277778E-02  9.833333E-03  9.833333E-03 -8.384497E-19  0.000000E+00  2.189623E-19
         2   2 -3.277778E-02  9.833333E-03  9.833333E-03 -5.135504E-18 -4.192248E-18 -1.368514E-19
         2   3 -3.277778E-02  9.833333E-03  9.833333E-03 -1.257675E-18 -2.515349E-18  2.189623E-19
         2   4 -3.277778E-02  9.833333E-03  9.833333E-03 -2.829768E-18  6.288373E-18 -5.474058E-20
         2   5 -3.277778E-02  9.833333E-03  9.833333E-03  1.676899E-18 -4.192248E-19 -1.094812E-19
         2   6 -3.277778E-02  9.833333E-03  9.833333E-03 -2.515349E-18 -5.764342E-18  1.642217E-19
         2   7 -3.277778E-02  9.833333E-03  9.833333E-03  1.676899E-18 -2.515349E-18 -1.053243E-35
         2   8 -3.277778E-02  9.833333E-03  9.833333E-03 -2.934574E-18  6.707597E-18  7.663681E-19
         3   1 -3.277778E-02  9.833333E-03  9.833333E-03 -3.381169E-18 -4.866476E-18  3.648734E-35
         3   2 -3.277778E-02  9.833333E-03  9.833333E-03  3.326428E-18 -4.656864E-18 -5.474058E-19
         3   3 -3.277778E-02  9.833333E-03  9.833333E-03 -3.463280E-18  1.676899E-18 -6.568870E-19
         3   4 -3.277778E-02  9.833333E-03  9.833333E-03  3.453930E-18  9.222946E-18 -1.204293E-18
         3   5 -3.277778E-02  9.833333E-03  9.833333E-03 -3.463280E-18  2.590148E-18 -2.189623E-19
         3   6 -3.277778E-02  9.833333E-03  9.833333E-03  2.405868E-18 -6.632798E-18 -1.806439E-18
         3   7 -3.277778E-02  9.833333E-03  9.833333E-03 -3.791723E-18  4.154849E-18 -8.758493E-19
         3   8 -3.277778E-02  9.833333E-03  9.833333E-03 -3.791723E-18  4.154849E-18 -1.204293E-18
         4   1 -3.277778E-02  9.833333E-03  9.833333E-03  4.238998E-19 -1.548718E-19 -6.568870E-19
         4   2 -3.277778E-02  9.833333E-03  9.833333E-03  3.044055E-18 -1.622159E-18 -3.831841E-19
         4   3 -3.277778E-02  9.833333E-03  9.833333E-03  1.190268E-18 -6.194874E-19 -4.379246E-19
         4   4 -3.277778E-02  9.833333E-03  9.833333E-03  3.810423E-18 -2.296387E-18 -9.853304E-19
         4   5 -3.277778E-02  9.833333E-03  9.833333E-03 -8.571495E-19  1.141561E-19 -1.532736E-18
         4   6 -3.277778E-02  9.833333E-03  9.833333E-03 -2.114824E-18 -6.194874E-19  3.284435E-19
         4   7 -3.277778E-02  9.833333E-03  9.833333E-03 -4.192248E-19  3.739959E-20 -8.758493E-19
         4   8 -3.277778E-02  9.833333E-03  9.833333E-03 -1.676899E-18 -2.477949E-18 -8.758493E-19
         5   1 -3.277778E-02  9.833333E-03  9.833333E-03  4.756995E-18  3.827764E-18 -6.568870E-19
         5   2 -3.277778E-02  9.833333E-03  9.833333E-03  6.957926E-18 -6.233632E-18  8.211087E-19
         5   3 -3.277778E-02  9.833333E-03  9.833333E-03  4.736937E-18 -6.707597E-18 -9.629650E-35
         5   4 -3.277778E-02  9.833333E-03  9.833333E-03  7.566704E-18 -2.515349E-18 -1.259033E-18
         5   5 -3.277778E-02  9.833333E-03  9.833333E-03 -2.189623E-19  2.096124E-18 -6.568870E-19
         5   6 -3.277778E-02  9.833333E-03  9.833333E-03 -3.153536E-18 -8.174884E-18  1.368514E-18
         5   7 -3.277778E-02  9.833333E-03  9.833333E-03 -3.428598E-18 -4.154849E-18 -8.758493E-19
         5   8 -3.277778E-02  9.833333E-03  9.833333E-03 -5.105497E-18  3.739959E-20  2.189623E-19
         6   1 -3.277778E-02  9.833333E-03  9.833333E-03  1.348456E-18  8.384497E-19 -8.758493E-19
         6   2 -3.277778E-02  9.833333E-03  9.833333E-03  2.606130E-18 -4.611473E-18  7.116275E-19
         6   3 -3.277778E-02  9.833333E-03  9.833333E-03  8.010501E-19 -4.811736E-18  8.758493E-19
         6   4 -3.277778E-02  9.833333E-03  9.833333E-03  2.268337E-18  8.603459E-18 -2.737029E-19
         6   5 -3.277778E-02  9.833333E-03  9.833333E-03 -7.145522E-18 -6.568870E-19 -1.532736E-18
         6   6 -3.277778E-02  9.833333E-03  9.833333E-03  1.238975E-18 -6.945260E-18  1.532736E-18
         6   7 -3.277778E-02  9.833333E-03  9.833333E-03 -6.707597E-18 -8.010501E-19 -8.758493E-19
         6   8 -3.277778E-02  9.833333E-03  9.833333E-03  2.515349E-18  8.421896E-18  1.970661E-18
         7   1 -3.277778E-02  9.833333E-03  9.833333E-03  5.848054E-19 -1.038712E-18  1.751699E-18
         7   2 -3.277778E-02  9.833333E-03  9.833333E-03 -3.607443E-18 -3.554061E-18  5.474058E-20
         7   3 -3.277778E-02  9.833333E-03  9.833333E-03  9.132489E-19 -3.009266E-36 -6.568870E-19
         7   4 -3.277778E-02  9.833333E-03  9.833333E-03 -3.279000E-18 -8.384497E-19 -5.474058E-20
         7   5 -3.277778E-02  9.833333E-03  9.833333E-03 -4.192248E-19 -6.740662E-20  1.313774E-18
         7   6 -3.277778E-02  9.833333E-03  9.833333E-03 -1.676899E-18 -2.897174E-18  6.568870E-19
         7   7 -3.277778E-02  9.833333E-03  9.833333E-03 -4.192248E-19  0.000000E+00 -1.751699E-18
         7   8 -3.277778E-02  9.833333E-03  9.833333E-03 -1.676899E-18  0.000000E+00 -2.189623E-19
         8   1 -3.277778E-02  9.833333E-03  9.833333E-03 -3.666260E-18 -2.879833E-18  8.758493E-19
         8   2 -3.277778E-02  9.833333E-03  9.833333E-03 -1.046105E-18 -9.273012E-18  7.116275E-19
         8   3 -3.277778E-02  9.833333E-03  9.833333E-03 -1.332474E-18 -3.973286E-18 -1.751699E-18
         8   4 -3.277778E-02  9.833333E-03  9.833333E-03 -1.437280E-18 -2.296387E-18 -6.021464E-19
         8   5 -3.277778E-02  9.833333E-03  9.833333E-03 -3.428598E-18 -1.420537E-18  2.189623E-19
         8   6 -3.277778E-02  9.833333E-03  9.833333E-03 -1.332474E-18 -8.337747E-18  2.791770E-18
         8   7 -3.277778E-02  9.833333E-03  9.833333E-03  0.000000E+00 -4.117449E-18 -8.758493E-19
         8   8 -3.277778E-02  9.833333E-03  9.833333E-03  4.513898E-36  2.170923E-18  1.751699E-18
         9   1 -3.277778E-02  9.833333E-03  9.833333E-03 -1.468807E-19 -3.189577E-18  1.313774E-18
         9   2 -3.277778E-02  9.833333E-03  9.833333E-03  2.158856E-18 -1.303065E-18  1.642217E-19
         9   3 -3.277778E-02  9.833333E-03  9.833333E-03  8.384497E-19 -1.895862E-18  1.970661E-18
         9   4 -3.277778E-02  9.833333E-03  9.833333E-03  3.353799E-18  2.296387E-18  6.021464E-19
         9   5 -3.277778E-02  9.833333E-03  9.833333E-03  0.000000E+00 -1.020012E-18  0.000000E+00
         9   6 -3.277778E-02  9.833333E-03  9.833333E-03  2.515349E-18 -1.066218E-17 -9.853304E-19
         9   7 -3.277778E-02  9.833333E-03  9.833333E-03  0.000000E+00 -5.105497E-18 -8.758493E-19
         9   8 -3.277778E-02  9.833333E-03  9.833333E-03  3.353799E-18  4.955899E-18  1.094812E-18

 displacements (vx,vy,vz) for set NALL and time  0.3000000E+00

         1  0.000000E+00  0.000000E+00  0.000000E+00
         2 -2.000000E+01  0.000000E+00  0.000000E+00
         3 -4.000000E+01  0.000000E+00  0.000000E+00
         4 -6.000000E+01  0.000000E+00  0.000000E+00
         5  0.000000E+00  5.845826E+00  0.000000E+00
         6 -2.000000E+01  5.845826E+00  0.000000E+00
         7 -4.000000E+01  5.845826E+00  0.000000E+00
         8 -6.000000E+01  5.845826E+00  0.000000E+00
         9  0.000000E+00  1.169165E+01  0.000000E+00
        10 -2.000000E+01  1.169165E+01  0.000000E+00
        11 -4.000000E+01  1.169165E+01  0.000000E+00
        12 -6.000000E+01  1.169165E+01  0.000000E+00
        13  0.000000E+00  1.753748E+01  0.000000E+00
        14 -2.000000E+01  1.753748E+01  0.000000E+00
        15 -4.000000E+01  1.753748E+01  0.000000E+00
        16 -6.000000E+01  1.753748E+01  0.000000E+00
        17  0.000000E+00  0.000000E+00  8.184157E+00
        18 -2.000000E+01  0.000000E+00  8.184157E+00
        19 -4.000000E+01  0.000000E+00  8.184157E+00
        20 -6.000000E+01  0.000000E+00  8.184157E+00
        21  0.000000E+00  5.845826E+00  8.184157E+00
        22 -2.000000E+01  5.845826E+00  8.184157E+00
        23 -4.000000E+01  5.845826E+00  8.184157E+00
        24 -6.000000E+01  5.845826E+00  8.184157E+00
        25  0.000000E+00  1.169165E+01  8.184157E+00
        26 -2.000000E+01  1.169165E+01  8.184157E+00
        27 -4.000000E+01  1.169165E+01  8.184157E+00
        28 -6.000000E+01  1.169165E+01  8.184157E+00
        29  0.000000E+00  1.753748E+01  8.184157E+00
        30 -2.000000E+01  1.753748E+01  8.184157E+00
        31 -4.000000E+01  1.753748E+01  8.184157E+00
        32 -6.000000E+01  1.753748E+01  8.184157E+00

 stresses (elem, integ.pnt.,sxx,syy,szz,sxy,sxz,syz) for set EALL and time  0.3000000E+00

         1   1 -7.721119E+03  4.736952E-13  1.894781E-12 -6.198824E-14  6.647667E-14 -1.845709E-14
         1   2 -7.721119E+03  2.368476E-12  2.368476E-12 -4.608483E-13  1.329533E-13 -4.614272E-14
         1   3 -7.721119E+03 -4.736952E-13  4.736952E-13  1.351371E-13  6.647667E-14  1.286709E-31
         1   4 -7.721119E+03  1.894781E-12  1.894781E-12 -2.637230E-13  5.318134E-13 -1.753423E-13
         1   5 -7.721119E+03  1.894781E-12  2.842171E-12 -3.493663E-14  6.647667E-14 -1.845709E-14
         1   6 -7.721119E+03  2.368476E-12  2.842171E-12 -2.343666E-13  1.329533E-13 -7.382835E-14
         1   7 -7.721119E+03  4.736952E-13  1.421085E-12  1.227636E-13  6.647667E-14 -7.382835E-14
         1   8 -7.721119E+03  1.894781E-12  1.894781E-12  1.892403E-13  5.318134E-13 -2.030280E-13
         2   1 -7.721119E+03  7.120783E-32 -9.608235E-31 -1.329533E-13  5.352100E-13 -5.537126E-14
         2   2 -7.721119E+03  4.736952E-13  4.736952E-13 -2.991450E-13  1.529691E-13  1.845709E-14
         2   3 -7.721119E+03  9.494377E-31  4.736952E-13  6.647667E-14  2.659067E-13 -1.845709E-13
         2   4 -7.721119E+03  9.473903E-13  4.736952E-13 -9.971501E-13  1.861347E-12 -7.382835E-14
         2   5 -7.721119E+03  4.736952E-13  4.736952E-13  2.659067E-13  5.386065E-13 -1.845709E-14
         2   6 -7.721119E+03  1.894781E-12  1.894781E-12 -3.323834E-13 -2.644518E-14  2.491707E-13
         2   7 -7.721119E+03  9.473903E-13  9.473903E-13  0.000000E+00 -1.261602E-13  0.000000E+00
         2   8 -7.721119E+03  4.736952E-13 -5.126537E-30 -3.988600E-13  1.469280E-12  3.691417E-14
         3   1 -7.721119E+03  9.473903E-13  9.473903E-13 -1.595440E-12  2.422517E-13  3.691417E-14
         3   2 -7.721119E+03  1.421085E-12  1.421085E-12  4.985750E-13 -9.013171E-14 -7.382835E-14
         3   3 -7.721119E+03  1.421085E-12  9.473903E-13 -1.579670E-12  1.500820E-12 -1.476567E-13
         3   4 -7.721119E+03  1.421085E-12  4.736952E-13 -5.160434E-13  1.500820E-12 -1.107425E-13
         3   5 -7.721119E+03 -4.736952E-13 -4.736952E-13  3.154005E-14  7.030999E-13  1.291996E-13
         3   6 -7.721119E+03  4.736952E-13 -4.736952E-13 -5.002733E-13 -1.856252E-12 -2.214850E-13
         3   7 -7.721119E+03  4.736952E-13 -5.763288E-30 -1.000547E-12  8.113064E-13 -1.132090E-29
         3   8 -7.721119E+03  4.736952E-13 -4.736952E-13 -2.028266E-13  5.453997E-13 -1.845709E-13
         4   1 -7.721119E+03 -4.736952E-13  4.736952E-13  2.173838E-13  1.329533E-13 -1.845709E-13
         4   2 -7.721119E+03 -4.736952E-13  4.736952E-13  1.795374E-14  2.659067E-13 -1.199711E-13
         4   3 -7.721119E+03  9.046448E-32  4.736952E-13  2.814347E-14  1.329533E-13  5.359368E-32
         4   4 -7.721119E+03  5.627514E-32  4.736952E-13 -1.712865E-13  5.318134E-13 -1.476567E-13
         4   5 -7.721119E+03  1.421085E-12  1.421085E-12  9.122357E-14  1.495725E-13 -7.382835E-14
         4   6 -7.721119E+03 -4.736952E-13  9.473903E-13  1.577002E-13  2.659067E-13 -4.614272E-14
         4   7 -7.721119E+03  2.368476E-12  2.368476E-12 -3.187971E-13  1.329533E-13 -6.070861E-31
         4   8 -7.721119E+03  4.736952E-13  1.421085E-12 -5.182271E-13  7.977201E-13 -1.845709E-13
         5   1 -7.721119E+03 -1.421085E-12  4.736952E-13  4.845033E-13  9.227884E-13 -2.214850E-13
         5   2 -7.721119E+03 -9.473903E-13  1.628624E-31  4.346458E-13 -1.076000E-13 -9.228543E-14
         5   3 -7.721119E+03  4.736952E-13  1.421085E-12  5.036699E-13  2.028266E-13 -2.953134E-13
         5   4 -7.721119E+03  9.334956E-32  1.421085E-12  1.401105E-12  7.346400E-13 -4.521986E-13
         5   5 -7.721119E+03  2.295787E-30  1.421085E-12  2.974467E-13  1.332930E-12 -2.953134E-13
         5   6 -7.721119E+03  9.473903E-13  1.421085E-12 -3.008433E-13 -1.960334E-13  1.107425E-13
         5   7 -7.721119E+03 -4.736952E-13 -4.736952E-13  1.261602E-13  4.056532E-13 -2.953134E-13
         5   8 -7.721119E+03 -4.736952E-13 -4.736952E-13 -2.726998E-13  9.374666E-13  3.691417E-14
         6   1 -7.721119E+03 -4.736952E-13  4.736952E-13  1.079397E-12  1.367867E-12 -2.214850E-13
         6   2 -7.721119E+03 -9.473903E-13  4.736952E-13  4.811067E-13 -1.291200E-12  2.214850E-13
         6   3 -7.721119E+03 -1.421085E-12 -9.473903E-13  9.059265E-13  5.002733E-13 -1.845709E-13
         6   4 -7.721119E+03 -1.894781E-12 -1.421085E-12  3.408748E-13  1.563900E-12  2.768563E-13
         6   5 -7.721119E+03  1.131580E-30  4.736952E-13  1.577002E-13  6.783530E-13 -2.214850E-13
         6   6 -7.721119E+03  4.736952E-13 -4.736952E-13 -3.741131E-13 -1.315947E-12  2.491707E-13
         6   7 -7.721119E+03  4.736952E-13  9.875221E-31  3.784806E-13 -1.261602E-13 -1.476567E-13
         6   8 -7.721119E+03 -4.736952E-13 -9.473903E-13  1.125739E-13  6.715599E-13  5.537126E-13
         7   1 -7.721119E+03 -4.736952E-13  4.736952E-13  3.196462E-13  1.408384E-13 -7.382835E-14
         7   2 -7.721119E+03  9.473903E-13  9.473903E-13  3.030270E-13  2.073150E-13 -3.968274E-13
         7   3 -7.721119E+03 -4.736952E-13 -9.473903E-13  3.984963E-13 -3.396577E-15 -5.167984E-13
         7   4 -7.721119E+03  9.473903E-13  4.736952E-13  3.818771E-13 -4.687333E-13 -1.568852E-13
         7   5 -7.721119E+03  6.007832E-31  9.473903E-13 -3.289868E-13  1.129376E-13 -1.476567E-13
         7   6 -7.721119E+03  4.736952E-13  9.473903E-13 -8.608002E-13  3.954635E-13 -3.322276E-13
         7   7 -7.721119E+03 -9.473903E-13 -4.736952E-13 -1.358631E-14  5.968352E-14 -2.953134E-13
         7   8 -7.721119E+03 -4.736952E-13 -4.736952E-13 -5.453997E-13 -4.056532E-13 -3.691417E-14
         8   1 -7.721119E+03  4.736952E-13  1.421085E-12  5.735432E-13  5.352100E-13 -2.214850E-13
         8   2 -7.721119E+03  4.241655E-30  4.736952E-13 -7.892286E-13 -1.322259E-14  2.122565E-13
         8   3 -7.721119E+03  5.391572E-30  4.736952E-13 -4.517504E-13 -5.318134E-13 -2.953134E-13
         8   4 -7.721119E+03 -4.736952E-13  4.736952E-13 -5.348462E-13  1.329533E-13  5.075699E-13
         8   5 -7.721119E+03  1.894781E-12  1.894781E-12 -5.318134E-13  9.374666E-13 -7.140880E-30
         8   6 -7.721119E+03 -4.736952E-13  4.736952E-13 -1.595440E-12  2.341232E-14  2.214850E-13
         8   7 -7.721119E+03  1.894781E-12  1.894781E-12 -1.063627E-12 -9.238803E-13 -2.953134E-13
         8   8 -7.721119E+03  9.473903E-13  1.421085E-12 -1.661917E-12  1.397465E-13  6.275409E-13
         9   1 -7.721119E+03 -4.736952E-13 -4.736952E-13 -1.047857E-12  2.185966E-13  7.382835E-14
         9   2 -7.721119E+03 -4.736952E-13 -4.736952E-13  1.819617E-13 -2.407232E-12  4.798843E-13
         9   3 -7.721119E+03  4.736952E-13  4.736952E-13 -8.743865E-13  8.743865E-13 -1.152040E-29
         9   4 -7.721119E+03 -4.736952E-13 -9.473903E-13  6.545770E-13  7.414331E-13  8.767116E-13
         9   5 -7.721119E+03  9.473903E-13  1.121408E-30 -5.589860E-13 -5.628694E-14  2.214850E-13
         9   6 -7.721119E+03 -4.736952E-13 -9.473903E-13 -1.601260E-13 -2.083825E-12 -2.399421E-13
         9   7 -7.721119E+03  1.894781E-12  4.736952E-13 -3.066656E-13 -6.308010E-13  2.953134E-13
         9   8 -7.721119E+03 -4.736952E-13 -1.421085E-12  2.251478E-13  2.998725E-13  4.429701E-13

 strains (elem, integ.pnt.,exx,eyy,ezz,exy,exz,eyz) forset EALL and time  0.3000000E+00

         1   1 -3.920000E-02  1.176000E-02  1.176000E-02 -3.390720E-19  4.163336E-19 -1.096878E-19
         1   2 -3.920000E-02  1.176000E-02  1.176000E-02 -2.837074E-18  8.326673E-19 -2.742196E-19
         1   3 -3.920000E-02  1.176000E-02  1.176000E-02  1.032026E-18  4.163336E-19 -7.523164E-37
         1   4 -3.920000E-02  1.176000E-02  1.176000E-02 -1.465976E-18  3.330669E-18 -1.042034E-18
         1   5 -3.920000E-02  1.176000E-02  1.176000E-02 -1.969580E-19  4.163336E-19 -1.096878E-19
         1   6 -3.920000E-02  1.176000E-02  1.176000E-02 -1.445959E-18  8.326673E-19 -4.387513E-19
         1   7 -3.920000E-02  1.176000E-02  1.176000E-02  8.999203E-19  4.163336E-19 -4.387513E-19
         1   8 -3.920000E-02  1.176000E-02  1.176000E-02  1.316254E-18  3.330669E-18 -1.206566E-18
         2   1 -3.920000E-02  1.176000E-02  1.176000E-02 -8.326673E-19  3.308251E-18 -3.290635E-19
         2   2 -3.920000E-02  1.176000E-02  1.176000E-02 -1.873501E-18  9.143330E-19  1.096878E-19
         2   3 -3.920000E-02  1.176000E-02  1.176000E-02  4.163336E-19  1.665335E-18 -1.096878E-18
         2   4 -3.920000E-02  1.176000E-02  1.176000E-02 -6.245005E-18  1.165734E-17 -4.387513E-19
         2   5 -3.920000E-02  1.176000E-02  1.176000E-02  1.665335E-18  3.285834E-18 -1.096878E-19
         2   6 -3.920000E-02  1.176000E-02  1.176000E-02 -2.081668E-18 -2.530022E-19  1.480786E-18
         2   7 -3.920000E-02  1.176000E-02  1.176000E-02 -1.504633E-36 -8.775026E-19  0.000000E+00
         2   8 -3.920000E-02  1.176000E-02  1.176000E-02 -2.498002E-18  9.114505E-18  2.193757E-19
         3   1 -3.920000E-02  1.176000E-02  1.176000E-02 -9.992007E-18  1.500803E-18  2.193757E-19
         3   2 -3.920000E-02  1.176000E-02  1.176000E-02  3.122502E-18 -5.808654E-19 -4.387513E-19
         3   3 -3.920000E-02  1.176000E-02  1.176000E-02 -9.882319E-18  9.333880E-18 -8.775026E-19
         3   4 -3.920000E-02  1.176000E-02  1.176000E-02 -3.220981E-18  9.333880E-18 -6.581270E-19
         3   5 -3.920000E-02  1.176000E-02  1.176000E-02  2.193757E-19  4.337877E-18  7.678148E-19
         3   6 -3.920000E-02  1.176000E-02  1.176000E-02 -3.111293E-18 -1.169097E-17 -1.316254E-18
         3   7 -3.920000E-02  1.176000E-02  1.176000E-02 -6.222587E-18  4.906333E-18 -9.780113E-35
         3   8 -3.920000E-02  1.176000E-02  1.176000E-02 -1.226583E-18  3.240998E-18 -1.096878E-18
         4   1 -3.920000E-02  1.176000E-02  1.176000E-02  1.558047E-18  8.326673E-19 -1.096878E-18
         4   2 -3.920000E-02  1.176000E-02  1.176000E-02  3.090464E-19  1.665335E-18 -7.129709E-19
         4   3 -3.920000E-02  1.176000E-02  1.176000E-02  2.417933E-19  8.326673E-19 -7.523164E-37
         4   4 -3.920000E-02  1.176000E-02  1.176000E-02 -1.007208E-18  3.330669E-18 -8.775026E-19
         4   5 -3.920000E-02  1.176000E-02  1.176000E-02  6.805447E-19  9.367507E-19 -4.387513E-19
         4   6 -3.920000E-02  1.176000E-02  1.176000E-02  1.096878E-18  1.665335E-18 -2.742196E-19
         4   7 -3.920000E-02  1.176000E-02  1.176000E-02 -2.171339E-18  8.326673E-19 -7.523164E-37
         4   8 -3.920000E-02  1.176000E-02  1.176000E-02 -3.420340E-18  4.996004E-18 -1.096878E-18
         5   1 -3.920000E-02  1.176000E-02  1.176000E-02  3.001606E-18  5.773827E-18 -1.316254E-18
         5   2 -3.920000E-02  1.176000E-02  1.176000E-02  2.689355E-18 -6.793444E-19 -5.484391E-19
         5   3 -3.920000E-02  1.176000E-02  1.176000E-02  3.088876E-18  1.226583E-18 -1.755005E-18
         5   4 -3.920000E-02  1.176000E-02  1.176000E-02  8.709380E-18  4.557252E-18 -2.687352E-18
         5   5 -3.920000E-02  1.176000E-02  1.176000E-02  1.884710E-18  8.304255E-18 -1.755005E-18
         5   6 -3.920000E-02  1.176000E-02  1.176000E-02 -1.862293E-18 -1.271419E-18  6.581270E-19
         5   7 -3.920000E-02  1.176000E-02  1.176000E-02  8.775026E-19  2.453166E-18 -1.755005E-18
         5   8 -3.920000E-02  1.176000E-02  1.176000E-02 -1.620499E-18  5.783836E-18  2.193757E-19
         6   1 -3.920000E-02  1.176000E-02  1.176000E-02  6.771026E-18  8.501213E-18 -1.316254E-18
         6   2 -3.920000E-02  1.176000E-02  1.176000E-02  3.024023E-18 -8.152132E-18  1.316254E-18
         6   3 -3.920000E-02  1.176000E-02  1.176000E-02  5.564460E-18  3.111293E-18 -1.096878E-18
         6   4 -3.920000E-02  1.176000E-02  1.176000E-02  2.025624E-18  9.772632E-18  1.645317E-18
         6   5 -3.920000E-02  1.176000E-02  1.176000E-02  1.096878E-18  4.073666E-18 -1.316254E-18
         6   6 -3.920000E-02  1.176000E-02  1.176000E-02 -2.233791E-18 -8.416343E-18  1.480786E-18
         6   7 -3.920000E-02  1.176000E-02  1.176000E-02  2.632508E-18 -8.775026E-19 -8.775026E-19
         6   8 -3.920000E-02  1.176000E-02  1.176000E-02  9.671734E-19  4.118501E-18  3.290635E-18
         7   1 -3.920000E-02  1.176000E-02  1.176000E-02  2.165734E-18  8.875112E-19 -4.387513E-19
         7   2 -3.920000E-02  1.176000E-02  1.176000E-02  2.061651E-18  1.303845E-18 -2.358288E-18
         7   3 -3.920000E-02  1.176000E-02  1.176000E-02  2.714174E-18  2.241768E-20 -3.071259E-18
         7   4 -3.920000E-02  1.176000E-02  1.176000E-02  2.610090E-18 -2.891918E-18 -9.323465E-19
         7   5 -3.920000E-02  1.176000E-02  1.176000E-02 -2.104086E-18  7.510015E-19 -8.775026E-19
         7   6 -3.920000E-02  1.176000E-02  1.176000E-02 -5.434755E-18  2.520419E-18 -1.974381E-18
         7   7 -3.920000E-02  1.176000E-02  1.176000E-02  8.967072E-20  4.611690E-19 -1.755005E-18
         7   8 -3.920000E-02  1.176000E-02  1.176000E-02 -3.240998E-18 -2.453166E-18 -2.193757E-19
         8   1 -3.920000E-02  1.176000E-02  1.176000E-02  3.482792E-18  3.308251E-18 -1.316254E-18
         8   2 -3.920000E-02  1.176000E-02  1.176000E-02 -5.052048E-18 -1.265011E-19  1.261410E-18
         8   3 -3.920000E-02  1.176000E-02  1.176000E-02 -3.004006E-18 -3.330669E-18 -1.755005E-18
         8   4 -3.920000E-02  1.176000E-02  1.176000E-02 -3.524423E-18  8.326673E-19  3.016415E-18
         8   5 -3.920000E-02  1.176000E-02  1.176000E-02 -3.330669E-18  5.783836E-18 -4.814825E-35
         8   6 -3.920000E-02  1.176000E-02  1.176000E-02 -9.992007E-18  5.924805E-20  1.316254E-18
         8   7 -3.920000E-02  1.176000E-02  1.176000E-02 -6.661338E-18 -5.873506E-18 -1.755005E-18
         8   8 -3.920000E-02  1.176000E-02  1.176000E-02 -1.040834E-17  7.878319E-19  3.729386E-18
         9   1 -3.920000E-02  1.176000E-02  1.176000E-02 -6.551650E-18  1.336271E-18  4.387513E-19
         9   2 -3.920000E-02  1.176000E-02  1.176000E-02  1.150522E-18 -1.510891E-17  2.851884E-18
         9   3 -3.920000E-02  1.176000E-02  1.176000E-02 -5.345084E-18  5.345084E-18 -9.629650E-35
         9   4 -3.920000E-02  1.176000E-02  1.176000E-02  4.230589E-18  4.512417E-18  5.210172E-18
         9   5 -3.920000E-02  1.176000E-02  1.176000E-02 -3.151328E-18 -4.835867E-19  1.316254E-18
         9   6 -3.920000E-02  1.176000E-02  1.176000E-02 -6.533258E-19 -1.318176E-17 -1.425942E-18
         9   7 -3.920000E-02  1.176000E-02  1.176000E-02 -1.396322E-18 -4.387513E-18  1.755005E-18
         9   8 -3.920000E-02  1.176000E-02  1.176000E-02  1.934347E-18  1.441158E-18  2.632508E-18

 displacements (vx,vy,vz) for set NALL and time  0.3500000E+00

         1  0.000000E+00  0.000000E+00  0.000000E+00
         2 -2.333333E+01  0.000000E+00  0.000000E+00
         3 -4.666667E+01  0.000000E+00  0.000000E+00
         4 -7.000000E+01  0.000000E+00  0.000000E+00
         5  0.000000E+00  6.790555E+00  0.000000E+00
         6 -2.333333E+01  6.790555E+00  0.000000E+00
         7 -4.666667E+01  6.790555E+00  0.000000E+00
         8 -7.000000E+01  6.790555E+00  0.000000E+00
         9  0.000000E+00  1.358111E+01  0.000000E+00
        10 -2.333333E+01  1.358111E+01  0.000000E+00
        11 -4.666667E+01  1.358111E+01  0.000000E+00
        12 -7.000000E+01  1.358111E+01  0.000000E+00
        13  0.000000E+00  2.037167E+01  0.000000E+00
        14 -2.333333E+01  2.037167E+01  0.000000E+00
        15 -4.666667E+01  2.037167E+01  0.000000E+00
        16 -7.000000E+01  2.037167E+01  0.000000E+00
        17  0.000000E+00  0.000000E+00  9.506777E+00
        18 -2.333333E+01  0.000000E+00  9.506777E+00
        19 -4.666667E+01  0.000000E+00  9.506777E+00
        20 -7.000000E+01  0.000000E+00  9.506777E+00
        21  0.000000E+00  6.790555E+00  9.506777E+00
        22 -2.333333E+01  6.790555E+00  9.506777E+00
        23 -4.666667E+01  6.790555E+00  9.506777E+00
        24 -7.000000E+01  6.790555E+00  9.506777E+00
        25  0.000000E+00  1.358111E+01  9.506777E+00
        26 -2.333333E+01  1.358111E+01  9.506777E+00
        27 -4.666667E+01  1.358111E+01  9.506777E+00
        28 -7.000000E+01  1.358111E+01  9.506777E+00
        29  0.000000E+00  2.037167E+01  9.506777E+00
        30 -2.333333E+01  2.037167E+01  9.506777E+00
        31 -4.666667E+01  2.037167E+01  9.506777E+00
        32 -7.000000E+01  2.037167E+01  9.506777E+00

 stresses (elem, integ.pnt.,sxx,syy,szz,sxy,sxz,syz) for set EALL and time  0.3500000E+00

         1   1 -8.881784E+03 -9.540154E-13 -5.894637E-32  2.324074E-14  8.432329E-14  1.862087E-14
         1   2 -8.881784E+03  9.540154E-13  4.770077E-13  2.324074E-14  3.643641E-13 -1.862087E-14
         1   3 -8.881784E+03 -9.540154E-13 -1.431023E-12  9.296297E-14  3.490431E-14  3.724174E-14
         1   4 -8.881784E+03  9.540154E-13  4.770077E-13  9.296297E-14  4.961481E-13 -1.117252E-13
         1   5 -8.881784E+03 -4.770077E-13  9.540154E-13 -9.687963E-14 -8.639688E-15  1.303461E-13
         1   6 -8.881784E+03 -4.770077E-13  4.770077E-13 -3.098766E-14  2.714012E-13  3.724174E-14
         1   7 -8.881784E+03  4.770077E-13  4.770077E-13 -1.898426E-13  6.589197E-14  1.489670E-13
         1   8 -8.881784E+03 -4.770077E-13  4.770077E-13 -1.239506E-13  2.635679E-13 -5.586261E-14
         2   1 -8.881784E+03 -4.770077E-13  4.770077E-13  4.302561E-13  1.000043E-12  5.655561E-30
         2   2 -8.881784E+03  4.770077E-13 -4.770077E-13  2.984722E-13 -6.966751E-13 -2.793130E-14
         2   3 -8.881784E+03  4.770077E-13  4.770077E-13  3.372931E-13 -1.239506E-13 -2.234504E-13
         2   4 -8.881784E+03 -4.770077E-13 -4.770077E-13 -3.875185E-13  2.050484E-12 -1.303461E-13
         2   5 -8.881784E+03 -4.770077E-13 -4.770077E-13  5.271357E-13  4.498394E-13  1.117252E-13
         2   6 -8.881784E+03 -4.770077E-13  4.770077E-13  7.248116E-13 -4.435038E-14  1.024148E-13
         2   7 -8.881784E+03 -4.770077E-13  4.770077E-13  5.271357E-13 -3.718519E-13 -4.255416E-30
         2   8 -8.881784E+03 -1.431023E-12 -9.540154E-13  5.930277E-13  1.934367E-12  3.724174E-14
         3   1 -8.881784E+03 -4.770077E-13 -9.270639E-31 -9.844629E-13  4.574135E-13 -6.679317E-30
         3   2 -8.881784E+03  4.770077E-13  4.770077E-13  3.992685E-13 -2.342995E-12 -1.362967E-29
         3   3 -8.881784E+03  4.770077E-13  4.770077E-13 -1.046438E-12  9.922962E-13 -3.724174E-14
         3   4 -8.881784E+03  1.431023E-12  9.540154E-13  4.031851E-13  2.178352E-12  1.117252E-13
         3   5 -8.881784E+03 -4.770077E-13 -4.770077E-13 -4.961481E-13  7.365616E-13 -5.460452E-30
         3   6 -8.881784E+03  4.770077E-13 -4.770077E-13  6.899073E-13 -7.789537E-13 -9.310435E-15
         3   7 -8.881784E+03 -1.431023E-12 -9.540154E-13 -6.510864E-13  9.303209E-13 -1.489670E-13
         3   8 -8.881784E+03 -1.431023E-12 -1.431023E-12 -2.557346E-13  2.248160E-12  3.724174E-14
         4   1 -8.881784E+03 -4.770077E-13  9.540154E-13  1.549383E-14  1.230579E-13 -1.117252E-13
         4   2 -8.881784E+03 -1.431023E-12  7.377775E-32  1.549383E-14  2.713148E-13  2.793130E-14
         4   3 -8.881784E+03 -4.770077E-13 -4.770077E-13 -6.197532E-14  9.687963E-14 -1.862087E-13
         4   4 -8.881784E+03 -1.431023E-12 -4.770077E-13 -6.197532E-14  5.581234E-13 -9.310435E-14
         4   5 -8.881784E+03  9.540154E-13  9.540154E-13 -2.518179E-13  1.792446E-13 -3.724174E-14
         4   6 -8.881784E+03  1.908031E-12  1.431023E-12 -1.859259E-13  2.286636E-13  9.310435E-14
         4   7 -8.881784E+03  9.540154E-13 -4.770077E-13 -6.589197E-14  1.898426E-13 -1.489670E-13
         4   8 -8.881784E+03  9.540154E-13  4.770077E-13  1.688425E-30  3.875185E-13  2.234504E-13
         5   1 -8.881784E+03 -4.770077E-13  1.431023E-12  9.303209E-13  1.151237E-12 -2.234504E-13
         5   2 -8.881784E+03 -4.770077E-13 -4.770077E-13  1.095051E-12  1.052400E-12  1.955191E-13
         5   3 -8.881784E+03 -4.770077E-13  4.770077E-13  6.589197E-13 -9.296297E-14 -2.606922E-13
         5   4 -8.881784E+03  4.770077E-13  4.770077E-13  2.306219E-13  1.488444E-12  2.793130E-14
         5   5 -8.881784E+03  1.431023E-12  1.908031E-12 -1.532774E-30  3.568764E-13 -1.117252E-13
         5   6 -8.881784E+03  1.908031E-12  4.770077E-13 -3.294598E-13  5.380793E-13  5.586261E-13
         5   7 -8.881784E+03  1.431023E-12  2.385039E-12  5.271357E-13 -2.479013E-13  1.489670E-13
         5   8 -8.881784E+03  2.862046E-12  1.431023E-12 -4.612438E-13  2.058318E-12  4.096591E-13
         6   1 -8.881784E+03 -1.431023E-12 -9.540154E-13  4.496666E-13  1.232623E-12 -1.862087E-13
         6   2 -8.881784E+03 -4.770077E-13 -9.540154E-13  3.178827E-13 -1.403055E-12  4.189696E-13
         6   3 -8.881784E+03  4.770077E-13  4.770077E-13  5.891111E-13  9.613085E-13 -2.606922E-13
         6   4 -8.881784E+03  1.431023E-12  4.770077E-13  7.867870E-13  1.093092E-12  1.955191E-13
         6   5 -8.881784E+03  1.908031E-12 -1.068246E-29 -5.891111E-13  1.891629E-12  1.862087E-13
         6   6 -8.881784E+03 -4.770077E-13 -4.770077E-13 -4.573271E-13 -1.600645E-12  5.586261E-13
         6   7 -8.881784E+03  1.431023E-12  4.770077E-13 -2.792345E-13  6.824196E-13  1.489670E-13
         6   8 -8.881784E+03 -1.431023E-12 -1.431023E-12  1.161173E-13  2.000259E-12  4.469009E-13
         7   1 -8.881784E+03 -4.770077E-13  9.540154E-13 -1.278673E-13  1.385517E-13 -7.448348E-14
         7   2 -8.881784E+03  4.770077E-13  9.540154E-13 -5.232191E-13  4.185925E-13 -3.444861E-13
         7   3 -8.881784E+03 -4.770077E-13 -4.770077E-13 -6.589197E-14  1.666882E-13 -5.213843E-13
         7   4 -8.881784E+03 -4.770077E-13 -9.540154E-13 -4.612438E-13  7.597160E-13 -1.210356E-13
         7   5 -8.881784E+03 -4.770077E-13  4.770077E-13  8.103361E-31  1.918009E-13  2.234504E-13
         7   6 -8.881784E+03 -4.770077E-13  9.540154E-13  2.635679E-13  6.200987E-13 -3.537965E-13
         7   7 -8.881784E+03 -4.770077E-13  4.770077E-13 -9.618997E-31  7.372527E-14 -2.979339E-13
         7   8 -8.881784E+03 -4.770077E-13 -4.770077E-13  2.635679E-13  4.031851E-13 -2.979339E-13
         8   1 -8.881784E+03 -4.770077E-13  4.770077E-13  7.833304E-15  9.264042E-13  6.679676E-31
         8   2 -8.881784E+03  4.770077E-13  4.770077E-13  9.962128E-13  7.616743E-13  8.379391E-14
         8   3 -8.881784E+03  2.862046E-12  1.431023E-12  1.474505E-13 -8.110011E-31 -3.351756E-13
         8   4 -8.881784E+03  1.431023E-12  1.431023E-12 -1.161173E-13  1.647299E-12  1.582774E-13
         8   5 -8.881784E+03  1.431023E-12  2.385039E-12 -4.619480E-30  1.193889E-12 -2.979339E-13
         8   6 -8.881784E+03  4.770077E-13  1.908031E-12 -1.317839E-12  1.396172E-13  2.234504E-13
         8   7 -8.881784E+03 -1.431023E-12 -1.431023E-12  1.566661E-14  1.396172E-13 -1.489670E-13
         8   8 -8.881784E+03 -1.908031E-12 -1.431023E-12 -1.697525E-12  5.349690E-13  1.117252E-13
         9   1 -8.881784E+03 -2.385039E-12 -1.908031E-12 -5.504629E-13  5.272221E-13 -3.724174E-14
         9   2 -8.881784E+03 -1.908031E-12 -1.908031E-12  5.038086E-13 -1.383645E-12  3.537965E-13
         9   3 -8.881784E+03 -4.770077E-13 -4.770077E-13 -4.729937E-13  3.721975E-13 -3.724174E-14
         9   4 -8.881784E+03  2.810200E-29 -4.770077E-13  8.448456E-13  8.993332E-13  9.775956E-13
         9   5 -8.881784E+03 -1.438450E-29 -1.908031E-12 -1.147580E-12  1.085605E-12 -7.448348E-14
         9   6 -8.881784E+03  2.473239E-31 -1.908031E-12 -9.330853E-14 -1.220614E-12  1.675878E-13
         9   7 -8.881784E+03  9.540154E-13 -4.770077E-13 -8.377034E-13 -9.261741E-14 -1.489670E-13
         9   8 -8.881784E+03  9.540154E-13 -4.770077E-13  4.801359E-13  1.709505E-13  5.958678E-13

 strains (elem, integ.pnt.,exx,eyy,ezz,exy,exz,eyz) forset EALL and time  0.3500000E+00

         1   1 -4.557778E-02  1.367333E-02  1.367333E-02  1.648390E-19  5.037389E-19  1.098927E-19
         1   2 -4.557778E-02  1.367333E-02  1.367333E-02  1.648390E-19  2.260869E-18 -1.098927E-19
         1   3 -4.557778E-02  1.367333E-02  1.367333E-02  6.593561E-19  1.936571E-19  2.197854E-19
         1   4 -4.557778E-02  1.367333E-02  1.367333E-02  6.593561E-19  3.087754E-18 -6.593561E-19
         1   5 -4.557778E-02  1.367333E-02  1.367333E-02 -6.332278E-19 -1.556172E-19  7.692488E-19
         1   6 -4.557778E-02  1.367333E-02  1.367333E-02 -2.197854E-19  1.601513E-18  2.197854E-19
         1   7 -4.557778E-02  1.367333E-02  1.367333E-02 -1.292584E-18  4.134424E-19  8.791415E-19
         1   8 -4.557778E-02  1.367333E-02  1.367333E-02 -8.791415E-19  1.653770E-18 -3.296781E-19
         2   1 -4.557778E-02  1.367333E-02  1.367333E-02  2.674312E-18  6.230454E-18  4.288203E-35
         2   2 -4.557778E-02  1.367333E-02  1.367333E-02  1.847427E-18 -4.415688E-18 -1.648390E-19
         2   3 -4.557778E-02  1.367333E-02  1.367333E-02  2.014956E-18 -8.791415E-19 -1.318712E-18
         2   4 -4.557778E-02  1.367333E-02  1.367333E-02 -2.532911E-18  1.276446E-17 -7.692488E-19
         2   5 -4.557778E-02  1.367333E-02  1.367333E-02  3.307539E-18  2.543670E-18  6.593561E-19
         2   6 -4.557778E-02  1.367333E-02  1.367333E-02  4.547867E-18 -5.571481E-19  6.044098E-19
         2   7 -4.557778E-02  1.367333E-02  1.367333E-02  3.307539E-18 -2.637424E-18  1.504633E-36
         2   8 -4.557778E-02  1.367333E-02  1.367333E-02  3.720982E-18  1.183306E-17  2.197854E-19
         3   1 -4.557778E-02  1.367333E-02  1.367333E-02 -6.227765E-18  2.813022E-18 -4.175356E-35
         3   2 -4.557778E-02  1.367333E-02  1.367333E-02  2.454526E-18 -1.475828E-17 -9.065412E-35
         3   3 -4.557778E-02  1.367333E-02  1.367333E-02 -6.667335E-18  6.175508E-18 -2.197854E-19
         3   4 -4.557778E-02  1.367333E-02  1.367333E-02  2.428398E-18  1.361747E-17  6.593561E-19
         3   5 -4.557778E-02  1.367333E-02  1.367333E-02 -3.087754E-18  4.469482E-18 -4.212972E-35
         3   6 -4.557778E-02  1.367333E-02  1.367333E-02  4.354210E-18 -5.039694E-18 -5.494634E-20
         3   7 -4.557778E-02  1.367333E-02  1.367333E-02 -4.186681E-18  5.735937E-18 -8.791415E-19
         3   8 -4.557778E-02  1.367333E-02  1.367333E-02 -1.706026E-18  1.400479E-17  2.197854E-19
         4   1 -4.557778E-02  1.367333E-02  1.367333E-02  1.098927E-19  7.784706E-19 -6.593561E-19
         4   2 -4.557778E-02  1.367333E-02  1.367333E-02  1.098927E-19  1.708716E-18  1.648390E-19
         4   3 -4.557778E-02  1.367333E-02  1.367333E-02 -4.395707E-19  6.332278E-19 -1.098927E-18
         4   4 -4.557778E-02  1.367333E-02  1.367333E-02 -4.395707E-19  3.527325E-18 -5.494634E-19
         4   5 -4.557778E-02  1.367333E-02  1.367333E-02 -1.732155E-18  1.150031E-18 -2.197854E-19
         4   6 -4.557778E-02  1.367333E-02  1.367333E-02 -1.318712E-18  1.460113E-18  5.494634E-19
         4   7 -4.557778E-02  1.367333E-02  1.367333E-02 -4.134424E-19  1.292584E-18 -8.791415E-19
         4   8 -4.557778E-02  1.367333E-02  1.367333E-02  3.761582E-37  2.532911E-18  1.318712E-18
         5   1 -4.557778E-02  1.367333E-02  1.367333E-02  5.735937E-18  7.141104E-18 -1.318712E-18
         5   2 -4.557778E-02  1.367333E-02  1.367333E-02  6.769543E-18  6.520940E-18  1.153873E-18
         5   3 -4.557778E-02  1.367333E-02  1.367333E-02  4.134424E-18 -6.593561E-19 -1.538498E-18
         5   4 -4.557778E-02  1.367333E-02  1.367333E-02  1.447048E-18  9.263262E-18  1.648390E-19
         5   5 -4.557778E-02  1.367333E-02  1.367333E-02  0.000000E+00  1.884314E-18 -6.593561E-19
         5   6 -4.557778E-02  1.367333E-02  1.367333E-02 -2.067212E-18  3.021281E-18  3.296781E-18
         5   7 -4.557778E-02  1.367333E-02  1.367333E-02  3.307539E-18 -1.758283E-18  8.791415E-19
         5   8 -4.557778E-02  1.367333E-02  1.367333E-02 -2.894097E-18  1.271220E-17  2.417639E-18
         6   1 -4.557778E-02  1.367333E-02  1.367333E-02  2.758076E-18  7.664439E-18 -1.098927E-18
         6   2 -4.557778E-02  1.367333E-02  1.367333E-02  1.931191E-18 -8.873258E-18  2.472585E-18
         6   3 -4.557778E-02  1.367333E-02  1.367333E-02  3.747110E-18  5.955723E-18 -1.538498E-18
         6   4 -4.557778E-02  1.367333E-02  1.367333E-02  4.987437E-18  6.782608E-18  1.153873E-18
         6   5 -4.557778E-02  1.367333E-02  1.367333E-02 -3.747110E-18  1.169166E-17  1.098927E-18
         6   6 -4.557778E-02  1.367333E-02  1.367333E-02 -2.920225E-18 -1.022079E-17  3.296781E-18
         6   7 -4.557778E-02  1.367333E-02  1.367333E-02 -1.549256E-18  3.977654E-18  8.791415E-19
         6   8 -4.557778E-02  1.367333E-02  1.367333E-02  9.313981E-19  1.224650E-17  2.637424E-18
         7   1 -4.557778E-02  1.367333E-02  1.367333E-02 -8.530132E-19  8.883633E-19 -4.395707E-19
         7   2 -4.557778E-02  1.367333E-02  1.367333E-02 -3.333668E-18  2.645494E-18 -2.033015E-18
         7   3 -4.557778E-02  1.367333E-02  1.367333E-02 -4.134424E-19  1.020542E-18 -3.076995E-18
         7   4 -4.557778E-02  1.367333E-02  1.367333E-02 -2.894097E-18  4.741524E-18 -7.143024E-19
         7   5 -4.557778E-02  1.367333E-02  1.367333E-02  0.000000E+00  1.279520E-18  1.318712E-18
         7   6 -4.557778E-02  1.367333E-02  1.367333E-02  1.653770E-18  3.966896E-18 -2.087961E-18
         7   7 -4.557778E-02  1.367333E-02  1.367333E-02  0.000000E+00  3.611858E-19 -1.758283E-18
         7   8 -4.557778E-02  1.367333E-02  1.367333E-02  1.653770E-18  2.428398E-18 -1.758283E-18
         8   1 -4.557778E-02  1.367333E-02  1.367333E-02 -5.225662E-20  5.762066E-18  9.027797E-36
         8   2 -4.557778E-02  1.367333E-02  1.367333E-02  6.149380E-18  4.728460E-18  4.945171E-19
         8   3 -4.557778E-02  1.367333E-02  1.367333E-02  7.223716E-19  6.018531E-36 -1.978068E-18
         8   4 -4.557778E-02  1.367333E-02  1.367333E-02 -9.313981E-19  1.033606E-17  9.340878E-19
         8   5 -4.557778E-02  1.367333E-02  1.367333E-02  3.009266E-36  7.389707E-18 -1.758283E-18
         8   6 -4.557778E-02  1.367333E-02  1.367333E-02 -8.268849E-18  7.746282E-19  1.318712E-18
         8   7 -4.557778E-02  1.367333E-02  1.367333E-02 -1.045132E-19  7.746282E-19 -8.791415E-19
         8   8 -4.557778E-02  1.367333E-02  1.367333E-02 -1.085402E-17  3.255283E-18  6.593561E-19
         9   1 -4.557778E-02  1.367333E-02  1.367333E-02 -3.365175E-18  3.200336E-18 -2.197854E-19
         9   2 -4.557778E-02  1.367333E-02  1.367333E-02  3.249903E-18 -8.789494E-18  2.087961E-18
         9   3 -4.557778E-02  1.367333E-02  1.367333E-02 -2.815712E-18  2.208613E-18 -2.197854E-19
         9   4 -4.557778E-02  1.367333E-02  1.367333E-02  5.453136E-18  5.516152E-18  5.769366E-18
         9   5 -4.557778E-02  1.367333E-02  1.367333E-02 -6.845623E-18  6.406052E-18 -4.395707E-19
         9   6 -4.557778E-02  1.367333E-02  1.367333E-02 -2.305443E-19 -8.064433E-18  9.890342E-19
         9   7 -4.557778E-02  1.367333E-02  1.367333E-02 -4.647769E-18 -1.088168E-18 -8.791415E-19
         9   8 -4.557778E-02  1.367333E-02  1.367333E-02  3.621079E-18  5.656018E-19  3.516566E-18

 displacements (vx,vy,vz) for set NALL and time  0.4000000E+00

         1  0.000000E+00  0.000000E+00  0.000000E+00
         2 -2.666667E+01  0.000000E+00  0.000000E+00
         3 -5.333333E+01  0.000000E+00  0.000000E+00
         4 -8.000000E+01  0.000000E+00  0.000000E+00
         5  0.000000E+00  7.726961E+00  0.000000E+00
         6 -2.666667E+01  7.726961E+00  0.000000E+00
         7 -5.333333E+01  7.726961E+00  0.000000E+00
         8 -8.000000E+01  7.726961E+00  0.000000E+00
         9  0.000000E+00  1.545392E+01  0.000000E+00
        10 -2.666667E+01  1.545392E+01  0.000000E+00
        11 -5.333333E+01  1.545392E+01  0.000000E+00
        12 -8.000000E+01  1.545392E+01  0.000000E+00
        13  0.000000E+00  2.318088E+01  0.000000E+00
        14 -2.666667E+01  2.318088E+01  0.000000E+00
        15 -5.333333E+01  2.318088E+01  0.000000E+00
        16 -8.000000E+01  2.318088E+01  0.000000E+00
        17  0.000000E+00  0.000000E+00  1.081775E+01
        18 -2.666667E+01  0.000000E+00  1.081775E+01
        19 -5.333333E+01  0.000000E+00  1.081775E+01
        20 -8.000000E+01  0.000000E+00  1.081775E+01
        21  0.000000E+00  7.726961E+00  1.081775E+01
        22 -2.666667E+01  7.726961E+00  1.081775E+01
        23 -5.333333E+01  7.726961E+00  1.081775E+01
        24 -8.000000E+01  7.726961E+00  1.081775E+01
        25  0.000000E+00  1.545392E+01  1.081775E+01
        26 -2.666667E+01  1.545392E+01  1.081775E+01
        27 -5.333333E+01  1.545392E+01  1.081775E+01
        28 -8.000000E+01  1.545392E+01  1.081775E+01
        29  0.000000E+00  2.318088E+01  1.081775E+01
        30 -2.666667E+01  2.318088E+01  1.081775E+01
        31 -5.333333E+01  2.318088E+01  1.081775E+01
        32 -8.000000E+01  2.318088E+01  1.081775E+01

 stresses (elem, integ.pnt.,sxx,syy,szz,sxy,sxz,syz) for set EALL and time  0.4000000E+00

         1   1 -1.000821E+04  9.607338E-13  1.921468E-12  3.044317E-14  2.319049E-13 -5.635995E-14
         1   2 -1.000821E+04  1.921468E-12  1.921468E-12  3.044317E-14  9.993034E-13 -1.127199E-13
         1   3 -1.000821E+04  9.607338E-13  9.607338E-13  2.435454E-13  2.656662E-13 -2.254398E-13
         1   4 -1.000821E+04  1.921468E-12  9.607338E-13  2.435454E-13  9.840818E-13 -2.442265E-13
         1   5 -1.000821E+04  2.882202E-12  3.842935E-12 -1.001778E-13  1.253538E-13  9.393325E-14
         1   6 -1.000821E+04  2.882202E-12  2.882202E-12  5.529272E-13  8.927523E-13 -5.635995E-14
         1   7 -1.000821E+04  2.882202E-12  2.882202E-12 -1.306210E-13  2.047798E-13 -7.514660E-14
         1   8 -1.000821E+04  2.882202E-12  1.921468E-12  5.224841E-13  9.231955E-13 -1.878665E-13
         2   1 -1.000821E+04  1.921468E-12  1.921468E-12  6.467318E-13  1.330280E-12 -5.635995E-14
         2   2 -1.000821E+04  1.921468E-12  9.607338E-13  1.495768E-12  5.302264E-13  2.817998E-14
         2   3 -1.000821E+04  9.607338E-13  9.607338E-13  3.968132E-13  2.003557E-13 -1.878665E-13
         2   4 -1.000821E+04  9.607338E-13 -4.595630E-30  1.833644E-12  2.486224E-12 -5.635995E-14
         2   5 -1.000821E+04  9.607338E-13  9.607338E-13  1.506566E-12  1.228153E-12 -2.066532E-13
         2   6 -1.000821E+04 -4.260665E-30  3.016924E-30  2.290292E-12 -2.576609E-13  1.690799E-13
         2   7 -1.000821E+04  9.607338E-13  9.607338E-13  1.323907E-12  5.401807E-13 -3.757330E-13
         2   8 -1.000821E+04  9.607338E-13 -5.255761E-30  2.107633E-12  8.667333E-13  1.878665E-13
         3   1 -1.000821E+04  9.607338E-13  9.607338E-13  1.029747E-12  1.413999E-12  2.191704E-29
         3   2 -1.000821E+04  9.607338E-13  9.607338E-13  7.031940E-13 -1.557629E-12 -9.393325E-14
         3   3 -1.000821E+04  9.607338E-13  9.607338E-13  9.840818E-13  1.506566E-12 -7.514660E-14
         3   4 -1.000821E+04  9.607338E-13  9.607338E-13  6.575293E-13  2.812776E-12 -2.536198E-13
         3   5 -1.000821E+04  9.607338E-13 -4.481318E-31  2.029050E-12  1.699125E-13 -1.878665E-14
         3   6 -1.000821E+04 -7.625535E-31  5.755889E-30  7.228398E-13 -7.444346E-13 -4.320930E-13
         3   7 -1.000821E+04 -5.739857E-30 -9.607338E-13  8.014228E-13  1.846391E-12  2.329435E-29
         3   8 -1.000821E+04 -9.607338E-13 -9.607338E-13  8.014228E-13  5.401807E-13 -5.823862E-13
         4   1 -1.000821E+04  7.528169E-30  1.034807E-31  2.283238E-13  3.048262E-13 -5.260262E-13
         4   2 -1.000821E+04 -9.607338E-13 -1.251378E-30  7.508079E-13  1.137535E-12 -1.127199E-13
         4   3 -1.000821E+04  9.607338E-13  9.607338E-13  9.495034E-31  2.656662E-13  1.127199E-13
         4   4 -1.000821E+04  0.000000E+00  9.607338E-13  5.224841E-13  7.228398E-13 -1.878665E-14
         4   5 -1.000821E+04  2.882202E-12  2.882202E-12 -2.041309E-30  1.928764E-13 -3.005864E-13
         4   6 -1.000821E+04  9.607338E-13  2.882202E-12  1.785143E-30  8.623091E-13  2.255490E-30
         4   7 -1.000821E+04  2.882202E-12  1.921468E-12 -3.741664E-13  2.047798E-13  1.502932E-13
         4   8 -1.000821E+04  9.607338E-13  1.921468E-12 -2.435454E-13  9.231955E-13 -1.502932E-13
         5   1 -1.000821E+04  2.047028E-30  1.921468E-12  5.946319E-14  1.486920E-12 -3.381597E-13
         5   2 -1.000821E+04  2.882202E-12  1.921468E-12  2.227395E-13 -3.417741E-13  4.696663E-14
         5   3 -1.000821E+04  1.921468E-12  1.921468E-12  6.796501E-13  2.612420E-13 -1.502932E-13
         5   4 -1.000821E+04  2.882202E-12  2.882202E-12  6.469948E-13  1.436831E-12  1.878665E-13
         5   5 -1.000821E+04 -9.607338E-13  9.607338E-13  1.571660E-13  1.214881E-12 -4.508796E-13
         5   6 -1.000821E+04  2.779486E-29  9.607338E-13 -2.194012E-12 -2.219505E-13  5.635995E-13
         5   7 -1.000821E+04 -1.921468E-12 -1.921468E-12 -4.870908E-13  1.217727E-13 -3.005864E-13
         5   8 -1.000821E+04 -1.921468E-12 -1.921468E-12 -2.315785E-12  1.689225E-12  4.133063E-13
         6   1 -1.000821E+04  9.607338E-13  1.921468E-12 -1.826590E-13  1.438069E-12 -4.107471E-30
         6   2 -1.000821E+04  9.607338E-13  9.607338E-13  1.438935E-13 -2.349941E-12  2.066532E-13
         6   3 -1.000821E+04  9.607338E-13  1.921468E-12 -1.826590E-13  8.927523E-13 -7.514660E-14
         6   4 -1.000821E+04  9.607338E-13  9.607338E-13  7.316881E-13  2.590826E-12  3.381597E-13
         6   5 -1.000821E+04 -1.921468E-12 -9.607338E-13 -1.227627E-12  5.490290E-13 -1.127199E-13
         6   6 -1.000821E+04 -9.607338E-13 -1.921468E-12 -4.439011E-13 -7.898364E-13  6.431394E-30
         6   7 -1.000821E+04  1.026997E-30 -1.581350E-29 -2.089936E-12  1.080361E-12 -1.502932E-13
         6   8 -1.000821E+04  3.177273E-30 -9.607338E-13 -2.612420E-13  1.210982E-12  3.381597E-13
         7   1 -1.000821E+04  9.607338E-13  9.607338E-13  1.937194E-13  1.361512E-13 -1.502932E-13
         7   2 -1.000821E+04  1.921468E-12  1.921468E-12  6.835483E-13  4.463761E-13 -1.408999E-13
         7   3 -1.000821E+04  1.736463E-29 -1.770863E-30  2.241626E-13  2.003557E-13 -8.266126E-13
         7   4 -1.000821E+04  9.607338E-13 -1.490679E-30  7.139914E-13  7.228398E-13 -2.724064E-13
         7   5 -1.000821E+04  2.415681E-30  1.921468E-12 -5.203803E-14  9.269854E-14  6.011728E-13
         7   6 -1.000821E+04  9.607338E-13  2.882202E-12 -1.826590E-13  5.008892E-13 -4.133063E-13
         7   7 -1.000821E+04  1.211997E-29  1.921468E-12  3.741664E-13  1.394693E-13 -4.508796E-13
         7   8 -1.000821E+04  9.607338E-13  1.921468E-12  2.435454E-13  9.231955E-13 -3.757330E-14
         8   1 -1.000821E+04 -9.607338E-13  2.632139E-31  1.472224E-12  1.974537E-12 -3.757330E-13
         8   2 -1.000821E+04 -1.921468E-12 -9.607338E-13  1.929398E-12 -8.991255E-13 -1.221132E-13
         8   3 -1.000821E+04 -9.607338E-13 -4.487208E-31  5.755740E-13  4.920409E-13  4.646851E-30
         8   4 -1.000821E+04 -9.607338E-13 -2.044347E-30  1.359300E-12  1.471699E-12  5.448129E-13
         8   5 -1.000821E+04 -9.607338E-13 -9.607338E-13  1.323907E-12  2.050645E-12  1.502932E-13
         8   6 -1.000821E+04 -9.607338E-13 -9.607338E-13  1.483177E-13 -8.556729E-13 -3.757330E-14
         8   7 -1.000821E+04  1.921468E-12  1.921468E-12  8.014228E-13  4.007114E-13 -3.005864E-13
         8   8 -1.000821E+04  1.921468E-12  1.921468E-12  1.062665E-12  7.925744E-13  5.260262E-13
         9   1 -1.000821E+04 -7.140191E-30  9.607338E-13  6.187637E-13  1.568690E-12  1.127199E-13
         9   2 -1.000821E+04  1.921468E-12  9.607338E-13 -3.434139E-14 -8.804544E-13  5.072396E-13
         9   3 -1.000821E+04 -1.921468E-12 -9.607338E-13  1.044968E-12  4.615977E-13  2.630131E-13
         9   4 -1.000821E+04  1.906364E-29 -9.607338E-13  9.796576E-13  7.228398E-13  9.299392E-13
         9   5 -1.000821E+04  1.921468E-12  1.921468E-12  0.000000E+00  1.402490E-12  0.000000E+00
         9   6 -1.000821E+04 -9.607338E-13  1.169923E-29 -2.612420E-13 -6.547912E-13  5.635995E-13
         9   7 -1.000821E+04 -9.607338E-13 -1.921468E-12  1.344170E-29  8.014228E-13  6.011728E-13
         9   8 -1.000821E+04 -1.921468E-12 -2.882202E-12  7.091156E-30  1.483177E-13  1.239919E-12

 strains (elem, integ.pnt.,exx,eyy,ezz,exy,exz,eyz) forset EALL and time  0.4000000E+00

         1   1 -5.191111E-02  1.557333E-02  1.557333E-02  2.201915E-19  1.414555E-18 -3.302872E-19
         1   2 -5.191111E-02  1.557333E-02  1.557333E-02  2.201915E-19  6.238532E-18 -6.605744E-19
         1   3 -5.191111E-02  1.557333E-02  1.557333E-02  1.761532E-18  1.612373E-18 -1.321149E-18
         1   4 -5.191111E-02  1.557333E-02  1.557333E-02  1.761532E-18  6.128437E-18 -1.431245E-18
         1   5 -5.191111E-02  1.557333E-02  1.557333E-02 -6.009110E-19  6.438853E-19  5.504787E-19
         1   6 -5.191111E-02  1.557333E-02  1.557333E-02  3.504601E-18  5.467862E-18 -3.302872E-19
         1   7 -5.191111E-02  1.557333E-02  1.557333E-02 -8.211024E-19  1.171990E-18 -4.403829E-19
         1   8 -5.191111E-02  1.557333E-02  1.557333E-02  3.284410E-18  5.688054E-18 -1.100957E-18
         2   1 -5.191111E-02  1.557333E-02  1.557333E-02  3.935753E-18  8.261457E-18 -3.302872E-19
         2   2 -5.191111E-02  1.557333E-02  1.557333E-02  9.272919E-18  3.232204E-18  1.651436E-19
         2   3 -5.191111E-02  1.557333E-02  1.557333E-02  2.004462E-18  1.201822E-18 -1.100957E-18
         2   4 -5.191111E-02  1.557333E-02  1.557333E-02  1.103659E-17  1.557111E-17 -3.302872E-19
         2   5 -5.191111E-02  1.557333E-02  1.557333E-02  9.412846E-18  7.460955E-18 -1.211053E-18
         2   6 -5.191111E-02  1.557333E-02  1.557333E-02  1.433946E-17 -1.879085E-18  9.908616E-19
         2   7 -5.191111E-02  1.557333E-02  1.557333E-02  8.091698E-18  3.165083E-18 -2.201915E-18
         2   8 -5.191111E-02  1.557333E-02  1.557333E-02  1.301831E-17  5.217839E-18  1.100957E-18
         3   1 -5.191111E-02  1.557333E-02  1.557333E-02  6.458724E-18  8.866983E-18  1.324077E-34
         3   2 -5.191111E-02  1.557333E-02  1.557333E-02  4.405968E-18 -9.813097E-18 -5.504787E-19
         3   3 -5.191111E-02  1.557333E-02  1.557333E-02  6.128437E-18  9.412846E-18 -4.403829E-19
         3   4 -5.191111E-02  1.557333E-02  1.557333E-02  4.075681E-18  1.762387E-17 -1.486292E-18
         3   5 -5.191111E-02  1.557333E-02  1.557333E-02  1.269726E-17  9.816305E-19 -1.100957E-19
         3   6 -5.191111E-02  1.557333E-02  1.557333E-02  4.486232E-18 -4.766087E-18 -2.532202E-18
         3   7 -5.191111E-02  1.557333E-02  1.557333E-02  4.807288E-18  1.137611E-17  1.925930E-34
         3   8 -5.191111E-02  1.557333E-02  1.557333E-02  4.807288E-18  3.165083E-18 -3.412968E-18
         4   1 -5.191111E-02  1.557333E-02  1.557333E-02  1.651436E-18  1.880155E-18 -3.082681E-18
         4   2 -5.191111E-02  1.557333E-02  1.557333E-02  4.935846E-18  7.114683E-18 -6.605744E-19
         4   3 -5.191111E-02  1.557333E-02  1.557333E-02  1.880791E-37  1.612373E-18  6.605744E-19
         4   4 -5.191111E-02  1.557333E-02  1.557333E-02  3.284410E-18  4.486232E-18 -1.100957E-19
         4   5 -5.191111E-02  1.557333E-02  1.557333E-02  0.000000E+00  1.039521E-18 -1.761532E-18
         4   6 -5.191111E-02  1.557333E-02  1.557333E-02  2.256949E-36  5.247671E-18 -6.018531E-36
         4   7 -5.191111E-02  1.557333E-02  1.557333E-02 -2.582634E-18  1.171990E-18  8.807659E-19
         4   8 -5.191111E-02  1.557333E-02  1.557333E-02 -1.761532E-18  5.688054E-18 -8.807659E-19
         5   1 -5.191111E-02  1.557333E-02  1.557333E-02 -1.882214E-19  9.332582E-18 -1.981723E-18
         5   2 -5.191111E-02  1.557333E-02  1.557333E-02  8.381566E-19 -2.162852E-18  2.752393E-19
         5   3 -5.191111E-02  1.557333E-02  1.557333E-02  3.926522E-18  1.642205E-18 -8.807659E-19
         5   4 -5.191111E-02  1.557333E-02  1.557333E-02  3.721246E-18  9.032127E-18  1.100957E-18
         5   5 -5.191111E-02  1.557333E-02  1.557333E-02  6.421121E-19  7.550450E-18 -2.642298E-18
         5   6 -5.191111E-02  1.557333E-02  1.557333E-02 -1.413773E-17 -1.481677E-18  3.302872E-18
         5   7 -5.191111E-02  1.557333E-02  1.557333E-02 -3.523064E-18  8.807659E-19 -1.761532E-18
         5   8 -5.191111E-02  1.557333E-02  1.557333E-02 -1.501850E-17  1.073400E-17  2.422106E-18
         6   1 -5.191111E-02  1.557333E-02  1.557333E-02 -1.321149E-18  8.917416E-18  1.504633E-36
         6   2 -5.191111E-02  1.557333E-02  1.557333E-02  7.316073E-19 -1.489456E-17  1.211053E-18
         6   3 -5.191111E-02  1.557333E-02  1.557333E-02 -1.321149E-18  5.467862E-18 -4.403829E-19
         6   4 -5.191111E-02  1.557333E-02  1.557333E-02  4.426568E-18  1.614219E-17  1.981723E-18
         6   5 -5.191111E-02  1.557333E-02  1.557333E-02 -7.889968E-18  3.105419E-18 -6.605744E-19
         6   6 -5.191111E-02  1.557333E-02  1.557333E-02 -2.963354E-18 -5.310881E-18  9.780113E-36
         6   7 -5.191111E-02  1.557333E-02  1.557333E-02 -1.313764E-17  6.330166E-18 -8.807659E-19
         6   8 -5.191111E-02  1.557333E-02  1.557333E-02 -1.642205E-18  7.151268E-18  1.981723E-18
         7   1 -5.191111E-02  1.557333E-02  1.557333E-02  1.246570E-18  7.838128E-19 -8.807659E-19
         7   2 -5.191111E-02  1.557333E-02  1.557333E-02  4.325704E-18  2.733931E-18 -8.257180E-19
         7   3 -5.191111E-02  1.557333E-02  1.557333E-02  1.466761E-18  1.201822E-18 -4.844212E-18
         7   4 -5.191111E-02  1.557333E-02  1.557333E-02  4.545895E-18  4.486232E-18 -1.596388E-18
         7   5 -5.191111E-02  1.557333E-02  1.557333E-02 -5.000464E-19  4.386097E-19  3.523064E-18
         7   6 -5.191111E-02  1.557333E-02  1.557333E-02 -1.321149E-18  3.004555E-18 -2.422106E-18
         7   7 -5.191111E-02  1.557333E-02  1.557333E-02  2.582634E-18  7.614390E-19 -2.642298E-18
         7   8 -5.191111E-02  1.557333E-02  1.557333E-02  1.761532E-18  5.688054E-18 -2.201915E-19
         8   1 -5.191111E-02  1.557333E-02  1.557333E-02  8.793473E-18  1.242663E-17 -2.201915E-18
         8   2 -5.191111E-02  1.557333E-02  1.557333E-02  1.166733E-17 -5.637621E-18 -7.156223E-19
         8   3 -5.191111E-02  1.557333E-02  1.557333E-02  2.926429E-18  3.064218E-18  6.018531E-35
         8   4 -5.191111E-02  1.557333E-02  1.557333E-02  7.853044E-18  9.222487E-18  3.192776E-18
         8   5 -5.191111E-02  1.557333E-02  1.557333E-02  8.091698E-18  1.297711E-17  8.807659E-19
         8   6 -5.191111E-02  1.557333E-02  1.557333E-02  7.017756E-19 -5.292418E-18 -2.201915E-19
         8   7 -5.191111E-02  1.557333E-02  1.557333E-02  4.807288E-18  2.403644E-18 -1.761532E-18
         8   8 -5.191111E-02  1.557333E-02  1.557333E-02  6.449493E-18  4.866951E-18  3.082681E-18
         9   1 -5.191111E-02  1.557333E-02  1.557333E-02  3.486139E-18  9.738518E-18  6.605744E-19
         9   2 -5.191111E-02  1.557333E-02  1.557333E-02 -6.193732E-19 -5.657153E-18  2.972585E-18
         9   3 -5.191111E-02  1.557333E-02  1.557333E-02  6.568820E-18  2.844027E-18  1.541340E-18
         9   4 -5.191111E-02  1.557333E-02  1.557333E-02  6.158268E-18  4.486232E-18  5.449739E-18
         9   5 -5.191111E-02  1.557333E-02  1.557333E-02  0.000000E+00  8.412754E-18  0.000000E+00
         9   6 -5.191111E-02  1.557333E-02  1.557333E-02 -1.642205E-18 -4.519610E-18  3.302872E-18
         9   7 -5.191111E-02  1.557333E-02  1.557333E-02  0.000000E+00  4.807288E-18  3.523064E-18
         9   8 -5.191111E-02  1.557333E-02  1.557333E-02 -3.761582E-36  7.017756E-19  7.266318E-18

 displacements (vx,vy,vz) for set NALL and time  0.4500000E+00

         1  0.000000E+00  0.000000E+00  0.000000E+00
         2 -3.000000E+01  0.000000E+00  0.000000E+00
         3 -6.000000E+01  0.000000E+00  0.000000E+00
         4 -9.000000E+01  0.000000E+00  0.000000E+00
         5  0.000000E+00  8.655089E+00  0.000000E+00
         6 -3.000000E+01  8.655089E+00  0.000000E+00
         7 -6.000000E+01  8.655089E+00  0.000000E+00
         8 -9.000000E+01  8.655089E+00  0.000000E+00
         9  0.000000E+00  1.731018E+01  0.000000E+00
        10 -3.000000E+01  1.731018E+01  0.000000E+00
        11 -6.000000E+01  1.731018E+01  0.000000E+00
        12 -9.000000E+01  1.731018E+01  0.000000E+00
        13  0.000000E+00  2.596527E+01  0.000000E+00
        14 -3.000000E+01  2.596527E+01  0.000000E+00
        15 -6.000000E+01  2.596527E+01  0.000000E+00
        16 -9.000000E+01  2.596527E+01  0.000000E+00
        17  0.000000E+00  0.000000E+00  1.211713E+01
        18 -3.000000E+01  0.000000E+00  1.211713E+01
        19 -6.000000E+01  0.000000E+00  1.211713E+01
        20 -9.000000E+01  0.000000E+00  1.211713E+01
        21  0.000000E+00  8.655089E+00  1.211713E+01
        22 -3.000000E+01  8.655089E+00  1.211713E+01
        23 -6.000000E+01  8.655089E+00  1.211713E+01
        24 -9.000000E+01  8.655089E+00  1.211713E+01
        25  0.000000E+00  1.731018E+01  1.211713E+01
        26 -3.000000E+01  1.731018E+01  1.211713E+01
        27 -6.000000E+01  1.731018E+01  1.211713E+01
        28 -9.000000E+01  1.731018E+01  1.211713E+01
        29  0.000000E+00  2.596527E+01  1.211713E+01
        30 -3.000000E+01  2.596527E+01  1.211713E+01
        31 -6.000000E+01  2.596527E+01  1.211713E+01
        32 -9.000000E+01  2.596527E+01  1.211713E+01

 stresses (elem, integ.pnt.,sxx,syy,szz,sxy,sxz,syz) for set EALL and time  0.4500000E+00

         1   1 -1.110103E+04  9.675476E-13  9.675476E-13 -2.190862E-13 -6.227259E-14  3.790895E-14
         1   2 -1.110103E+04  1.935095E-12  1.935095E-12 -8.987748E-13 -1.593710E-13 -5.686342E-14
         1   3 -1.110103E+04 -9.675476E-13 -2.385470E-31 -1.966564E-13  1.343838E-13 -1.103341E-30
         1   4 -1.110103E+04  3.815681E-30 -1.546916E-30 -8.763450E-13  4.580450E-13 -4.169984E-13
         1   5 -1.110103E+04  4.337633E-32  9.675476E-13 -8.971941E-14 -9.217906E-14  2.653626E-13
         1   6 -1.110103E+04 -9.675476E-13  9.675476E-13 -8.971941E-14 -1.892774E-13 -2.084992E-13
         1   7 -1.110103E+04  3.796865E-30  9.675476E-13 -3.588776E-13 -2.294131E-13  1.516358E-13
         1   8 -1.110103E+04 -9.675476E-13 -4.504437E-31 -3.588776E-13  1.589803E-13 -5.686342E-13
         2   1 -1.110103E+04 -1.935095E-12 -1.935095E-12 -3.285805E-13  4.381725E-13 -3.790895E-14
         2   2 -1.110103E+04  1.444868E-30  6.563576E-32  7.395015E-13 -7.968548E-14 -6.634066E-14
         2   3 -1.110103E+04 -9.675476E-13  0.000000E+00 -1.967723E-14  2.589290E-13 -4.549074E-13
         2   4 -1.110103E+04  9.675476E-13 -9.675476E-13  5.952791E-13  7.767869E-13 -3.032716E-13
         2   5 -1.110103E+04 -9.675476E-13 -2.383230E-30  1.495323E-13  3.433385E-13 -7.581790E-14
         2   6 -1.110103E+04  9.675476E-13  8.550726E-30  2.006785E-14 -9.189403E-13  2.369309E-13
         2   7 -1.110103E+04  2.152048E-29  2.074535E-30  9.963615E-13  1.967723E-14 -6.065432E-13
         2   8 -1.110103E+04  1.935095E-12  1.935095E-12  2.195745E-13  1.120125E-12 -1.516358E-13
         3   1 -1.110103E+04  9.675476E-13 -2.030449E-30  1.073099E-12  1.105367E-12  1.825845E-29
         3   2 -1.110103E+04  9.675476E-13 -9.675476E-13  9.436345E-13 -2.713835E-12  1.421586E-13
         3   3 -1.110103E+04  9.675476E-13 -9.675476E-13  1.155342E-12  2.071432E-12 -1.516358E-13
         3   4 -1.110103E+04  9.675476E-13 -9.675476E-13 -4.629643E-13  3.883935E-13  3.222261E-13
         3   5 -1.110103E+04  9.675476E-13 -2.230510E-30 -9.160900E-13  1.175019E-12  3.032716E-13
         3   6 -1.110103E+04  2.902643E-12  9.675476E-13 -9.160900E-13 -7.993145E-13  3.127488E-13
         3   7 -1.110103E+04 -7.621557E-30 -1.935095E-12 -5.572124E-13  3.982321E-13  3.032716E-13
         3   8 -1.110103E+04  9.675476E-13 -9.675476E-13 -2.982834E-13  2.210735E-12  4.169984E-13
         4   1 -1.110103E+04  1.044199E-30  9.675476E-13 -1.319241E-13  6.965155E-14 -2.274537E-13
         4   2 -1.110103E+04 -4.057360E-31 -1.084593E-30 -6.174160E-13  5.227773E-13 -3.790895E-14
         4   3 -1.110103E+04  4.654265E-30  9.675476E-13 -1.618306E-13  1.294645E-13 -4.549074E-13
         4   4 -1.110103E+04  9.675476E-13  1.935095E-12 -6.473225E-13  5.178580E-13 -6.065432E-13
         4   5 -1.110103E+04  9.249611E-30  1.935095E-12 -6.178066E-13 -1.970470E-13 -3.032716E-13
         4   6 -1.110103E+04  9.675476E-13  1.935095E-12 -1.394594E-12  2.951584E-14  9.477237E-14
         4   7 -1.110103E+04 -2.902643E-12 -9.675476E-13 -2.589290E-13  1.294645E-13 -4.549074E-13
         4   8 -1.110103E+04 -1.935095E-12 -9.675476E-13 -1.035716E-12  5.178580E-13 -7.581790E-14
         5   1 -1.110103E+04  9.675476E-13  9.675476E-13  3.836695E-13  1.508714E-12 -3.032716E-13
         5   2 -1.110103E+04  9.675476E-13  9.675476E-13  8.691613E-13 -1.112942E-12  1.326813E-13
         5   3 -1.110103E+04  9.675476E-13  9.675476E-13  6.374838E-13  7.949017E-14 -1.516358E-13
         5   4 -1.110103E+04  1.554475E-30 -5.005886E-30  4.109210E-13  9.210094E-13 -1.895447E-14
         5   5 -1.110103E+04  9.675476E-13  9.675476E-13 -4.375865E-13  6.170254E-13 -3.790895E-13
         5   6 -1.110103E+04 -9.675476E-13  9.675476E-13  3.392004E-13 -8.879993E-13  3.032716E-13
         5   7 -1.110103E+04  9.675476E-13  9.675476E-13  4.785035E-13  1.786576E-13 -3.032716E-13
         5   8 -1.110103E+04  2.064540E-30 -9.519480E-30  9.011003E-14  5.670510E-13 -7.581790E-14
         6   1 -1.110103E+04 -9.675476E-13  2.585703E-31  1.943920E-13 -3.882455E-31 -1.516358E-13
         6   2 -1.110103E+04  1.699348E-30 -1.333253E-30 -2.587337E-13 -4.531257E-13  2.843171E-13
         6   3 -1.110103E+04 -9.675476E-13 -9.675476E-13  3.588776E-13  2.071432E-12 -2.274537E-13
         6   4 -1.110103E+04  6.232346E-30 -9.675476E-13  4.883421E-13  3.883935E-13  9.477237E-14
         6   5 -1.110103E+04 -9.675476E-13  1.988775E-30 -4.973995E-13  3.285805E-13 -3.790895E-13
         6   6 -1.110103E+04 -1.935095E-12 -1.935095E-12 -4.973995E-13 -7.718676E-13 -1.326813E-13
         6   7 -1.110103E+04 -9.675476E-13 -9.675476E-13 -5.572124E-13  3.982321E-13 -3.032716E-13
         6   8 -1.110103E+04 -9.675476E-13 -9.675476E-13 -2.982834E-13  2.081270E-12 -5.307253E-13
         7   1 -1.110103E+04  9.675476E-13  9.675476E-13 -9.709837E-14  1.294645E-13 -2.274537E-13
         7   2 -1.110103E+04 -9.675476E-13 -3.151325E-31 -3.883935E-13  5.825902E-13 -7.392245E-13
         7   3 -1.110103E+04  9.675476E-13  9.675476E-13  3.814051E-13  6.965155E-14 -6.065432E-13
         7   4 -1.110103E+04  6.783448E-30 -1.589521E-30  9.011003E-14  9.759030E-13  4.738619E-13
         7   5 -1.110103E+04  3.878554E-31 -4.672522E-31 -5.733620E-31  1.182007E-13 -7.581790E-14
         7   6 -1.110103E+04  2.488739E-30 -1.979764E-30  1.035716E-12  5.875095E-13 -2.653626E-13
         7   7 -1.110103E+04  1.935095E-12  1.935095E-12  1.489351E-31  7.457086E-14  1.516358E-13
         7   8 -1.110103E+04  1.935095E-12  1.935095E-12  1.035716E-12  6.571611E-13  6.065432E-13
         8   1 -1.110103E+04  2.902643E-12  2.902643E-12  3.785549E-13  1.229717E-12 -3.790895E-13
         8   2 -1.110103E+04  1.935095E-12  9.675476E-13 -2.687676E-13 -2.591243E-13 -1.895447E-14
         8   3 -1.110103E+04  9.675476E-13  9.675476E-13 -2.589290E-13  1.115206E-12 -6.065432E-13
         8   4 -1.110103E+04  1.935095E-12  1.935095E-12 -7.120547E-13  1.050474E-12  3.601350E-13
         8   5 -1.110103E+04  9.675476E-13  9.675476E-13  1.274968E-12  1.030015E-12 -3.790895E-13
         8   6 -1.110103E+04  9.675476E-13 -9.675476E-13 -9.259287E-13  9.139781E-14  6.823611E-13
         8   7 -1.110103E+04  2.902643E-12  9.675476E-13  5.178580E-13  9.357673E-13  7.475767E-30
         8   8 -1.110103E+04 -9.049960E-31 -1.209914E-29 -2.589290E-13  1.777286E-12  5.307253E-13
         9   1 -1.110103E+04 -6.895599E-30 -6.900429E-30 -6.768383E-13  2.225688E-12  1.516358E-13
         9   2 -1.110103E+04  1.693534E-31  6.720484E-30 -9.424809E-14 -1.981908E-12  2.274537E-13
         9   3 -1.110103E+04  1.935095E-12  1.935095E-12 -9.160900E-13  2.927709E-12  3.790895E-13
         9   4 -1.110103E+04  9.675476E-13 -6.062479E-30 -2.687676E-13  1.244671E-12  8.719058E-13
         9   5 -1.110103E+04  9.675476E-13 -9.675476E-13 -5.572124E-13  1.314322E-12  4.549074E-13
         9   6 -1.110103E+04 -1.935095E-12 -1.935095E-12 -5.572124E-13 -1.825192E-12 -2.084992E-13
         9   7 -1.110103E+04  2.902643E-12  9.675476E-13 -5.572124E-13  9.554445E-13  6.065432E-13
         9   8 -1.110103E+04 -1.213129E-30 -2.902643E-12 -2.982834E-13  3.081221E-13  3.032716E-13

 strains (elem, integ.pnt.,exx,eyy,ezz,exy,exz,eyz) forset EALL and time  0.4500000E+00

         1   1 -5.820000E-02  1.746000E-02  1.746000E-02 -1.371662E-18 -4.244240E-19  2.205940E-19
         1   2 -5.820000E-02  1.746000E-02  1.746000E-02 -5.652092E-18 -1.035914E-18 -3.308910E-19
         1   3 -5.820000E-02  1.746000E-02  1.746000E-02 -1.206216E-18  7.817921E-19 -3.009266E-36
         1   4 -5.820000E-02  1.746000E-02  1.746000E-02 -5.486646E-18  2.820092E-18 -2.426534E-18
         1   5 -5.820000E-02  1.746000E-02  1.746000E-02 -6.617819E-19 -6.450180E-19  1.544158E-18
         1   6 -5.820000E-02  1.746000E-02  1.746000E-02 -6.617819E-19 -1.256508E-18 -1.213267E-18
         1   7 -5.820000E-02  1.746000E-02  1.746000E-02 -2.647128E-18 -1.831808E-18  8.823759E-19
         1   8 -5.820000E-02  1.746000E-02  1.746000E-02 -2.647128E-18  6.141524E-19 -3.308910E-18
         2   1 -5.820000E-02  1.746000E-02  1.746000E-02 -2.004772E-18  2.743323E-18 -2.205940E-19
         2   2 -5.820000E-02  1.746000E-02  1.746000E-02  4.721618E-18 -5.179570E-19 -3.860395E-19
         2   3 -5.820000E-02  1.746000E-02  1.746000E-02  1.341118E-19  1.630640E-18 -2.647128E-18
         2   4 -5.820000E-02  1.746000E-02  1.746000E-02  4.006882E-18  4.891920E-18 -1.764752E-18
         2   5 -5.820000E-02  1.746000E-02  1.746000E-02  1.102970E-18  1.904188E-18 -4.411880E-19
         2   6 -5.820000E-02  1.746000E-02  1.746000E-02  2.876499E-19 -6.045182E-18  1.378712E-18
         2   7 -5.820000E-02  1.746000E-02  1.746000E-02  6.790784E-18 -1.341118E-19 -3.529504E-18
         2   8 -5.820000E-02  1.746000E-02  1.746000E-02  1.898864E-18  6.796109E-18 -8.823759E-19
         3   1 -5.820000E-02  1.746000E-02  1.746000E-02  6.798303E-18  6.896692E-18  1.083336E-34
         3   2 -5.820000E-02  1.746000E-02  1.746000E-02  5.982983E-18 -1.715525E-17  8.272274E-19
         3   3 -5.820000E-02  1.746000E-02  1.746000E-02  7.404936E-18  1.304512E-17 -8.823759E-19
         3   4 -5.820000E-02  1.746000E-02  1.746000E-02 -2.786564E-18  2.445960E-18  1.875049E-18
         3   5 -5.820000E-02  1.746000E-02  1.746000E-02 -5.640184E-18  7.270824E-18  1.764752E-18
         3   6 -5.820000E-02  1.746000E-02  1.746000E-02 -5.640184E-18 -5.162806E-18  1.819900E-18
         3   7 -5.820000E-02  1.746000E-02  1.746000E-02 -2.993057E-18  2.378904E-18  1.764752E-18
         3   8 -5.820000E-02  1.746000E-02  1.746000E-02 -1.362417E-18  1.379338E-17  2.426534E-18
         4   1 -5.820000E-02  1.746000E-02  1.746000E-02 -7.985561E-19  3.741321E-19 -1.323564E-18
         4   2 -5.820000E-02  1.746000E-02  1.746000E-02 -3.856006E-18  3.227752E-18 -2.205940E-19
         4   3 -5.820000E-02  1.746000E-02  1.746000E-02 -1.019150E-18  8.153200E-19 -2.647128E-18
         4   4 -5.820000E-02  1.746000E-02  1.746000E-02 -4.076600E-18  3.261280E-18 -3.529504E-18
         4   5 -5.820000E-02  1.746000E-02  1.746000E-02 -4.277768E-18 -1.627978E-18 -1.764752E-18
         4   6 -5.820000E-02  1.746000E-02  1.746000E-02 -9.169688E-18 -2.011677E-19  5.514850E-19
         4   7 -5.820000E-02  1.746000E-02  1.746000E-02 -1.630640E-18  8.153200E-19 -2.647128E-18
         4   8 -5.820000E-02  1.746000E-02  1.746000E-02 -6.522560E-18  3.261280E-18 -4.411880E-19
         5   1 -5.820000E-02  1.746000E-02  1.746000E-02  2.690369E-18  9.452949E-18 -1.764752E-18
         5   2 -5.820000E-02  1.746000E-02  1.746000E-02  5.747819E-18 -7.057281E-18  7.720789E-19
         5   3 -5.820000E-02  1.746000E-02  1.746000E-02  4.143656E-18  3.070762E-19 -8.823759E-19
         5   4 -5.820000E-02  1.746000E-02  1.746000E-02  2.716846E-18  5.606656E-18 -1.102970E-19
         5   5 -5.820000E-02  1.746000E-02  1.746000E-02 -2.110681E-18  3.434245E-18 -2.205940E-18
         5   6 -5.820000E-02  1.746000E-02  1.746000E-02  2.781240E-18 -6.043851E-18  1.764752E-18
         5   7 -5.820000E-02  1.746000E-02  1.746000E-02  3.529504E-18  4.800406E-19 -1.764752E-18
         5   8 -5.820000E-02  1.746000E-02  1.746000E-02  1.083544E-18  2.926001E-18 -4.411880E-19
         6   1 -5.820000E-02  1.746000E-02  1.746000E-02  1.433861E-18 -1.222514E-36 -8.823759E-19
         6   2 -5.820000E-02  1.746000E-02  1.746000E-02 -1.419759E-18 -2.853620E-18  1.654455E-18
         6   3 -5.820000E-02  1.746000E-02  1.746000E-02  2.647128E-18  1.304512E-17 -1.323564E-18
         6   4 -5.820000E-02  1.746000E-02  1.746000E-02  3.462448E-18  2.445960E-18  5.514850E-19
         6   5 -5.820000E-02  1.746000E-02  1.746000E-02 -2.551869E-18  2.004772E-18 -2.205940E-18
         6   6 -5.820000E-02  1.746000E-02  1.746000E-02 -2.551869E-18 -4.925448E-18 -7.720789E-19
         6   7 -5.820000E-02  1.746000E-02  1.746000E-02 -2.993057E-18  2.378904E-18 -1.764752E-18
         6   8 -5.820000E-02  1.746000E-02  1.746000E-02 -1.362417E-18  1.297806E-17 -3.088316E-18
         7   1 -5.820000E-02  1.746000E-02  1.746000E-02 -6.114900E-19  8.153200E-19 -1.323564E-18
         7   2 -5.820000E-02  1.746000E-02  1.746000E-02 -2.445960E-18  3.668940E-18 -4.301583E-18
         7   3 -5.820000E-02  1.746000E-02  1.746000E-02  2.918014E-18  3.741321E-19 -3.529504E-18
         7   4 -5.820000E-02  1.746000E-02  1.746000E-02  1.083544E-18  6.081372E-18  2.757425E-18
         7   5 -5.820000E-02  1.746000E-02  1.746000E-02 -7.523164E-37  6.798771E-19 -4.411880E-19
         7   6 -5.820000E-02  1.746000E-02  1.746000E-02  6.522560E-18  3.635412E-18 -1.544158E-18
         7   7 -5.820000E-02  1.746000E-02  1.746000E-02 -1.504633E-36  3.406041E-19  8.823759E-19
         7   8 -5.820000E-02  1.746000E-02  1.746000E-02  6.522560E-18  4.009544E-18  3.529504E-18
         8   1 -5.820000E-02  1.746000E-02  1.746000E-02  2.513016E-18  7.534659E-18 -2.205940E-18
         8   2 -5.820000E-02  1.746000E-02  1.746000E-02 -1.563584E-18 -1.841521E-18 -1.102970E-19
         8   3 -5.820000E-02  1.746000E-02  1.746000E-02 -1.630640E-18  6.829636E-18 -3.529504E-18
         8   4 -5.820000E-02  1.746000E-02  1.746000E-02 -4.484260E-18  6.421976E-18  2.095643E-18
         8   5 -5.820000E-02  1.746000E-02  1.746000E-02  8.287312E-18  5.712565E-18 -2.205940E-18
         8   6 -5.820000E-02  1.746000E-02  1.746000E-02 -5.573128E-18 -1.985053E-19  3.970692E-18
         8   7 -5.820000E-02  1.746000E-02  1.746000E-02  3.261280E-18  5.506073E-18  6.018531E-35
         8   8 -5.820000E-02  1.746000E-02  1.746000E-02 -1.630640E-18  1.080565E-17  3.088316E-18
         9   1 -5.820000E-02  1.746000E-02  1.746000E-02 -3.875432E-18  1.390368E-17  8.823759E-19
         9   2 -5.820000E-02  1.746000E-02  1.746000E-02 -2.064923E-19 -1.259422E-17  1.323564E-18
         9   3 -5.820000E-02  1.746000E-02  1.746000E-02 -5.640184E-18  1.824412E-17  2.205940E-18
         9   4 -5.820000E-02  1.746000E-02  1.746000E-02 -1.563584E-18  7.644956E-18  5.073662E-18
         9   5 -5.820000E-02  1.746000E-02  1.746000E-02 -2.993057E-18  8.019089E-18  2.647128E-18
         9   6 -5.820000E-02  1.746000E-02  1.746000E-02 -2.993057E-18 -1.175242E-17 -1.213267E-18
         9   7 -5.820000E-02  1.746000E-02  1.746000E-02 -2.993057E-18  5.371961E-18  3.529504E-18
         9   8 -5.820000E-02  1.746000E-02  1.746000E-02 -1.362417E-18  1.295361E-18  1.764752E-18

 displacements (vx,vy,vz) for set NALL and time  0.5000000E+00

         1  0.000000E+00  0.000000E+00  0.000000E+00
         2 -3.333333E+01  0.000000E+00  0.000000E+00
         3 -6.666667E+01  0.000000E+00  0.000000E+00
         4 -1.000000E+02  0.000000E+00  0.000000E+00
         5  0.000000E+00  9.574986E+00  0.000000E+00
         6 -3.333333E+01  9.574986E+00  0.000000E+00
         7 -6.666667E+01  9.574986E+00  0.000000E+00
         8 -1.000000E+02  9.574986E+00  0.000000E+00
         9  0.000000E+00  1.914997E+01  0.000000E+00
        10 -3.333333E+01  1.914997E+01  0.000000E+00
        11 -6.666667E+01  1.914997E+01  0.000000E+00
        12 -1.000000E+02  1.914997E+01  0.000000E+00
        13  0.000000E+00  2.872496E+01  0.000000E+00
        14 -3.333333E+01  2.872496E+01  0.000000E+00
        15 -6.666667E+01  2.872496E+01  0.000000E+00
        16 -1.000000E+02  2.872496E+01  0.000000E+00
        17  0.000000E+00  0.000000E+00  1.340498E+01
        18 -3.333333E+01  0.000000E+00  1.340498E+01
        19 -6.666667E+01  0.000000E+00  1.340498E+01
        20 -1.000000E+02  0.000000E+00  1.340498E+01
        21  0.000000E+00  9.574986E+00  1.340498E+01
        22 -3.333333E+01  9.574986E+00  1.340498E+01
        23 -6.666667E+01  9.574986E+00  1.340498E+01
        24 -1.000000E+02  9.574986E+00  1.340498E+01
        25  0.000000E+00  1.914997E+01  1.340498E+01
        26 -3.333333E+01  1.914997E+01  1.340498E+01
        27 -6.666667E+01  1.914997E+01  1.340498E+01
        28 -1.000000E+02  1.914997E+01  1.340498E+01
        29  0.000000E+00  2.872496E+01  1.340498E+01
        30 -3.333333E+01  2.872496E+01  1.340498E+01
        31 -6.666667E+01  2.872496E+01  1.340498E+01
        32 -1.000000E+02  2.872496E+01  1.340498E+01

 stresses (elem, integ.pnt.,sxx,syy,szz,sxy,sxz,syz) for set EALL and time  0.5000000E+00

         1   1 -1.216089E+04 -1.948917E-12 -9.744586E-13  9.623569E-14 -9.623569E-14 -8.293265E-31
         1   2 -1.216089E+04 -9.744586E-13 -9.744586E-13  3.849427E-13 -2.566285E-13  3.824878E-14
         1   3 -1.216089E+04  1.562503E-30 -3.906258E-31  9.623569E-14  1.283142E-13 -2.294927E-13
         1   4 -1.216089E+04  9.744586E-13  9.744586E-13  3.849427E-13 -8.915278E-31 -2.868658E-13
         1   5 -1.216089E+04 -1.948917E-12 -9.744586E-13  2.566285E-13 -9.623569E-14  5.354829E-13
         1   6 -1.216089E+04 -2.923376E-12 -9.744586E-13  1.539771E-12 -2.566285E-13  4.398609E-13
         1   7 -1.216089E+04 -1.562503E-30  9.744586E-13  2.566285E-13  1.283142E-13  1.529951E-13
         1   8 -1.216089E+04 -9.744586E-13  9.744586E-13  1.539771E-12  2.566285E-13  1.147463E-13
         2   1 -1.216089E+04 -4.872293E-12 -2.923376E-12  3.555653E-13  6.268825E-13 -7.649755E-14
         2   2 -1.216089E+04 -2.923376E-12 -2.923376E-12 -1.504991E-12  4.946842E-14 -9.562194E-14
         2   3 -1.216089E+04 -8.770127E-12 -6.821210E-12  7.914947E-13 -3.153833E-13 -1.529951E-13
         2   4 -1.216089E+04 -7.795669E-12 -7.795669E-12 -1.004905E-12  3.149101E-12 -1.721195E-13
         2   5 -1.216089E+04 -1.948917E-12 -1.948917E-12  1.026514E-12  9.116860E-14  2.294927E-13
         2   6 -1.216089E+04 -2.923376E-12 -9.744586E-13 -3.849427E-13 -1.224052E-12  2.199305E-13
         2   7 -1.216089E+04 -3.897834E-12 -2.923376E-12  1.539771E-12 -1.239924E-12 -3.247315E-29
         2   8 -1.216089E+04 -3.897834E-12 -3.897834E-12 -5.132570E-13  1.839618E-12  1.912439E-13
         3   1 -1.216089E+04 -2.923376E-12 -9.744586E-13 -7.478524E-13 -5.867005E-13  6.909368E-30
         3   2 -1.216089E+04 -9.744586E-13 -1.948917E-12 -3.629097E-13 -2.017578E-13 -6.693536E-14
         3   3 -1.216089E+04  9.744586E-13  9.744586E-13 -6.817532E-13  4.545022E-13 -1.529951E-13
         3   4 -1.216089E+04  2.923376E-12  9.744586E-13  2.806036E-13  1.994273E-12  1.147463E-13
         3   5 -1.216089E+04 -1.948917E-12 -1.948917E-12 -9.383817E-13  4.545022E-13 -3.824878E-14
         3   6 -1.216089E+04 -1.948917E-12 -2.923376E-12  8.813224E-14 -1.277740E-12 -1.243085E-13
         3   7 -1.216089E+04 -6.617218E-30 -9.744586E-13 -6.739850E-13  1.026514E-12 -1.529951E-13
         3   8 -1.216089E+04  9.744586E-13 -9.744586E-13  6.091575E-13  3.849427E-12 -1.912439E-13
         4   1 -1.216089E+04  9.744586E-13  1.948917E-12  8.543110E-14  1.283142E-13 -3.059902E-13
         4   2 -1.216089E+04  2.923376E-12  2.923376E-12 -1.391188E-13  5.132570E-13 -1.529951E-13
         4   3 -1.216089E+04  9.744586E-13  1.948917E-12  2.029408E-13 -1.468859E-30 -5.354829E-13
         4   4 -1.216089E+04  2.923376E-12  2.923376E-12 -2.160918E-14  2.566285E-13 -3.824878E-13
         4   5 -1.216089E+04  1.948917E-12  1.948917E-12 -3.849427E-13  1.603928E-13 -5.354829E-13
         4   6 -1.216089E+04  1.948917E-12  1.948917E-12 -5.132570E-13  2.566285E-13 -2.294927E-13
         4   7 -1.216089E+04  1.948917E-12  1.948917E-12 -1.499234E-13  1.217094E-30 -6.119804E-13
         4   8 -1.216089E+04  1.948917E-12  1.948917E-12 -2.782377E-13  2.566285E-13 -4.589853E-13
         5   1 -1.216089E+04 -3.897834E-12 -3.897834E-12  1.901054E-13  1.195010E-12 -4.589853E-13
         5   2 -1.216089E+04 -5.846752E-12 -4.872293E-12  2.499762E-12 -1.202108E-13 -5.737316E-14
         5   3 -1.216089E+04 -9.744586E-13 -9.744586E-13  4.389657E-13 -3.741382E-13 -5.354829E-13
         5   4 -1.216089E+04 -3.071076E-29 -9.744586E-13  2.171208E-12  2.962032E-12 -6.311048E-13
         5   5 -1.216089E+04 -9.744586E-13 -9.744586E-13  3.957473E-13  9.522227E-13 -6.119804E-13
         5   6 -1.216089E+04 -9.744586E-13 -9.744586E-13  2.674331E-13 -2.026055E-13  4.972341E-13
         5   7 -1.216089E+04  9.744586E-13  9.744586E-13 -2.350193E-13 -2.134101E-13 -6.119804E-13
         5   8 -1.216089E+04  9.744586E-13 -3.179914E-29  2.160918E-14  2.096246E-12 -1.529951E-13
         6   1 -1.216089E+04  1.948917E-12  2.923376E-12  1.657281E-12  1.994273E-12 -2.294927E-13
         6   2 -1.216089E+04  1.948917E-12  2.923376E-12  7.590809E-13 -4.100654E-12  5.354829E-13
         6   3 -1.216089E+04 -3.897834E-12 -4.872293E-12  1.598526E-12  1.026514E-12 -6.119804E-13
         6   4 -1.216089E+04 -3.897834E-12 -3.897834E-12  1.277740E-12  2.309656E-12 -5.928560E-13
         6   5 -1.216089E+04 -1.948917E-12 -1.948917E-12  4.700386E-13  1.539771E-12  1.144747E-29
         6   6 -1.216089E+04 -1.948917E-12 -2.923376E-12  9.832956E-13 -3.528642E-12  6.311048E-13
         6   7 -1.216089E+04 -1.948917E-12 -1.948917E-12  2.350193E-13  2.053028E-12 -3.059902E-13
         6   8 -1.216089E+04 -2.923376E-12 -2.923376E-12  1.004905E-12  2.053028E-12 -1.529951E-13
         7   1 -1.216089E+04  9.744586E-13  2.923376E-12  1.681610E-13  6.825747E-31  3.059902E-13
         7   2 -1.216089E+04 -2.216648E-30  1.948917E-12 -5.054888E-13  2.566285E-13 -3.251146E-13
         7   3 -1.216089E+04 -9.744586E-13  9.744586E-13 -9.623569E-14  1.978737E-13 -6.119804E-13
         7   4 -1.216089E+04 -1.948917E-12 -2.829875E-30 -7.698855E-13  9.677592E-13  6.119804E-13
         7   5 -1.216089E+04  1.948917E-12  1.948917E-12  3.633336E-13  3.748086E-14 -1.529951E-13
         7   6 -1.216089E+04  3.746356E-30  1.948917E-12  2.350193E-13  1.978737E-13 -2.868658E-13
         7   7 -1.216089E+04  1.948917E-12  1.948917E-12  1.283142E-13  2.566285E-13 -6.119804E-13
         7   8 -1.216089E+04 -9.744586E-13  9.744586E-13  1.436473E-30  7.698855E-13  7.649755E-14
         8   1 -1.216089E+04  8.319539E-30  9.744586E-13 -3.602972E-13  1.293947E-12 -7.649755E-14
         8   2 -1.216089E+04  3.056814E-29  9.744586E-13 -8.414756E-13 -5.335253E-14 -7.267267E-13
         8   3 -1.216089E+04 -3.897834E-12 -1.948917E-12  6.523758E-13  2.566285E-13 -3.824878E-13
         8   4 -1.216089E+04 -2.923376E-12 -9.744586E-13 -6.628452E-13  1.668085E-12 -3.824878E-14
         8   5 -1.216089E+04 -9.744586E-13 -9.744586E-13 -8.657860E-13  2.998469E-13 -7.649755E-14
         8   6 -1.216089E+04 -1.948917E-12 -9.744586E-13 -1.763986E-12 -4.379601E-13  2.294927E-13
         8   7 -1.216089E+04  1.948917E-12  1.948917E-12 -4.700386E-13  2.160918E-14 -9.179706E-13
         8   8 -1.216089E+04 -9.744586E-13  9.744586E-13 -2.009810E-12  2.331266E-12  6.884780E-13
         9   1 -1.216089E+04 -3.897834E-12 -2.923376E-12 -3.369925E-13  2.053028E-12 -2.294927E-13
         9   2 -1.216089E+04 -2.923376E-12 -2.923376E-12  7.536786E-13 -2.181342E-12  9.562194E-14
         9   3 -1.216089E+04 -1.948917E-12 -9.744586E-13 -2.782377E-13  4.545022E-13 -2.294927E-13
         9   4 -1.216089E+04 -1.948917E-12 -1.948917E-12  1.389848E-12  1.994273E-12  6.693536E-13
         9   5 -1.216089E+04 -9.744586E-13 -2.923376E-12 -1.582989E-12  1.737645E-12  3.824878E-13
         9   6 -1.216089E+04  9.980532E-30 -1.948917E-12  4.700386E-13 -3.202454E-12 -3.633634E-13
         9   7 -1.216089E+04  9.744586E-13 -9.532174E-30 -1.112951E-12  1.304752E-12 -2.258343E-29
         9   8 -1.216089E+04  9.744586E-13  9.744586E-13  1.196706E-12  2.160918E-14  1.070966E-12

 strains (elem, integ.pnt.,exx,eyy,ezz,exy,exz,eyz) forset EALL and time  0.5000000E+00

         1   1 -6.444444E-02  1.933333E-02  1.933333E-02  6.071532E-19 -6.071532E-19  0.000000E+00
         1   2 -6.444444E-02  1.933333E-02  1.933333E-02  2.428613E-18 -1.619075E-18  2.209929E-19
         1   3 -6.444444E-02  1.933333E-02  1.933333E-02  6.071532E-19  8.095376E-19 -1.325958E-18
         1   4 -6.444444E-02  1.933333E-02  1.933333E-02  2.428613E-18  0.000000E+00 -1.657447E-18
         1   5 -6.444444E-02  1.933333E-02  1.933333E-02  1.619075E-18 -6.071532E-19  3.093901E-18
         1   6 -6.444444E-02  1.933333E-02  1.933333E-02  9.714451E-18 -1.619075E-18  2.541419E-18
         1   7 -6.444444E-02  1.933333E-02  1.933333E-02  1.619075E-18  8.095376E-19  8.839717E-19
         1   8 -6.444444E-02  1.933333E-02  1.933333E-02  9.714451E-18  1.619075E-18  6.629788E-19
         2   1 -6.444444E-02  1.933333E-02  1.933333E-02  2.207620E-18  3.937192E-18 -4.419858E-19
         2   2 -6.444444E-02  1.933333E-02  1.933333E-02 -9.530676E-18  2.942723E-19 -5.524823E-19
         2   3 -6.444444E-02  1.933333E-02  1.933333E-02  4.708358E-18 -2.061061E-18 -8.839717E-19
         2   4 -6.444444E-02  1.933333E-02  1.933333E-02 -6.625169E-18  1.979645E-17 -9.944682E-19
         2   5 -6.444444E-02  1.933333E-02  1.933333E-02  6.476301E-18  2.186836E-19  1.325958E-18
         2   6 -6.444444E-02  1.933333E-02  1.933333E-02 -2.428613E-18 -8.079077E-18  1.270709E-18
         2   7 -6.444444E-02  1.933333E-02  1.933333E-02  9.714451E-18 -8.393112E-18 -1.023150E-34
         2   8 -6.444444E-02  1.933333E-02  1.933333E-02 -3.238150E-18  1.103579E-17  1.104965E-18
         3   1 -6.444444E-02  1.933333E-02  1.933333E-02 -4.691481E-18 -3.790633E-18  3.611119E-35
         3   2 -6.444444E-02  1.933333E-02  1.933333E-02 -2.262868E-18 -1.362020E-18 -3.867376E-19
         3   3 -6.444444E-02  1.933333E-02  1.933333E-02 -4.194247E-18  2.796165E-18 -8.839717E-19
         3   4 -6.444444E-02  1.933333E-02  1.933333E-02  1.877285E-18  1.251062E-17  6.629788E-19
         3   5 -6.444444E-02  1.933333E-02  1.933333E-02 -5.813322E-18  2.796165E-18 -2.209929E-19
         3   6 -6.444444E-02  1.933333E-02  1.933333E-02  6.629788E-19 -8.132593E-18 -7.182270E-19
         3   7 -6.444444E-02  1.933333E-02  1.933333E-02 -3.824386E-18  6.476301E-18 -8.839717E-19
         3   8 -6.444444E-02  1.933333E-02  1.933333E-02  4.270990E-18  2.428613E-17 -1.104965E-18
         4   1 -6.444444E-02  1.933333E-02  1.933333E-02  6.815873E-19  8.095376E-19 -1.767943E-18
         4   2 -6.444444E-02  1.933333E-02  1.933333E-02 -7.351036E-19  3.238150E-18 -8.839717E-19
         4   3 -6.444444E-02  1.933333E-02  1.933333E-02  1.565559E-18 -1.203706E-35 -3.093901E-18
         4   4 -6.444444E-02  1.933333E-02  1.933333E-02  1.488681E-19  1.619075E-18 -2.209929E-18
         4   5 -6.444444E-02  1.933333E-02  1.933333E-02 -2.428613E-18  1.011922E-18 -3.093901E-18
         4   6 -6.444444E-02  1.933333E-02  1.933333E-02 -3.238150E-18  1.619075E-18 -1.325958E-18
         4   7 -6.444444E-02  1.933333E-02  1.933333E-02 -6.606695E-19 -1.203706E-35 -3.535887E-18
         4   8 -6.444444E-02  1.933333E-02  1.933333E-02 -1.470207E-18  1.619075E-18 -2.651915E-18
         5   1 -6.444444E-02  1.933333E-02  1.933333E-02  8.072283E-19  7.432397E-18 -2.651915E-18
         5   2 -6.444444E-02  1.933333E-02  1.933333E-02  1.537891E-17 -8.653632E-19 -3.314894E-19
         5   3 -6.444444E-02  1.933333E-02  1.933333E-02  2.056443E-18 -2.503047E-18 -3.093901E-18
         5   4 -6.444444E-02  1.933333E-02  1.933333E-02  1.298520E-17  1.854493E-17 -3.646383E-18
         5   5 -6.444444E-02  1.933333E-02  1.933333E-02  2.354179E-18  5.294593E-18 -3.535887E-18
         5   6 -6.444444E-02  1.933333E-02  1.933333E-02  1.544641E-18 -1.991246E-18  2.872908E-18
         5   7 -6.444444E-02  1.933333E-02  1.933333E-02 -1.767943E-18 -1.916812E-18 -3.535887E-18
         5   8 -6.444444E-02  1.933333E-02  1.933333E-02 -1.488681E-19  1.265487E-17 -8.839717E-19
         6   1 -6.444444E-02  1.933333E-02  1.933333E-02  1.059842E-17  1.251062E-17 -1.325958E-18
         6   2 -6.444444E-02  1.933333E-02  1.933333E-02  4.931660E-18 -2.594242E-17  3.093901E-18
         6   3 -6.444444E-02  1.933333E-02  1.933333E-02  1.015644E-17  6.476301E-18 -3.535887E-18
         6   4 -6.444444E-02  1.933333E-02  1.933333E-02  8.132593E-18  1.457168E-17 -3.425390E-18
         6   5 -6.444444E-02  1.933333E-02  1.933333E-02  3.535887E-18  9.714451E-18  0.000000E+00
         6   6 -6.444444E-02  1.933333E-02  1.933333E-02  6.774037E-18 -2.226228E-17  3.646383E-18
         6   7 -6.444444E-02  1.933333E-02  1.933333E-02  1.767943E-18  1.295260E-17 -1.767943E-18
         6   8 -6.444444E-02  1.933333E-02  1.933333E-02  6.625169E-18  1.295260E-17 -8.839717E-19
         7   1 -6.444444E-02  1.933333E-02  1.933333E-02  1.381783E-18  6.770847E-36  1.767943E-18
         7   2 -6.444444E-02  1.933333E-02  1.933333E-02 -2.868289E-18  1.619075E-18 -1.878440E-18
         7   3 -6.444444E-02  1.933333E-02  1.933333E-02 -6.071532E-19  1.177089E-18 -3.535887E-18
         7   4 -6.444444E-02  1.933333E-02  1.933333E-02 -4.857226E-18  6.034315E-18  3.535887E-18
         7   5 -6.444444E-02  1.933333E-02  1.933333E-02  2.577481E-18  1.651674E-19 -8.839717E-19
         7   6 -6.444444E-02  1.933333E-02  1.933333E-02  1.767943E-18  1.177089E-18 -1.657447E-18
         7   7 -6.444444E-02  1.933333E-02  1.933333E-02  8.095376E-19  1.619075E-18 -3.535887E-18
         7   8 -6.444444E-02  1.933333E-02  1.933333E-02  0.000000E+00  4.857226E-18  4.419858E-19
         8   1 -6.444444E-02  1.933333E-02  1.933333E-02 -3.021776E-18  8.020942E-18 -4.419858E-19
         8   2 -6.444444E-02  1.933333E-02  1.933333E-02 -6.057542E-18 -4.792029E-19 -4.198866E-18
         8   3 -6.444444E-02  1.933333E-02  1.933333E-02  3.973254E-18  1.619075E-18 -2.209929E-18
         8   4 -6.444444E-02  1.933333E-02  1.933333E-02 -4.324507E-18  1.052399E-17 -2.209929E-19
         8   5 -6.444444E-02  1.933333E-02  1.933333E-02 -5.890066E-18  1.321339E-18 -4.419858E-19
         8   6 -6.444444E-02  1.933333E-02  1.933333E-02 -1.155683E-17 -3.333502E-18  1.325958E-18
         8   7 -6.444444E-02  1.933333E-02  1.933333E-02 -3.535887E-18 -1.488681E-19 -5.303830E-18
         8   8 -6.444444E-02  1.933333E-02  1.933333E-02 -1.325034E-17  1.442281E-17  3.977873E-18
         9   1 -6.444444E-02  1.933333E-02  1.933333E-02 -1.912193E-18  1.295260E-17 -1.325958E-18
         9   2 -6.444444E-02  1.933333E-02  1.933333E-02  4.968877E-18 -1.376214E-17  5.524823E-19
         9   3 -6.444444E-02  1.933333E-02  1.933333E-02 -1.470207E-18  2.796165E-18 -1.325958E-18
         9   4 -6.444444E-02  1.933333E-02  1.933333E-02  9.053782E-18  1.251062E-17  3.867376E-18
         9   5 -6.444444E-02  1.933333E-02  1.933333E-02 -9.416715E-18  1.089154E-17  2.209929E-18
         9   6 -6.444444E-02  1.933333E-02  1.933333E-02  3.535887E-18 -2.027566E-17 -2.099433E-18
         9   7 -6.444444E-02  1.933333E-02  1.933333E-02 -5.880828E-18  7.946508E-18 -3.009266E-34
         9   8 -6.444444E-02  1.933333E-02  1.933333E-02  8.690849E-18 -1.488681E-19  6.187802E-18

 displacements (vx,vy,vz) for set NALL and time  0.5500000E+00

         1  0.000000E+00  0.000000E+00  0.000000E+00
         2 -3.666667E+01  0.000000E+00  0.000000E+00
         3 -7.333333E+01  0.000000E+00  0.000000E+00
         4 -1.100000E+02  0.000000E+00  0.000000E+00
         5  0.000000E+00  1.048670E+01  0.000000E+00
         6 -3.666667E+01  1.048670E+01  0.000000E+00
         7 -7.333333E+01  1.048670E+01  0.000000E+00
         8 -1.100000E+02  1.048670E+01  0.000000E+00
         9  0.000000E+00  2.097339E+01  0.000000E+00
        10 -3.666667E+01  2.097339E+01  0.000000E+00
        11 -7.333333E+01  2.097339E+01  0.000000E+00
        12 -1.100000E+02  2.097339E+01  0.000000E+00
        13  0.000000E+00  3.146009E+01  0.000000E+00
        14 -3.666667E+01  3.146009E+01  0.000000E+00
        15 -7.333333E+01  3.146009E+01  0.000000E+00
        16 -1.100000E+02  3.146009E+01  0.000000E+00
        17  0.000000E+00  0.000000E+00  1.468137E+01
        18 -3.666667E+01  0.000000E+00  1.468137E+01
        19 -7.333333E+01  0.000000E+00  1.468137E+01
        20 -1.100000E+02  0.000000E+00  1.468137E+01
        21  0.000000E+00  1.048670E+01  1.468137E+01
        22 -3.666667E+01  1.048670E+01  1.468137E+01
        23 -7.333333E+01  1.048670E+01  1.468137E+01
        24 -1.100000E+02  1.048670E+01  1.468137E+01
        25  0.000000E+00  2.097339E+01  1.468137E+01
        26 -3.666667E+01  2.097339E+01  1.468137E+01
        27 -7.333333E+01  2.097339E+01  1.468137E+01
        28 -1.100000E+02  2.097339E+01  1.468137E+01
        29  0.000000E+00  3.146009E+01  1.468137E+01
        30 -3.666667E+01  3.146009E+01  1.468137E+01
        31 -7.333333E+01  3.146009E+01  1.468137E+01
        32 -1.100000E+02  3.146009E+01  1.468137E+01

 stresses (elem, integ.pnt.,sxx,syy,szz,sxy,sxz,syz) for set EALL and time  0.5500000E+00

         1   1 -1.318840E+04 -9.814691E-13  9.814691E-13 -3.045189E-14 -1.386615E-13 -7.718574E-14
         1   2 -1.318840E+04 -4.799772E-31  1.474582E-31 -3.165848E-13 -1.704540E-13 -5.788931E-14
         1   3 -1.318840E+04  9.814691E-13  9.814691E-13  1.643254E-13 -1.966286E-13 -4.631145E-13
         1   4 -1.318840E+04  1.962938E-12  1.962938E-12 -1.218076E-13 -9.596497E-13 -4.631145E-13
         1   5 -1.318840E+04 -1.962938E-12  1.514788E-30 -4.509690E-13 -3.766587E-14  2.315572E-13
         1   6 -1.318840E+04 -9.814691E-13  8.651181E-31 -9.596497E-13 -6.945841E-14 -2.894465E-13
         1   7 -1.318840E+04 -3.925876E-12 -2.944407E-12 -2.778337E-13 -2.543404E-13 -1.139968E-30
         1   8 -1.318840E+04 -2.944407E-12 -1.962938E-12 -7.865144E-13 -1.017362E-12 -6.946717E-13
         2   1 -1.318840E+04  1.962938E-12  1.962938E-12 -2.831963E-13 -5.637112E-13  2.548163E-30
         2   2 -1.318840E+04  2.944407E-12  2.944407E-12 -1.999994E-12 -1.644658E-12  9.648218E-14
         2   3 -1.318840E+04 -9.814691E-13 -1.962938E-12 -8.784447E-13 -1.468331E-12 -5.403002E-13
         2   4 -1.318840E+04 -9.814691E-13 -1.962938E-12 -3.697639E-13 -3.237988E-13  1.929644E-14
         2   5 -1.318840E+04 -3.925876E-12 -1.962938E-12 -1.919299E-12  1.072523E-14  1.929644E-13
         2   6 -1.318840E+04 -1.962938E-12 -1.962938E-12 -1.156278E-12 -1.419939E-12  3.183912E-13
         2   7 -1.318840E+04 -9.814691E-13 -1.962938E-12 -1.624101E-13 -2.312557E-12 -3.087430E-13
         2   8 -1.318840E+04 -9.814691E-13 -9.814691E-13 -1.052601E-12 -6.593442E-13  4.245216E-13
         3   1 -1.318840E+04 -2.944407E-12 -2.944407E-12 -2.123142E-12 -1.679387E-12  3.859287E-14
         3   2 -1.318840E+04  9.814691E-13  9.814691E-13  9.289425E-13 -2.442408E-12 -2.701501E-13
         3   3 -1.318840E+04  2.944407E-12  2.944407E-12 -1.740802E-12 -1.017362E-12  1.543715E-13
         3   4 -1.318840E+04  5.888815E-12  4.907346E-12  1.438453E-12 -5.086808E-13 -2.122608E-13
         3   5 -1.318840E+04 -9.814691E-13 -9.814691E-13 -9.019380E-13 -6.133791E-13  7.718574E-14
         3   6 -1.318840E+04  2.944407E-12  1.962938E-12  1.154236E-13 -2.393762E-12 -9.358771E-13
         3   7 -1.318840E+04 -5.023425E-30  0.000000E+00 -6.710909E-13 -2.768273E-30  3.087430E-13
         3   8 -1.318840E+04  1.962938E-12  9.814691E-13  6.006110E-13  1.271702E-12 -1.080600E-12
         4   1 -1.318840E+04 -9.814691E-13 -3.339020E-31  3.462707E-13 -1.504081E-13 -3.859287E-13
         4   2 -1.318840E+04  9.814691E-13 -3.266831E-30  3.462707E-13 -1.326732E-12 -4.245216E-13
         4   3 -1.318840E+04  9.814691E-13  9.814691E-13  2.885589E-13 -3.237988E-13 -6.174859E-13
         4   4 -1.318840E+04  2.944407E-12  1.962938E-12  2.885589E-13 -9.596497E-13 -6.753753E-13
         4   5 -1.318840E+04 -9.814691E-13 -1.962938E-12  3.345240E-13 -2.602137E-13 -4.631145E-13
         4   6 -1.318840E+04 -1.962938E-12 -1.962938E-12  4.616942E-13 -1.341160E-12 -1.543715E-13
         4   7 -1.318840E+04 -9.814691E-13 -2.944407E-12  1.036769E-13 -3.815106E-13 -6.174859E-13
         4   8 -1.318840E+04 -9.814691E-13 -1.962938E-12  2.308471E-13 -1.017362E-12 -5.403002E-13
         5   1 -1.318840E+04 -9.814691E-13 -9.814691E-13  1.057964E-12 -6.908814E-13 -6.174859E-13
         5   2 -1.318840E+04 -5.857353E-31 -3.655198E-30  7.082460E-13 -1.485695E-12  2.315572E-13
         5   3 -1.318840E+04 -1.962938E-12 -1.962938E-12  6.935627E-13 -1.977011E-12 -3.087430E-13
         5   4 -1.318840E+04  1.477393E-30 -2.499103E-30  5.028074E-13 -1.341160E-12 -1.543715E-13
         5   5 -1.318840E+04  9.138593E-30 -8.913378E-30  4.039824E-13 -9.831430E-13 -3.859287E-13
         5   6 -1.318840E+04 -8.050403E-30 -1.803720E-29 -8.677195E-13 -2.350223E-12  5.403002E-13
         5   7 -1.318840E+04 -9.814691E-13 -1.962938E-12  4.616942E-13 -2.312557E-12 -1.521813E-29
         5   8 -1.318840E+04 -9.814691E-13 -9.814691E-13 -9.371779E-13 -6.593442E-13  1.212014E-29
         6   1 -1.318840E+04 -9.814691E-13 -4.082967E-31  3.083494E-13  1.822007E-13  7.718574E-14
         6   2 -1.318840E+04 -9.814691E-13  1.962938E-12  6.898600E-13 -1.534597E-12  5.403002E-13
         6   3 -1.318840E+04  1.962938E-12  2.944407E-12 -1.966286E-13 -2.034723E-12  6.488798E-30
         6   4 -1.318840E+04  9.814691E-13  2.944407E-12  7.571478E-13 -7.630211E-13  5.017073E-13
         6   5 -1.318840E+04 -1.962938E-12 -9.814691E-13 -1.573029E-12 -1.305920E-12  3.087430E-13
         6   6 -1.318840E+04 -1.962938E-12  2.059275E-29  2.073538E-13 -1.496676E-12  9.262289E-13
         6   7 -1.318840E+04  9.814691E-13  9.814691E-13 -1.573029E-12 -1.017362E-12  2.595519E-29
         6   8 -1.318840E+04 -9.814691E-13  9.814691E-13  4.616942E-13  7.630211E-13  3.859287E-13
         7   1 -1.318840E+04 -9.814691E-13 -1.262439E-30  1.608780E-13 -2.602137E-13 -2.315572E-13
         7   2 -1.318840E+04  3.925876E-12  2.944407E-12 -6.657282E-13 -8.324796E-13 -5.788931E-13
         7   3 -1.318840E+04 -2.944407E-12 -2.944407E-12  5.937163E-13 -1.271702E-13  4.631145E-13
         7   4 -1.318840E+04  1.962938E-12  1.639317E-31 -2.328899E-13 -1.526042E-12  1.929644E-13
         7   5 -1.318840E+04 -9.814691E-13 -9.814691E-13  6.843700E-14 -4.768882E-13  2.315572E-13
         7   6 -1.318840E+04 -9.814691E-13 -1.962938E-12 -4.402438E-13 -1.144532E-12  5.788931E-13
         7   7 -1.318840E+04 -9.814691E-13 -1.962938E-12  4.147077E-13 -2.543404E-13  6.174859E-13
         7   8 -1.318840E+04 -1.962938E-12 -2.944407E-12 -9.397310E-14 -5.086808E-13  4.631145E-13
         8   1 -1.318840E+04 -9.814691E-13 -2.944407E-12 -4.509690E-13 -3.382267E-13 -4.631145E-13
         8   2 -1.318840E+04 -9.814691E-13 -1.962938E-12 -2.284212E-13 -2.977008E-12 -2.894465E-13
         8   3 -1.318840E+04  1.962938E-12  2.582912E-30 -1.271702E-13 -1.583754E-12  2.315572E-13
         8   4 -1.318840E+04  1.962938E-12 -9.814691E-13 -6.040584E-13 -1.583754E-12  4.824109E-13
         8   5 -1.318840E+04  2.027727E-31 -9.814691E-13 -2.778337E-13 -3.355454E-13 -3.087430E-13
         8   6 -1.318840E+04 -3.925876E-12 -3.925876E-12 -1.295195E-12 -1.639040E-12 -3.087430E-13
         8   7 -1.318840E+04  1.962938E-12  2.708651E-29 -2.034723E-12 -1.479056E-12  6.174859E-13
         8   8 -1.318840E+04 -9.814691E-13 -2.944407E-12 -1.653212E-12 -7.160346E-13  2.315572E-13
         9   1 -1.318840E+04  5.888815E-12  3.925876E-12  1.154236E-13 -1.314986E-12 -3.087430E-13
         9   2 -1.318840E+04  1.675461E-29  1.962938E-12 -2.660870E-13 -2.904613E-12  8.683396E-13
         9   3 -1.318840E+04  6.870284E-12  2.944407E-12 -4.616942E-13  1.154236E-13  2.315572E-13
         9   4 -1.318840E+04  1.962938E-12  1.962938E-12 -2.709389E-13  1.387125E-12  5.403002E-13
         9   5 -1.318840E+04  3.925876E-12  3.925876E-12 -5.556673E-13 -4.509690E-13 -4.631145E-13
         9   6 -1.318840E+04  9.814691E-13  2.944407E-12  2.073538E-13 -6.417243E-13  4.631145E-13
         9   7 -1.318840E+04  3.925876E-12  1.962938E-12 -1.017362E-12 -5.556673E-13 -6.174859E-13
         9   8 -1.318840E+04  9.814691E-13  2.944407E-12  1.019312E-29  7.160346E-13  7.718574E-13

 strains (elem, integ.pnt.,exx,eyy,ezz,exy,exz,eyz) forset EALL and time  0.5500000E+00

         1   1 -7.064444E-02  2.119333E-02  2.119333E-02 -1.046927E-19 -9.348989E-19 -4.427766E-19
         1   2 -7.064444E-02  2.119333E-02  2.119333E-02 -1.913142E-18 -1.135838E-18 -3.320825E-19
         1   3 -7.064444E-02  2.119333E-02  2.119333E-02  1.389678E-18 -1.164734E-18 -2.656660E-18
         1   4 -7.064444E-02  2.119333E-02  2.119333E-02 -4.187708E-19 -5.987265E-18 -2.656660E-18
         1   5 -7.064444E-02  2.119333E-02  2.119333E-02 -2.772244E-18 -1.600398E-19  1.328330E-18
         1   6 -7.064444E-02  2.119333E-02  2.119333E-02 -5.987265E-18 -3.609786E-19 -1.660412E-18
         1   7 -7.064444E-02  2.119333E-02  2.119333E-02 -1.443914E-18 -1.607510E-18  1.805559E-35
         1   8 -7.064444E-02  2.119333E-02  2.119333E-02 -4.658935E-18 -6.430042E-18 -3.984990E-18
         2   1 -7.064444E-02  2.119333E-02  2.119333E-02 -1.828899E-18 -3.465305E-18  1.504633E-35
         2   2 -7.064444E-02  2.119333E-02  2.119333E-02 -1.267959E-17 -1.029722E-17  5.534708E-19
         2   3 -7.064444E-02  2.119333E-02  2.119333E-02 -5.708085E-18 -9.202286E-18 -3.099436E-18
         2   4 -7.064444E-02  2.119333E-02  2.119333E-02 -2.493064E-18 -1.968489E-18  1.106942E-19
         2   5 -7.064444E-02  2.119333E-02  2.119333E-02 -1.197453E-17  7.699688E-19  1.106942E-18
         2   6 -7.064444E-02  2.119333E-02  2.119333E-02 -7.151999E-18 -8.272277E-18  1.826454E-18
         2   7 -7.064444E-02  2.119333E-02  2.119333E-02 -5.583611E-19 -1.430400E-17 -1.771107E-18
         2   8 -7.064444E-02  2.119333E-02  2.119333E-02 -6.184648E-18 -3.855180E-18  2.435271E-18
         3   1 -7.064444E-02  2.119333E-02  2.119333E-02 -1.319461E-17 -1.047771E-17  2.213883E-19
         3   2 -7.064444E-02  2.119333E-02  2.119333E-02  6.095514E-18 -1.530025E-17 -1.549718E-18
         3   3 -7.064444E-02  2.119333E-02  2.119333E-02 -1.026122E-17 -6.430042E-18  8.855533E-19
         3   4 -7.064444E-02  2.119333E-02  2.119333E-02  9.832664E-18 -3.215021E-18 -1.217636E-18
         3   5 -7.064444E-02  2.119333E-02  2.119333E-02 -5.544488E-18 -3.330605E-18  4.427766E-19
         3   6 -7.064444E-02  2.119333E-02  2.119333E-02  8.855533E-19 -1.458318E-17 -5.368667E-18
         3   7 -7.064444E-02  2.119333E-02  2.119333E-02 -3.773382E-18  9.027797E-36  1.771107E-18
         3   8 -7.064444E-02  2.119333E-02  2.119333E-02  4.264170E-18  8.037552E-18 -6.198873E-18
         4   1 -7.064444E-02  2.119333E-02  2.119333E-02  2.656660E-18 -8.531008E-19 -2.213883E-18
         4   2 -7.064444E-02  2.119333E-02  2.119333E-02  2.656660E-18 -8.287837E-18 -2.435271E-18
         4   3 -7.064444E-02  2.119333E-02  2.119333E-02  2.213883E-18 -1.968489E-18 -3.542213E-18
         4   4 -7.064444E-02  2.119333E-02  2.119333E-02  2.213883E-18 -5.987265E-18 -3.874295E-18
         4   5 -7.064444E-02  2.119333E-02  2.119333E-02  2.738458E-18 -1.566611E-18 -2.656660E-18
         4   6 -7.064444E-02  2.119333E-02  2.119333E-02  3.542213E-18 -8.398531E-18 -8.855533E-19
         4   7 -7.064444E-02  2.119333E-02  2.119333E-02  9.673513E-19 -2.411266E-18 -3.542213E-18
         4   8 -7.064444E-02  2.119333E-02  2.119333E-02  1.771107E-18 -6.430042E-18 -3.099436E-18
         5   1 -7.064444E-02  2.119333E-02  2.119333E-02  6.569632E-18 -4.269060E-18 -3.542213E-18
         5   2 -7.064444E-02  2.119333E-02  2.119333E-02  4.359305E-18 -9.292531E-18  1.328330E-18
         5   3 -7.064444E-02  2.119333E-02  2.119333E-02  4.461553E-18 -1.241731E-17 -1.771107E-18
         5   4 -7.064444E-02  2.119333E-02  2.119333E-02  3.255920E-18 -8.398531E-18 -8.855533E-19
         5   5 -7.064444E-02  2.119333E-02  2.119333E-02  3.099436E-18 -5.823669E-18 -2.213883E-18
         5   6 -7.064444E-02  2.119333E-02  2.119333E-02 -4.938116E-18 -1.446404E-17  3.099436E-18
         5   7 -7.064444E-02  2.119333E-02  2.119333E-02  3.542213E-18 -1.430400E-17  0.000000E+00
         5   8 -7.064444E-02  2.119333E-02  2.119333E-02 -5.299094E-18 -3.855180E-18  1.158567E-34
         6   1 -7.064444E-02  2.119333E-02  2.119333E-02  2.709562E-18  1.054040E-18  4.427766E-19
         6   2 -7.064444E-02  2.119333E-02  2.119333E-02  5.120827E-18 -9.796656E-18  3.099436E-18
         6   3 -7.064444E-02  2.119333E-02  2.119333E-02 -1.164734E-18 -1.286008E-17  4.814825E-35
         6   4 -7.064444E-02  2.119333E-02  2.119333E-02  4.863430E-18 -4.822531E-18  2.878048E-18
         6   5 -7.064444E-02  2.119333E-02  2.119333E-02 -9.317870E-18 -8.643925E-18  1.771107E-18
         6   6 -7.064444E-02  2.119333E-02  2.119333E-02  1.934703E-18 -9.849558E-18  5.313320E-18
         6   7 -7.064444E-02  2.119333E-02  2.119333E-02 -9.317870E-18 -6.430042E-18  1.925930E-34
         6   8 -7.064444E-02  2.119333E-02  2.119333E-02  3.542213E-18  4.822531E-18  2.213883E-18
         7   1 -7.064444E-02  2.119333E-02  2.119333E-02  1.836011E-18 -1.566611E-18 -1.328330E-18
         7   2 -7.064444E-02  2.119333E-02  2.119333E-02 -3.388398E-18 -5.183510E-18 -3.320825E-18
         7   3 -7.064444E-02  2.119333E-02  2.119333E-02  5.156836E-18 -8.037552E-19  2.656660E-18
         7   4 -7.064444E-02  2.119333E-02  2.119333E-02 -6.757281E-20 -9.645063E-18  1.106942E-18
         7   5 -7.064444E-02  2.119333E-02  2.119333E-02  1.212745E-18 -3.014082E-18  1.328330E-18
         7   6 -7.064444E-02  2.119333E-02  2.119333E-02 -2.002275E-18 -7.233797E-18  3.320825E-18
         7   7 -7.064444E-02  2.119333E-02  2.119333E-02  3.869405E-18 -1.607510E-18  3.542213E-18
         7   8 -7.064444E-02  2.119333E-02  2.119333E-02  6.543844E-19 -3.215021E-18  2.656660E-18
         8   1 -7.064444E-02  2.119333E-02  2.119333E-02 -2.772244E-18 -2.079183E-18 -2.656660E-18
         8   2 -7.064444E-02  2.119333E-02  2.119333E-02 -1.365673E-18 -1.875710E-17 -1.660412E-18
         8   3 -7.064444E-02  2.119333E-02  2.119333E-02 -8.037552E-19 -1.008784E-17  1.328330E-18
         8   4 -7.064444E-02  2.119333E-02  2.119333E-02 -3.817837E-18 -1.008784E-17  2.767354E-18
         8   5 -7.064444E-02  2.119333E-02  2.119333E-02 -1.443914E-18 -1.886691E-18 -1.771107E-18
         8   6 -7.064444E-02  2.119333E-02  2.119333E-02 -7.873956E-18 -1.012518E-17 -1.771107E-18
         8   7 -7.064444E-02  2.119333E-02  2.119333E-02 -1.286008E-17 -9.972255E-18  3.542213E-18
         8   8 -7.064444E-02  2.119333E-02  2.119333E-02 -1.044882E-17 -5.149723E-18  1.328330E-18
         9   1 -7.064444E-02  2.119333E-02  2.119333E-02  8.855533E-19 -8.369635E-18 -1.771107E-18
         9   2 -7.064444E-02  2.119333E-02  2.119333E-02 -1.525712E-18 -1.841657E-17  4.981237E-18
         9   3 -7.064444E-02  2.119333E-02  2.119333E-02 -3.542213E-18  8.855533E-19  1.328330E-18
         9   4 -7.064444E-02  2.119333E-02  2.119333E-02 -2.336580E-18  8.923105E-18  3.099436E-18
         9   5 -7.064444E-02  2.119333E-02  2.119333E-02 -2.887829E-18 -2.772244E-18 -2.656660E-18
         9   6 -7.064444E-02  2.119333E-02  2.119333E-02  1.934703E-18 -3.977877E-18  2.656660E-18
         9   7 -7.064444E-02  2.119333E-02  2.119333E-02 -6.430042E-18 -2.887829E-18 -3.542213E-18
         9   8 -7.064444E-02  2.119333E-02  2.119333E-02 -9.027797E-36  5.149723E-18  4.427766E-18

 displacements (vx,vy,vz) for set NALL and time  0.6000000E+00

         1  0.000000E+00  0.000000E+00  0.000000E+00
         2 -4.000000E+01  0.000000E+00  0.000000E+00
         3 -8.000000E+01  0.000000E+00  0.000000E+00
         4 -1.200000E+02  0.000000E+00  0.000000E+00
         5  0.000000E+00  1.139026E+01  0.000000E+00
         6 -4.000000E+01  1.139026E+01  0.000000E+00
         7 -8.000000E+01  1.139026E+01  0.000000E+00
         8 -1.200000E+02  1.139026E+01  0.000000E+00
         9  0.000000E+00  2.278052E+01  0.000000E+00
        10 -4.000000E+01  2.278052E+01  0.000000E+00
        11 -8.000000E+01  2.278052E+01  0.000000E+00
        12 -1.200000E+02  2.278052E+01  0.000000E+00
        13  0.000000E+00  3.417079E+01  0.000000E+00
        14 -4.000000E+01  3.417079E+01  0.000000E+00
        15 -8.000000E+01  3.417079E+01  0.000000E+00
        16 -1.200000E+02  3.417079E+01  0.000000E+00
        17  0.000000E+00  0.000000E+00  1.594637E+01
        18 -4.000000E+01  0.000000E+00  1.594637E+01
        19 -8.000000E+01  0.000000E+00  1.594637E+01
        20 -1.200000E+02  0.000000E+00  1.594637E+01
        21  0.000000E+00  1.139026E+01  1.594637E+01
        22 -4.000000E+01  1.139026E+01  1.594637E+01
        23 -8.000000E+01  1.139026E+01  1.594637E+01
        24 -1.200000E+02  1.139026E+01  1.594637E+01
        25  0.000000E+00  2.278052E+01  1.594637E+01
        26 -4.000000E+01  2.278052E+01  1.594637E+01
        27 -8.000000E+01  2.278052E+01  1.594637E+01
        28 -1.200000E+02  2.278052E+01  1.594637E+01
        29  0.000000E+00  3.417079E+01  1.594637E+01
        30 -4.000000E+01  3.417079E+01  1.594637E+01
        31 -8.000000E+01  3.417079E+01  1.594637E+01
        32 -1.200000E+02  3.417079E+01  1.594637E+01

 stresses (elem, integ.pnt.,sxx,syy,szz,sxy,sxz,syz) for set EALL and time  0.6000000E+00

         1   1 -1.418415E+04  9.885812E-13  1.977162E-12  2.834177E-14 -1.748774E-13 -3.894133E-14
         1   2 -1.418415E+04  2.965744E-12  1.977162E-12  2.834177E-14 -3.639258E-13 -4.867667E-14
         1   3 -1.418415E+04  9.885812E-13  9.885812E-13  1.133671E-13 -6.934868E-14  7.788267E-14
         1   4 -1.418415E+04  4.942906E-12  2.965744E-12  1.133671E-13 -9.515742E-13 -1.947067E-14
         1   5 -1.418415E+04  1.977162E-12  1.977162E-12 -1.260322E-13 -1.323648E-13  3.894133E-14
         1   6 -1.418415E+04  2.965744E-12  1.977162E-12 -8.218983E-32 -3.214131E-13  9.735334E-15
         1   7 -1.418415E+04  1.977162E-12  0.000000E+00 -1.260322E-13 -1.260322E-13  1.557653E-13
         1   8 -1.418415E+04  2.965744E-12  9.885812E-13 -4.779528E-31 -5.041289E-13  3.894133E-14
         2   1 -1.418415E+04 -5.040433E-30  0.000000E+00  1.539223E-12 -6.301611E-13 -1.613275E-29
         2   2 -1.418415E+04  1.977162E-12  1.977162E-12  1.066602E-12  1.260322E-13  4.867667E-14
         2   3 -1.418415E+04  9.885812E-13  9.885812E-13  7.091634E-13 -1.455703E-12  1.557653E-13
         2   4 -1.418415E+04  9.885812E-13  9.885812E-13 -6.141749E-13  5.608124E-13  5.841200E-14
         2   5 -1.418415E+04  1.977162E-12  9.885812E-13 -1.133671E-13  8.128768E-13 -1.664831E-30
         2   6 -1.418415E+04  9.885812E-13  1.977162E-12 -2.886076E-12 -3.784062E-14  4.478253E-13
         2   7 -1.418415E+04  1.977162E-12  9.885812E-13  5.066056E-14 -7.815236E-13 -2.772049E-30
         2   8 -1.418415E+04  9.885812E-13  9.885812E-13 -3.478242E-12  1.007019E-13  3.894133E-13
         3   1 -1.418415E+04 -3.302392E-32  9.885812E-13 -1.512387E-12  3.229189E-13  3.894133E-14
         3   2 -1.418415E+04  9.885812E-13  1.977162E-12  8.822255E-13 -2.134709E-12 -7.788267E-14
         3   3 -1.418415E+04 -1.977162E-12 -1.977162E-12 -1.512387E-12 -2.867717E-30  7.788267E-14
         3   4 -1.418415E+04 -9.885812E-13 -2.476794E-32 -5.671450E-13  2.772709E-12 -5.841200E-14
         3   5 -1.418415E+04  0.000000E+00  1.543218E-29 -2.016515E-12  1.739121E-12  3.115307E-13
         3   6 -1.418415E+04  9.885812E-13  1.977162E-12 -1.260322E-12 -3.176136E-12  4.088840E-13
         3   7 -1.418415E+04  9.885812E-13  1.977162E-12 -2.016515E-12 -7.815236E-13  3.115307E-13
         3   8 -1.418415E+04  0.000000E+00  9.885812E-13 -1.008258E-12  1.487056E-12  3.894133E-13
         4   1 -1.418415E+04  1.977162E-12  9.885812E-13  5.354821E-13 -1.181939E-13 -6.398789E-31
         4   2 -1.418415E+04  2.965744E-12  9.885812E-13  1.291675E-12 -5.593067E-13  4.478253E-13
         4   3 -1.418415E+04  2.965744E-12  1.977162E-12  4.787986E-13 -1.953809E-13 -1.291740E-30
         4   4 -1.418415E+04  4.942906E-12  2.965744E-12  1.234992E-12 -9.515742E-13 -2.725893E-13
         4   5 -1.418415E+04  1.320957E-31 -1.181542E-31 -1.260322E-13 -6.934868E-14 -7.788267E-14
         4   6 -1.418415E+04  9.885812E-13  9.885812E-13 -6.245093E-30 -5.734776E-13  4.283547E-13
         4   7 -1.418415E+04  0.000000E+00  0.000000E+00 -1.260322E-13 -2.520644E-13  5.283827E-31
         4   8 -1.418415E+04  8.454124E-30  0.000000E+00  7.647245E-30 -5.041289E-13 -6.230614E-13
         5   1 -1.418415E+04 -1.404982E-29 -1.181542E-31  8.478608E-13 -6.934868E-14 -1.605408E-30
         5   2 -1.418415E+04  1.977162E-12  9.885812E-13  3.122238E-13 -2.180388E-12  4.867667E-13
         5   3 -1.418415E+04 -8.894917E-30 -9.885812E-13  9.769045E-13 -1.959832E-12 -3.217415E-29
         5   4 -1.418415E+04 -2.087595E-29  9.314873E-31  2.268735E-12  4.347802E-13 -1.168240E-13
         5   5 -1.418415E+04  9.885812E-13  1.977162E-12 -6.022984E-15  1.039611E-12  7.788267E-14
         5   6 -1.418415E+04  1.977162E-12  1.977162E-12  7.501703E-13 -1.008413E-12  6.230614E-13
         5   7 -1.418415E+04  1.977162E-12  9.885812E-13  8.321841E-13 -1.285652E-12 -3.115307E-13
         5   8 -1.418415E+04  1.977162E-12  9.885812E-13  3.280553E-13  1.108960E-12 -3.894133E-13
         6   1 -1.418415E+04  1.977162E-12  2.965744E-12 -1.700506E-13 -2.237227E-13 -3.115307E-13
         6   2 -1.418415E+04  9.885812E-13  2.965744E-12  7.121749E-13 -2.240238E-12  8.177680E-13
         6   3 -1.418415E+04  6.415106E-30  1.194882E-31 -3.401012E-13  5.668354E-14 -3.115307E-13
         6   4 -1.418415E+04 -1.977162E-12 -9.885812E-13  6.051404E-13  3.081457E-12  1.947067E-13
         6   5 -1.418415E+04  1.977162E-12  1.977162E-12  2.073199E-12  1.039611E-12  3.115307E-13
         6   6 -1.418415E+04  9.885812E-13  2.965744E-12 -9.515742E-13 -1.733098E-12  3.310013E-13
         6   7 -1.418415E+04  1.977162E-12  1.977162E-12  2.243250E-12  2.267342E-13 -3.115307E-13
         6   8 -1.418415E+04  1.977162E-12  2.965744E-12 -2.773947E-13  1.739121E-12  4.672960E-13
         7   1 -1.418415E+04  7.141445E-30 -7.114266E-31  3.557779E-13 -2.615633E-13  1.557653E-13
         7   2 -1.418415E+04 -5.214989E-30  9.885812E-13 -5.264477E-13 -1.427361E-12 -2.725893E-13
         7   3 -1.418415E+04  9.885812E-13  9.885812E-13 -1.266514E-14 -1.386974E-13 -1.557653E-12
         7   4 -1.418415E+04  9.885812E-13  9.885812E-13 -8.948907E-13 -3.907618E-13  2.725893E-13
         7   5 -1.418415E+04 -1.977162E-12 -9.885812E-13 -1.266514E-14 -2.647296E-13  4.672960E-13
         7   6 -1.418415E+04 -1.977162E-12  7.877907E-30 -3.907618E-13 -1.146955E-12  8.956507E-13
         7   7 -1.418415E+04 -9.885812E-13 -9.885812E-13  3.274361E-13  2.014039E-13 -6.230614E-13
         7   8 -1.418415E+04 -1.977162E-12 -9.885812E-13 -5.066056E-14 -5.066056E-14  7.788267E-13
         8   1 -1.418415E+04 -1.977162E-12 -9.885812E-13  4.444338E-13 -5.517779E-14 -3.115307E-13
         8   2 -1.418415E+04 -1.557551E-29  9.885812E-13  2.051345E-12 -5.593067E-13 -4.478253E-13
         8   3 -1.418415E+04  2.960573E-30  1.977162E-12 -4.914637E-13 -9.515742E-13 -1.557653E-13
         8   4 -1.418415E+04  1.977162E-12  2.965744E-12  1.934656E-12 -5.734776E-13 -5.646494E-13
         8   5 -1.418415E+04  2.443123E-30  9.885812E-13 -6.270652E-14  1.039611E-12  9.345920E-13
         8   6 -1.418415E+04  6.766661E-30  1.977162E-12 -3.147710E-13 -1.165953E-12  5.062374E-13
         8   7 -1.418415E+04  1.977162E-12  1.977162E-12  5.547894E-13 -1.512387E-12  3.115307E-13
         8   8 -1.418415E+04  7.647245E-30  1.977162E-12 -4.534683E-13 -3.780967E-13  6.230614E-13
         9   1 -1.418415E+04 -1.152803E-29  9.885812E-13  7.218286E-13  5.324706E-13 -7.788267E-14
         9   2 -1.418415E+04  3.954325E-12  3.954325E-12  3.437319E-13 -4.382786E-12  6.425320E-13
         9   3 -1.418415E+04 -1.977162E-12 -9.885812E-13  1.600423E-12  9.515742E-13 -8.567094E-13
         9   4 -1.418415E+04  1.977162E-12  9.885812E-13  1.789472E-12  1.959832E-12  1.090357E-12
         9   5 -1.418415E+04 -5.477427E-30 -9.885812E-13 -4.414223E-13  6.174960E-13  4.672960E-13
         9   6 -1.418415E+04 -9.605417E-30  9.885812E-13 -4.414223E-13 -3.415535E-12 -2.725893E-13
         9   7 -1.418415E+04  1.977162E-12  1.977162E-12 -1.013211E-13 -1.461726E-12 -6.230614E-13
         9   8 -1.418415E+04  1.977162E-12  9.885812E-13  4.028078E-13  1.563047E-12  1.557653E-13

 strains (elem, integ.pnt.,exx,eyy,ezz,exy,exz,eyz) forset EALL and time  0.6000000E+00

         1   1 -7.680000E-02  2.304000E-02  2.304000E-02  2.217802E-19 -1.086069E-18 -2.217802E-19
         1   2 -7.680000E-02  2.304000E-02  2.304000E-02  2.217802E-19 -2.283028E-18 -2.772252E-19
         1   3 -7.680000E-02  2.304000E-02  2.304000E-02  8.871207E-19 -3.544125E-19  4.435603E-19
         1   4 -7.680000E-02  2.304000E-02  2.304000E-02  8.871207E-19 -5.940222E-18 -1.108901E-19
         1   5 -7.680000E-02  2.304000E-02  2.304000E-02 -7.979728E-19 -7.533989E-19  2.217802E-19
         1   6 -7.680000E-02  2.304000E-02  2.304000E-02  0.000000E+00 -1.950358E-18  5.544504E-20
         1   7 -7.680000E-02  2.304000E-02  2.304000E-02 -7.979728E-19 -7.979728E-19  8.871207E-19
         1   8 -7.680000E-02  2.304000E-02  2.304000E-02  0.000000E+00 -3.191891E-18  2.217802E-19
         2   1 -7.680000E-02  2.304000E-02  2.304000E-02  9.597416E-18 -3.989864E-18 -9.780113E-35
         2   2 -7.680000E-02  2.304000E-02  2.304000E-02  6.605018E-18  7.979728E-19  2.772252E-19
         2   3 -7.680000E-02  2.304000E-02  2.304000E-02  3.855053E-18 -9.132113E-18  8.871207E-19
         2   4 -7.680000E-02  2.304000E-02  2.304000E-02 -4.523662E-18  3.635452E-18  3.326703E-19
         2   5 -7.680000E-02  2.304000E-02  2.304000E-02 -8.871207E-19  5.231397E-18  0.000000E+00
         2   6 -7.680000E-02  2.304000E-02  2.304000E-02 -1.844252E-17 -1.549193E-19  2.550472E-18
         2   7 -7.680000E-02  2.304000E-02  2.304000E-02 -3.565916E-19 -4.609541E-18 -4.814825E-35
         2   8 -7.680000E-02  2.304000E-02  2.304000E-02 -2.269983E-17  9.762686E-19  2.217802E-18
         3   1 -7.680000E-02  2.304000E-02  2.304000E-02 -9.575674E-18  2.150396E-18  2.217802E-19
         3   2 -7.680000E-02  2.304000E-02  2.304000E-02  5.585810E-18 -1.341007E-17 -4.435603E-19
         3   3 -7.680000E-02  2.304000E-02  2.304000E-02 -9.575674E-18  0.000000E+00  4.435603E-19
         3   4 -7.680000E-02  2.304000E-02  2.304000E-02 -3.590878E-18  1.755540E-17 -3.326703E-19
         3   5 -7.680000E-02  2.304000E-02  2.304000E-02 -1.276756E-17  1.134991E-17  1.774241E-18
         3   6 -7.680000E-02  2.304000E-02  2.304000E-02 -7.979728E-18 -1.977102E-17  2.328692E-18
         3   7 -7.680000E-02  2.304000E-02  2.304000E-02 -1.276756E-17 -4.609541E-18  1.774241E-18
         3   8 -7.680000E-02  2.304000E-02  2.304000E-02 -6.383782E-18  9.753969E-18  2.217802E-18
         4   1 -7.680000E-02  2.304000E-02  2.304000E-02  3.813747E-18 -6.425088E-19 -4.513898E-36
         4   2 -7.680000E-02  2.304000E-02  2.304000E-02  8.601584E-18 -3.435414E-18  2.550472E-18
         4   3 -7.680000E-02  2.304000E-02  2.304000E-02  3.370187E-18 -1.152385E-18 -6.018531E-36
         4   4 -7.680000E-02  2.304000E-02  2.304000E-02  8.158024E-18 -5.940222E-18 -1.552461E-18
         4   5 -7.680000E-02  2.304000E-02  2.304000E-02 -7.979728E-19 -3.544125E-19 -4.435603E-19
         4   6 -7.680000E-02  2.304000E-02  2.304000E-02  0.000000E+00 -3.546304E-18  2.439582E-18
         4   7 -7.680000E-02  2.304000E-02  2.304000E-02 -7.979728E-19 -1.595946E-18  3.009266E-36
         4   8 -7.680000E-02  2.304000E-02  2.304000E-02  0.000000E+00 -3.191891E-18 -3.548483E-18
         5   1 -7.680000E-02  2.304000E-02  2.304000E-02  4.563877E-18 -3.544125E-19 -1.655096E-35
         5   2 -7.680000E-02  2.304000E-02  2.304000E-02  1.172493E-18 -1.372046E-17  2.772252E-18
         5   3 -7.680000E-02  2.304000E-02  2.304000E-02  5.761926E-18 -1.232400E-17 -2.407412E-34
         5   4 -7.680000E-02  2.304000E-02  2.304000E-02  1.394115E-17  2.837479E-18 -6.653405E-19
         5   5 -7.680000E-02  2.304000E-02  2.304000E-02 -8.001519E-19  7.005639E-18  4.435603E-19
         5   6 -7.680000E-02  2.304000E-02  2.304000E-02  3.987685E-18 -5.961419E-18  3.548483E-18
         5   7 -7.680000E-02  2.304000E-02  2.304000E-02  4.252949E-18 -7.801432E-18 -1.774241E-18
         5   8 -7.680000E-02  2.304000E-02  2.304000E-02  1.061058E-18  7.360051E-18 -2.217802E-18
         6   1 -7.680000E-02  2.304000E-02  2.304000E-02 -1.330681E-18 -1.374165E-18 -1.774241E-18
         6   2 -7.680000E-02  2.304000E-02  2.304000E-02  4.255129E-18 -1.414173E-17  4.657384E-18
         6   3 -7.680000E-02  2.304000E-02  2.304000E-02 -2.661362E-18  4.435603E-19 -1.774241E-18
         6   4 -7.680000E-02  2.304000E-02  2.304000E-02  3.323434E-18  1.959491E-17  1.108901E-18
         6   5 -7.680000E-02  2.304000E-02  2.304000E-02  1.321113E-17  7.005639E-18  1.774241E-18
         6   6 -7.680000E-02  2.304000E-02  2.304000E-02 -5.940222E-18 -1.054976E-17  1.885131E-18
         6   7 -7.680000E-02  2.304000E-02  2.304000E-02  1.454181E-17  1.774241E-18 -1.774241E-18
         6   8 -7.680000E-02  2.304000E-02  2.304000E-02 -1.417650E-18  1.134991E-17  2.661362E-18
         7   1 -7.680000E-02  2.304000E-02  2.304000E-02  2.972290E-18 -1.529085E-18  8.871207E-19
         7   2 -7.680000E-02  2.304000E-02  2.304000E-02 -2.613519E-18 -8.910333E-18 -1.552461E-18
         7   3 -7.680000E-02  2.304000E-02  2.304000E-02  8.914789E-20 -7.088249E-19 -8.871207E-18
         7   4 -7.680000E-02  2.304000E-02  2.304000E-02 -5.496662E-18 -2.304771E-18  1.552461E-18
         7   5 -7.680000E-02  2.304000E-02  2.304000E-02  8.914789E-20 -1.506798E-18  2.661362E-18
         7   6 -7.680000E-02  2.304000E-02  2.304000E-02 -2.304771E-18 -7.092607E-18  5.100944E-18
         7   7 -7.680000E-02  2.304000E-02  2.304000E-02  2.750510E-18  1.952537E-18 -3.548483E-18
         7   8 -7.680000E-02  2.304000E-02  2.304000E-02  3.565916E-19  3.565916E-19  4.435603E-18
         8   1 -7.680000E-02  2.304000E-02  2.304000E-02  2.348255E-18 -2.435224E-19 -1.774241E-18
         8   2 -7.680000E-02  2.304000E-02  2.304000E-02  1.252241E-17 -3.435414E-18 -2.550472E-18
         8   3 -7.680000E-02  2.304000E-02  2.304000E-02 -3.281039E-18 -5.940222E-18 -8.871207E-19
         8   4 -7.680000E-02  2.304000E-02  2.304000E-02  1.207994E-17 -3.546304E-18 -3.215813E-18
         8   5 -7.680000E-02  2.304000E-02  2.304000E-02 -1.243712E-18  7.005639E-18  5.322724E-18
         8   6 -7.680000E-02  2.304000E-02  2.304000E-02 -2.839658E-18 -6.958885E-18  2.883142E-18
         8   7 -7.680000E-02  2.304000E-02  2.304000E-02  2.835300E-18 -9.575674E-18  1.774241E-18
         8   8 -7.680000E-02  2.304000E-02  2.304000E-02 -3.548483E-18 -2.393918E-18  3.548483E-18
         9   1 -7.680000E-02  2.304000E-02  2.304000E-02  3.765905E-18  3.413671E-18 -4.435603E-19
         9   2 -7.680000E-02  2.304000E-02  2.304000E-02  1.371986E-18 -2.770727E-17  3.659373E-18
         9   3 -7.680000E-02  2.304000E-02  2.304000E-02  1.064109E-17  5.940222E-18 -4.879164E-18
         9   4 -7.680000E-02  2.304000E-02  2.304000E-02  1.183805E-17  1.232400E-17  6.209845E-18
         9   5 -7.680000E-02  2.304000E-02  2.304000E-02 -1.948179E-18  4.079012E-18  2.661362E-18
         9   6 -7.680000E-02  2.304000E-02  2.304000E-02 -1.948179E-18 -2.145612E-17 -1.552461E-18
         9   7 -7.680000E-02  2.304000E-02  2.304000E-02  7.131832E-19 -9.932265E-18 -3.548483E-18
         9   8 -7.680000E-02  2.304000E-02  2.304000E-02  3.905074E-18  9.219082E-18  8.871207E-19

 displacements (vx,vy,vz) for set NALL and time  0.6500000E+00

         1  0.000000E+00  0.000000E+00  0.000000E+00
         2 -4.333333E+01  0.000000E+00  0.000000E+00
         3 -8.666667E+01  0.000000E+00  0.000000E+00
         4 -1.300000E+02  0.000000E+00  0.000000E+00
         5  0.000000E+00  1.228573E+01  0.000000E+00
         6 -4.333333E+01  1.228573E+01  0.000000E+00
         7 -8.666667E+01  1.228573E+01  0.000000E+00
         8 -1.300000E+02  1.228573E+01  0.000000E+00
         9  0.000000E+00  2.457146E+01  0.000000E+00
        10 -4.333333E+01  2.457146E+01  0.000000E+00
        11 -8.666667E+01  2.457146E+01  0.000000E+00
        12 -1.300000E+02  2.457146E+01  0.000000E+00
        13  0.000000E+00  3.685718E+01  0.000000E+00
        14 -4.333333E+01  3.685718E+01  0.000000E+00
        15 -8.666667E+01  3.685718E+01  0.000000E+00
        16 -1.300000E+02  3.685718E+01  0.000000E+00
        17  0.000000E+00  0.000000E+00  1.720002E+01
        18 -4.333333E+01  0.000000E+00  1.720002E+01
        19 -8.666667E+01  0.000000E+00  1.720002E+01
        20 -1.300000E+02  0.000000E+00  1.720002E+01
        21  0.000000E+00  1.228573E+01  1.720002E+01
        22 -4.333333E+01  1.228573E+01  1.720002E+01
        23 -8.666667E+01  1.228573E+01  1.720002E+01
        24 -1.300000E+02  1.228573E+01  1.720002E+01
        25  0.000000E+00  2.457146E+01  1.720002E+01
        26 -4.333333E+01  2.457146E+01  1.720002E+01
        27 -8.666667E+01  2.457146E+01  1.720002E+01
        28 -1.300000E+02  2.457146E+01  1.720002E+01
        29  0.000000E+00  3.685718E+01  1.720002E+01
        30 -4.333333E+01  3.685718E+01  1.720002E+01
        31 -8.666667E+01  3.685718E+01  1.720002E+01
        32 -1.300000E+02  3.685718E+01  1.720002E+01

 stresses (elem, integ.pnt.,sxx,syy,szz,sxy,sxz,syz) for set EALL and time  0.6500000E+00

         1   1 -1.514875E+04  9.126865E-31  8.159581E-32  3.193878E-13  1.700428E-13 -7.858853E-14
         1   2 -1.514875E+04  1.991594E-12  1.991594E-12  5.691883E-13  5.135184E-13  5.894140E-14
         1   3 -1.514875E+04  2.987391E-12  2.987391E-12  4.724800E-13  5.566988E-14 -3.143541E-13
         1   4 -1.514875E+04  4.978986E-12  3.983188E-12  7.222805E-13  5.566988E-14 -5.894140E-14
         1   5 -1.514875E+04  9.957971E-13  9.957971E-13  5.566988E-14  2.117952E-13 -7.858853E-14
         1   6 -1.514875E+04  3.983188E-12  3.983188E-12  5.566988E-14  5.552708E-13  4.322369E-13
         1   7 -1.514875E+04  1.991594E-12  1.991594E-12  3.204588E-13  5.702593E-13 -1.571771E-13
         1   8 -1.514875E+04  2.987391E-12  2.987391E-12  4.453591E-13  4.453591E-13  3.143541E-13
         2   1 -1.514875E+04  9.957971E-13  9.957971E-13  1.817834E-12  8.050713E-13  3.929426E-14
         2   2 -1.514875E+04  3.983188E-12  3.983188E-12  2.253556E-13 -1.474358E-12 -8.841209E-14
         2   3 -1.514875E+04 -1.991594E-12 -1.991594E-12  1.276123E-12  4.996009E-13  7.858853E-14
         2   4 -1.514875E+04 -9.957971E-13 -9.957971E-13 -3.532918E-14  3.747007E-13  3.929426E-14
         2   5 -1.514875E+04 -1.991594E-12 -1.991594E-12  4.996009E-13  3.475798E-13  3.143541E-13
         2   6 -1.514875E+04  9.957971E-13  9.957971E-13 -1.249002E-13 -5.267219E-13  3.045305E-13
         2   7 -1.514875E+04  0.000000E+00  8.515833E-30  1.498803E-12  2.292437E-29  6.287082E-13
         2   8 -1.514875E+04  9.957971E-13  3.659147E-30 -3.747007E-13  7.494014E-13  4.322369E-13
         3   1 -1.514875E+04 -3.983188E-12 -1.991594E-12 -6.380616E-13  1.802131E-13 -3.929426E-14
         3   2 -1.514875E+04 -9.957971E-13 -1.991594E-12  2.362400E-13 -2.817393E-12 -1.670006E-13
         3   3 -1.514875E+04 -9.957971E-13 -9.957971E-13 -5.267219E-13 -5.566988E-14 -1.571771E-13
         3   4 -1.514875E+04  1.991594E-12  9.957971E-13  9.096308E-13 -5.552708E-13 -4.125898E-13
         3   5 -1.514875E+04  2.987391E-12  2.987391E-12  9.992019E-13 -1.027751E-12 -3.143541E-13
         3   6 -1.514875E+04  1.991594E-12  1.991594E-12  2.717333E-31 -1.534492E-13 -2.259420E-13
         3   7 -1.514875E+04  1.991594E-12  9.957971E-13  9.992019E-13 -2.226795E-13 -3.143541E-13
         3   8 -1.514875E+04  6.386875E-30 -1.114321E-29  4.996009E-13  1.775724E-12 -6.287082E-13
         4   1 -1.514875E+04  3.983188E-12  2.987391E-12  2.471244E-13  5.566988E-14 -7.072967E-13
         4   2 -1.514875E+04  5.974783E-12  4.978986E-12  2.854895E-14 -3.190308E-13  1.768242E-13
         4   3 -1.514875E+04  5.974783E-12  3.983188E-12  3.027942E-13 -1.249002E-13 -3.143541E-13
         4   4 -1.514875E+04  5.974783E-12  2.987391E-12  8.421883E-14 -4.996009E-13 -5.894140E-13
         4   5 -1.514875E+04  1.991594E-12  1.991594E-12  1.955586E-13  5.078092E-13 -1.100239E-12
         4   6 -1.514875E+04  4.978986E-12  4.978986E-12 -5.424187E-14 -5.424187E-14 -7.072967E-13
         4   7 -1.514875E+04  3.983188E-12  2.987391E-12  4.182381E-13 -1.249002E-13 -6.287082E-13
         4   8 -1.514875E+04  2.987391E-12  1.991594E-12  1.684377E-13  4.611509E-31 -1.650359E-12
         5   1 -1.514875E+04  9.957971E-13  1.991594E-12  5.538428E-13  1.512720E-12 -3.929426E-13
         5   2 -1.514875E+04  9.957971E-13  1.991594E-12  1.990196E-12 -2.390412E-12  6.876496E-13
         5   3 -1.514875E+04  2.987391E-12  2.987391E-12  2.062630E-13  5.566988E-14 -7.858853E-14
         5   4 -1.514875E+04  2.987391E-12  3.983188E-12  6.746389E-13 -8.186318E-13  4.125898E-13
         5   5 -1.514875E+04  9.957971E-13  2.542967E-29 -6.109407E-13 -6.923035E-14 -1.257416E-12
         5   6 -1.514875E+04  9.957971E-13  9.957971E-13 -1.485242E-12 -6.937315E-13  9.234152E-13
         5   7 -1.514875E+04  5.705997E-30 -9.957971E-13 -7.222805E-13 -2.769214E-13  1.104501E-30
         5   8 -1.514875E+04  9.957971E-13 -1.885269E-30 -1.721482E-12 -2.769214E-13  1.571771E-13
         6   1 -1.514875E+04 -2.987391E-12 -9.957971E-13  2.138292E-12  1.193332E-12 -1.571771E-13
         6   2 -1.514875E+04 -9.957971E-13  2.042163E-30  3.272391E-13 -1.054872E-12  1.964713E-14
         6   3 -1.514875E+04  5.704742E-29  9.957971E-13  2.416642E-12 -9.992019E-13  7.858853E-14
         6   4 -1.514875E+04  2.987391E-12  2.987391E-12  1.230090E-12 -7.494014E-13  1.178828E-13
         6   5 -1.514875E+04  2.987391E-12  2.987391E-12  1.670000E-30 -9.720810E-13 -7.858853E-14
         6   6 -1.514875E+04  1.991594E-12  9.957971E-13 -2.498005E-13 -3.095385E-12  6.287082E-13
         6   7 -1.514875E+04  2.987391E-12  1.991594E-12  7.641456E-30  9.992019E-13  3.143541E-13
         6   8 -1.514875E+04  1.991594E-12  9.957971E-13  9.580312E-30  1.498803E-12  4.715312E-13
         7   1 -1.514875E+04  1.991594E-12  1.991594E-12 -5.834599E-14 -1.873504E-13 -5.501197E-13
         7   2 -1.514875E+04  2.987391E-12  2.987391E-12 -9.014226E-13 -1.373903E-12  2.099380E-29
         7   3 -1.514875E+04  9.957971E-13  1.197539E-30 -2.810255E-13 -2.498005E-13 -7.072967E-13
         7   4 -1.514875E+04  9.957971E-13  9.957971E-13 -1.124102E-12 -4.996009E-13  4.322369E-13
         7   5 -1.514875E+04  5.974783E-12  2.987391E-12  4.182381E-13 -2.185754E-13 -3.143541E-13
         7   6 -1.514875E+04  9.957971E-13  9.957971E-13 -8.307642E-13 -6.245012E-13 -7.072967E-13
         7   7 -1.514875E+04  2.987391E-12  0.000000E+00 -2.498005E-13 -1.249002E-13  5.322396E-31
         7   8 -1.514875E+04  4.790156E-29 -9.957971E-13 -1.498803E-12 -9.992019E-13  1.414593E-12
         8   1 -1.514875E+04  3.329249E-29  8.713754E-31 -6.958736E-13 -3.190308E-13 -8.644738E-13
         8   2 -1.514875E+04 -7.725639E-30 -6.317048E-30  6.780290E-13 -2.785810E-12  4.911783E-13
         8   3 -1.514875E+04  1.991594E-12  1.991594E-12 -4.317986E-13 -4.996009E-13 -6.287082E-13
         8   4 -1.514875E+04  3.983188E-12  2.987391E-12 -2.444483E-13 -9.992019E-13  2.554127E-13
         8   5 -1.514875E+04 -9.957971E-13 -9.957971E-13 -3.340193E-13 -2.769214E-13  3.143541E-13
         8   6 -1.514875E+04 -2.987391E-12 -9.957971E-13 -8.336202E-13 -2.431450E-12 -1.964713E-13
         8   7 -1.514875E+04  1.523272E-29 -9.957971E-13 -9.449600E-13 -9.992019E-13  1.610710E-29
         8   8 -1.514875E+04 -2.987391E-12 -2.987391E-12 -1.069860E-12 -2.872705E-12  3.143541E-13
         9   1 -1.514875E+04  9.957971E-13  9.957971E-13  3.889752E-13 -1.998404E-12  2.357656E-13
         9   2 -1.514875E+04 -2.987391E-12 -9.957971E-13  7.672459E-14 -1.061652E-12 -3.929426E-13
         9   3 -1.514875E+04  1.149983E-29 -9.957971E-13 -4.182381E-13 -9.992019E-13 -7.858853E-14
         9   4 -1.514875E+04 -1.991594E-12 -1.991594E-12 -1.059876E-13  2.498005E-13  1.964713E-14
         9   5 -1.514875E+04  5.974783E-12  3.983188E-12 -8.878621E-13  2.498005E-13 -4.715312E-13
         9   6 -1.514875E+04  9.957971E-13  4.978986E-12 -1.384607E-13 -2.123304E-12  1.178828E-13
         9   7 -1.514875E+04  9.957971E-13 -2.128958E-30 -5.538428E-13 -9.992019E-13  3.143541E-13
         9   8 -1.514875E+04 -1.991594E-12 -9.957971E-13  4.453591E-13  1.998404E-12 -7.858853E-14

 strains (elem, integ.pnt.,exx,eyy,ezz,exy,exz,eyz) forset EALL and time  0.6500000E+00

         1   1 -8.291111E-02  2.487333E-02  2.487333E-02  2.139802E-18  1.101322E-18 -4.443370E-19
         1   2 -8.291111E-02  2.487333E-02  2.487333E-02  3.724183E-18  3.279846E-18  3.332528E-19
         1   3 -8.291111E-02  2.487333E-02  2.487333E-02  3.361729E-18  4.443370E-19 -1.777348E-18
         1   4 -8.291111E-02  2.487333E-02  2.487333E-02  4.946110E-18  4.443370E-19 -3.332528E-19
         1   5 -8.291111E-02  2.487333E-02  2.487333E-02  4.443370E-19  1.434575E-18 -4.443370E-19
         1   6 -8.291111E-02  2.487333E-02  2.487333E-02  4.443370E-19  3.613099E-18  2.443854E-18
         1   7 -8.291111E-02  2.487333E-02  2.487333E-02  2.762506E-18  4.346887E-18 -8.886741E-19
         1   8 -8.291111E-02  2.487333E-02  2.487333E-02  3.554696E-18  3.554696E-18  1.777348E-18
         2   1 -8.291111E-02  2.487333E-02  2.487333E-02  1.143852E-17  5.197479E-18  2.221685E-19
         2   2 -8.291111E-02  2.487333E-02  2.487333E-02  1.338091E-18 -9.259995E-18 -4.998792E-19
         2   3 -8.291111E-02  2.487333E-02  2.487333E-02  7.728936E-18  3.168762E-18  4.443370E-19
         2   4 -8.291111E-02  2.487333E-02  2.487333E-02 -5.890626E-19  2.376571E-18  2.221685E-19
         2   5 -8.291111E-02  2.487333E-02  2.487333E-02  3.168762E-18  2.569539E-18  1.777348E-18
         2   6 -8.291111E-02  2.487333E-02  2.487333E-02 -7.921904E-19 -2.975794E-18  1.721806E-18
         2   7 -8.291111E-02  2.487333E-02  2.487333E-02  9.506285E-18  0.000000E+00  3.554696E-18
         2   8 -8.291111E-02  2.487333E-02  2.487333E-02 -2.376571E-18  4.753142E-18  2.443854E-18
         3   1 -8.291111E-02  2.487333E-02  2.487333E-02 -3.864468E-18  1.028959E-18 -2.221685E-19
         3   2 -8.291111E-02  2.487333E-02  2.487333E-02  1.680864E-18 -1.798361E-17 -9.442162E-19
         3   3 -8.291111E-02  2.487333E-02  2.487333E-02 -2.975794E-18 -4.443370E-19 -8.886741E-19
         3   4 -8.291111E-02  2.487333E-02  2.487333E-02  6.134395E-18 -3.613099E-18 -2.332769E-18
         3   5 -8.291111E-02  2.487333E-02  2.487333E-02  6.337523E-18 -6.974828E-18 -1.777348E-18
         3   6 -8.291111E-02  2.487333E-02  2.487333E-02  1.880791E-36 -1.429495E-18 -1.277469E-18
         3   7 -8.291111E-02  2.487333E-02  2.487333E-02  6.337523E-18 -1.777348E-18 -1.777348E-18
         3   8 -8.291111E-02  2.487333E-02  2.487333E-02  3.168762E-18  1.089770E-17 -3.554696E-18
         4   1 -8.291111E-02  2.487333E-02  2.487333E-02  2.023638E-18  4.443370E-19 -3.999033E-18
         4   2 -8.291111E-02  2.487333E-02  2.487333E-02  6.373044E-19 -1.932234E-18  9.997583E-19
         4   3 -8.291111E-02  2.487333E-02  2.487333E-02  2.467975E-18 -7.921904E-19 -1.777348E-18
         4   4 -8.291111E-02  2.487333E-02  2.487333E-02  1.081641E-18 -3.168762E-18 -3.332528E-18
         4   5 -8.291111E-02  2.487333E-02  2.487333E-02  1.970316E-18  3.950792E-18 -6.220719E-18
         4   6 -8.291111E-02  2.487333E-02  2.487333E-02  3.859348E-19  3.859348E-19 -3.999033E-18
         4   7 -8.291111E-02  2.487333E-02  2.487333E-02  3.747664E-18 -7.921904E-19 -3.554696E-18
         4   8 -8.291111E-02  2.487333E-02  2.487333E-02  2.163283E-18 -4.965288E-35 -9.331078E-18
         5   1 -8.291111E-02  2.487333E-02  2.487333E-02  2.782827E-18  9.617369E-18 -2.221685E-18
         5   2 -8.291111E-02  2.487333E-02  2.487333E-02  1.189302E-17 -1.513858E-17  3.887949E-18
         5   3 -8.291111E-02  2.487333E-02  2.487333E-02  2.132882E-19  4.443370E-19 -4.443370E-19
         5   4 -8.291111E-02  2.487333E-02  2.487333E-02  3.184002E-18 -5.100996E-18  2.332769E-18
         5   5 -8.291111E-02  2.487333E-02  2.487333E-02 -4.057436E-18 -3.478533E-19 -7.109393E-18
         5   6 -8.291111E-02  2.487333E-02  2.487333E-02 -9.602768E-18 -4.308805E-18  5.220960E-18
         5   7 -8.291111E-02  2.487333E-02  2.487333E-02 -4.946110E-18 -1.391413E-18  3.611119E-35
         5   8 -8.291111E-02  2.487333E-02  2.487333E-02 -1.128363E-17 -1.391413E-18  8.886741E-19
         6   1 -8.291111E-02  2.487333E-02  2.487333E-02  1.420102E-17  7.477567E-18 -8.886741E-19
         6   2 -8.291111E-02  2.487333E-02  2.487333E-02  2.714264E-18 -6.781860E-18  1.110843E-19
         6   3 -8.291111E-02  2.487333E-02  2.487333E-02  1.642271E-17 -6.337523E-18  4.443370E-19
         6   4 -8.291111E-02  2.487333E-02  2.487333E-02  8.896901E-18 -4.753142E-18  6.665056E-19
         6   5 -8.291111E-02  2.487333E-02  2.487333E-02  0.000000E+00 -6.530490E-18 -4.443370E-19
         6   6 -8.291111E-02  2.487333E-02  2.487333E-02 -1.584381E-18 -1.999773E-17  3.554696E-18
         6   7 -8.291111E-02  2.487333E-02  2.487333E-02  0.000000E+00  6.337523E-18  1.777348E-18
         6   8 -8.291111E-02  2.487333E-02  2.487333E-02  0.000000E+00  9.506285E-18  2.666022E-18
         7   1 -8.291111E-02  2.487333E-02  2.487333E-02 -5.080216E-21 -1.188286E-18 -3.110359E-18
         7   2 -8.291111E-02  2.487333E-02  2.487333E-02 -5.352365E-18 -8.714094E-18  1.482063E-34
         7   3 -8.291111E-02  2.487333E-02  2.487333E-02 -1.782428E-18 -1.584381E-18 -3.999033E-18
         7   4 -8.291111E-02  2.487333E-02  2.487333E-02 -7.129713E-18 -3.168762E-18  2.443854E-18
         7   5 -8.291111E-02  2.487333E-02  2.487333E-02  3.747664E-18 -1.386333E-18 -1.777348E-18
         7   6 -8.291111E-02  2.487333E-02  2.487333E-02 -4.174240E-18 -3.960952E-18 -3.999033E-18
         7   7 -8.291111E-02  2.487333E-02  2.487333E-02 -1.584381E-18 -7.921904E-19  3.009266E-36
         7   8 -8.291111E-02  2.487333E-02  2.487333E-02 -9.506285E-18 -6.337523E-18  7.998067E-18
         8   1 -8.291111E-02  2.487333E-02  2.487333E-02 -5.554213E-18 -1.932234E-18 -4.887707E-18
         8   2 -8.291111E-02  2.487333E-02  2.487333E-02  3.159881E-18 -1.757799E-17  2.777106E-18
         8   3 -8.291111E-02  2.487333E-02  2.487333E-02 -3.651180E-18 -3.168762E-18 -3.554696E-18
         8   4 -8.291111E-02  2.487333E-02  2.487333E-02 -2.462894E-18 -6.337523E-18  1.444095E-18
         8   5 -8.291111E-02  2.487333E-02  2.487333E-02 -2.666022E-18 -1.391413E-18  1.777348E-18
         8   6 -8.291111E-02  2.487333E-02  2.487333E-02 -5.834784E-18 -1.505670E-17 -1.110843E-18
         8   7 -8.291111E-02  2.487333E-02  2.487333E-02 -6.723458E-18 -6.337523E-18  4.814825E-35
         8   8 -8.291111E-02  2.487333E-02  2.487333E-02 -7.515648E-18 -1.822038E-17  1.777348E-18
         9   1 -8.291111E-02  2.487333E-02  2.487333E-02  2.695223E-18 -1.267505E-17  1.333011E-18
         9   2 -8.291111E-02  2.487333E-02  2.487333E-02  7.147474E-19 -6.733618E-18 -2.221685E-18
         9   3 -8.291111E-02  2.487333E-02  2.487333E-02 -3.747664E-18 -6.337523E-18 -4.443370E-19
         9   4 -8.291111E-02  2.487333E-02  2.487333E-02 -1.767188E-18  1.584381E-18  1.110843E-19
         9   5 -8.291111E-02  2.487333E-02  2.487333E-02 -5.448849E-18  1.584381E-18 -2.666022E-18
         9   6 -8.291111E-02  2.487333E-02  2.487333E-02 -6.957067E-19 -1.346724E-17  6.665056E-19
         9   7 -8.291111E-02  2.487333E-02  2.487333E-02 -2.782827E-18 -6.337523E-18  1.777348E-18
         9   8 -8.291111E-02  2.487333E-02  2.487333E-02  3.554696E-18  1.267505E-17 -4.443370E-19

 displacements (vx,vy,vz) for set NALL and time  0.7000000E+00

         1  0.000000E+00  0.000000E+00  0.000000E+00
         2 -4.666667E+01  0.000000E+00  0.000000E+00
         3 -9.333333E+01  0.000000E+00  0.000000E+00
         4 -1.400000E+02  0.000000E+00  0.000000E+00
         5  0.000000E+00  1.317314E+01  0.000000E+00
         6 -4.666667E+01  1.317314E+01  0.000000E+00
         7 -9.333333E+01  1.317314E+01  0.000000E+00
         8 -1.400000E+02  1.317314E+01  0.000000E+00
         9  0.000000E+00  2.634627E+01  0.000000E+00
        10 -4.666667E+01  2.634627E+01  0.000000E+00
        11 -9.333333E+01  2.634627E+01  0.000000E+00
        12 -1.400000E+02  2.634627E+01  0.000000E+00
        13  0.000000E+00  3.951941E+01  0.000000E+00
        14 -4.666667E+01  3.951941E+01  0.000000E+00
        15 -9.333333E+01  3.951941E+01  0.000000E+00
        16 -1.400000E+02  3.951941E+01  0.000000E+00
        17  0.000000E+00  0.000000E+00  1.844239E+01
        18 -4.666667E+01  0.000000E+00  1.844239E+01
        19 -9.333333E+01  0.000000E+00  1.844239E+01
        20 -1.400000E+02  0.000000E+00  1.844239E+01
        21  0.000000E+00  1.317314E+01  1.844239E+01
        22 -4.666667E+01  1.317314E+01  1.844239E+01
        23 -9.333333E+01  1.317314E+01  1.844239E+01
        24 -1.400000E+02  1.317314E+01  1.844239E+01
        25  0.000000E+00  2.634627E+01  1.844239E+01
        26 -4.666667E+01  2.634627E+01  1.844239E+01
        27 -9.333333E+01  2.634627E+01  1.844239E+01
        28 -1.400000E+02  2.634627E+01  1.844239E+01
        29  0.000000E+00  3.951941E+01  1.844239E+01
        30 -4.666667E+01  3.951941E+01  1.844239E+01
        31 -9.333333E+01  3.951941E+01  1.844239E+01
        32 -1.400000E+02  3.951941E+01  1.844239E+01

 stresses (elem, integ.pnt.,sxx,syy,szz,sxy,sxz,syz) for set EALL and time  0.7000000E+00

         1   1 -1.608276E+04  1.003119E-12  2.006238E-12 -6.188707E-14  2.338806E-13  1.586070E-13
         1   2 -1.608276E+04  4.012477E-12  3.009357E-12 -3.713224E-13  8.527514E-13 -9.912940E-14
         1   3 -1.608276E+04  7.738812E-31 -1.003119E-12 -1.165577E-13  2.619813E-13 -7.930352E-14
         1   4 -1.608276E+04  3.009357E-12  1.003119E-12 -4.259930E-13  1.871045E-12 -5.749505E-13
         1   5 -1.608276E+04  4.012477E-12  4.012477E-12 -1.237741E-13  1.382071E-13  5.551246E-13
         1   6 -1.608276E+04  2.006238E-12  2.006238E-12  4.950966E-13  7.570779E-13  3.965176E-14
         1   7 -1.608276E+04  3.009357E-12  3.009357E-12 -3.424565E-13 -6.604221E-14  1.586070E-13
         1   8 -1.608276E+04  1.003119E-12  1.003119E-12  2.764143E-13  1.543022E-12 -4.361694E-13
         2   1 -1.608276E+04 -2.775637E-30  1.003119E-12  8.808520E-13  2.214267E-12 -1.586070E-13
         2   2 -1.608276E+04  2.006238E-12  2.006238E-12  2.737464E-12  5.433160E-13 -2.874753E-13
         2   3 -1.608276E+04  7.021834E-12  7.021834E-12  6.766027E-13 -1.093412E-13 -5.551246E-13
         2   4 -1.608276E+04  7.021834E-12  6.018715E-12  3.337747E-12  1.128400E-12 -3.370400E-13
         2   5 -1.608276E+04  3.015861E-31 -6.153592E-30  4.950966E-13  1.623497E-12 -1.189553E-13
         2   6 -1.608276E+04  2.199065E-31 -3.910582E-30 -2.475483E-12  1.221231E-12 -2.081717E-13
         2   7 -1.608276E+04 -1.003119E-12 -2.006238E-12  7.715109E-13  5.773194E-14  4.170324E-30
         2   8 -1.608276E+04 -2.006238E-12 -3.009357E-12 -2.941714E-12  2.038118E-12 -2.379106E-13
         3   1 -1.608276E+04 -2.006238E-12  1.625603E-30  2.420812E-12 -3.568895E-13 -1.189553E-13
         3   2 -1.608276E+04 -2.003810E-30 -2.006238E-12  1.183071E-12 -4.441436E-12 -1.288682E-13
         3   3 -1.608276E+04 -2.006238E-12 -2.006238E-12  2.202130E-12  9.355226E-13 -3.965176E-13
         3   4 -1.608276E+04 -1.469450E-29 -1.003119E-12  1.583259E-12  1.925716E-12 -9.912940E-14
         3   5 -1.608276E+04  6.701913E-31  1.003119E-12 -2.970580E-12  1.047925E-12 -3.965176E-13
         3   6 -1.608276E+04 -1.003119E-12  2.965569E-29  9.901932E-13 -1.613219E-12 -4.758211E-13
         3   7 -1.608276E+04  1.003119E-12 -1.003119E-12 -3.189262E-12  9.901932E-13 -4.758211E-13
         3   8 -1.608276E+04 -1.003119E-12 -1.003119E-12 -7.137789E-13  4.208321E-12 -2.379106E-13
         4   1 -1.608276E+04  8.578449E-30 -1.417256E-30  2.475483E-13  3.857554E-13 -6.344282E-13
         4   2 -1.608276E+04 -3.009357E-12 -1.003119E-12  9.901932E-13  1.499723E-12  2.180847E-13
         4   3 -1.608276E+04  2.006238E-12  2.006238E-12  2.475483E-13  2.475483E-13  1.072306E-30
         4   4 -1.608276E+04  6.031722E-31  2.006238E-12  9.901932E-13  1.485290E-12 -1.189553E-13
         4   5 -1.608276E+04  5.015596E-12  5.015596E-12 -3.424565E-13 -4.155131E-15 -4.758211E-13
         4   6 -1.608276E+04  4.012477E-12  4.012477E-12 -2.186823E-13  1.047925E-12  5.154729E-13
         4   7 -1.608276E+04  6.018715E-12  6.018715E-12 -1.237741E-13  2.475483E-13 -5.361531E-31
         4   8 -1.608276E+04  5.015596E-12  5.015596E-12  7.493575E-30  1.485290E-12  5.551246E-13
         5   1 -1.608276E+04  4.012477E-12  5.015596E-12  4.161521E-13  2.723797E-12 -2.379106E-13
         5   2 -1.608276E+04  4.012477E-12  6.018715E-12 -4.502670E-13 -1.144146E-12  6.542540E-13
         5   3 -1.608276E+04 -2.006238E-12  1.003119E-12  5.672615E-13  9.355226E-13 -1.586070E-13
         5   4 -1.608276E+04 -2.006238E-12 -4.409210E-30 -1.784447E-12  2.049490E-12 -1.982588E-13
         5   5 -1.608276E+04  1.003119E-12 -2.123307E-29  1.670731E-13  1.364577E-12  7.930352E-14
         5   6 -1.608276E+04 -2.006238E-12  5.264584E-29 -8.231201E-13 -1.853551E-12  1.050772E-12
         5   7 -1.608276E+04 -1.003119E-12 -1.003119E-12 -4.373646E-13  2.764143E-13  6.344282E-13
         5   8 -1.608276E+04 -3.009357E-12 -3.009357E-12 -1.180010E-12  1.266607E-12  7.930352E-13
         6   1 -1.608276E+04 -9.028072E-12 -7.021834E-12 -2.723031E-12 -7.563125E-13 -7.930352E-14
         6   2 -1.608276E+04 -6.018715E-12 -4.012477E-12  7.426449E-13 -2.551038E-12  4.559952E-13
         6   3 -1.608276E+04 -2.006238E-12 -2.311368E-30 -2.613690E-12  9.355226E-13 -1.586070E-13
         6   4 -1.608276E+04 -1.828370E-30  1.003119E-12 -6.333037E-13  1.925716E-12  1.586070E-13
         6   5 -1.608276E+04 -1.003119E-12 -2.364523E-30 -3.189262E-12  6.333037E-13 -3.712529E-29
         6   6 -1.608276E+04  1.003119E-12  1.003119E-12 -1.208876E-12 -2.770485E-12  5.352988E-13
         6   7 -1.608276E+04 -7.519816E-30 -5.375204E-30 -5.528285E-13  5.528285E-13  3.172141E-13
         6   8 -1.608276E+04  1.003119E-12 -1.003119E-12 -5.773194E-14  1.790570E-12  7.137317E-13
         7   1 -1.608276E+04  1.003119E-12  3.009357E-12  5.467058E-14  3.749307E-13 -1.586070E-13
         7   2 -1.608276E+04  3.009357E-12  3.009357E-12 -5.642002E-13  1.457954E-12  3.965176E-14
         7   3 -1.608276E+04 -1.003119E-12  1.003119E-12  3.280235E-13  5.642002E-13 -6.344282E-13
         7   4 -1.608276E+04  1.003119E-12  1.003119E-12 -2.908473E-13  1.925716E-12 -1.586070E-13
         7   5 -1.608276E+04  5.015596E-12  6.018715E-12  1.443299E-14  3.166519E-13  9.516422E-13
         7   6 -1.608276E+04 -8.811027E-31  4.012477E-12  3.857554E-13  1.678167E-12  3.172141E-13
         7   7 -1.608276E+04  7.021834E-12  7.021834E-12 -7.509551E-13  5.239626E-13  1.586070E-12
         7   8 -1.608276E+04  1.780225E-29  3.009357E-12 -3.796327E-13  1.761704E-12 -2.379106E-13
         8   1 -1.608276E+04  3.633150E-30 -5.733984E-30  1.412685E-13  2.407145E-12 -4.758211E-13
         8   2 -1.608276E+04  2.006238E-12  2.006238E-12  1.812219E-12  7.980808E-13  7.137317E-13
         8   3 -1.608276E+04  2.006238E-12  2.006238E-12  9.097180E-13  1.925716E-12  3.105687E-29
         8   4 -1.608276E+04  1.003119E-12  1.003119E-12  2.908473E-13  4.277425E-12  7.533834E-13
         8   5 -1.608276E+04 -3.009357E-12 -1.003119E-12  1.157266E-12  2.821001E-12 -1.586070E-13
         8   6 -1.608276E+04  3.009357E-12  1.003119E-12  1.528589E-12 -4.280706E-13  2.379106E-13
         8   7 -1.608276E+04 -2.006238E-12 -2.006238E-12  1.922654E-12  1.266607E-12 -6.344282E-13
         8   8 -1.608276E+04  2.006238E-12 -3.096251E-30  2.046429E-12  2.256801E-12  2.061892E-12
         9   1 -1.608276E+04  2.818084E-30 -1.365810E-30 -1.044864E-12  3.310848E-13 -2.379106E-13
         9   2 -1.608276E+04 -1.402110E-30 -2.006238E-12  6.879743E-13 -2.453833E-12 -5.947764E-14
         9   3 -1.608276E+04  3.009357E-12  1.003119E-12 -1.099534E-12  1.761704E-12 -7.930352E-14
         9   4 -1.608276E+04  1.003119E-12 -2.006238E-12  1.252174E-12  2.009252E-12  7.930352E-13
         9   5 -1.608276E+04  7.021834E-12  5.015596E-12  3.280235E-13  1.571888E-12  1.586070E-13
         9   6 -1.608276E+04 -1.003119E-12 -1.003119E-12  1.565765E-12 -1.955676E-12 -4.758211E-13
         9   7 -1.608276E+04  6.018715E-12  1.003119E-12 -4.373646E-13  1.105657E-12  6.344282E-13
         9   8 -1.608276E+04 -4.012477E-12 -5.015596E-12 -6.849129E-13  8.581088E-13  2.379106E-13

 strains (elem, integ.pnt.,exx,eyy,ezz,exy,exz,eyz) forset EALL and time  0.7000000E+00

         1   1 -8.897778E-02  2.669333E-02  2.669333E-02 -3.932040E-19  1.461539E-18  8.902135E-19
         1   2 -8.897778E-02  2.669333E-02  2.669333E-02 -2.359224E-18  5.393579E-18 -5.563834E-19
         1   3 -8.897778E-02  2.669333E-02  2.669333E-02 -8.383107E-19  1.469010E-18 -4.451067E-19
         1   4 -8.897778E-02  2.669333E-02  2.669333E-02 -2.804331E-18  1.169231E-17 -3.227024E-18
         1   5 -8.897778E-02  2.669333E-02  2.669333E-02 -7.864080E-19  6.826025E-19  3.115747E-18
         1   6 -8.897778E-02  2.669333E-02  2.669333E-02  3.145632E-18  4.614642E-18  2.225534E-19
         1   7 -8.897778E-02  2.669333E-02  2.669333E-02 -2.566835E-18 -1.201630E-18  8.902135E-19
         1   8 -8.897778E-02  2.669333E-02  2.669333E-02  1.365205E-18  9.021674E-18 -2.448087E-18
         2   1 -8.897778E-02  2.669333E-02  2.669333E-02  5.401050E-18  1.404407E-17 -8.902135E-19
         2   2 -8.897778E-02  2.669333E-02  2.669333E-02  1.719717E-17  3.427559E-18 -1.613512E-18
         2   3 -8.897778E-02  2.669333E-02  2.669333E-02  3.516818E-18 -8.902135E-19 -3.115747E-18
         2   4 -8.897778E-02  2.669333E-02  2.669333E-02  2.042459E-17  6.973866E-18 -1.891704E-18
         2   5 -8.897778E-02  2.669333E-02  2.669333E-02  3.145632E-18  1.011950E-17 -6.676601E-19
         2   6 -8.897778E-02  2.669333E-02  2.669333E-02 -1.572816E-17  7.563672E-18 -1.168405E-18
         2   7 -8.897778E-02  2.669333E-02  2.669333E-02  4.510837E-18 -4.152220E-19  3.611119E-35
         2   8 -8.897778E-02  2.669333E-02  2.669333E-02 -1.908140E-17  1.216731E-17 -1.335320E-18
         3   1 -8.897778E-02  2.669333E-02  2.669333E-02  1.528305E-17 -2.463029E-18 -6.676601E-19
         3   2 -8.897778E-02  2.669333E-02  2.669333E-02  7.418973E-18 -2.841449E-17 -7.232985E-19
         3   3 -8.897778E-02  2.669333E-02  2.669333E-02  1.350263E-17  5.846157E-18 -2.225534E-18
         3   4 -8.897778E-02  2.669333E-02  2.669333E-02  9.570586E-18  1.213742E-17 -5.563834E-19
         3   5 -8.897778E-02  2.669333E-02  2.669333E-02 -1.887379E-17  5.876042E-18 -2.225534E-18
         3   6 -8.897778E-02  2.669333E-02  2.669333E-02  6.291264E-18 -1.103173E-17 -2.670640E-18
         3   7 -8.897778E-02  2.669333E-02  2.669333E-02 -2.065422E-17  6.291264E-18 -2.670640E-18
         3   8 -8.897778E-02  2.669333E-02  2.669333E-02 -4.926059E-18  2.673787E-17 -1.335320E-18
         4   1 -8.897778E-02  2.669333E-02  2.669333E-02  1.572816E-18  2.255418E-18 -3.560854E-18
         4   2 -8.897778E-02  2.669333E-02  2.669333E-02  6.291264E-18  9.333090E-18  1.224044E-18
         4   3 -8.897778E-02  2.669333E-02  2.669333E-02  1.572816E-18  1.572816E-18  6.018531E-36
         4   4 -8.897778E-02  2.669333E-02  2.669333E-02  6.291264E-18  9.436896E-18 -6.676601E-19
         4   5 -8.897778E-02  2.669333E-02  2.669333E-02 -2.566835E-18 -8.084260E-19 -2.670640E-18
         4   6 -8.897778E-02  2.669333E-02  2.669333E-02 -1.780427E-18  5.876042E-18  2.893194E-18
         4   7 -8.897778E-02  2.669333E-02  2.669333E-02 -7.864080E-19  1.572816E-18 -3.009266E-36
         4   8 -8.897778E-02  2.669333E-02  2.669333E-02  0.000000E+00  9.436896E-18  3.115747E-18
         5   1 -8.897778E-02  2.669333E-02  2.669333E-02  1.617643E-18  1.708589E-17 -1.335320E-18
         5   2 -8.897778E-02  2.669333E-02  2.669333E-02 -3.887213E-18 -7.489356E-18  3.672131E-18
         5   3 -8.897778E-02  2.669333E-02  2.669333E-02  2.626604E-18  5.846157E-18 -8.902135E-19
         5   4 -8.897778E-02  2.669333E-02  2.669333E-02 -1.231515E-17  1.292383E-17 -1.112767E-18
         5   5 -8.897778E-02  2.669333E-02  2.669333E-02  4.749914E-19  7.790159E-18  4.451067E-19
         5   6 -8.897778E-02  2.669333E-02  2.669333E-02 -5.816272E-18 -1.265645E-17  5.897664E-18
         5   7 -8.897778E-02  2.669333E-02  2.669333E-02 -3.560854E-18  1.365205E-18  3.560854E-18
         5   8 -8.897778E-02  2.669333E-02  2.669333E-02 -8.279302E-18  7.656469E-18  4.451067E-18
         6   1 -8.897778E-02  2.669333E-02  2.669333E-02 -1.730098E-17 -4.829725E-18 -4.451067E-19
         6   2 -8.897778E-02  2.669333E-02  2.669333E-02  4.718448E-18 -1.623264E-17  2.559364E-18
         6   3 -8.897778E-02  2.669333E-02  2.669333E-02 -1.641076E-17  5.846157E-18 -8.902135E-19
         6   4 -8.897778E-02  2.669333E-02  2.669333E-02 -3.828234E-18  1.213742E-17  8.902135E-19
         6   5 -8.897778E-02  2.669333E-02  2.669333E-02 -2.065422E-17  3.828234E-18 -2.106486E-34
         6   6 -8.897778E-02  2.669333E-02  2.669333E-02 -8.071691E-18 -1.779798E-17  3.004471E-18
         6   7 -8.897778E-02  2.669333E-02  2.669333E-02 -2.730410E-18  2.730410E-18  1.780427E-18
         6   8 -8.897778E-02  2.669333E-02  2.669333E-02  4.152220E-19  1.059449E-17  4.005961E-18
         7   1 -8.897778E-02  2.669333E-02  2.669333E-02  4.451067E-19  2.333273E-18 -8.902135E-19
         7   2 -8.897778E-02  2.669333E-02  2.669333E-02 -3.486933E-18  9.214342E-18  2.225534E-19
         7   3 -8.897778E-02  2.669333E-02  2.669333E-02  2.670640E-18  3.486933E-18 -3.560854E-18
         7   4 -8.897778E-02  2.669333E-02  2.669333E-02 -1.261399E-18  1.213742E-17 -8.902135E-19
         7   5 -8.897778E-02  2.669333E-02  2.669333E-02 -1.038055E-19  1.914117E-18  5.341281E-18
         7   6 -8.897778E-02  2.669333E-02  2.669333E-02  2.255418E-18  1.056460E-17  1.780427E-18
         7   7 -8.897778E-02  2.669333E-02  2.669333E-02 -6.335300E-18  2.938021E-18  8.902135E-18
         7   8 -8.897778E-02  2.669333E-02  2.669333E-02 -3.976076E-18  1.080210E-17 -1.335320E-18
         8   1 -8.897778E-02  2.669333E-02  2.669333E-02 -1.777263E-19  1.517178E-17 -2.670640E-18
         8   2 -8.897778E-02  2.669333E-02  2.669333E-02  1.043878E-17  4.948472E-18  4.005961E-18
         8   3 -8.897778E-02  2.669333E-02  2.669333E-02  5.193439E-18  1.213742E-17  2.407412E-34
         8   4 -8.897778E-02  2.669333E-02  2.669333E-02  1.261399E-18  2.707917E-17  4.228514E-18
         8   5 -8.897778E-02  2.669333E-02  2.669333E-02  6.766255E-18  1.743467E-17 -8.902135E-19
         8   6 -8.897778E-02  2.669333E-02  2.669333E-02  9.125479E-18 -3.208544E-18  1.335320E-18
         8   7 -8.897778E-02  2.669333E-02  2.669333E-02  1.299775E-17  7.656469E-18 -3.560854E-18
         8   8 -8.897778E-02  2.669333E-02  2.669333E-02  1.378416E-17  1.394773E-17  1.157278E-17
         9   1 -8.897778E-02  2.669333E-02  2.669333E-02 -6.736371E-18  1.810312E-18 -1.335320E-18
         9   2 -8.897778E-02  2.669333E-02  2.669333E-02  4.273341E-18 -1.588387E-17 -3.338301E-19
         9   3 -8.897778E-02  2.669333E-02  2.669333E-02 -7.181477E-18  1.080210E-17 -4.451067E-19
         9   4 -8.897778E-02  2.669333E-02  2.669333E-02  7.760274E-18  1.237492E-17  4.451067E-18
         9   5 -8.897778E-02  2.669333E-02  2.669333E-02  2.670640E-18  8.814063E-18  8.902135E-19
         9   6 -8.897778E-02  2.669333E-02  2.669333E-02  1.053472E-17 -1.359856E-17 -2.670640E-18
         9   7 -8.897778E-02  2.669333E-02  2.669333E-02 -3.560854E-18  5.460820E-18  3.560854E-18
         9   8 -8.897778E-02  2.669333E-02  2.669333E-02 -5.133670E-18  3.888004E-18  1.335320E-18

 displacements (vx,vy,vz) for set NALL and time  0.7500000E+00

         1  0.000000E+00  0.000000E+00  0.000000E+00
         2 -5.000000E+01  0.000000E+00  0.000000E+00
         3 -1.000000E+02  0.000000E+00  0.000000E+00
         4 -1.500000E+02  0.000000E+00  0.000000E+00
         5  0.000000E+00  1.405253E+01  0.000000E+00
         6 -5.000000E+01  1.405253E+01  0.000000E+00
         7 -1.000000E+02  1.405253E+01  0.000000E+00
         8 -1.500000E+02  1.405253E+01  0.000000E+00
         9  0.000000E+00  2.810505E+01  0.000000E+00
        10 -5.000000E+01  2.810505E+01  0.000000E+00
        11 -1.000000E+02  2.810505E+01  0.000000E+00
        12 -1.500000E+02  2.810505E+01  0.000000E+00
        13  0.000000E+00  4.215758E+01  0.000000E+00
        14 -5.000000E+01  4.215758E+01  0.000000E+00
        15 -1.000000E+02  4.215758E+01  0.000000E+00
        16 -1.500000E+02  4.215758E+01  0.000000E+00
        17  0.000000E+00  0.000000E+00  1.967354E+01
        18 -5.000000E+01  0.000000E+00  1.967354E+01
        19 -1.000000E+02  0.000000E+00  1.967354E+01
        20 -1.500000E+02  0.000000E+00  1.967354E+01
        21  0.000000E+00  1.405253E+01  1.967354E+01
        22 -5.000000E+01  1.405253E+01  1.967354E+01
        23 -1.000000E+02  1.405253E+01  1.967354E+01
        24 -1.500000E+02  1.405253E+01  1.967354E+01
        25  0.000000E+00  2.810505E+01  1.967354E+01
        26 -5.000000E+01  2.810505E+01  1.967354E+01
        27 -1.000000E+02  2.810505E+01  1.967354E+01
        28 -1.500000E+02  2.810505E+01  1.967354E+01
        29  0.000000E+00  4.215758E+01  1.967354E+01
        30 -5.000000E+01  4.215758E+01  1.967354E+01
        31 -1.000000E+02  4.215758E+01  1.967354E+01
        32 -1.500000E+02  4.215758E+01  1.967354E+01

 stresses (elem, integ.pnt.,sxx,syy,szz,sxy,sxz,syz) for set EALL and time  0.7500000E+00

         1   1 -1.698675E+04 -1.010550E-12 -1.010550E-12 -1.034527E-13 -1.379369E-13  1.200418E-13
         1   2 -1.698675E+04  3.031649E-12  2.021099E-12 -9.007028E-13 -9.965139E-13 -8.002786E-14
         1   3 -1.698675E+04  1.010550E-12  1.010550E-12 -7.660998E-14 -1.226539E-13  4.001393E-13
         1   4 -1.698675E+04  3.031649E-12  3.031649E-12 -8.738601E-13  2.886130E-30 -2.400836E-13
         1   5 -1.698675E+04 -1.010550E-12 -1.010550E-12 -3.526785E-13 -3.056610E-14  3.601254E-13
         1   6 -1.698675E+04 -1.010550E-12 -5.792569E-30 -1.073708E-13 -8.891431E-13  1.600557E-13
         1   7 -1.698675E+04  8.120356E-30 -1.010550E-12 -4.600493E-13 -1.226539E-13  6.402229E-13
         1   8 -1.698675E+04 -1.010550E-12 -1.010550E-12  2.758738E-13  1.241724E-30 -1.080249E-30
         2   1 -1.698675E+04 -2.021099E-12 -2.021099E-12  8.738601E-13 -3.545402E-13 -1.200418E-13
         2   2 -1.698675E+04 -1.010550E-12 -1.018462E-30  7.512062E-13 -2.378329E-12  6.002089E-14
         2   3 -1.698675E+04 -2.021099E-12 -2.021099E-12  2.758738E-13 -9.275455E-13 -2.400836E-13
         2   4 -1.698675E+04  1.010550E-12  1.010550E-12  9.189303E-14  7.896086E-13  2.000696E-14
         2   5 -1.698675E+04  1.010550E-12  1.010550E-12 -1.476622E-30 -4.369300E-13  2.800975E-13
         2   6 -1.698675E+04 -2.616228E-31  5.358730E-30  7.359232E-13 -1.571478E-12  6.202159E-13
         2   7 -1.698675E+04  4.042199E-12  3.031649E-12 -2.147416E-13 -1.042363E-12 -3.201114E-13
         2   8 -1.698675E+04  3.031649E-12  3.031649E-12  2.758738E-13  4.294832E-13  7.602646E-13
         3   1 -1.698675E+04 -3.031649E-12 -3.031649E-12  5.040368E-13  1.476349E-13  8.002786E-14
         3   2 -1.698675E+04 -2.021099E-12  1.010550E-12  1.342135E-14 -9.767285E-14 -1.200418E-13
         3   3 -1.698675E+04 -3.031649E-12 -2.021099E-12  5.443008E-13  1.962462E-12  8.002786E-14
         3   4 -1.698675E+04  1.200039E-30 -1.010550E-12  6.669547E-13  1.471846E-12 -4.001393E-14
         3   5 -1.698675E+04  1.010550E-12  1.010550E-12  1.034916E-12  3.452317E-13  3.601254E-13
         3   6 -1.698675E+04  2.021099E-12  2.021099E-12  5.368541E-14 -1.433249E-12 -9.803413E-13
         3   7 -1.698675E+04 -1.010550E-12 -1.010550E-12  9.812309E-13  7.664893E-13  4.801671E-13
         3   8 -1.698675E+04 -2.329287E-30 -1.010550E-12  4.906154E-13 -4.600493E-13 -9.203204E-13
         4   1 -1.698675E+04 -3.031649E-12 -2.021099E-12  1.686977E-13  3.066346E-14 -2.400836E-13
         4   2 -1.698675E+04  2.021099E-12  1.010550E-12  1.073708E-13  2.453077E-13  2.400836E-13
         4   3 -1.698675E+04 -1.010550E-12 -1.010550E-12  6.132693E-14  1.226539E-13  1.350311E-31
         4   4 -1.698675E+04  2.021099E-12  1.010550E-12 -4.050934E-31  4.906154E-13 -6.002089E-14
         4   5 -1.698675E+04 -2.021099E-12 -2.021099E-12 -1.788811E-31  9.199039E-14 -8.002786E-14
         4   6 -1.698675E+04  3.797751E-31 -1.687889E-31  4.906154E-13  2.612476E-31  1.000348E-13
         4   7 -1.698675E+04  1.010550E-12  1.010550E-12  0.000000E+00  1.226539E-13  0.000000E+00
         4   8 -1.698675E+04  0.000000E+00  1.010550E-12  9.812309E-13  4.906154E-13 -8.002786E-14
         5   1 -1.698675E+04  1.010550E-12  1.010550E-12  2.758738E-13  6.803761E-13 -8.002786E-14
         5   2 -1.698675E+04  4.042199E-12  5.052748E-12  6.438354E-13 -1.782010E-13  5.001741E-13
         5   3 -1.698675E+04 -1.010550E-12 -8.263927E-31  1.226539E-12 -4.369300E-13 -9.620433E-30
         5   4 -1.698675E+04  2.021099E-12  2.021099E-12  1.778481E-12  1.770839E-12  2.600905E-13
         5   5 -1.698675E+04  1.010550E-12  1.010550E-12  2.758738E-13  9.737841E-13 -2.400836E-13
         5   6 -1.698675E+04  1.010550E-12  2.021099E-12 -3.403742E-12 -1.325976E-12  1.260439E-12
         5   7 -1.698675E+04 -2.021099E-12 -3.031649E-12  4.906154E-13 -1.042363E-12 -9.180403E-30
         5   8 -1.698675E+04 -2.021099E-12 -3.031649E-12 -3.434308E-12 -5.517476E-13  5.601950E-13
         6   1 -1.698675E+04  5.580813E-30  1.010550E-12  6.785144E-13  1.159432E-12  1.600557E-13
         6   2 -1.698675E+04 -1.010550E-12  1.010550E-12 -5.740880E-14 -3.501415E-12  8.002786E-13
         6   3 -1.698675E+04  2.021099E-12  1.010550E-12  1.027469E-12  9.275455E-13 -8.002786E-14
         6   4 -1.698675E+04  3.031649E-12  1.010550E-12  4.142002E-13  1.172853E-12  1.800627E-13
         6   5 -1.698675E+04  1.010550E-12  3.031649E-12 -2.836322E-12 -9.737841E-13  1.600557E-13
         6   6 -1.698675E+04  2.021099E-12  1.010550E-12 -3.832446E-13 -3.978804E-12  1.000348E-12
         6   7 -1.698675E+04  3.031649E-12  1.010550E-12 -2.943693E-12 -4.294832E-13  3.201114E-13
         6   8 -1.698675E+04  1.010550E-12  1.010550E-12 -1.962462E-12 -1.165406E-12  2.400836E-13
         7   1 -1.698675E+04  1.010550E-12  2.021099E-12 -2.453077E-13  2.184650E-13  5.601950E-13
         7   2 -1.698675E+04  1.010550E-12  1.010550E-12 -9.812309E-13  8.317343E-13 -1.465066E-29
         7   3 -1.698675E+04  3.031649E-12  3.031649E-12 -2.453077E-13  1.916223E-13 -1.040362E-12
         7   4 -1.698675E+04  3.031649E-12  3.031649E-12 -9.812309E-13  9.275455E-13  4.001393E-13
         7   5 -1.698675E+04  3.031649E-12  3.031649E-12 -2.453077E-13  1.302954E-13  6.402229E-13
         7   6 -1.698675E+04  1.010550E-12  1.010550E-12 -4.906154E-13  5.595839E-13 -2.400836E-13
         7   7 -1.698675E+04  7.073848E-12  5.052748E-12 -2.453077E-13 -1.841755E-13  3.201114E-13
         7   8 -1.698675E+04  3.031649E-12  3.031649E-12 -4.906154E-13  6.113219E-14  4.001393E-13
         8   1 -1.698675E+04  1.010550E-12  1.010550E-12 -2.453077E-13  2.288298E-12 -4.001393E-13
         8   2 -1.698675E+04  1.010550E-12  1.010550E-12 -1.226539E-13 -1.054020E-12 -3.601254E-13
         8   3 -1.698675E+04  5.052748E-12  3.031649E-12  2.453077E-13  5.979862E-13 -5.601950E-13
         8   4 -1.698675E+04  3.031649E-12  4.042199E-12  3.066346E-13  5.749448E-12  9.203204E-13
         8   5 -1.698675E+04 -3.031649E-12 -3.031649E-12  9.812309E-13  2.376662E-12  3.201114E-13
         8   6 -1.698675E+04 -1.010550E-12  1.010550E-12  1.717154E-12  3.222098E-13  6.402229E-13
         8   7 -1.698675E+04  7.073848E-12  6.063298E-12  4.906154E-13  7.053571E-13 -3.201114E-13
         8   8 -1.698675E+04  5.052748E-12  7.073848E-12  1.471846E-12  3.894357E-12  1.600557E-12
         9   1 -1.698675E+04 -1.010550E-12  3.471453E-30  1.878989E-13 -4.197853E-13  4.001393E-13
         9   2 -1.698675E+04 -1.010550E-12 -2.021099E-12  1.878989E-13 -2.259593E-12 -9.603343E-13
         9   3 -1.698675E+04  5.052748E-12  5.052748E-12  3.221124E-13  2.514209E-12 -5.601950E-13
         9   4 -1.698675E+04  3.031649E-12  1.010550E-12  4.447663E-13  1.287671E-12  3.001045E-13
         9   5 -1.698675E+04  1.010550E-12  1.010550E-12 -7.664893E-13  3.138867E-13 -1.600557E-13
         9   6 -1.698675E+04 -3.031649E-12 -2.021099E-12  7.053571E-13 -2.568479E-12 -1.000348E-12
         9   7 -1.698675E+04 -5.052748E-12 -4.042199E-12  3.072189E-13  2.206991E-12 -3.968030E-29
         9   8 -1.698675E+04 -5.052748E-12 -7.073848E-12  1.779065E-12  3.433529E-12 -1.600557E-13

 strains (elem, integ.pnt.,exx,eyy,ezz,exy,exz,eyz) forset EALL and time  0.7500000E+00

         1   1 -9.500000E-02  2.850000E-02  2.850000E-02 -5.021341E-19 -6.695121E-19  6.688042E-19
         1   2 -9.500000E-02  2.850000E-02  2.850000E-02 -5.576200E-18 -6.133891E-18 -4.458695E-19
         1   3 -9.500000E-02  2.850000E-02  2.850000E-02 -2.791994E-19 -7.806256E-19  2.229347E-18
         1   4 -9.500000E-02  2.850000E-02  2.850000E-02 -5.353266E-18 -2.256949E-36 -1.337608E-18
         1   5 -9.500000E-02  2.850000E-02  2.850000E-02 -2.452990E-18  2.222268E-19  2.006413E-18
         1   6 -9.500000E-02  2.850000E-02  2.850000E-02 -8.917390E-19 -5.242152E-18  8.917390E-19
         1   7 -9.500000E-02  2.850000E-02  2.850000E-02 -3.344729E-18 -7.806256E-19  3.566956E-18
         1   8 -9.500000E-02  2.850000E-02  2.850000E-02  1.339024E-18  4.513898E-36 -6.018531E-36
         2   1 -9.500000E-02  2.850000E-02  2.850000E-02  5.353266E-18 -2.230409E-18 -6.688042E-19
         2   2 -9.500000E-02  2.850000E-02  2.850000E-02  4.572640E-18 -1.511073E-17  3.344021E-19
         2   3 -9.500000E-02  2.850000E-02  2.850000E-02  1.339024E-18 -5.799135E-18 -1.337608E-18
         2   4 -9.500000E-02  2.850000E-02  2.850000E-02  1.680859E-19  5.129623E-18  1.114674E-19
         2   5 -9.500000E-02  2.850000E-02  2.850000E-02  1.504633E-36 -2.676633E-18  1.560543E-18
         2   6 -9.500000E-02  2.850000E-02  2.850000E-02  4.683753E-18 -9.897419E-18  3.455489E-18
         2   7 -9.500000E-02  2.850000E-02  2.850000E-02 -1.783478E-18 -5.800551E-18 -1.783478E-18
         2   8 -9.500000E-02  2.850000E-02  2.850000E-02  1.339024E-18  3.566956E-18  4.235760E-18
         3   1 -9.500000E-02  2.850000E-02  2.850000E-02  3.233970E-18  1.226141E-18  4.458695E-19
         3   2 -9.500000E-02  2.850000E-02  2.850000E-02  1.114674E-19 -3.351100E-19 -6.688042E-19
         3   3 -9.500000E-02  2.850000E-02  2.850000E-02  3.568372E-18  1.249001E-17  4.458695E-19
         3   4 -9.500000E-02  2.850000E-02  2.850000E-02  4.348997E-18  9.367507E-18 -2.229347E-19
         3   5 -9.500000E-02  2.850000E-02  2.850000E-02  6.690874E-18  3.343313E-18  2.006413E-18
         3   6 -9.500000E-02  2.850000E-02  2.850000E-02  4.458695E-19 -7.975757E-18 -5.461901E-18
         3   7 -9.500000E-02  2.850000E-02  2.850000E-02  6.245005E-18  4.461527E-18  2.675217E-18
         3   8 -9.500000E-02  2.850000E-02  2.850000E-02  3.122502E-18 -3.344729E-18 -5.127499E-18
         4   1 -9.500000E-02  2.850000E-02  2.850000E-02  1.282052E-18  1.951564E-19 -1.337608E-18
         4   2 -9.500000E-02  2.850000E-02  2.850000E-02  8.917390E-19  1.561251E-18  1.337608E-18
         4   3 -9.500000E-02  2.850000E-02  2.850000E-02  3.903128E-19  7.806256E-19  7.523164E-37
         4   4 -9.500000E-02  2.850000E-02  2.850000E-02  0.000000E+00  3.122502E-18 -3.344021E-19
         4   5 -9.500000E-02  2.850000E-02  2.850000E-02  0.000000E+00  5.854692E-19 -4.458695E-19
         4   6 -9.500000E-02  2.850000E-02  2.850000E-02  3.122502E-18  0.000000E+00  5.573369E-19
         4   7 -9.500000E-02  2.850000E-02  2.850000E-02  0.000000E+00  7.806256E-19  0.000000E+00
         4   8 -9.500000E-02  2.850000E-02  2.850000E-02  6.245005E-18  3.122502E-18 -4.458695E-19
         5   1 -9.500000E-02  2.850000E-02  2.850000E-02  1.339024E-18  4.460465E-18 -4.458695E-19
         5   2 -9.500000E-02  2.850000E-02  2.850000E-02  3.680901E-18 -1.003914E-18  2.786684E-18
         5   3 -9.500000E-02  2.850000E-02  2.850000E-02  7.806256E-18 -2.676633E-18 -6.018531E-35
         5   4 -9.500000E-02  2.850000E-02  2.850000E-02  1.131907E-17  1.137463E-17  1.449076E-18
         5   5 -9.500000E-02  2.850000E-02  2.850000E-02  1.339024E-18  7.135328E-18 -1.337608E-18
         5   6 -9.500000E-02  2.850000E-02  2.850000E-02 -2.207974E-17 -7.501402E-18  7.022445E-18
         5   7 -9.500000E-02  2.850000E-02  2.850000E-02  3.122502E-18 -5.800551E-18 -7.222237E-35
         5   8 -9.500000E-02  2.850000E-02  2.850000E-02 -2.185752E-17 -2.678049E-18  3.121086E-18
         6   1 -9.500000E-02  2.850000E-02  2.850000E-02  4.683045E-18  7.248919E-18  8.917390E-19
         6   2 -9.500000E-02  2.850000E-02  2.850000E-02 -7.079036E-22 -2.241485E-17  4.458695E-18
         6   3 -9.500000E-02  2.850000E-02  2.850000E-02  7.581197E-18  5.799135E-18 -4.458695E-19
         6   4 -9.500000E-02  2.850000E-02  2.850000E-02  3.678069E-18  7.360386E-18  1.003206E-18
         6   5 -9.500000E-02  2.850000E-02  2.850000E-02 -1.784327E-17 -7.135328E-18  8.917390E-19
         6   6 -9.500000E-02  2.850000E-02  2.850000E-02 -2.230763E-18 -2.626065E-17  5.573369E-18
         6   7 -9.500000E-02  2.850000E-02  2.850000E-02 -1.873501E-17 -3.566956E-18  1.783478E-18
         6   8 -9.500000E-02  2.850000E-02  2.850000E-02 -1.249001E-17 -8.250709E-18  1.337608E-18
         7   1 -9.500000E-02  2.850000E-02  2.850000E-02 -1.561251E-18  1.338316E-18  3.121086E-18
         7   2 -9.500000E-02  2.850000E-02  2.850000E-02 -6.245005E-18  5.241444E-18 -8.425944E-35
         7   3 -9.500000E-02  2.850000E-02  2.850000E-02 -1.561251E-18  1.115382E-18 -5.796303E-18
         7   4 -9.500000E-02  2.850000E-02  2.850000E-02 -6.245005E-18  5.799135E-18  2.229347E-18
         7   5 -9.500000E-02  2.850000E-02  2.850000E-02 -1.561251E-18  7.250689E-19  3.566956E-18
         7   6 -9.500000E-02  2.850000E-02  2.850000E-02 -3.122502E-18  3.457258E-18 -1.337608E-18
         7   7 -9.500000E-02  2.850000E-02  2.850000E-02 -1.561251E-18 -2.005705E-18  1.783478E-18
         7   8 -9.500000E-02  2.850000E-02  2.850000E-02 -3.122502E-18 -4.444537E-19  2.229347E-18
         8   1 -9.500000E-02  2.850000E-02  2.850000E-02 -1.561251E-18  1.472006E-17 -2.229347E-18
         8   2 -9.500000E-02  2.850000E-02  2.850000E-02 -7.806256E-19 -6.551982E-18 -2.006413E-18
         8   3 -9.500000E-02  2.850000E-02  2.850000E-02  1.561251E-18  4.014241E-18 -3.121086E-18
         8   4 -9.500000E-02  2.850000E-02  2.850000E-02  1.951564E-18  3.680051E-17  5.127499E-18
         8   5 -9.500000E-02  2.850000E-02  2.850000E-02  6.245005E-18  1.616808E-17  1.783478E-18
         8   6 -9.500000E-02  2.850000E-02  2.850000E-02  1.092876E-17  3.092600E-18  3.566956E-18
         8   7 -9.500000E-02  2.850000E-02  2.850000E-02  3.122502E-18  4.905980E-18 -1.783478E-18
         8   8 -9.500000E-02  2.850000E-02  2.850000E-02  9.367507E-18  2.520224E-17  8.917390E-18
         9   1 -9.500000E-02  2.850000E-02  2.850000E-02  1.560543E-18 -3.010327E-18  2.229347E-18
         9   2 -9.500000E-02  2.850000E-02  2.850000E-02  1.560543E-18 -1.471971E-17 -5.350434E-18
         9   3 -9.500000E-02  2.850000E-02  2.850000E-02  2.675217E-18  1.516806E-17 -3.121086E-18
         9   4 -9.500000E-02  2.850000E-02  2.850000E-02  3.455843E-18  7.361802E-18  1.672011E-18
         9   5 -9.500000E-02  2.850000E-02  2.850000E-02 -4.461527E-18  2.264743E-19 -8.917390E-19
         9   6 -9.500000E-02  2.850000E-02  2.850000E-02  4.905980E-18 -1.811823E-17 -5.573369E-18
         9   7 -9.500000E-02  2.850000E-02  2.850000E-02  4.455863E-18  1.071219E-17 -3.851860E-34
         9   8 -9.500000E-02  2.850000E-02  2.850000E-02  1.382337E-17  1.851845E-17 -8.917390E-19

 displacements (vx,vy,vz) for set NALL and time  0.8000000E+00

         1  0.000000E+00  0.000000E+00  0.000000E+00
         2 -5.333333E+01  0.000000E+00  0.000000E+00
         3 -1.066667E+02  0.000000E+00  0.000000E+00
         4 -1.600000E+02  0.000000E+00  0.000000E+00
         5  0.000000E+00  1.492394E+01  0.000000E+00
         6 -5.333333E+01  1.492394E+01  0.000000E+00
         7 -1.066667E+02  1.492394E+01  0.000000E+00
         8 -1.600000E+02  1.492394E+01  0.000000E+00
         9  0.000000E+00  2.984789E+01  0.000000E+00
        10 -5.333333E+01  2.984789E+01  0.000000E+00
        11 -1.066667E+02  2.984789E+01  0.000000E+00
        12 -1.600000E+02  2.984789E+01  0.000000E+00
        13  0.000000E+00  4.477183E+01  0.000000E+00
        14 -5.333333E+01  4.477183E+01  0.000000E+00
        15 -1.066667E+02  4.477183E+01  0.000000E+00
        16 -1.600000E+02  4.477183E+01  0.000000E+00
        17  0.000000E+00  0.000000E+00  2.089352E+01
        18 -5.333333E+01  0.000000E+00  2.089352E+01
        19 -1.066667E+02  0.000000E+00  2.089352E+01
        20 -1.600000E+02  0.000000E+00  2.089352E+01
        21  0.000000E+00  1.492394E+01  2.089352E+01
        22 -5.333333E+01  1.492394E+01  2.089352E+01
        23 -1.066667E+02  1.492394E+01  2.089352E+01
        24 -1.600000E+02  1.492394E+01  2.089352E+01
        25  0.000000E+00  2.984789E+01  2.089352E+01
        26 -5.333333E+01  2.984789E+01  2.089352E+01
        27 -1.066667E+02  2.984789E+01  2.089352E+01
        28 -1.600000E+02  2.984789E+01  2.089352E+01
        29  0.000000E+00  4.477183E+01  2.089352E+01
        30 -5.333333E+01  4.477183E+01  2.089352E+01
        31 -1.066667E+02  4.477183E+01  2.089352E+01
        32 -1.600000E+02  4.477183E+01  2.089352E+01

 stresses (elem, integ.pnt.,sxx,syy,szz,sxy,sxz,syz) for set EALL and time  0.8000000E+00

         1   1 -1.786128E+04 -2.036182E-12  2.051856E-31  2.796817E-13 -2.745235E-14 -6.005486E-31
         1   2 -1.786128E+04  2.775836E-30 -5.733799E-31  4.012210E-13  1.244717E-13 -9.085697E-14
         1   3 -1.786128E+04  1.006111E-29 -4.672424E-31  5.432524E-13  1.376503E-13 -1.615235E-13
         1   4 -1.786128E+04  2.036182E-12  2.036182E-12  6.647917E-13  3.807288E-13 -2.624757E-13
         1   5 -1.786128E+04 -2.036182E-12  1.784386E-29  5.271414E-14 -5.941294E-13 -1.461109E-30
         1   6 -1.786128E+04 -2.036182E-12  1.737563E-29  1.025028E-12 -4.422053E-13  3.331422E-13
         1   7 -1.786128E+04 -2.036182E-12  1.912338E-32  2.108566E-13  3.222200E-14 -9.631698E-31
         1   8 -1.786128E+04 -2.036182E-12 -2.036182E-12  1.183171E-12  2.753006E-13  1.615235E-13
         2   1 -1.786128E+04 -9.581497E-30  1.671310E-30  1.530229E-12  7.819498E-13  4.038088E-14
         2   2 -1.786128E+04 -4.819850E-30  3.208094E-30  8.009933E-13  1.663110E-12 -3.028566E-14
         2   3 -1.786128E+04  2.036182E-12  2.036182E-12  1.172986E-14  3.700651E-31 -2.422853E-13
         2   4 -1.786128E+04 -3.074446E-29 -1.700486E-31  1.895589E-12  4.496953E-12 -2.019044E-13
         2   5 -1.786128E+04 -3.707498E-30  9.203961E-30  8.668860E-13  9.400922E-13  2.422853E-13
         2   6 -1.786128E+04  6.475080E-30  2.036182E-12 -1.806978E-12 -1.034921E-12  4.139040E-13
         2   7 -1.786128E+04 -2.094816E-29 -2.036182E-12  1.522915E-12  3.142048E-30 -1.615235E-13
         2   8 -1.786128E+04 -2.036182E-12 -2.036182E-12 -2.366342E-12  8.507750E-13  5.249514E-13
         3   1 -1.786128E+04 -2.036182E-12 -4.591470E-30  5.520498E-13  8.141718E-13 -4.038088E-14
         3   2 -1.786128E+04 -2.036182E-12 -2.036182E-12  6.735891E-13 -3.622012E-12 -2.119996E-13
         3   3 -1.786128E+04  1.607403E-30  2.036182E-12  5.388713E-13  2.653372E-12 -1.615235E-13
         3   4 -1.786128E+04  2.198460E-30 -2.036182E-12  7.819498E-13  4.598001E-12 -2.624757E-13
         3   5 -1.786128E+04 -3.520946E-30  8.338206E-29 -1.891914E-12 -2.544976E-12 -8.076176E-14
         3   6 -1.786128E+04 -2.036182E-12 -2.036182E-12  1.025028E-12 -7.218870E-13 -2.624757E-13
         3   7 -1.786128E+04 -2.036182E-12 -2.036182E-12 -1.733772E-12  1.862660E-12 -3.230470E-13
         3   8 -1.786128E+04 -2.036182E-12 -4.072364E-12 -2.753006E-13  3.807288E-12 -2.422853E-13
         4   1 -1.786128E+04 -4.072364E-12 -2.036182E-12  4.480702E-13  2.815189E-13  1.745177E-30
         4   2 -1.786128E+04 -2.036182E-12 -1.615848E-30  4.480702E-13  9.196001E-13  4.038088E-14
         4   3 -1.786128E+04 -2.036182E-12 -3.528222E-31 -1.671205E-30  1.903644E-13 -3.230470E-13
         4   4 -1.786128E+04  2.036182E-12  2.036182E-12 -1.380484E-30  9.196001E-13  2.019044E-14
         4   5 -1.786128E+04  1.499100E-30  4.715314E-31  2.108566E-13  1.841461E-13  2.422853E-13
         4   6 -1.786128E+04  2.036182E-12  2.036182E-12  2.108566E-13  5.183791E-13 -1.211426E-13
         4   7 -1.786128E+04 -4.072364E-12 -3.155344E-47  1.786346E-13  2.430786E-13 -9.654644E-30
         4   8 -1.786128E+04 -2.036182E-12 -3.944180E-48  4.217131E-13  9.723142E-13  4.666687E-30
         5   1 -1.786128E+04 -2.036182E-12 -3.618572E-30  1.364773E-12  2.890586E-12 -4.845705E-13
         5   2 -1.786128E+04  2.036182E-12  6.829449E-31  2.823244E-12 -2.086660E-13  5.653323E-13
         5   3 -1.786128E+04  0.000000E+00  4.072364E-12  1.215393E-12 -1.563900E-12  1.615235E-13
         5   4 -1.786128E+04  2.036182E-12  2.036182E-12  8.507750E-13  3.297672E-12  1.615235E-13
         5   5 -1.786128E+04 -2.036182E-12 -2.036182E-12 -4.217131E-13  1.596122E-12  8.076176E-14
         5   6 -1.786128E+04  1.150486E-29  2.092503E-29 -1.786346E-13 -1.867748E-12  1.009522E-12
         5   7 -1.786128E+04 -2.036182E-12 -4.072364E-12  9.723142E-13 -2.108566E-13 -3.230470E-13
         5   8 -1.786128E+04 -2.036182E-12 -4.072364E-12  6.416393E-30  5.183791E-13  8.076176E-13
         6   1 -1.786128E+04  4.888786E-30 -1.258852E-29 -4.334430E-13  1.437979E-12 -5.653323E-13
         6   2 -1.786128E+04 -2.036182E-12 -2.036182E-12  5.271414E-14 -3.058974E-12  5.451418E-13
         6   3 -1.786128E+04  2.036182E-12  2.036182E-12 -8.024420E-13  2.653372E-12 -8.076176E-14
         6   4 -1.786128E+04 -2.036182E-12 -2.036182E-12  6.560294E-13  4.354922E-12  4.441897E-13
         6   5 -1.786128E+04  2.036182E-12  1.043232E-28 -1.628344E-12 -2.512754E-12 -1.615235E-13
         6   6 -1.786128E+04 -2.036182E-12 -2.036182E-12  8.024420E-13 -2.451985E-12  5.653323E-13
         6   7 -1.786128E+04  2.176621E-30 -2.784331E-29 -1.944628E-12  8.903457E-13 -3.230470E-13
         6   8 -1.786128E+04 -2.036182E-12 -4.072364E-12  9.723142E-13  3.564210E-12  6.460940E-13
         7   1 -1.786128E+04 -2.036182E-12 -4.081165E-31 -1.376503E-13  2.734634E-13 -2.422853E-13
         7   2 -1.786128E+04  1.238843E-29 -1.836524E-30 -1.376503E-13  1.093854E-12 -7.268558E-13
         7   3 -1.786128E+04 -2.036182E-12 -9.522719E-31  3.894911E-13  3.646178E-13 -5.653323E-13
         7   4 -1.786128E+04  1.517372E-29 -9.182622E-31  3.894911E-13  1.458471E-12 -3.634279E-13
         7   5 -1.786128E+04  1.064197E-29  2.036182E-12  4.098427E-14  3.342330E-13 -4.845705E-13
         7   6 -1.786128E+04  1.028764E-29  2.036182E-12  5.271414E-13  7.292357E-13  1.615235E-13
         7   7 -1.786128E+04  4.429736E-30  2.036182E-12 -6.444400E-14  3.646178E-13 -3.230470E-13
         7   8 -1.786128E+04 -2.036182E-12  8.706486E-30 -5.506011E-13  9.723142E-13  6.460940E-13
         8   1 -1.786128E+04  4.072364E-12  4.072364E-12 -1.045521E-12  2.637261E-12  1.615235E-13
         8   2 -1.786128E+04  1.766687E-30  6.450339E-30  1.091026E-13 -1.251996E-12  2.624757E-13
         8   3 -1.786128E+04  4.072364E-12  4.072364E-12 -7.789822E-13  1.194901E-12 -8.981938E-30
         8   4 -1.786128E+04 -2.036182E-12 -2.036182E-12 -9.612912E-13  3.990304E-12  9.287602E-13
         8   5 -1.786128E+04 -2.036182E-12 -3.390918E-29 -3.818257E-29  2.252151E-12 -6.460940E-13
         8   6 -1.786128E+04 -2.036182E-12 -2.036182E-12 -1.271176E-29 -1.576336E-12  4.038088E-13
         8   7 -1.786128E+04  4.072364E-12  4.072364E-12 -1.394027E-12 -1.464126E-13 -3.230470E-13
         8   8 -1.786128E+04  2.036182E-12  2.036182E-12 -4.217131E-13  3.621305E-12  9.691411E-13
         9   1 -1.786128E+04 -4.072364E-12 -2.036182E-12 -3.180513E-12  4.138200E-12  4.845705E-13
         9   2 -1.786128E+04 -4.072364E-12 -4.072364E-12 -1.420314E-13 -3.640313E-12  4.845705E-13
         9   3 -1.786128E+04 -6.108547E-12 -4.072364E-12 -2.600658E-12  3.731115E-12 -1.799477E-28
         9   4 -1.786128E+04 -2.036182E-12 -2.036182E-12  5.593634E-13  1.057250E-12  1.049903E-12
         9   5 -1.786128E+04 -4.072364E-12 -4.072364E-12 -2.050057E-12 -1.669047E-13 -4.845705E-13
         9   6 -1.786128E+04 -6.108547E-12 -4.072364E-12  1.353043E-12  7.617387E-14  7.268558E-13
         9   7 -1.786128E+04 -2.036182E-12 -2.036182E-12 -2.366342E-12  5.201316E-12 -3.230470E-13
         9   8 -1.786128E+04 -4.072364E-12 -4.072364E-12 -9.078702E-13  1.798216E-12  3.230470E-13

 strains (elem, integ.pnt.,exx,eyy,ezz,exy,exz,eyz) forset EALL and time  0.8000000E+00

         1   1 -1.009778E-01  3.029333E-02  3.029333E-02  2.114719E-18 -4.237746E-19  1.128475E-36
         1   2 -1.009778E-01  3.029333E-02  3.029333E-02  2.889562E-18  5.447793E-19 -5.024535E-19
         1   3 -1.009778E-01  3.029333E-02  3.029333E-02  4.347846E-18  6.564357E-19 -8.932507E-19
         1   4 -1.009778E-01  3.029333E-02  3.029333E-02  5.122689E-18  2.206122E-18 -1.451532E-18
         1   5 -1.009778E-01  3.029333E-02  3.029333E-02  4.466253E-19 -5.224997E-18  0.000000E+00
         1   6 -1.009778E-01  3.029333E-02  3.029333E-02  6.645371E-18 -4.256443E-18  1.842329E-18
         1   7 -1.009778E-01  3.029333E-02  3.029333E-02  1.786501E-18 -2.368150E-19  0.000000E+00
         1   8 -1.009778E-01  3.029333E-02  3.029333E-02  7.985247E-18  1.312871E-18  8.932507E-19
         2   1 -1.009778E-01  3.029333E-02  3.029333E-02  9.396272E-18  5.095684E-18  2.233127E-19
         2   2 -1.009778E-01  3.029333E-02  3.029333E-02  4.747213E-18  1.071330E-17 -1.674845E-19
         2   3 -1.009778E-01  3.029333E-02  3.029333E-02 -9.202553E-19  1.354169E-35 -1.339876E-18
         2   4 -1.009778E-01  3.029333E-02  3.029333E-02  1.108981E-17  2.866920E-17 -1.116563E-18
         2   5 -1.009778E-01  3.029333E-02  3.029333E-02  5.305495E-18  6.435560E-18  1.339876E-18
         2   6 -1.009778E-01  3.029333E-02  3.029333E-02 -1.174105E-17 -6.155641E-18  2.288955E-18
         2   7 -1.009778E-01  3.029333E-02  3.029333E-02  8.824488E-18  1.805559E-35 -8.932507E-19
         2   8 -1.009778E-01  3.029333E-02  3.029333E-02 -1.597049E-17  5.423902E-18  2.903065E-18
         3   1 -1.009778E-01  3.029333E-02  3.029333E-02  3.657654E-18  4.858869E-18 -2.233127E-19
         3   2 -1.009778E-01  3.029333E-02  3.029333E-02  4.432497E-18 -2.342291E-17 -1.172391E-18
         3   3 -1.009778E-01  3.029333E-02  3.029333E-02  3.545998E-18  1.636311E-17 -8.932507E-19
         3   4 -1.009778E-01  3.029333E-02  3.029333E-02  5.095684E-18  2.876060E-17 -1.451532E-18
         3   5 -1.009778E-01  3.029333E-02  3.029333E-02 -1.195087E-17 -1.799381E-17 -4.466253E-19
         3   6 -1.009778E-01  3.029333E-02  3.029333E-02  6.645371E-18 -6.371162E-18 -1.451532E-18
         3   7 -1.009778E-01  3.029333E-02  3.029333E-02 -1.061099E-17  9.663729E-18 -1.786501E-18
         3   8 -1.009778E-01  3.029333E-02  3.029333E-02 -1.312871E-18  2.206122E-17 -1.339876E-18
         4   1 -1.009778E-01  3.029333E-02  3.029333E-02  3.796315E-18  1.684193E-18  0.000000E+00
         4   2 -1.009778E-01  3.029333E-02  3.029333E-02  3.796315E-18  5.752120E-18  2.233127E-19
         4   3 -1.009778E-01  3.029333E-02  3.029333E-02  0.000000E+00  1.103061E-18 -1.786501E-18
         4   4 -1.009778E-01  3.029333E-02  3.029333E-02 -8.463559E-37  5.752120E-18  1.116563E-19
         4   5 -1.009778E-01  3.029333E-02  3.029333E-02  1.786501E-18  7.317389E-19  1.339876E-18
         4   6 -1.009778E-01  3.029333E-02  3.029333E-02  1.786501E-18  2.862558E-18 -6.699380E-19
         4   7 -1.009778E-01  3.029333E-02  3.029333E-02  2.023316E-18  1.549686E-18  1.203706E-35
         4   8 -1.009778E-01  3.029333E-02  3.029333E-02  3.573003E-18  6.198745E-18  3.009266E-36
         5   1 -1.009778E-01  3.029333E-02  3.029333E-02  7.484612E-18  1.837292E-17 -2.679752E-18
         5   2 -1.009778E-01  3.029333E-02  3.029333E-02  1.678273E-17 -1.385577E-18  3.126377E-18
         5   3 -1.009778E-01  3.029333E-02  3.029333E-02  7.748432E-18 -1.019137E-17  8.932507E-19
         5   4 -1.009778E-01  3.029333E-02  3.029333E-02  5.423902E-18  2.080236E-17  8.932507E-19
         5   5 -1.009778E-01  3.029333E-02  3.029333E-02 -3.573003E-18  9.954553E-18  4.466253E-19
         5   6 -1.009778E-01  3.029333E-02  3.029333E-02 -2.023316E-18 -1.212848E-17  5.582817E-18
         5   7 -1.009778E-01  3.029333E-02  3.029333E-02  6.198745E-18 -1.786501E-18 -1.786501E-18
         5   8 -1.009778E-01  3.029333E-02  3.029333E-02 -1.354169E-35  2.862558E-18  4.466253E-18
         6   1 -1.009778E-01  3.029333E-02  3.029333E-02 -2.652747E-18  8.614678E-18 -3.126377E-18
         6   2 -1.009778E-01  3.029333E-02  3.029333E-02  4.466253E-19 -2.005452E-17  3.014721E-18
         6   3 -1.009778E-01  3.029333E-02  3.029333E-02 -5.779125E-18  1.636311E-17 -4.466253E-19
         6   4 -1.009778E-01  3.029333E-02  3.029333E-02  3.518993E-18  2.721091E-17  2.456439E-18
         6   5 -1.009778E-01  3.029333E-02  3.029333E-02 -9.717738E-18 -1.823062E-17 -8.932507E-19
         6   6 -1.009778E-01  3.029333E-02  3.029333E-02  5.779125E-18 -1.784320E-17  3.126377E-18
         6   7 -1.009778E-01  3.029333E-02  3.029333E-02 -1.239749E-17  3.464984E-18 -1.786501E-18
         6   8 -1.009778E-01  3.029333E-02  3.029333E-02  6.198745E-18  2.051153E-17  3.573003E-18
         7   1 -1.009778E-01  3.029333E-02  3.029333E-02 -6.564357E-19  1.743397E-18 -1.339876E-18
         7   2 -1.009778E-01  3.029333E-02  3.029333E-02 -6.564357E-19  6.973588E-18 -4.019628E-18
         7   3 -1.009778E-01  3.029333E-02  3.029333E-02  3.809818E-18  2.324529E-18 -3.126377E-18
         7   4 -1.009778E-01  3.029333E-02  3.029333E-02  3.809818E-18  9.298118E-18 -2.009814E-18
         7   5 -1.009778E-01  3.029333E-02  3.029333E-02  1.366881E-18  2.130819E-18 -2.679752E-18
         7   6 -1.009778E-01  3.029333E-02  3.029333E-02  4.466253E-18  4.649059E-18  8.932507E-19
         7   7 -1.009778E-01  3.029333E-02  3.029333E-02  4.736300E-19  2.324529E-18 -1.786501E-18
         7   8 -1.009778E-01  3.029333E-02  3.029333E-02 -2.625743E-18  6.198745E-18  3.573003E-18
         8   1 -1.009778E-01  3.029333E-02  3.029333E-02 -7.328811E-18  1.648152E-17  8.932507E-19
         8   2 -1.009778E-01  3.029333E-02  3.029333E-02  3.219908E-20 -8.313464E-18  1.451532E-18
         8   3 -1.009778E-01  3.029333E-02  3.029333E-02 -7.619635E-18  7.064991E-18  7.222237E-35
         8   4 -1.009778E-01  3.029333E-02  3.029333E-02 -8.781900E-18  2.488638E-17  5.136191E-18
         8   5 -1.009778E-01  3.029333E-02  3.029333E-02  0.000000E+00  1.347355E-17 -3.573003E-18
         8   6 -1.009778E-01  3.029333E-02  3.029333E-02 -3.009266E-36 -1.093401E-17  2.233127E-18
         8   7 -1.009778E-01  3.029333E-02  3.029333E-02 -9.771748E-18 -2.260131E-18 -1.786501E-18
         8   8 -1.009778E-01  3.029333E-02  3.029333E-02 -3.573003E-18  2.176001E-17  5.359504E-18
         9   1 -1.009778E-01  3.029333E-02  3.029333E-02 -2.082936E-17  2.588454E-17  2.679752E-18
         9   2 -1.009778E-01  3.029333E-02  3.029333E-02 -1.458283E-18 -2.370542E-17  2.679752E-18
         9   3 -1.009778E-01  3.029333E-02  3.029333E-02 -1.591648E-17  2.345510E-17 -1.155558E-33
         9   4 -1.009778E-01  3.029333E-02  3.029333E-02  4.229438E-18  6.408556E-18  5.806129E-18
         9   5 -1.009778E-01  3.029333E-02  3.029333E-02 -1.329074E-17 -2.943572E-18 -2.679752E-18
         9   6 -1.009778E-01  3.029333E-02  3.029333E-02  8.404867E-18 -1.393885E-18  4.019628E-18
         9   7 -1.009778E-01  3.029333E-02  3.029333E-02 -1.597049E-17  3.183297E-17 -1.786501E-18
         9   8 -1.009778E-01  3.029333E-02  3.029333E-02 -6.672375E-18  1.013736E-17  1.786501E-18

 displacements (vx,vy,vz) for set NALL and time  0.8500000E+00

         1  0.000000E+00  0.000000E+00  0.000000E+00
         2 -5.666667E+01  0.000000E+00  0.000000E+00
         3 -1.133333E+02  0.000000E+00  0.000000E+00
         4 -1.700000E+02  0.000000E+00  0.000000E+00
         5  0.000000E+00  1.578742E+01  0.000000E+00
         6 -5.666667E+01  1.578742E+01  0.000000E+00
         7 -1.133333E+02  1.578742E+01  0.000000E+00
         8 -1.700000E+02  1.578742E+01  0.000000E+00
         9  0.000000E+00  3.157485E+01  0.000000E+00
        10 -5.666667E+01  3.157485E+01  0.000000E+00
        11 -1.133333E+02  3.157485E+01  0.000000E+00
        12 -1.700000E+02  3.157485E+01  0.000000E+00
        13  0.000000E+00  4.736227E+01  0.000000E+00
        14 -5.666667E+01  4.736227E+01  0.000000E+00
        15 -1.133333E+02  4.736227E+01  0.000000E+00
        16 -1.700000E+02  4.736227E+01  0.000000E+00
        17  0.000000E+00  0.000000E+00  2.210239E+01
        18 -5.666667E+01  0.000000E+00  2.210239E+01
        19 -1.133333E+02  0.000000E+00  2.210239E+01
        20 -1.700000E+02  0.000000E+00  2.210239E+01
        21  0.000000E+00  1.578742E+01  2.210239E+01
        22 -5.666667E+01  1.578742E+01  2.210239E+01
        23 -1.133333E+02  1.578742E+01  2.210239E+01
        24 -1.700000E+02  1.578742E+01  2.210239E+01
        25  0.000000E+00  3.157485E+01  2.210239E+01
        26 -5.666667E+01  3.157485E+01  2.210239E+01
        27 -1.133333E+02  3.157485E+01  2.210239E+01
        28 -1.700000E+02  3.157485E+01  2.210239E+01
        29  0.000000E+00  4.736227E+01  2.210239E+01
        30 -5.666667E+01  4.736227E+01  2.210239E+01
        31 -1.133333E+02  4.736227E+01  2.210239E+01
        32 -1.700000E+02  4.736227E+01  2.210239E+01

 stresses (elem, integ.pnt.,sxx,syy,szz,sxy,sxz,syz) for set EALL and time  0.8500000E+00

         1   1 -1.870687E+04  2.051492E-12  2.051492E-12 -1.806455E-13 -2.408606E-13  4.075272E-14
         1   2 -1.870687E+04  6.154475E-12  2.051492E-12 -9.634426E-13 -4.817213E-13  2.037636E-14
         1   3 -1.870687E+04  2.051492E-12 -1.096494E-30 -1.806455E-13 -1.204303E-13 -3.260217E-13
         1   4 -1.870687E+04  6.154475E-12  2.051492E-12 -9.634426E-13  3.862317E-30 -4.075272E-13
         1   5 -1.870687E+04 -2.051492E-12 -2.051492E-12 -2.408606E-13 -2.408606E-13  8.558071E-13
         1   6 -1.870687E+04 -2.051492E-12 -2.051492E-12 -6.007207E-30 -4.817213E-13  9.984416E-13
         1   7 -1.870687E+04  4.102984E-12  2.051492E-12 -2.408606E-13 -1.204303E-13  3.260217E-13
         1   8 -1.870687E+04 -6.716023E-30  1.343205E-29  0.000000E+00  0.000000E+00  5.705380E-13
         2   1 -1.870687E+04 -1.253727E-31  1.374958E-30  4.687821E-13 -1.471042E-12 -4.075272E-14
         2   2 -1.870687E+04  4.102984E-12  4.102984E-12 -9.161665E-13 -2.976421E-12 -8.150543E-14
         2   3 -1.870687E+04 -2.992988E-30  4.283244E-30  4.637991E-13 -2.460363E-12 -1.630109E-13
         2   4 -1.870687E+04 -2.051492E-12 -2.051492E-12 -1.282441E-12  1.891041E-13 -4.482799E-13
         2   5 -1.870687E+04 -1.206974E-31  4.394189E-30 -5.175657E-14 -1.256060E-12  2.852690E-13
         2   6 -1.870687E+04 -1.808436E-30  1.364685E-29  4.299647E-13 -4.146387E-12  4.686563E-13
         2   7 -1.870687E+04  6.154475E-12  2.075589E-29  7.564163E-13 -2.615633E-12 -1.998529E-29
         2   8 -1.870687E+04  2.051492E-12 -3.235248E-30  3.383436E-14  1.238138E-12  4.075272E-13
         3   1 -1.870687E+04 -6.154475E-12 -4.102984E-12 -1.458103E-12 -1.986598E-12 -2.037636E-13
         3   2 -1.870687E+04 -2.051492E-12 -3.560192E-30  3.483518E-13 -7.220794E-13 -3.463981E-13
         3   3 -1.870687E+04 -4.102984E-12 -4.102984E-12 -1.496920E-12  1.066956E-12 -7.335489E-13
         3   4 -1.870687E+04  1.503734E-29  1.401315E-29  3.095344E-13  2.512120E-12 -9.780652E-13
         3   5 -1.870687E+04 -2.005963E-30  2.051492E-12  1.875129E-12 -1.701937E-12 -4.890326E-13
         3   6 -1.870687E+04  2.346413E-30  6.154475E-12 -5.175657E-14 -2.605164E-12 -5.297853E-13
         3   7 -1.870687E+04 -4.949186E-30 -1.970714E-30  1.719859E-12 -5.493900E-13 -8.150543E-13
         3   8 -1.870687E+04  1.540648E-29  2.051492E-12  2.746950E-13  8.957738E-13 -1.141076E-12
         4   1 -1.870687E+04 -2.051492E-12 -2.051492E-12  1.726894E-13  9.032274E-14 -6.520435E-13
         4   2 -1.870687E+04  2.413001E-30  2.051492E-12  2.329046E-13 -4.817213E-13 -4.075272E-14
         4   3 -1.870687E+04  1.293096E-29  2.051492E-12  4.573505E-13 -1.204303E-13 -3.260217E-13
         4   4 -1.870687E+04  1.911179E-29  2.051492E-12  5.175657E-13 -4.817213E-13 -6.112908E-13
         4   5 -1.870687E+04 -2.051492E-12 -2.051492E-12 -1.373475E-13  1.505379E-13 -5.705380E-13
         4   6 -1.870687E+04  2.051492E-12  4.102984E-12 -8.599294E-13 -7.225819E-13  4.075272E-14
         4   7 -1.870687E+04 -4.102984E-12 -2.051492E-12  5.872445E-13 -1.204303E-13 -6.520435E-13
         4   8 -1.870687E+04 -2.051492E-12 -2.051492E-12 -1.353374E-13  1.774178E-30 -8.150543E-14
         5   1 -1.870687E+04  9.119197E-30  2.051492E-12 -1.214353E-13  2.836561E-13 -4.890326E-13
         5   2 -1.870687E+04  8.205967E-12  4.102984E-12  5.921013E-14 -1.974412E-12  4.075272E-13
         5   3 -1.870687E+04  2.192987E-30  5.773957E-30  9.634426E-13 -2.942084E-12  3.260217E-13
         5   4 -1.870687E+04  4.102984E-12  2.051492E-12  2.288176E-12  9.116860E-13  4.482799E-13
         5   5 -1.870687E+04  6.154475E-12  2.051492E-12 -1.170469E-12  9.455204E-13 -1.630109E-13
         5   6 -1.870687E+04  6.154475E-12  2.051492E-12 -1.652190E-12  1.126166E-12  1.059571E-12
         5   7 -1.870687E+04  6.154475E-12  9.446297E-30  9.634426E-13 -1.170469E-12 -3.762684E-29
         5   8 -1.870687E+04  6.154475E-12 -1.519622E-29 -1.686024E-12  2.924162E-12  4.890326E-13
         6   1 -1.870687E+04 -2.051492E-12 -4.102984E-12  1.745737E-12  3.182945E-12 -4.075272E-13
         6   2 -1.870687E+04 -4.102984E-12  2.051492E-12  1.504876E-12 -2.537495E-12 -1.222582E-13
         6   3 -1.870687E+04 -2.051492E-12 -2.051492E-12  1.409319E-12  2.890328E-12  7.698940E-29
         6   4 -1.870687E+04 -2.051492E-12 -2.051492E-12 -6.379960E-13  4.335492E-12 -9.780652E-13
         6   5 -1.870687E+04  2.051492E-12  2.356499E-29 -2.237425E-12  2.133911E-12 -9.780652E-13
         6   6 -1.870687E+04  2.051492E-12  4.102984E-12 -3.105394E-13 -4.851047E-12 -1.018818E-12
         6   7 -1.870687E+04  3.778519E-29 -4.102984E-12 -2.340938E-12  9.634426E-13 -3.260217E-13
         6   8 -1.870687E+04 -6.154475E-12 -6.154475E-12  6.766872E-14  2.408606E-13 -1.711614E-12
         7   1 -1.870687E+04  4.102984E-12  4.102984E-12  3.453788E-13 -5.598586E-14  8.150543E-14
         7   2 -1.870687E+04 -2.051492E-12 -2.051492E-12 -2.567728E-13 -5.075996E-13 -1.222582E-13
         7   3 -1.870687E+04  8.205967E-12  6.154475E-12  8.659596E-14  1.891041E-13 -1.059571E-12
         7   4 -1.870687E+04 -2.051492E-12 -2.051492E-12 -5.155556E-13  9.116860E-13 -7.743016E-13
         7   5 -1.870687E+04  2.051492E-12  2.051492E-12  2.070263E-13 -1.637283E-13  1.467098E-12
         7   6 -1.870687E+04 -8.205967E-12 -4.102984E-12  1.170469E-12 -9.465254E-13  3.260217E-13
         7   7 -1.870687E+04  6.154475E-12  6.154475E-12 -8.281051E-13  3.383436E-14  9.780652E-13
         7   8 -1.870687E+04 -6.154475E-12 -2.051492E-12  1.353374E-13  1.719859E-12  5.705380E-13
         8   1 -1.870687E+04  2.051492E-12  2.051492E-12  7.225819E-13  1.901007E-12  2.596242E-29
         8   2 -1.870687E+04 -5.482468E-31  2.051492E-12 -1.384949E-12 -5.598586E-14  3.260217E-13
         8   3 -1.870687E+04  6.154475E-12  6.154475E-12 -8.957738E-13  5.175657E-14 -4.890326E-13
         8   4 -1.870687E+04  2.912799E-29  2.051492E-12 -4.742677E-13  2.219502E-12  1.222582E-12
         8   5 -1.870687E+04 -2.051492E-12 -9.530298E-30  1.926885E-12  1.651185E-12  5.510739E-29
         8   6 -1.870687E+04  5.448202E-30  2.051492E-12 -1.204303E-12 -4.864531E-13  2.159894E-12
         8   7 -1.870687E+04  8.771948E-30  2.051492E-12  9.634426E-13  2.070263E-13 -3.260217E-13
         8   8 -1.870687E+04 -2.051492E-12  2.051492E-12 -1.445164E-12  3.217784E-12  2.119141E-12
         9   1 -1.870687E+04 -4.102984E-12 -4.102984E-12 -2.340938E-12  2.786815E-12 -4.890326E-13
         9   2 -1.870687E+04  4.102984E-12  2.051492E-12  3.085294E-13 -3.415347E-12  5.297853E-13
         9   3 -1.870687E+04  4.102984E-12  6.154475E-12 -1.719859E-12  2.528032E-12 -3.260217E-13
         9   4 -1.870687E+04  6.154475E-12  4.102984E-12  8.659596E-14  3.973196E-12  6.520435E-13
         9   5 -1.870687E+04 -4.102984E-12 -4.102984E-12 -2.133911E-12  2.528032E-12  1.304087E-12
         9   6 -1.870687E+04  2.051492E-12  3.657739E-29 -2.070263E-13 -3.132193E-12  6.112908E-13
         9   7 -1.870687E+04 -1.226883E-29 -3.061221E-29 -1.098780E-12  6.847275E-13 -6.520435E-13
         9   8 -1.870687E+04  6.154475E-12 -9.147962E-29  1.309826E-12  2.129891E-12  1.059571E-12

 strains (elem, integ.pnt.,exx,eyy,ezz,exy,exz,eyz) forset EALL and time  0.8500000E+00

         1   1 -1.069111E-01  3.207333E-02  3.207333E-02 -1.153591E-18 -1.538121E-18  2.236871E-19
         1   2 -1.069111E-01  3.207333E-02  3.207333E-02 -6.152486E-18 -3.076243E-18  1.118436E-19
         1   3 -1.069111E-01  3.207333E-02  3.207333E-02 -1.153591E-18 -7.690607E-19 -1.789497E-18
         1   4 -1.069111E-01  3.207333E-02  3.207333E-02 -6.152486E-18  0.000000E+00 -2.236871E-18
         1   5 -1.069111E-01  3.207333E-02  3.207333E-02 -1.538121E-18 -1.538121E-18  4.697430E-18
         1   6 -1.069111E-01  3.207333E-02  3.207333E-02  0.000000E+00 -3.076243E-18  5.480335E-18
         1   7 -1.069111E-01  3.207333E-02  3.207333E-02 -1.538121E-18 -7.690607E-19  1.789497E-18
         1   8 -1.069111E-01  3.207333E-02  3.207333E-02  0.000000E+00  0.000000E+00  3.131620E-18
         2   1 -1.069111E-01  3.207333E-02  3.207333E-02  2.964399E-18 -9.452416E-18 -2.236871E-19
         2   2 -1.069111E-01  3.207333E-02  3.207333E-02 -5.879799E-18 -1.906568E-17 -4.473743E-19
         2   3 -1.069111E-01  3.207333E-02  3.207333E-02  2.377493E-18 -1.582859E-17 -8.947486E-19
         2   4 -1.069111E-01  3.207333E-02  3.207333E-02 -8.773888E-18  1.090747E-18 -2.460559E-18
         2   5 -1.069111E-01  3.207333E-02  3.207333E-02 -4.473743E-19 -8.137982E-18  1.565810E-18
         2   6 -1.069111E-01  3.207333E-02  3.207333E-02  2.628869E-18 -2.659544E-17  2.572402E-18
         2   7 -1.069111E-01  3.207333E-02  3.207333E-02  4.362989E-18 -1.717071E-17 -2.648154E-34
         2   8 -1.069111E-01  3.207333E-02  3.207333E-02 -2.513756E-19  7.439232E-18  2.236871E-18
         3   1 -1.069111E-01  3.207333E-02  3.207333E-02 -9.340572E-18 -1.227728E-17 -1.118436E-18
         3   2 -1.069111E-01  3.207333E-02  3.207333E-02  2.195339E-18 -4.202146E-18 -1.901341E-18
         3   3 -1.069111E-01  3.207333E-02  3.207333E-02 -9.676103E-18  7.047234E-18 -4.026368E-18
         3   4 -1.069111E-01  3.207333E-02  3.207333E-02  1.859808E-18  1.627596E-17 -5.368491E-18
         3   5 -1.069111E-01  3.207333E-02  3.207333E-02  1.185760E-17 -9.816725E-18 -2.684246E-18
         3   6 -1.069111E-01  3.207333E-02  3.207333E-02 -4.473743E-19 -1.558468E-17 -2.907933E-18
         3   7 -1.069111E-01  3.207333E-02  3.207333E-02  1.051547E-17 -2.573492E-18 -4.473743E-18
         3   8 -1.069111E-01  3.207333E-02  3.207333E-02  1.286746E-18  6.655237E-18 -6.263240E-18
         4   1 -1.069111E-01  3.207333E-02  3.207333E-02  1.628654E-18  5.767956E-19 -3.578994E-18
         4   2 -1.069111E-01  3.207333E-02  3.207333E-02  2.013184E-18 -3.076243E-18 -2.236871E-19
         4   3 -1.069111E-01  3.207333E-02  3.207333E-02  4.089212E-18 -7.690607E-19 -1.789497E-18
         4   4 -1.069111E-01  3.207333E-02  3.207333E-02  4.473743E-18 -3.076243E-18 -3.355307E-18
         4   5 -1.069111E-01  3.207333E-02  3.207333E-02 -6.433729E-19  9.613259E-19 -3.131620E-18
         4   6 -1.069111E-01  3.207333E-02  3.207333E-02 -5.257737E-18 -4.614364E-18  2.236871E-19
         4   7 -1.069111E-01  3.207333E-02  3.207333E-02  5.619867E-18 -7.690607E-19 -3.578994E-18
         4   8 -1.069111E-01  3.207333E-02  3.207333E-02  1.005502E-18  6.018531E-36 -4.473743E-19
         5   1 -1.069111E-01  3.207333E-02  3.207333E-02 -1.593498E-18  1.636121E-18 -2.684246E-18
         5   2 -1.069111E-01  3.207333E-02  3.207333E-02 -4.399073E-19 -1.278377E-17  2.236871E-18
         5   3 -1.069111E-01  3.207333E-02  3.207333E-02  6.152486E-18 -1.890483E-17  1.789497E-18
         5   4 -1.069111E-01  3.207333E-02  3.207333E-02  1.461215E-17  5.705112E-18  2.460559E-18
         5   5 -1.069111E-01  3.207333E-02  3.207333E-02 -7.941983E-18  5.453736E-18 -8.947486E-19
         5   6 -1.069111E-01  3.207333E-02  3.207333E-02 -1.101823E-17  6.607327E-18  5.815866E-18
         5   7 -1.069111E-01  3.207333E-02  3.207333E-02  6.152486E-18 -7.941983E-18 -7.222237E-35
         5   8 -1.069111E-01  3.207333E-02  3.207333E-02 -1.076685E-17  1.820608E-17  2.684246E-18
         6   1 -1.069111E-01  3.207333E-02  3.207333E-02  1.073916E-17  2.044295E-17 -2.236871E-18
         6   2 -1.069111E-01  3.207333E-02  3.207333E-02  9.201040E-18 -1.608743E-17 -6.710614E-19
         6   3 -1.069111E-01  3.207333E-02  3.207333E-02  7.831229E-18  1.845746E-17  5.777790E-34
         6   4 -1.069111E-01  3.207333E-02  3.207333E-02 -5.242804E-18  2.768619E-17 -5.368491E-18
         6   5 -1.069111E-01  3.207333E-02  3.207333E-02 -1.498922E-17  1.409447E-17 -5.368491E-18
         6   6 -1.069111E-01  3.207333E-02  3.207333E-02 -2.684246E-18 -3.051105E-17 -5.592178E-18
         6   7 -1.069111E-01  3.207333E-02  3.207333E-02 -1.588397E-17  6.152486E-18 -1.789497E-18
         6   8 -1.069111E-01  3.207333E-02  3.207333E-02 -5.027512E-19  1.538121E-18 -9.394860E-18
         7   1 -1.069111E-01  3.207333E-02  3.207333E-02  3.257308E-18 -4.159523E-19  4.473743E-19
         7   2 -1.069111E-01  3.207333E-02  3.207333E-02 -5.879960E-19 -3.299930E-18 -6.710614E-19
         7   3 -1.069111E-01  3.207333E-02  3.207333E-02  1.020436E-18  1.090747E-18 -5.815866E-18
         7   4 -1.069111E-01  3.207333E-02  3.207333E-02 -2.824867E-18  5.705112E-18 -4.250056E-18
         7   5 -1.069111E-01  3.207333E-02  3.207333E-02  1.789497E-18 -1.279279E-18  8.052737E-18
         7   6 -1.069111E-01  3.207333E-02  3.207333E-02  7.941983E-18 -6.278174E-18  1.789497E-18
         7   7 -1.069111E-01  3.207333E-02  3.207333E-02 -7.157988E-18 -2.513756E-19  5.368491E-18
         7   8 -1.069111E-01  3.207333E-02  3.207333E-02 -1.005502E-18  1.051547E-17  3.131620E-18
         8   1 -1.069111E-01  3.207333E-02  3.207333E-02  4.614364E-18  1.208128E-17  1.444447E-34
         8   2 -1.069111E-01  3.207333E-02  3.207333E-02 -8.844199E-18 -4.159523E-19  1.789497E-18
         8   3 -1.069111E-01  3.207333E-02  3.207333E-02 -6.655237E-18  4.473743E-19 -2.684246E-18
         8   4 -1.069111E-01  3.207333E-02  3.207333E-02 -3.963525E-18  1.429047E-17  6.710614E-18
         8   5 -1.069111E-01  3.207333E-02  3.207333E-02  1.230497E-17  1.019379E-17  4.092601E-34
         8   6 -1.069111E-01  3.207333E-02  3.207333E-02 -7.690607E-18 -3.457040E-18  1.185542E-17
         8   7 -1.069111E-01  3.207333E-02  3.207333E-02  6.152486E-18  1.789497E-18 -1.789497E-18
         8   8 -1.069111E-01  3.207333E-02  3.207333E-02 -9.228729E-18  2.101602E-17  1.163173E-17
         9   1 -1.069111E-01  3.207333E-02  3.207333E-02 -1.588397E-17  1.756271E-17 -2.684246E-18
         9   2 -1.069111E-01  3.207333E-02  3.207333E-02  1.035370E-18 -2.204392E-17  2.907933E-18
         9   3 -1.069111E-01  3.207333E-02  3.207333E-02 -1.051547E-17  1.532584E-17 -1.789497E-18
         9   4 -1.069111E-01  3.207333E-02  3.207333E-02  1.020436E-18  2.455457E-17  3.578994E-18
         9   5 -1.069111E-01  3.207333E-02  3.207333E-02 -1.409447E-17  1.532584E-17  7.157988E-18
         9   6 -1.069111E-01  3.207333E-02  3.207333E-02 -1.789497E-18 -2.082002E-17  3.355307E-18
         9   7 -1.069111E-01  3.207333E-02  3.207333E-02 -5.146983E-18  1.567989E-18 -3.578994E-18
         9   8 -1.069111E-01  3.207333E-02  3.207333E-02  1.023423E-17  1.079672E-17  5.815866E-18

 displacements (vx,vy,vz) for set NALL and time  0.9000000E+00

         1  0.000000E+00  0.000000E+00  0.000000E+00
         2 -6.000000E+01  0.000000E+00  0.000000E+00
         3 -1.200000E+02  0.000000E+00  0.000000E+00
         4 -1.800000E+02  0.000000E+00  0.000000E+00
         5  0.000000E+00  1.664301E+01  0.000000E+00
         6 -6.000000E+01  1.664301E+01  0.000000E+00
         7 -1.200000E+02  1.664301E+01  0.000000E+00
         8 -1.800000E+02  1.664301E+01  0.000000E+00
         9  0.000000E+00  3.328602E+01  0.000000E+00
        10 -6.000000E+01  3.328602E+01  0.000000E+00
        11 -1.200000E+02  3.328602E+01  0.000000E+00
        12 -1.800000E+02  3.328602E+01  0.000000E+00
        13  0.000000E+00  4.992903E+01  0.000000E+00
        14 -6.000000E+01  4.992903E+01  0.000000E+00
        15 -1.200000E+02  4.992903E+01  0.000000E+00
        16 -1.800000E+02  4.992903E+01  0.000000E+00
        17  0.000000E+00  0.000000E+00  2.330021E+01
        18 -6.000000E+01  0.000000E+00  2.330021E+01
        19 -1.200000E+02  0.000000E+00  2.330021E+01
        20 -1.800000E+02  0.000000E+00  2.330021E+01
        21  0.000000E+00  1.664301E+01  2.330021E+01
        22 -6.000000E+01  1.664301E+01  2.330021E+01
        23 -1.200000E+02  1.664301E+01  2.330021E+01
        24 -1.800000E+02  1.664301E+01  2.330021E+01
        25  0.000000E+00  3.328602E+01  2.330021E+01
        26 -6.000000E+01  3.328602E+01  2.330021E+01
        27 -1.200000E+02  3.328602E+01  2.330021E+01
        28 -1.800000E+02  3.328602E+01  2.330021E+01
        29  0.000000E+00  4.992903E+01  2.330021E+01
        30 -6.000000E+01  4.992903E+01  2.330021E+01
        31 -1.200000E+02  4.992903E+01  2.330021E+01
        32 -1.800000E+02  4.992903E+01  2.330021E+01

 stresses (elem, integ.pnt.,sxx,syy,szz,sxy,sxz,syz) for set EALL and time  0.9000000E+00

         1   1 -1.952405E+04 -8.902501E-31  7.713132E-31 -2.220985E-13 -3.868268E-14  1.645183E-13
         1   2 -1.952405E+04  2.067033E-12 -5.865462E-31 -1.117050E-12 -3.071682E-13 -1.233887E-13
         1   3 -1.952405E+04  2.067033E-12  2.067033E-12  6.557692E-15 -1.878413E-13 -2.467774E-13
         1   4 -1.952405E+04  4.134067E-12  4.134067E-12 -8.883940E-13  5.081249E-14 -4.112956E-13
         1   5 -1.952405E+04 -2.924380E-30  2.444234E-29 -3.756826E-13  3.170047E-13  9.048504E-13
         1   6 -1.952405E+04 -3.390665E-30  2.117165E-30 -8.529901E-13  4.851922E-14  4.112956E-14
         1   7 -1.952405E+04 -6.276698E-30  1.325760E-29 -2.740576E-13 -2.386538E-13  6.580730E-13
         1   8 -1.952405E+04  2.067033E-12 -8.286002E-31 -7.513652E-13 -9.546151E-13 -2.467774E-13
         2   1 -1.952405E+04  1.191328E-31  4.752545E-30  5.081249E-14 -6.551513E-13 -8.874173E-31
         2   2 -1.952405E+04  4.134067E-12  9.690970E-30 -1.261783E-12 -1.400944E-12 -8.225913E-14
         2   3 -1.952405E+04 -2.067033E-12 -2.067033E-12 -5.481152E-13 -2.965470E-12 -6.580730E-13
         2   4 -1.952405E+04  2.067033E-12 -8.237459E-30 -1.025423E-12  1.688278E-12 -4.935548E-13
         2   5 -1.952405E+04  1.191328E-31  2.067033E-12  5.081249E-14  2.078365E-13  6.580730E-13
         2   6 -1.952405E+04  2.067033E-12  3.606337E-29 -2.813033E-12 -9.556007E-13  7.608969E-13
         2   7 -1.952405E+04 -2.067033E-12 -4.134067E-12  1.901261E-29 -1.361115E-12 -6.580730E-13
         2   8 -1.952405E+04 -2.067033E-12 -6.201100E-12 -3.102499E-12  2.457345E-12 -8.225913E-14
         3   1 -1.952405E+04  9.426365E-30 -2.636933E-32 -2.475460E-12 -4.519013E-13 -2.467774E-13
         3   2 -1.952405E+04 -9.995629E-31  1.277992E-30  2.690588E-13 -8.098820E-13 -3.084717E-13
         3   3 -1.952405E+04  2.067033E-12  2.315095E-30 -2.945475E-12 -1.524375E-13 -7.403321E-13
         3   4 -1.952405E+04  2.067033E-12  2.067033E-12  8.729853E-13  1.518139E-12  1.233887E-13
         3   5 -1.952405E+04  2.067033E-12  8.883963E-30 -3.818460E-12  1.533548E-12 -4.112956E-13
         3   6 -1.952405E+04  2.067033E-12 -1.229325E-29  4.773076E-13 -4.731114E-12 -5.346843E-13
         3   7 -1.952405E+04  2.067033E-12 -2.067033E-12 -3.818460E-12  1.299480E-12 -8.225913E-13
         3   8 -1.952405E+04 -2.762001E-30 -4.134067E-12 -2.863845E-12  8.221728E-13 -3.290365E-13
         4   1 -1.952405E+04  7.521246E-30  9.667002E-31  5.737018E-14 -2.143581E-31 -5.758139E-13
         4   2 -1.952405E+04  2.067033E-12  0.000000E+00  1.170336E-13 -8.352882E-13  1.233887E-13
         4   3 -1.952405E+04  3.711707E-29  2.353779E-30 -9.506728E-14 -1.770192E-14 -1.398405E-12
         4   4 -1.952405E+04  4.134067E-12  4.134067E-12 -3.540384E-14 -8.529901E-13 -8.225913E-13
         4   5 -1.952405E+04  1.214688E-29  5.290295E-30  1.678461E-13 -1.281778E-13 -8.225913E-13
         4   6 -1.952405E+04 -2.220827E-29 -7.511981E-32 -1.502730E-12 -1.878413E-13  1.645183E-13
         4   7 -1.952405E+04 -2.067033E-12 -2.067033E-12  1.678461E-13  2.871730E-13 -1.645183E-12
         4   8 -1.952405E+04 -4.134067E-12 -4.134067E-12 -5.481152E-13 -7.080767E-14 -7.403321E-13
         5   1 -1.952405E+04 -2.067033E-12 -2.067033E-12  1.548956E-12  8.275839E-13 -4.935548E-13
         5   2 -1.952405E+04 -4.134067E-12 -4.134067E-12  3.219533E-12 -3.169867E-12 -8.225913E-14
         5   3 -1.952405E+04 -6.191768E-30  9.885584E-30  1.944634E-12 -2.488163E-12 -6.580730E-13
         5   4 -1.952405E+04 -2.067033E-12 -2.669807E-30  2.063961E-12  4.950095E-13 -9.459799E-13
         5   5 -1.952405E+04 -2.067033E-12 -2.067033E-12 -1.157865E-12  8.883940E-13 -6.580730E-13
         5   6 -1.952405E+04 -2.067033E-12 -2.067033E-12 -1.396519E-12 -2.273769E-12  4.112956E-13
         5   7 -1.952405E+04  3.151738E-29  3.020622E-29 -1.361115E-12 -1.838423E-12 -6.580730E-13
         5   8 -1.952405E+04 -4.134067E-12 -4.134067E-12  7.080767E-14  3.094615E-13 -5.758139E-13
         6   1 -1.952405E+04 -8.580281E-30  2.067033E-12  9.237978E-13 -1.056240E-12 -5.758139E-13
         6   2 -1.952405E+04  4.134067E-12  4.134067E-12  2.117067E-12 -2.607490E-12  9.871095E-13
         6   3 -1.952405E+04 -4.134067E-12 -2.067033E-12  1.635173E-12 -1.524375E-13 -1.233887E-12
         6   4 -1.952405E+04  2.354694E-29 -1.996007E-29  2.947768E-12  3.427369E-12  8.225913E-14
         6   5 -1.952405E+04  2.067033E-12  2.067033E-12 -1.502730E-12  1.964629E-12 -8.225913E-13
         6   6 -1.952405E+04  2.205674E-29  5.455992E-29  8.838074E-13 -1.734504E-12  8.225913E-13
         6   7 -1.952405E+04  1.286914E-29 -2.067033E-12 -1.502730E-12  1.705980E-12 -1.316146E-12
         6   8 -1.952405E+04 -2.067033E-12 -2.067033E-12  1.361115E-12  3.137903E-12 -2.467774E-13
         7   1 -1.952405E+04 -1.414342E-30  2.970668E-31 -1.635817E-13 -1.237524E-13  8.225913E-14
         7   2 -1.952405E+04 -1.183032E-29  5.821833E-31 -1.416514E-12  2.540624E-14 -3.290365E-13
         7   3 -1.952405E+04 -2.067033E-12 -2.067033E-12 -4.176441E-13  1.370288E-13  2.467774E-13
         7   4 -1.952405E+04 -4.134067E-12 -4.134067E-12 -1.670576E-12  8.529901E-13  2.467774E-13
         7   5 -1.952405E+04 -2.067033E-12 -2.067033E-12  6.097498E-13  1.645673E-13 -3.290365E-13
         7   6 -1.952405E+04 -6.201100E-12 -4.134067E-12  1.564365E-12 -1.039182E-13 -3.290365E-13
         7   7 -1.952405E+04  3.491719E-29  9.300084E-30  8.129998E-13 -3.710961E-13 -3.290365E-13
         7   8 -1.952405E+04 -4.134067E-12 -2.067033E-12  1.767615E-12  3.448653E-13  4.935548E-13
         8   1 -1.952405E+04  1.540659E-29 -1.848988E-30 -1.635173E-12  6.397426E-13 -3.290365E-13
         8   2 -1.952405E+04 -2.067033E-12  3.865307E-30 -1.575509E-12 -1.537973E-12 -8.637208E-13
         8   3 -1.952405E+04  7.551556E-30 -5.168901E-30 -9.192113E-13 -1.330298E-12  2.316742E-29
         8   4 -1.952405E+04 -4.134067E-12 -2.067033E-12 -2.649451E-12  8.175863E-13 -8.225913E-14
         8   5 -1.952405E+04 -2.067033E-12 -2.067033E-12 -6.097498E-13  1.688278E-12 -4.935548E-13
         8   6 -1.952405E+04 -2.067033E-12 -2.067033E-12 -1.564365E-12 -1.861697E-12 -3.701661E-13
         8   7 -1.952405E+04  2.067033E-12 -1.159434E-29 -4.064999E-13 -1.228673E-12  3.290365E-13
         8   8 -1.952405E+04  2.368060E-29  2.318265E-29 -1.599769E-12  7.998844E-13  8.225913E-13
         9   1 -1.952405E+04  1.005245E-29 -6.017984E-30 -1.705980E-12  1.381110E-12 -9.871095E-13
         9   2 -1.952405E+04 -2.067033E-12 -1.318766E-30  1.873826E-12 -1.423072E-12 -9.871095E-13
         9   3 -1.952405E+04  2.067033E-12  2.067033E-12 -1.705980E-12 -9.546151E-13  8.225913E-13
         9   4 -1.952405E+04  1.663878E-29  3.866801E-30 -8.706921E-13  1.431923E-12  1.151628E-12
         9   5 -1.952405E+04 -2.137953E-29 -6.312666E-31 -1.299480E-12 -4.419037E-13 -3.290365E-13
         9   6 -1.952405E+04 -4.134067E-12 -2.067033E-12  6.097498E-13 -4.856999E-12  7.814617E-13
         9   7 -1.952405E+04 -2.971995E-29 -2.067033E-12 -1.096230E-12 -1.282118E-29  9.461685E-30
         9   8 -1.952405E+04 -4.134067E-12 -2.067033E-12  1.290307E-12  2.386538E-12  7.403321E-13

 strains (elem, integ.pnt.,exx,eyy,ezz,exy,exz,eyz) forset EALL and time  0.9000000E+00

         1   1 -1.128000E-01  3.384000E-02  3.384000E-02 -1.236021E-18 -1.243424E-19  8.962328E-19
         1   2 -1.128000E-01  3.384000E-02  3.384000E-02 -6.960609E-18 -1.841719E-18 -6.721746E-19
         1   3 -1.128000E-01  3.384000E-02  3.384000E-02  7.805025E-19 -1.078440E-18 -1.344349E-18
         1   4 -1.128000E-01  3.384000E-02  3.384000E-02 -4.944085E-18  4.481164E-19 -2.240582E-18
         1   5 -1.128000E-01  3.384000E-02  3.384000E-02 -2.156881E-18  3.012472E-18  4.929280E-18
         1   6 -1.128000E-01  3.384000E-02  3.384000E-02 -5.209994E-18  1.295096E-18  2.240582E-19
         1   7 -1.128000E-01  3.384000E-02  3.384000E-02 -1.260648E-18 -1.526557E-18  3.584931E-18
         1   8 -1.128000E-01  3.384000E-02  3.384000E-02 -4.313761E-18 -6.106227E-18 -1.344349E-18
         2   1 -1.128000E-01  3.384000E-02  3.384000E-02  4.481164E-19 -4.621521E-18  0.000000E+00
         2   2 -1.128000E-01  3.384000E-02  3.384000E-02 -7.947945E-18 -9.392010E-18 -4.481164E-19
         2   3 -1.128000E-01  3.384000E-02  3.384000E-02 -2.521296E-18 -1.921491E-17 -3.584931E-18
         2   4 -1.128000E-01  3.384000E-02  3.384000E-02 -5.574409E-18  1.055294E-17 -2.688698E-18
         2   5 -1.128000E-01  3.384000E-02  3.384000E-02  4.481164E-19  9.850618E-20  3.584931E-18
         2   6 -1.128000E-01  3.384000E-02  3.384000E-02 -1.787056E-17 -7.343458E-18  4.145077E-18
         2   7 -1.128000E-01  3.384000E-02  3.384000E-02  0.000000E+00 -9.691158E-18 -3.584931E-18
         2   8 -1.128000E-01  3.384000E-02  3.384000E-02 -1.984524E-17  1.473375E-17 -4.481164E-19
         3   1 -1.128000E-01  3.384000E-02  3.384000E-02 -1.604977E-17 -2.829055E-18 -1.344349E-18
         3   2 -1.128000E-01  3.384000E-02  3.384000E-02  1.505631E-18 -5.118890E-18 -1.680436E-18
         3   3 -1.128000E-01  3.384000E-02  3.384000E-02 -2.019485E-17 -1.344349E-18 -4.033047E-18
         3   4 -1.128000E-01  3.384000E-02  3.384000E-02  4.230060E-18  9.341547E-18  6.721746E-19
         3   5 -1.128000E-01  3.384000E-02  3.384000E-02 -2.442491E-17  1.005557E-17 -2.240582E-18
         3   6 -1.128000E-01  3.384000E-02  3.384000E-02  3.053113E-18 -3.001654E-17 -2.912756E-18
         3   7 -1.128000E-01  3.384000E-02  3.384000E-02 -2.442491E-17  6.835057E-18 -4.481164E-18
         3   8 -1.128000E-01  3.384000E-02  3.384000E-02 -1.831868E-17  3.781943E-18 -1.792466E-18
         4   1 -1.128000E-01  3.384000E-02  3.384000E-02  1.228619E-18 -1.579864E-35 -3.136815E-18
         4   2 -1.128000E-01  3.384000E-02  3.384000E-02  1.610258E-18 -5.342948E-18  6.721746E-19
         4   3 -1.128000E-01  3.384000E-02  3.384000E-02 -1.157303E-19  1.329544E-19 -7.617978E-18
         4   4 -1.128000E-01  3.384000E-02  3.384000E-02  2.659089E-19 -5.209994E-18 -4.481164E-18
         4   5 -1.128000E-01  3.384000E-02  3.384000E-02  2.058374E-18 -6.968011E-19 -4.481164E-18
         4   6 -1.128000E-01  3.384000E-02  3.384000E-02 -8.627522E-18 -1.078440E-18  8.962328E-19
         4   7 -1.128000E-01  3.384000E-02  3.384000E-02  2.058374E-18  2.821653E-18 -8.962328E-18
         4   8 -1.128000E-01  3.384000E-02  3.384000E-02 -2.521296E-18  5.318177E-19 -4.033047E-18
         5   1 -1.128000E-01  3.384000E-02  3.384000E-02  1.076960E-17  4.985936E-18 -2.688698E-18
         5   2 -1.128000E-01  3.384000E-02  3.384000E-02  2.145549E-17 -2.058389E-17 -4.481164E-19
         5   3 -1.128000E-01  3.384000E-02  3.384000E-02  1.194654E-17 -1.616180E-17 -3.584931E-18
         5   4 -1.128000E-01  3.384000E-02  3.384000E-02  1.270982E-17  2.920159E-18 -5.153338E-18
         5   5 -1.128000E-01  3.384000E-02  3.384000E-02 -7.898692E-18  4.944085E-18 -3.584931E-18
         5   6 -1.128000E-01  3.384000E-02  3.384000E-02 -9.425249E-18 -1.528279E-17  2.240582E-18
         5   7 -1.128000E-01  3.384000E-02  3.384000E-02 -9.691158E-18 -1.274427E-17 -3.584931E-18
         5   8 -1.128000E-01  3.384000E-02  3.384000E-02 -5.318177E-19  9.947389E-19 -3.136815E-18
         6   1 -1.128000E-01  3.384000E-02  3.384000E-02  4.678176E-18 -7.002459E-18 -3.136815E-18
         6   2 -1.128000E-01  3.384000E-02  3.384000E-02  1.231096E-17 -1.692508E-17  5.377397E-18
         6   3 -1.128000E-01  3.384000E-02  3.384000E-02  1.095181E-17 -1.344349E-18 -6.721746E-18
         6   4 -1.128000E-01  3.384000E-02  3.384000E-02  1.934787E-17  2.155400E-17  4.481164E-19
         6   5 -1.128000E-01  3.384000E-02  3.384000E-02 -8.627522E-18  1.096661E-17 -4.481164E-18
         6   6 -1.128000E-01  3.384000E-02  3.384000E-02  6.638044E-18 -1.269502E-17  4.481164E-18
         6   7 -1.128000E-01  3.384000E-02  3.384000E-02 -8.627522E-18  1.041999E-17 -7.169862E-18
         6   8 -1.128000E-01  3.384000E-02  3.384000E-02  9.691158E-18  1.957933E-17 -1.344349E-18
         7   1 -1.128000E-01  3.384000E-02  3.384000E-02 -4.308923E-19 -7.300397E-19  4.481164E-19
         7   2 -1.128000E-01  3.384000E-02  3.384000E-02 -8.445315E-18  2.240582E-19 -1.792466E-18
         7   3 -1.128000E-01  3.384000E-02  3.384000E-02 -2.671474E-18  6.303239E-19  1.344349E-18
         7   4 -1.128000E-01  3.384000E-02  3.384000E-02 -1.068590E-17  5.209994E-18  1.344349E-18
         7   5 -1.128000E-01  3.384000E-02  3.384000E-02  5.377397E-18  1.668123E-18 -1.792466E-18
         7   6 -1.128000E-01  3.384000E-02  3.384000E-02  1.148362E-17 -4.925309E-20 -1.792466E-18
         7   7 -1.128000E-01  3.384000E-02  3.384000E-02  7.169862E-18 -3.850840E-18 -1.792466E-18
         7   8 -1.128000E-01  3.384000E-02  3.384000E-02  1.327609E-17  7.288301E-19  2.688698E-18
         8   1 -1.128000E-01  3.384000E-02  3.384000E-02 -1.095181E-17  3.907495E-18 -1.792466E-18
         8   2 -1.128000E-01  3.384000E-02  3.384000E-02 -1.057017E-17 -1.002233E-17 -4.705222E-18
         8   3 -1.128000E-01  3.384000E-02  3.384000E-02 -6.372135E-18 -8.263107E-18  1.083336E-34
         8   4 -1.128000E-01  3.384000E-02  3.384000E-02 -1.743967E-17  5.475903E-18 -4.481164E-19
         8   5 -1.128000E-01  3.384000E-02  3.384000E-02 -5.377397E-18  1.055294E-17 -2.688698E-18
         8   6 -1.128000E-01  3.384000E-02  3.384000E-02 -1.148362E-17 -1.215459E-17 -2.016524E-18
         8   7 -1.128000E-01  3.384000E-02  3.384000E-02 -3.584931E-18 -7.366874E-18  1.792466E-18
         8   8 -1.128000E-01  3.384000E-02  3.384000E-02 -1.121771E-17  5.608857E-18  4.481164E-18
         9   1 -1.128000E-01  3.384000E-02  3.384000E-02 -1.041999E-17  8.711224E-18 -5.377397E-18
         9   2 -1.128000E-01  3.384000E-02  3.384000E-02  1.247836E-17 -9.225817E-18 -5.377397E-18
         9   3 -1.128000E-01  3.384000E-02  3.384000E-02 -1.041999E-17 -6.106227E-18  4.481164E-18
         9   4 -1.128000E-01  3.384000E-02  3.384000E-02 -5.077039E-18  9.159340E-18  6.273629E-18
         9   5 -1.128000E-01  3.384000E-02  3.384000E-02 -6.835057E-18 -3.319022E-18 -1.792466E-18
         9   6 -1.128000E-01  3.384000E-02  3.384000E-02  5.377397E-18 -3.156032E-17  4.257106E-18
         9   7 -1.128000E-01  3.384000E-02  3.384000E-02 -5.042591E-18 -4.814825E-35 -2.407412E-35
         9   8 -1.128000E-01  3.384000E-02  3.384000E-02  1.022298E-17  1.526557E-17  4.033047E-18

 displacements (vx,vy,vz) for set NALL and time  0.9500000E+00

         1  0.000000E+00  0.000000E+00  0.000000E+00
         2 -6.333333E+01  0.000000E+00  0.000000E+00
         3 -1.266667E+02  0.000000E+00  0.000000E+00
         4 -1.900000E+02  0.000000E+00  0.000000E+00
         5  0.000000E+00  1.749074E+01  0.000000E+00
         6 -6.333333E+01  1.749074E+01  0.000000E+00
         7 -1.266667E+02  1.749074E+01  0.000000E+00
         8 -1.900000E+02  1.749074E+01  0.000000E+00
         9  0.000000E+00  3.498148E+01  0.000000E+00
        10 -6.333333E+01  3.498148E+01  0.000000E+00
        11 -1.266667E+02  3.498148E+01  0.000000E+00
        12 -1.900000E+02  3.498148E+01  0.000000E+00
        13  0.000000E+00  5.247222E+01  0.000000E+00
        14 -6.333333E+01  5.247222E+01  0.000000E+00
        15 -1.266667E+02  5.247222E+01  0.000000E+00
        16 -1.900000E+02  5.247222E+01  0.000000E+00
        17  0.000000E+00  0.000000E+00  2.448704E+01
        18 -6.333333E+01  0.000000E+00  2.448704E+01
        19 -1.266667E+02  0.000000E+00  2.448704E+01
        20 -1.900000E+02  0.000000E+00  2.448704E+01
        21  0.000000E+00  1.749074E+01  2.448704E+01
        22 -6.333333E+01  1.749074E+01  2.448704E+01
        23 -1.266667E+02  1.749074E+01  2.448704E+01
        24 -1.900000E+02  1.749074E+01  2.448704E+01
        25  0.000000E+00  3.498148E+01  2.448704E+01
        26 -6.333333E+01  3.498148E+01  2.448704E+01
        27 -1.266667E+02  3.498148E+01  2.448704E+01
        28 -1.900000E+02  3.498148E+01  2.448704E+01
        29  0.000000E+00  5.247222E+01  2.448704E+01
        30 -6.333333E+01  5.247222E+01  2.448704E+01
        31 -1.266667E+02  5.247222E+01  2.448704E+01
        32 -1.900000E+02  5.247222E+01  2.448704E+01

 stresses (elem, integ.pnt.,sxx,syy,szz,sxy,sxz,syz) for set EALL and time  0.9500000E+00

         1   1 -2.031335E+04  2.711114E-31 -3.433387E-30  1.524025E-13  5.597284E-13 -8.302306E-14
         1   2 -2.031335E+04 -1.181266E-31 -1.583649E-29  6.844326E-13  2.687849E-12 -1.660461E-13
         1   3 -2.031335E+04  2.082812E-12  2.082812E-12  2.769830E-14  2.733889E-13 -6.641845E-13
         1   4 -2.031335E+04  4.165625E-12  2.082812E-12  5.597284E-13  1.692136E-12 -4.151153E-13
         1   5 -2.031335E+04  2.082812E-12  4.165625E-12 -1.865761E-13  4.100833E-13  8.302306E-14
         1   6 -2.031335E+04  2.082812E-12  2.082812E-12 -1.841781E-12  2.538204E-12 -9.349470E-29
         1   7 -2.031335E+04 -2.082812E-12 -2.082812E-12 -3.693106E-14 -3.251914E-13 -6.641845E-13
         1   8 -2.031335E+04 -2.082812E-12 -2.082812E-12 -1.692136E-12  1.093555E-12 -2.490692E-13
         2   1 -2.031335E+04  4.165625E-12  4.165625E-12  1.904133E-12  3.328875E-12  1.660461E-13
         2   2 -2.031335E+04  4.165625E-12  2.082812E-12 -2.239874E-13 -1.932311E-12  1.245346E-13
         2   3 -2.031335E+04  4.165625E-12  4.165625E-12  1.991426E-12  4.729156E-13 -1.660461E-13
         2   4 -2.031335E+04  4.165625E-12  2.082812E-12 -2.549233E-13  7.093734E-13  8.302306E-14
         2   5 -2.031335E+04 -6.248437E-12 -6.248437E-12 -1.791899E-12  3.266043E-12  2.490692E-13
         2   6 -2.031335E+04 -4.165625E-12 -4.165625E-12 -3.731522E-13 -3.354776E-12  8.094749E-13
         2   7 -2.031335E+04  4.165625E-12  2.082812E-12 -7.463045E-13 -6.724424E-13  1.363421E-29
         2   8 -2.031335E+04  2.082812E-12 -1.302125E-29  1.381816E-12  4.411400E-12  1.079300E-12
         3   1 -2.031335E+04 -6.248437E-12 -6.248437E-12 -1.368865E-12  1.493569E-12 -4.060227E-29
         3   2 -2.031335E+04 -4.165625E-12 -4.165625E-12  6.410262E-13 -5.718394E-12 -4.981384E-13
         3   3 -2.031335E+04 -6.248437E-12 -8.331249E-12 -1.219220E-12  1.891662E-12 -1.660461E-13
         3   4 -2.031335E+04 -4.165625E-12 -6.248437E-12  9.089002E-13  1.418747E-12 -5.396499E-13
         3   5 -2.031335E+04  4.165625E-12  2.082812E-12  1.891662E-12  2.590125E-14 -3.320923E-13
         3   6 -2.031335E+04  4.165625E-12  2.082812E-12  3.625365E-29 -2.220448E-12 -1.079300E-12
         3   7 -2.031335E+04  8.331249E-12  2.082812E-12 -6.855657E-30  7.463045E-13 -4.981384E-13
         3   8 -2.031335E+04  2.082812E-12 -1.583817E-29  4.729156E-13  2.874425E-12 -6.641845E-13
         4   1 -2.031335E+04 -6.248437E-12 -4.628930E-31  3.639195E-13  1.366944E-13 -1.162323E-12
         4   2 -2.031335E+04 -4.165625E-12 -2.082812E-12  1.605323E-12  8.460679E-13 -1.245346E-13
         4   3 -2.031335E+04 -6.248437E-12  0.000000E+00  8.128546E-13 -2.364578E-13 -6.641845E-13
         4   4 -2.031335E+04  3.726543E-29  2.082812E-12  2.054258E-12 -9.458312E-13 -3.320923E-13
         4   5 -2.031335E+04 -4.165625E-12  2.610898E-30 -3.693106E-14 -3.621224E-13 -6.641845E-13
         4   6 -2.031335E+04 -6.248437E-12 -2.082812E-12  1.995267E-13 -7.435714E-15  1.203834E-12
         4   7 -2.031335E+04 -2.579711E-47  2.082812E-12 -2.364578E-13 -2.364578E-13 -5.058063E-30
         4   8 -2.031335E+04 -2.082812E-12  1.558527E-29 -2.074986E-30 -4.729156E-13  6.641845E-13
         5   1 -2.031335E+04 -2.082812E-12 -2.082812E-12  3.659581E-12  1.723552E-12 -1.660461E-13
         5   2 -2.031335E+04  2.082812E-12  2.082812E-12 -5.514909E-15 -1.527743E-12  2.490692E-13
         5   3 -2.031335E+04 -4.165625E-12 -2.082812E-12  3.572768E-12 -1.618274E-12 -8.302306E-13
         5   4 -2.031335E+04  2.526912E-29 -2.617110E-29 -4.470144E-13  4.056714E-12 -1.369881E-12
         5   5 -2.031335E+04 -2.082812E-12 -2.082812E-12  2.992901E-13  2.519738E-12  9.962768E-13
         5   6 -2.031335E+04  4.342646E-29  2.523187E-29  1.481579E-12 -6.133279E-13  1.494415E-12
         5   7 -2.031335E+04  6.248437E-12  6.248437E-12  2.142992E-12 -2.216854E-12  6.641845E-13
         5   8 -2.031335E+04  8.331249E-12  8.331249E-12  2.142992E-12  4.522194E-12 -3.320923E-13
         6   1 -2.031335E+04  1.490753E-30 -1.006541E-29 -1.866722E-12  2.974188E-12 -4.981384E-13
         6   2 -2.031335E+04  4.165625E-12  2.082812E-12  1.561917E-12 -3.764859E-12  1.245346E-13
         6   3 -2.031335E+04 -2.082812E-12 -2.082812E-12 -2.490243E-12  4.729156E-12 -1.162323E-12
         6   4 -2.031335E+04 -2.230033E-29  3.130970E-31  1.056624E-12  1.655205E-12 -1.245346E-13
         6   5 -2.031335E+04 -8.331249E-12 -6.248437E-12  1.995267E-13  1.729067E-12 -8.302306E-13
         6   6 -2.031335E+04 -6.248437E-12 -6.248437E-12  1.995267E-13 -5.009981E-12  4.151153E-14
         6   7 -2.031335E+04 -2.082812E-12 -4.165625E-12 -3.374476E-29  3.583798E-12 -6.641845E-13
         6   8 -2.031335E+04 -2.082812E-12 -4.165625E-12  4.729156E-13  4.766087E-12  3.320923E-13
         7   1 -2.031335E+04 -2.082812E-12  4.165625E-12 -3.158348E-13 -1.431697E-13  4.981384E-13
         7   2 -2.031335E+04 -3.408614E-29  6.248437E-12 -2.562184E-12 -3.796276E-13 -1.452904E-12
         7   3 -2.031335E+04 -6.248437E-12 -2.082812E-12  5.321538E-13  7.278389E-13  1.328369E-12
         7   4 -2.031335E+04 -4.165625E-12 -2.082812E-12 -1.714195E-12  2.737730E-12  1.162323E-12
         7   5 -2.031335E+04  8.331249E-12  8.331249E-12  3.990535E-13 -5.911445E-14 -4.696820E-31
         7   6 -2.031335E+04 -2.082812E-12  2.296045E-29  3.990535E-13 -2.364578E-13 -1.369881E-12
         7   7 -2.031335E+04  8.331249E-12  4.165625E-12  7.566139E-30  4.285488E-13  3.320923E-13
         7   8 -2.031335E+04 -2.082812E-12 -2.082812E-12 -8.387365E-29  2.911356E-12 -1.494415E-12
         8   1 -2.031335E+04 -2.082812E-12 -2.082812E-12 -1.106506E-12  1.026169E-12 -4.981384E-13
         8   2 -2.031335E+04 -4.165625E-12 -6.248437E-12  2.676819E-12  5.532530E-13 -1.079300E-12
         8   3 -2.031335E+04  4.165625E-12  4.165625E-12 -1.219220E-12  2.065288E-12 -8.302306E-13
         8   4 -2.031335E+04 -2.082812E-12 -5.435929E-30  1.736502E-12  5.283122E-13 -8.302306E-14
         8   5 -2.031335E+04  4.165625E-12  4.165625E-12  1.943465E-12 -5.180249E-14 -1.660461E-12
         8   6 -2.031335E+04  4.165625E-12  4.165625E-12 -3.022149E-12 -4.656037E-13 -1.494415E-12
         8   7 -2.031335E+04 -4.165625E-12 -4.165625E-12  7.981070E-13 -5.180249E-14 -1.660461E-12
         8   8 -2.031335E+04 -6.248437E-12 -8.331249E-12 -3.458134E-12  1.485173E-12 -6.641845E-13
         9   1 -2.031335E+04  4.764709E-31 -3.640741E-30 -9.976337E-14  4.231300E-12 -1.660461E-13
         9   2 -2.031335E+04 -7.763542E-31  1.813039E-30  1.318983E-12 -4.517639E-12  2.905807E-13
         9   3 -2.031335E+04 -2.082812E-12 -2.082812E-12  3.990535E-13  7.463045E-13 -1.660461E-13
         9   4 -2.031335E+04 -4.165625E-12 -6.248437E-12  1.936029E-12  9.827623E-13  1.203834E-12
         9   5 -2.031335E+04 -4.165625E-12 -8.331249E-12 -4.876880E-12  4.865851E-12 -4.981384E-13
         9   6 -2.031335E+04  2.704891E-29 -4.165625E-12  3.251914E-13 -4.474233E-12  3.736038E-13
         9   7 -2.031335E+04 -4.165625E-12 -8.331249E-12 -4.876880E-12 -5.985802E-13 -1.992554E-12
         9   8 -2.031335E+04 -2.082812E-12 -6.248437E-12  7.981070E-13  3.184745E-12  4.981384E-13

 strains (elem, integ.pnt.,exx,eyy,ezz,exy,exz,eyz) forset EALL and time  0.9500000E+00

         1   1 -1.186444E-01  3.559333E-02  3.559333E-02  9.118180E-19  3.198421E-18 -4.488517E-19
         1   2 -1.186444E-01  3.559333E-02  3.559333E-02  4.320550E-18  1.683335E-17 -8.977033E-19
         1   3 -1.186444E-01  3.559333E-02  3.559333E-02 -2.103111E-19  1.234577E-18 -3.590813E-18
         1   4 -1.186444E-01  3.559333E-02  3.559333E-02  3.198421E-18  1.032453E-17 -2.244258E-18
         1   5 -1.186444E-01  3.559333E-02  3.559333E-02 -1.066140E-18  1.851865E-18  4.488517E-19
         1   6 -1.186444E-01  3.559333E-02  3.559333E-02 -1.167108E-17  1.548679E-17 -5.777790E-34
         1   7 -1.186444E-01  3.559333E-02  3.559333E-02  2.804148E-19 -4.151643E-18 -3.590813E-18
         1   8 -1.186444E-01  3.559333E-02  3.559333E-02 -1.032453E-17  4.938308E-18 -1.346555E-18
         2   1 -1.186444E-01  3.559333E-02  3.559333E-02  1.223215E-17  2.106968E-17  8.977033E-19
         2   2 -1.186444E-01  3.559333E-02  3.559333E-02 -1.402779E-18 -1.263889E-17  6.732775E-19
         2   3 -1.186444E-01  3.559333E-02  3.559333E-02  1.301764E-17  3.029984E-18 -8.977033E-19
         2   4 -1.186444E-01  3.559333E-02  3.559333E-02 -1.374784E-18  4.544976E-18  4.488517E-19
         2   5 -1.186444E-01  3.559333E-02  3.559333E-02 -1.122223E-17  1.989156E-17  1.346555E-18
         2   6 -1.186444E-01  3.559333E-02  3.559333E-02 -2.132280E-18 -2.252821E-17  4.376304E-18
         2   7 -1.186444E-01  3.559333E-02  3.559333E-02 -4.264561E-18 -4.825390E-18  3.611119E-35
         2   8 -1.186444E-01  3.559333E-02  3.559333E-02  9.370366E-18  2.774693E-17  5.835072E-18
         3   1 -1.186444E-01  3.559333E-02  3.559333E-02 -8.641099E-18  9.763229E-18 -2.166671E-34
         3   2 -1.186444E-01  3.559333E-02  3.559333E-02  4.236331E-18 -3.644402E-17 -2.693110E-18
         3   3 -1.186444E-01  3.559333E-02  3.559333E-02 -7.294544E-18  1.211993E-17 -8.977033E-19
         3   4 -1.186444E-01  3.559333E-02  3.559333E-02  6.340382E-18  9.089951E-18 -2.917536E-18
         3   5 -1.186444E-01  3.559333E-02  3.559333E-02  1.211993E-17  1.458533E-18 -1.795407E-18
         3   6 -1.186444E-01  3.559333E-02  3.559333E-02 -4.513898E-35 -1.293389E-17 -5.835072E-18
         3   7 -1.186444E-01  3.559333E-02  3.559333E-02  6.018531E-36  4.264561E-18 -2.693110E-18
         3   8 -1.186444E-01  3.559333E-02  3.559333E-02  3.029984E-18  1.789949E-17 -3.590813E-18
         4   1 -1.186444E-01  3.559333E-02  3.559333E-02  2.202384E-18  6.172885E-19 -6.283923E-18
         4   2 -1.186444E-01  3.559333E-02  3.559333E-02  1.015609E-17  5.162264E-18 -6.732775E-19
         4   3 -1.186444E-01  3.559333E-02  3.559333E-02  6.242049E-18 -1.514992E-18 -3.590813E-18
         4   4 -1.186444E-01  3.559333E-02  3.559333E-02  1.419576E-17 -6.059967E-18 -1.795407E-18
         4   5 -1.186444E-01  3.559333E-02  3.559333E-02  2.804148E-19 -3.871228E-18 -3.590813E-18
         4   6 -1.186444E-01  3.559333E-02  3.559333E-02  1.795407E-18 -1.598740E-18  6.508349E-18
         4   7 -1.186444E-01  3.559333E-02  3.559333E-02 -1.514992E-18 -1.514992E-18  4.814825E-35
         4   8 -1.186444E-01  3.559333E-02  3.559333E-02  0.000000E+00 -3.029984E-18  3.590813E-18
         5   1 -1.186444E-01  3.559333E-02  3.559333E-02  2.435185E-17  1.091359E-17 -8.977033E-19
         5   2 -1.186444E-01  3.559333E-02  3.559333E-02  8.694739E-19 -9.917551E-18  1.346555E-18
         5   3 -1.186444E-01  3.559333E-02  3.559333E-02  2.418341E-17 -1.088536E-17 -4.488517E-18
         5   4 -1.186444E-01  3.559333E-02  3.559333E-02 -1.571451E-18  2.547445E-17 -7.406053E-18
         5   5 -1.186444E-01  3.559333E-02  3.559333E-02  2.693110E-18  1.562700E-17  5.386220E-18
         5   6 -1.186444E-01  3.559333E-02  3.559333E-02  1.026807E-17 -4.446642E-18  8.079330E-18
         5   7 -1.186444E-01  3.559333E-02  3.559333E-02  1.683241E-17 -1.627158E-17  3.590813E-18
         5   8 -1.186444E-01  3.559333E-02  3.559333E-02  1.683241E-17  2.690569E-17 -1.795407E-18
         6   1 -1.186444E-01  3.559333E-02  3.559333E-02 -1.189551E-17  1.879719E-17 -2.693110E-18
         6   2 -1.186444E-01  3.559333E-02  3.559333E-02  1.007187E-17 -2.438008E-17  6.732775E-19
         6   3 -1.186444E-01  3.559333E-02  3.559333E-02 -1.750615E-17  3.029984E-17 -6.283923E-18
         6   4 -1.186444E-01  3.559333E-02  3.559333E-02  5.218723E-18  1.060494E-17 -6.732775E-19
         6   5 -1.186444E-01  3.559333E-02  3.559333E-02  1.795407E-18  1.004411E-17 -4.488517E-18
         6   6 -1.186444E-01  3.559333E-02  3.559333E-02  1.795407E-18 -3.313315E-17  2.244258E-19
         6   7 -1.186444E-01  3.559333E-02  3.559333E-02  1.203706E-35  2.244446E-17 -3.590813E-18
         6   8 -1.186444E-01  3.559333E-02  3.559333E-02  3.029984E-18  3.001942E-17  1.795407E-18
         7   1 -1.186444E-01  3.559333E-02  3.559333E-02 -8.468824E-20 -9.819218E-19  2.693110E-18
         7   2 -1.186444E-01  3.559333E-02  3.559333E-02 -1.447711E-17 -2.496914E-18 -7.854904E-18
         7   3 -1.186444E-01  3.559333E-02  3.559333E-02  7.545790E-18  4.404768E-18  7.181627E-18
         7   4 -1.186444E-01  3.559333E-02  3.559333E-02 -6.846632E-18  1.728220E-17  6.283923E-18
         7   5 -1.186444E-01  3.559333E-02  3.559333E-02  3.590813E-18 -3.787480E-19  0.000000E+00
         7   6 -1.186444E-01  3.559333E-02  3.559333E-02  3.590813E-18 -1.514992E-18 -7.406053E-18
         7   7 -1.186444E-01  3.559333E-02  3.559333E-02  1.203706E-35  1.711658E-18  1.795407E-18
         7   8 -1.186444E-01  3.559333E-02  3.559333E-02  3.009266E-35  1.761907E-17 -8.079330E-18
         8   1 -1.186444E-01  3.559333E-02  3.559333E-02 -5.667574E-18  5.863771E-18 -2.693110E-18
         8   2 -1.186444E-01  3.559333E-02  3.559333E-02  1.857229E-17  2.833787E-18 -5.835072E-18
         8   3 -1.186444E-01  3.559333E-02  3.559333E-02 -7.294544E-18  1.245681E-17 -4.488517E-18
         8   4 -1.186444E-01  3.559333E-02  3.559333E-02  1.164285E-17  2.609361E-18 -4.488517E-19
         8   5 -1.186444E-01  3.559333E-02  3.559333E-02  1.503700E-17 -2.917066E-18 -8.977033E-18
         8   6 -1.186444E-01  3.559333E-02  3.559333E-02 -1.677783E-17 -5.568302E-18 -8.079330E-18
         8   7 -1.186444E-01  3.559333E-02  3.559333E-02  7.181627E-18 -2.917066E-18 -8.977033E-18
         8   8 -1.186444E-01  3.559333E-02  3.559333E-02 -2.008823E-17  6.930381E-18 -3.590813E-18
         9   1 -1.186444E-01  3.559333E-02  3.559333E-02 -8.977033E-19  2.704543E-17 -8.977033E-19
         9   2 -1.186444E-01  3.559333E-02  3.559333E-02  8.192248E-18 -2.900927E-17  1.570981E-18
         9   3 -1.186444E-01  3.559333E-02  3.559333E-02  3.590813E-18  4.264561E-18 -8.977033E-19
         9   4 -1.186444E-01  3.559333E-02  3.559333E-02  1.343826E-17  5.779553E-18  6.508349E-18
         9   5 -1.186444E-01  3.559333E-02  3.559333E-02 -2.917818E-17  3.091713E-17 -2.693110E-18
         9   6 -1.186444E-01  3.559333E-02  3.559333E-02  4.151643E-18 -2.892505E-17  2.019833E-18
         9   7 -1.186444E-01  3.559333E-02  3.559333E-02 -2.917818E-17 -5.386220E-18 -1.077244E-17
         9   8 -1.186444E-01  3.559333E-02  3.559333E-02  7.181627E-18  1.885365E-17  2.693110E-18

 displacements (vx,vy,vz) for set NALL and time  0.1000000E+01

         1  0.000000E+00  0.000000E+00  0.000000E+00
         2 -6.666667E+01  0.000000E+00  0.000000E+00
         3 -1.333333E+02  0.000000E+00  0.000000E+00
         4 -2.000000E+02  0.000000E+00  0.000000E+00
         5  0.000000E+00  1.833065E+01  0.000000E+00
         6 -6.666667E+01  1.833065E+01  0.000000E+00
         7 -1.333333E+02  1.833065E+01  0.000000E+00
         8 -2.000000E+02  1.833065E+01  0.000000E+00
         9  0.000000E+00  3.666131E+01  0.000000E+00
        10 -6.666667E+01  3.666131E+01  0.000000E+00
        11 -1.333333E+02  3.666131E+01  0.000000E+00
        12 -2.000000E+02  3.666131E+01  0.000000E+00
        13  0.000000E+00  5.499196E+01  0.000000E+00
        14 -6.666667E+01  5.499196E+01  0.000000E+00
        15 -1.333333E+02  5.499196E+01  0.000000E+00
        16 -2.000000E+02  5.499196E+01  0.000000E+00
        17  0.000000E+00  0.000000E+00  2.566292E+01
        18 -6.666667E+01  0.000000E+00  2.566292E+01
        19 -1.333333E+02  0.000000E+00  2.566292E+01
        20 -2.000000E+02  0.000000E+00  2.566292E+01
        21  0.000000E+00  1.833065E+01  2.566292E+01
        22 -6.666667E+01  1.833065E+01  2.566292E+01
        23 -1.333333E+02  1.833065E+01  2.566292E+01
        24 -2.000000E+02  1.833065E+01  2.566292E+01
        25  0.000000E+00  3.666131E+01  2.566292E+01
        26 -6.666667E+01  3.666131E+01  2.566292E+01
        27 -1.333333E+02  3.666131E+01  2.566292E+01
        28 -2.000000E+02  3.666131E+01  2.566292E+01
        29  0.000000E+00  5.499196E+01  2.566292E+01
        30 -6.666667E+01  5.499196E+01  2.566292E+01
        31 -1.333333E+02  5.499196E+01  2.566292E+01
        32 -2.000000E+02  5.499196E+01  2.566292E+01

 stresses (elem, integ.pnt.,sxx,syy,szz,sxy,sxz,syz) for set EALL and time  0.1000000E+01

         1   1 -2.107527E+04  2.098834E-12  5.194361E-31  1.224099E-14 -3.269268E-13 -2.513925E-13
         1   2 -2.107527E+04  4.197668E-12  2.098834E-12  1.224099E-14 -1.146881E-12 -2.723418E-13
         1   3 -2.107527E+04  4.197668E-12  1.221316E-30  4.896397E-14 -1.363446E-13 -5.027849E-13
         1   4 -2.107527E+04  8.395336E-12  4.197668E-12  4.896397E-14 -1.307707E-12 -6.703799E-13
         1   5 -2.107527E+04  2.098834E-12  1.009617E-29 -3.811645E-13 -3.514088E-13 -7.541774E-13
         1   6 -2.107527E+04  2.553163E-30 -2.098834E-12 -1.468919E-13 -1.171363E-12 -2.723418E-13
         1   7 -2.107527E+04  2.098834E-12 -2.098834E-12 -8.218402E-13  1.574392E-13 -1.005570E-12
         1   8 -2.107527E+04  2.612702E-29 -4.197668E-12 -5.875676E-13 -1.013924E-12 -6.703799E-13
         2   1 -2.107527E+04 -2.098834E-12 -4.197668E-12  7.918920E-13 -2.097906E-13 -8.379749E-14
         2   2 -2.107527E+04 -4.197668E-12 -4.197668E-12  4.404832E-13 -5.026312E-13  8.379749E-14
         2   3 -2.107527E+04 -4.197668E-12 -6.296502E-12 -3.849370E-13 -2.244798E-12 -6.703799E-13
         2   4 -2.107527E+04 -8.395336E-12 -8.395336E-12  2.660606E-12  3.377744E-12 -1.256962E-13
         2   5 -2.107527E+04  2.098834E-12  2.352146E-30 -2.448198E-13  5.664730E-13 -2.513925E-13
         2   6 -2.107527E+04  2.914872E-31  2.098834E-12 -1.054730E-14 -1.307707E-12  8.170255E-13
         2   7 -2.107527E+04  4.764623E-29 -2.098834E-12 -9.792794E-13 -1.951014E-12  3.290777E-29
         2   8 -2.107527E+04 -4.197668E-12 -4.197668E-12 -9.792794E-13  3.905800E-12  9.217724E-13
         3   1 -2.107527E+04 -4.197668E-12  9.969482E-30 -1.996590E-12  1.132946E-12  1.675950E-13
         3   2 -2.107527E+04 -8.590125E-30  4.197668E-12  1.751770E-12 -2.498278E-12  2.094937E-14
         3   3 -2.107527E+04  2.098834E-12  4.197668E-12 -2.510712E-12  9.370902E-13  5.027849E-13
         3   4 -2.107527E+04  2.098834E-12  6.296502E-12  1.354785E-12  5.153996E-12  2.094937E-13
         3   5 -2.107527E+04  2.098834E-12  6.296502E-12 -1.972108E-12  8.602568E-13  1.340760E-12
         3   6 -2.107527E+04 -5.632610E-30  4.197668E-12  1.307707E-12 -4.293739E-12 -2.304431E-13
         3   7 -2.107527E+04 -4.197668E-12 -2.098834E-12 -2.265892E-12  3.202982E-12  1.340760E-12
         3   8 -2.107527E+04 -8.395336E-12 -4.197668E-12 -2.265892E-12  3.202982E-12 -2.513925E-13
         4   1 -2.107527E+04  8.974378E-30 -4.197668E-12  2.342725E-13 -3.514088E-13 -6.703799E-13
         4   2 -2.107527E+04  5.889435E-30 -2.098834E-12  1.874180E-12 -1.874180E-12  5.865824E-13
         4   3 -2.107527E+04  8.395336E-12  4.197668E-12  3.841667E-14 -4.685451E-13  6.703799E-13
         4   4 -2.107527E+04  8.395336E-12  6.296502E-12  1.678325E-12 -1.405635E-12 -5.865824E-13
         4   5 -2.107527E+04  2.098834E-12 -2.098834E-12 -7.834235E-13  9.887107E-14  5.027849E-13
         4   6 -2.107527E+04  4.197668E-12 -1.488481E-29 -7.834235E-13 -1.013924E-12  7.261410E-30
         4   7 -2.107527E+04  4.197668E-12 -2.098834E-12 -3.917118E-13 -4.685451E-13  1.340760E-12
         4   8 -2.107527E+04  4.197668E-12 -2.098834E-12 -3.917118E-13 -2.342725E-12  1.875683E-29
         5   1 -2.107527E+04 -4.197668E-12 -4.197668E-12  2.873784E-12  1.318255E-12 -8.379749E-13
         5   2 -2.107527E+04 -2.728116E-28 -1.939839E-29  4.103715E-12 -3.367196E-12  3.770887E-13
         5   3 -2.107527E+04  2.098834E-12 -3.560782E-29  1.398090E-12 -4.489595E-12  6.703799E-13
         5   4 -2.107527E+04  4.197668E-12  4.197668E-12  4.853610E-12 -3.083960E-12  3.351900E-13
         5   5 -2.107527E+04  1.001174E-28 -2.098834E-12 -1.370991E-12  8.218402E-13 -3.351900E-13
         5   6 -2.107527E+04 -2.098834E-12 -6.032317E-29 -3.010899E-12 -3.980747E-12  1.927342E-12
         5   7 -2.107527E+04  2.098834E-12 -6.740394E-29 -3.287361E-12 -4.293739E-12  2.621697E-28
         5   8 -2.107527E+04 -2.098834E-12 -2.098834E-12 -4.224451E-12 -7.683334E-14  1.843545E-12
         6   1 -2.107527E+04 -4.197668E-12  0.000000E+00  2.297149E-12 -1.405635E-12 -1.675950E-13
         6   2 -2.107527E+04 -3.832855E-29  2.098834E-12  2.062876E-12 -2.576998E-12  4.608862E-13
         6   3 -2.107527E+04 -4.197668E-12  0.000000E+00  2.615415E-12 -2.811271E-12 -1.340760E-12
         6   4 -2.107527E+04 -4.197668E-12 -2.098834E-12  2.498278E-12  4.685451E-12 -8.798736E-13
         6   5 -2.107527E+04  6.596257E-29  4.197668E-12 -4.140073E-12 -1.874180E-12  5.027849E-13
         6   6 -2.107527E+04 -4.197668E-12  6.450334E-30  5.453784E-13 -3.514088E-12  9.636711E-13
         6   7 -2.107527E+04  2.098834E-12  4.197668E-12 -4.531784E-12 -9.370902E-13 -6.703799E-13
         6   8 -2.107527E+04 -4.197668E-12 -2.243594E-30  6.222118E-13  4.216906E-12 -3.351900E-13
         7   1 -2.107527E+04  4.943706E-30 -3.365392E-30  3.994297E-13 -7.613858E-13  5.027849E-13
         7   2 -2.107527E+04 -2.098834E-12  7.011233E-31  1.160815E-12 -1.639908E-12 -1.675950E-13
         7   3 -2.107527E+04  4.197668E-12  2.098834E-12 -3.350299E-13 -1.363446E-13  3.351900E-13
         7   4 -2.107527E+04  2.098834E-12 -2.098834E-12  4.263559E-13 -3.706172E-13  1.634051E-12
         7   5 -2.107527E+04 -2.098834E-12 -6.296502E-12 -3.532951E-13 -4.877534E-13  1.675950E-13
         7   6 -2.107527E+04 -4.197668E-12 -4.197668E-12  2.223703E-12 -2.479070E-12 -3.770887E-13
         7   7 -2.107527E+04  6.296502E-12  2.098834E-12  2.342725E-13 -2.342725E-13 -6.703799E-13
         7   8 -2.107527E+04  2.098834E-12 -2.243594E-29  2.811271E-12 -1.405635E-12  6.703799E-13
         8   1 -2.107527E+04  2.098834E-12  2.098834E-12 -4.271262E-13 -6.677884E-13  6.703799E-13
         8   2 -2.107527E+04  6.296502E-12  8.395336E-12 -1.832761E-12 -6.231761E-12  1.256962E-13
         8   3 -2.107527E+04 -4.687331E-29 -2.098834E-12  1.244424E-12 -1.678325E-12 -8.379749E-13
         8   4 -2.107527E+04  1.139647E-29  2.098834E-12  1.901971E-13  1.132946E-12  2.932912E-13
         8   5 -2.107527E+04 -8.395336E-12 -4.197668E-12  1.202234E-12 -1.052340E-12 -3.351900E-13
         8   6 -2.107527E+04 -4.197668E-12 -1.764468E-28  1.905052E-12 -7.846244E-12 -6.703799E-13
         8   7 -2.107527E+04 -4.197668E-12 -6.296502E-12  4.209361E-12 -1.244424E-12 -6.703799E-13
         8   8 -2.107527E+04 -4.197668E-12 -2.098834E-12  1.866635E-12  2.269665E-12  1.173165E-12
         9   1 -2.107527E+04 -4.197668E-12 -4.197668E-12 -9.370902E-13 -1.356671E-12 -1.005570E-12
         9   2 -2.107527E+04 -8.395336E-12 -4.197668E-12 -1.757044E-12 -6.538537E-13 -2.723418E-12
         9   3 -2.107527E+04  4.197668E-12  4.197668E-12 -9.370902E-13  1.035018E-12 -1.508355E-12
         9   4 -2.107527E+04  4.197668E-12  4.197668E-12 -1.639908E-12  1.972108E-12 -2.513925E-13
         9   5 -2.107527E+04  2.098834E-12  4.197668E-12  2.964937E-12 -2.146870E-12 -5.027849E-13
         9   6 -2.107527E+04  4.197668E-12  4.197668E-12  1.090757E-12 -6.012367E-12 -2.011140E-12
         9   7 -2.107527E+04 -8.395336E-12 -8.395336E-12  3.748361E-12  3.917118E-13 -1.340760E-12
         9   8 -2.107527E+04 -6.296502E-12 -4.197668E-12  2.342725E-12  8.602568E-13  3.351900E-13

 strains (elem, integ.pnt.,exx,eyy,ezz,exy,exz,eyz) forset EALL and time  0.1000000E+01

         1   1 -1.244444E-01  3.733333E-02  3.733333E-02  1.123950E-19 -2.030350E-18 -1.348741E-18
         1   2 -1.244444E-01  3.733333E-02  3.733333E-02  1.123950E-19 -7.292345E-18 -1.461136E-18
         1   3 -1.244444E-01  3.733333E-02  3.733333E-02  4.495802E-19 -6.042667E-19 -2.697481E-18
         1   4 -1.244444E-01  3.733333E-02  3.733333E-02  4.495802E-19 -8.121402E-18 -3.596641E-18
         1   5 -1.244444E-01  3.733333E-02  3.733333E-02 -2.852168E-18 -2.255141E-18 -4.046222E-18
         1   6 -1.244444E-01  3.733333E-02  3.733333E-02 -1.348741E-18 -7.517135E-18 -1.461136E-18
         1   7 -1.244444E-01  3.733333E-02  3.733333E-02 -6.898389E-18  2.093214E-18 -5.394962E-18
         1   8 -1.244444E-01  3.733333E-02  3.733333E-02 -5.394962E-18 -5.423921E-18 -3.596641E-18
         2   1 -1.244444E-01  3.733333E-02  3.733333E-02  4.032889E-18 -1.278637E-18 -4.495802E-19
         2   2 -1.244444E-01  3.733333E-02  3.733333E-02  1.777748E-18 -3.157921E-18  4.495802E-19
         2   3 -1.244444E-01  3.733333E-02  3.733333E-02 -6.124957E-18 -1.413511E-17 -3.596641E-18
         2   4 -1.244444E-01  3.733333E-02  3.733333E-02  1.341959E-17  2.194714E-17 -6.743703E-19
         2   5 -1.244444E-01  3.733333E-02  3.733333E-02 -2.247901E-18  3.906014E-18 -1.348741E-18
         2   6 -1.244444E-01  3.733333E-02  3.733333E-02 -7.444739E-19 -8.121402E-18  4.383407E-18
         2   7 -1.244444E-01  3.733333E-02  3.733333E-02 -8.991604E-18 -1.143763E-17 -4.814825E-35
         2   8 -1.244444E-01  3.733333E-02  3.733333E-02 -8.991604E-18  2.614805E-17  4.945382E-18
         3   1 -1.244444E-01  3.733333E-02  3.733333E-02 -1.315137E-17  7.812029E-18  8.991604E-19
         3   2 -1.244444E-01  3.733333E-02  3.733333E-02  1.090347E-17 -1.549109E-17  1.123950E-19
         3   3 -1.244444E-01  3.733333E-02  3.733333E-02 -1.787196E-17  6.013708E-18  2.697481E-18
         3   4 -1.244444E-01  3.733333E-02  3.733333E-02  6.934587E-18  3.307539E-17  1.123950E-18
         3   5 -1.244444E-01  3.733333E-02  3.733333E-02 -1.292658E-17  6.603495E-18  7.193283E-18
         3   6 -1.244444E-01  3.733333E-02  3.733333E-02  8.121402E-18 -2.647190E-17 -1.236345E-18
         3   7 -1.244444E-01  3.733333E-02  3.733333E-02 -1.562406E-17  2.163777E-17  7.193283E-18
         3   8 -1.244444E-01  3.733333E-02  3.733333E-02 -1.562406E-17  2.163777E-17 -1.348741E-18
         4   1 -1.244444E-01  3.733333E-02  3.733333E-02  1.503427E-18 -2.255141E-18 -3.596641E-18
         4   2 -1.244444E-01  3.733333E-02  3.733333E-02  1.202742E-17 -1.202742E-17  3.147061E-18
         4   3 -1.244444E-01  3.733333E-02  3.733333E-02 -2.948937E-19 -3.006854E-18  3.596641E-18
         4   4 -1.244444E-01  3.733333E-02  3.733333E-02  1.022910E-17 -9.020562E-18 -3.147061E-18
         4   5 -1.244444E-01  3.733333E-02  3.733333E-02 -7.193283E-18  1.717358E-18  2.697481E-18
         4   6 -1.244444E-01  3.733333E-02  3.733333E-02 -7.193283E-18 -5.423921E-18  0.000000E+00
         4   7 -1.244444E-01  3.733333E-02  3.733333E-02 -3.596641E-18 -3.006854E-18  7.193283E-18
         4   8 -1.244444E-01  3.733333E-02  3.733333E-02 -3.596641E-18 -1.503427E-17  0.000000E+00
         5   1 -1.244444E-01  3.733333E-02  3.733333E-02  1.343407E-17  8.865876E-18 -4.495802E-18
         5   2 -1.244444E-01  3.733333E-02  3.733333E-02  2.132707E-17 -2.120266E-17  2.023111E-18
         5   3 -1.244444E-01  3.733333E-02  3.733333E-02  2.474984E-18 -2.827022E-17  3.596641E-18
         5   4 -1.244444E-01  3.733333E-02  3.733333E-02  2.465053E-17 -1.924966E-17  1.798321E-18
         5   5 -1.244444E-01  3.733333E-02  3.733333E-02 -1.258824E-17  6.898389E-18 -1.798321E-18
         5   6 -1.244444E-01  3.733333E-02  3.733333E-02 -2.311223E-17 -2.392186E-17  1.034034E-17
         5   7 -1.244444E-01  3.733333E-02  3.733333E-02 -2.759356E-17 -2.647190E-17  4.092601E-34
         5   8 -1.244444E-01  3.733333E-02  3.733333E-02 -3.360726E-17  5.897874E-19  9.890764E-18
         6   1 -1.244444E-01  3.733333E-02  3.733333E-02  1.332053E-17 -9.020562E-18 -8.991604E-19
         6   2 -1.244444E-01  3.733333E-02  3.733333E-02  1.181711E-17 -1.653770E-17  2.472691E-18
         6   3 -1.244444E-01  3.733333E-02  3.733333E-02  1.624280E-17 -1.804112E-17 -7.193283E-18
         6   4 -1.244444E-01  3.733333E-02  3.733333E-02  1.549109E-17  3.006854E-17 -4.720592E-18
         6   5 -1.244444E-01  3.733333E-02  3.733333E-02 -2.765147E-17 -1.202742E-17  2.697481E-18
         6   6 -1.244444E-01  3.733333E-02  3.733333E-02  2.417067E-18 -2.255141E-17  5.170172E-18
         6   7 -1.244444E-01  3.733333E-02  3.733333E-02 -3.124812E-17 -6.013708E-18 -3.596641E-18
         6   8 -1.244444E-01  3.733333E-02  3.733333E-02  1.827279E-18  2.706169E-17 -1.798321E-18
         7   1 -1.244444E-01  3.733333E-02  3.733333E-02  1.886523E-18 -4.886138E-18  2.697481E-18
         7   2 -1.244444E-01  3.733333E-02  3.733333E-02  6.772661E-18 -1.052399E-17 -8.991604E-19
         7   3 -1.244444E-01  3.733333E-02  3.733333E-02 -4.857179E-18 -6.042667E-19  1.798321E-18
         7   4 -1.244444E-01  3.733333E-02  3.733333E-02  2.895854E-20 -2.107694E-18  8.766813E-18
         7   5 -1.244444E-01  3.733333E-02  3.733333E-02 -3.891535E-18 -2.859407E-18  8.991604E-19
         7   6 -1.244444E-01  3.733333E-02  3.733333E-02  1.264616E-17 -1.563854E-17 -2.023111E-18
         7   7 -1.244444E-01  3.733333E-02  3.733333E-02  1.503427E-18 -1.503427E-18 -3.596641E-18
         7   8 -1.244444E-01  3.733333E-02  3.733333E-02  1.804112E-17 -9.020562E-18  3.596641E-18
         8   1 -1.244444E-01  3.733333E-02  3.733333E-02 -9.102852E-18 -3.541017E-18  3.596641E-18
         8   2 -1.244444E-01  3.733333E-02  3.733333E-02 -1.812341E-17 -3.924741E-17  6.743703E-19
         8   3 -1.244444E-01  3.733333E-02  3.733333E-02  3.654558E-18 -1.022910E-17 -4.495802E-18
         8   4 -1.244444E-01  3.733333E-02  3.733333E-02 -3.110863E-18  7.812029E-18  1.573531E-18
         8   5 -1.244444E-01  3.733333E-02  3.733333E-02  6.766630E-19 -5.129027E-18 -1.798321E-18
         8   6 -1.244444E-01  3.733333E-02  3.733333E-02  5.186944E-18 -4.872841E-17 -3.596641E-18
         8   7 -1.244444E-01  3.733333E-02  3.733333E-02  2.051611E-17 -3.654558E-18 -3.596641E-18
         8   8 -1.244444E-01  3.733333E-02  3.733333E-02  5.481838E-18  1.889685E-17  6.294122E-18
         9   1 -1.244444E-01  3.733333E-02  3.733333E-02 -6.013708E-18 -8.570982E-18 -5.394962E-18
         9   2 -1.244444E-01  3.733333E-02  3.733333E-02 -1.127570E-17 -4.060701E-18 -1.461136E-17
         9   3 -1.244444E-01  3.733333E-02  3.733333E-02 -6.013708E-18  6.912868E-18 -8.092443E-18
         9   4 -1.244444E-01  3.733333E-02  3.733333E-02 -1.052399E-17  1.292658E-17 -1.348741E-18
         9   5 -1.244444E-01  3.733333E-02  3.733333E-02  1.686155E-17 -1.323595E-17 -2.697481E-18
         9   6 -1.244444E-01  3.733333E-02  3.733333E-02  4.834133E-18 -3.804250E-17 -1.078992E-17
         9   7 -1.244444E-01  3.733333E-02  3.733333E-02  2.405483E-17  3.596641E-18 -7.193283E-18
         9   8 -1.244444E-01  3.733333E-02  3.733333E-02  1.503427E-17  6.603495E-18  1.798321E-18
