
 displacements (vx,vy,vz) for set NALL and time  0.5000000E-01

         1  0.000000E+00  0.000000E+00  0.000000E+00
         2  1.466001E+00  0.000000E+00  0.000000E+00
         3  0.000000E+00 -4.837625E-01  0.000000E+00
         4  1.064358E+00 -3.895205E-01  0.000000E+00
         5  0.000000E+00  0.000000E+00 -4.564197E-01
         6  1.440329E+00  0.000000E+00 -4.442750E-01
         7  0.000000E+00 -5.036753E-01 -3.688195E-01
         8  1.065245E+00 -4.351311E-01 -3.599452E-01

 stresses (elem, integ.pnt.,sxx,syy,szz,sxy,sxz,syz) for set EALL and time  0.5000000E-01

         1   1  5.349041E+02 -2.089603E+01  2.278764E+01 -1.121873E+02  8.942266E-01  2.026909E+00
         1   2  5.034161E+02 -1.138634E+01  1.821413E+01 -1.441264E+02 -4.704200E-01  1.608575E+00
         1   3  4.168413E+02 -7.423851E+01 -1.332130E+01 -9.158277E+01  1.209652E+00  3.655578E-01
         1   4  3.851940E+02 -6.494281E+01 -1.833874E+01 -1.234888E+02  8.722395E-01 -1.040507E+00
         1   5  5.262627E+02 -3.040075E+01  1.736080E+01 -1.123289E+02  4.675977E+00  9.244679E+00
         1   6  4.945420E+02 -2.470119E+01  1.157214E+01 -1.433866E+02  3.243921E+00  8.661816E+00
         1   7  4.136571E+02 -8.007440E+01 -1.602654E+01 -9.352809E+01  4.822870E+00  7.643836E+00
         1   8  3.817750E+02 -7.458649E+01 -2.225989E+01 -1.245556E+02  4.418016E+00  6.073447E+00

 strains (elem, integ.pnt.,exx,eyy,ezz,exy,exz,eyz) forset EALL and time  0.5000000E-01

         1   1  2.533113E-03 -8.934297E-04 -6.219309E-04 -6.932609E-04  5.511752E-06  1.259808E-05
         1   2  2.376413E-03 -7.966038E-04 -6.124897E-04 -8.909947E-04 -2.915649E-06  9.999416E-06
         1   3  2.102479E-03 -9.286098E-04 -5.502912E-04 -5.665753E-04  7.460098E-06  2.291333E-06
         1   4  1.945850E-03 -8.318544E-04 -5.424055E-04 -7.642250E-04  5.372184E-06 -6.432718E-06
         1   5  2.513525E-03 -9.187643E-04 -6.219309E-04 -6.941620E-04  2.886065E-05  5.744972E-05
         1   6  2.362896E-03 -8.380538E-04 -6.124897E-04 -8.864850E-04  2.006124E-05  5.382781E-05
         1   7  2.099570E-03 -9.480853E-04 -5.502912E-04 -5.785625E-04  2.978741E-05  4.751882E-05
         1   8  1.949005E-03 -8.674392E-04 -5.424055E-04 -7.708088E-04  2.732765E-05  3.777200E-05

 displacements (vx,vy,vz) for set NALL and time  0.1000000E+00

         1  0.000000E+00  0.000000E+00  0.000000E+00
         2  2.915554E+00  0.000000E+00  0.000000E+00
         3  0.000000E+00 -9.651409E-01  0.000000E+00
         4  2.118713E+00 -7.787446E-01  0.000000E+00
         5  0.000000E+00  0.000000E+00 -9.089743E-01
         6  2.864855E+00  0.000000E+00 -8.849619E-01
         7  0.000000E+00 -1.004891E+00 -7.345915E-01
         8  2.120431E+00 -8.695497E-01 -7.171334E-01

 stresses (elem, integ.pnt.,sxx,syy,szz,sxy,sxz,syz) for set EALL and time  0.1000000E+00

         1   1  1.070038E+03 -4.171698E+01  4.524265E+01 -2.240935E+02  1.785903E+00  4.017289E+00
         1   2  1.007240E+03 -2.291227E+01  3.610713E+01 -2.876213E+02 -9.225945E-01  3.192882E+00
         1   3  8.337982E+02 -1.475639E+02 -2.639174E+01 -1.828745E+02  2.410663E+00  7.141660E-01
         1   4  7.707380E+02 -1.292368E+02 -3.642410E+01 -2.462718E+02  1.740759E+00 -2.071251E+00
         1   5  1.052821E+03 -6.057311E+01  3.448740E+01 -2.243735E+02  9.313814E+00  1.832729E+01
         1   6  9.895509E+02 -4.933453E+01  2.293124E+01 -2.861467E+02  6.456145E+00  1.717491E+01
         1   7  8.274492E+02 -1.591613E+02 -3.177263E+01 -1.867608E+02  9.594711E+00  1.514596E+01
         1   8  7.639085E+02 -1.483911E+02 -4.422862E+01 -2.484148E+02  8.775521E+00  1.203338E+01

 strains (elem, integ.pnt.,exx,eyy,ezz,exy,exz,eyz) forset EALL and time  0.1000000E+00

         1   1  5.045332E-03 -1.780886E-03 -1.238291E-03 -1.382339E-03  1.096075E-05  2.506883E-05
         1   2  4.733653E-03 -1.588483E-03 -1.219650E-03 -1.775669E-03 -5.725317E-06  1.993004E-05
         1   3  4.188913E-03 -1.850699E-03 -1.095770E-03 -1.130602E-03  1.481148E-05  4.533265E-06
         1   4  3.877511E-03 -1.658574E-03 -1.080243E-03 -1.523601E-03  1.066791E-05 -1.278812E-05
         1   5  5.006554E-03 -1.831394E-03 -1.238291E-03 -1.384168E-03  5.731667E-05  1.143275E-04
         1   6  4.706891E-03 -1.671047E-03 -1.219650E-03 -1.766816E-03  3.988625E-05  1.071398E-04
         1   7  4.183141E-03 -1.889560E-03 -1.095770E-03 -1.154442E-03  5.912507E-05  9.455154E-05
         1   8  3.883732E-03 -1.729467E-03 -1.080243E-03 -1.536787E-03  5.423775E-05  7.518308E-05

 displacements (vx,vy,vz) for set NALL and time  0.1500000E+00

         1  0.000000E+00  0.000000E+00  0.000000E+00
         2  4.349049E+00  0.000000E+00  0.000000E+00
         3  0.000000E+00 -1.444178E+00  0.000000E+00
         4  3.163259E+00 -1.167631E+00  0.000000E+00
         5  0.000000E+00  0.000000E+00 -1.357743E+00
         6  4.273941E+00  0.000000E+00 -1.322132E+00
         7  0.000000E+00 -1.503692E+00 -1.097369E+00
         8  3.165753E+00 -1.303231E+00 -1.071610E+00

 stresses (elem, integ.pnt.,sxx,syy,szz,sxy,sxz,syz) for set EALL and time  0.1500000E+00

         1   1  1.605392E+03 -6.246040E+01  6.737470E+01 -3.357234E+02  2.675005E+00  5.972297E+00
         1   2  1.511459E+03 -3.456380E+01  5.369038E+01 -4.304976E+02 -1.357515E+00  4.753467E+00
         1   3  1.250861E+03 -2.199999E+02 -3.921975E+01 -2.738797E+02  3.603225E+00  1.046356E+00
         1   4  1.156617E+03 -1.928915E+02 -5.426250E+01 -3.683645E+02  2.605408E+00 -3.092805E+00
         1   5  1.579661E+03 -9.051971E+01  5.138565E+01 -3.361388E+02  1.391458E+01  2.725305E+01
         1   6  1.485011E+03 -7.389282E+01  3.408458E+01 -4.282933E+02  9.637241E+00  2.554379E+01
         1   7  1.241366E+03 -2.372860E+02 -4.724770E+01 -2.797031E+02  1.431689E+01  2.251083E+01
         1   8  1.146386E+03 -2.214270E+02 -6.591386E+01 -3.715930E+02  1.307403E+01  1.788304E+01

 strains (elem, integ.pnt.,exx,eyy,ezz,exy,exz,eyz) forset EALL and time  0.1500000E+00

         1   1  7.537074E-03 -2.662482E-03 -1.849192E-03 -2.067296E-03  1.634818E-05  3.741610E-05
         1   2  7.072092E-03 -2.375702E-03 -1.821587E-03 -2.654138E-03 -8.435013E-06  2.979282E-05
         1   3  6.259589E-03 -2.766401E-03 -1.636525E-03 -1.692088E-03  2.205711E-05  6.727366E-06
         1   4  5.795221E-03 -2.480237E-03 -1.613594E-03 -2.278197E-03  1.588820E-05 -1.906995E-05
         1   5  7.479489E-03 -2.738005E-03 -1.849192E-03 -2.070079E-03  8.537946E-05  1.706511E-04
         1   6  7.032349E-03 -2.499054E-03 -1.821587E-03 -2.641101E-03  5.947912E-05  1.599506E-04
         1   7  6.250997E-03 -2.824560E-03 -1.636525E-03 -1.727648E-03  8.802585E-05  1.411135E-04
         1   8  5.804418E-03 -2.586170E-03 -1.613594E-03 -2.298002E-03  8.074116E-05  1.122430E-04

 displacements (vx,vy,vz) for set NALL and time  0.2000000E+00

         1  0.000000E+00  0.000000E+00  0.000000E+00
         2  5.766863E+00  0.000000E+00  0.000000E+00
         3  0.000000E+00 -1.920921E+00  0.000000E+00
         4  4.198205E+00 -1.556192E+00  0.000000E+00
         5  0.000000E+00  0.000000E+00 -1.802800E+00
         6  5.667938E+00  0.000000E+00 -1.755847E+00
         7  0.000000E+00 -2.000124E+00 -1.457210E+00
         8  4.201417E+00 -1.736196E+00 -1.423419E+00

 stresses (elem, integ.pnt.,sxx,syy,szz,sxy,sxz,syz) for set EALL and time  0.2000000E+00

         1   1  2.140955E+03 -8.312768E+01  8.919291E+01 -4.470833E+02  3.561595E+00  7.892818E+00
         1   2  2.016056E+03 -4.634325E+01  7.097106E+01 -5.727697E+02 -1.776033E+00  6.290761E+00
         1   3  1.668031E+03 -2.915660E+02 -5.181068E+01 -3.646092E+02  4.787611E+00  1.362668E+00
         1   4  1.542823E+03 -2.559248E+02 -7.186061E+01 -4.897882E+02  3.466012E+00 -4.105388E+00
         1   5  2.106773E+03 -1.202458E+02  6.806146E+01 -4.476314E+02  1.847963E+01  3.602587E+01
         1   6  1.980906E+03 -9.838317E+01  4.503611E+01 -5.698408E+02  1.278815E+01  3.377198E+01
         1   7  1.655408E+03 -3.144694E+02 -6.245802E+01 -3.723656E+02  1.899120E+01  2.974186E+01
         1   8  1.529198E+03 -2.937148E+02 -8.732321E+01 -4.941109E+02  1.731541E+01  2.362511E+01

 strains (elem, integ.pnt.,exx,eyy,ezz,exy,exz,eyz) forset EALL and time  0.2000000E+00

         1   1  1.000876E-02 -3.538344E-03 -2.454742E-03 -2.748201E-03  2.167566E-05  4.964220E-05
         1   2  9.392112E-03 -3.158390E-03 -2.418394E-03 -3.526520E-03 -1.104990E-05  3.958805E-05
         1   3  8.314823E-03 -3.675849E-03 -2.172647E-03 -2.251080E-03  2.920036E-05  8.875341E-06
         1   4  7.699251E-03 -3.296971E-03 -2.142538E-03 -3.028117E-03  2.103385E-05 -2.527978E-05
         1   5  9.932733E-03 -3.638725E-03 -2.454742E-03 -2.751962E-03  1.130619E-04  2.264308E-04
         1   6  9.339638E-03 -3.322206E-03 -2.418394E-03 -3.509454E-03  7.884613E-05  2.122692E-04
         1   7  8.303448E-03 -3.753214E-03 -2.172647E-03 -2.298232E-03  1.165050E-04  1.872139E-04
         1   8  7.711337E-03 -3.437678E-03 -2.142538E-03 -3.054552E-03  1.068507E-04  1.489585E-04

 displacements (vx,vy,vz) for set NALL and time  0.2500000E+00

         1  0.000000E+00  0.000000E+00  0.000000E+00
         2  7.169360E+00  0.000000E+00  0.000000E+00
         3  0.000000E+00 -2.395413E+00  0.000000E+00
         4  5.223747E+00 -1.944425E+00  0.000000E+00
         5  0.000000E+00  0.000000E+00 -2.244217E+00
         6  7.047184E+00  0.000000E+00 -2.186168E+00
         7  0.000000E+00 -2.494232E+00 -1.814169E+00
         8  5.227620E+00 -2.168452E+00 -1.772602E+00

 stresses (elem, integ.pnt.,sxx,syy,szz,sxy,sxz,syz) for set EALL and time  0.2500000E+00

         1   1  2.676720E+03 -1.037193E+02  1.107061E+02 -5.581792E+02  4.445718E+00  9.779760E+00
         1   2  2.521018E+03 -5.824893E+01  8.795699E+01 -7.144508E+02 -2.178973E+00  7.805209E+00
         1   3  2.085305E+03 -3.622818E+02 -6.417037E+01 -4.550718E+02  5.964065E+00  1.663609E+00
         1   4  1.929347E+03 -3.183519E+02 -8.922472E+01 -6.105616E+02  4.322424E+00 -5.109293E+00
         1   5  2.634146E+03 -1.497556E+02  8.452044E+01 -5.588573E+02  2.301020E+01  4.464979E+01
         1   6  2.477220E+03 -1.228089E+02  5.579036E+01 -7.108023E+02  1.590970E+01  4.186305E+01
         1   7  2.069570E+03 -3.907325E+02 -7.741029E+01 -4.647574E+02  2.361925E+01  3.684250E+01
         1   8  1.912337E+03 -3.652720E+02 -1.084639E+02 -6.159869E+02  2.150135E+01  2.926226E+01

 strains (elem, integ.pnt.,exx,eyy,ezz,exy,exz,eyz) forset EALL and time  0.2500000E+00

         1   1  1.246079E-02 -4.408592E-03 -3.055041E-03 -3.425121E-03  2.694465E-05  6.174973E-05
         1   2  1.169408E-02 -3.936655E-03 -3.010166E-03 -4.392931E-03 -1.357498E-05  4.931625E-05
         1   3  1.035491E-02 -4.579169E-03 -2.704222E-03 -2.807612E-03  3.624433E-05  1.097877E-05
         1   4  9.589855E-03 -4.108886E-03 -2.667150E-03 -3.773450E-03  2.610570E-05 -3.141962E-05
         1   5  1.236667E-02 -4.533675E-03 -3.055041E-03 -3.429880E-03  1.403757E-04  2.816781E-04
         1   6  1.162911E-02 -4.140617E-03 -3.010166E-03 -4.371981E-03  9.799278E-05  2.641056E-04
         1   7  1.034078E-02 -4.675649E-03 -2.704222E-03 -2.866230E-03  1.445762E-04  2.328629E-04
         1   8  9.604738E-03 -4.284104E-03 -2.667150E-03 -3.806527E-03  1.325781E-04  1.853364E-04

 displacements (vx,vy,vz) for set NALL and time  0.3000000E+00

         1  0.000000E+00  0.000000E+00  0.000000E+00
         2  8.556888E+00  0.000000E+00  0.000000E+00
         3  0.000000E+00 -2.867697E+00  0.000000E+00
         4  6.240077E+00 -2.332330E+00  0.000000E+00
         5  0.000000E+00  0.000000E+00 -2.682064E+00
         6  8.412005E+00  0.000000E+00 -2.613154E+00
         7  0.000000E+00 -2.986057E+00 -2.168298E+00
         8  6.244548E+00 -2.600010E+00 -2.119199E+00

 stresses (elem, integ.pnt.,sxx,syy,szz,sxy,sxz,syz) for set EALL and time  0.3000000E+00

         1   1  3.212677E+03 -1.242357E+02  1.319226E+02 -6.690165E+02  5.327417E+00  1.163399E+01
         1   2  3.026331E+03 -7.027916E+01  1.046557E+02 -8.555537E+02 -2.567116E+00  9.297247E+00
         1   3  2.502680E+03 -4.321665E+02 -7.630440E+01 -5.452761E+02  7.132823E+00  1.949663E+00
         1   4  2.316180E+03 -3.801873E+02 -1.063609E+02 -7.307028E+02  5.174512E+00 -6.104797E+00
         1   5  3.161770E+03 -1.790536E+02  1.007680E+02 -6.698222E+02  2.750747E+01  5.312867E+01
         1   6  2.973939E+03 -1.471731E+02  6.635174E+01 -8.511909E+02  1.900268E+01  4.982043E+01
         1   7  2.483851E+03 -4.660956E+02 -9.211096E+01 -5.568869E+02  2.820257E+01  4.381611E+01
         1   8  2.295792E+03 -4.361159E+02 -1.293429E+02 -7.372386E+02  2.563349E+01  3.479705E+01

 strains (elem, integ.pnt.,exx,eyy,ezz,exy,exz,eyz) forset EALL and time  0.3000000E+00

         1   1  1.489354E-02 -5.273340E-03 -3.650190E-03 -4.098119E-03  3.215656E-05  7.374118E-05
         1   2  1.397834E-02 -4.710601E-03 -3.596992E-03 -5.253479E-03 -1.601500E-05  5.897794E-05
         1   3  1.238013E-02 -5.476482E-03 -3.231332E-03 -3.361720E-03  4.319199E-05  1.303916E-05
         1   4  1.146728E-02 -4.916088E-03 -3.187502E-03 -4.514284E-03  3.110460E-05 -3.749137E-05
         1   5  1.478167E-02 -5.422968E-03 -3.650190E-03 -4.103897E-03  1.673322E-04  3.364043E-04
         1   6  1.390111E-02 -4.954395E-03 -3.596992E-03 -5.228786E-03  1.169243E-04  3.154693E-04
         1   7  1.236329E-02 -5.591986E-03 -3.231332E-03 -3.431681E-03  1.722529E-04  2.780704E-04
         1   8  1.148487E-02 -5.125558E-03 -3.187502E-03 -4.554012E-03  1.579345E-04  2.213838E-04

 displacements (vx,vy,vz) for set NALL and time  0.3500000E+00

         1  0.000000E+00  0.000000E+00  0.000000E+00
         2  9.929785E+00  0.000000E+00  0.000000E+00
         3  0.000000E+00 -3.337814E+00  0.000000E+00
         4  7.247376E+00 -2.719908E+00  0.000000E+00
         5  0.000000E+00  0.000000E+00 -3.116407E+00
         6  9.762715E+00  0.000000E+00 -3.036864E+00
         7  0.000000E+00 -3.475641E+00 -2.519647E+00
         8  7.252387E+00 -3.030878E+00 -2.463249E+00

 stresses (elem, integ.pnt.,sxx,syy,szz,sxy,sxz,syz) for set EALL and time  0.3500000E+00

         1   1  3.748818E+03 -1.446773E+02  1.528507E+02 -7.796009E+02  6.206739E+00  1.345635E+01
         1   2  3.531983E+03 -8.243228E+01  1.210744E+02 -9.960909E+02 -2.941200E+00  1.076730E+01
         1   3  2.920156E+03 -5.012382E+02 -8.821816E+01 -6.352303E+02  8.294112E+00  2.221293E+00
         1   4  2.703313E+03 -4.414450E+02 -1.232749E+02 -8.502293E+02  6.022158E+00 -7.092166E+00
         1   5  3.689634E+03 -2.081437E+02  1.168094E+02 -7.805317E+02  3.197257E+01  6.146620E+01
         1   6  3.471049E+03 -1.714789E+02  7.672449E+01 -9.910189E+02  2.206786E+01  5.764742E+01
         1   7  2.898247E+03 -5.405782E+02 -1.065662E+02 -6.487625E+02  3.274265E+01  5.066589E+01
         1   8  2.679555E+03 -5.062629E+02 -1.499670E+02 -8.578832E+02  2.971340E+01  4.023195E+01

 strains (elem, integ.pnt.,exx,eyy,ezz,exy,exz,eyz) forset EALL and time  0.3500000E+00

         1   1  1.730740E-02 -6.132700E-03 -4.240285E-03 -4.767258E-03  3.731272E-05  8.561895E-05
         1   2  1.624524E-02 -5.480329E-03 -4.178961E-03 -6.108272E-03 -1.837448E-05  6.857369E-05
         1   3  1.439077E-02 -6.367909E-03 -3.754058E-03 -3.913438E-03  5.004620E-05  1.505796E-05
         1   4  1.333175E-02 -5.718680E-03 -3.703667E-03 -5.250706E-03  3.603142E-05 -4.349684E-05
         1   5  1.717809E-02 -6.306719E-03 -4.240285E-03 -4.774072E-03  1.939423E-04  3.906200E-04
         1   6  1.615596E-02 -5.763645E-03 -4.178961E-03 -6.079971E-03  1.356459E-04  3.663698E-04
         1   7  1.437122E-02 -6.502344E-03 -3.754058E-03 -3.994619E-03  1.995475E-04  3.228460E-04
         1   8  1.335196E-02 -5.962146E-03 -3.703667E-03 -5.297088E-03  1.829308E-04  2.571071E-04

 displacements (vx,vy,vz) for set NALL and time  0.4000000E+00

         1  0.000000E+00  0.000000E+00  0.000000E+00
         2  1.128838E+01  0.000000E+00  0.000000E+00
         3  0.000000E+00 -3.805805E+00  0.000000E+00
         4  8.245824E+00 -3.107158E+00  0.000000E+00
         5  0.000000E+00  0.000000E+00 -3.547312E+00
         6  1.109962E+01  0.000000E+00 -3.457351E+00
         7  0.000000E+00 -3.963023E+00 -2.868265E+00
         8  8.251311E+00 -3.461066E+00 -2.804792E+00

 stresses (elem, integ.pnt.,sxx,syy,szz,sxy,sxz,syz) for set EALL and time  0.4000000E+00

         1   1  4.285136E+03 -1.650448E+02  1.734981E+02 -8.899374E+02  7.083732E+00  1.524764E+01
         1   2  4.037961E+03 -9.470667E+01  1.372201E+02 -1.136074E+03 -3.301926E+00  1.221578E+01
         1   3  3.337730E+03 -5.695146E+02 -9.991682E+01 -7.249423E+02  9.448154E+00  2.478941E+00
         1   4  3.090737E+03 -5.021384E+02 -1.399725E+02 -9.691578E+02  6.865254E+00 -8.071656E+00
         1   5  4.217730E+03 -2.370300E+02  1.326498E+02 -8.909913E+02  3.640661E+01  6.966597E+01
         1   6  3.968537E+03 -1.957290E+02  8.691270E+01 -1.130298E+03  2.510601E+01  6.534720E+01
         1   7  3.312756E+03 -6.141992E+02 -1.207820E+02 -7.403921E+02  3.724092E+01  5.739493E+01
         1   8  3.063617E+03 -5.757289E+02 -1.703425E+02 -9.779372E+02  3.374260E+01  4.556934E+01

 strains (elem, integ.pnt.,exx,eyy,ezz,exy,exz,eyz) forset EALL and time  0.4000000E+00

         1   1  1.970272E-02 -6.986779E-03 -4.825419E-03 -5.432597E-03  4.241444E-05  9.738540E-05
         1   2  1.849511E-02 -6.245935E-03 -4.756156E-03 -6.957412E-03 -2.065766E-05  7.810406E-05
         1   3  1.638709E-02 -7.253563E-03 -4.272477E-03 -4.462799E-03  5.680968E-05  1.703655E-05
         1   4  1.518351E-02 -6.516762E-03 -4.215713E-03 -5.982795E-03  4.088701E-05 -4.943779E-05
         1   5  1.955629E-02 -7.185034E-03 -4.825419E-03 -5.440463E-03  2.202163E-04  4.443357E-04
         1   6  1.839397E-02 -6.568468E-03 -4.756156E-03 -6.925632E-03  1.541624E-04  4.168161E-04
         1   7  1.636486E-02 -7.406835E-03 -4.272477E-03 -4.555080E-03  2.264723E-04  3.671988E-04
         1   8  1.520625E-02 -6.793970E-03 -4.215713E-03 -6.035836E-03  2.075772E-04  2.925129E-04

 displacements (vx,vy,vz) for set NALL and time  0.4500000E+00

         1  0.000000E+00  0.000000E+00  0.000000E+00
         2  1.263297E+01  0.000000E+00  0.000000E+00
         3  0.000000E+00 -4.271708E+00  0.000000E+00
         4  9.235591E+00 -3.494081E+00  0.000000E+00
         5  0.000000E+00  0.000000E+00 -3.974840E+00
         6  1.242301E+01  0.000000E+00 -3.874670E+00
         7  0.000000E+00 -4.448244E+00 -3.214199E+00
         8  9.241491E+00 -3.890582E+00 -3.143863E+00

 stresses (elem, integ.pnt.,sxx,syy,szz,sxy,sxz,syz) for set EALL and time  0.4500000E+00

         1   1  4.821622E+03 -1.853386E+02  1.938723E+02 -1.000031E+03  7.958442E+00  1.700863E+01
         1   2  4.544252E+03 -1.071007E+02  1.530995E+02 -1.275516E+03 -3.649955E+00  1.364309E+01
         1   3  3.755400E+03 -6.370128E+02 -1.114053E+02 -8.144199E+02  1.059516E+01  2.723031E+00
         1   4  3.478445E+03 -5.622806E+02 -1.564589E+02 -1.087505E+03  7.703708E+00 -9.043508E+00
         1   5  4.746048E+03 -2.657162E+02  1.482939E+02 -1.001206E+03  4.081065E+01  7.773138E+01
         1   6  4.466387E+03 -2.199262E+02  9.692033E+01 -1.269040E+03  2.811786E+01  7.292282E+01
         1   7  3.727374E+03 -6.869767E+02 -1.347639E+02 -8.317836E+02  4.169875E+01  6.400619E+01
         1   8  3.447969E+03 -6.445291E+02 -1.904758E+02 -1.097416E+03  3.772255E+01  5.081151E+01

 strains (elem, integ.pnt.,exx,eyy,ezz,exy,exz,eyz) forset EALL and time  0.4500000E+00

         1   1  2.207986E-02 -7.835680E-03 -5.405680E-03 -6.094194E-03  4.746298E-05  1.090428E-04
         1   2  2.072826E-02 -7.007514E-03 -5.328659E-03 -7.801000E-03 -2.286861E-05  8.756965E-05
         1   3  1.836934E-02 -8.133555E-03 -4.786664E-03 -5.009835E-03  6.348507E-05  1.897626E-05
         1   4  1.702278E-02 -7.310429E-03 -4.723707E-03 -6.710633E-03  4.567222E-05 -5.531587E-05
         1   5  2.191659E-02 -8.058019E-03 -5.405680E-03 -6.103127E-03  2.461642E-04  4.975613E-04
         1   6  2.061547E-02 -7.368962E-03 -5.328659E-03 -7.765865E-03  1.724786E-04  4.668168E-04
         1   7  1.834445E-02 -8.305570E-03 -4.786664E-03 -5.113099E-03  2.530387E-04  4.111375E-04
         1   8  1.704795E-02 -7.621130E-03 -4.723707E-03 -6.770333E-03  2.318838E-04  3.276071E-04

 displacements (vx,vy,vz) for set NALL and time  0.5000000E+00

         1  0.000000E+00  0.000000E+00  0.000000E+00
         2  1.396388E+01  0.000000E+00  0.000000E+00
         3  0.000000E+00 -4.735561E+00  0.000000E+00
         4  1.021684E+01 -3.880677E+00  0.000000E+00
         5  0.000000E+00  0.000000E+00 -4.399053E+00
         6  1.373317E+01  0.000000E+00 -4.288874E+00
         7  0.000000E+00 -4.931339E+00 -3.557494E+00
         8  1.022309E+01 -4.319436E+00 -3.480500E+00

 stresses (elem, integ.pnt.,sxx,syy,szz,sxy,sxz,syz) for set EALL and time  0.5000000E+00

         1   1  5.358268E+03 -2.055592E+02  2.139807E+02 -1.109888E+03  8.830920E+00  1.874006E+01
         1   2  5.050845E+03 -1.196129E+02  1.687190E+02 -1.414426E+03 -3.985916E+00  1.504963E+01
         1   3  4.173164E+03 -7.037491E+02 -1.226885E+02 -9.036704E+02  1.173535E+01  2.953966E+00
         1   4  3.866429E+03 -6.218839E+02 -1.727394E+02 -1.205285E+03  8.537436E+00 -1.000796E+01
         1   5  5.274579E+03 -2.942063E+02  1.637465E+02 -1.111181E+03  4.518571E+01  8.566573E+01
         1   6  4.964589E+03 -2.440731E+02  1.067512E+02 -1.407257E+03  3.110412E+01  8.037721E+01
         1   7  4.142098E+03 -7.589283E+02 -1.485176E+02 -9.229443E+02  4.611748E+01  7.050254E+01
         1   8  3.832605E+03 -7.126783E+02 -2.103727E+02 -1.216336E+03  4.165468E+01  5.596065E+01

 strains (elem, integ.pnt.,exx,eyy,ezz,exy,exz,eyz) forset EALL and time  0.5000000E+00

         1   1  2.443914E-02 -8.679505E-03 -5.981156E-03 -6.752107E-03  5.245955E-05  1.205932E-04
         1   2  2.294500E-02 -7.765156E-03 -5.896550E-03 -8.639132E-03 -2.501115E-05  9.697106E-05
         1   3  2.033778E-02 -9.007993E-03 -5.296693E-03 -5.554577E-03  7.007490E-05  2.087836E-05
         1   4  1.884977E-02 -8.099773E-03 -5.227713E-03 -7.434295E-03  5.038790E-05 -6.113269E-05
         1   5  2.425933E-02 -8.925775E-03 -5.981156E-03 -6.762120E-03  2.717955E-04  5.503067E-04
         1   6  2.282075E-02 -8.165223E-03 -5.896550E-03 -8.600760E-03  1.905991E-04  5.163805E-04
         1   7  2.031024E-02 -9.198657E-03 -5.296693E-03 -5.668709E-03  2.792581E-04  4.546708E-04
         1   8  1.887728E-02 -8.443721E-03 -5.227713E-03 -7.500654E-03  2.558599E-04  3.623959E-04

 displacements (vx,vy,vz) for set NALL and time  0.5500000E+00

         1  0.000000E+00  0.000000E+00  0.000000E+00
         2  1.528139E+01  0.000000E+00  0.000000E+00
         3  0.000000E+00 -5.197400E+00  0.000000E+00
         4  1.118974E+01 -4.266949E+00  0.000000E+00
         5  0.000000E+00  0.000000E+00 -4.820008E+00
         6  1.503037E+01  0.000000E+00 -4.700011E+00
         7  0.000000E+00 -5.412347E+00 -3.898196E+00
         8  1.119628E+01 -4.747637E+00 -3.814737E+00

 stresses (elem, integ.pnt.,sxx,syy,szz,sxy,sxz,syz) for set EALL and time  0.5500000E+00

         1   1  5.895068E+03 -2.257073E+02  2.338300E+02 -1.219511E+03  9.701215E+00  2.044265E+01
         1   2  5.557729E+03 -1.322416E+02  1.840849E+02 -1.552816E+03 -4.310405E+00  1.643578E+01
         1   3  4.591019E+03 -7.697395E+02 -1.337709E+02 -9.927010E+02  1.286891E+01  3.172135E+00
         1   4  4.254682E+03 -6.809604E+02 -1.888190E+02 -1.322515E+03  9.366365E+00 -1.096522E+01
         1   5  5.803314E+03 -3.225037E+02  1.790122E+02 -1.220922E+03  4.953279E+01  9.347218E+01
         1   6  5.463130E+03 -2.681722E+02  1.164090E+02 -1.544958E+03  3.406550E+01  8.771322E+01
         1   7  4.556927E+03 -8.300710E+02 -1.620482E+02 -1.013882E+03  5.049837E+01  7.688670E+01
         1   8  4.217515E+03 -7.801907E+02 -2.300392E+02 -1.334711E+03  4.554035E+01  6.101889E+01

 strains (elem, integ.pnt.,exx,eyy,ezz,exy,exz,eyz) forset EALL and time  0.5500000E+00

         1   1  2.678091E-02 -9.518350E-03 -6.551931E-03 -7.406390E-03  5.740531E-05  1.320389E-04
         1   2  2.514562E-02 -8.518948E-03 -6.459905E-03 -9.471902E-03 -2.708895E-05  1.063089E-04
         1   3  2.229266E-02 -9.876981E-03 -5.802632E-03 -6.097056E-03  7.658158E-05  2.274406E-05
         1   4  2.066468E-02 -8.884885E-03 -5.727793E-03 -8.153857E-03  5.503490E-05 -6.688977E-05
         1   5  2.658481E-02 -9.788401E-03 -6.551931E-03 -7.417495E-03  2.971193E-04  6.025812E-04
         1   6  2.501009E-02 -8.957341E-03 -6.459905E-03 -9.430408E-03  2.085283E-04  5.655153E-04
         1   7  2.226248E-02 -1.008620E-02 -5.802632E-03 -6.221943E-03  3.051409E-04  4.978068E-04
         1   8  2.069445E-02 -9.261836E-03 -5.727793E-03 -8.226871E-03  2.795148E-04  3.968849E-04

 displacements (vx,vy,vz) for set NALL and time  0.6000000E+00

         1  0.000000E+00  0.000000E+00  0.000000E+00
         2  1.658578E+01  0.000000E+00  0.000000E+00
         3  0.000000E+00 -5.657261E+00  0.000000E+00
         4  1.215445E+01 -4.652897E+00  0.000000E+00
         5  0.000000E+00  0.000000E+00 -5.237762E+00
         6  1.631488E+01  0.000000E+00 -5.108131E+00
         7  0.000000E+00 -5.891302E+00 -4.236347E+00
         8  1.216120E+01 -5.175195E+00 -4.146608E+00

 stresses (elem, integ.pnt.,sxx,syy,szz,sxy,sxz,syz) for set EALL and time  0.6000000E+00

         1   1  6.432014E+03 -2.457833E+02  2.534271E+02 -1.328906E+03  1.056938E+01  2.211709E+01
         1   2  6.064893E+03 -1.449854E+02  1.992031E+02 -1.690697E+03 -4.623985E+00  1.780192E+01
         1   3  5.008965E+03 -8.349993E+02 -1.446571E+02 -1.081519E+03  1.399604E+01  3.377909E+00
         1   4  4.643195E+03 -7.395219E+02 -2.047026E+02 -1.439208E+03  1.019043E+01 -1.191553E+01
         1   5  6.332245E+03 -3.506120E+02  1.940953E+02 -1.330432E+03  5.385284E+01  1.011538E+02
         1   6  5.961998E+03 -2.922258E+02  1.258973E+02 -1.682155E+03  3.700266E+01  9.493355E+01
         1   7  4.971858E+03 -9.004213E+02 -1.753609E+02 -1.104603E+03  5.484266E+01  8.316135E+01
         1   8  4.602694E+03 -8.470802E+02 -2.494807E+02 -1.452556E+03  4.938089E+01  6.598827E+01

 strains (elem, integ.pnt.,exx,eyy,ezz,exy,exz,eyz) forset EALL and time  0.6000000E+00

         1   1  2.910546E-02 -1.035231E-02 -7.118086E-03 -8.057097E-03  6.230139E-05  1.433818E-04
         1   2  2.733042E-02 -9.268976E-03 -7.018798E-03 -1.029940E-02 -2.910546E-05  1.155838E-04
         1   3  2.423420E-02 -1.074062E-02 -6.304551E-03 -6.637303E-03  8.300746E-05  2.457453E-05
         1   4  2.246773E-02 -9.665851E-03 -6.224010E-03 -8.869390E-03  5.961405E-05 -7.258858E-05
         1   5  2.889335E-02 -1.064599E-02 -7.118086E-03 -8.069304E-03  3.221444E-04  6.543938E-04
         1   6  2.718377E-02 -9.745406E-03 -7.018798E-03 -1.025489E-02  2.262704E-04  6.142293E-04
         1   7  2.420138E-02 -1.096830E-02 -6.304551E-03 -6.772833E-03  3.306974E-04  5.405536E-04
         1   8  2.249966E-02 -1.007557E-02 -6.224010E-03 -8.949055E-03  3.028574E-04  4.310798E-04

 displacements (vx,vy,vz) for set NALL and time  0.6500000E+00

         1  0.000000E+00  0.000000E+00  0.000000E+00
         2  1.787732E+01  0.000000E+00  0.000000E+00
         3  0.000000E+00 -6.115178E+00  0.000000E+00
         4  1.311110E+01 -5.038523E+00  0.000000E+00
         5  0.000000E+00  0.000000E+00 -5.652369E+00
         6  1.758695E+01  0.000000E+00 -5.513281E+00
         7  0.000000E+00 -6.368239E+00 -4.571987E+00
         8  1.311802E+01 -5.602117E+00 -4.476145E+00

 stresses (elem, integ.pnt.,sxx,syy,szz,sxy,sxz,syz) for set EALL and time  0.6500000E+00

         1   1  6.969100E+03 -2.657879E+02  2.727784E+02 -1.438078E+03  1.143546E+01  2.376404E+01
         1   2  6.572326E+03 -1.578427E+02  2.140795E+02 -1.828078E+03 -4.927195E+00  1.914840E+01
         1   3  5.426998E+03 -8.995433E+02 -1.553512E+02 -1.170130E+03  1.511694E+01  3.571644E+00
         1   4  5.031963E+03 -7.975794E+02 -2.203948E+02 -1.555378E+03  1.100958E+01 -1.285907E+01
         1   5  6.861364E+03 -3.785347E+02  2.090002E+02 -1.439718E+03  5.814678E+01  1.087135E+02
         1   6  6.461182E+03 -3.162362E+02  1.352196E+02 -1.818858E+03  3.991627E+01  1.020409E+02
         1   7  5.386887E+03 -9.699950E+02 -1.884606E+02 -1.195114E+03  5.915154E+01  8.932902E+01
         1   8  4.988132E+03 -9.133599E+02 -2.687027E+02 -1.569884E+03  5.317756E+01  7.087075E+01

 strains (elem, integ.pnt.,exx,eyy,ezz,exy,exz,eyz) forset EALL and time  0.6500000E+00

         1   1  3.141312E-02 -1.118148E-02 -7.679698E-03 -8.704281E-03  6.714890E-05  1.546239E-04
         1   2  2.949968E-02 -1.001532E-02 -7.573302E-03 -1.112172E-02 -3.106398E-05  1.247965E-04
         1   3  2.616263E-02 -1.159900E-02 -6.802516E-03 -7.175345E-03  8.935478E-05  2.637090E-05
         1   4  2.425910E-02 -1.044276E-02 -6.716422E-03 -9.580965E-03  6.412620E-05 -7.823051E-05
         1   5  3.118524E-02 -1.149864E-02 -7.679698E-03 -8.717598E-03  3.468794E-04  7.057533E-04
         1   6  2.934208E-02 -1.052950E-02 -7.573302E-03 -1.107430E-02  2.438297E-04  6.625301E-04
         1   7  2.612718E-02 -1.184505E-02 -6.802516E-03 -7.321410E-03  3.559374E-04  5.829187E-04
         1   8  2.429310E-02 -1.088500E-02 -6.716422E-03 -9.667275E-03  3.258960E-04  4.649860E-04

 displacements (vx,vy,vz) for set NALL and time  0.7000000E+00

         1  0.000000E+00  0.000000E+00  0.000000E+00
         2  1.915629E+01  0.000000E+00  0.000000E+00
         3  0.000000E+00 -6.571184E+00  0.000000E+00
         4  1.405986E+01 -5.423830E+00  0.000000E+00
         5  0.000000E+00  0.000000E+00 -6.063883E+00
         6  1.884684E+01  0.000000E+00 -5.915507E+00
         7  0.000000E+00 -6.843191E+00 -4.905158E+00
         8  1.406686E+01 -6.028415E+00 -4.803382E+00

 stresses (elem, integ.pnt.,sxx,syy,szz,sxy,sxz,syz) for set EALL and time  0.7000000E+00

         1   1  7.506319E+03 -2.857216E+02  2.918901E+02 -1.547030E+03  1.229950E+01  2.538414E+01
         1   2  7.080019E+03 -1.708122E+02  2.287196E+02 -1.964969E+03 -5.220542E+00  2.047559E+01
         1   3  5.845117E+03 -9.633860E+02 -1.658574E+02 -1.258542E+03  1.623179E+01  3.753680E+00
         1   4  5.420978E+03 -8.551437E+02 -2.359001E+02 -1.671039E+03  1.182376E+01 -1.379605E+01
         1   5  7.390662E+03 -4.062750E+02  2.237310E+02 -1.548782E+03  6.241551E+01  1.161541E+02
         1   6  6.960670E+03 -3.402055E+02  1.443792E+02 -1.955076E+03  4.280697E+01  1.090376E+02
         1   7  5.802012E+03 -1.038807E+03 -2.013519E+02 -1.285422E+03  6.342616E+01  9.539217E+01
         1   8  5.373824E+03 -9.790427E+02 -2.877103E+02 -1.686709E+03  5.693161E+01  7.566825E+01

 strains (elem, integ.pnt.,exx,eyy,ezz,exy,exz,eyz) forset EALL and time  0.7000000E+00

         1   1  3.370417E-02 -1.200594E-02 -8.236846E-03 -9.347991E-03  7.194888E-05  1.657672E-04
         1   2  3.165366E-02 -1.075806E-02 -8.123486E-03 -1.193893E-02 -3.296766E-05  1.339474E-04
         1   3  2.807817E-02 -1.245223E-02 -7.296589E-03 -7.711213E-03  9.562569E-05  2.813423E-05
         1   4  2.603899E-02 -1.121568E-02 -7.205085E-03 -1.028865E-02  6.857217E-05 -8.381694E-05
         1   5  3.346077E-02 -1.234644E-02 -8.236846E-03 -9.362427E-03  3.713322E-04  7.566682E-04
         1   6  3.148526E-02 -1.130972E-02 -8.123486E-03 -1.188871E-02  2.612101E-04  7.104252E-04
         1   7  2.804009E-02 -1.271654E-02 -7.296589E-03 -7.867704E-03  3.808704E-04  6.249096E-04
         1   8  2.607498E-02 -1.169021E-02 -7.205085E-03 -1.038160E-02  3.486390E-04  4.986087E-04

 displacements (vx,vy,vz) for set NALL and time  0.7500000E+00

         1  0.000000E+00  0.000000E+00  0.000000E+00
         2  2.042293E+01  0.000000E+00  0.000000E+00
         3  0.000000E+00 -7.025313E+00  0.000000E+00
         4  1.500086E+01 -5.808818E+00  0.000000E+00
         5  0.000000E+00  0.000000E+00 -6.472355E+00
         6  2.009477E+01  0.000000E+00 -6.314854E+00
         7  0.000000E+00 -7.316192E+00 -5.235897E+00
         8  1.500789E+01 -6.454096E+00 -5.128350E+00

 stresses (elem, integ.pnt.,sxx,syy,szz,sxy,sxz,syz) for set EALL and time  0.7500000E+00

         1   1  8.043664E+03 -3.055850E+02  3.107684E+02 -1.655768E+03  1.316157E+01  2.697800E+01
         1   2  7.587962E+03 -1.838923E+02  2.431287E+02 -2.101380E+03 -5.504511E+00  2.178384E+01
         1   3  6.263320E+03 -1.026541E+03 -1.761797E+02 -1.346761E+03  1.734077E+01  3.924346E+00
         1   4  5.810234E+03 -9.122255E+02 -2.512228E+02 -1.786205E+03  1.263294E+01 -1.472666E+01
         1   5  7.920133E+03 -4.338362E+02  2.382917E+02 -1.657630E+03  6.665991E+01  1.234784E+02
         1   6  7.460451E+03 -3.641359E+02  1.533793E+02 -2.090819E+03  4.567539E+01  1.159264E+02
         1   7  6.217230E+03 -1.106874E+03 -2.140395E+02 -1.375534E+03  6.766763E+01  1.013532E+02
         1   8  5.759763E+03 -1.044141E+03 -3.065086E+02 -1.803044E+03  6.064424E+01  8.038258E+01

 strains (elem, integ.pnt.,exx,eyy,ezz,exy,exz,eyz) forset EALL and time  0.7500000E+00

         1   1  3.597890E-02 -1.282579E-02 -8.789601E-03 -9.988278E-03  7.670235E-05  1.768134E-04
         1   2  3.379263E-02 -1.149727E-02 -8.669418E-03 -1.275114E-02 -3.481947E-05  1.430374E-04
         1   3  2.998104E-02 -1.330040E-02 -7.786834E-03 -8.244933E-03  1.018223E-04  2.986556E-05
         1   4  2.780758E-02 -1.198470E-02 -7.690057E-03 -1.099251E-02  7.295277E-05 -8.934914E-05
         1   5  3.572021E-02 -1.318947E-02 -8.789601E-03 -1.000384E-02  3.955107E-04  8.071468E-04
         1   6  3.361357E-02 -1.208613E-02 -8.669418E-03 -1.269820E-02  2.784155E-04  7.579219E-04
         1   7  2.994033E-02 -1.358288E-02 -7.786834E-03 -8.411745E-03  4.055053E-04  6.665336E-04
         1   8  2.784546E-02 -1.249130E-02 -7.690057E-03 -1.109208E-02  3.710940E-04  5.319531E-04

 displacements (vx,vy,vz) for set NALL and time  0.8000000E+00

         1  0.000000E+00  0.000000E+00  0.000000E+00
         2  2.167749E+01  0.000000E+00  0.000000E+00
         3  0.000000E+00 -7.477596E+00  0.000000E+00
         4  1.593423E+01 -6.193492E+00  0.000000E+00
         5  0.000000E+00  0.000000E+00 -6.877834E+00
         6  2.133099E+01  0.000000E+00 -6.711364E+00
         7  0.000000E+00 -7.787273E+00 -5.564244E+00
         8  1.594123E+01 -6.879171E+00 -5.451078E+00

 stresses (elem, integ.pnt.,sxx,syy,szz,sxy,sxz,syz) for set EALL and time  0.8000000E+00

         1   1  8.581129E+03 -3.253787E+02  3.294188E+02 -1.764294E+03  1.402171E+01  2.854622E+01
         1   2  8.096144E+03 -1.970817E+02  2.573122E+02 -2.237320E+03 -5.779563E+00  2.307348E+01
         1   3  6.681605E+03 -1.089022E+03 -1.863219E+02 -1.434792E+03  1.844405E+01  4.083954E+00
         1   4  6.199724E+03 -9.688346E+02 -2.663673E+02 -1.900887E+03  1.343707E+01 -1.565108E+01
         1   5  8.449768E+03 -4.612214E+02  2.526861E+02 -1.766266E+03  7.088079E+01  1.306889E+02
         1   6  7.960516E+03 -3.880291E+02  1.622231E+02 -2.226096E+03  4.852215E+01  1.227094E+02
         1   7  6.632540E+03 -1.174208E+03 -2.265276E+02 -1.465455E+03  7.187703E+01  1.072143E+02
         1   8  6.145942E+03 -1.108667E+03 -3.251025E+02 -1.918901E+03  6.431660E+01  8.501553E+01

 strains (elem, integ.pnt.,exx,eyy,ezz,exy,exz,eyz) forset EALL and time  0.8000000E+00

         1   1  3.823761E-02 -1.364110E-02 -9.338036E-03 -1.062519E-02  8.141030E-05  1.877645E-04
         1   2  3.591683E-02 -1.223303E-02 -9.211164E-03 -1.355841E-02 -3.662225E-05  1.520670E-04
         1   3  3.187145E-02 -1.414359E-02 -8.273311E-03 -8.776534E-03  1.079466E-04  3.156589E-05
         1   4  2.956506E-02 -1.274990E-02 -8.171390E-03 -1.169261E-02  7.726882E-05 -9.482836E-05
         1   5  3.796383E-02 -1.402783E-02 -9.338036E-03 -1.064188E-02  4.194224E-04  8.571969E-04
         1   6  3.572727E-02 -1.285881E-02 -9.211164E-03 -1.350286E-02  2.954496E-04  8.050273E-04
         1   7  3.182810E-02 -1.444415E-02 -8.273311E-03 -8.953562E-03  4.298510E-04  7.077975E-04
         1   8  2.960474E-02 -1.328833E-02 -8.171390E-03 -1.179880E-02  3.932687E-04  5.650240E-04

 displacements (vx,vy,vz) for set NALL and time  0.8500000E+00

         1  0.000000E+00  0.000000E+00  0.000000E+00
         2  2.292021E+01  0.000000E+00  0.000000E+00
         3  0.000000E+00 -7.928064E+00  0.000000E+00
         4  1.686013E+01 -6.577853E+00  0.000000E+00
         5  0.000000E+00  0.000000E+00 -7.280368E+00
         6  2.255572E+01  0.000000E+00 -7.105079E+00
         7  0.000000E+00 -8.256465E+00 -5.890233E+00
         8  1.686701E+01 -7.303647E+00 -5.771596E+00

 stresses (elem, integ.pnt.,sxx,syy,szz,sxy,sxz,syz) for set EALL and time  0.8500000E+00

         1   1  9.118709E+03 -3.451033E+02  3.478472E+02 -1.872614E+03  1.487997E+01  3.008937E+01
         1   2  8.604558E+03 -2.103790E+02  2.712750E+02 -2.372799E+03 -6.046134E+00  2.434483E+01
         1   3  7.099969E+03 -1.150842E+03 -1.962877E+02 -1.522643E+03  1.954180E+01  4.232807E+00
         1   4  6.589443E+03 -1.024981E+03 -2.813375E+02 -2.015099E+03  1.423614E+01 -1.656949E+01
         1   5  8.979561E+03 -4.884338E+02  2.669181E+02 -1.874694E+03  7.507899E+01  1.377883E+02
         1   6  8.460854E+03 -4.118873E+02  1.709137E+02 -2.360917E+03  5.134783E+01  1.293890E+02
         1   7  7.047939E+03 -1.240824E+03 -2.388206E+02 -1.555192E+03  7.605539E+01  1.129779E+02
         1   8  6.532354E+03 -1.172632E+03 -3.434965E+02 -2.034292E+03  6.794982E+01  8.956880E+01

 strains (elem, integ.pnt.,exx,eyy,ezz,exy,exz,eyz) forset EALL and time  0.8500000E+00

         1   1  4.048054E-02 -1.445195E-02 -9.882221E-03 -1.125877E-02  8.607369E-05  1.986220E-04
         1   2  3.802653E-02 -1.296541E-02 -9.748789E-03 -1.436082E-02 -3.837872E-05  1.610368E-04
         1   3  3.374959E-02 -1.498189E-02 -8.756077E-03 -9.306041E-03  1.140005E-04  3.323617E-05
         1   4  3.131159E-02 -1.351135E-02 -8.649138E-03 -1.238901E-02  8.152112E-05 -1.002558E-04
         1   5  4.019191E-02 -1.486158E-02 -9.882221E-03 -1.127660E-02  4.430744E-04  9.068263E-04
         1   6  3.782659E-02 -1.362784E-02 -9.748789E-03 -1.430274E-02  3.123161E-04  8.517481E-04
         1   7  3.370360E-02 -1.530043E-02 -8.756077E-03 -9.493184E-03  4.539158E-04  7.487080E-04
         1   8  3.135298E-02 -1.408139E-02 -8.649138E-03 -1.250180E-02  4.151705E-04  5.978262E-04

 displacements (vx,vy,vz) for set NALL and time  0.9000000E+00

         1  0.000000E+00  0.000000E+00  0.000000E+00
         2  2.415133E+01  0.000000E+00  0.000000E+00
         3  0.000000E+00 -8.376746E+00  0.000000E+00
         4  1.777866E+01 -6.961904E+00  0.000000E+00
         5  0.000000E+00  0.000000E+00 -7.680004E+00
         6  2.376918E+01  0.000000E+00 -7.496041E+00
         7  0.000000E+00 -8.723798E+00 -6.213901E+00
         8  1.778537E+01 -7.727534E+00 -6.089933E+00

 stresses (elem, integ.pnt.,sxx,syy,szz,sxy,sxz,syz) for set EALL and time  0.9000000E+00

         1   1  9.656396E+03 -3.647594E+02  3.660589E+02 -1.980732E+03  1.573641E+01  3.160801E+01
         1   2  9.113194E+03 -2.237829E+02  2.850220E+02 -2.507824E+03 -6.304641E+00  2.559824E+01
         1   3  7.518412E+03 -1.212014E+03 -2.060808E+02 -1.610318E+03  2.063419E+01  4.371193E+00
         1   4  6.979384E+03 -1.080674E+03 -2.961373E+02 -2.128852E+03  1.503013E+01 -1.748205E+01
         1   5  9.509504E+03 -5.154762E+02  2.809911E+02 -1.982918E+03  7.925528E+01  1.447789E+02
         1   6  8.961456E+03 -4.357120E+02  1.794539E+02 -2.495289E+03  5.415302E+01  1.359674E+02
         1   7  7.463423E+03 -1.306736E+03 -2.509225E+02 -1.644751E+03  8.020371E+01  1.186459E+02
         1   8  6.918993E+03 -1.236047E+03 -3.616953E+02 -2.149230E+03  7.154498E+01  9.404403E+01

 strains (elem, integ.pnt.,exx,eyy,ezz,exy,exz,eyz) forset EALL and time  0.9000000E+00

         1   1  4.270798E-02 -1.525844E-02 -1.042222E-02 -1.188907E-02  9.069344E-05  2.093878E-04
         1   2  4.012196E-02 -1.369448E-02 -1.028235E-02 -1.515846E-02 -4.009144E-05  1.699476E-04
         1   3  3.561567E-02 -1.581538E-02 -9.235190E-03 -9.833481E-03  1.199859E-04  3.487731E-05
         1   4  3.304734E-02 -1.426913E-02 -9.123351E-03 -1.308177E-02  8.571047E-05 -1.056326E-04
         1   5  4.240468E-02 -1.569082E-02 -1.042222E-02 -1.190803E-02  4.664739E-04  9.560424E-04
         1   6  3.991177E-02 -1.439330E-02 -1.028235E-02 -1.509794E-02  3.290185E-04  8.980910E-04
         1   7  3.556702E-02 -1.615181E-02 -9.235190E-03 -1.003064E-02  4.777076E-04  7.892717E-04
         1   8  3.309036E-02 -1.487055E-02 -9.123351E-03 -1.320115E-02  4.368063E-04  6.303645E-04

 displacements (vx,vy,vz) for set NALL and time  0.9500000E+00

         1  0.000000E+00  0.000000E+00  0.000000E+00
         2  2.537105E+01  0.000000E+00  0.000000E+00
         3  0.000000E+00 -8.823673E+00  0.000000E+00
         4  1.868997E+01 -7.345648E+00  0.000000E+00
         5  0.000000E+00  0.000000E+00 -8.076788E+00
         6  2.497158E+01  0.000000E+00 -7.884288E+00
         7  0.000000E+00 -9.189302E+00 -6.535282E+00
         8  1.869644E+01 -8.150842E+00 -6.406117E+00

 stresses (elem, integ.pnt.,sxx,syy,szz,sxy,sxz,syz) for set EALL and time  0.9500000E+00

         1   1  1.019419E+04 -3.843475E+02  3.840591E+02 -2.088650E+03  1.659107E+01  3.310267E+01
         1   2  9.622043E+03 -2.372920E+02  2.985578E+02 -2.642404E+03 -6.555480E+00  2.683400E+01
         1   3  7.936932E+03 -1.272549E+03 -2.157045E+02 -1.697823E+03  2.172137E+01  4.499392E+00
         1   4  7.369541E+03 -1.135923E+03 -3.107707E+02 -2.242157E+03  1.581900E+01 -1.838894E+01
         1   5  1.003959E+04 -5.423516E+02  2.949089E+02 -2.090942E+03  8.341044E+01  1.516632E+02
         1   6  9.462312E+03 -4.595051E+02  1.878466E+02 -2.629221E+03  5.693829E+01  1.424467E+02
         1   7  7.878991E+03 -1.371957E+03 -2.628372E+02 -1.734137E+03  8.432297E+01  1.242204E+02
         1   8  7.305854E+03 -1.298923E+03 -3.797033E+02 -2.263724E+03  7.510314E+01  9.844284E+01

 strains (elem, integ.pnt.,exx,eyy,ezz,exy,exz,eyz) forset EALL and time  0.9500000E+00

         1   1  4.492017E-02 -1.606062E-02 -1.095810E-02 -1.251613E-02  9.527044E-05  2.200635E-04
         1   2  4.220334E-02 -1.442031E-02 -1.081192E-02 -1.595139E-02 -4.176289E-05  1.788000E-04
         1   3  3.746987E-02 -1.664415E-02 -9.710705E-03 -1.035888E-02  1.259045E-04  3.649020E-05
         1   4  3.477249E-02 -1.502329E-02 -9.594080E-03 -1.377095E-02  8.983764E-05 -1.109600E-04
         1   5  4.460241E-02 -1.651562E-02 -1.095810E-02 -1.253623E-02  4.896273E-04  1.004853E-03
         1   6  4.198302E-02 -1.515526E-02 -1.081192E-02 -1.588850E-02  3.455601E-04  9.440625E-04
         1   7  3.741855E-02 -1.699837E-02 -9.710705E-03 -1.056595E-02  5.012344E-04  8.294950E-04
         1   8  3.481704E-02 -1.565588E-02 -9.594080E-03 -1.389691E-02  4.581830E-04  6.626432E-04

 displacements (vx,vy,vz) for set NALL and time  0.1000000E+01

         1  0.000000E+00  0.000000E+00  0.000000E+00
         2  2.657961E+01  0.000000E+00  0.000000E+00
         3  0.000000E+00 -9.268871E+00  0.000000E+00
         4  1.959416E+01 -7.729088E+00  0.000000E+00
         5  0.000000E+00  0.000000E+00 -8.470762E+00
         6  2.616312E+01  0.000000E+00 -8.269859E+00
         7  0.000000E+00 -9.653005E+00 -6.854410E+00
         8  1.960033E+01 -8.573578E+00 -6.720175E+00

 stresses (elem, integ.pnt.,sxx,syy,szz,sxy,sxz,syz) for set EALL and time  0.1000000E+01

         1   1  1.073207E+04 -4.038683E+02  4.018528E+02 -2.196373E+03  1.744401E+01  3.457387E+01
         1   2  1.013110E+04 -2.509050E+02  3.118871E+02 -2.776548E+03 -6.799028E+00  2.805242E+01
         1   3  8.355525E+03 -1.332461E+03 -2.251623E+02 -1.785163E+03  2.280352E+01  4.617670E+00
         1   4  7.759909E+03 -1.190736E+03 -3.252411E+02 -2.355025E+03  1.660276E+01 -1.929030E+01
         1   5  1.056981E+04 -5.690628E+02  3.086747E+02 -2.198770E+03  8.754519E+01  1.584433E+02
         1   6  9.963413E+03 -4.832683E+02  1.960946E+02 -2.762723E+03  5.970419E+01  1.488290E+02
         1   7  8.294641E+03 -1.436498E+03 -2.745686E+02 -1.823355E+03  8.841411E+01  1.297035E+02
         1   8  7.692931E+03 -1.361271E+03 -3.975246E+02 -2.377788E+03  7.862532E+01  1.027668E+02

 strains (elem, integ.pnt.,exx,eyy,ezz,exy,exz,eyz) forset EALL and time  0.1000000E+01

         1   1  4.711736E-02 -1.685858E-02 -1.148993E-02 -1.314000E-02  9.980556E-05  2.306506E-04
         1   2  4.427092E-02 -1.514296E-02 -1.133754E-02 -1.673968E-02 -4.339539E-05  1.875946E-04
         1   3  3.931238E-02 -1.746828E-02 -1.018267E-02 -1.088226E-02  1.317582E-04  3.807569E-05
         1   4  3.648718E-02 -1.577391E-02 -1.006137E-02 -1.445660E-02  9.390341E-05 -1.162388E-04
         1   5  4.678533E-02 -1.733605E-02 -1.148993E-02 -1.316124E-02  5.125412E-04  1.053264E-03
         1   6  4.404059E-02 -1.591378E-02 -1.133754E-02 -1.667452E-02  3.619444E-04  9.896689E-04
         1   7  3.925839E-02 -1.784019E-02 -1.018267E-02 -1.109915E-02  5.245034E-04  8.693838E-04
         1   8  3.653319E-02 -1.643746E-02 -1.006137E-02 -1.458913E-02  4.793071E-04  6.946668E-04
