    1C
    1UUSER                                                              
    1UDATE              11.august.2016                                  
    1UTIME              13:49:48                                        
    1UHOST                                                              
    1UPGM               CalculiX                                        
    1UVERSION           Version 2.10                             
    1UCOMPILETIME       Sa 5. MÃ¤r 12:23:33 CET 2016                    
    1UDIR                                                               
    1UDBN                                                               
    1UMAT    1SI1                                                       
    1UMAT    2EL                                                        
    1UMAT    3SPRING                                                    
    2C                            24                                     1
 -1         1 0.00000E+00 0.00000E+00 0.00000E+00
 -1         2 5.00000E+02 0.00000E+00 0.00000E+00
 -1         3 5.10000E+02 0.00000E+00 0.00000E+00
 -1         4 1.01000E+03 0.00000E+00 0.00000E+00
 -1         5 1.02000E+03 0.00000E+00 0.00000E+00
 -1         6 1.52000E+03 0.00000E+00 0.00000E+00
 -1         7 0.00000E+00 5.00000E+02 0.00000E+00
 -1         8 5.00000E+02 5.00000E+02 0.00000E+00
 -1         9 5.10000E+02 5.00000E+02 0.00000E+00
 -1        10 1.01000E+03 5.00000E+02 0.00000E+00
 -1        11 1.02000E+03 5.00000E+02 0.00000E+00
 -1        12 1.52000E+03 5.00000E+02 0.00000E+00
 -1        13 0.00000E+00 0.00000E+00 7.00000E+02
 -1        14 5.00000E+02 0.00000E+00 7.00000E+02
 -1        15 5.10000E+02 0.00000E+00 7.00000E+02
 -1        16 1.01000E+03 0.00000E+00 7.00000E+02
 -1        17 1.02000E+03 0.00000E+00 7.00000E+02
 -1        18 1.52000E+03 0.00000E+00 7.00000E+02
 -1        19 0.00000E+00 5.00000E+02 7.00000E+02
 -1        20 5.00000E+02 5.00000E+02 7.00000E+02
 -1        21 5.10000E+02 5.00000E+02 7.00000E+02
 -1        22 1.01000E+03 5.00000E+02 7.00000E+02
 -1        23 1.02000E+03 5.00000E+02 7.00000E+02
 -1        24 1.52000E+03 5.00000E+02 7.00000E+02
 -3
    3C                            11                                     1
 -1         1    1    0    2
 -2         1         2         8         7        13        14        20        19
 -1         2    1    0    2
 -2         3         4        10         9        15        16        22        21
 -1         3    1    0    2
 -2         5         6        12        11        17        18        24        23
 -1         4   11    0    3
 -2         2         3
 -1         5   11    0    3
 -2         8         9
 -1         6   11    0    3
 -2        14        15
 -1         7   11    0    3
 -2        20        21
 -1         8   11    0    3
 -2         4         5
 -1         9   11    0    3
 -2        10        11
 -1        10   11    0    3
 -2        16        17
 -1        11   11    0    3
 -2        22        23
 -3
    1PSTEP                         1           1           1          
  100CL  101 1.00000E-03          24                     0    1           1
 -4  DISP        4    1
 -5  D1          1    2    1    0
 -5  D2          1    2    2    0
 -5  D3          1    2    3    0
 -5  ALL         1    2    0    0    1ALL
 -1         1 0.00000E+00 0.00000E+00 0.00000E+00
 -1         2-4.08163E-10 0.00000E+00 0.00000E+00
 -1         3-1.50000E-02 0.00000E+00 0.00000E+00
 -1         4-1.50000E-02 0.00000E+00 0.00000E+00
 -1         5-3.00000E-02 0.00000E+00 0.00000E+00
 -1         6-3.00000E-02 0.00000E+00 0.00000E+00
 -1         7 0.00000E+00 1.22449E-10 0.00000E+00
 -1         8-4.08163E-10 1.22449E-10 0.00000E+00
 -1         9-1.50000E-02 1.22449E-10 0.00000E+00
 -1        10-1.50000E-02 1.22449E-10 0.00000E+00
 -1        11-3.00000E-02 1.22449E-10 0.00000E+00
 -1        12-3.00000E-02 1.22449E-10 0.00000E+00
 -1        13 0.00000E+00 0.00000E+00 1.71429E-10
 -1        14-4.08163E-10 0.00000E+00 1.71429E-10
 -1        15-1.50000E-02 0.00000E+00 1.71429E-10
 -1        16-1.50000E-02 0.00000E+00 1.71429E-10
 -1        17-3.00000E-02 0.00000E+00 1.71429E-10
 -1        18-3.00000E-02 0.00000E+00 1.71429E-10
 -1        19 0.00000E+00 1.22449E-10 1.71429E-10
 -1        20-4.08163E-10 1.22449E-10 1.71429E-10
 -1        21-1.50000E-02 1.22449E-10 1.71429E-10
 -1        22-1.50000E-02 1.22449E-10 1.71429E-10
 -1        23-3.00000E-02 1.22449E-10 1.71429E-10
 -1        24-3.00000E-02 1.22449E-10 1.71429E-10
 -3
    1PSTEP                         2           1           1          
  100CL  101 1.00000E-03          24                     0    1           1
 -4  STRESS      6    1
 -5  SXX         1    4    1    1
 -5  SYY         1    4    2    2
 -5  SZZ         1    4    3    3
 -5  SXY         1    4    1    2
 -5  SYZ         1    4    2    3
 -5  SZX         1    4    3    1
 -1         1-1.71422E-07-1.14619E-23 1.74298E-23-4.49822E-25-3.32743E-24 2.08728E-24
 -1         2-8.57108E-08 6.10917E-23 2.70312E-23-4.45675E-23 1.44013E-24-5.14085E-24
 -1         3-8.57109E-08-3.23367E-16-4.82716E-16-3.74091E-16 2.11307E-22-1.66645E-16
 -1         4-8.57109E-08-5.07697E-16-3.64175E-16 5.27556E-16-1.36792E-22 2.98192E-16
 -1         5-8.57109E-08-3.15485E-16-3.76886E-16-1.11560E-16-1.41798E-22 4.45587E-16
 -1         6-1.71422E-07-7.52285E-16-7.64551E-16 8.96211E-16-3.31758E-22 2.11961E-16
 -1         7-1.71422E-07-1.13794E-22-4.21267E-23 4.18239E-23-8.90726E-24-8.47042E-25
 -1         8-8.57108E-08 9.92590E-24-4.97174E-23-2.45500E-23-1.53033E-23 5.29467E-23
 -1         9-8.57108E-08 5.86038E-16 5.78372E-16-3.45300E-16-5.91925E-17 3.21330E-16
 -1        10-8.57108E-08 1.79062E-16 1.77405E-16 3.06691E-17 5.02111E-17 8.97056E-18
 -1        11-8.57109E-08-2.12980E-17 4.35099E-17-8.96727E-17-7.58495E-17-6.97550E-16
 -1        12-1.71422E-07-4.48322E-16-5.87386E-16 5.39568E-16 1.00086E-16 3.73817E-16
 -1        13-1.71422E-07 1.98518E-23 2.66434E-23 4.75476E-24 3.25182E-23-1.10861E-23
 -1        14-8.57108E-08-2.25118E-23-1.53324E-23 1.12005E-23 1.39535E-24-8.36937E-24
 -1        15-8.57108E-08 9.33589E-17 9.97501E-17-5.73745E-17 1.06178E-16 8.35460E-17
 -1        16-8.57108E-08 4.45108E-16 4.48039E-16-3.74090E-16-1.01625E-16 2.32976E-16
 -1        17-8.57108E-08-1.32128E-16 1.88497E-17-4.35582E-16 8.83458E-17-3.99810E-17
 -1        18-1.71422E-07 8.48176E-16 5.55668E-16-4.96307E-17-8.87588E-17 4.70367E-17
 -1        19-1.71422E-07 7.63367E-23 1.11371E-22-2.61412E-24 2.69383E-23-3.94164E-23
 -1        20-8.57108E-08 5.73071E-24 1.44456E-23 1.16937E-23-1.53481E-23 2.11289E-23
 -1        21-8.57109E-08-3.44123E-16-1.86049E-16-1.62709E-17 4.69854E-17-1.31274E-16
 -1        22-8.57109E-08-2.15020E-16-3.57267E-16-1.92134E-16-5.14138E-17-3.59121E-16
 -1        23-8.57109E-08-9.92415E-16-7.15229E-16-1.81104E-16 1.24965E-17-1.94398E-16
 -1        24-1.71422E-07-1.15681E-15-1.57611E-15-4.74317E-16 1.13276E-17-6.57530E-16
 -3
    1PSTEP                         3           1           1          
  100CL  101 1.00000E-03          24                     0    1           1
 -4  TOSTRAIN    6    1
 -5  EXX         1    4    1    1
 -5  EYY         1    4    2    2
 -5  EZZ         1    4    3    3
 -5  EXY         1    4    1    2
 -5  EYZ         1    4    2    3
 -5  EZX         1    4    3    1
 -1         1-8.16294E-13 2.44888E-13 2.44888E-13-2.78461E-30-2.05984E-29 1.29213E-29
 -1         2-4.08147E-13 1.22444E-13 1.22444E-13-2.75894E-28 8.91511E-30-3.18243E-29
 -1         3-4.08147E-13 1.22444E-13 1.22444E-13-2.31580E-21 1.30809E-27-1.03161E-21
 -1         4-4.08147E-13 1.22444E-13 1.22444E-13 3.26582E-21-8.46808E-28 1.84595E-21
 -1         5-4.08147E-13 1.22444E-13 1.22444E-13-6.90608E-22-8.77796E-28 2.75840E-21
 -1         6-8.16294E-13 2.44888E-13 2.44888E-13 5.54797E-21-2.05374E-27 1.31214E-21
 -1         7-8.16294E-13 2.44888E-13 2.44888E-13 2.58910E-28-5.51402E-29-5.24360E-30
 -1         8-4.08147E-13 1.22444E-13 1.22444E-13-1.51976E-28-9.47349E-29 3.27765E-28
 -1         9-4.08147E-13 1.22444E-13 1.22444E-13-2.13757E-21-3.66430E-22 1.98919E-21
 -1        10-4.08147E-13 1.22444E-13 1.22444E-13 1.89856E-22 3.10831E-22 5.55320E-23
 -1        11-4.08147E-13 1.22444E-13 1.22444E-13-5.55116E-22-4.69545E-22-4.31817E-21
 -1        12-8.16294E-13 2.44888E-13 2.44888E-13 3.34018E-21 6.19580E-22 2.31410E-21
 -1        13-8.16294E-13 2.44888E-13 2.44888E-13 2.94342E-29 2.01303E-28-6.86285E-29
 -1        14-4.08147E-13 1.22444E-13 1.22444E-13 6.93363E-29 8.63787E-30-5.18104E-29
 -1        15-4.08147E-13 1.22444E-13 1.22444E-13-3.55176E-22 6.57293E-22 5.17190E-22
 -1        16-4.08147E-13 1.22444E-13 1.22444E-13-2.31580E-21-6.29107E-22 1.44223E-21
 -1        17-4.08147E-13 1.22444E-13 1.22444E-13-2.69646E-21 5.46903E-22-2.47501E-22
 -1        18-8.16294E-13 2.44888E-13 2.44888E-13-3.07238E-22-5.49459E-22 2.91180E-22
 -1        19-8.16294E-13 2.44888E-13 2.44888E-13-1.61826E-29 1.66761E-28-2.44006E-28
 -1        20-4.08147E-13 1.22444E-13 1.22444E-13 7.23899E-29-9.50122E-29 1.30798E-28
 -1        21-4.08147E-13 1.22444E-13 1.22444E-13-1.00724E-22 2.90862E-22-8.12647E-22
 -1        22-4.08147E-13 1.22444E-13 1.22444E-13-1.18940E-21-3.18276E-22-2.22313E-21
 -1        23-4.08147E-13 1.22444E-13 1.22444E-13-1.12112E-21 7.73591E-23-1.20342E-21
 -1        24-8.16294E-13 2.44888E-13 2.44888E-13-2.93625E-21 7.01232E-23-4.07042E-21
 -3
    1PSTEP                         4           2           1          
  100CL  102 2.00000E-03          24                     0    2           1
 -4  DISP        4    1
 -5  D1          1    2    1    0
 -5  D2          1    2    2    0
 -5  D3          1    2    3    0
 -5  ALL         1    2    0    0    1ALL
 -1         1 0.00000E+00 0.00000E+00 0.00000E+00
 -1         2-8.16327E-10 0.00000E+00 0.00000E+00
 -1         3-3.00000E-02 0.00000E+00 0.00000E+00
 -1         4-3.00000E-02 0.00000E+00 0.00000E+00
 -1         5-6.00000E-02 0.00000E+00 0.00000E+00
 -1         6-6.00000E-02 0.00000E+00 0.00000E+00
 -1         7 0.00000E+00 2.44898E-10 0.00000E+00
 -1         8-8.16327E-10 2.44898E-10 0.00000E+00
 -1         9-3.00000E-02 2.44898E-10 0.00000E+00
 -1        10-3.00000E-02 2.44898E-10 0.00000E+00
 -1        11-6.00000E-02 2.44898E-10 0.00000E+00
 -1        12-6.00000E-02 2.44898E-10 0.00000E+00
 -1        13 0.00000E+00 0.00000E+00 3.42857E-10
 -1        14-8.16327E-10 0.00000E+00 3.42857E-10
 -1        15-3.00000E-02 0.00000E+00 3.42857E-10
 -1        16-3.00000E-02 0.00000E+00 3.42857E-10
 -1        17-6.00000E-02 0.00000E+00 3.42857E-10
 -1        18-6.00000E-02 0.00000E+00 3.42857E-10
 -1        19 0.00000E+00 2.44898E-10 3.42857E-10
 -1        20-8.16327E-10 2.44898E-10 3.42857E-10
 -1        21-3.00000E-02 2.44898E-10 3.42857E-10
 -1        22-3.00000E-02 2.44898E-10 3.42857E-10
 -1        23-6.00000E-02 2.44898E-10 3.42857E-10
 -1        24-6.00000E-02 2.44898E-10 3.42857E-10
 -3
    1PSTEP                         5           2           1          
  100CL  102 2.00000E-03          24                     0    2           1
 -4  STRESS      6    1
 -5  SXX         1    4    1    1
 -5  SYY         1    4    2    2
 -5  SZZ         1    4    3    3
 -5  SXY         1    4    1    2
 -5  SYZ         1    4    2    3
 -5  SZX         1    4    3    1
 -1         1-3.42843E-07-7.10174E-23-3.54589E-24-8.91361E-24-9.46500E-25 5.42923E-24
 -1         2-1.71422E-07 7.26648E-24 1.27600E-23-5.31653E-24 1.73021E-25-4.78049E-23
 -1         3-1.71422E-07-7.40810E-16-9.07195E-16-2.88528E-16-2.05532E-23-4.05959E-16
 -1         4-1.71422E-07-8.89320E-16-7.04367E-16 6.02804E-16 2.10470E-22 1.88360E-16
 -1         5-1.71422E-07-4.28355E-16-7.09420E-16 1.66821E-18-1.49291E-21 7.37237E-16
 -1         6-3.42843E-07-1.69179E-15-1.49316E-15 1.62937E-15-1.44248E-21-2.02848E-15
 -1         7-3.42843E-07 7.71605E-23 5.90816E-23-9.25690E-24 2.45931E-23-6.11728E-24
 -1         8-1.71422E-07 2.71188E-23 8.37779E-23-5.48817E-24 5.70680E-24-1.08716E-23
 -1         9-1.71422E-07-5.98409E-16-7.54223E-16-8.95087E-17-4.49927E-17 6.11487E-17
 -1        10-1.71422E-07-7.80050E-16-6.28701E-16-5.29894E-16 5.00297E-17 1.27274E-16
 -1        11-1.71422E-07-3.67587E-16-4.40618E-16-7.75234E-17-1.88958E-16-9.11621E-16
 -1        12-3.42843E-07-1.82464E-15-1.54913E-15 8.90142E-16 2.94323E-16 1.38773E-15
 -1        13-3.42843E-07-1.45330E-23-6.16778E-23 1.02124E-23 8.19190E-25 3.65260E-23
 -1        14-1.71422E-07-1.87279E-23-1.63059E-23-1.25742E-23-6.35324E-26-2.77789E-23
 -1        15-1.71422E-07-1.15825E-16-1.56230E-16 4.56036E-16 7.39961E-18-1.42081E-16
 -1        16-1.71422E-07 2.01274E-16 2.46145E-16 6.69609E-17-2.35225E-17-1.78576E-16
 -1        17-1.71422E-07 3.27941E-16 5.75955E-16 9.70746E-16 1.45622E-16-6.58592E-16
 -1        18-3.42843E-07 3.11477E-15 2.48929E-15-1.11812E-15 5.38153E-17 1.27807E-15
 -1        19-3.42843E-07-5.42366E-23-1.57867E-22-3.12870E-24 1.80034E-23 3.24055E-23
 -1        20-1.71422E-07-2.40473E-23-2.46963E-23-1.92448E-23 6.58965E-24-8.32112E-24
 -1        21-1.71422E-07-8.20038E-16-8.49873E-16 4.31259E-16-3.75930E-17 1.25081E-16
 -1        22-1.71422E-07-5.36070E-16-5.24804E-16 3.99011E-16 2.65070E-17 3.60229E-16
 -1        23-1.71422E-07-8.42730E-16-3.86681E-16 1.17432E-15-4.33345E-17 4.17698E-16
 -1        24-3.42843E-07 5.19039E-16-2.95586E-17 4.85593E-16 3.48140E-16-1.23088E-15
 -3
    1PSTEP                         6           2           1          
  100CL  102 2.00000E-03          24                     0    2           1
 -4  TOSTRAIN    6    1
 -5  EXX         1    4    1    1
 -5  EYY         1    4    2    2
 -5  EZZ         1    4    3    3
 -5  EXY         1    4    1    2
 -5  EYZ         1    4    2    3
 -5  EZX         1    4    3    1
 -1         1-1.63259E-12 4.89776E-13 4.89776E-13-5.51795E-29-5.85928E-30 3.36095E-29
 -1         2-8.16294E-13 2.44888E-13 2.44888E-13-3.29118E-29 1.07108E-30-2.95935E-28
 -1         3-8.16294E-13 2.44888E-13 2.44888E-13-1.78613E-21-1.27234E-28-2.51308E-21
 -1         4-8.16294E-13 2.44888E-13 2.44888E-13 3.73164E-21 1.30291E-27 1.16604E-21
 -1         5-8.16294E-13 2.44888E-13 2.44888E-13 1.03270E-23-9.24184E-27 4.56385E-21
 -1         6-1.63259E-12 4.89776E-13 4.89776E-13 1.00866E-20-8.92965E-27-1.25573E-20
 -1         7-1.63259E-12 4.89776E-13 4.89776E-13-5.73046E-29 1.52243E-28-3.78689E-29
 -1         8-8.16294E-13 2.44888E-13 2.44888E-13-3.39744E-29 3.53278E-29-6.73007E-29
 -1         9-8.16294E-13 2.44888E-13 2.44888E-13-5.54102E-22-2.78526E-22 3.78539E-22
 -1        10-8.16294E-13 2.44888E-13 2.44888E-13-3.28029E-21 3.09707E-22 7.87885E-22
 -1        11-8.16294E-13 2.44888E-13 2.44888E-13-4.79907E-22-1.16974E-21-5.64337E-21
 -1        12-1.63259E-12 4.89776E-13 4.89776E-13 5.51040E-21 1.82200E-21 8.59071E-21
 -1        13-1.63259E-12 4.89776E-13 4.89776E-13 6.32197E-29 5.07117E-30 2.26113E-28
 -1        14-8.16294E-13 2.44888E-13 2.44888E-13-7.78405E-29-3.93296E-31-1.71965E-28
 -1        15-8.16294E-13 2.44888E-13 2.44888E-13 2.82308E-21 4.58071E-23-8.79548E-22
 -1        16-8.16294E-13 2.44888E-13 2.44888E-13 4.14520E-22-1.45616E-22-1.10547E-21
 -1        17-8.16294E-13 2.44888E-13 2.44888E-13 6.00938E-21 9.01472E-22-4.07700E-21
 -1        18-1.63259E-12 4.89776E-13 4.89776E-13-6.92168E-21 3.33142E-22 7.91185E-21
 -1        19-1.63259E-12 4.89776E-13 4.89776E-13-1.93682E-29 1.11450E-28 2.00605E-28
 -1        20-8.16294E-13 2.44888E-13 2.44888E-13-1.19134E-28 4.07931E-29-5.15117E-29
 -1        21-8.16294E-13 2.44888E-13 2.44888E-13 2.66970E-21-2.32719E-22 7.74310E-22
 -1        22-8.16294E-13 2.44888E-13 2.44888E-13 2.47007E-21 1.64091E-22 2.22999E-21
 -1        23-8.16294E-13 2.44888E-13 2.44888E-13 7.26958E-21-2.68261E-22 2.58575E-21
 -1        24-1.63259E-12 4.89776E-13 4.89776E-13 3.00605E-21 2.15515E-21-7.61973E-21
 -3
    1PSTEP                         7           3           1          
  100CL  103 3.50000E-03          24                     0    3           1
 -4  DISP        4    1
 -5  D1          1    2    1    0
 -5  D2          1    2    2    0
 -5  D3          1    2    3    0
 -5  ALL         1    2    0    0    1ALL
 -1         1 0.00000E+00 0.00000E+00 0.00000E+00
 -1         2-1.42857E-09 0.00000E+00 0.00000E+00
 -1         3-5.25000E-02 0.00000E+00 0.00000E+00
 -1         4-5.25000E-02 0.00000E+00 0.00000E+00
 -1         5-1.05000E-01 0.00000E+00 0.00000E+00
 -1         6-1.05000E-01 0.00000E+00 0.00000E+00
 -1         7 0.00000E+00 4.28571E-10 0.00000E+00
 -1         8-1.42857E-09 4.28571E-10 0.00000E+00
 -1         9-5.25000E-02 4.28571E-10 0.00000E+00
 -1        10-5.25000E-02 4.28571E-10 0.00000E+00
 -1        11-1.05000E-01 4.28571E-10 0.00000E+00
 -1        12-1.05000E-01 4.28571E-10 0.00000E+00
 -1        13 0.00000E+00 0.00000E+00 6.00000E-10
 -1        14-1.42857E-09 0.00000E+00 6.00000E-10
 -1        15-5.25000E-02 0.00000E+00 6.00000E-10
 -1        16-5.25000E-02 0.00000E+00 6.00000E-10
 -1        17-1.05000E-01 0.00000E+00 6.00000E-10
 -1        18-1.05000E-01 0.00000E+00 6.00000E-10
 -1        19 0.00000E+00 4.28571E-10 6.00000E-10
 -1        20-1.42857E-09 4.28571E-10 6.00000E-10
 -1        21-5.25000E-02 4.28571E-10 6.00000E-10
 -1        22-5.25000E-02 4.28571E-10 6.00000E-10
 -1        23-1.05000E-01 4.28571E-10 6.00000E-10
 -1        24-1.05000E-01 4.28571E-10 6.00000E-10
 -3
    1PSTEP                         8           3           1          
  100CL  103 3.50000E-03          24                     0    3           1
 -4  STRESS      6    1
 -5  SXX         1    4    1    1
 -5  SYY         1    4    2    2
 -5  SZZ         1    4    3    3
 -5  SXY         1    4    1    2
 -5  SYZ         1    4    2    3
 -5  SZX         1    4    3    1
 -1         1-5.99976E-07 5.81298E-23-6.71231E-23-1.35210E-23 4.62484E-24 3.71753E-24
 -1         2-2.99988E-07-1.08473E-22-1.67797E-23 2.83005E-23-2.27805E-24-3.62544E-23
 -1         3-2.99988E-07-2.85748E-16-4.05790E-16-1.70248E-16-6.76156E-22-8.12850E-16
 -1         4-2.99988E-07-3.80292E-16-4.37065E-16 2.88423E-16 1.86678E-22 1.73869E-15
 -1         5-2.99988E-07 2.78284E-15 2.83786E-15-9.70299E-16 6.30456E-22-2.99143E-15
 -1         6-5.99976E-07 6.07659E-15 6.37579E-15 5.85456E-15-1.67163E-21 2.00281E-15
 -1         7-5.99976E-07-5.81298E-23-9.16913E-23-7.00302E-23 1.24378E-23-9.37536E-24
 -1         8-2.99988E-07 1.08473E-22 1.08474E-22 4.52347E-24 2.07429E-23-4.20912E-23
 -1         9-2.99988E-07-2.50652E-16-4.97388E-16 2.77453E-16-2.09266E-17-1.95790E-16
 -1        10-2.99988E-07-4.52246E-17 1.71272E-16 1.25089E-16-5.30217E-17-5.64237E-16
 -1        11-2.99988E-07-1.89326E-15-1.50536E-15 1.11472E-15-1.94591E-17 6.57533E-16
 -1        12-5.99976E-07-4.46420E-15-5.08404E-15-2.79152E-15 2.40778E-16 2.94230E-15
 -1        13-5.99976E-07-5.81298E-23-5.81298E-23-1.56731E-23-1.85491E-23 2.35272E-23
 -1        14-2.99988E-07 1.08473E-22 4.58467E-23-4.99776E-24 7.54318E-24-2.41107E-23
 -1        15-2.99988E-07 1.16378E-15 1.10233E-15 4.79339E-16-8.86861E-17-1.15361E-16
 -1        16-2.99988E-07 9.11969E-16 1.00366E-15-4.93984E-16 1.91289E-16-8.42977E-16
 -1        17-2.99988E-07-2.23827E-15-2.12876E-15 1.67011E-16 2.33015E-16-8.40169E-16
 -1        18-5.99976E-07-2.59510E-15-2.97009E-15 3.93313E-15-6.43328E-16-4.63584E-16
 -1        19-5.99976E-07 5.81298E-23-1.25255E-22 2.39348E-23-1.07361E-23 3.78493E-23
 -1        20-2.99988E-07-1.08473E-22-1.25254E-22-1.90465E-24 3.05641E-23-2.68343E-23
 -1        21-2.99988E-07 5.83160E-16 3.95017E-16-1.47347E-15-1.09612E-16 6.80179E-17
 -1        22-2.99988E-07 6.31317E-16 9.96275E-16 3.19262E-16 1.38267E-16-2.02494E-16
 -1        23-2.99988E-07 2.93714E-15 3.37953E-15-2.11308E-15 2.13555E-16-1.74606E-15
 -1        24-5.99976E-07 6.56713E-15 5.27311E-15-1.35676E-15-4.02548E-16 2.03068E-15
 -3
    1PSTEP                         9           3           1          
  100CL  103 3.50000E-03          24                     0    3           1
 -4  TOSTRAIN    6    1
 -5  EXX         1    4    1    1
 -5  EYY         1    4    2    2
 -5  EZZ         1    4    3    3
 -5  EXY         1    4    1    2
 -5  EYZ         1    4    2    3
 -5  EZX         1    4    3    1
 -1         1-2.85703E-12 8.57108E-13 8.57108E-13-8.37013E-29 2.86300E-29 2.30133E-29
 -1         2-1.42851E-12 4.28554E-13 4.28554E-13 1.75193E-28-1.41022E-29-2.24432E-28
 -1         3-1.42851E-12 4.28554E-13 4.28554E-13-1.05391E-21-4.18573E-27-5.03193E-21
 -1         4-1.42851E-12 4.28554E-13 4.28554E-13 1.78548E-21 1.15563E-27 1.07633E-20
 -1         5-1.42851E-12 4.28554E-13 4.28554E-13-6.00662E-21 3.90282E-27-1.85184E-20
 -1         6-2.85703E-12 8.57108E-13 8.57108E-13 3.62425E-20-1.03482E-26 1.23983E-20
 -1         7-2.85703E-12 8.57108E-13 8.57108E-13-4.33520E-28 7.69957E-29-5.80379E-29
 -1         8-1.42851E-12 4.28554E-13 4.28554E-13 2.80024E-29 1.28408E-28-2.60565E-28
 -1         9-1.42851E-12 4.28554E-13 4.28554E-13 1.71757E-21-1.29546E-22-1.21204E-21
 -1        10-1.42851E-12 4.28554E-13 4.28554E-13 7.74360E-22-3.28230E-22-3.49290E-21
 -1        11-1.42851E-12 4.28554E-13 4.28554E-13 6.90068E-21-1.20461E-22 4.07044E-21
 -1        12-2.85703E-12 8.57108E-13 8.57108E-13-1.72808E-20 1.49053E-21 1.82142E-20
 -1        13-2.85703E-12 8.57108E-13 8.57108E-13-9.70241E-29-1.14828E-28 1.45645E-28
 -1        14-1.42851E-12 4.28554E-13 4.28554E-13-3.09385E-29 4.66959E-29-1.49257E-28
 -1        15-1.42851E-12 4.28554E-13 4.28554E-13 2.96734E-21-5.49009E-22-7.14139E-22
 -1        16-1.42851E-12 4.28554E-13 4.28554E-13-3.05800E-21 1.18417E-21-5.21843E-21
 -1        17-1.42851E-12 4.28554E-13 4.28554E-13 1.03388E-21 1.44247E-21-5.20105E-21
 -1        18-2.85703E-12 8.57108E-13 8.57108E-13 2.43479E-20-3.98251E-21-2.86980E-21
 -1        19-2.85703E-12 8.57108E-13 8.57108E-13 1.48168E-28-6.64619E-29 2.34305E-28
 -1        20-1.42851E-12 4.28554E-13 4.28554E-13-1.17907E-29 1.89206E-28-1.66117E-28
 -1        21-1.42851E-12 4.28554E-13 4.28554E-13-9.12147E-21-6.78551E-22 4.21063E-22
 -1        22-1.42851E-12 4.28554E-13 4.28554E-13 1.97638E-21 8.55936E-22-1.25353E-21
 -1        23-1.42851E-12 4.28554E-13 4.28554E-13-1.30810E-20 1.32201E-21-1.08089E-20
 -1        24-2.85703E-12 8.57108E-13 8.57108E-13-8.39898E-21-2.49197E-21 1.25709E-20
 -3
    1PSTEP                        10           4           1          
  100CL  104 5.75000E-03          24                     0    4           1
 -4  DISP        4    1
 -5  D1          1    2    1    0
 -5  D2          1    2    2    0
 -5  D3          1    2    3    0
 -5  ALL         1    2    0    0    1ALL
 -1         1 0.00000E+00 0.00000E+00 0.00000E+00
 -1         2-2.34694E-09 0.00000E+00 0.00000E+00
 -1         3-8.62500E-02 0.00000E+00 0.00000E+00
 -1         4-8.62500E-02 0.00000E+00 0.00000E+00
 -1         5-1.72500E-01 0.00000E+00 0.00000E+00
 -1         6-1.72500E-01 0.00000E+00 0.00000E+00
 -1         7 0.00000E+00 7.04082E-10 0.00000E+00
 -1         8-2.34694E-09 7.04082E-10 0.00000E+00
 -1         9-8.62500E-02 7.04082E-10 0.00000E+00
 -1        10-8.62500E-02 7.04082E-10 0.00000E+00
 -1        11-1.72500E-01 7.04082E-10 0.00000E+00
 -1        12-1.72500E-01 7.04082E-10 0.00000E+00
 -1        13 0.00000E+00 0.00000E+00 9.85714E-10
 -1        14-2.34694E-09 0.00000E+00 9.85714E-10
 -1        15-8.62500E-02 0.00000E+00 9.85714E-10
 -1        16-8.62500E-02 0.00000E+00 9.85714E-10
 -1        17-1.72500E-01 0.00000E+00 9.85714E-10
 -1        18-1.72500E-01 0.00000E+00 9.85714E-10
 -1        19 0.00000E+00 7.04082E-10 9.85714E-10
 -1        20-2.34694E-09 7.04082E-10 9.85714E-10
 -1        21-8.62500E-02 7.04082E-10 9.85714E-10
 -1        22-8.62500E-02 7.04082E-10 9.85714E-10
 -1        23-1.72500E-01 7.04082E-10 9.85714E-10
 -1        24-1.72500E-01 7.04082E-10 9.85714E-10
 -3
    1PSTEP                        11           4           1          
  100CL  104 5.75000E-03          24                     0    4           1
 -4  STRESS      6    1
 -5  SXX         1    4    1    1
 -5  SYY         1    4    2    2
 -5  SZZ         1    4    3    3
 -5  SXY         1    4    1    2
 -5  SYZ         1    4    2    3
 -5  SZX         1    4    3    1
 -1         1-9.85675E-07 9.87852E-23-6.26275E-23-2.79998E-24 1.39255E-23 4.09820E-24
 -1         2-4.92837E-07 6.61734E-23 2.71186E-22-4.94793E-23-5.05101E-24-1.65234E-22
 -1         3-4.92837E-07-5.21275E-16-8.86097E-16 1.70632E-15 5.95408E-23 3.61731E-16
 -1         4-4.92837E-07-7.14877E-16-4.87050E-16-1.76849E-16-2.50545E-23 1.17632E-15
 -1         5-4.92837E-07-3.68024E-16-1.92927E-15 2.63865E-15-6.90788E-21 3.64831E-15
 -1         6-9.85675E-07-1.09575E-14-8.93182E-15-5.03567E-15 6.79258E-21-4.36237E-15
 -1         7-9.85675E-07 2.15049E-22-5.03413E-23-4.63775E-23 6.66438E-23-1.09611E-24
 -1         8-4.92837E-07 1.24305E-22 2.26986E-22-7.12680E-23 1.31925E-24-3.63238E-23
 -1         9-4.92837E-07-2.97276E-15-3.24186E-15 1.55121E-15-5.67788E-17-1.71562E-15
 -1        10-4.92837E-07-3.24186E-15-3.01897E-15-2.01846E-16-8.65207E-18 3.79951E-17
 -1        11-4.92837E-07 5.65925E-15 3.87828E-15-7.92504E-16-1.19819E-15-6.89513E-16
 -1        12-9.85675E-07 2.60673E-15 6.20589E-15 7.24710E-15 2.01796E-15-9.81085E-16
 -1        13-9.85675E-07-3.01550E-22-6.92195E-22-8.34058E-24-2.91445E-23 1.21583E-22
 -1        14-4.92837E-07-2.13403E-22-9.39412E-23 1.25133E-22-3.75851E-24-1.06492E-22
 -1        15-4.92837E-07-4.78861E-16-6.84702E-16-3.70469E-16 6.70062E-17-2.29407E-16
 -1        16-4.92837E-07-4.36642E-16-1.84590E-16-2.76362E-16-3.45692E-18 1.21634E-15
 -1        17-4.92837E-07-4.70833E-17 1.74659E-15-4.21083E-15-1.53807E-16-1.25267E-15
 -1        18-9.85675E-07 1.13146E-14 7.68998E-15 1.23142E-15 1.10145E-15 6.10219E-15
 -1        19-9.85675E-07 1.32347E-22-1.45330E-22-1.13084E-22 5.69955E-23 1.28622E-22
 -1        20-4.92837E-07 3.54589E-24-8.38986E-24 7.27607E-23-1.86584E-24 2.85350E-23
 -1        21-4.92837E-07-1.08319E-15-1.19331E-15-5.33328E-16 1.02273E-17 1.84564E-15
 -1        22-4.92837E-07-1.11646E-15-8.69350E-16 4.63810E-17-1.21090E-17-2.13126E-16
 -1        23-4.92837E-07-8.18137E-15-6.60740E-15-1.54709E-15-1.35199E-15 1.55297E-15
 -1        24-9.85675E-07-3.44432E-15-5.49541E-15-2.73467E-15 3.11940E-15-6.09016E-15
 -3
    1PSTEP                        12           4           1          
  100CL  104 5.75000E-03          24                     0    4           1
 -4  TOSTRAIN    6    1
 -5  EXX         1    4    1    1
 -5  EYY         1    4    2    2
 -5  EZZ         1    4    3    3
 -5  EXY         1    4    1    2
 -5  EYZ         1    4    2    3
 -5  EZX         1    4    3    1
 -1         1-4.69369E-12 1.40811E-12 1.40811E-12-1.73332E-29 8.62052E-29 2.53698E-29
 -1         2-2.34684E-12 7.04053E-13 7.04053E-13-3.06300E-28-3.12682E-29-1.02288E-27
 -1         3-2.34684E-12 7.04053E-13 7.04053E-13 1.05629E-20 3.68586E-28 2.23929E-21
 -1         4-2.34684E-12 7.04053E-13 7.04053E-13-1.09478E-21-1.55100E-28 7.28200E-21
 -1         5-2.34684E-12 7.04053E-13 7.04053E-13 1.63345E-20-4.27631E-26 2.25848E-20
 -1         6-4.69369E-12 1.40811E-12 1.40811E-12-3.11732E-20 4.20493E-26-2.70052E-20
 -1         7-4.69369E-12 1.40811E-12 1.40811E-12-2.87099E-28 4.12557E-28-6.78546E-30
 -1         8-2.34684E-12 7.04053E-13 7.04053E-13-4.41183E-28 8.16679E-30-2.24862E-28
 -1         9-2.34684E-12 7.04053E-13 7.04053E-13 9.60270E-21-3.51488E-22-1.06205E-20
 -1        10-2.34684E-12 7.04053E-13 7.04053E-13-1.24952E-21-5.35604E-23 2.35208E-22
 -1        11-2.34684E-12 7.04053E-13 7.04053E-13-4.90598E-21-7.41739E-21-4.26841E-21
 -1        12-4.69369E-12 1.40811E-12 1.40811E-12 4.48630E-20 1.24921E-20-6.07338E-21
 -1        13-4.69369E-12 1.40811E-12 1.40811E-12-5.16322E-29-1.80418E-28 7.52655E-28
 -1        14-2.34684E-12 7.04053E-13 7.04053E-13 7.74630E-28-2.32670E-29-6.59235E-28
 -1        15-2.34684E-12 7.04053E-13 7.04053E-13-2.29338E-21 4.14800E-22-1.42014E-21
 -1        16-2.34684E-12 7.04053E-13 7.04053E-13-1.71081E-21-2.14000E-23 7.52975E-21
 -1        17-2.34684E-12 7.04053E-13 7.04053E-13-2.60670E-20-9.52136E-22-7.75463E-21
 -1        18-4.69369E-12 1.40811E-12 1.40811E-12 7.62307E-21 6.81848E-21 3.77755E-20
 -1        19-4.69369E-12 1.40811E-12 1.40811E-12-7.00046E-28 3.52830E-28 7.96229E-28
 -1        20-2.34684E-12 7.04053E-13 7.04053E-13 4.50423E-28-1.15504E-29 1.76646E-28
 -1        21-2.34684E-12 7.04053E-13 7.04053E-13-3.30156E-21 6.33118E-23 1.14254E-20
 -1        22-2.34684E-12 7.04053E-13 7.04053E-13 2.87120E-22-7.49602E-23-1.31935E-21
 -1        23-2.34684E-12 7.04053E-13 7.04053E-13-9.57722E-21-8.36948E-21 9.61364E-21
 -1        24-4.69369E-12 1.40811E-12 1.40811E-12-1.69289E-20 1.93105E-20-3.77010E-20
 -3
    1PSTEP                        13           5           1          
  100CL  105 9.12500E-03          24                     0    5           1
 -4  DISP        4    1
 -5  D1          1    2    1    0
 -5  D2          1    2    2    0
 -5  D3          1    2    3    0
 -5  ALL         1    2    0    0    1ALL
 -1         1 0.00000E+00 0.00000E+00 0.00000E+00
 -1         2-3.72449E-09 0.00000E+00 0.00000E+00
 -1         3-1.36875E-01 0.00000E+00 0.00000E+00
 -1         4-1.36875E-01 0.00000E+00 0.00000E+00
 -1         5-2.73750E-01 0.00000E+00 0.00000E+00
 -1         6-2.73750E-01 0.00000E+00 0.00000E+00
 -1         7 0.00000E+00 1.11735E-09 0.00000E+00
 -1         8-3.72449E-09 1.11735E-09 0.00000E+00
 -1         9-1.36875E-01 1.11735E-09 0.00000E+00
 -1        10-1.36875E-01 1.11735E-09 0.00000E+00
 -1        11-2.73750E-01 1.11735E-09 0.00000E+00
 -1        12-2.73750E-01 1.11735E-09 0.00000E+00
 -1        13 0.00000E+00 0.00000E+00 1.56429E-09
 -1        14-3.72449E-09 0.00000E+00 1.56429E-09
 -1        15-1.36875E-01 0.00000E+00 1.56429E-09
 -1        16-1.36875E-01 0.00000E+00 1.56429E-09
 -1        17-2.73750E-01 0.00000E+00 1.56429E-09
 -1        18-2.73750E-01 0.00000E+00 1.56429E-09
 -1        19 0.00000E+00 1.11735E-09 1.56429E-09
 -1        20-3.72449E-09 1.11735E-09 1.56429E-09
 -1        21-1.36875E-01 1.11735E-09 1.56429E-09
 -1        22-1.36875E-01 1.11735E-09 1.56429E-09
 -1        23-2.73750E-01 1.11735E-09 1.56429E-09
 -1        24-2.73750E-01 1.11735E-09 1.56429E-09
 -3
    1PSTEP                        14           5           1          
  100CL  105 9.12500E-03          24                     0    5           1
 -4  STRESS      6    1
 -5  SXX         1    4    1    1
 -5  SYY         1    4    2    2
 -5  SZZ         1    4    3    3
 -5  SXY         1    4    1    2
 -5  SYZ         1    4    2    3
 -5  SZX         1    4    3    1
 -1         1-1.56422E-06 4.39441E-23 9.68836E-23 6.11867E-24 2.81427E-23 3.10608E-23
 -1         2-7.82111E-07 2.26636E-22 1.27851E-22-1.93688E-22-3.07267E-24-1.09041E-22
 -1         3-7.82111E-07-5.13350E-16-1.68518E-17-2.81190E-15-1.14039E-21 9.04573E-16
 -1         4-7.82111E-07-5.53340E-16-1.22605E-15-1.88830E-15 1.54443E-21-3.50299E-15
 -1         5-7.82111E-07-2.58487E-15-5.11009E-15 7.10980E-16 2.66685E-21 3.97732E-17
 -1         6-1.56422E-06-8.29197E-15-3.51973E-15 2.27699E-15-7.51880E-21-1.70381E-14
 -1         7-1.56422E-06-9.68879E-23-4.39483E-23 7.55479E-23 5.19626E-23-2.54905E-23
 -1         8-7.82111E-07 2.14350E-22 1.15565E-22-1.58973E-22-2.30553E-23 1.01232E-22
 -1         9-7.82111E-07 2.11257E-15 2.01791E-15-3.13125E-15 1.76922E-17 1.65355E-15
 -1        10-7.82111E-07 3.03158E-15 3.04639E-15 9.56152E-17-1.09138E-16 4.30592E-16
 -1        11-7.82111E-07 1.43478E-16 7.59200E-18-1.17968E-16-7.35080E-16-8.65615E-16
 -1        12-1.56422E-06-9.77162E-15-9.46917E-15-1.46279E-15 1.38176E-15 1.09471E-14
 -1        13-1.56422E-06 1.53622E-22 1.39439E-22-1.14501E-25-4.25794E-23 2.58905E-23
 -1        14-7.82111E-07 1.80789E-22 2.07258E-22-1.07213E-24-1.37475E-23-1.11626E-22
 -1        15-7.82111E-07-3.04519E-15-2.59823E-15 1.05999E-16-4.13807E-16-1.21995E-15
 -1        16-7.82111E-07-3.70666E-15-4.07378E-15 2.92239E-15 4.81266E-16 1.66189E-15
 -1        17-7.82111E-07-5.25043E-15-5.71742E-15-4.42230E-15 1.67254E-15 2.58470E-15
 -1        18-1.56422E-06 3.51368E-16 1.25467E-15 4.70581E-15-3.12886E-15-5.13913E-15
 -1        19-1.56422E-06-1.88583E-22-2.02767E-22 8.14843E-24-8.56028E-23-6.19435E-24
 -1        20-7.82111E-07-2.07260E-22-1.80791E-22 3.05933E-24-2.47749E-23 1.10880E-22
 -1        21-7.82111E-07 1.96450E-16 5.22555E-17 8.86150E-16-3.96113E-16 2.37726E-15
 -1        22-7.82111E-07 4.93979E-16 8.14383E-16-3.74063E-17 3.72126E-16-7.98861E-16
 -1        23-7.82111E-07-1.90636E-15 1.59872E-17-2.65393E-15 9.37454E-16-1.84738E-15
 -1        24-1.56422E-06 1.03165E-16-3.46332E-15 4.72941E-16-1.74710E-15 2.99536E-15
 -3
    1PSTEP                        15           5           1          
  100CL  105 9.12500E-03          24                     0    5           1
 -4  TOSTRAIN    6    1
 -5  EXX         1    4    1    1
 -5  EYY         1    4    2    2
 -5  EZZ         1    4    3    3
 -5  EXY         1    4    1    2
 -5  EYZ         1    4    2    3
 -5  EZX         1    4    3    1
 -1         1-7.44868E-12 2.23460E-12 2.23460E-12 3.78775E-29 1.74217E-28 1.92281E-28
 -1         2-3.72434E-12 1.11730E-12 1.11730E-12-1.19902E-27-1.90213E-29-6.75016E-28
 -1         3-3.72434E-12 1.11730E-12 1.11730E-12-1.74070E-20-7.05955E-27 5.59974E-21
 -1         4-3.72434E-12 1.11730E-12 1.11730E-12-1.16895E-20 9.56076E-27-2.16852E-20
 -1         5-3.72434E-12 1.11730E-12 1.11730E-12 4.40130E-21 1.65091E-26 2.46215E-22
 -1         6-7.44868E-12 2.23460E-12 2.23460E-12 1.40957E-20-4.65449E-26-1.05474E-19
 -1         7-7.44868E-12 2.23460E-12 2.23460E-12 4.67677E-28 3.21673E-28-1.57798E-28
 -1         8-3.72434E-12 1.11730E-12 1.11730E-12-9.84118E-28-1.42723E-28 6.26673E-28
 -1         9-3.72434E-12 1.11730E-12 1.11730E-12-1.93839E-20 1.09523E-22 1.02363E-20
 -1        10-3.72434E-12 1.11730E-12 1.11730E-12 5.91904E-22-6.75619E-22 2.66557E-21
 -1        11-3.72434E-12 1.11730E-12 1.11730E-12-7.30280E-22-4.55050E-21-5.35857E-21
 -1        12-7.44868E-12 2.23460E-12 2.23460E-12-9.05540E-21 8.55373E-21 6.77678E-20
 -1        13-7.44868E-12 2.23460E-12 2.23460E-12-7.08817E-31-2.63587E-28 1.60274E-28
 -1        14-3.72434E-12 1.11730E-12 1.11730E-12-6.63701E-30-8.51033E-29-6.91019E-28
 -1        15-3.72434E-12 1.11730E-12 1.11730E-12 6.56186E-22-2.56166E-21-7.55206E-21
 -1        16-3.72434E-12 1.11730E-12 1.11730E-12 1.80910E-20 2.97926E-21 1.02879E-20
 -1        17-3.72434E-12 1.11730E-12 1.11730E-12-2.73761E-20 1.03538E-20 1.60005E-20
 -1        18-7.44868E-12 2.23460E-12 2.23460E-12 2.91312E-20-1.93691E-20-3.18136E-20
 -1        19-7.44868E-12 2.23460E-12 2.23460E-12 5.04427E-29-5.29922E-28-3.83460E-29
 -1        20-3.72434E-12 1.11730E-12 1.11730E-12 1.89387E-29-1.53368E-28 6.86399E-28
 -1        21-3.72434E-12 1.11730E-12 1.11730E-12 5.48569E-21-2.45213E-21 1.47164E-20
 -1        22-3.72434E-12 1.11730E-12 1.11730E-12-2.31563E-22 2.30363E-21-4.94533E-21
 -1        23-3.72434E-12 1.11730E-12 1.11730E-12-1.64291E-20 5.80329E-21-1.14362E-20
 -1        24-7.44868E-12 2.23460E-12 2.23460E-12 2.92773E-21-1.08154E-20 1.85427E-20
 -3
    1PSTEP                        16           6           1          
  100CL  106 1.41875E-02          24                     0    6           1
 -4  DISP        4    1
 -5  D1          1    2    1    0
 -5  D2          1    2    2    0
 -5  D3          1    2    3    0
 -5  ALL         1    2    0    0    1ALL
 -1         1 0.00000E+00 0.00000E+00 0.00000E+00
 -1         2-5.79082E-09 0.00000E+00 0.00000E+00
 -1         3-2.12812E-01 0.00000E+00 0.00000E+00
 -1         4-2.12812E-01 0.00000E+00 0.00000E+00
 -1         5-4.25625E-01 0.00000E+00 0.00000E+00
 -1         6-4.25625E-01 0.00000E+00 0.00000E+00
 -1         7 0.00000E+00 1.73724E-09 0.00000E+00
 -1         8-5.79082E-09 1.73724E-09 0.00000E+00
 -1         9-2.12812E-01 1.73724E-09 0.00000E+00
 -1        10-2.12812E-01 1.73724E-09 0.00000E+00
 -1        11-4.25625E-01 1.73724E-09 0.00000E+00
 -1        12-4.25625E-01 1.73724E-09 0.00000E+00
 -1        13 0.00000E+00 0.00000E+00 2.43214E-09
 -1        14-5.79082E-09 0.00000E+00 2.43214E-09
 -1        15-2.12812E-01 0.00000E+00 2.43214E-09
 -1        16-2.12812E-01 0.00000E+00 2.43214E-09
 -1        17-4.25625E-01 0.00000E+00 2.43214E-09
 -1        18-4.25625E-01 0.00000E+00 2.43214E-09
 -1        19 0.00000E+00 1.73724E-09 2.43214E-09
 -1        20-5.79082E-09 1.73724E-09 2.43214E-09
 -1        21-2.12812E-01 1.73724E-09 2.43214E-09
 -1        22-2.12812E-01 1.73724E-09 2.43214E-09
 -1        23-4.25625E-01 1.73724E-09 2.43214E-09
 -1        24-4.25625E-01 1.73724E-09 2.43214E-09
 -3
    1PSTEP                        17           6           1          
  100CL  106 1.41875E-02          24                     0    6           1
 -4  STRESS      6    1
 -5  SXX         1    4    1    1
 -5  SYY         1    4    2    2
 -5  SZZ         1    4    3    3
 -5  SXY         1    4    1    2
 -5  SYZ         1    4    2    3
 -5  SZX         1    4    3    1
 -1         1-2.43205E-06-4.62268E-22-1.83391E-22 2.69613E-23-3.86021E-24 5.09403E-23
 -1         2-1.21602E-06-1.88579E-22-2.45724E-23 1.63695E-22 1.08808E-24-5.22458E-23
 -1         3-1.21602E-06-5.17869E-15-3.58513E-15 4.35930E-15 2.35784E-21 1.77695E-15
 -1         4-1.21602E-06-3.61646E-15-4.91796E-15 1.42013E-15 1.78450E-21 3.85484E-15
 -1         5-1.21602E-06 3.85075E-15 1.11906E-15 6.14401E-16 2.34546E-21 5.45691E-15
 -1         6-2.43205E-06 7.04122E-15 1.38895E-14 9.56540E-15-8.66442E-21-2.10287E-14
 -1         7-2.43205E-06-2.78877E-22 1.83383E-22-1.28077E-22-2.56949E-23-5.83289E-23
 -1         8-1.21602E-06 3.37009E-22 1.58814E-22 8.61756E-23 6.55059E-25 1.77323E-22
 -1         9-1.21602E-06-4.87037E-15-3.60613E-15 4.64053E-15 1.91536E-16 1.65219E-15
 -1        10-1.21602E-06-3.13600E-15-4.53731E-15 3.90401E-15-1.36178E-16-2.40838E-15
 -1        11-1.21602E-06 6.61338E-15 5.99139E-15 1.94384E-15-4.67809E-16-8.61193E-16
 -1        12-2.43205E-06 5.70166E-15 7.61620E-15-9.72165E-15 1.66969E-15 1.78036E-14
 -1        13-2.43205E-06 4.90635E-22 3.17629E-22-1.12848E-23-4.10671E-23 3.68147E-23
 -1        14-1.21602E-06-2.31134E-22-9.16956E-23 1.69038E-22-2.07934E-23-5.03534E-23
 -1        15-1.21602E-06-8.40947E-16 2.16322E-16 1.94905E-16-2.30528E-16 2.17973E-15
 -1        16-1.21602E-06-8.84517E-16-1.80471E-15-5.46737E-15-6.98632E-17-2.29132E-15
 -1        17-1.21602E-06-1.05071E-16-1.52689E-15-1.73849E-15 1.47679E-15-3.10463E-15
 -1        18-2.43205E-06 1.18957E-14 1.40687E-14 9.18439E-15-3.45360E-15 8.39098E-15
 -1        19-2.43205E-06 9.06546E-22 6.84403E-22-1.84673E-22 3.94157E-24-5.61106E-24
 -1        20-1.21602E-06-1.39439E-22 9.16913E-23 8.23441E-23-3.01816E-23 1.70260E-22
 -1        21-1.21602E-06-4.84266E-15-4.11472E-15 1.67586E-16-3.89940E-17-6.38982E-16
 -1        22-1.21602E-06-4.71409E-15-5.73409E-15-4.00302E-15-2.06043E-16 2.25986E-15
 -1        23-1.21602E-06-9.65683E-15-8.96895E-15 1.11418E-15 1.00898E-15 9.82411E-15
 -1        24-2.43205E-06-1.40727E-14-1.68333E-14-4.21231E-15-1.78390E-15-2.44280E-15
 -3
    1PSTEP                        18           6           1          
  100CL  106 1.41875E-02          24                     0    6           1
 -4  TOSTRAIN    6    1
 -5  EXX         1    4    1    1
 -5  EYY         1    4    2    2
 -5  EZZ         1    4    3    3
 -5  EXY         1    4    1    2
 -5  EYZ         1    4    2    3
 -5  EZX         1    4    3    1
 -1         1-1.15812E-11 3.47435E-12 3.47435E-12 1.66903E-28-2.38965E-29 3.15344E-28
 -1         2-5.79058E-12 1.73718E-12 1.73718E-12 1.01335E-27 6.73574E-30-3.23426E-28
 -1         3-5.79058E-12 1.73718E-12 1.73718E-12 2.69861E-20 1.45961E-26 1.10002E-20
 -1         4-5.79058E-12 1.73718E-12 1.73718E-12 8.79131E-21 1.10469E-26 2.38633E-20
 -1         5-5.79058E-12 1.73718E-12 1.73718E-12 3.80344E-21 1.45195E-26 3.37809E-20
 -1         6-1.15812E-11 3.47435E-12 3.47435E-12 5.92144E-20-5.36369E-26-1.30178E-19
 -1         7-1.15812E-11 3.47435E-12 3.47435E-12-7.92855E-28-1.59064E-28-3.61084E-28
 -1         8-5.79058E-12 1.73718E-12 1.73718E-12 5.33468E-28 4.05513E-30 1.09771E-27
 -1         9-5.79058E-12 1.73718E-12 1.73718E-12 2.87271E-20 1.18570E-21 1.02278E-20
 -1        10-5.79058E-12 1.73718E-12 1.73718E-12 2.41677E-20-8.43009E-22-1.49090E-20
 -1        11-5.79058E-12 1.73718E-12 1.73718E-12 1.20333E-20-2.89596E-21-5.33120E-21
 -1        12-1.15812E-11 3.47435E-12 3.47435E-12-6.01816E-20 1.03362E-20 1.10213E-19
 -1        13-1.15812E-11 3.47435E-12 3.47435E-12-6.98580E-29-2.54225E-28 2.27901E-28
 -1        14-5.79058E-12 1.73718E-12 1.73718E-12 1.04643E-27-1.28721E-28-3.11711E-28
 -1        15-5.79058E-12 1.73718E-12 1.73718E-12 1.20656E-21-1.42708E-21 1.34936E-20
 -1        16-5.79058E-12 1.73718E-12 1.73718E-12-3.38456E-20-4.32487E-22-1.41844E-20
 -1        17-5.79058E-12 1.73718E-12 1.73718E-12-1.07621E-20 9.14204E-21-1.92191E-20
 -1        18-1.15812E-11 3.47435E-12 3.47435E-12 5.68558E-20-2.13794E-20 5.19441E-20
 -1        19-1.15812E-11 3.47435E-12 3.47435E-12-1.14321E-27 2.44002E-29-3.47352E-29
 -1        20-5.79058E-12 1.73718E-12 1.73718E-12 5.09749E-28-1.86839E-28 1.05399E-27
 -1        21-5.79058E-12 1.73718E-12 1.73718E-12 1.03743E-21-2.41392E-22-3.95561E-21
 -1        22-5.79058E-12 1.73718E-12 1.73718E-12-2.47806E-20-1.27551E-21 1.39896E-20
 -1        23-5.79058E-12 1.73718E-12 1.73718E-12 6.89733E-21 6.24607E-21 6.08159E-20
 -1        24-1.15812E-11 3.47435E-12 3.47435E-12-2.60762E-20-1.10432E-20-1.51221E-20
 -3
    1PSTEP                        19           7           1          
  100CL  107 2.17813E-02          24                     0    7           1
 -4  DISP        4    1
 -5  D1          1    2    1    0
 -5  D2          1    2    2    0
 -5  D3          1    2    3    0
 -5  ALL         1    2    0    0    1ALL
 -1         1 0.00000E+00 0.00000E+00 0.00000E+00
 -1         2-8.89031E-09 0.00000E+00 0.00000E+00
 -1         3-3.26719E-01 0.00000E+00 0.00000E+00
 -1         4-3.26719E-01 0.00000E+00 0.00000E+00
 -1         5-6.53437E-01 0.00000E+00 0.00000E+00
 -1         6-6.53437E-01 0.00000E+00 0.00000E+00
 -1         7 0.00000E+00 2.66709E-09 0.00000E+00
 -1         8-8.89031E-09 2.66709E-09 0.00000E+00
 -1         9-3.26719E-01 2.66709E-09 0.00000E+00
 -1        10-3.26719E-01 2.66709E-09 0.00000E+00
 -1        11-6.53437E-01 2.66709E-09 0.00000E+00
 -1        12-6.53437E-01 2.66709E-09 0.00000E+00
 -1        13 0.00000E+00 0.00000E+00 3.73393E-09
 -1        14-8.89031E-09 0.00000E+00 3.73393E-09
 -1        15-3.26719E-01 0.00000E+00 3.73393E-09
 -1        16-3.26719E-01 0.00000E+00 3.73393E-09
 -1        17-6.53437E-01 0.00000E+00 3.73393E-09
 -1        18-6.53437E-01 0.00000E+00 3.73393E-09
 -1        19 0.00000E+00 2.66709E-09 3.73393E-09
 -1        20-8.89031E-09 2.66709E-09 3.73393E-09
 -1        21-3.26719E-01 2.66709E-09 3.73393E-09
 -1        22-3.26719E-01 2.66709E-09 3.73393E-09
 -1        23-6.53437E-01 2.66709E-09 3.73393E-09
 -1        24-6.53437E-01 2.66709E-09 3.73393E-09
 -3
    1PSTEP                        20           7           1          
  100CL  107 2.17813E-02          24                     0    7           1
 -4  STRESS      6    1
 -5  SXX         1    4    1    1
 -5  SYY         1    4    2    2
 -5  SZZ         1    4    3    3
 -5  SXY         1    4    1    2
 -5  SYZ         1    4    2    3
 -5  SZX         1    4    3    1
 -1         1-3.73378E-06-1.44639E-22 3.56381E-22 7.38836E-23-5.08303E-23-3.02433E-23
 -1         2-1.86689E-06 3.54996E-22 2.87868E-22-2.10493E-22 8.20397E-24 6.20138E-23
 -1         3-1.86689E-06-3.53339E-15-2.40099E-15-1.92636E-15-2.64761E-21 9.12586E-16
 -1         4-1.86689E-06-3.16502E-15-3.99697E-15 6.21651E-16-1.81605E-21 3.66974E-15
 -1         5-1.86689E-06 1.65599E-15-2.22188E-15 5.74670E-15-8.48586E-21 1.93613E-15
 -1         6-3.73378E-06 2.58283E-15 9.94506E-15-2.87427E-14-2.12836E-20-1.30639E-14
 -1         7-3.73378E-06-1.59855E-21-4.62268E-22 2.09649E-22-8.65598E-23 8.27129E-23
 -1         8-1.86689E-06 2.94454E-22-3.22830E-22-1.42611E-22-9.22352E-23 2.54816E-22
 -1         9-1.86689E-06-6.43627E-15-5.84408E-15-1.66802E-15 3.84302E-16-2.04752E-15
 -1        10-1.86689E-06-5.22259E-15-5.46765E-15 1.40046E-15-1.53023E-16 5.74539E-15
 -1        11-1.86689E-06 1.78650E-15 3.00697E-16-1.51966E-15-8.05001E-16-2.09261E-15
 -1        12-3.73378E-06-2.52823E-15 2.45536E-15 1.40737E-14 2.18799E-15 1.52479E-14
 -1        13-3.73378E-06-6.94787E-22-9.54945E-23-4.50819E-23 3.16997E-22-9.77825E-23
 -1        14-1.86689E-06-5.24199E-22-1.39443E-22 3.66153E-22-9.73103E-24-4.33973E-23
 -1        15-1.86689E-06 1.17832E-16 1.74178E-16-7.73659E-15-3.78143E-16 1.33111E-15
 -1        16-1.86689E-06-2.14671E-15-2.55019E-15 4.36245E-15 4.10823E-16-1.95894E-15
 -1        17-1.86689E-06-1.10811E-15-2.73201E-15 1.60790E-15 1.67444E-15-6.07453E-15
 -1        18-3.73378E-06 1.56648E-14 1.69006E-14-1.57934E-14-1.66506E-15 7.28403E-15
 -1        19-3.73378E-06 2.36046E-21 1.85944E-21-1.17281E-22 2.81267E-22-4.33940E-22
 -1        20-1.86689E-06 1.93801E-23 8.64990E-23 3.30053E-22-1.10170E-22 2.63862E-22
 -1        21-1.86689E-06 3.98786E-15 3.50401E-15-8.53099E-15 6.16173E-18-1.14052E-15
 -1        22-1.86689E-06 2.56864E-15 2.75205E-15 5.51045E-15 2.57801E-16 2.02712E-15
 -1        23-1.86689E-06-1.32920E-14-1.25238E-14-5.95967E-16 8.69449E-16 4.75342E-15
 -1        24-3.73378E-06-1.40750E-14-1.52179E-14 1.43972E-14 5.22953E-16-5.78739E-15
 -3
    1PSTEP                        21           7           1          
  100CL  107 2.17813E-02          24                     0    7           1
 -4  TOSTRAIN    6    1
 -5  EXX         1    4    1    1
 -5  EYY         1    4    2    2
 -5  EZZ         1    4    3    3
 -5  EXY         1    4    1    2
 -5  EYZ         1    4    2    3
 -5  EZX         1    4    3    1
 -1         1-1.77799E-11 5.33397E-12 5.33397E-12 4.57375E-28-3.14664E-28-1.87220E-28
 -1         2-8.88995E-12 2.66698E-12 2.66698E-12-1.30305E-27 5.07865E-29 3.83895E-28
 -1         3-8.88995E-12 2.66698E-12 2.66698E-12-1.19251E-20-1.63900E-26 5.64934E-21
 -1         4-8.88995E-12 2.66698E-12 2.66698E-12 3.84832E-21-1.12422E-26 2.27175E-20
 -1         5-8.88995E-12 2.66698E-12 2.66698E-12 3.55748E-20-5.25315E-26 1.19856E-20
 -1         6-1.77799E-11 5.33397E-12 5.33397E-12-1.77931E-19-1.31756E-25-8.08718E-20
 -1         7-1.77799E-11 5.33397E-12 5.33397E-12 1.29783E-27-5.35846E-28 5.12032E-28
 -1         8-8.88995E-12 2.66698E-12 2.66698E-12-8.82828E-28-5.70980E-28 1.57743E-27
 -1         9-8.88995E-12 2.66698E-12 2.66698E-12-1.03258E-20 2.37901E-21-1.26751E-20
 -1        10-8.88995E-12 2.66698E-12 2.66698E-12 8.66952E-21-9.47288E-22 3.55667E-20
 -1        11-8.88995E-12 2.66698E-12 2.66698E-12-9.40741E-21-4.98334E-21-1.29543E-20
 -1        12-1.77799E-11 5.33397E-12 5.33397E-12 8.71231E-20 1.35447E-20 9.43916E-20
 -1        13-1.77799E-11 5.33397E-12 5.33397E-12-2.79079E-28 1.96236E-27-6.05320E-28
 -1        14-8.88995E-12 2.66698E-12 2.66698E-12 2.26666E-27-6.02397E-29-2.68650E-28
 -1        15-8.88995E-12 2.66698E-12 2.66698E-12-4.78931E-20-2.34089E-21 8.24020E-21
 -1        16-8.88995E-12 2.66698E-12 2.66698E-12 2.70056E-20 2.54319E-21-1.21267E-20
 -1        17-8.88995E-12 2.66698E-12 2.66698E-12 9.95367E-21 1.03656E-20-3.76042E-20
 -1        18-1.77799E-11 5.33397E-12 5.33397E-12-9.77684E-20-1.03075E-20 4.50916E-20
 -1        19-1.77799E-11 5.33397E-12 5.33397E-12-7.26028E-28 1.74118E-27-2.68630E-27
 -1        20-8.88995E-12 2.66698E-12 2.66698E-12 2.04318E-27-6.82006E-28 1.63343E-27
 -1        21-8.88995E-12 2.66698E-12 2.66698E-12-5.28109E-20 3.81440E-23-7.06034E-21
 -1        22-8.88995E-12 2.66698E-12 2.66698E-12 3.41123E-20 1.59591E-21 1.25488E-20
 -1        23-8.88995E-12 2.66698E-12 2.66698E-12-3.68932E-21 5.38231E-21 2.94260E-20
 -1        24-1.77799E-11 5.33397E-12 5.33397E-12 8.91254E-20 3.23733E-21-3.58267E-20
 -3
    1PSTEP                        22           8           1          
  100CL  108 3.07813E-02          24                     0    8           1
 -4  DISP        4    1
 -5  D1          1    2    1    0
 -5  D2          1    2    2    0
 -5  D3          1    2    3    0
 -5  ALL         1    2    0    0    1ALL
 -1         1 0.00000E+00 0.00000E+00 0.00000E+00
 -1         2-1.25638E-08 0.00000E+00 0.00000E+00
 -1         3-4.61719E-01 0.00000E+00 0.00000E+00
 -1         4-4.61719E-01 0.00000E+00 0.00000E+00
 -1         5-9.23437E-01 0.00000E+00 0.00000E+00
 -1         6-9.23437E-01 0.00000E+00 0.00000E+00
 -1         7 0.00000E+00 3.76913E-09 0.00000E+00
 -1         8-1.25638E-08 3.76913E-09 0.00000E+00
 -1         9-4.61719E-01 3.76913E-09 0.00000E+00
 -1        10-4.61719E-01 3.76913E-09 0.00000E+00
 -1        11-9.23437E-01 3.76913E-09 0.00000E+00
 -1        12-9.23437E-01 3.76913E-09 0.00000E+00
 -1        13 0.00000E+00 0.00000E+00 5.27679E-09
 -1        14-1.25638E-08 0.00000E+00 5.27679E-09
 -1        15-4.61719E-01 0.00000E+00 5.27679E-09
 -1        16-4.61719E-01 0.00000E+00 5.27679E-09
 -1        17-9.23437E-01 0.00000E+00 5.27679E-09
 -1        18-9.23437E-01 0.00000E+00 5.27679E-09
 -1        19 0.00000E+00 3.76913E-09 5.27679E-09
 -1        20-1.25638E-08 3.76913E-09 5.27679E-09
 -1        21-4.61719E-01 3.76913E-09 5.27679E-09
 -1        22-4.61719E-01 3.76913E-09 5.27679E-09
 -1        23-9.23437E-01 3.76913E-09 5.27679E-09
 -1        24-9.23437E-01 3.76913E-09 5.27679E-09
 -3
    1PSTEP                        23           8           1          
  100CL  108 3.07813E-02          24                     0    8           1
 -4  STRESS      6    1
 -5  SXX         1    4    1    1
 -5  SYY         1    4    2    2
 -5  SZZ         1    4    3    3
 -5  SXY         1    4    1    2
 -5  SYZ         1    4    2    3
 -5  SZX         1    4    3    1
 -1         1-5.27657E-06-1.00204E-21-9.24536E-22 1.49998E-22-6.80824E-23 6.09472E-23
 -1         2-2.63829E-06-5.01020E-22-6.45651E-22 2.29368E-22 9.37487E-24 2.42361E-22
 -1         3-2.63829E-06-1.62746E-14-1.60623E-14 1.82879E-15-2.56419E-21-1.00089E-14
 -1         4-2.63829E-06-1.77885E-14-1.78430E-14 1.26655E-15-5.67965E-21 3.61741E-15
 -1         5-2.63829E-06 1.01483E-14 1.11519E-14-6.37455E-15 2.55957E-20 1.05067E-15
 -1         6-5.27657E-06 1.85368E-14 1.78982E-14 1.72452E-14-4.64715E-21-3.26262E-14
 -1         7-5.27657E-06 1.00204E-21-2.07692E-23-2.35925E-22 2.82127E-23-2.99937E-23
 -1         8-2.63829E-06 5.01020E-22 6.74018E-22 3.64066E-23 4.57287E-23 1.30047E-22
 -1         9-2.63829E-06 3.22499E-15 5.20462E-15-3.80891E-16-5.58671E-16 9.13173E-15
 -1        10-2.63829E-06-6.74402E-16-2.14226E-15 8.26993E-15 7.97786E-16 6.03841E-15
 -1        11-2.63829E-06 1.49411E-15 6.68393E-15-4.86216E-15 3.26398E-16 2.86620E-15
 -1        12-5.27657E-06-1.39742E-14-2.65102E-14 6.16862E-15-9.34097E-16-6.74516E-16
 -1        13-5.27657E-06 2.68493E-22 9.81271E-22-4.01935E-23 3.49533E-23 9.05834E-23
 -1        14-2.63829E-06 1.34246E-22 5.39772E-22-6.14594E-23-6.71169E-23 2.39269E-22
 -1        15-2.63829E-06-9.36970E-15-7.59313E-15-1.82473E-14 1.23713E-15-7.55079E-15
 -1        16-2.63829E-06-4.23694E-15-6.52527E-15 1.33903E-14-9.89347E-16-1.61355E-15
 -1        17-2.63829E-06-5.73417E-15-5.64446E-15 1.96512E-14 2.93041E-15-2.83686E-16
 -1        18-5.27657E-06-2.10038E-14-1.90269E-14-3.34682E-14-8.32823E-15 1.43707E-14
 -1        19-5.27657E-06-2.68493E-22-1.90989E-22 6.32131E-23-2.43836E-24-2.07444E-22
 -1        20-2.63829E-06-1.34246E-22-2.78877E-22-9.75607E-24-1.28527E-23 1.08165E-22
 -1        21-2.63829E-06 1.50980E-15 5.05370E-15-1.34497E-14 6.78457E-16 2.49526E-15
 -1        22-2.63829E-06 4.25707E-15 5.55386E-16 3.22819E-15-1.91555E-16-6.86525E-15
 -1        23-2.63829E-06 7.77750E-15 1.20535E-14 1.46441E-14 3.25678E-15 1.59863E-14
 -1        24-5.27657E-06-9.18294E-15-1.91035E-14-6.39430E-15-9.26233E-15-4.39686E-15
 -3
    1PSTEP                        24           8           1          
  100CL  108 3.07813E-02          24                     0    8           1
 -4  TOSTRAIN    6    1
 -5  EXX         1    4    1    1
 -5  EYY         1    4    2    2
 -5  EZZ         1    4    3    3
 -5  EXY         1    4    1    2
 -5  EYZ         1    4    2    3
 -5  EZX         1    4    3    1
 -1         1-2.51265E-11 7.53796E-12 7.53796E-12 9.28559E-28-4.21462E-28 3.77292E-28
 -1         2-1.25633E-11 3.76898E-12 3.76898E-12 1.41990E-27 5.80349E-29 1.50033E-27
 -1         3-1.25633E-11 3.76898E-12 3.76898E-12 1.13211E-20-1.58735E-26-6.19601E-20
 -1         4-1.25633E-11 3.76898E-12 3.76898E-12 7.84052E-21-3.51598E-26 2.23935E-20
 -1         5-1.25633E-11 3.76898E-12 3.76898E-12-3.94615E-20 1.58450E-25 6.50413E-21
 -1         6-2.51265E-11 7.53796E-12 7.53796E-12 1.06756E-19-2.87681E-26-2.01972E-19
 -1         7-2.51265E-11 7.53796E-12 7.53796E-12-1.46049E-27 1.74650E-28-1.85675E-28
 -1         8-1.25633E-11 3.76898E-12 3.76898E-12 2.25374E-28 2.83082E-28 8.05053E-28
 -1         9-1.25633E-11 3.76898E-12 3.76898E-12-2.35790E-21-3.45844E-21 5.65298E-20
 -1        10-1.25633E-11 3.76898E-12 3.76898E-12 5.11948E-20 4.93868E-21 3.73807E-20
 -1        11-1.25633E-11 3.76898E-12 3.76898E-12-3.00991E-20 2.02056E-21 1.77432E-20
 -1        12-2.51265E-11 7.53796E-12 7.53796E-12 3.81867E-20-5.78251E-21-4.17557E-21
 -1        13-2.51265E-11 7.53796E-12 7.53796E-12-2.48817E-28 2.16378E-28 5.60754E-28
 -1        14-1.25633E-11 3.76898E-12 3.76898E-12-3.80463E-28-4.15486E-28 1.48119E-27
 -1        15-1.25633E-11 3.76898E-12 3.76898E-12-1.12960E-19 7.65840E-21-4.67430E-20
 -1        16-1.25633E-11 3.76898E-12 3.76898E-12 8.28926E-20-6.12453E-21-9.98865E-21
 -1        17-1.25633E-11 3.76898E-12 3.76898E-12 1.21651E-19 1.81406E-20-1.75615E-21
 -1        18-2.51265E-11 7.53796E-12 7.53796E-12-2.07184E-19-5.15557E-20 8.89612E-20
 -1        19-2.51265E-11 7.53796E-12 7.53796E-12 3.91319E-28-1.50946E-29-1.28418E-27
 -1        20-1.25633E-11 3.76898E-12 3.76898E-12-6.03947E-29-7.95646E-29 6.69595E-28
 -1        21-1.25633E-11 3.76898E-12 3.76898E-12-8.32602E-20 4.19997E-21 1.54468E-20
 -1        22-1.25633E-11 3.76898E-12 3.76898E-12 1.99840E-20-1.18581E-21-4.24992E-20
 -1        23-1.25633E-11 3.76898E-12 3.76898E-12 9.06539E-20 2.01610E-20 9.89629E-20
 -1        24-2.51265E-11 7.53796E-12 7.53796E-12-3.95838E-20-5.73382E-20-2.72187E-20
 -3
    1PSTEP                        25           9           1          
  100CL  109 3.97813E-02          24                     0    9           1
 -4  DISP        4    1
 -5  D1          1    2    1    0
 -5  D2          1    2    2    0
 -5  D3          1    2    3    0
 -5  ALL         1    2    0    0    1ALL
 -1         1 0.00000E+00 0.00000E+00 0.00000E+00
 -1         2-1.62372E-08 0.00000E+00 0.00000E+00
 -1         3-5.96719E-01 0.00000E+00 0.00000E+00
 -1         4-5.96719E-01 0.00000E+00 0.00000E+00
 -1         5-1.19344E+00 0.00000E+00 0.00000E+00
 -1         6-1.19344E+00 0.00000E+00 0.00000E+00
 -1         7 0.00000E+00 4.87117E-09 0.00000E+00
 -1         8-1.62372E-08 4.87117E-09 0.00000E+00
 -1         9-5.96719E-01 4.87117E-09 0.00000E+00
 -1        10-5.96719E-01 4.87117E-09 0.00000E+00
 -1        11-1.19344E+00 4.87117E-09 0.00000E+00
 -1        12-1.19344E+00 4.87117E-09 0.00000E+00
 -1        13 0.00000E+00 0.00000E+00 6.81964E-09
 -1        14-1.62372E-08 0.00000E+00 6.81964E-09
 -1        15-5.96719E-01 0.00000E+00 6.81964E-09
 -1        16-5.96719E-01 0.00000E+00 6.81964E-09
 -1        17-1.19344E+00 0.00000E+00 6.81964E-09
 -1        18-1.19344E+00 0.00000E+00 6.81964E-09
 -1        19 0.00000E+00 4.87117E-09 6.81964E-09
 -1        20-1.62372E-08 4.87117E-09 6.81964E-09
 -1        21-5.96719E-01 4.87117E-09 6.81964E-09
 -1        22-5.96719E-01 4.87117E-09 6.81964E-09
 -1        23-1.19344E+00 4.87117E-09 6.81964E-09
 -1        24-1.19344E+00 4.87117E-09 6.81964E-09
 -3
    1PSTEP                        26           9           1          
  100CL  109 3.97813E-02          24                     0    9           1
 -4  STRESS      6    1
 -5  SXX         1    4    1    1
 -5  SYY         1    4    2    2
 -5  SZZ         1    4    3    3
 -5  SXY         1    4    1    2
 -5  SYZ         1    4    2    3
 -5  SZX         1    4    3    1
 -1         1-6.81937E-06-1.63730E-21-8.47016E-22 1.33145E-23-2.15432E-23 1.72485E-22
 -1         2-3.40968E-06-2.19348E-22 7.75094E-22-5.71316E-24 1.57240E-23-9.85934E-22
 -1         3-3.40968E-06 2.06957E-15 4.25954E-16 1.32537E-15 6.69687E-22 8.61325E-16
 -1         4-3.40968E-06 4.19703E-15 3.43931E-15 2.63741E-15-6.42969E-21 3.86157E-15
 -1         5-3.40968E-06 5.94283E-15 1.08806E-15-1.05867E-15 2.74560E-22 1.11534E-14
 -1         6-6.81937E-06-5.30160E-15 8.25289E-15 3.62047E-14-1.29171E-20-2.31268E-14
 -1         7-6.81937E-06 1.70220E-22-4.15385E-23-1.60351E-22 4.43223E-22-1.91367E-22
 -1         8-3.40968E-06 6.84411E-22 1.81310E-21-9.25459E-23 2.48986E-22-7.06512E-22
 -1         9-3.40968E-06-3.24537E-16-7.34820E-17 6.18997E-16-1.42401E-16 1.98725E-15
 -1        10-3.40968E-06 4.18077E-16-2.91424E-16 6.65832E-15-8.78955E-16-9.31232E-15
 -1        11-3.40968E-06 2.09793E-14 2.28518E-14 4.87380E-16-3.56496E-15-1.67681E-14
 -1        12-6.81937E-06 3.16217E-15 1.35916E-15-8.11485E-15 9.19670E-15 7.05850E-14
 -1        13-6.81937E-06-9.82727E-23-1.50863E-21-1.00337E-22-3.91957E-22 9.31870E-22
 -1        14-3.40968E-06 1.18543E-21 1.07955E-21-4.05070E-22 2.66166E-24-4.62958E-22
 -1        15-3.40968E-06 4.00594E-16-8.44299E-16-9.51270E-15 1.32627E-15 6.64785E-15
 -1        16-3.40968E-06-1.08103E-15 6.22313E-16 7.19909E-15 3.37449E-17-1.28613E-14
 -1        17-3.40968E-06-1.29102E-14-7.78304E-15-2.96370E-15 4.70913E-15-9.28600E-15
 -1        18-6.81937E-06 3.69929E-14 2.47966E-14 1.45375E-14-1.07503E-14 1.00209E-14
 -1        19-6.81937E-06-3.37289E-21-5.78529E-21-5.38038E-23-1.94564E-22 1.31945E-21
 -1        20-3.40968E-06-4.51875E-22-4.23508E-22-3.81803E-22 2.71745E-22-4.85852E-22
 -1        21-3.40968E-06-7.62076E-16-1.12295E-16-7.34392E-15 1.18387E-15-4.29921E-16
 -1        22-3.40968E-06-3.62854E-15-1.87698E-15-4.38996E-15-8.45204E-16-1.53448E-15
 -1        23-3.40968E-06-2.49654E-14-1.31109E-14 1.42178E-14 1.14417E-15 1.43503E-14
 -1        24-6.81937E-06-8.72661E-15-3.62804E-14-3.83252E-14-1.55355E-15-3.59762E-15
 -3
    1PSTEP                        27           9           1          
  100CL  109 3.97813E-02          24                     0    9           1
 -4  TOSTRAIN    6    1
 -5  EXX         1    4    1    1
 -5  EYY         1    4    2    2
 -5  EZZ         1    4    3    3
 -5  EXY         1    4    1    2
 -5  EYZ         1    4    2    3
 -5  EZX         1    4    3    1
 -1         1-3.24732E-11 9.74196E-12 9.74196E-12 8.24233E-29-1.33363E-28 1.06776E-27
 -1         2-1.62366E-11 4.87098E-12 4.87098E-12-3.53672E-29 9.73391E-29-6.10340E-27
 -1         3-1.62366E-11 4.87098E-12 4.87098E-12 8.20467E-21 4.14568E-27 5.33201E-21
 -1         4-1.62366E-11 4.87098E-12 4.87098E-12 1.63268E-20-3.98029E-26 2.39049E-20
 -1         5-1.62366E-11 4.87098E-12 4.87098E-12-6.55369E-21 1.69966E-27 6.90449E-20
 -1         6-3.24732E-11 9.74196E-12 9.74196E-12 2.24124E-19-7.99630E-26-1.43166E-19
 -1         7-3.24732E-11 9.74196E-12 9.74196E-12-9.92649E-28 2.74376E-27-1.18465E-27
 -1         8-1.62366E-11 4.87098E-12 4.87098E-12-5.72903E-28 1.54134E-27-4.37365E-27
 -1         9-1.62366E-11 4.87098E-12 4.87098E-12 3.83189E-21-8.81532E-22 1.23020E-20
 -1        10-1.62366E-11 4.87098E-12 4.87098E-12 4.12182E-20-5.44115E-21-5.76477E-20
 -1        11-1.62366E-11 4.87098E-12 4.87098E-12 3.01711E-21-2.20688E-20-1.03802E-19
 -1        12-3.24732E-11 9.74196E-12 9.74196E-12-5.02348E-20 5.69320E-20 4.36955E-19
 -1        13-3.24732E-11 9.74196E-12 9.74196E-12-6.21133E-28-2.42640E-27 5.76872E-27
 -1        14-1.62366E-11 4.87098E-12 4.87098E-12-2.50758E-27 1.64770E-29-2.86593E-27
 -1        15-1.62366E-11 4.87098E-12 4.87098E-12-5.88882E-20 8.21026E-21 4.11534E-20
 -1        16-1.62366E-11 4.87098E-12 4.87098E-12 4.45658E-20 2.08897E-22-7.96177E-20
 -1        17-1.62366E-11 4.87098E-12 4.87098E-12-1.83467E-20 2.91517E-20-5.74848E-20
 -1        18-3.24732E-11 9.74196E-12 9.74196E-12 8.99943E-20-6.65493E-20 6.20341E-20
 -1        19-3.24732E-11 9.74196E-12 9.74196E-12-3.33071E-28-1.20444E-27 8.16801E-27
 -1        20-1.62366E-11 4.87098E-12 4.87098E-12-2.36354E-27 1.68223E-27-3.00765E-27
 -1        21-1.62366E-11 4.87098E-12 4.87098E-12-4.54624E-20 7.32873E-21-2.66142E-21
 -1        22-1.62366E-11 4.87098E-12 4.87098E-12-2.71759E-20-5.23221E-21-9.49914E-21
 -1        23-1.62366E-11 4.87098E-12 4.87098E-12 8.80150E-20 7.08294E-21 8.88353E-20
 -1        24-3.24732E-11 9.74196E-12 9.74196E-12-2.37251E-19-9.61720E-21-2.22710E-20
 -3
    1PSTEP                        28          10           1          
  100CL  110 4.87813E-02          24                     0   10           1
 -4  DISP        4    1
 -5  D1          1    2    1    0
 -5  D2          1    2    2    0
 -5  D3          1    2    3    0
 -5  ALL         1    2    0    0    1ALL
 -1         1 0.00000E+00 0.00000E+00 0.00000E+00
 -1         2-1.99107E-08 0.00000E+00 0.00000E+00
 -1         3-7.31719E-01 0.00000E+00 0.00000E+00
 -1         4-7.31719E-01 0.00000E+00 0.00000E+00
 -1         5-1.46344E+00 0.00000E+00 0.00000E+00
 -1         6-1.46344E+00 0.00000E+00 0.00000E+00
 -1         7 0.00000E+00 5.97321E-09 0.00000E+00
 -1         8-1.99107E-08 5.97321E-09 0.00000E+00
 -1         9-7.31719E-01 5.97321E-09 0.00000E+00
 -1        10-7.31719E-01 5.97321E-09 0.00000E+00
 -1        11-1.46344E+00 5.97321E-09 0.00000E+00
 -1        12-1.46344E+00 5.97321E-09 0.00000E+00
 -1        13 0.00000E+00 0.00000E+00 8.36250E-09
 -1        14-1.99107E-08 0.00000E+00 8.36250E-09
 -1        15-7.31719E-01 0.00000E+00 8.36250E-09
 -1        16-7.31719E-01 0.00000E+00 8.36250E-09
 -1        17-1.46344E+00 0.00000E+00 8.36250E-09
 -1        18-1.46344E+00 0.00000E+00 8.36250E-09
 -1        19 0.00000E+00 5.97321E-09 8.36250E-09
 -1        20-1.99107E-08 5.97321E-09 8.36250E-09
 -1        21-7.31719E-01 5.97321E-09 8.36250E-09
 -1        22-7.31719E-01 5.97321E-09 8.36250E-09
 -1        23-1.46344E+00 5.97321E-09 8.36250E-09
 -1        24-1.46344E+00 5.97321E-09 8.36250E-09
 -3
    1PSTEP                        29          10           1          
  100CL  110 4.87813E-02          24                     0   10           1
 -4  STRESS      6    1
 -5  SXX         1    4    1    1
 -5  SYY         1    4    2    2
 -5  SZZ         1    4    3    3
 -5  SXY         1    4    1    2
 -5  SYZ         1    4    2    3
 -5  SZX         1    4    3    1
 -1         1-8.36216E-06-1.89059E-21-1.67884E-21 6.40620E-23-8.44856E-23-2.52915E-23
 -1         2-4.18108E-06-7.75077E-22-8.03445E-22-9.05362E-22 2.01948E-23-5.62733E-22
 -1         3-4.18108E-06-1.03906E-15-1.93432E-15-1.64398E-15-5.85786E-22-5.78955E-15
 -1         4-4.18108E-06-1.96527E-15-2.35001E-15 6.64292E-15-1.06536E-20 1.35155E-14
 -1         5-4.18108E-06 1.43353E-14 6.49716E-15 4.16737E-15 2.95625E-20 3.24016E-14
 -1         6-8.36216E-06 3.19126E-15 1.16235E-14-3.31395E-14-5.37754E-20-1.87487E-14
 -1         7-8.36216E-06-3.69810E-21-3.48634E-21 1.74394E-22 1.42082E-22 2.67634E-23
 -1         8-4.18108E-06-1.21379E-21-1.24216E-21-8.50196E-22-1.04191E-22 1.13053E-21
 -1         9-4.18108E-06 6.97875E-15 9.00423E-15-2.12577E-15-2.99864E-16-8.85797E-15
 -1        10-4.18108E-06 2.78968E-15 9.75213E-16 7.20207E-15-8.19298E-17-1.02754E-14
 -1        11-4.18108E-06 1.32037E-14 2.38322E-14-1.49159E-14-5.05280E-15 5.88462E-16
 -1        12-8.36216E-06-5.10239E-14-7.49275E-14 6.80752E-14 6.57320E-15 2.44691E-15
 -1        13-8.36216E-06-9.60468E-22-1.75075E-21-1.18298E-22 4.97909E-22 2.83442E-22
 -1        14-4.18108E-06-1.11551E-21-1.00963E-21 1.76817E-21-4.33957E-22-5.51649E-22
 -1        15-4.18108E-06 6.16277E-15 6.10712E-15-1.10215E-14 2.04452E-15-9.57351E-15
 -1        16-4.18108E-06 6.30448E-15 6.14912E-15 1.47255E-14-1.00082E-15 1.32346E-15
 -1        17-4.18108E-06-1.40295E-14-7.71974E-15 1.46948E-14 1.29267E-14-1.77662E-14
 -1        18-8.36216E-06 2.81883E-14 1.82154E-14-4.05687E-15-2.26352E-14-1.78433E-14
 -1        19-8.36216E-06 5.78530E-21 4.99502E-21-8.64293E-22 4.57103E-22-1.12546E-21
 -1        20-4.18108E-06 5.21806E-22 6.27685E-22 1.39517E-21-5.22522E-22 1.08917E-21
 -1        21-4.18108E-06 6.79193E-15 9.65703E-15-1.17992E-14 1.74465E-15 1.44898E-14
 -1        22-4.18108E-06 3.67080E-15 2.08570E-15 1.78327E-14-1.08274E-15-1.38208E-14
 -1        23-4.18108E-06-2.50127E-14-2.36234E-16 2.77199E-14 7.87385E-15 1.42572E-15
 -1        24-8.36216E-06-4.57299E-14-8.80387E-14-3.20083E-14-1.60619E-14 7.69238E-14
 -3
    1PSTEP                        30          10           1          
  100CL  110 4.87813E-02          24                     0   10           1
 -4  TOSTRAIN    6    1
 -5  EXX         1    4    1    1
 -5  EYY         1    4    2    2
 -5  EZZ         1    4    3    3
 -5  EXY         1    4    1    2
 -5  EYZ         1    4    2    3
 -5  EZX         1    4    3    1
 -1         1-3.98198E-11 1.19459E-11 1.19459E-11 3.96574E-28-5.23006E-28-1.56567E-28
 -1         2-1.99099E-11 5.97297E-12 5.97297E-12-5.60462E-27 1.25015E-28-3.48359E-27
 -1         3-1.99099E-11 5.97297E-12 5.97297E-12-1.01770E-20-3.62629E-27-3.58401E-20
 -1         4-1.99099E-11 5.97297E-12 5.97297E-12 4.11228E-20-6.59506E-26 8.36673E-20
 -1         5-1.99099E-11 5.97297E-12 5.97297E-12 2.57980E-20 1.83006E-25 2.00581E-19
 -1         6-3.98198E-11 1.19459E-11 1.19459E-11-2.05150E-19-3.32896E-25-1.16063E-19
 -1         7-3.98198E-11 1.19459E-11 1.19459E-11 1.07958E-27 8.79555E-28 1.65678E-28
 -1         8-1.99099E-11 5.97297E-12 5.97297E-12-5.26312E-27-6.44991E-28 6.99853E-27
 -1         9-1.99099E-11 5.97297E-12 5.97297E-12-1.31595E-20-1.85630E-21-5.48350E-20
 -1        10-1.99099E-11 5.97297E-12 5.97297E-12 4.45843E-20-5.07184E-22-6.36095E-20
 -1        11-1.99099E-11 5.97297E-12 5.97297E-12-9.23365E-20-3.12792E-20 3.64286E-21
 -1        12-3.98198E-11 1.19459E-11 1.19459E-11 4.21418E-19 4.06912E-20 1.51475E-20
 -1        13-3.98198E-11 1.19459E-11 1.19459E-11-7.32322E-28 3.08229E-27 1.75464E-27
 -1        14-1.99099E-11 5.97297E-12 5.97297E-12 1.09458E-26-2.68640E-27-3.41497E-27
 -1        15-1.99099E-11 5.97297E-12 5.97297E-12-6.82284E-20 1.26565E-20-5.92646E-20
 -1        16-1.99099E-11 5.97297E-12 5.97297E-12 9.11580E-20-6.19556E-21 8.19282E-21
 -1        17-1.99099E-11 5.97297E-12 5.97297E-12 9.09681E-20 8.00223E-20-1.09981E-19
 -1        18-3.98198E-11 1.19459E-11 1.19459E-11-2.51140E-20-1.40123E-19-1.10458E-19
 -1        19-3.98198E-11 1.19459E-11 1.19459E-11-5.35039E-27 2.82969E-27-6.96714E-27
 -1        20-1.99099E-11 5.97297E-12 5.97297E-12 8.63679E-27-3.23466E-27 6.74246E-27
 -1        21-1.99099E-11 5.97297E-12 5.97297E-12-7.30424E-20 1.08002E-20 8.96985E-20
 -1        22-1.99099E-11 5.97297E-12 5.97297E-12 1.10393E-19-6.70268E-21-8.55576E-20
 -1        23-1.99099E-11 5.97297E-12 5.97297E-12 1.71599E-19 4.87429E-20 8.82589E-21
 -1        24-3.98198E-11 1.19459E-11 1.19459E-11-1.98147E-19-9.94311E-20 4.76195E-19
 -3
    1PSTEP                        31          11           1          
  100CL  111 5.77813E-02          24                     0   11           1
 -4  DISP        4    1
 -5  D1          1    2    1    0
 -5  D2          1    2    2    0
 -5  D3          1    2    3    0
 -5  ALL         1    2    0    0    1ALL
 -1         1 0.00000E+00 0.00000E+00 0.00000E+00
 -1         2-2.35842E-08 0.00000E+00 0.00000E+00
 -1         3-8.66719E-01 0.00000E+00 0.00000E+00
 -1         4-8.66719E-01 0.00000E+00 0.00000E+00
 -1         5-1.73344E+00 0.00000E+00 0.00000E+00
 -1         6-1.73344E+00 0.00000E+00 0.00000E+00
 -1         7 0.00000E+00 7.07525E-09 0.00000E+00
 -1         8-2.35842E-08 7.07525E-09 0.00000E+00
 -1         9-8.66719E-01 7.07525E-09 0.00000E+00
 -1        10-8.66719E-01 7.07525E-09 0.00000E+00
 -1        11-1.73344E+00 7.07526E-09 0.00000E+00
 -1        12-1.73344E+00 7.07525E-09 0.00000E+00
 -1        13 0.00000E+00 0.00000E+00 9.90536E-09
 -1        14-2.35842E-08 0.00000E+00 9.90536E-09
 -1        15-8.66719E-01 0.00000E+00 9.90536E-09
 -1        16-8.66719E-01 0.00000E+00 9.90536E-09
 -1        17-1.73344E+00 0.00000E+00 9.90536E-09
 -1        18-1.73344E+00 0.00000E+00 9.90536E-09
 -1        19 0.00000E+00 7.07525E-09 9.90536E-09
 -1        20-2.35842E-08 7.07525E-09 9.90536E-09
 -1        21-8.66719E-01 7.07525E-09 9.90536E-09
 -1        22-8.66719E-01 7.07525E-09 9.90536E-09
 -1        23-1.73344E+00 7.07525E-09 9.90536E-09
 -1        24-1.73344E+00 7.07526E-09 9.90536E-09
 -3
    1PSTEP                        32          11           1          
  100CL  111 5.77813E-02          24                     0   11           1
 -4  STRESS      6    1
 -5  SXX         1    4    1    1
 -5  SYY         1    4    2    2
 -5  SZZ         1    4    3    3
 -5  SXY         1    4    1    2
 -5  SYZ         1    4    2    3
 -5  SZX         1    4    3    1
 -1         1-9.90496E-06 1.35363E-21-2.68476E-22 3.07525E-23-1.51505E-23 7.95283E-23
 -1         2-4.95248E-06 9.45306E-22 1.23457E-21-8.03374E-22-3.58017E-23-1.00361E-21
 -1         3-4.95248E-06-1.36471E-14-1.13419E-14-4.10269E-15-5.74244E-21 9.40277E-15
 -1         4-4.95248E-06-1.51465E-14-1.59411E-14 1.53122E-14-2.00631E-21-6.78840E-15
 -1         5-4.95248E-06 8.63151E-15-5.62691E-15 2.29140E-16-3.46091E-21-3.69058E-14
 -1         6-9.90496E-06-1.87971E-14 1.04855E-14-1.70978E-15-2.45227E-20-9.32109E-14
 -1         7-9.90496E-06 1.35363E-21 1.93215E-21 3.90634E-23-4.59419E-22-1.90805E-22
 -1         8-4.95248E-06 9.45306E-22 5.99310E-22-7.99218E-22-2.04644E-22 7.90559E-22
 -1         9-4.95248E-06-2.00004E-14-1.85823E-14-2.00769E-15 3.31341E-16-3.36477E-14
 -1        10-4.95248E-06-2.06088E-14-2.11025E-14 8.27463E-15 5.38276E-16 1.99482E-14
 -1        11-4.95248E-06 1.47582E-14 8.66859E-15-1.98991E-14-3.99711E-15 9.14522E-15
 -1        12-9.90496E-06-3.01223E-14-1.59400E-14 7.33762E-14 8.98307E-15 3.05275E-14
 -1        13-9.90496E-06-1.04358E-21-2.46913E-21-1.63425E-23 2.82880E-22 1.96792E-22
 -1        14-4.95248E-06-1.52383E-21-1.60133E-21 6.41069E-22 1.48155E-22-8.01697E-22
 -1        15-4.95248E-06 1.64155E-14 1.77930E-14 8.58345E-15-6.21049E-16 2.60524E-15
 -1        16-4.95248E-06 1.59301E-14 1.36284E-14-3.20337E-14 2.10541E-16-1.68642E-14
 -1        17-4.95248E-06-2.23299E-14-2.53965E-14 9.55440E-15 5.71820E-15 3.24340E-14
 -1        18-9.90496E-06 2.46883E-15 6.59874E-15-7.13149E-14-1.05702E-14 1.47122E-14
 -1        19-9.90496E-06-1.04358E-21-1.19859E-21-4.48429E-22 3.73358E-22-2.27372E-22
 -1        20-4.95248E-06-1.52383E-21-5.01020E-22 4.25026E-22-9.23290E-23 2.37529E-22
 -1        21-4.95248E-06 1.00623E-14 1.05526E-14 6.76135E-15-2.89702E-16-1.02299E-15
 -1        22-4.95248E-06 1.04679E-14 8.46692E-15-2.30813E-14 7.48819E-16-9.00457E-15
 -1        23-4.95248E-06-1.62033E-14-1.11010E-14 9.72393E-15 1.72110E-15-5.36373E-15
 -1        24-9.90496E-06-8.85639E-15-1.98268E-14-3.52616E-14-1.58713E-15-2.35591E-14
 -3
    1PSTEP                        33          11           1          
  100CL  111 5.77813E-02          24                     0   11           1
 -4  TOSTRAIN    6    1
 -5  EXX         1    4    1    1
 -5  EYY         1    4    2    2
 -5  EZZ         1    4    3    3
 -5  EXY         1    4    1    2
 -5  EYZ         1    4    2    3
 -5  EZX         1    4    3    1
 -1         1-4.71665E-11 1.41499E-11 1.41499E-11 1.90373E-28-9.37889E-29 4.92318E-28
 -1         2-2.35832E-11 7.07497E-12 7.07497E-12-4.97327E-27-2.21629E-28-6.21283E-27
 -1         3-2.35832E-11 7.07497E-12 7.07497E-12-2.53976E-20-3.55485E-26 5.82076E-20
 -1         4-2.35832E-11 7.07497E-12 7.07497E-12 9.47897E-20-1.24200E-26-4.20235E-20
 -1         5-2.35832E-11 7.07497E-12 7.07497E-12 1.41849E-21-2.14247E-26-2.28464E-19
 -1         6-4.71665E-11 1.41499E-11 1.41499E-11-1.05844E-20-1.51807E-25-5.77020E-19
 -1         7-4.71665E-11 1.41499E-11 1.41499E-11 2.41821E-28-2.84402E-27-1.18117E-27
 -1         8-2.35832E-11 7.07497E-12 7.07497E-12-4.94754E-27-1.26685E-27 4.89394E-27
 -1         9-2.35832E-11 7.07497E-12 7.07497E-12-1.24286E-20 2.05116E-21-2.08295E-19
 -1        10-2.35832E-11 7.07497E-12 7.07497E-12 5.12239E-20 3.33219E-21 1.23489E-19
 -1        11-2.35832E-11 7.07497E-12 7.07497E-12-1.23185E-19-2.47440E-20 5.66133E-20
 -1        12-4.71665E-11 1.41499E-11 1.41499E-11 4.54234E-19 5.56095E-20 1.88980E-19
 -1        13-4.71665E-11 1.41499E-11 1.41499E-11-1.01168E-28 1.75116E-27 1.21823E-27
 -1        14-2.35832E-11 7.07497E-12 7.07497E-12 3.96852E-27 9.17152E-28-4.96289E-27
 -1        15-2.35832E-11 7.07497E-12 7.07497E-12 5.31356E-20-3.84459E-21 1.61277E-20
 -1        16-2.35832E-11 7.07497E-12 7.07497E-12-1.98304E-19 1.30335E-21-1.04398E-19
 -1        17-2.35832E-11 7.07497E-12 7.07497E-12 5.91463E-20 3.53984E-20 2.00782E-19
 -1        18-4.71665E-11 1.41499E-11 1.41499E-11-4.41473E-19-6.54347E-20 9.10752E-20
 -1        19-4.71665E-11 1.41499E-11 1.41499E-11-2.77599E-27 2.31126E-27-1.40754E-27
 -1        20-2.35832E-11 7.07497E-12 7.07497E-12 2.63111E-27-5.71560E-28 1.47041E-27
 -1        21-2.35832E-11 7.07497E-12 7.07497E-12 4.18560E-20-1.79339E-21-6.33279E-21
 -1        22-2.35832E-11 7.07497E-12 7.07497E-12-1.42884E-19 4.63555E-21-5.57426E-20
 -1        23-2.35832E-11 7.07497E-12 7.07497E-12 6.01957E-20 1.06544E-20-3.32040E-20
 -1        24-4.71665E-11 1.41499E-11 1.41499E-11-2.18286E-19-9.82510E-21-1.45842E-19
 -3
    1PSTEP                        34          12           1          
  100CL  112 6.67813E-02          24                     0   12           1
 -4  DISP        4    1
 -5  D1          1    2    1    0
 -5  D2          1    2    2    0
 -5  D3          1    2    3    0
 -5  ALL         1    2    0    0    1ALL
 -1         1 0.00000E+00 0.00000E+00 0.00000E+00
 -1         2-2.72577E-08 0.00000E+00 0.00000E+00
 -1         3-1.00172E+00 0.00000E+00 0.00000E+00
 -1         4-1.00172E+00 0.00000E+00 0.00000E+00
 -1         5-2.00344E+00 0.00000E+00 0.00000E+00
 -1         6-2.00344E+00 0.00000E+00 0.00000E+00
 -1         7 0.00000E+00 8.17730E-09 0.00000E+00
 -1         8-2.72577E-08 8.17730E-09 0.00000E+00
 -1         9-1.00172E+00 8.17730E-09 0.00000E+00
 -1        10-1.00172E+00 8.17730E-09 0.00000E+00
 -1        11-2.00344E+00 8.17730E-09 0.00000E+00
 -1        12-2.00344E+00 8.17730E-09 0.00000E+00
 -1        13 0.00000E+00 0.00000E+00 1.14482E-08
 -1        14-2.72577E-08 0.00000E+00 1.14482E-08
 -1        15-1.00172E+00 0.00000E+00 1.14482E-08
 -1        16-1.00172E+00 0.00000E+00 1.14482E-08
 -1        17-2.00344E+00 0.00000E+00 1.14482E-08
 -1        18-2.00344E+00 0.00000E+00 1.14482E-08
 -1        19 0.00000E+00 8.17730E-09 1.14482E-08
 -1        20-2.72577E-08 8.17730E-09 1.14482E-08
 -1        21-1.00172E+00 8.17730E-09 1.14482E-08
 -1        22-1.00172E+00 8.17730E-09 1.14482E-08
 -1        23-2.00344E+00 8.17730E-09 1.14482E-08
 -1        24-2.00344E+00 8.17730E-09 1.14482E-08
 -3
    1PSTEP                        35          12           1          
  100CL  112 6.67813E-02          24                     0   12           1
 -4  STRESS      6    1
 -5  SXX         1    4    1    1
 -5  SYY         1    4    2    2
 -5  SZZ         1    4    3    3
 -5  SXY         1    4    1    2
 -5  SYZ         1    4    2    3
 -5  SZX         1    4    3    1
 -1         1-1.14478E-05 4.15046E-23-1.27055E-21 1.70651E-22-2.62350E-23-8.92250E-23
 -1         2-5.72388E-06-1.47267E-21-1.29688E-21 5.01339E-22-3.57799E-23 3.47305E-22
 -1         3-5.72388E-06 1.22229E-14 8.80143E-15 1.02055E-14 6.92576E-21 4.17016E-16
 -1         4-5.72388E-06 9.58568E-15 1.01184E-14-4.23382E-15-5.46828E-21 1.15792E-14
 -1         5-5.72388E-06 8.91379E-15-8.10506E-15 1.63945E-14-1.90955E-20 7.48664E-15
 -1         6-1.14478E-05-5.47202E-14-2.85442E-14-1.02847E-15-2.32656E-20-5.86587E-14
 -1         7-1.14478E-05 7.75103E-22 1.96579E-22-4.30109E-22-1.12648E-22-3.52732E-22
 -1         8-5.72388E-06 2.89245E-22 3.66765E-22 2.00959E-22-3.73464E-22 2.03743E-21
 -1         9-5.72388E-06 6.06532E-15 7.01141E-15-3.60523E-16-1.36458E-15 2.06438E-14
 -1        10-5.72388E-06-1.72160E-15-3.68763E-15 3.62628E-15-3.13604E-17-2.80221E-14
 -1        11-5.72388E-06 3.47024E-14 3.17211E-14-3.77173E-15-9.99254E-15 2.85280E-14
 -1        12-1.14478E-05-3.86982E-14-3.18541E-14 3.80951E-14 1.74921E-14 7.48995E-14
 -1        13-1.14478E-05-1.55007E-22-7.33531E-22 6.28973E-23 2.98386E-22-8.12686E-22
 -1        14-5.72388E-06-1.44634E-21-1.36882E-21 2.35585E-21-2.04646E-22 2.13951E-23
 -1        15-5.72388E-06-1.52725E-14-1.48731E-14-9.94648E-15 3.05728E-15-1.70167E-15
 -1        16-5.72388E-06-1.13768E-14-1.07563E-14 8.81760E-15-1.74913E-15 2.51607E-14
 -1        17-5.72388E-06-5.89160E-14-4.79558E-14-5.54467E-14 9.82624E-15-1.86244E-14
 -1        18-1.14478E-05-6.74180E-15-2.95437E-14-3.89840E-14-1.35323E-14 3.97039E-14
 -1        19-1.14478E-05 1.09920E-20 7.67588E-21-1.63885E-21 4.79347E-22-1.39602E-21
 -1        20-5.72388E-06-1.07954E-21-6.35258E-22 1.50497E-21-5.78150E-22 1.38210E-21
 -1        21-5.72388E-06-2.38929E-14-1.91259E-14 1.78413E-14 1.69269E-15 1.79255E-14
 -1        22-5.72388E-06-2.51470E-14-2.70252E-14 6.68579E-15-1.78049E-15-3.49472E-14
 -1        23-5.72388E-06-3.80532E-14-1.30554E-14-4.57731E-14-1.66280E-16-2.42629E-14
 -1        24-1.14478E-05-5.71296E-16-4.27051E-14 2.56929E-14 3.95976E-15 2.88988E-14
 -3
    1PSTEP                        36          12           1          
  100CL  112 6.67813E-02          24                     0   12           1
 -4  TOSTRAIN    6    1
 -5  EXX         1    4    1    1
 -5  EYY         1    4    2    2
 -5  EZZ         1    4    3    3
 -5  EXY         1    4    1    2
 -5  EYZ         1    4    2    3
 -5  EZX         1    4    3    1
 -1         1-5.45131E-11 1.63539E-11 1.63539E-11 1.05641E-27-1.62407E-28-5.52345E-28
 -1         2-2.72566E-11 8.17697E-12 8.17697E-12 3.10352E-27-2.21495E-28 2.14998E-27
 -1         3-2.72566E-11 8.17697E-12 8.17697E-12 6.31769E-20 4.28737E-26 2.58153E-21
 -1         4-2.72566E-11 8.17697E-12 8.17697E-12-2.62094E-20-3.38512E-26 7.16807E-20
 -1         5-2.72566E-11 8.17697E-12 8.17697E-12 1.01490E-19-1.18210E-25 4.63459E-20
 -1         6-5.45131E-11 1.63539E-11 1.63539E-11-6.36675E-21-1.44025E-25-3.63125E-19
 -1         7-5.45131E-11 1.63539E-11 1.63539E-11-2.66258E-27-6.97346E-28-2.18358E-27
 -1         8-2.72566E-11 8.17697E-12 8.17697E-12 1.24403E-27-2.31192E-27 1.26126E-26
 -1         9-2.72566E-11 8.17697E-12 8.17697E-12-2.23181E-21-8.44743E-21 1.27795E-19
 -1        10-2.72566E-11 8.17697E-12 8.17697E-12 2.24484E-20-1.94136E-22-1.73470E-19
 -1        11-2.72566E-11 8.17697E-12 8.17697E-12-2.33488E-20-6.18586E-20 1.76602E-19
 -1        12-5.45131E-11 1.63539E-11 1.63539E-11 2.35827E-19 1.08284E-19 4.63664E-19
 -1        13-5.45131E-11 1.63539E-11 1.63539E-11 3.89364E-28 1.84715E-27-5.03091E-27
 -1        14-2.72566E-11 8.17697E-12 8.17697E-12 1.45838E-26-1.26686E-27 1.32446E-28
 -1        15-2.72566E-11 8.17697E-12 8.17697E-12-6.15734E-20 1.89260E-20-1.05342E-20
 -1        16-2.72566E-11 8.17697E-12 8.17697E-12 5.45851E-20-1.08280E-20 1.55757E-19
 -1        17-2.72566E-11 8.17697E-12 8.17697E-12-3.43241E-19 6.08291E-20-1.15294E-19
 -1        18-5.45131E-11 1.63539E-11 1.63539E-11-2.41330E-19-8.37716E-20 2.45786E-19
 -1        19-5.45131E-11 1.63539E-11 1.63539E-11-1.01453E-26 2.96738E-27-8.64200E-27
 -1        20-2.72566E-11 8.17697E-12 8.17697E-12 9.31650E-27-3.57903E-27 8.55584E-27
 -1        21-2.72566E-11 8.17697E-12 8.17697E-12 1.10446E-19 1.04786E-20 1.10967E-19
 -1        22-2.72566E-11 8.17697E-12 8.17697E-12 4.13882E-20-1.10221E-20-2.16340E-19
 -1        23-2.72566E-11 8.17697E-12 8.17697E-12-2.83357E-19-1.02935E-21-1.50199E-19
 -1        24-5.45131E-11 1.63539E-11 1.63539E-11 1.59051E-19 2.45128E-20 1.78897E-19
 -3
    1PSTEP                        37          13           1          
  100CL  113 7.57812E-02          24                     0   13           1
 -4  DISP        4    1
 -5  D1          1    2    1    0
 -5  D2          1    2    2    0
 -5  D3          1    2    3    0
 -5  ALL         1    2    0    0    1ALL
 -1         1 0.00000E+00 0.00000E+00 0.00000E+00
 -1         2-3.09311E-08 0.00000E+00 0.00000E+00
 -1         3-1.13672E+00 0.00000E+00 0.00000E+00
 -1         4-1.13672E+00 0.00000E+00 0.00000E+00
 -1         5-2.27344E+00 0.00000E+00 0.00000E+00
 -1         6-2.27344E+00 0.00000E+00 0.00000E+00
 -1         7 0.00000E+00 9.27934E-09 0.00000E+00
 -1         8-3.09311E-08 9.27934E-09 0.00000E+00
 -1         9-1.13672E+00 9.27934E-09 0.00000E+00
 -1        10-1.13672E+00 9.27934E-09 0.00000E+00
 -1        11-2.27344E+00 9.27934E-09 0.00000E+00
 -1        12-2.27344E+00 9.27934E-09 0.00000E+00
 -1        13 0.00000E+00 0.00000E+00 1.29911E-08
 -1        14-3.09311E-08 0.00000E+00 1.29911E-08
 -1        15-1.13672E+00 0.00000E+00 1.29911E-08
 -1        16-1.13672E+00 0.00000E+00 1.29911E-08
 -1        17-2.27344E+00 0.00000E+00 1.29911E-08
 -1        18-2.27344E+00 0.00000E+00 1.29911E-08
 -1        19 0.00000E+00 9.27934E-09 1.29911E-08
 -1        20-3.09311E-08 9.27934E-09 1.29911E-08
 -1        21-1.13672E+00 9.27934E-09 1.29911E-08
 -1        22-1.13672E+00 9.27934E-09 1.29911E-08
 -1        23-2.27344E+00 9.27934E-09 1.29911E-08
 -1        24-2.27344E+00 9.27934E-09 1.29911E-08
 -3
    1PSTEP                        38          13           1          
  100CL  113 7.57812E-02          24                     0   13           1
 -4  STRESS      6    1
 -5  SXX         1    4    1    1
 -5  SYY         1    4    2    2
 -5  SZZ         1    4    3    3
 -5  SXY         1    4    1    2
 -5  SYZ         1    4    2    3
 -5  SZX         1    4    3    1
 -1         1-1.29906E-05 1.89061E-21 1.89061E-21-3.85584E-23 1.67461E-22 2.72050E-22
 -1         2-6.49528E-06-5.67343E-23-5.67343E-23-3.44640E-22 4.51876E-23-1.17611E-21
 -1         3-6.49528E-06-6.44488E-15-8.98699E-15-3.69171E-15 5.26618E-21-6.01867E-15
 -1         4-6.49528E-06 5.04817E-16 3.63480E-15-3.73812E-16-1.23525E-20-2.85926E-14
 -1         5-6.49528E-06 3.66854E-15-5.63258E-15-1.15871E-15-2.47867E-20 3.17869E-14
 -1         6-1.29906E-05-5.80358E-14-3.91458E-14 6.93197E-14 3.18304E-20-4.11733E-14
 -1         7-1.29906E-05-1.58056E-21-1.58056E-21-4.93356E-22 2.69760E-22-5.33030E-22
 -1         8-6.49528E-06-5.21789E-22-5.21789E-22-5.72038E-22 3.27011E-22 1.15457E-21
 -1         9-6.49528E-06-1.36645E-14-1.32550E-14-5.01446E-15 6.32612E-16-4.68263E-15
 -1        10-6.49528E-06-1.11448E-14-1.09701E-14 7.11401E-15-2.14034E-16 1.19246E-14
 -1        11-6.49528E-06 3.57338E-14 2.77482E-14-7.80017E-15-6.38374E-15-4.71795E-14
 -1        12-1.29906E-05 2.74063E-15 1.97896E-14 3.04101E-14 1.32552E-14 1.25197E-14
 -1        13-1.29906E-05 1.89061E-21 1.89061E-21-1.40094E-23-2.21778E-22 9.53063E-22
 -1        14-6.49528E-06-5.67343E-23-5.67343E-23 9.39893E-22-4.93721E-22-5.49037E-22
 -1        15-6.49528E-06-1.40270E-15-5.71610E-15 1.36106E-15 2.06607E-15-2.55341E-14
 -1        16-6.49528E-06 1.39853E-15 5.12777E-15-1.28774E-15-2.06867E-15 4.03307E-14
 -1        17-6.49528E-06-7.90862E-15 6.64650E-16-2.94799E-14 9.20822E-16 1.29294E-14
 -1        18-1.29906E-05 4.63203E-14 2.80961E-14-6.38160E-15-1.28875E-15-5.18377E-15
 -1        19-1.29906E-05-1.58056E-21-1.58056E-21-3.22008E-22 4.15267E-22 1.33919E-22
 -1        20-6.49528E-06-5.21789E-22-5.21789E-22 7.85894E-22-2.83540E-22 4.18547E-22
 -1        21-6.49528E-06-1.10851E-14-1.24470E-14-5.45997E-16 2.69868E-15 3.21933E-14
 -1        22-6.49528E-06-1.27140E-14-1.19400E-14 2.77191E-15-2.28270E-15-2.48609E-14
 -1        23-6.49528E-06-1.52494E-14-5.36063E-15-1.42997E-14-5.46289E-15 5.37226E-15
 -1        24-1.29906E-05 2.82847E-14 8.21931E-15-3.57744E-14 1.19664E-14-2.05509E-15
 -3
    1PSTEP                        39          13           1          
  100CL  113 7.57812E-02          24                     0   13           1
 -4  TOSTRAIN    6    1
 -5  EXX         1    4    1    1
 -5  EYY         1    4    2    2
 -5  EZZ         1    4    3    3
 -5  EXY         1    4    1    2
 -5  EYZ         1    4    2    3
 -5  EZX         1    4    3    1
 -1         1-6.18598E-11 1.85579E-11 1.85579E-11-2.38695E-28 1.03667E-27 1.68412E-27
 -1         2-3.09299E-11 9.27896E-12 9.27896E-12-2.13348E-27 2.79733E-28-7.28068E-27
 -1         3-3.09299E-11 9.27896E-12 9.27896E-12-2.28535E-20 3.26002E-26-3.72584E-20
 -1         4-3.09299E-11 9.27896E-12 9.27896E-12-2.31408E-21-7.64681E-26-1.77002E-19
 -1         5-3.09299E-11 9.27896E-12 9.27896E-12-7.17298E-21-1.53442E-25 1.96776E-19
 -1         6-6.18598E-11 1.85579E-11 1.85579E-11 4.29122E-19 1.97046E-25-2.54882E-19
 -1         7-6.18598E-11 1.85579E-11 1.85579E-11-3.05411E-27 1.66994E-27-3.29971E-27
 -1         8-3.09299E-11 9.27896E-12 9.27896E-12-3.54119E-27 2.02435E-27 7.14732E-27
 -1         9-3.09299E-11 9.27896E-12 9.27896E-12-3.10419E-20 3.91617E-21-2.89877E-20
 -1        10-3.09299E-11 9.27896E-12 9.27896E-12 4.40391E-20-1.32497E-21 7.38191E-20
 -1        11-3.09299E-11 9.27896E-12 9.27896E-12-4.82868E-20-3.95184E-20-2.92063E-19
 -1        12-6.18598E-11 1.85579E-11 1.85579E-11 1.88253E-19 8.20557E-20 7.75027E-20
 -1        13-6.18598E-11 1.85579E-11 1.85579E-11-8.67248E-29-1.37291E-27 5.89991E-27
 -1        14-3.09299E-11 9.27896E-12 9.27896E-12 5.81838E-27-3.05637E-27-3.39880E-27
 -1        15-3.09299E-11 9.27896E-12 9.27896E-12 8.42560E-21 1.27900E-20-1.58068E-19
 -1        16-3.09299E-11 9.27896E-12 9.27896E-12-7.97174E-21-1.28061E-20 2.49666E-19
 -1        17-3.09299E-11 9.27896E-12 9.27896E-12-1.82494E-19 5.70033E-21 8.00392E-20
 -1        18-6.18598E-11 1.85579E-11 1.85579E-11-3.95052E-20-7.97796E-21-3.20900E-20
 -1        19-6.18598E-11 1.85579E-11 1.85579E-11-1.99338E-27 2.57070E-27 8.29022E-28
 -1        20-3.09299E-11 9.27896E-12 9.27896E-12 4.86506E-27-1.75525E-27 2.59101E-27
 -1        21-3.09299E-11 9.27896E-12 9.27896E-12-3.37998E-21 1.67061E-20 1.99292E-19
 -1        22-3.09299E-11 9.27896E-12 9.27896E-12 1.71594E-20-1.41310E-20-1.53901E-19
 -1        23-3.09299E-11 9.27896E-12 9.27896E-12-8.85219E-20-3.38179E-20 3.32568E-20
 -1        24-6.18598E-11 1.85579E-11 1.85579E-11-2.21460E-19 7.40776E-20-1.27220E-20
 -3
    1PSTEP                        40          14           1          
  100CL  114 8.47812E-02          24                     0   14           1
 -4  DISP        4    1
 -5  D1          1    2    1    0
 -5  D2          1    2    2    0
 -5  D3          1    2    3    0
 -5  ALL         1    2    0    0    1ALL
 -1         1 0.00000E+00 0.00000E+00 0.00000E+00
 -1         2-3.46046E-08 0.00000E+00 0.00000E+00
 -1         3-1.27172E+00 0.00000E+00 0.00000E+00
 -1         4-1.27172E+00 0.00000E+00 0.00000E+00
 -1         5-2.54344E+00 0.00000E+00 0.00000E+00
 -1         6-2.54344E+00 0.00000E+00 0.00000E+00
 -1         7 0.00000E+00 1.03814E-08 0.00000E+00
 -1         8-3.46046E-08 1.03814E-08 0.00000E+00
 -1         9-1.27172E+00 1.03814E-08 0.00000E+00
 -1        10-1.27172E+00 1.03814E-08 0.00000E+00
 -1        11-2.54344E+00 1.03814E-08 0.00000E+00
 -1        12-2.54344E+00 1.03814E-08 0.00000E+00
 -1        13 0.00000E+00 0.00000E+00 1.45339E-08
 -1        14-3.46046E-08 0.00000E+00 1.45339E-08
 -1        15-1.27172E+00 0.00000E+00 1.45339E-08
 -1        16-1.27172E+00 0.00000E+00 1.45339E-08
 -1        17-2.54344E+00 0.00000E+00 1.45339E-08
 -1        18-2.54344E+00 0.00000E+00 1.45339E-08
 -1        19 0.00000E+00 1.03814E-08 1.45339E-08
 -1        20-3.46046E-08 1.03814E-08 1.45339E-08
 -1        21-1.27172E+00 1.03814E-08 1.45339E-08
 -1        22-1.27172E+00 1.03814E-08 1.45339E-08
 -1        23-2.54344E+00 1.03814E-08 1.45339E-08
 -1        24-2.54344E+00 1.03814E-08 1.45339E-08
 -3
    1PSTEP                        41          14           1          
  100CL  114 8.47812E-02          24                     0   14           1
 -4  STRESS      6    1
 -5  SXX         1    4    1    1
 -5  SYY         1    4    2    2
 -5  SZZ         1    4    3    3
 -5  SXY         1    4    1    2
 -5  SYZ         1    4    2    3
 -5  SZX         1    4    3    1
 -1         1-1.45333E-05 3.42964E-21 3.85315E-21 1.10744E-22-1.80328E-22-8.19567E-23
 -1         2-7.26667E-06 1.61653E-21 9.26993E-23-1.74758E-21 5.07574E-24 7.46068E-23
 -1         3-7.26667E-06-2.20171E-17-8.65356E-15 1.28350E-14-7.23292E-21 5.00635E-15
 -1         4-7.26667E-06-6.73935E-15-1.36120E-15-3.41398E-15-1.86413E-20-2.50034E-15
 -1         5-7.26667E-06 3.78005E-14 5.38337E-15 2.38061E-14 1.60073E-20 5.53602E-14
 -1         6-1.45333E-05 1.31140E-14 6.63889E-14-6.44823E-14-5.16057E-20-2.51056E-14
 -1         7-1.45333E-05-1.45595E-21-1.03243E-21 3.79601E-22-5.69200E-22 2.15509E-22
 -1         8-7.26667E-06-1.29130E-21-2.81513E-21-1.61315E-21-7.39857E-22 2.08279E-21
 -1         9-7.26667E-06-8.41531E-16-2.98200E-15 9.42408E-15-2.15253E-15 2.17814E-14
 -1        10-7.26667E-06-1.45595E-14-1.20245E-14-6.98588E-15 1.13149E-15 5.37815E-15
 -1        11-7.26667E-06 3.71779E-14 2.90860E-14-1.88593E-14-1.08513E-14 1.49566E-14
 -1        12-1.45333E-05-5.44301E-14-4.09036E-14 1.11006E-13 1.66252E-14-5.46579E-15
 -1        13-1.45333E-05-3.81978E-22 9.71648E-22-2.31622E-22 1.37371E-21-9.19715E-22
 -1        14-7.26667E-06-3.29538E-21-3.08362E-21 1.80015E-21-2.21034E-22-3.44272E-22
 -1        15-7.26667E-06-4.88157E-15-7.48604E-15-3.34020E-14 4.54374E-15 2.50553E-14
 -1        16-7.26667E-06 4.49284E-15 6.70277E-15 7.65522E-15-1.99022E-15-1.19948E-15
 -1        17-7.26667E-06-2.28619E-14-2.48952E-14-7.12266E-15 1.70276E-14-2.14108E-14
 -1        18-1.45333E-05 7.95962E-14 8.63203E-14 2.28290E-14-2.78239E-14-4.53621E-14
 -1        19-1.45333E-05 3.96662E-21 5.32025E-21-1.23502E-21 9.84834E-22-2.13917E-21
 -1        20-7.26667E-06 6.14489E-22 8.26247E-22 1.29845E-21-9.65966E-22 9.05453E-22
 -1        21-7.26667E-06-5.70108E-15-1.81448E-15-3.40182E-14 2.39122E-15-3.10673E-14
 -1        22-7.26667E-06-3.32733E-15-3.96054E-15 1.54096E-14-8.58711E-16-8.09842E-16
 -1        23-7.26667E-06-2.84102E-14-6.11837E-15 1.55037E-14 6.17630E-15 2.31464E-14
 -1        24-1.45333E-05 2.20052E-15-3.08237E-14-3.51134E-14-1.11987E-14 4.18202E-14
 -3
    1PSTEP                        42          14           1          
  100CL  114 8.47812E-02          24                     0   14           1
 -4  TOSTRAIN    6    1
 -5  EXX         1    4    1    1
 -5  EYY         1    4    2    2
 -5  EZZ         1    4    3    3
 -5  EXY         1    4    1    2
 -5  EYZ         1    4    2    3
 -5  EZX         1    4    3    1
 -1         1-6.92064E-11 2.07619E-11 2.07619E-11 6.85559E-28-1.11631E-27-5.07351E-28
 -1         2-3.46032E-11 1.03810E-11 1.03810E-11-1.08183E-26 3.14213E-29 4.61852E-28
 -1         3-3.46032E-11 1.03810E-11 1.03810E-11 7.94546E-20-4.47752E-26 3.09917E-20
 -1         4-3.46032E-11 1.03810E-11 1.03810E-11-2.11341E-20-1.15398E-25-1.54783E-20
 -1         5-3.46032E-11 1.03810E-11 1.03810E-11 1.47371E-19 9.90925E-26 3.42706E-19
 -1         6-6.92064E-11 2.07619E-11 2.07619E-11-3.99176E-19-3.19464E-25-1.55416E-19
 -1         7-6.92064E-11 2.07619E-11 2.07619E-11 2.34991E-27-3.52362E-27 1.33410E-27
 -1         8-3.46032E-11 1.03810E-11 1.03810E-11-9.98617E-27-4.58006E-27 1.28935E-26
 -1         9-3.46032E-11 1.03810E-11 1.03810E-11 5.83395E-20-1.33252E-20 1.34837E-19
 -1        10-3.46032E-11 1.03810E-11 1.03810E-11-4.32459E-20 7.00445E-21 3.32933E-20
 -1        11-3.46032E-11 1.03810E-11 1.03810E-11-1.16748E-19-6.71748E-20 9.25884E-20
 -1        12-6.92064E-11 2.07619E-11 2.07619E-11 6.87182E-19 1.02918E-19-3.38358E-20
 -1        13-6.92064E-11 2.07619E-11 2.07619E-11-1.43385E-27 8.50390E-27-5.69347E-27
 -1        14-3.46032E-11 1.03810E-11 1.03810E-11 1.11438E-26-1.36830E-27-2.13121E-27
 -1        15-3.46032E-11 1.03810E-11 1.03810E-11-2.06774E-19 2.81279E-20 1.55104E-19
 -1        16-3.46032E-11 1.03810E-11 1.03810E-11 4.73894E-20-1.23204E-20-7.42533E-21
 -1        17-3.46032E-11 1.03810E-11 1.03810E-11-4.40927E-20 1.05409E-19-1.32543E-19
 -1        18-6.92064E-11 2.07619E-11 2.07619E-11 1.41322E-19-1.72243E-19-2.80813E-19
 -1        19-6.92064E-11 2.07619E-11 2.07619E-11-7.64538E-27 6.09659E-27-1.32425E-26
 -1        20-3.46032E-11 1.03810E-11 1.03810E-11 8.03800E-27-5.97979E-27 5.60518E-27
 -1        21-3.46032E-11 1.03810E-11 1.03810E-11-2.10589E-19 1.48028E-20-1.92321E-19
 -1        22-3.46032E-11 1.03810E-11 1.03810E-11 9.53930E-20-5.31583E-21-5.01331E-21
 -1        23-3.46032E-11 1.03810E-11 1.03810E-11 9.59754E-20 3.82342E-20 1.43287E-19
 -1        24-6.92064E-11 2.07619E-11 2.07619E-11-2.17369E-19-6.93250E-20 2.58887E-19
 -3
    1PSTEP                        43          15           1          
  100CL  115 9.37812E-02          24                     0   15           1
 -4  DISP        4    1
 -5  D1          1    2    1    0
 -5  D2          1    2    2    0
 -5  D3          1    2    3    0
 -5  ALL         1    2    0    0    1ALL
 -1         1 0.00000E+00 0.00000E+00 0.00000E+00
 -1         2-3.82781E-08 0.00000E+00 0.00000E+00
 -1         3-1.40672E+00 0.00000E+00 0.00000E+00
 -1         4-1.40672E+00 0.00000E+00 0.00000E+00
 -1         5-2.81344E+00 0.00000E+00 0.00000E+00
 -1         6-2.81344E+00 0.00000E+00 0.00000E+00
 -1         7 0.00000E+00 1.14834E-08 0.00000E+00
 -1         8-3.82781E-08 1.14834E-08 0.00000E+00
 -1         9-1.40672E+00 1.14834E-08 0.00000E+00
 -1        10-1.40672E+00 1.14834E-08 0.00000E+00
 -1        11-2.81344E+00 1.14834E-08 0.00000E+00
 -1        12-2.81344E+00 1.14834E-08 0.00000E+00
 -1        13 0.00000E+00 0.00000E+00 1.60768E-08
 -1        14-3.82781E-08 0.00000E+00 1.60768E-08
 -1        15-1.40672E+00 0.00000E+00 1.60768E-08
 -1        16-1.40672E+00 0.00000E+00 1.60768E-08
 -1        17-2.81344E+00 0.00000E+00 1.60768E-08
 -1        18-2.81344E+00 0.00000E+00 1.60768E-08
 -1        19 0.00000E+00 1.14834E-08 1.60768E-08
 -1        20-3.82781E-08 1.14834E-08 1.60768E-08
 -1        21-1.40672E+00 1.14834E-08 1.60768E-08
 -1        22-1.40672E+00 1.14834E-08 1.60768E-08
 -1        23-2.81344E+00 1.14834E-08 1.60768E-08
 -1        24-2.81344E+00 1.14834E-08 1.60768E-08
 -3
    1PSTEP                        44          15           1          
  100CL  115 9.37812E-02          24                     0   15           1
 -4  STRESS      6    1
 -5  SXX         1    4    1    1
 -5  SYY         1    4    2    2
 -5  SZZ         1    4    3    3
 -5  SXY         1    4    1    2
 -5  SYZ         1    4    2    3
 -5  SZX         1    4    3    1
 -1         1-1.60761E-05-1.84907E-21-1.42556E-21 1.69021E-22 1.15605E-22-2.16797E-22
 -1         2-8.03807E-06 1.51826E-21 2.19507E-21-1.31886E-21-2.75493E-23-1.52949E-21
 -1         3-8.03807E-06-2.28406E-14-3.12650E-14 6.00773E-16-2.38576E-20-2.39226E-14
 -1         4-8.03807E-06-2.78751E-14-1.72610E-14 2.60598E-14-4.49723E-21 1.85226E-14
 -1         5-8.03807E-06-3.20278E-14-1.53321E-14-1.03165E-13-2.05985E-20-1.08671E-13
 -1         6-1.60761E-05 6.23863E-14 3.84247E-15 4.22973E-14-9.82596E-20 1.66268E-13
 -1         7-1.60761E-05-2.18948E-21-1.22898E-21 6.54291E-22 8.77481E-22-1.01406E-22
 -1         8-8.03807E-06 1.81309E-21 1.48786E-21-1.07622E-21-2.46040E-22 7.07485E-22
 -1         9-8.03807E-06 2.60286E-14 1.70863E-14-7.49363E-15-1.52261E-15 3.26213E-15
 -1        10-8.03807E-06 2.18466E-14 3.30795E-14 3.79904E-14 3.12270E-15 6.78425E-15
 -1        11-8.03807E-06-2.05969E-15 2.27712E-14-4.42206E-14 3.95277E-16 6.70367E-14
 -1        12-1.60761E-05 1.16506E-13 6.64778E-14-2.58913E-15-9.90465E-15-4.04860E-14
 -1        13-1.60761E-05-1.50863E-21-5.09328E-21-4.57343E-22 1.57708E-22 6.23921E-22
 -1        14-8.03807E-06-2.92862E-21-1.71482E-21 2.86980E-21-3.73495E-22-1.18077E-21
 -1        15-8.03807E-06 3.03319E-14 2.61708E-14-8.05449E-16-3.62529E-16-1.61055E-14
 -1        16-8.03807E-06 4.80594E-14 4.99299E-14-4.57898E-15 4.33184E-16 2.68227E-14
 -1        17-8.03807E-06 1.65271E-14 3.21160E-14 7.77543E-14 5.69462E-15 4.22390E-14
 -1        18-1.60761E-05 1.07090E-13 7.62789E-14-2.13463E-14 5.96064E-15-1.16352E-13
 -1        19-1.60761E-05 6.70423E-21 3.65657E-21-1.73366E-21 9.19584E-22-4.31564E-22
 -1        20-8.03807E-06-5.57754E-22-3.45996E-22 2.23164E-21-5.91986E-22 8.09780E-22
 -1        21-8.03807E-06-1.93140E-14-2.39930E-14 1.20939E-15-1.88512E-15 1.72837E-14
 -1        22-8.03807E-06-7.34049E-16 1.75528E-15 3.97705E-16 3.55589E-15-4.30597E-15
 -1        23-8.03807E-06-1.26138E-14 1.11102E-14-4.71689E-15 6.08992E-15-2.77298E-14
 -1        24-1.60761E-05 4.29917E-14 2.06960E-14-7.60540E-14-3.94391E-15-6.80159E-15
 -3
    1PSTEP                        45          15           1          
  100CL  115 9.37812E-02          24                     0   15           1
 -4  TOSTRAIN    6    1
 -5  EXX         1    4    1    1
 -5  EYY         1    4    2    2
 -5  EZZ         1    4    3    3
 -5  EXY         1    4    1    2
 -5  EYZ         1    4    2    3
 -5  EZX         1    4    3    1
 -1         1-7.65530E-11 2.29659E-11 2.29659E-11 1.04632E-27 7.15649E-28-1.34208E-27
 -1         2-3.82765E-11 1.14830E-11 1.14830E-11-8.16435E-27-1.70543E-28-9.46825E-27
 -1         3-3.82765E-11 1.14830E-11 1.14830E-11 3.71907E-21-1.47690E-25-1.48092E-19
 -1         4-3.82765E-11 1.14830E-11 1.14830E-11 1.61323E-19-2.78400E-26 1.14664E-19
 -1         5-3.82765E-11 1.14830E-11 1.14830E-11-6.38643E-19-1.27514E-25-6.72725E-19
 -1         6-7.65531E-11 2.29659E-11 2.29659E-11 2.61840E-19-6.08274E-25 1.02928E-18
 -1         7-7.65530E-11 2.29659E-11 2.29659E-11 4.05037E-27 5.43203E-27-6.27752E-28
 -1         8-3.82765E-11 1.14830E-11 1.14830E-11-6.66233E-27-1.52311E-27 4.37967E-27
 -1         9-3.82765E-11 1.14830E-11 1.14830E-11-4.63891E-20-9.42571E-21 2.01942E-20
 -1        10-3.82765E-11 1.14830E-11 1.14830E-11 2.35179E-19 1.93310E-20 4.19977E-20
 -1        11-3.82765E-11 1.14830E-11 1.14830E-11-2.73747E-19 2.44695E-21 4.14989E-19
 -1        12-7.65530E-11 2.29659E-11 2.29659E-11-1.60280E-20-6.13145E-20-2.50628E-19
 -1        13-7.65530E-11 2.29659E-11 2.29659E-11-2.83117E-27 9.76287E-28 3.86237E-27
 -1        14-3.82765E-11 1.14830E-11 1.14830E-11 1.77654E-26-2.31211E-27-7.30952E-27
 -1        15-3.82765E-11 1.14830E-11 1.14830E-11-4.98611E-21-2.24423E-21-9.97005E-20
 -1        16-3.82765E-11 1.14830E-11 1.14830E-11-2.83461E-20 2.68161E-21 1.66045E-19
 -1        17-3.82765E-11 1.14830E-11 1.14830E-11 4.81336E-19 3.52524E-20 2.61479E-19
 -1        18-7.65530E-11 2.29659E-11 2.29659E-11-1.32144E-19 3.68992E-20-7.20275E-19
 -1        19-7.65530E-11 2.29659E-11 2.29659E-11-1.07322E-26 5.69266E-27-2.67159E-27
 -1        20-3.82765E-11 1.14830E-11 1.14830E-11 1.38149E-26-3.66468E-27 5.01292E-27
 -1        21-3.82765E-11 1.14830E-11 1.14830E-11 7.48672E-21-1.16698E-20 1.06994E-19
 -1        22-3.82765E-11 1.14830E-11 1.14830E-11 2.46198E-21 2.20126E-20-2.66560E-20
 -1        23-3.82765E-11 1.14830E-11 1.14830E-11-2.91998E-20 3.76995E-20-1.71661E-19
 -1        24-7.65530E-11 2.29659E-11 2.29659E-11-4.70811E-19-2.44147E-20-4.21051E-20
 -3
    1PSTEP                        46          16           1          
  100CL  116 1.02781E-01          24                     0   16           1
 -4  DISP        4    1
 -5  D1          1    2    1    0
 -5  D2          1    2    2    0
 -5  D3          1    2    3    0
 -5  ALL         1    2    0    0    1ALL
 -1         1 0.00000E+00 0.00000E+00 0.00000E+00
 -1         2-4.19515E-08 0.00000E+00 0.00000E+00
 -1         3-1.54172E+00 0.00000E+00 0.00000E+00
 -1         4-1.54172E+00 0.00000E+00 0.00000E+00
 -1         5-3.08344E+00 0.00000E+00 0.00000E+00
 -1         6-3.08344E+00 0.00000E+00 0.00000E+00
 -1         7 0.00000E+00 1.25855E-08 0.00000E+00
 -1         8-4.19515E-08 1.25855E-08 0.00000E+00
 -1         9-1.54172E+00 1.25855E-08 0.00000E+00
 -1        10-1.54172E+00 1.25855E-08 0.00000E+00
 -1        11-3.08344E+00 1.25855E-08 0.00000E+00
 -1        12-3.08344E+00 1.25855E-08 0.00000E+00
 -1        13 0.00000E+00 0.00000E+00 1.76196E-08
 -1        14-4.19515E-08 0.00000E+00 1.76196E-08
 -1        15-1.54172E+00 0.00000E+00 1.76196E-08
 -1        16-1.54172E+00 0.00000E+00 1.76196E-08
 -1        17-3.08344E+00 0.00000E+00 1.76196E-08
 -1        18-3.08344E+00 0.00000E+00 1.76196E-08
 -1        19 0.00000E+00 1.25855E-08 1.76196E-08
 -1        20-4.19515E-08 1.25855E-08 1.76196E-08
 -1        21-1.54172E+00 1.25855E-08 1.76196E-08
 -1        22-1.54172E+00 1.25855E-08 1.76196E-08
 -1        23-3.08344E+00 1.25855E-08 1.76196E-08
 -1        24-3.08344E+00 1.25855E-08 1.76196E-08
 -3
    1PSTEP                        47          16           1          
  100CL  116 1.02781E-01          24                     0   16           1
 -4  STRESS      6    1
 -5  SXX         1    4    1    1
 -5  SYY         1    4    2    2
 -5  SZZ         1    4    3    3
 -5  SXY         1    4    1    2
 -5  SYZ         1    4    2    3
 -5  SZX         1    4    3    1
 -1         1-1.76189E-05-4.23517E-22 1.22898E-21 2.70486E-22-2.04164E-23 1.88071E-22
 -1         2-8.80947E-06 1.59576E-21-4.85824E-22-7.88395E-22-1.08036E-23-7.85469E-22
 -1         3-8.80947E-06 5.48940E-15 1.74354E-14-1.66091E-14-5.84530E-21 9.32599E-15
 -1         4-8.80947E-06 2.53535E-14 1.48186E-14-2.49549E-14 5.46605E-21 2.09816E-15
 -1         5-8.80947E-06 1.14709E-14-1.16495E-14 7.06811E-15-5.81158E-20 5.65368E-14
 -1         6-1.76189E-05-9.04810E-14-4.05359E-14 7.91347E-15-8.09816E-20-1.74859E-13
 -1         7-1.76189E-05-2.03447E-21-3.11959E-21 6.04157E-22-5.42974E-22 1.39258E-23
 -1         8-8.80947E-06 7.90282E-22-9.24536E-22-6.21559E-22-7.02004E-22 1.81877E-21
 -1         9-8.80947E-06-2.87887E-14-2.66602E-14-1.29879E-14 5.24319E-15 8.50482E-15
 -1        10-8.80947E-06 5.10314E-15 3.45437E-15-3.71256E-15-4.56792E-15-2.23969E-14
 -1        11-8.80947E-06 1.29066E-14 1.31649E-15-3.12543E-14-7.65038E-15-5.91634E-14
 -1        12-1.76189E-05-1.15807E-13-8.03980E-14 1.18339E-13 2.09909E-14 1.65217E-13
 -1        13-1.76189E-05 1.13469E-22-1.11551E-21-3.39065E-22 3.19347E-22-2.61186E-22
 -1        14-8.80947E-06-3.21788E-21-1.19303E-21 1.94068E-21-3.84119E-23-1.01010E-21
 -1        15-8.80947E-06 1.56417E-14 1.29068E-14 3.34970E-14-6.87228E-15 1.33858E-14
 -1        16-8.80947E-06-1.25687E-14-1.03134E-14 3.36630E-15 6.22032E-15-1.25902E-14
 -1        17-8.80947E-06-1.04763E-14-1.21758E-14-8.08643E-18 8.07109E-15-1.01193E-13
 -1        18-1.76189E-05 4.34533E-14 3.46237E-14-2.26364E-13-1.01754E-14 1.92809E-13
 -1        19-1.76189E-05 6.12571E-21 5.63026E-21-1.71805E-21 3.31536E-22-5.82130E-22
 -1        20-8.80947E-06-2.11758E-22 1.71482E-21 1.25118E-21-8.01254E-22 1.52075E-21
 -1        21-8.80947E-06 1.06664E-15-1.14858E-14 2.45846E-14-1.62909E-15-1.44359E-14
 -1        22-8.80947E-06-1.31160E-14-1.97458E-15 6.38728E-15 1.65239E-15 1.32317E-15
 -1        23-8.80947E-06-2.87436E-14-1.89129E-14-4.41769E-14 4.20774E-16-1.32743E-14
 -1        24-1.76189E-05-2.12787E-14-4.46445E-14 1.68130E-13 1.08156E-14 7.33525E-15
 -3
    1PSTEP                        48          16           1          
  100CL  116 1.02781E-01          24                     0   16           1
 -4  TOSTRAIN    6    1
 -5  EXX         1    4    1    1
 -5  EYY         1    4    2    2
 -5  EZZ         1    4    3    3
 -5  EXY         1    4    1    2
 -5  EYZ         1    4    2    3
 -5  EZX         1    4    3    1
 -1         1-8.38997E-11 2.51699E-11 2.51699E-11 1.67443E-27-1.26387E-28 1.16425E-27
 -1         2-4.19498E-11 1.25850E-11 1.25850E-11-4.88054E-27-6.68792E-29-4.86243E-27
 -1         3-4.19498E-11 1.25850E-11 1.25850E-11-1.02818E-19-3.61852E-26 5.77323E-20
 -1         4-4.19498E-11 1.25850E-11 1.25850E-11-1.54483E-19 3.38375E-26 1.29886E-20
 -1         5-4.19498E-11 1.25850E-11 1.25850E-11 4.37549E-20-3.59765E-25 3.49990E-19
 -1         6-8.38997E-11 2.51699E-11 2.51699E-11 4.89882E-20-5.01315E-25-1.08246E-18
 -1         7-8.38997E-11 2.51699E-11 2.51699E-11 3.74002E-27-3.36127E-27 8.62075E-29
 -1         8-4.19498E-11 1.25850E-11 1.25850E-11-3.84775E-27-4.34574E-27 1.12591E-26
 -1         9-4.19498E-11 1.25850E-11 1.25850E-11-8.04013E-20 3.24578E-20 5.26489E-20
 -1        10-4.19498E-11 1.25850E-11 1.25850E-11-2.29825E-20-2.82776E-20-1.38647E-19
 -1        11-4.19498E-11 1.25850E-11 1.25850E-11-1.93479E-19-4.73595E-20-3.66249E-19
 -1        12-8.38997E-11 2.51699E-11 2.51699E-11 7.32577E-19 1.29943E-19 1.02277E-18
 -1        13-8.38997E-11 2.51699E-11 2.51699E-11-2.09897E-27 1.97691E-27-1.61686E-27
 -1        14-4.19498E-11 1.25850E-11 1.25850E-11 1.20137E-26-2.37788E-28-6.25298E-27
 -1        15-4.19498E-11 1.25850E-11 1.25850E-11 2.07362E-19-4.25427E-20 8.28643E-20
 -1        16-4.19498E-11 1.25850E-11 1.25850E-11 2.08390E-20 3.85067E-20-7.79391E-20
 -1        17-4.19498E-11 1.25850E-11 1.25850E-11-5.00589E-23 4.99639E-20-6.26432E-19
 -1        18-8.38997E-11 2.51699E-11 2.51699E-11-1.40130E-18-6.29904E-20 1.19358E-18
 -1        19-8.38997E-11 2.51699E-11 2.51699E-11-1.06355E-26 2.05237E-27-3.60366E-27
 -1        20-4.19498E-11 1.25850E-11 1.25850E-11 7.74543E-27-4.96014E-27 9.41414E-27
 -1        21-4.19498E-11 1.25850E-11 1.25850E-11 1.52190E-19-1.00848E-20-8.93649E-20
 -1        22-4.19498E-11 1.25850E-11 1.25850E-11 3.95403E-20 1.02291E-20 8.19103E-21
 -1        23-4.19498E-11 1.25850E-11 1.25850E-11-2.73476E-19 2.60479E-21-8.21741E-20
 -1        24-8.38997E-11 2.51699E-11 2.51699E-11 1.04081E-18 6.69535E-20 4.54087E-20
 -3
    1PSTEP                        49          17           1          
  100CL  117 1.11781E-01          24                     0   17           1
 -4  DISP        4    1
 -5  D1          1    2    1    0
 -5  D2          1    2    2    0
 -5  D3          1    2    3    0
 -5  ALL         1    2    0    0    1ALL
 -1         1 0.00000E+00 0.00000E+00 0.00000E+00
 -1         2-4.56250E-08 0.00000E+00 0.00000E+00
 -1         3-1.67672E+00 0.00000E+00 0.00000E+00
 -1         4-1.67672E+00 0.00000E+00 0.00000E+00
 -1         5-3.35344E+00 0.00000E+00 0.00000E+00
 -1         6-3.35344E+00 0.00000E+00 0.00000E+00
 -1         7 0.00000E+00 1.36875E-08 0.00000E+00
 -1         8-4.56250E-08 1.36875E-08 0.00000E+00
 -1         9-1.67672E+00 1.36875E-08 0.00000E+00
 -1        10-1.67672E+00 1.36875E-08 0.00000E+00
 -1        11-3.35344E+00 1.36875E-08 0.00000E+00
 -1        12-3.35344E+00 1.36875E-08 0.00000E+00
 -1        13 0.00000E+00 0.00000E+00 1.91625E-08
 -1        14-4.56250E-08 0.00000E+00 1.91625E-08
 -1        15-1.67672E+00 0.00000E+00 1.91625E-08
 -1        16-1.67672E+00 0.00000E+00 1.91625E-08
 -1        17-3.35344E+00 0.00000E+00 1.91625E-08
 -1        18-3.35344E+00 0.00000E+00 1.91625E-08
 -1        19 0.00000E+00 1.36875E-08 1.91625E-08
 -1        20-4.56250E-08 1.36875E-08 1.91625E-08
 -1        21-1.67672E+00 1.36875E-08 1.91625E-08
 -1        22-1.67672E+00 1.36875E-08 1.91625E-08
 -1        23-3.35344E+00 1.36875E-08 1.91625E-08
 -1        24-3.35344E+00 1.36875E-08 1.91625E-08
 -3
    1PSTEP                        50          17           1          
  100CL  117 1.11781E-01          24                     0   17           1
 -4  STRESS      6    1
 -5  SXX         1    4    1    1
 -5  SYY         1    4    2    2
 -5  SZZ         1    4    3    3
 -5  SXY         1    4    1    2
 -5  SYZ         1    4    2    3
 -5  SZX         1    4    3    1
 -1         1-1.91617E-05 1.15705E-21 2.31409E-21 4.78571E-22-2.37114E-22 1.10917E-23
 -1         2-9.58087E-06 1.84907E-21 4.62822E-21-1.31549E-21 1.44806E-22-1.93644E-21
 -1         3-9.58087E-06 2.87762E-14 3.64065E-14-2.51506E-15-8.89710E-21-1.60166E-14
 -1         4-9.58087E-06 4.24731E-14 3.10383E-14-4.51866E-14-3.33515E-21 3.16951E-15
 -1         5-9.58087E-06-4.03800E-14-4.37632E-14-2.52258E-14 2.18624E-20-3.86294E-14
 -1         6-1.91617E-05-8.23159E-14-7.28790E-14 6.69489E-14 9.02669E-20 3.15784E-14
 -1         7-1.91617E-05-4.31817E-21-4.62826E-21 4.95193E-22 7.55573E-22 3.05784E-22
 -1         8-9.58087E-06 4.15385E-23 1.15705E-21-1.30718E-21 9.24115E-23 4.76490E-23
 -1         9-9.58087E-06-8.49946E-14-8.14221E-14 3.15213E-15 2.43377E-15 4.83630E-15
 -1        10-9.58087E-06-6.27751E-14-6.69045E-14-3.98414E-14-3.99144E-15-2.88122E-15
 -1        11-9.58087E-06 3.43695E-14 2.70568E-14-6.01393E-15-2.52181E-15 8.80208E-14
 -1        12-1.91617E-05 7.19952E-14 7.99891E-14-8.94259E-14 3.62905E-15-9.09389E-14
 -1        13-1.91617E-05-4.31817E-21-6.20096E-22-3.54222E-22 8.34609E-22 1.95991E-21
 -1        14-9.58087E-06 4.15385E-23 6.20062E-22 8.12630E-22-5.89832E-22-1.03368E-21
 -1        15-9.58087E-06-8.14013E-14-8.05855E-14-3.50130E-14-2.84054E-15-2.97170E-14
 -1        16-9.58087E-06-9.91879E-14-9.94467E-14 4.02116E-14 5.11382E-15 2.82422E-14
 -1        17-9.58087E-06 2.20843E-15 5.88632E-15 6.85180E-14-2.75062E-15-1.04349E-14
 -1        18-1.91617E-05 4.53568E-14 4.46325E-14-5.85801E-14-1.00998E-15-3.82785E-14
 -1        19-1.91617E-05 2.23102E-21-2.48032E-21-1.21839E-21 1.29255E-21 2.51862E-22
 -1        20-9.58087E-06-1.55007E-22-3.10048E-22 3.80544E-22-5.70585E-22 2.88061E-22
 -1        21-9.58087E-06 4.61900E-14 4.29479E-14-4.19469E-14-4.06762E-16 1.65184E-14
 -1        22-9.58087E-06 3.69259E-14 4.39726E-14 5.00189E-14 1.12239E-15-3.48980E-14
 -1        23-9.58087E-06-2.15572E-14-2.18088E-14 8.17813E-14-5.27244E-15 4.54864E-14
 -1        24-1.91617E-05 2.63755E-15 4.70355E-16-1.13098E-13 2.61897E-15-1.08871E-13
 -3
    1PSTEP                        51          17           1          
  100CL  117 1.11781E-01          24                     0   17           1
 -4  TOSTRAIN    6    1
 -5  EXX         1    4    1    1
 -5  EYY         1    4    2    2
 -5  EZZ         1    4    3    3
 -5  EXY         1    4    1    2
 -5  EYZ         1    4    2    3
 -5  EZX         1    4    3    1
 -1         1-9.12463E-11 2.73739E-11 2.73739E-11 2.96258E-27-1.46785E-27 6.86627E-29
 -1         2-4.56232E-11 1.36870E-11 1.36870E-11-8.14350E-27 8.96419E-28-1.19875E-26
 -1         3-4.56232E-11 1.36870E-11 1.36870E-11-1.55694E-20-5.50773E-26-9.91504E-20
 -1         4-4.56232E-11 1.36870E-11 1.36870E-11-2.79727E-19-2.06462E-26 1.96207E-20
 -1         5-4.56232E-11 1.36870E-11 1.36870E-11-1.56160E-19 1.35338E-25-2.39134E-19
 -1         6-9.12463E-11 2.73739E-11 2.73739E-11 4.14446E-19 5.58795E-25 1.95485E-19
 -1         7-9.12463E-11 2.73739E-11 2.73739E-11 3.06548E-27 4.67736E-27 1.89295E-27
 -1         8-4.56232E-11 1.36870E-11 1.36870E-11-8.09206E-27 5.72071E-28 2.94970E-28
 -1         9-4.56232E-11 1.36870E-11 1.36870E-11 1.95132E-20 1.50662E-20 2.99390E-20
 -1        10-4.56232E-11 1.36870E-11 1.36870E-11-2.46637E-19-2.47089E-20-1.78361E-20
 -1        11-4.56232E-11 1.36870E-11 1.36870E-11-3.72291E-20-1.56112E-20 5.44891E-19
 -1        12-9.12463E-11 2.73739E-11 2.73739E-11-5.53589E-19 2.24655E-20-5.62955E-19
 -1        13-9.12463E-11 2.73739E-11 2.73739E-11-2.19280E-27 5.16663E-27 1.21328E-26
 -1        14-4.56232E-11 1.36870E-11 1.36870E-11 5.03057E-27-3.65134E-27-6.39895E-27
 -1        15-4.56232E-11 1.36870E-11 1.36870E-11-2.16747E-19-1.75843E-20-1.83963E-19
 -1        16-4.56232E-11 1.36870E-11 1.36870E-11 2.48929E-19 3.16570E-20 1.74833E-19
 -1        17-4.56232E-11 1.36870E-11 1.36870E-11 4.24159E-19-1.70276E-20-6.45968E-20
 -1        18-9.12463E-11 2.73739E-11 2.73739E-11-3.62639E-19-6.25228E-21-2.36962E-19
 -1        19-9.12463E-11 2.73739E-11 2.73739E-11-7.54244E-27 8.00150E-27 1.55915E-27
 -1        20-4.56232E-11 1.36870E-11 1.36870E-11 2.35575E-27-3.53219E-27 1.78324E-27
 -1        21-4.56232E-11 1.36870E-11 1.36870E-11-2.59672E-19-2.51805E-21 1.02257E-19
 -1        22-4.56232E-11 1.36870E-11 1.36870E-11 3.09641E-19 6.94810E-21-2.16035E-19
 -1        23-4.56232E-11 1.36870E-11 1.36870E-11 5.06265E-19-3.26389E-20 2.81582E-19
 -1        24-9.12463E-11 2.73739E-11 2.73739E-11-7.00128E-19 1.62127E-20-6.73962E-19
 -3
    1PSTEP                        52          18           1          
  100CL  118 1.20781E-01          24                     0   18           1
 -4  DISP        4    1
 -5  D1          1    2    1    0
 -5  D2          1    2    2    0
 -5  D3          1    2    3    0
 -5  ALL         1    2    0    0    1ALL
 -1         1 0.00000E+00 0.00000E+00 0.00000E+00
 -1         2-4.92985E-08 0.00000E+00 0.00000E+00
 -1         3-1.81172E+00 0.00000E+00 0.00000E+00
 -1         4-1.81172E+00 0.00000E+00 0.00000E+00
 -1         5-3.62344E+00 0.00000E+00 0.00000E+00
 -1         6-3.62344E+00 0.00000E+00 0.00000E+00
 -1         7 0.00000E+00 1.47895E-08 0.00000E+00
 -1         8-4.92985E-08 1.47895E-08 0.00000E+00
 -1         9-1.81172E+00 1.47895E-08 0.00000E+00
 -1        10-1.81172E+00 1.47895E-08 0.00000E+00
 -1        11-3.62344E+00 1.47895E-08 0.00000E+00
 -1        12-3.62344E+00 1.47895E-08 0.00000E+00
 -1        13 0.00000E+00 0.00000E+00 2.07054E-08
 -1        14-4.92985E-08 0.00000E+00 2.07054E-08
 -1        15-1.81172E+00 0.00000E+00 2.07054E-08
 -1        16-1.81172E+00 0.00000E+00 2.07054E-08
 -1        17-3.62344E+00 0.00000E+00 2.07054E-08
 -1        18-3.62344E+00 0.00000E+00 2.07054E-08
 -1        19 0.00000E+00 1.47895E-08 2.07054E-08
 -1        20-4.92985E-08 1.47895E-08 2.07054E-08
 -1        21-1.81172E+00 1.47895E-08 2.07054E-08
 -1        22-1.81172E+00 1.47895E-08 2.07054E-08
 -1        23-3.62344E+00 1.47895E-08 2.07054E-08
 -1        24-3.62344E+00 1.47895E-08 2.07054E-08
 -3
    1PSTEP                        53          18           1          
  100CL  118 1.20781E-01          24                     0   18           1
 -4  STRESS      6    1
 -5  SXX         1    4    1    1
 -5  SYY         1    4    2    2
 -5  SZZ         1    4    3    3
 -5  SXY         1    4    1    2
 -5  SYZ         1    4    2    3
 -5  SZX         1    4    3    1
 -1         1-2.07045E-05-3.38806E-21-2.85104E-21 3.18317E-23-1.38397E-22 5.56129E-22
 -1         2-1.03523E-05 1.92100E-21 1.84907E-21-1.65483E-21 2.47037E-23-2.16453E-21
 -1         3-1.03523E-05-9.62074E-15-6.70189E-15-2.61881E-14-5.70702E-21-1.86551E-14
 -1         4-1.03523E-05-8.14135E-15-1.24461E-14 1.48602E-14-2.26434E-20 7.41566E-14
 -1         5-1.03523E-05-8.69202E-15-3.63212E-14 2.61852E-14-4.69169E-20 1.54470E-13
 -1         6-2.07045E-05-2.35324E-13-1.86827E-13 5.53635E-14 2.10646E-19-1.36662E-13
 -1         7-2.07045E-05-5.53600E-21-2.45795E-21 1.11979E-22 7.73419E-22-1.09029E-22
 -1         8-1.03523E-05 8.47033E-22-1.42552E-21-1.61475E-21-4.73582E-22 2.10962E-21
 -1         9-1.03523E-05 5.42453E-14 6.27631E-14-3.25964E-14-7.09932E-16 1.46140E-14
 -1        10-1.03523E-05 4.92152E-14 4.18302E-14 4.53042E-14 6.19512E-16-2.24470E-14
 -1        11-1.03523E-05 1.36421E-13 9.28530E-14 4.10315E-14-1.20865E-14-1.40575E-13
 -1        12-2.07045E-05 1.01244E-13 1.79656E-13 8.49675E-14 1.86431E-14 2.02769E-13
 -1        13-2.07045E-05 1.69407E-21-1.38398E-21-6.53206E-23 4.08917E-22 1.62008E-21
 -1        14-1.03523E-05-5.70219E-21-3.42960E-21 2.99416E-21-7.29232E-22-1.91912E-21
 -1        15-1.03523E-05 4.65674E-14 5.14741E-14-2.14847E-14 3.91927E-15-2.03585E-14
 -1        16-1.03523E-05 5.45612E-14 4.85218E-14-2.69321E-15-2.15623E-15 3.94538E-14
 -1        17-1.03523E-05 4.36483E-14 4.98612E-14 6.25781E-14-1.11569E-14-3.64204E-14
 -1        18-2.07045E-05 7.91537E-14 7.54514E-14-2.26594E-13 2.09400E-14-4.86585E-14
 -1        19-2.07045E-05 9.71039E-21 2.23109E-21-2.23609E-21 1.32073E-21-1.67339E-21
 -1        20-1.03523E-05-1.69403E-21-6.91992E-22 1.90878E-21-1.22752E-21 2.39694E-21
 -1        21-1.03523E-05-3.73392E-14-2.68336E-14-5.59871E-15 3.20935E-15 3.13029E-14
 -1        22-1.03523E-05-3.58549E-14-4.49747E-14-4.66463E-14-1.53670E-15-3.02259E-14
 -1        23-1.03523E-05-9.69329E-14-1.06658E-13-2.01330E-13-2.32434E-14 6.95420E-14
 -1        24-2.07045E-05-1.55666E-13-1.29454E-13 1.78289E-13 3.95829E-14-1.35760E-13
 -3
    1PSTEP                        54          18           1          
  100CL  118 1.20781E-01          24                     0   18           1
 -4  TOSTRAIN    6    1
 -5  EXX         1    4    1    1
 -5  EYY         1    4    2    2
 -5  EZZ         1    4    3    3
 -5  EXY         1    4    1    2
 -5  EYZ         1    4    2    3
 -5  EZX         1    4    3    1
 -1         1-9.85930E-11 2.95779E-11 2.95779E-11 1.97053E-28-8.56746E-28 3.44270E-27
 -1         2-4.92965E-11 1.47889E-11 1.47889E-11-1.02442E-26 1.52928E-28-1.33995E-26
 -1         3-4.92965E-11 1.47889E-11 1.47889E-11-1.62117E-19-3.53292E-26-1.15484E-19
 -1         4-4.92965E-11 1.47889E-11 1.47889E-11 9.19919E-20-1.40174E-25 4.59065E-19
 -1         5-4.92965E-11 1.47889E-11 1.47889E-11 1.62099E-19-2.90438E-25 9.56246E-19
 -1         6-9.85930E-11 2.95779E-11 2.95779E-11 3.42726E-19 1.30400E-24-8.46005E-19
 -1         7-9.85930E-11 2.95779E-11 2.95779E-11 6.93200E-28 4.78783E-27-6.74944E-28
 -1         8-4.92965E-11 1.47889E-11 1.47889E-11-9.99610E-27-2.93170E-27 1.30596E-26
 -1         9-4.92965E-11 1.47889E-11 1.47889E-11-2.01787E-19-4.39482E-21 9.04675E-20
 -1        10-4.92965E-11 1.47889E-11 1.47889E-11 2.80454E-19 3.83508E-21-1.38957E-19
 -1        11-4.92965E-11 1.47889E-11 1.47889E-11 2.54004E-19-7.48212E-20-8.70229E-19
 -1        12-9.85930E-11 2.95779E-11 2.95779E-11 5.25989E-19 1.15410E-19 1.25523E-18
 -1        13-9.85930E-11 2.95779E-11 2.95779E-11-4.04366E-28 2.53139E-27 1.00291E-26
 -1        14-4.92965E-11 1.47889E-11 1.47889E-11 1.85353E-26-4.51429E-27-1.18803E-26
 -1        15-4.92965E-11 1.47889E-11 1.47889E-11-1.33001E-19 2.42622E-20-1.26029E-19
 -1        16-4.92965E-11 1.47889E-11 1.47889E-11-1.66723E-20-1.33481E-20 2.44238E-19
 -1        17-4.92965E-11 1.47889E-11 1.47889E-11 3.87388E-19-6.90667E-20-2.25460E-19
 -1        18-9.85930E-11 2.95779E-11 2.95779E-11-1.40272E-18 1.29629E-19-3.01220E-19
 -1        19-9.85930E-11 2.95779E-11 2.95779E-11-1.38425E-26 8.17597E-27-1.03591E-26
 -1        20-4.92965E-11 1.47889E-11 1.47889E-11 1.18162E-26-7.59892E-27 1.48382E-26
 -1        21-4.92965E-11 1.47889E-11 1.47889E-11-3.46587E-20 1.98674E-20 1.93780E-19
 -1        22-4.92965E-11 1.47889E-11 1.47889E-11-2.88763E-19-9.51289E-21-1.87112E-19
 -1        23-4.92965E-11 1.47889E-11 1.47889E-11-1.24633E-18-1.43888E-19 4.30498E-19
 -1        24-9.85930E-11 2.95779E-11 2.95779E-11 1.10370E-18 2.45037E-19-8.40417E-19
 -3
    1PSTEP                        55          19           1          
  100CL  119 1.29781E-01          24                     0   19           1
 -4  DISP        4    1
 -5  D1          1    2    1    0
 -5  D2          1    2    2    0
 -5  D3          1    2    3    0
 -5  ALL         1    2    0    0    1ALL
 -1         1 0.00000E+00 0.00000E+00 0.00000E+00
 -1         2-5.29719E-08 0.00000E+00 0.00000E+00
 -1         3-1.94672E+00 0.00000E+00 0.00000E+00
 -1         4-1.94672E+00 0.00000E+00 0.00000E+00
 -1         5-3.89344E+00 0.00000E+00 0.00000E+00
 -1         6-3.89344E+00 0.00000E+00 0.00000E+00
 -1         7 0.00000E+00 1.58916E-08 0.00000E+00
 -1         8-5.29719E-08 1.58916E-08 0.00000E+00
 -1         9-1.94672E+00 1.58916E-08 0.00000E+00
 -1        10-1.94672E+00 1.58916E-08 0.00000E+00
 -1        11-3.89344E+00 1.58916E-08 0.00000E+00
 -1        12-3.89344E+00 1.58916E-08 0.00000E+00
 -1        13 0.00000E+00 0.00000E+00 2.22482E-08
 -1        14-5.29719E-08 0.00000E+00 2.22482E-08
 -1        15-1.94672E+00 0.00000E+00 2.22482E-08
 -1        16-1.94672E+00 0.00000E+00 2.22482E-08
 -1        17-3.89344E+00 0.00000E+00 2.22482E-08
 -1        18-3.89344E+00 0.00000E+00 2.22482E-08
 -1        19 0.00000E+00 1.58916E-08 2.22482E-08
 -1        20-5.29719E-08 1.58916E-08 2.22482E-08
 -1        21-1.94672E+00 1.58916E-08 2.22482E-08
 -1        22-1.94672E+00 1.58916E-08 2.22482E-08
 -1        23-3.89344E+00 1.58916E-08 2.22482E-08
 -1        24-3.89344E+00 1.58916E-08 2.22482E-08
 -3
    1PSTEP                        56          19           1          
  100CL  119 1.29781E-01          24                     0   19           1
 -4  STRESS      6    1
 -5  SXX         1    4    1    1
 -5  SYY         1    4    2    2
 -5  SZZ         1    4    3    3
 -5  SXY         1    4    1    2
 -5  SYZ         1    4    2    3
 -5  SZX         1    4    3    1
 -1         1-2.22473E-05-4.62826E-21-2.85111E-21 1.39843E-22-1.51473E-23 3.82726E-22
 -1         2-1.11237E-05-2.31413E-21-2.15909E-21-2.94254E-23-2.03304E-24-6.57668E-22
 -1         3-1.11237E-05 2.10891E-14 1.51670E-14 1.83007E-14-5.86072E-22 1.04132E-14
 -1         4-1.11237E-05 2.08492E-14 1.86481E-14-9.66155E-15-2.64944E-21-2.77594E-14
 -1         5-1.11237E-05 8.57999E-14 4.06293E-14 6.25370E-14-1.46380E-20 1.21767E-14
 -1         6-2.22473E-05 4.02377E-14 1.30087E-13-1.10892E-13-5.90093E-20-9.73389E-16
 -1         7-2.22473E-05 3.38806E-21-3.10014E-22-3.23265E-22-1.39235E-22-1.02544E-22
 -1         8-1.11237E-05 1.69403E-21 2.58260E-21-2.60979E-22 2.29521E-22 1.76222E-22
 -1         9-1.11237E-05-1.62672E-14-1.98282E-14 1.39709E-14-1.28993E-15 9.32921E-15
 -1        10-1.11237E-05-1.57980E-14-1.46924E-14 3.62970E-15-2.48815E-15-7.62550E-14
 -1        11-1.11237E-05 1.89089E-15-1.01246E-14 6.40527E-14-1.98196E-14-1.99174E-14
 -1        12-2.22473E-05-2.23095E-13-1.94289E-13 4.58999E-14 4.11687E-14 4.76491E-14
 -1        13-2.22473E-05 3.38806E-21 7.63956E-22-5.21959E-22 9.11069E-22 6.91465E-22
 -1        14-1.11237E-05 1.69403E-21 5.78524E-22 9.11931E-22-1.26121E-22-5.03299E-22
 -1        15-1.11237E-05-3.57344E-14-3.80447E-14-3.65268E-14 1.65278E-15-1.66727E-14
 -1        16-1.11237E-05-4.18456E-14-3.70799E-14 1.55249E-14 2.31468E-15 2.90966E-14
 -1        17-1.11237E-05-9.73400E-14-8.70158E-14 8.94149E-14 2.32085E-14-5.27992E-14
 -1        18-2.22473E-05 6.99165E-14 4.44930E-14-3.47293E-14-4.27301E-14 3.44270E-14
 -1        19-2.22473E-05 1.24012E-21 8.30770E-23-3.97871E-22 7.86981E-22-1.85269E-22
 -1        20-1.11237E-05 6.20062E-22-6.91992E-22 9.73975E-22 1.05433E-22 1.34860E-22
 -1        21-1.11237E-05-9.05589E-15-9.00508E-15-4.13323E-14 3.62843E-16 4.38602E-14
 -1        22-1.11237E-05-1.44579E-14-6.38551E-15 2.26529E-14-1.73470E-16 2.40375E-15
 -1        23-1.11237E-05-4.33278E-14 1.51478E-16-8.43044E-14 3.38900E-15 4.51566E-14
 -1        24-2.22473E-05 8.24260E-14-4.04034E-15-2.36496E-14-1.56138E-15-6.63670E-14
 -3
    1PSTEP                        57          19           1          
  100CL  119 1.29781E-01          24                     0   19           1
 -4  TOSTRAIN    6    1
 -5  EXX         1    4    1    1
 -5  EYY         1    4    2    2
 -5  EZZ         1    4    3    3
 -5  EXY         1    4    1    2
 -5  EYZ         1    4    2    3
 -5  EZX         1    4    3    1
 -1         1-1.05940E-10 3.17819E-11 3.17819E-11 8.65696E-28-9.37688E-29 2.36926E-27
 -1         2-5.29698E-11 1.58909E-11 1.58909E-11-1.82158E-28-1.25855E-29-4.07128E-27
 -1         3-5.29698E-11 1.58909E-11 1.58909E-11 1.13290E-19-3.62806E-27 6.44629E-20
 -1         4-5.29698E-11 1.58909E-11 1.58909E-11-5.98096E-20-1.64013E-26-1.71844E-19
 -1         5-5.29698E-11 1.58909E-11 1.58909E-11 3.87134E-19-9.06160E-26 7.53793E-20
 -1         6-1.05940E-10 3.17819E-11 3.17819E-11-6.86474E-19-3.65295E-25-6.02574E-21
 -1         7-1.05940E-10 3.17819E-11 3.17819E-11-2.00116E-27-8.61932E-28-6.34796E-28
 -1         8-5.29698E-11 1.58909E-11 1.58909E-11-1.61559E-27 1.42084E-27 1.09090E-27
 -1         9-5.29698E-11 1.58909E-11 1.58909E-11 8.64863E-20-7.98531E-21 5.77523E-20
 -1        10-5.29698E-11 1.58909E-11 1.58909E-11 2.24696E-20-1.54028E-20-4.72055E-19
 -1        11-5.29698E-11 1.58909E-11 1.58909E-11 3.96517E-19-1.22693E-19-1.23298E-19
 -1        12-1.05940E-10 3.17819E-11 3.17819E-11 2.84142E-19 2.54854E-19 2.94971E-19
 -1        13-1.05940E-10 3.17819E-11 3.17819E-11-3.23117E-27 5.63995E-27 4.28050E-27
 -1        14-5.29698E-11 1.58909E-11 1.58909E-11 5.64529E-27-7.80749E-28-3.11566E-27
 -1        15-5.29698E-11 1.58909E-11 1.58909E-11-2.26118E-19 1.02315E-20-1.03212E-19
 -1        16-5.29698E-11 1.58909E-11 1.58909E-11 9.61068E-20 1.43289E-20 1.80122E-19
 -1        17-5.29698E-11 1.58909E-11 1.58909E-11 5.53521E-19 1.43672E-19-3.26852E-19
 -1        18-1.05940E-10 3.17819E-11 3.17819E-11-2.14991E-19-2.64520E-19 2.13119E-19
 -1        19-1.05940E-10 3.17819E-11 3.17819E-11-2.46301E-27 4.87179E-27-1.14691E-27
 -1        20-5.29698E-11 1.58909E-11 1.58909E-11 6.02937E-27 6.52681E-28 8.34847E-28
 -1        21-5.29698E-11 1.58909E-11 1.58909E-11-2.55866E-19 2.24617E-21 2.71516E-19
 -1        22-5.29698E-11 1.58909E-11 1.58909E-11 1.40232E-19-1.07386E-21 1.48803E-20
 -1        23-5.29698E-11 1.58909E-11 1.58909E-11-5.21885E-19 2.09795E-20 2.79541E-19
 -1        24-1.05940E-10 3.17819E-11 3.17819E-11-1.46402E-19-9.66569E-21-4.10844E-19
 -3
    1PSTEP                        58          20           1          
  100CL  120 1.38781E-01          24                     0   20           1
 -4  DISP        4    1
 -5  D1          1    2    1    0
 -5  D2          1    2    2    0
 -5  D3          1    2    3    0
 -5  ALL         1    2    0    0    1ALL
 -1         1 0.00000E+00 0.00000E+00 0.00000E+00
 -1         2-5.66454E-08 0.00000E+00 0.00000E+00
 -1         3-2.08172E+00 0.00000E+00 0.00000E+00
 -1         4-2.08172E+00 0.00000E+00 0.00000E+00
 -1         5-4.16344E+00 0.00000E+00 0.00000E+00
 -1         6-4.16344E+00 0.00000E+00 0.00000E+00
 -1         7 0.00000E+00 1.69936E-08 0.00000E+00
 -1         8-5.66454E-08 1.69936E-08 0.00000E+00
 -1         9-2.08172E+00 1.69936E-08 0.00000E+00
 -1        10-2.08172E+00 1.69936E-08 0.00000E+00
 -1        11-4.16344E+00 1.69936E-08 0.00000E+00
 -1        12-4.16344E+00 1.69936E-08 0.00000E+00
 -1        13 0.00000E+00 0.00000E+00 2.37911E-08
 -1        14-5.66454E-08 0.00000E+00 2.37911E-08
 -1        15-2.08172E+00 0.00000E+00 2.37911E-08
 -1        16-2.08172E+00 0.00000E+00 2.37911E-08
 -1        17-4.16344E+00 0.00000E+00 2.37911E-08
 -1        18-4.16344E+00 0.00000E+00 2.37911E-08
 -1        19 0.00000E+00 1.69936E-08 2.37911E-08
 -1        20-5.66454E-08 1.69936E-08 2.37911E-08
 -1        21-2.08172E+00 1.69936E-08 2.37911E-08
 -1        22-2.08172E+00 1.69936E-08 2.37911E-08
 -1        23-4.16344E+00 1.69936E-08 2.37911E-08
 -1        24-4.16344E+00 1.69936E-08 2.37911E-08
 -3
    1PSTEP                        59          20           1          
  100CL  120 1.38781E-01          24                     0   20           1
 -4  STRESS      6    1
 -5  SXX         1    4    1    1
 -5  SYY         1    4    2    2
 -5  SZZ         1    4    3    3
 -5  SXY         1    4    1    2
 -5  SYZ         1    4    2    3
 -5  SZX         1    4    3    1
 -1         1-2.37901E-05-4.85519E-21-6.01224E-21-4.62051E-23 1.10994E-23 3.69001E-22
 -1         2-1.18951E-05-6.43572E-21-4.27664E-21 2.45789E-21 4.68190E-23-2.50904E-22
 -1         3-1.18951E-05 2.63901E-14 3.05160E-14-2.20349E-15-2.83613E-21-2.04613E-14
 -1         4-1.18951E-05 3.43055E-14 2.71210E-14 3.65266E-14-1.16280E-21-1.05781E-14
 -1         5-1.18951E-05-1.31792E-13-1.58748E-13-6.59992E-14 5.85793E-20 1.01019E-13
 -1         6-2.37901E-05-2.40460E-13-1.82494E-13 3.16493E-14-1.34830E-19-8.28765E-14
 -1         7-2.37901E-05 5.30913E-21 5.61915E-21-2.10822E-21-1.55549E-21-7.44444E-22
 -1         8-1.18951E-05 3.04766E-21 2.46913E-21 1.42688E-21 1.24179E-21-1.68842E-21
 -1         9-1.18951E-05 1.78973E-14 1.99435E-14 1.63113E-14 1.25051E-15 3.08105E-14
 -1        10-1.18951E-05 3.06459E-14 2.78260E-14-1.70531E-14-2.61922E-15 1.33931E-14
 -1        11-1.18951E-05 1.05767E-13 1.12129E-13-7.42459E-14-5.29611E-15-9.54671E-14
 -1        12-2.37901E-05 1.33389E-13 1.22969E-13 3.56750E-14 1.28622E-14-4.14379E-14
 -1        13-2.37901E-05-2.70719E-21-2.39717E-21-4.23434E-22 9.58002E-22 1.25643E-21
 -1        14-1.18951E-05 4.12163E-21 3.54310E-21-1.44963E-21 2.74243E-23 1.92812E-22
 -1        15-1.18951E-05 3.69602E-14 3.75846E-14 3.36609E-15-1.45577E-15-3.25908E-14
 -1        16-1.18951E-05 2.59139E-14 2.60632E-14-2.01468E-14 3.05522E-15 1.89525E-14
 -1        17-1.18951E-05 5.48268E-14 4.26992E-14 7.13150E-14 2.33234E-14 2.50962E-14
 -1        18-2.37901E-05 2.47705E-13 2.69656E-13 1.15482E-14-4.78707E-14-2.20643E-13
 -1        19-2.37901E-05-4.06894E-21-4.15202E-21 9.88793E-22 4.60905E-22 1.02378E-21
 -1        20-1.18951E-05-9.60468E-22-8.05461E-22-7.43520E-22 1.07912E-21-8.04308E-22
 -1        21-1.18951E-05-6.01290E-15-7.46814E-15-6.37365E-15-2.05256E-16 4.84328E-14
 -1        22-1.18951E-05-1.22260E-14-7.71212E-15 6.08575E-15 4.35998E-16-4.67668E-14
 -1        23-1.18951E-05-1.21378E-13-1.00186E-13 9.63138E-14 1.80272E-14-2.77139E-14
 -1        24-2.37901E-05-2.05973E-13-2.52408E-13-7.71914E-14-3.50083E-14 2.90155E-13
 -3
    1PSTEP                        60          20           1          
  100CL  120 1.38781E-01          24                     0   20           1
 -4  TOSTRAIN    6    1
 -5  EXX         1    4    1    1
 -5  EYY         1    4    2    2
 -5  EZZ         1    4    3    3
 -5  EXY         1    4    1    2
 -5  EYZ         1    4    2    3
 -5  EZX         1    4    3    1
 -1         1-1.13286E-10 3.39859E-11 3.39859E-11-2.86032E-28 6.87108E-29 2.28429E-27
 -1         2-5.66431E-11 1.69929E-11 1.69929E-11 1.52155E-26 2.89832E-28-1.55322E-27
 -1         3-5.66431E-11 1.69929E-11 1.69929E-11-1.36406E-20-1.75570E-26-1.26665E-19
 -1         4-5.66431E-11 1.69929E-11 1.69929E-11 2.26117E-19-7.19830E-27-6.54833E-20
 -1         5-5.66431E-11 1.69929E-11 1.69929E-11-4.08566E-19 3.62634E-25 6.25355E-19
 -1         6-1.13286E-10 3.39859E-11 3.39859E-11 1.95924E-19-8.34664E-25-5.13045E-19
 -1         7-1.13286E-10 3.39859E-11 3.39859E-11-1.30509E-26-9.62924E-27-4.60846E-27
 -1         8-5.66431E-11 1.69929E-11 1.69929E-11 8.83307E-27 7.68729E-27-1.04521E-26
 -1         9-5.66431E-11 1.69929E-11 1.69929E-11 1.00975E-19 7.74125E-21 1.90731E-19
 -1        10-5.66431E-11 1.69929E-11 1.69929E-11-1.05567E-19-1.62142E-20 8.29099E-20
 -1        11-5.66431E-11 1.69929E-11 1.69929E-11-4.59617E-19-3.27855E-20-5.90987E-19
 -1        12-1.13286E-10 3.39859E-11 3.39859E-11 2.20845E-19 7.96233E-20-2.56520E-19
 -1        13-1.13286E-10 3.39859E-11 3.39859E-11-2.62126E-27 5.93049E-27 7.77792E-27
 -1        14-5.66431E-11 1.69929E-11 1.69929E-11-8.97392E-27 1.69770E-28 1.19360E-27
 -1        15-5.66431E-11 1.69929E-11 1.69929E-11 2.08377E-20-9.01190E-21-2.01753E-19
 -1        16-5.66431E-11 1.69929E-11 1.69929E-11-1.24718E-19 1.89133E-20 1.17325E-19
 -1        17-5.66431E-11 1.69929E-11 1.69929E-11 4.41474E-19 1.44383E-19 1.55357E-19
 -1        18-1.13286E-10 3.39859E-11 3.39859E-11 7.14889E-20-2.96342E-19-1.36588E-18
 -1        19-1.13286E-10 3.39859E-11 3.39859E-11 6.12110E-27 2.85322E-27 6.33770E-27
 -1        20-5.66431E-11 1.69929E-11 1.69929E-11-4.60275E-27 6.68024E-27-4.97905E-27
 -1        21-5.66431E-11 1.69929E-11 1.69929E-11-3.94559E-20-1.27063E-21 2.99822E-19
 -1        22-5.66431E-11 1.69929E-11 1.69929E-11 3.76737E-20 2.69904E-21-2.89508E-19
 -1        23-5.66431E-11 1.69929E-11 1.69929E-11 5.96228E-19 1.11597E-19-1.71562E-19
 -1        24-1.13286E-10 3.39859E-11 3.39859E-11-4.77852E-19-2.16718E-19 1.79620E-18
 -3
    1PSTEP                        61          21           1          
  100CL  121 1.47781E-01          24                     0   21           1
 -4  DISP        4    1
 -5  D1          1    2    1    0
 -5  D2          1    2    2    0
 -5  D3          1    2    3    0
 -5  ALL         1    2    0    0    1ALL
 -1         1 0.00000E+00 0.00000E+00 0.00000E+00
 -1         2-6.03189E-08 0.00000E+00 0.00000E+00
 -1         3-2.21672E+00 0.00000E+00 0.00000E+00
 -1         4-2.21672E+00 0.00000E+00 0.00000E+00
 -1         5-4.43344E+00 0.00000E+00 0.00000E+00
 -1         6-4.43344E+00 0.00000E+00 0.00000E+00
 -1         7 0.00000E+00 1.80957E-08 0.00000E+00
 -1         8-6.03189E-08 1.80957E-08 0.00000E+00
 -1         9-2.21672E+00 1.80957E-08 0.00000E+00
 -1        10-2.21672E+00 1.80957E-08 0.00000E+00
 -1        11-4.43344E+00 1.80957E-08 0.00000E+00
 -1        12-4.43344E+00 1.80957E-08 0.00000E+00
 -1        13 0.00000E+00 0.00000E+00 2.53339E-08
 -1        14-6.03189E-08 0.00000E+00 2.53339E-08
 -1        15-2.21672E+00 0.00000E+00 2.53339E-08
 -1        16-2.21672E+00 0.00000E+00 2.53339E-08
 -1        17-4.43344E+00 0.00000E+00 2.53339E-08
 -1        18-4.43344E+00 0.00000E+00 2.53339E-08
 -1        19 0.00000E+00 1.80957E-08 2.53339E-08
 -1        20-6.03189E-08 1.80957E-08 2.53339E-08
 -1        21-2.21672E+00 1.80957E-08 2.53339E-08
 -1        22-2.21672E+00 1.80957E-08 2.53339E-08
 -1        23-4.43344E+00 1.80957E-08 2.53339E-08
 -1        24-4.43344E+00 1.80957E-08 2.53339E-08
 -3
    1PSTEP                        62          21           1          
  100CL  121 1.47781E-01          24                     0   21           1
 -4  STRESS      6    1
 -5  SXX         1    4    1    1
 -5  SYY         1    4    2    2
 -5  SZZ         1    4    3    3
 -5  SXY         1    4    1    2
 -5  SYZ         1    4    2    3
 -5  SZX         1    4    3    1
 -1         1-2.53329E-05-5.22592E-21-2.14787E-21-2.31338E-22-2.79170E-23 4.93878E-22
 -1         2-1.26665E-05-4.27660E-21-3.61500E-21 4.28386E-21 5.20491E-23-4.63954E-22
 -1         3-1.26665E-05-2.06277E-14-2.29385E-14 1.54278E-14-4.26926E-21 1.49560E-14
 -1         4-1.26665E-05-2.58516E-14-2.33082E-14 1.05915E-15-2.21303E-20-3.15795E-14
 -1         5-1.26665E-05-7.38646E-14-1.00042E-13 1.67620E-14 4.30235E-20 1.80214E-14
 -1         6-2.53329E-05-1.72533E-13-1.24346E-13-1.19054E-14-1.55410E-19-1.42643E-13
 -1         7-2.53329E-05 5.33150E-21 5.86845E-21-3.07055E-21-5.96653E-22-5.47524E-22
 -1         8-1.26665E-05 4.47325E-21 5.47529E-21 2.86425E-21 1.11334E-21-1.63133E-21
 -1         9-1.26665E-05-2.21833E-14-1.62085E-14 1.37230E-14-2.52843E-15-6.21005E-14
 -1        10-1.26665E-05-3.88494E-14-4.32768E-14-9.67687E-16 3.16415E-15 4.32588E-14
 -1        11-1.26665E-05 2.25586E-14 3.68637E-14 5.11723E-15-1.02397E-14-1.06936E-13
 -1        12-2.53329E-05-9.61192E-14-1.22211E-13-1.98277E-14 1.98905E-14 2.26181E-13
 -1        13-2.53329E-05-1.32313E-21-7.86182E-22 7.81686E-23-8.99609E-23 1.37063E-21
 -1        14-1.26665E-05-3.93620E-21-2.93416E-21-1.13975E-21 1.67826E-22 4.04270E-22
 -1        15-1.26665E-05-6.65979E-15-1.89092E-15-4.18534E-14 5.79984E-15-4.39849E-14
 -1        16-1.26665E-05 1.60101E-14 9.69382E-15 3.54033E-14-4.87959E-15 8.76451E-14
 -1        17-1.26665E-05 1.01281E-13 1.03775E-13-5.58078E-15 2.83376E-14-1.16011E-13
 -1        18-2.53329E-05 3.75572E-13 3.68065E-13 1.13177E-14-5.19951E-14 6.35415E-14
 -1        19-2.53329E-05-4.15195E-21-1.30984E-20-2.07948E-23-6.58697E-22 9.93191E-22
 -1        20-1.26665E-05-6.28068E-21-4.00813E-21-1.18923E-21 1.22912E-21-2.46521E-21
 -1        21-1.26665E-05 1.63618E-15 1.46905E-14-3.91945E-14 3.27142E-15 5.62962E-14
 -1        22-1.26665E-05 1.28638E-14-4.23263E-16 5.48035E-14-1.71542E-15-5.26322E-14
 -1        23-1.26665E-05-8.79900E-14-4.50135E-14-9.85790E-16 1.80978E-14 2.06334E-14
 -1        24-2.53329E-05-1.19402E-13-2.01188E-13 1.49629E-13-3.21045E-14-4.54713E-14
 -3
    1PSTEP                        63          21           1          
  100CL  121 1.47781E-01          24                     0   21           1
 -4  TOSTRAIN    6    1
 -5  EXX         1    4    1    1
 -5  EYY         1    4    2    2
 -5  EZZ         1    4    3    3
 -5  EXY         1    4    1    2
 -5  EYZ         1    4    2    3
 -5  EZX         1    4    3    1
 -1         1-1.20633E-10 3.61899E-11 3.61899E-11-1.43209E-27-1.72819E-28 3.05734E-27
 -1         2-6.03165E-11 1.80949E-11 1.80949E-11 2.65191E-26 3.22209E-28-2.87209E-27
 -1         3-6.03165E-11 1.80949E-11 1.80949E-11 9.55057E-20-2.64288E-26 9.25847E-20
 -1         4-6.03165E-11 1.80949E-11 1.80949E-11 6.55666E-21-1.36997E-25-1.95492E-19
 -1         5-6.03165E-11 1.80949E-11 1.80949E-11 1.03764E-19 2.66336E-25 1.11561E-19
 -1         6-1.20633E-10 3.61899E-11 3.61899E-11-7.37001E-20-9.62059E-25-8.83026E-19
 -1         7-1.20633E-10 3.61899E-11 3.61899E-11-1.90082E-26-3.69357E-27-3.38944E-27
 -1         8-6.03165E-11 1.80949E-11 1.80949E-11 1.77311E-26 6.89209E-27-1.00987E-26
 -1         9-6.03165E-11 1.80949E-11 1.80949E-11 8.49519E-20-1.56522E-20-3.84431E-19
 -1        10-6.03165E-11 1.80949E-11 1.80949E-11-5.99044E-21 1.95876E-20 2.67793E-19
 -1        11-6.03165E-11 1.80949E-11 1.80949E-11 3.16781E-20-6.33888E-20-6.61983E-19
 -1        12-1.20633E-10 3.61899E-11 3.61899E-11-1.22743E-19 1.23132E-19 1.40017E-18
 -1        13-1.20633E-10 3.61899E-11 3.61899E-11 4.83901E-28-5.56901E-28 8.48484E-27
 -1        14-6.03165E-11 1.80949E-11 1.80949E-11-7.05560E-27 1.03892E-27 2.50263E-27
 -1        15-6.03165E-11 1.80949E-11 1.80949E-11-2.59093E-19 3.59038E-20-2.72288E-19
 -1        16-6.03165E-11 1.80949E-11 1.80949E-11 2.19163E-19-3.02070E-20 5.42565E-19
 -1        17-6.03165E-11 1.80949E-11 1.80949E-11-3.45477E-20 1.75423E-19-7.18164E-19
 -1        18-1.20633E-10 3.61899E-11 3.61899E-11 7.00620E-20-3.21875E-19 3.93352E-19
 -1        19-1.20633E-10 3.61899E-11 3.61899E-11-1.28730E-28-4.07765E-27 6.14833E-27
 -1        20-6.03165E-11 1.80949E-11 1.80949E-11-7.36192E-27 7.60881E-27-1.52609E-26
 -1        21-6.03165E-11 1.80949E-11 1.80949E-11-2.42633E-19 2.02516E-20 3.48500E-19
 -1        22-6.03165E-11 1.80949E-11 1.80949E-11 3.39260E-19-1.06193E-20-3.25819E-19
 -1        23-6.03165E-11 1.80949E-11 1.80949E-11-6.10251E-21 1.12034E-19 1.27731E-19
 -1        24-1.20633E-10 3.61899E-11 3.61899E-11 9.26277E-19-1.98742E-19-2.81489E-19
 -3
    1PSTEP                        64          22           1          
  100CL  122 1.56781E-01          24                     0   22           1
 -4  DISP        4    1
 -5  D1          1    2    1    0
 -5  D2          1    2    2    0
 -5  D3          1    2    3    0
 -5  ALL         1    2    0    0    1ALL
 -1         1 0.00000E+00 0.00000E+00 0.00000E+00
 -1         2-6.39923E-08 0.00000E+00 0.00000E+00
 -1         3-2.35172E+00 0.00000E+00 0.00000E+00
 -1         4-2.35172E+00 0.00000E+00 0.00000E+00
 -1         5-4.70344E+00 0.00000E+00 0.00000E+00
 -1         6-4.70344E+00 0.00000E+00 0.00000E+00
 -1         7 0.00000E+00 1.91977E-08 0.00000E+00
 -1         8-6.39923E-08 1.91977E-08 0.00000E+00
 -1         9-2.35172E+00 1.91977E-08 0.00000E+00
 -1        10-2.35172E+00 1.91977E-08 0.00000E+00
 -1        11-4.70344E+00 1.91977E-08 0.00000E+00
 -1        12-4.70344E+00 1.91977E-08 0.00000E+00
 -1        13 0.00000E+00 0.00000E+00 2.68768E-08
 -1        14-6.39923E-08 0.00000E+00 2.68768E-08
 -1        15-2.35172E+00 0.00000E+00 2.68768E-08
 -1        16-2.35172E+00 0.00000E+00 2.68768E-08
 -1        17-4.70344E+00 0.00000E+00 2.68768E-08
 -1        18-4.70344E+00 0.00000E+00 2.68768E-08
 -1        19 0.00000E+00 1.91977E-08 2.68768E-08
 -1        20-6.39923E-08 1.91977E-08 2.68768E-08
 -1        21-2.35172E+00 1.91977E-08 2.68768E-08
 -1        22-2.35172E+00 1.91977E-08 2.68768E-08
 -1        23-4.70344E+00 1.91977E-08 2.68768E-08
 -1        24-4.70344E+00 1.91977E-08 2.68768E-08
 -3
    1PSTEP                        65          22           1          
  100CL  122 1.56781E-01          24                     0   22           1
 -4  STRESS      6    1
 -5  SXX         1    4    1    1
 -5  SYY         1    4    2    2
 -5  SZZ         1    4    3    3
 -5  SXY         1    4    1    2
 -5  SYZ         1    4    2    3
 -5  SZX         1    4    3    1
 -1         1-2.68757E-05 8.30770E-23 2.39717E-21 6.45118E-22-7.53186E-24 3.43078E-22
 -1         2-1.34379E-05-6.16725E-21-6.47726E-21 1.56859E-21-3.83973E-23 1.60223E-21
 -1         3-1.34379E-05-2.99000E-15-3.56726E-15 4.25039E-14-2.34032E-20-2.81597E-14
 -1         4-1.34379E-05-1.39032E-14-1.27234E-14-1.50811E-14-2.24379E-20 2.42500E-14
 -1         5-1.34379E-05 1.48919E-14-4.32028E-16-4.11660E-14 3.12508E-20-1.22898E-13
 -1         6-2.68757E-05 1.09109E-13 1.25299E-13 8.08442E-14-2.29656E-19 1.61128E-13
 -1         7-2.68757E-05 6.63234E-21-2.00401E-21-2.51945E-21-8.00806E-22-9.19191E-22
 -1         8-1.34379E-05 3.11959E-21 4.27664E-21-1.36910E-23 2.29077E-22-4.51479E-22
 -1         9-1.34379E-05 1.93220E-14 2.14797E-14 3.26102E-14-7.38853E-16 7.06453E-14
 -1        10-1.34379E-05 5.92557E-15 6.52936E-15 1.02675E-14 1.94025E-15-5.99821E-14
 -1        11-1.34379E-05-2.77649E-14 2.88738E-15-1.65719E-14-9.04009E-15 6.02903E-14
 -1        12-2.68757E-05-9.98232E-14-1.56506E-13-6.09021E-14 1.45671E-14 1.90901E-14
 -1        13-2.68757E-05 4.77212E-21 4.15209E-21-5.92416E-22-5.03808E-23-2.03302E-21
 -1        14-1.34379E-05-3.51586E-22-2.68509E-22-1.20322E-21 4.33024E-22 5.57463E-22
 -1        15-1.34379E-05 2.50261E-14 2.65176E-14-4.22684E-14 1.91445E-15-6.24754E-15
 -1        16-1.34379E-05 2.72406E-14 2.29876E-14 1.42010E-14-4.03243E-16 3.71685E-14
 -1        17-1.34379E-05-6.10410E-14-5.10527E-14-4.53549E-15 3.21834E-14-1.06277E-13
 -1        18-2.68757E-05 1.17216E-13 9.26175E-14 9.45242E-14-5.10111E-14 4.06099E-14
 -1        19-2.68757E-05-2.06486E-21 2.49231E-22 2.55519E-22-1.91315E-21-7.27428E-23
 -1        20-1.34379E-05-2.15909E-21-2.46910E-21-7.79257E-22 8.43782E-22-5.63002E-22
 -1        21-1.34379E-05-2.16225E-14-1.73961E-14-4.60075E-14 1.17562E-15-6.65266E-14
 -1        22-1.34379E-05-2.18913E-14-2.67203E-14 3.43288E-14 1.53703E-15 3.84246E-14
 -1        23-1.34379E-05-3.47372E-14 2.12273E-14 5.25275E-14 2.31432E-14 1.45940E-13
 -1        24-2.68757E-05 4.62050E-14-5.12662E-14-7.32881E-14-3.64438E-14-1.68128E-13
 -3
    1PSTEP                        66          22           1          
  100CL  122 1.56781E-01          24                     0   22           1
 -4  TOSTRAIN    6    1
 -5  EXX         1    4    1    1
 -5  EYY         1    4    2    2
 -5  EZZ         1    4    3    3
 -5  EXY         1    4    1    2
 -5  EYZ         1    4    2    3
 -5  EZX         1    4    3    1
 -1         1-1.27980E-10 3.83939E-11 3.83939E-11 3.99359E-27-4.66258E-29 2.12382E-27
 -1         2-6.39898E-11 1.91969E-11 1.91969E-11 9.71035E-27-2.37697E-28 9.91856E-27
 -1         3-6.39898E-11 1.91969E-11 1.91969E-11 2.63119E-19-1.44877E-25-1.74322E-19
 -1         4-6.39898E-11 1.91969E-11 1.91969E-11-9.33590E-20-1.38902E-25 1.50119E-19
 -1         5-6.39898E-11 1.91969E-11 1.91969E-11-2.54837E-19 1.93458E-25-7.60797E-19
 -1         6-1.27980E-10 3.83939E-11 3.83939E-11 5.00464E-19-1.42168E-24 9.97461E-19
 -1         7-1.27980E-10 3.83939E-11 3.83939E-11-1.55966E-26-4.95737E-27-5.69023E-27
 -1         8-6.39898E-11 1.91969E-11 1.91969E-11-8.47536E-29 1.41810E-27-2.79487E-27
 -1         9-6.39898E-11 1.91969E-11 1.91969E-11 2.01872E-19-4.57385E-21 4.37328E-19
 -1        10-6.39898E-11 1.91969E-11 1.91969E-11 6.35608E-20 1.20111E-20-3.71318E-19
 -1        11-6.39898E-11 1.91969E-11 1.91969E-11-1.02588E-19-5.59624E-20 3.73226E-19
 -1        12-1.27980E-10 3.83939E-11 3.83939E-11-3.77013E-19 9.01771E-20 1.18177E-19
 -1        13-1.27980E-10 3.83939E-11 3.83939E-11-3.66733E-27-3.11881E-28-1.25854E-26
 -1        14-6.39898E-11 1.91969E-11 1.91969E-11-7.44853E-27 2.68063E-27 3.45096E-27
 -1        15-6.39898E-11 1.91969E-11 1.91969E-11-2.61662E-19 1.18513E-20-3.86753E-20
 -1        16-6.39898E-11 1.91969E-11 1.91969E-11 8.79110E-20-2.49626E-21 2.30091E-19
 -1        17-6.39898E-11 1.91969E-11 1.91969E-11-2.80768E-20 1.99230E-19-6.57905E-19
 -1        18-1.27980E-10 3.83939E-11 3.83939E-11 5.85150E-19-3.15783E-19 2.51395E-19
 -1        19-1.27980E-10 3.83939E-11 3.83939E-11 1.58178E-27-1.18433E-26-4.50312E-28
 -1        20-6.39898E-11 1.91969E-11 1.91969E-11-4.82397E-27 5.22341E-27-3.48525E-27
 -1        21-6.39898E-11 1.91969E-11 1.91969E-11-2.84808E-19 7.27763E-21-4.11831E-19
 -1        22-6.39898E-11 1.91969E-11 1.91969E-11 2.12511E-19 9.51494E-21 2.37866E-19
 -1        23-6.39898E-11 1.91969E-11 1.91969E-11 3.25170E-19 1.43268E-19 9.03440E-19
 -1        24-1.27980E-10 3.83939E-11 3.83939E-11-4.53688E-19-2.25604E-19-1.04079E-18
 -3
    1PSTEP                        67          23           1          
  100CL  123 1.65781E-01          24                     0   23           1
 -4  DISP        4    1
 -5  D1          1    2    1    0
 -5  D2          1    2    2    0
 -5  D3          1    2    3    0
 -5  ALL         1    2    0    0    1ALL
 -1         1 0.00000E+00 0.00000E+00 0.00000E+00
 -1         2-6.76658E-08 0.00000E+00 0.00000E+00
 -1         3-2.48672E+00 0.00000E+00 0.00000E+00
 -1         4-2.48672E+00 0.00000E+00 0.00000E+00
 -1         5-4.97344E+00 0.00000E+00 0.00000E+00
 -1         6-4.97344E+00 0.00000E+00 0.00000E+00
 -1         7 0.00000E+00 2.02997E-08 0.00000E+00
 -1         8-6.76658E-08 2.02997E-08 0.00000E+00
 -1         9-2.48672E+00 2.02997E-08 0.00000E+00
 -1        10-2.48672E+00 2.02997E-08 0.00000E+00
 -1        11-4.97344E+00 2.02997E-08 0.00000E+00
 -1        12-4.97344E+00 2.02997E-08 0.00000E+00
 -1        13 0.00000E+00 0.00000E+00 2.84196E-08
 -1        14-6.76658E-08 0.00000E+00 2.84196E-08
 -1        15-2.48672E+00 0.00000E+00 2.84196E-08
 -1        16-2.48672E+00 0.00000E+00 2.84196E-08
 -1        17-4.97344E+00 0.00000E+00 2.84196E-08
 -1        18-4.97344E+00 0.00000E+00 2.84196E-08
 -1        19 0.00000E+00 2.02997E-08 2.84196E-08
 -1        20-6.76658E-08 2.02997E-08 2.84196E-08
 -1        21-2.48672E+00 2.02997E-08 2.84196E-08
 -1        22-2.48672E+00 2.02997E-08 2.84196E-08
 -1        23-4.97344E+00 2.02997E-08 2.84196E-08
 -1        24-4.97344E+00 2.02997E-08 2.84196E-08
 -3
    1PSTEP                        68          23           1          
  100CL  123 1.65781E-01          24                     0   23           1
 -4  STRESS      6    1
 -5  SXX         1    4    1    1
 -5  SYY         1    4    2    2
 -5  SZZ         1    4    3    3
 -5  SXY         1    4    1    2
 -5  SYZ         1    4    2    3
 -5  SZX         1    4    3    1
 -1         1-2.84185E-05-6.01224E-21-2.62418E-21 2.43630E-22 6.34832E-23 1.40801E-22
 -1         2-1.42093E-05 3.34656E-21 5.43372E-21-2.56895E-21-1.63894E-22-4.53040E-21
 -1         3-1.42093E-05 3.85910E-14 3.10456E-14 3.85692E-14-2.66135E-20-3.16790E-14
 -1         4-1.42093E-05 3.82127E-14 3.48750E-14-4.46127E-15-8.68486E-21-6.08443E-15
 -1         5-1.42093E-05-3.26511E-14-5.76339E-14 1.95462E-14-2.89376E-20 2.69851E-14
 -1         6-2.84185E-05-2.19282E-13-1.70076E-13-1.64228E-14-4.65446E-20-4.38004E-14
 -1         7-2.84185E-05-6.69305E-21-6.23918E-21 5.85612E-22 2.16187E-21 7.90820E-23
 -1         8-1.42093E-05 3.93623E-21 4.55629E-21-2.39796E-21-6.88947E-23 1.16742E-21
 -1         9-1.42093E-05 8.00719E-15 3.77920E-16 3.79305E-14-1.45149E-15 2.21688E-14
 -1        10-1.42093E-05 1.47523E-14 2.08285E-14-5.42204E-15-2.99004E-15-1.09599E-14
 -1        11-1.42093E-05 1.81231E-13 1.82435E-13-7.35347E-15-1.75900E-14-4.27188E-14
 -1        12-2.84185E-05 1.34690E-13 1.37879E-13-3.17600E-14 3.69077E-14 1.22769E-13
 -1        13-2.84185E-05-5.33136E-21-9.95962E-21-1.62645E-22-7.59326E-22 2.78685E-21
 -1        14-1.42093E-05-5.54719E-21-2.38606E-21 4.07853E-21-2.32768E-22-3.35066E-21
 -1        15-1.42093E-05 2.37092E-14 2.02278E-14 2.27758E-14-5.87126E-17 1.42302E-15
 -1        16-1.42093E-05 1.57919E-14 2.08262E-14-1.72929E-14 6.58976E-15-6.78278E-14
 -1        17-1.42093E-05-8.38593E-14-5.95901E-14-1.29551E-13 1.83308E-14 1.55868E-15
 -1        18-2.84185E-05 3.15320E-14-2.26042E-14 9.16342E-14-3.22111E-14-3.82480E-14
 -1        19-2.84185E-05 1.10944E-20 3.53192E-21-1.97371E-21 1.33906E-21 1.16631E-21
 -1        20-1.42093E-05-8.05461E-22 8.88571E-22 3.17300E-21-1.37768E-22 2.24578E-21
 -1        21-1.42093E-05 2.97688E-15-5.88297E-16 1.63772E-14-1.51017E-15-2.30747E-14
 -1        22-1.42093E-05 2.18292E-15 1.66312E-14-6.95027E-15 3.59973E-15 2.51990E-15
 -1        23-1.42093E-05-1.16265E-13-6.58093E-14-8.67585E-14 7.40789E-16 2.41362E-14
 -1        24-2.84185E-05-1.07072E-13-2.07224E-13 3.36748E-14 4.69666E-15 1.08126E-13
 -3
    1PSTEP                        69          23           1          
  100CL  123 1.65781E-01          24                     0   23           1
 -4  TOSTRAIN    6    1
 -5  EXX         1    4    1    1
 -5  EYY         1    4    2    2
 -5  EZZ         1    4    3    3
 -5  EXY         1    4    1    2
 -5  EYZ         1    4    2    3
 -5  EZX         1    4    3    1
 -1         1-1.35326E-10 4.05979E-11 4.05979E-11 1.50818E-27 3.92991E-28 8.71626E-28
 -1         2-6.76631E-11 2.02989E-11 2.02989E-11-1.59030E-26-1.01458E-27-2.80453E-26
 -1         3-6.76631E-11 2.02989E-11 2.02989E-11 2.38762E-19-1.64750E-25-1.96108E-19
 -1         4-6.76631E-11 2.02989E-11 2.02989E-11-2.76174E-20-5.37634E-26-3.76655E-20
 -1         5-6.76631E-11 2.02989E-11 2.02989E-11 1.21001E-19-1.79138E-25 1.67051E-19
 -1         6-1.35326E-10 4.05979E-11 4.05979E-11-1.01665E-19-2.88133E-25-2.71145E-19
 -1         7-1.35326E-10 4.05979E-11 4.05979E-11 3.62522E-27 1.33830E-26 4.89555E-28
 -1         8-6.76631E-11 2.02989E-11 2.02989E-11-1.48445E-26-4.26491E-28 7.22686E-27
 -1         9-6.76631E-11 2.02989E-11 2.02989E-11 2.34808E-19-8.98541E-21 1.37235E-19
 -1        10-6.76631E-11 2.02989E-11 2.02989E-11-3.35650E-20-1.85098E-20-6.78469E-20
 -1        11-6.76631E-11 2.02989E-11 2.02989E-11-4.55215E-20-1.08891E-19-2.64450E-19
 -1        12-1.35326E-10 4.05979E-11 4.05979E-11-1.96610E-19 2.28476E-19 7.59997E-19
 -1        13-1.35326E-10 4.05979E-11 4.05979E-11-1.00685E-27-4.70059E-27 1.72520E-26
 -1        14-6.76631E-11 2.02989E-11 2.02989E-11 2.52480E-26-1.44095E-27-2.07422E-26
 -1        15-6.76631E-11 2.02989E-11 2.02989E-11 1.40993E-19-3.63459E-22 8.80918E-21
 -1        16-6.76631E-11 2.02989E-11 2.02989E-11-1.07051E-19 4.07938E-20-4.19887E-19
 -1        17-6.76631E-11 2.02989E-11 2.02989E-11-8.01984E-19 1.13476E-19 9.64897E-21
 -1        18-1.35326E-10 4.05979E-11 4.05979E-11 5.67260E-19-1.99402E-19-2.36773E-19
 -1        19-1.35326E-10 4.05979E-11 4.05979E-11-1.22182E-26 8.28942E-27 7.22002E-27
 -1        20-6.76631E-11 2.02989E-11 2.02989E-11 1.96424E-26-8.52852E-28 1.39024E-26
 -1        21-6.76631E-11 2.02989E-11 2.02989E-11 1.01383E-19-9.34870E-21-1.42843E-19
 -1        22-6.76631E-11 2.02989E-11 2.02989E-11-4.30255E-20 2.22840E-20 1.55994E-20
 -1        23-6.76631E-11 2.02989E-11 2.02989E-11-5.37076E-19 4.58584E-21 1.49415E-19
 -1        24-1.35326E-10 4.05979E-11 4.05979E-11 2.08463E-19 2.90745E-20 6.69351E-19
 -3
    1PSTEP                        70          24           1          
  100CL  124 1.74781E-01          24                     0   24           1
 -4  DISP        4    1
 -5  D1          1    2    1    0
 -5  D2          1    2    2    0
 -5  D3          1    2    3    0
 -5  ALL         1    2    0    0    1ALL
 -1         1 0.00000E+00 0.00000E+00 0.00000E+00
 -1         2-7.13393E-08 0.00000E+00 0.00000E+00
 -1         3-2.62172E+00 0.00000E+00 0.00000E+00
 -1         4-2.62172E+00 0.00000E+00 0.00000E+00
 -1         5-5.24344E+00 0.00000E+00 0.00000E+00
 -1         6-5.24344E+00 0.00000E+00 0.00000E+00
 -1         7 0.00000E+00 2.14018E-08 0.00000E+00
 -1         8-7.13393E-08 2.14018E-08 0.00000E+00
 -1         9-2.62172E+00 2.14018E-08 0.00000E+00
 -1        10-2.62172E+00 2.14018E-08 0.00000E+00
 -1        11-5.24344E+00 2.14018E-08 0.00000E+00
 -1        12-5.24344E+00 2.14018E-08 0.00000E+00
 -1        13 0.00000E+00 0.00000E+00 2.99625E-08
 -1        14-7.13393E-08 0.00000E+00 2.99625E-08
 -1        15-2.62172E+00 0.00000E+00 2.99625E-08
 -1        16-2.62172E+00 0.00000E+00 2.99625E-08
 -1        17-5.24344E+00 0.00000E+00 2.99625E-08
 -1        18-5.24344E+00 0.00000E+00 2.99625E-08
 -1        19 0.00000E+00 2.14018E-08 2.99625E-08
 -1        20-7.13393E-08 2.14018E-08 2.99625E-08
 -1        21-2.62172E+00 2.14018E-08 2.99625E-08
 -1        22-2.62172E+00 2.14018E-08 2.99625E-08
 -1        23-5.24344E+00 2.14018E-08 2.99625E-08
 -1        24-5.24344E+00 2.14018E-08 2.99625E-08
 -3
    1PSTEP                        71          24           1          
  100CL  124 1.74781E-01          24                     0   24           1
 -4  STRESS      6    1
 -5  SXX         1    4    1    1
 -5  SYY         1    4    2    2
 -5  SZZ         1    4    3    3
 -5  SXY         1    4    1    2
 -5  SYZ         1    4    2    3
 -5  SZX         1    4    3    1
 -1         1-2.99613E-05-1.61092E-21 5.55837E-21 3.33850E-22 2.46443E-22-3.66136E-22
 -1         2-1.49806E-05-4.65021E-22 4.15724E-23 5.09562E-23-5.33103E-23-1.90845E-21
 -1         3-1.49806E-05 3.89934E-14 2.71538E-14 1.73812E-14 7.85935E-21 5.09212E-14
 -1         4-1.49806E-05 2.50534E-14 3.74261E-14 1.59748E-14-1.27855E-20-7.68309E-14
 -1         5-1.49806E-05-2.65900E-14-2.50309E-14 5.31583E-15-1.17304E-19-7.08926E-14
 -1         6-2.99613E-05-1.24827E-13-1.29931E-13-3.15488E-14 6.41535E-20 6.71323E-15
 -1         7-2.99613E-05-1.21776E-21-2.06480E-21-8.18379E-22 1.96222E-21 1.63076E-22
 -1         8-1.49806E-05 3.20270E-21 4.78326E-21-5.25159E-22 7.55648E-22-2.03531E-21
 -1         9-1.49806E-05 2.82699E-14 2.06207E-14 1.10294E-14 1.24006E-16-6.80452E-15
 -1        10-1.49806E-05 7.97394E-15 1.60622E-14 9.30100E-15 2.23211E-16-4.94085E-15
 -1        11-1.49806E-05 5.37987E-15-1.33355E-14-2.04633E-14-4.38003E-15 4.67534E-14
 -1        12-2.99613E-05 8.07192E-15 5.43647E-14 9.89001E-14 1.12156E-14 9.87157E-14
 -1        13-2.99613E-05-3.86423E-21-3.63729E-21-7.11297E-22-1.93541E-21 4.49652E-22
 -1        14-1.49806E-05-5.74373E-21-6.16725E-21 1.68143E-21 2.74820E-22-1.50056E-21
 -1        15-1.49806E-05 7.12373E-14 5.90506E-14 5.26916E-14 2.93320E-15 1.34487E-14
 -1        16-1.49806E-05 5.77836E-14 6.95313E-14-8.14589E-15-2.99912E-15 1.00692E-13
 -1        17-1.49806E-05-8.75844E-16 1.29470E-14-6.91330E-14-1.41923E-14 1.09357E-13
 -1        18-2.99613E-05 2.44806E-14-1.20270E-14 9.35082E-14 3.59778E-14-5.19201E-14
 -1        19-2.99613E-05 3.47121E-21-4.31817E-21-6.89135E-22-2.19627E-22 1.66393E-21
 -1        20-1.49806E-05-3.00609E-21-2.35563E-21 1.69252E-21 1.08378E-21-1.28488E-21
 -1        21-1.49806E-05-8.44668E-15-1.64431E-14 4.28729E-14 3.05720E-15 3.87809E-15
 -1        22-1.49806E-05-2.82565E-14-2.07932E-14-1.22342E-15-2.77590E-15-3.52104E-14
 -1        23-1.49806E-05-5.75696E-14-6.40213E-14-4.24672E-14-1.85722E-14-1.73683E-13
 -1        24-2.99613E-05-1.99476E-14-5.05842E-15-3.51674E-14 4.71934E-14 1.03245E-13
 -3
    1PSTEP                        72          24           1          
  100CL  124 1.74781E-01          24                     0   24           1
 -4  TOSTRAIN    6    1
 -5  EXX         1    4    1    1
 -5  EYY         1    4    2    2
 -5  EZZ         1    4    3    3
 -5  EXY         1    4    1    2
 -5  EYZ         1    4    2    3
 -5  EZX         1    4    3    1
 -1         1-1.42673E-10 4.28019E-11 4.28019E-11 2.06669E-27 1.52560E-27-2.26656E-27
 -1         2-7.13364E-11 2.14009E-11 2.14009E-11 3.15443E-28-3.30016E-28-1.18142E-26
 -1         3-7.13364E-11 2.14009E-11 2.14009E-11 1.07598E-19 4.86531E-26 3.15227E-19
 -1         4-7.13364E-11 2.14009E-11 2.14009E-11 9.88915E-20-7.91484E-26-4.75620E-19
 -1         5-7.13364E-11 2.14009E-11 2.14009E-11 3.29075E-20-7.26167E-25-4.38859E-19
 -1         6-1.42673E-10 4.28019E-11 4.28019E-11-1.95302E-19 3.97141E-25 4.15581E-20
 -1         7-1.42673E-10 4.28019E-11 4.28019E-11-5.06616E-27 1.21471E-26 1.00952E-27
 -1         8-7.13364E-11 2.14009E-11 2.14009E-11-3.25098E-27 4.67782E-27-1.25995E-26
 -1         9-7.13364E-11 2.14009E-11 2.14009E-11 6.82771E-20 7.67655E-22-4.21232E-20
 -1        10-7.13364E-11 2.14009E-11 2.14009E-11 5.75776E-20 1.38178E-21-3.05862E-20
 -1        11-7.13364E-11 2.14009E-11 2.14009E-11-1.26678E-19-2.71145E-20 2.89426E-19
 -1        12-1.42673E-10 4.28019E-11 4.28019E-11 6.12239E-19 6.94301E-20 6.11097E-19
 -1        13-1.42673E-10 4.28019E-11 4.28019E-11-4.40327E-27-1.19811E-26 2.78356E-27
 -1        14-7.13364E-11 2.14009E-11 2.14009E-11 1.04089E-26 1.70127E-27-9.28916E-27
 -1        15-7.13364E-11 2.14009E-11 2.14009E-11 3.26186E-19 1.81579E-20 8.32536E-20
 -1        16-7.13364E-11 2.14009E-11 2.14009E-11-5.04269E-20-1.85660E-20 6.23332E-19
 -1        17-7.13364E-11 2.14009E-11 2.14009E-11-4.27966E-19-8.78568E-20 6.76970E-19
 -1        18-1.42673E-10 4.28019E-11 4.28019E-11 5.78860E-19 2.22720E-19-3.21410E-19
 -1        19-1.42673E-10 4.28019E-11 4.28019E-11-4.26607E-27-1.35960E-27 1.03005E-26
 -1        20-7.13364E-11 2.14009E-11 2.14009E-11 1.04775E-26 6.70910E-27-7.95404E-27
 -1        21-7.13364E-11 2.14009E-11 2.14009E-11 2.65403E-19 1.89255E-20 2.40072E-20
 -1        22-7.13364E-11 2.14009E-11 2.14009E-11-7.57353E-21-1.71841E-20-2.17969E-19
 -1        23-7.13364E-11 2.14009E-11 2.14009E-11-2.62892E-19-1.14971E-19-1.07518E-18
 -1        24-1.42673E-10 4.28019E-11 4.28019E-11-2.17703E-19 2.92149E-19 6.39136E-19
 -3
    1PSTEP                        73          25           1          
  100CL  125 1.83781E-01          24                     0   25           1
 -4  DISP        4    1
 -5  D1          1    2    1    0
 -5  D2          1    2    2    0
 -5  D3          1    2    3    0
 -5  ALL         1    2    0    0    1ALL
 -1         1 0.00000E+00 0.00000E+00 0.00000E+00
 -1         2-7.50127E-08 0.00000E+00 0.00000E+00
 -1         3-2.75672E+00 0.00000E+00 0.00000E+00
 -1         4-2.75672E+00 0.00000E+00 0.00000E+00
 -1         5-5.51344E+00 0.00000E+00 0.00000E+00
 -1         6-5.51344E+00 0.00000E+00 0.00000E+00
 -1         7 0.00000E+00 2.25038E-08 0.00000E+00
 -1         8-7.50127E-08 2.25038E-08 0.00000E+00
 -1         9-2.75672E+00 2.25038E-08 0.00000E+00
 -1        10-2.75672E+00 2.25038E-08 0.00000E+00
 -1        11-5.51344E+00 2.25038E-08 0.00000E+00
 -1        12-5.51344E+00 2.25038E-08 0.00000E+00
 -1        13 0.00000E+00 0.00000E+00 3.15054E-08
 -1        14-7.50127E-08 0.00000E+00 3.15054E-08
 -1        15-2.75672E+00 0.00000E+00 3.15054E-08
 -1        16-2.75672E+00 0.00000E+00 3.15054E-08
 -1        17-5.51344E+00 0.00000E+00 3.15054E-08
 -1        18-5.51344E+00 0.00000E+00 3.15054E-08
 -1        19 0.00000E+00 2.25038E-08 3.15054E-08
 -1        20-7.50127E-08 2.25038E-08 3.15054E-08
 -1        21-2.75672E+00 2.25038E-08 3.15054E-08
 -1        22-2.75672E+00 2.25038E-08 3.15054E-08
 -1        23-5.51344E+00 2.25038E-08 3.15054E-08
 -1        24-5.51344E+00 2.25038E-08 3.15054E-08
 -3
    1PSTEP                        74          25           1          
  100CL  125 1.83781E-01          24                     0   25           1
 -4  STRESS      6    1
 -5  SXX         1    4    1    1
 -5  SYY         1    4    2    2
 -5  SZZ         1    4    3    3
 -5  SXY         1    4    1    2
 -5  SYZ         1    4    2    3
 -5  SZX         1    4    3    1
 -1         1-3.15041E-05-1.61092E-21 2.08716E-21 4.88556E-22 3.65207E-22-1.64198E-22
 -1         2-1.57520E-05 3.00612E-21 3.04766E-21-3.36162E-21-7.91361E-23-2.76991E-21
 -1         3-1.57520E-05-4.40611E-14-3.06625E-14-8.62693E-17 2.41054E-20-6.40488E-14
 -1         4-1.57520E-05-1.57869E-14-3.48132E-14 5.89595E-14 1.13777E-20 4.29485E-14
 -1         5-1.57520E-05 5.82804E-14 4.18875E-14 1.52575E-13-1.11562E-19-1.16638E-13
 -1         6-3.15041E-05-7.69610E-14-3.08903E-14-2.33147E-13 1.13208E-19 2.87491E-13
 -1         7-3.15041E-05-1.43860E-22-8.47033E-22 1.38191E-21 1.64226E-21 4.03025E-22
 -1         8-1.57520E-05 2.68509E-22 1.58056E-21-2.91494E-21-5.90533E-22 1.67653E-21
 -1         9-1.57520E-05-5.48575E-14-4.62382E-14 3.98867E-14 4.09205E-15-1.76350E-14
 -1        10-1.57520E-05-1.80640E-14-3.05105E-14-4.04488E-14-7.46877E-15 1.32760E-14
 -1        11-1.57520E-05 2.89110E-14 2.20656E-15 6.46075E-14-1.49094E-14 5.08816E-14
 -1        12-3.15041E-05-1.06887E-13-4.30218E-14 1.84330E-13 3.82976E-14-6.97018E-14
 -1        13-3.15041E-05 2.00408E-21 2.26937E-22-8.57594E-22-1.07501E-22 1.99697E-21
 -1        14-1.57520E-05-3.73965E-21-4.23517E-22 3.40312E-21-2.66557E-22-1.83261E-21
 -1        15-1.57520E-05 3.70317E-14 3.89726E-14-3.76966E-14-3.34547E-15-6.01052E-14
 -1        16-1.57520E-05 8.65790E-15 1.05442E-14 1.98891E-14 4.60583E-15-9.49108E-15
 -1        17-1.57520E-05-3.64110E-14-1.10579E-14-3.42418E-14-7.21816E-15 3.34663E-13
 -1        18-3.15041E-05 6.74253E-14 6.26287E-15 1.29025E-14 1.24561E-14-3.95343E-13
 -1        19-3.15041E-05 1.61099E-21-2.70725E-21-3.38955E-21 1.16956E-21-1.24555E-21
 -1        20-1.57520E-05-3.00612E-21-1.89061E-21 2.13714E-21-7.77954E-22 1.38699E-21
 -1        21-1.57520E-05 6.53232E-15 3.69392E-15-5.47749E-14 7.46560E-16 2.69684E-16
 -1        22-1.57520E-05-1.33223E-14-4.85617E-15 5.68123E-14-2.86295E-15-5.36411E-14
 -1        23-1.57520E-05-1.24889E-13-1.09848E-13 1.20125E-14-2.21275E-14-1.78574E-13
 -1        24-3.15041E-05-8.07187E-14-1.24087E-13-1.20210E-13 5.07537E-14 2.29295E-13
 -3
    1PSTEP                        75          25           1          
  100CL  125 1.83781E-01          24                     0   25           1
 -4  TOSTRAIN    6    1
 -5  EXX         1    4    1    1
 -5  EYY         1    4    2    2
 -5  EZZ         1    4    3    3
 -5  EXY         1    4    1    2
 -5  EYZ         1    4    2    3
 -5  EZX         1    4    3    1
 -1         1-1.50019E-10 4.50058E-11 4.50058E-11 3.02440E-27 2.26080E-27-1.01646E-27
 -1         2-7.50097E-11 2.25029E-11 2.25029E-11-2.08100E-26-4.89890E-28-1.71470E-26
 -1         3-7.50097E-11 2.25029E-11 2.25029E-11-5.34048E-22 1.49224E-25-3.96493E-19
 -1         4-7.50097E-11 2.25029E-11 2.25029E-11 3.64987E-19 7.04331E-26 2.65871E-19
 -1         5-7.50097E-11 2.25029E-11 2.25029E-11 9.44509E-19-6.90624E-25-7.22042E-19
 -1         6-1.50019E-10 4.50058E-11 4.50058E-11-1.44329E-18 7.00810E-25 1.77971E-18
 -1         7-1.50019E-10 4.50058E-11 4.50058E-11 8.55470E-27 1.01664E-26 2.49492E-27
 -1         8-7.50097E-11 2.25029E-11 2.25029E-11-1.80449E-26-3.65568E-27 1.03785E-26
 -1         9-7.50097E-11 2.25029E-11 2.25029E-11 2.46918E-19 2.53318E-20-1.09169E-19
 -1        10-7.50097E-11 2.25029E-11 2.25029E-11-2.50397E-19-4.62353E-20 8.21849E-20
 -1        11-7.50097E-11 2.25029E-11 2.25029E-11 3.99951E-19-9.22964E-20 3.14981E-19
 -1        12-1.50019E-10 4.50058E-11 4.50058E-11 1.14109E-18 2.37081E-19-4.31487E-19
 -1        13-1.50019E-10 4.50058E-11 4.50058E-11-5.30892E-27-6.65485E-28 1.23622E-26
 -1        14-7.50097E-11 2.25029E-11 2.25029E-11 2.10669E-26-1.65012E-27-1.13447E-26
 -1        15-7.50097E-11 2.25029E-11 2.25029E-11-2.33360E-19-2.07101E-20-3.72080E-19
 -1        16-7.50097E-11 2.25029E-11 2.25029E-11 1.23123E-19 2.85123E-20-5.87543E-20
 -1        17-7.50097E-11 2.25029E-11 2.25029E-11-2.11973E-19-4.46838E-20 2.07172E-18
 -1        18-1.50019E-10 4.50058E-11 4.50058E-11 7.98724E-20 7.71095E-20-2.44736E-18
 -1        19-1.50019E-10 4.50058E-11 4.50058E-11-2.09829E-26 7.24011E-27-7.71055E-27
 -1        20-7.50097E-11 2.25029E-11 2.25029E-11 1.32299E-26-4.81590E-27 8.58610E-27
 -1        21-7.50097E-11 2.25029E-11 2.25029E-11-3.39083E-19 4.62156E-21 1.66947E-21
 -1        22-7.50097E-11 2.25029E-11 2.25029E-11 3.51695E-19-1.77230E-20-3.32064E-19
 -1        23-7.50097E-11 2.25029E-11 2.25029E-11 7.43632E-20-1.36980E-19-1.10546E-18
 -1        24-1.50019E-10 4.50058E-11 4.50058E-11-7.44160E-19 3.14189E-19 1.41944E-18
 -3
    1PSTEP                        76          26           1          
  100CL  126 1.92781E-01          24                     0   26           1
 -4  DISP        4    1
 -5  D1          1    2    1    0
 -5  D2          1    2    2    0
 -5  D3          1    2    3    0
 -5  ALL         1    2    0    0    1ALL
 -1         1 0.00000E+00 0.00000E+00 0.00000E+00
 -1         2-7.86862E-08 0.00000E+00 0.00000E+00
 -1         3-2.89172E+00 0.00000E+00 0.00000E+00
 -1         4-2.89172E+00 0.00000E+00 0.00000E+00
 -1         5-5.78344E+00 0.00000E+00 0.00000E+00
 -1         6-5.78344E+00 0.00000E+00 0.00000E+00
 -1         7 0.00000E+00 2.36059E-08 0.00000E+00
 -1         8-7.86862E-08 2.36059E-08 0.00000E+00
 -1         9-2.89172E+00 2.36059E-08 0.00000E+00
 -1        10-2.89172E+00 2.36059E-08 0.00000E+00
 -1        11-5.78344E+00 2.36059E-08 0.00000E+00
 -1        12-5.78344E+00 2.36059E-08 0.00000E+00
 -1        13 0.00000E+00 0.00000E+00 3.30482E-08
 -1        14-7.86862E-08 0.00000E+00 3.30482E-08
 -1        15-2.89172E+00 0.00000E+00 3.30482E-08
 -1        16-2.89172E+00 0.00000E+00 3.30482E-08
 -1        17-5.78344E+00 0.00000E+00 3.30482E-08
 -1        18-5.78344E+00 0.00000E+00 3.30482E-08
 -1        19 0.00000E+00 2.36059E-08 3.30482E-08
 -1        20-7.86862E-08 2.36059E-08 3.30482E-08
 -1        21-2.89172E+00 2.36059E-08 3.30482E-08
 -1        22-2.89172E+00 2.36059E-08 3.30482E-08
 -1        23-5.78344E+00 2.36059E-08 3.30482E-08
 -1        24-5.78344E+00 2.36059E-08 3.30482E-08
 -3
    1PSTEP                        77          26           1          
  100CL  126 1.92781E-01          24                     0   26           1
 -4  STRESS      6    1
 -5  SXX         1    4    1    1
 -5  SYY         1    4    2    2
 -5  SZZ         1    4    3    3
 -5  SXY         1    4    1    2
 -5  SYZ         1    4    2    3
 -5  SZX         1    4    3    1
 -1         1-3.30469E-05-4.40132E-21-6.09538E-21-5.77829E-22 1.10890E-23-4.39249E-22
 -1         2-1.65234E-05-5.67183E-21-2.51071E-21 2.91959E-21-7.31238E-23 2.12066E-21
 -1         3-1.65234E-05 1.31675E-14 2.96613E-15-3.47347E-14 3.68767E-20 2.17848E-14
 -1         4-1.65234E-05 1.69598E-15 1.63278E-14 3.86251E-14 3.56063E-20-6.61353E-14
 -1         5-1.65234E-05 1.63182E-14-8.61926E-15 1.80433E-14-3.89052E-20-1.37271E-13
 -1         6-3.30469E-05-1.43668E-13-1.25789E-13 2.21216E-13-1.70873E-20 1.98820E-13
 -1         7-3.30469E-05 9.48338E-21 1.92094E-21-3.79229E-21-2.35542E-21-7.42059E-22
 -1         8-1.65234E-05 1.27052E-21 1.49745E-21 7.39227E-22-7.84700E-23 2.53083E-22
 -1         9-1.65234E-05 3.72229E-14 2.80166E-14-3.97380E-14-2.68650E-15 2.32094E-14
 -1        10-1.65234E-05 1.89824E-14 2.55840E-14 2.88140E-14 3.33869E-15 5.28635E-14
 -1        11-1.65234E-05 7.63361E-14 7.88810E-14 2.79698E-14-2.20909E-14 9.08102E-14
 -1        12-3.30469E-05-8.58887E-14-9.60535E-14-6.78279E-14 3.09421E-14 1.17633E-13
 -1        13-3.30469E-05 2.54103E-21 8.86328E-21 3.48366E-22 1.82067E-21-9.62915E-22
 -1        14-1.65234E-05 3.40406E-22 2.42756E-21-1.10509E-21 1.50122E-22 2.00211E-21
 -1        15-1.65234E-05-2.21901E-14-2.48691E-14 1.03087E-13 6.96647E-16 4.47562E-14
 -1        16-1.65234E-05-4.13815E-15 1.14545E-15-4.50942E-14-5.62108E-15-5.69433E-14
 -1        17-1.65234E-05-7.01858E-15 2.98984E-14-1.13584E-13 1.92376E-14 4.69401E-14
 -1        18-3.30469E-05 1.77765E-13 1.09006E-13-8.82276E-14-1.96306E-14-6.20546E-14
 -1        19-3.30469E-05 6.26147E-21 6.71534E-21-4.89180E-22-1.61533E-21-3.91962E-22
 -1        20-1.65234E-05 2.20063E-21 1.35359E-21 6.15129E-22 2.88059E-22-1.06615E-22
 -1        21-1.65234E-05-2.76893E-14-2.93732E-14 1.01711E-13-1.98989E-15-1.98901E-14
 -1        22-1.65234E-05-1.64063E-14-1.91529E-14-2.85269E-14-2.28242E-15 3.01110E-14
 -1        23-1.65234E-05-2.58128E-14 3.85865E-14-1.13572E-13-2.85326E-15-8.18155E-14
 -1        24-3.30469E-05 7.79204E-14-1.88822E-14 1.94423E-13 1.13115E-14 7.61855E-15
 -3
    1PSTEP                        78          26           1          
  100CL  126 1.92781E-01          24                     0   26           1
 -4  TOSTRAIN    6    1
 -5  EXX         1    4    1    1
 -5  EYY         1    4    2    2
 -5  EZZ         1    4    3    3
 -5  EXY         1    4    1    2
 -5  EYZ         1    4    2    3
 -5  EZX         1    4    3    1
 -1         1-1.57366E-10 4.72098E-11 4.72098E-11-3.57704E-27 6.86464E-29-2.71916E-27
 -1         2-7.86831E-11 2.36049E-11 2.36049E-11 1.80736E-26-4.52671E-28 1.31279E-26
 -1         3-7.86831E-11 2.36049E-11 2.36049E-11-2.15024E-19 2.28284E-25 1.34858E-19
 -1         4-7.86831E-11 2.36049E-11 2.36049E-11 2.39108E-19 2.20420E-25-4.09409E-19
 -1         5-7.86831E-11 2.36049E-11 2.36049E-11 1.11697E-19-2.40842E-25-8.49774E-19
 -1         6-1.57366E-10 4.72098E-11 4.72098E-11 1.36943E-18-1.05778E-25 1.23079E-18
 -1         7-1.57366E-10 4.72098E-11 4.72098E-11-2.34761E-26-1.45812E-26-4.59370E-27
 -1         8-7.86831E-11 2.36049E-11 2.36049E-11 4.57617E-27-4.85767E-28 1.56671E-27
 -1         9-7.86831E-11 2.36049E-11 2.36049E-11-2.45997E-19-1.66307E-20 1.43677E-19
 -1        10-7.86831E-11 2.36049E-11 2.36049E-11 1.78373E-19 2.06681E-20 3.27250E-19
 -1        11-7.86831E-11 2.36049E-11 2.36049E-11 1.73146E-19-1.36753E-19 5.62158E-19
 -1        12-1.57366E-10 4.72098E-11 4.72098E-11-4.19887E-19 1.91546E-19 7.28204E-19
 -1        13-1.57366E-10 4.72098E-11 4.72098E-11 2.15655E-27 1.12708E-26-5.96090E-27
 -1        14-7.86831E-11 2.36049E-11 2.36049E-11-6.84101E-27 9.29326E-28 1.23940E-26
 -1        15-7.86831E-11 2.36049E-11 2.36049E-11 6.38158E-19 4.31258E-21 2.77062E-19
 -1        16-7.86831E-11 2.36049E-11 2.36049E-11-2.79155E-19-3.47971E-20-3.52506E-19
 -1        17-7.86831E-11 2.36049E-11 2.36049E-11-7.03136E-19 1.19090E-19 2.90582E-19
 -1        18-1.57366E-10 4.72098E-11 4.72098E-11-5.46171E-19-1.21523E-19-3.84148E-19
 -1        19-1.57366E-10 4.72098E-11 4.72098E-11-3.02826E-27-9.99966E-27-2.42643E-27
 -1        20-7.86831E-11 2.36049E-11 2.36049E-11 3.80794E-27 1.78322E-27-6.60000E-28
 -1        21-7.86831E-11 2.36049E-11 2.36049E-11 6.29641E-19-1.23184E-20-1.23129E-19
 -1        22-7.86831E-11 2.36049E-11 2.36049E-11-1.76595E-19-1.41293E-20 1.86402E-19
 -1        23-7.86831E-11 2.36049E-11 2.36049E-11-7.03062E-19-1.76631E-20-5.06477E-19
 -1        24-1.57366E-10 4.72098E-11 4.72098E-11 1.20357E-18 7.00236E-20 4.71625E-20
 -3
    1PSTEP                        79          27           1          
  100CL  127 2.01781E-01          24                     0   27           1
 -4  DISP        4    1
 -5  D1          1    2    1    0
 -5  D2          1    2    2    0
 -5  D3          1    2    3    0
 -5  ALL         1    2    0    0    1ALL
 -1         1 0.00000E+00 0.00000E+00 0.00000E+00
 -1         2-8.23597E-08 0.00000E+00 0.00000E+00
 -1         3-3.02672E+00 0.00000E+00 0.00000E+00
 -1         4-3.02672E+00 0.00000E+00 0.00000E+00
 -1         5-6.05344E+00 0.00000E+00 0.00000E+00
 -1         6-6.05344E+00 0.00000E+00 0.00000E+00
 -1         7 0.00000E+00 2.47079E-08 0.00000E+00
 -1         8-8.23597E-08 2.47079E-08 0.00000E+00
 -1         9-3.02672E+00 2.47079E-08 0.00000E+00
 -1        10-3.02672E+00 2.47079E-08 0.00000E+00
 -1        11-6.05344E+00 2.47079E-08 0.00000E+00
 -1        12-6.05344E+00 2.47079E-08 0.00000E+00
 -1        13 0.00000E+00 0.00000E+00 3.45911E-08
 -1        14-8.23597E-08 0.00000E+00 3.45911E-08
 -1        15-3.02672E+00 0.00000E+00 3.45911E-08
 -1        16-3.02672E+00 0.00000E+00 3.45911E-08
 -1        17-6.05344E+00 0.00000E+00 3.45911E-08
 -1        18-6.05344E+00 0.00000E+00 3.45911E-08
 -1        19 0.00000E+00 2.47079E-08 3.45911E-08
 -1        20-8.23597E-08 2.47079E-08 3.45911E-08
 -1        21-3.02672E+00 2.47079E-08 3.45911E-08
 -1        22-3.02672E+00 2.47079E-08 3.45911E-08
 -1        23-6.05344E+00 2.47079E-08 3.45911E-08
 -1        24-6.05344E+00 2.47079E-08 3.45911E-08
 -3
    1PSTEP                        80          27           1          
  100CL  127 2.01781E-01          24                     0   27           1
 -4  STRESS      6    1
 -5  SXX         1    4    1    1
 -5  SYY         1    4    2    2
 -5  SZZ         1    4    3    3
 -5  SXY         1    4    1    2
 -5  SYZ         1    4    2    3
 -5  SZX         1    4    3    1
 -1         1-3.45897E-05-3.01733E-21-3.32735E-21-3.28743E-22-7.00850E-22 1.31406E-22
 -1         2-1.72948E-05 2.30295E-21-5.89670E-22-1.60910E-21 9.50572E-23-1.24940E-21
 -1         3-1.72948E-05 1.30432E-14 3.17138E-15 1.35361E-14 3.45493E-21 1.32609E-14
 -1         4-1.72948E-05 6.99574E-15 1.26506E-14-2.01821E-14 1.95259E-20 3.05104E-15
 -1         5-1.72948E-05-6.87796E-15-2.39308E-14 5.12540E-14-7.70719E-20-1.00284E-13
 -1         6-3.45897E-05-3.23268E-13-2.69907E-13-2.28708E-13 2.49342E-19-1.95596E-14
 -1         7-3.45897E-05-4.77212E-21-1.05574E-20 1.54031E-21-7.00749E-23-2.33421E-23
 -1         8-1.72948E-05 2.35563E-21 1.96546E-22-6.74575E-22-1.22529E-21 3.02475E-21
 -1         9-1.72948E-05 6.19691E-14 5.44309E-14 2.55015E-15-4.59058E-15-5.62937E-14
 -1        10-1.72948E-05 5.35869E-14 5.84623E-14 4.07422E-15 2.13355E-15 1.40046E-14
 -1        11-1.72948E-05 1.61470E-13 1.39483E-13 7.90196E-14-2.64559E-14 2.72630E-13
 -1        12-3.45897E-05 1.44659E-14 5.93445E-14 4.96918E-14 6.01120E-14-5.26919E-13
 -1        13-3.45897E-05-5.55837E-21-5.47522E-21-4.45095E-22 3.08673E-21 9.64204E-22
 -1        14-1.72948E-05-3.11962E-21-2.34452E-21 3.03029E-21-6.98949E-22-6.89714E-22
 -1        15-1.72948E-05 1.49738E-14 1.79556E-14-2.84100E-14 1.63352E-15 2.85647E-15
 -1        16-1.72948E-05 4.18745E-14 4.15554E-14-7.18295E-15-5.45561E-16-3.52119E-14
 -1        17-1.72948E-05-9.96591E-15 4.70575E-14 1.60944E-13-3.45389E-15 4.45272E-14
 -1        18-3.45897E-05 2.24370E-13 1.09419E-13-2.06791E-13-5.93751E-15 1.07109E-13
 -1        19-3.45897E-05 1.48755E-20 1.64257E-20-1.80562E-21 2.64802E-21-2.32929E-21
 -1        20-1.72948E-05 3.62618E-21 4.20474E-21 2.35003E-21-1.87602E-21 1.33703E-21
 -1        21-1.72948E-05-2.47639E-14-1.94485E-14-2.75784E-14-2.95707E-15 6.74562E-14
 -1        22-1.72948E-05-1.97974E-16-1.29643E-15 1.75155E-14 1.58797E-15-3.79850E-14
 -1        23-1.72948E-05-1.17461E-13-6.53713E-14-2.77508E-13-2.99097E-14-2.28371E-13
 -1        24-3.45897E-05 1.04198E-14-1.13015E-13 3.22222E-13 5.41742E-14 4.46711E-13
 -3
    1PSTEP                        81          27           1          
  100CL  127 2.01781E-01          24                     0   27           1
 -4  TOSTRAIN    6    1
 -5  EXX         1    4    1    1
 -5  EYY         1    4    2    2
 -5  EZZ         1    4    3    3
 -5  EXY         1    4    1    2
 -5  EYZ         1    4    2    3
 -5  EZX         1    4    3    1
 -1         1-1.64713E-10 4.94138E-11 4.94138E-11-2.03507E-27-4.33859E-27 8.13464E-28
 -1         2-8.23564E-11 2.47069E-11 2.47069E-11-9.96110E-27 5.88450E-28-7.73436E-27
 -1         3-8.23564E-11 2.47069E-11 2.47069E-11 8.37951E-20 2.13876E-26 8.20915E-20
 -1         4-8.23564E-11 2.47069E-11 2.47069E-11-1.24937E-19 1.20874E-25 1.88874E-20
 -1         5-8.23564E-11 2.47069E-11 2.47069E-11 3.17286E-19-4.77112E-25-6.20804E-19
 -1         6-1.64713E-10 4.94138E-11 4.94138E-11-1.41581E-18 1.54354E-24-1.21084E-19
 -1         7-1.64713E-10 4.94138E-11 4.94138E-11 9.53526E-27-4.33797E-28-1.44498E-28
 -1         8-8.23564E-11 2.47069E-11 2.47069E-11-4.17594E-27-7.58516E-27 1.87246E-26
 -1         9-8.23564E-11 2.47069E-11 2.47069E-11 1.57866E-20-2.84179E-20-3.48485E-19
 -1        10-8.23564E-11 2.47069E-11 2.47069E-11 2.52214E-20 1.32077E-20 8.66950E-20
 -1        11-8.23564E-11 2.47069E-11 2.47069E-11 4.89169E-19-1.63775E-19 1.68771E-18
 -1        12-1.64713E-10 4.94138E-11 4.94138E-11 3.07616E-19 3.72122E-19-3.26188E-18
 -1        13-1.64713E-10 4.94138E-11 4.94138E-11-2.75535E-27 1.91084E-26 5.96888E-27
 -1        14-8.23564E-11 2.47069E-11 2.47069E-11 1.87589E-26-4.32683E-27-4.26966E-27
 -1        15-8.23564E-11 2.47069E-11 2.47069E-11-1.75872E-19 1.01122E-20 1.76829E-20
 -1        16-8.23564E-11 2.47069E-11 2.47069E-11-4.44659E-20-3.37728E-21-2.17979E-19
 -1        17-8.23564E-11 2.47069E-11 2.47069E-11 9.96320E-19-2.13812E-20 2.75644E-19
 -1        18-1.64713E-10 4.94138E-11 4.94138E-11-1.28013E-18-3.67560E-20 6.63055E-19
 -1        19-1.64713E-10 4.94138E-11 4.94138E-11-1.11776E-26 1.63925E-26-1.44194E-26
 -1        20-8.23564E-11 2.47069E-11 2.47069E-11 1.45478E-26-1.16134E-26 8.27686E-27
 -1        21-8.23564E-11 2.47069E-11 2.47069E-11-1.70723E-19-1.83057E-20 4.17586E-19
 -1        22-8.23564E-11 2.47069E-11 2.47069E-11 1.08430E-19 9.83027E-21-2.35145E-19
 -1        23-8.23564E-11 2.47069E-11 2.47069E-11-1.71790E-18-1.85155E-19-1.41372E-18
 -1        24-1.64713E-10 4.94138E-11 4.94138E-11 1.99471E-18 3.35364E-19 2.76535E-18
 -3
    1PSTEP                        82          28           1          
  100CL  128 2.10781E-01          24                     0   28           1
 -4  DISP        4    1
 -5  D1          1    2    1    0
 -5  D2          1    2    2    0
 -5  D3          1    2    3    0
 -5  ALL         1    2    0    0    1ALL
 -1         1 0.00000E+00 0.00000E+00 0.00000E+00
 -1         2-8.60332E-08 0.00000E+00 0.00000E+00
 -1         3-3.16172E+00 0.00000E+00 0.00000E+00
 -1         4-3.16172E+00 0.00000E+00 0.00000E+00
 -1         5-6.32344E+00 0.00000E+00 0.00000E+00
 -1         6-6.32344E+00 0.00000E+00 0.00000E+00
 -1         7 0.00000E+00 2.58099E-08 0.00000E+00
 -1         8-8.60332E-08 2.58099E-08 0.00000E+00
 -1         9-3.16172E+00 2.58099E-08 0.00000E+00
 -1        10-3.16172E+00 2.58099E-08 0.00000E+00
 -1        11-6.32344E+00 2.58099E-08 0.00000E+00
 -1        12-6.32344E+00 2.58099E-08 0.00000E+00
 -1        13 0.00000E+00 0.00000E+00 3.61339E-08
 -1        14-8.60332E-08 0.00000E+00 3.61339E-08
 -1        15-3.16172E+00 0.00000E+00 3.61339E-08
 -1        16-3.16172E+00 0.00000E+00 3.61339E-08
 -1        17-6.32344E+00 0.00000E+00 3.61339E-08
 -1        18-6.32344E+00 0.00000E+00 3.61339E-08
 -1        19 0.00000E+00 2.58099E-08 3.61339E-08
 -1        20-8.60332E-08 2.58099E-08 3.61339E-08
 -1        21-3.16172E+00 2.58099E-08 3.61339E-08
 -1        22-3.16172E+00 2.58099E-08 3.61339E-08
 -1        23-6.32344E+00 2.58099E-08 3.61339E-08
 -1        24-6.32344E+00 2.58099E-08 3.61339E-08
 -3
    1PSTEP                        83          28           1          
  100CL  128 2.10781E-01          24                     0   28           1
 -4  STRESS      6    1
 -5  SXX         1    4    1    1
 -5  SYY         1    4    2    2
 -5  SZZ         1    4    3    3
 -5  SXY         1    4    1    2
 -5  SYZ         1    4    2    3
 -5  SZX         1    4    3    1
 -1         1-3.61325E-05 1.15705E-21 9.30110E-22-8.65995E-22 1.60862E-22 3.47165E-22
 -1         2-1.80662E-05-7.09732E-21-4.27660E-21 5.10214E-21-1.72094E-22-9.23241E-22
 -1         3-1.80662E-05-2.07455E-14-4.18259E-14 1.96646E-15-2.98888E-20-5.86694E-14
 -1         4-1.80662E-05-2.30260E-14-1.15295E-14-3.27585E-15-6.43253E-20 1.09812E-13
 -1         5-1.80662E-05 8.16602E-14 3.54950E-14 1.03588E-14-5.15987E-20-8.86008E-14
 -1         6-3.61325E-05 2.57930E-13 3.79918E-13 1.49097E-13-5.92696E-19-3.52421E-13
 -1         7-3.61325E-05 3.41049E-21 5.33150E-21-3.60586E-21 9.40083E-22-7.22339E-22
 -1         8-1.80662E-05 6.98389E-21 8.33751E-21 3.73220E-21 6.36962E-22-3.21958E-21
 -1         9-1.80662E-05 2.08605E-14 1.38166E-14-1.08237E-14-2.15562E-15 8.71477E-14
 -1        10-1.80662E-05 6.32654E-15 1.55215E-14 1.91763E-14-4.99089E-16-1.13987E-13
 -1        11-1.80662E-05-1.68729E-13-1.55084E-13 1.83687E-14 3.00258E-15-1.30510E-13
 -1        12-3.61325E-05-4.08116E-13-3.86864E-13 2.67236E-14 2.19230E-14 4.05112E-13
 -1        13-3.61325E-05-8.03855E-21-1.41339E-20 5.96596E-24-1.55125E-21 5.67255E-22
 -1        14-1.80662E-05-6.36383E-21-3.93623E-21-3.33842E-22 1.27522E-21-8.13196E-22
 -1        15-1.80662E-05-2.29207E-16-1.52740E-14-7.59657E-14 9.82551E-15 4.44782E-14
 -1        16-1.80662E-05 5.60744E-15 1.85012E-14 7.22524E-14-1.61111E-15-9.75470E-14
 -1        17-1.80662E-05 7.41409E-14 1.95684E-14-3.31113E-14 4.18673E-14 1.42549E-14
 -1        18-3.61325E-05 3.20891E-13 3.81493E-13 1.86471E-13-7.05154E-14 9.04150E-14
 -1        19-3.61325E-05 4.87749E-21-4.15202E-21-1.26591E-21-1.84152E-21 3.80385E-21
 -1        20-1.80662E-05-1.54973E-22-1.73554E-21-9.69780E-22 2.22756E-21-9.56484E-22
 -1        21-1.80662E-05 1.97076E-15 9.62477E-16-8.40328E-14 7.66992E-15-6.92555E-14
 -1        22-1.80662E-05-4.44608E-15 6.14616E-15 8.80522E-14-2.11014E-15 9.59426E-14
 -1        23-1.80662E-05 1.98109E-13 2.03347E-13-4.34304E-15 4.48700E-14-1.30705E-13
 -1        24-3.61325E-05 4.03560E-13 3.63427E-13 1.46104E-14-4.85919E-14 1.41326E-13
 -3
    1PSTEP                        84          28           1          
  100CL  128 2.10781E-01          24                     0   28           1
 -4  TOSTRAIN    6    1
 -5  EXX         1    4    1    1
 -5  EYY         1    4    2    2
 -5  EZZ         1    4    3    3
 -5  EXY         1    4    1    2
 -5  EYZ         1    4    2    3
 -5  EZX         1    4    3    1
 -1         1-1.72059E-10 5.16178E-11 5.16178E-11-5.36092E-27 9.95815E-28 2.14912E-27
 -1         2-8.60297E-11 2.58089E-11 2.58089E-11 3.15847E-26-1.06535E-27-5.71530E-27
 -1         3-8.60297E-11 2.58089E-11 2.58089E-11 1.21733E-20-1.85026E-25-3.63192E-19
 -1         4-8.60297E-11 2.58089E-11 2.58089E-11-2.02791E-20-3.98204E-25 6.79791E-19
 -1         5-8.60297E-11 2.58089E-11 2.58089E-11 6.41262E-20-3.19421E-25-5.48481E-19
 -1         6-1.72059E-10 5.16178E-11 5.16178E-11 9.22981E-19-3.66907E-24-2.18166E-18
 -1         7-1.72059E-10 5.16178E-11 5.16178E-11-2.23220E-26 5.81956E-27-4.47162E-27
 -1         8-8.60297E-11 2.58089E-11 2.58089E-11 2.31041E-26 3.94310E-27-1.99307E-26
 -1         9-8.60297E-11 2.58089E-11 2.58089E-11-6.70037E-20-1.33443E-20 5.39486E-19
 -1        10-8.60297E-11 2.58089E-11 2.58089E-11 1.18710E-19-3.08960E-21-7.05632E-19
 -1        11-8.60297E-11 2.58089E-11 2.58089E-11 1.13711E-19 1.85874E-20-8.07916E-19
 -1        12-1.72059E-10 5.16178E-11 5.16178E-11 1.65432E-19 1.35714E-19 2.50784E-18
 -1        13-1.72059E-10 5.16178E-11 5.16178E-11 3.69321E-29-9.60297E-27 3.51158E-27
 -1        14-8.60297E-11 2.58089E-11 2.58089E-11-2.06664E-27 7.89420E-27-5.03407E-27
 -1        15-8.60297E-11 2.58089E-11 2.58089E-11-4.70264E-19 6.08246E-20 2.75342E-19
 -1        16-8.60297E-11 2.58089E-11 2.58089E-11 4.47277E-19-9.97355E-21-6.03862E-19
 -1        17-8.60297E-11 2.58089E-11 2.58089E-11-2.04975E-19 2.59179E-19 8.82448E-20
 -1        18-1.72059E-10 5.16178E-11 5.16178E-11 1.15434E-18-4.36524E-19 5.59712E-19
 -1        19-1.72059E-10 5.16178E-11 5.16178E-11-7.83658E-27-1.13999E-26 2.35477E-26
 -1        20-8.60297E-11 2.58089E-11 2.58089E-11-6.00340E-27 1.37896E-26-5.92109E-27
 -1        21-8.60297E-11 2.58089E-11 2.58089E-11-5.20203E-19 4.74805E-20-4.28724E-19
 -1        22-8.60297E-11 2.58089E-11 2.58089E-11 5.45085E-19-1.30627E-20 5.93930E-19
 -1        23-8.60297E-11 2.58089E-11 2.58089E-11-2.68855E-20 2.77766E-19-8.09127E-19
 -1        24-1.72059E-10 5.16178E-11 5.16178E-11 9.04453E-20-3.00807E-19 8.74873E-19
 -3
    1PSTEP                        85          29           1          
  100CL  129 2.19781E-01          24                     0   29           1
 -4  DISP        4    1
 -5  D1          1    2    1    0
 -5  D2          1    2    2    0
 -5  D3          1    2    3    0
 -5  ALL         1    2    0    0    1ALL
 -1         1 0.00000E+00 0.00000E+00 0.00000E+00
 -1         2-8.97066E-08 0.00000E+00 0.00000E+00
 -1         3-3.29672E+00 0.00000E+00 0.00000E+00
 -1         4-3.29672E+00 0.00000E+00 0.00000E+00
 -1         5-6.59344E+00 0.00000E+00 0.00000E+00
 -1         6-6.59344E+00 0.00000E+00 0.00000E+00
 -1         7 0.00000E+00 2.69120E-08 0.00000E+00
 -1         8-8.97066E-08 2.69120E-08 0.00000E+00
 -1         9-3.29672E+00 2.69120E-08 0.00000E+00
 -1        10-3.29672E+00 2.69120E-08 0.00000E+00
 -1        11-6.59344E+00 2.69120E-08 0.00000E+00
 -1        12-6.59344E+00 2.69120E-08 0.00000E+00
 -1        13 0.00000E+00 0.00000E+00 3.76768E-08
 -1        14-8.97066E-08 0.00000E+00 3.76768E-08
 -1        15-3.29672E+00 0.00000E+00 3.76768E-08
 -1        16-3.29672E+00 0.00000E+00 3.76768E-08
 -1        17-6.59344E+00 0.00000E+00 3.76768E-08
 -1        18-6.59344E+00 0.00000E+00 3.76768E-08
 -1        19 0.00000E+00 2.69120E-08 3.76768E-08
 -1        20-8.97066E-08 2.69120E-08 3.76768E-08
 -1        21-3.29672E+00 2.69120E-08 3.76768E-08
 -1        22-3.29672E+00 2.69120E-08 3.76768E-08
 -1        23-6.59344E+00 2.69120E-08 3.76768E-08
 -1        24-6.59344E+00 2.69120E-08 3.76768E-08
 -3
    1PSTEP                        86          29           1          
  100CL  129 2.19781E-01          24                     0   29           1
 -4  STRESS      6    1
 -5  SXX         1    4    1    1
 -5  SYY         1    4    2    2
 -5  SZZ         1    4    3    3
 -5  SXY         1    4    1    2
 -5  SYZ         1    4    2    3
 -5  SZX         1    4    3    1
 -1         1-3.76753E-05 1.69400E-21-8.47033E-22 1.35705E-21 1.12996E-22-8.44402E-22
 -1         2-1.88376E-05 1.77711E-21 1.97369E-21-2.69544E-21 5.24412E-23-1.41710E-21
 -1         3-1.88376E-05 5.27893E-14 3.46933E-14 1.05668E-14 1.71071E-20 8.24727E-14
 -1         4-1.88376E-05 3.75858E-14 4.19829E-14-9.71465E-16-6.07244E-20-1.22808E-13
 -1         5-1.88376E-05 5.91391E-14 1.03272E-13 9.23770E-14 4.01754E-20-9.60985E-14
 -1         6-3.76753E-05 3.25539E-13 2.18963E-13-2.20409E-13-3.19219E-19 1.36317E-14
 -1         7-3.76753E-05 5.70216E-21 4.23510E-21 7.22288E-23-1.27055E-22 6.66427E-22
 -1         8-1.88376E-05 3.78119E-21 4.51475E-21-3.33785E-21 1.44582E-21-2.37083E-21
 -1         9-1.88376E-05 2.70475E-14 3.82735E-14 2.70389E-14-8.27828E-15 9.32567E-15
 -1        10-1.88376E-05-2.33698E-14-3.66023E-14 1.22807E-14 2.66933E-15 5.91764E-14
 -1        11-1.88376E-05 2.76707E-14 9.34900E-14 8.27591E-14 1.66314E-14 1.32320E-13
 -1        12-3.76753E-05 2.16861E-13 9.26683E-14 1.85839E-13-3.71438E-14-1.12295E-13
 -1        13-3.76753E-05-4.17438E-21-5.64144E-21-1.25138E-21 6.31515E-22 2.49077E-21
 -1        14-1.88376E-05 1.38398E-21 2.11755E-21-8.67939E-22-1.30660E-21 1.07203E-22
 -1        15-1.88376E-05-5.82590E-14-5.31758E-14-4.38712E-14 2.05255E-14 5.26710E-14
 -1        16-1.88376E-05-1.98188E-14-2.28961E-14 2.01827E-14-1.23408E-14 7.29672E-14
 -1        17-1.88376E-05 4.73967E-14 4.49615E-14-1.32013E-13 1.51808E-14-5.78038E-14
 -1        18-3.76753E-05-4.29356E-14-4.55103E-14 1.90008E-14-1.23314E-14 1.24819E-13
 -1        19-3.76753E-05-5.24835E-21-1.07236E-20 1.67204E-21 1.46096E-21 1.85558E-21
 -1        20-1.88376E-05 8.46999E-22-4.23517E-22 5.93769E-22-5.65060E-23-1.24150E-21
 -1        21-1.88376E-05 3.42173E-14 6.86226E-14-1.53213E-13 1.22472E-14-3.13631E-14
 -1        22-1.88376E-05 3.74437E-14 1.67368E-14 7.82524E-14-9.67138E-15-1.08574E-13
 -1        23-1.88376E-05 1.34146E-13 1.53398E-13-1.62069E-13 3.18121E-14 1.46864E-13
 -1        24-3.76753E-05 8.48219E-14 6.46313E-14 1.11362E-13-4.94749E-14-2.58571E-14
 -3
    1PSTEP                        87          29           1          
  100CL  129 2.19781E-01          24                     0   29           1
 -4  TOSTRAIN    6    1
 -5  EXX         1    4    1    1
 -5  EYY         1    4    2    2
 -5  EZZ         1    4    3    3
 -5  EXY         1    4    1    2
 -5  EYZ         1    4    2    3
 -5  EZX         1    4    3    1
 -1         1-1.79406E-10 5.38218E-11 5.38218E-11 8.40078E-27 6.99501E-28-5.22725E-27
 -1         2-8.97030E-11 2.69109E-11 2.69109E-11-1.66861E-26 3.24636E-28-8.77253E-27
 -1         3-8.97030E-11 2.69109E-11 2.69109E-11 6.54134E-20 1.05901E-25 5.10545E-19
 -1         4-8.97030E-11 2.69109E-11 2.69109E-11-6.01383E-21-3.75913E-25-7.60241E-19
 -1         5-8.97030E-11 2.69109E-11 2.69109E-11 5.71858E-19 2.48705E-25-5.94896E-19
 -1         6-1.79406E-10 5.38218E-11 5.38218E-11-1.36443E-18-1.97612E-24 8.43868E-20
 -1         7-1.79406E-10 5.38218E-11 5.38218E-11 4.47130E-28-7.86533E-28 4.12550E-27
 -1         8-8.97030E-11 2.69109E-11 2.69109E-11-2.06629E-26 8.95033E-27-1.46765E-26
 -1         9-8.97030E-11 2.69109E-11 2.69109E-11 1.67384E-19-5.12465E-20 5.77304E-20
 -1        10-8.97030E-11 2.69109E-11 2.69109E-11 7.60236E-20 1.65244E-20 3.66330E-19
 -1        11-8.97030E-11 2.69109E-11 2.69109E-11 5.12318E-19 1.02956E-19 8.19121E-19
 -1        12-1.79406E-10 5.38218E-11 5.38218E-11 1.15043E-18-2.29938E-19-6.95162E-19
 -1        13-1.79406E-10 5.38218E-11 5.38218E-11-7.74661E-27 3.90938E-27 1.54191E-26
 -1        14-8.97030E-11 2.69109E-11 2.69109E-11-5.37296E-27-8.08850E-27 6.63635E-28
 -1        15-8.97030E-11 2.69109E-11 2.69109E-11-2.71583E-19 1.27063E-19 3.26058E-19
 -1        16-8.97030E-11 2.69109E-11 2.69109E-11 1.24941E-19-7.63953E-20 4.51702E-19
 -1        17-8.97030E-11 2.69109E-11 2.69109E-11-8.17226E-19 9.39762E-20-3.57833E-19
 -1        18-1.79406E-10 5.38218E-11 5.38218E-11 1.17624E-19-7.63375E-20 7.72692E-19
 -1        19-1.79406E-10 5.38218E-11 5.38218E-11 1.03507E-26 9.04402E-27 1.14869E-26
 -1        20-8.97030E-11 2.69109E-11 2.69109E-11 3.67572E-27-3.49799E-28-7.68549E-27
 -1        21-8.97030E-11 2.69109E-11 2.69109E-11-9.48464E-19 7.58160E-20-1.94152E-19
 -1        22-8.97030E-11 2.69109E-11 2.69109E-11 4.84419E-19-5.98705E-20-6.72126E-19
 -1        23-8.97030E-11 2.69109E-11 2.69109E-11-1.00328E-18 1.96932E-19 9.09158E-19
 -1        24-1.79406E-10 5.38218E-11 5.38218E-11 6.89384E-19-3.06273E-19-1.60068E-19
 -3
    1PSTEP                        88          30           1          
  100CL  130 2.28781E-01          24                     0   30           1
 -4  DISP        4    1
 -5  D1          1    2    1    0
 -5  D2          1    2    2    0
 -5  D3          1    2    3    0
 -5  ALL         1    2    0    0    1ALL
 -1         1 0.00000E+00 0.00000E+00 0.00000E+00
 -1         2-9.33801E-08 0.00000E+00 0.00000E+00
 -1         3-3.43172E+00 0.00000E+00 0.00000E+00
 -1         4-3.43172E+00 0.00000E+00 0.00000E+00
 -1         5-6.86344E+00 0.00000E+00 0.00000E+00
 -1         6-6.86344E+00 0.00000E+00 0.00000E+00
 -1         7 0.00000E+00 2.80140E-08 0.00000E+00
 -1         8-9.33801E-08 2.80140E-08 0.00000E+00
 -1         9-3.43172E+00 2.80140E-08 0.00000E+00
 -1        10-3.43172E+00 2.80140E-08 0.00000E+00
 -1        11-6.86344E+00 2.80140E-08 0.00000E+00
 -1        12-6.86344E+00 2.80140E-08 0.00000E+00
 -1        13 0.00000E+00 0.00000E+00 3.92196E-08
 -1        14-9.33801E-08 0.00000E+00 3.92196E-08
 -1        15-3.43172E+00 0.00000E+00 3.92196E-08
 -1        16-3.43172E+00 0.00000E+00 3.92196E-08
 -1        17-6.86344E+00 0.00000E+00 3.92196E-08
 -1        18-6.86344E+00 0.00000E+00 3.92196E-08
 -1        19 0.00000E+00 2.80140E-08 3.92196E-08
 -1        20-9.33801E-08 2.80140E-08 3.92196E-08
 -1        21-3.43172E+00 2.80140E-08 3.92196E-08
 -1        22-3.43172E+00 2.80140E-08 3.92196E-08
 -1        23-6.86344E+00 2.80140E-08 3.92196E-08
 -1        24-6.86344E+00 2.80140E-08 3.92196E-08
 -3
    1PSTEP                        89          30           1          
  100CL  130 2.28781E-01          24                     0   30           1
 -4  STRESS      6    1
 -5  SXX         1    4    1    1
 -5  SYY         1    4    2    2
 -5  SZZ         1    4    3    3
 -5  SXY         1    4    1    2
 -5  SYZ         1    4    2    3
 -5  SZX         1    4    3    1
 -1         1-3.92181E-05 1.24019E-21-2.60181E-21 6.52504E-22 4.50354E-22-5.03440E-22
 -1         2-1.96090E-05-2.60181E-21 3.49350E-21 2.47712E-21-2.72450E-23-5.87405E-22
 -1         3-1.96090E-05 1.54228E-14-6.75330E-15-5.42316E-15 2.91613E-20-1.37675E-15
 -1         4-1.96090E-05-1.57456E-14 1.31188E-14 2.43043E-14-4.05263E-20-3.62970E-14
 -1         5-1.96090E-05-4.07747E-14-2.92075E-14 1.18020E-13-2.01778E-19-2.06645E-16
 -1         6-3.92181E-05-2.12777E-13-2.10641E-13-4.77851E-14 3.89147E-19 9.47278E-14
 -1         7-3.92181E-05 7.68401E-21 5.98995E-21-4.05574E-21-1.01653E-21 8.74649E-23
 -1         8-1.96090E-05 6.20096E-22 7.78938E-21 6.96129E-22 2.46186E-21-8.59650E-21
 -1         9-1.96090E-05 5.96966E-14 6.24989E-14-1.91768E-14-7.31231E-15-6.93711E-14
 -1        10-1.96090E-05-1.18677E-14-1.18859E-14 9.90662E-15 1.06954E-14 2.13744E-14
 -1        11-1.96090E-05-4.09922E-14-9.03849E-14 1.66597E-13-1.30828E-14-5.13976E-14
 -1        12-3.92181E-05-4.25354E-14 6.52481E-14-9.93291E-14 3.84041E-14 2.46037E-13
 -1        13-3.92181E-05-4.62819E-21-2.02637E-21-6.41842E-22-1.00912E-21 3.03519E-21
 -1        14-1.96090E-05 9.71039E-21 8.86335E-21-6.20913E-21-2.25752E-22 6.08776E-22
 -1        15-1.96090E-05 5.06347E-14 4.89332E-14-5.77290E-14 1.74850E-14 1.68018E-14
 -1        16-1.96090E-05 1.07704E-13 1.06622E-13 4.19284E-15-2.02179E-14-7.96314E-14
 -1        17-1.96090E-05-1.38745E-14 3.43240E-14-1.06371E-13-4.26722E-14 1.54483E-13
 -1        18-3.92181E-05 1.57412E-13 5.20165E-14 3.77734E-14 7.39542E-14-7.77815E-14
 -1        19-3.92181E-05-2.86771E-20-3.40917E-20 4.89771E-21-3.37017E-22 3.45849E-21
 -1        20-1.96090E-05-2.31409E-21-7.16929E-21-5.57834E-21 1.97679E-21-4.77200E-21
 -1        21-1.96090E-05-5.28642E-14-2.95872E-14-5.34835E-14 1.01726E-14-3.87578E-14
 -1        22-1.96090E-05-3.61905E-14-6.61558E-14 4.19207E-14-9.52249E-15 1.85019E-15
 -1        23-1.96090E-05-1.40920E-14-2.68534E-14-2.70840E-13-5.57548E-14-1.82789E-13
 -1        24-3.92181E-05 3.27653E-13 3.27906E-13 1.51573E-14 1.12358E-13-2.08657E-14
 -3
    1PSTEP                        90          30           1          
  100CL  130 2.28781E-01          24                     0   30           1
 -4  TOSTRAIN    6    1
 -5  EXX         1    4    1    1
 -5  EYY         1    4    2    2
 -5  EZZ         1    4    3    3
 -5  EXY         1    4    1    2
 -5  EYZ         1    4    2    3
 -5  EZX         1    4    3    1
 -1         1-1.86753E-10 5.60258E-11 5.60258E-11 4.03931E-27 2.78791E-27-3.11653E-27
 -1         2-9.33764E-11 2.80129E-11 2.80129E-11 1.53345E-26-1.68659E-28-3.63631E-27
 -1         3-9.33764E-11 2.80129E-11 2.80129E-11-3.35719E-20 1.80523E-25-8.52276E-21
 -1         4-9.33764E-11 2.80129E-11 2.80129E-11 1.50455E-19-2.50877E-25-2.24696E-19
 -1         5-9.33764E-11 2.80129E-11 2.80129E-11 7.30601E-19-1.24910E-24-1.27923E-21
 -1         6-1.86753E-10 5.60258E-11 5.60258E-11-2.95813E-19 2.40900E-24 5.86411E-19
 -1         7-1.86753E-10 5.60258E-11 5.60258E-11-2.51070E-26-6.29279E-27 5.41449E-28
 -1         8-9.33764E-11 2.80129E-11 2.80129E-11 4.30937E-27 1.52401E-26-5.32164E-26
 -1         9-9.33764E-11 2.80129E-11 2.80129E-11-1.18714E-19-4.52667E-20-4.29440E-19
 -1        10-9.33764E-11 2.80129E-11 2.80129E-11 6.13267E-20 6.62093E-20 1.32318E-19
 -1        11-9.33764E-11 2.80129E-11 2.80129E-11 1.03131E-18-8.09889E-20-3.18176E-19
 -1        12-1.86753E-10 5.60258E-11 5.60258E-11-6.14894E-19 2.37740E-19 1.52309E-18
 -1        13-1.86753E-10 5.60258E-11 5.60258E-11-3.97331E-27-6.24695E-27 1.87892E-26
 -1        14-9.33764E-11 2.80129E-11 2.80129E-11-3.84375E-26-1.39752E-27 3.76862E-27
 -1        15-9.33764E-11 2.80129E-11 2.80129E-11-3.57370E-19 1.08240E-19 1.04011E-19
 -1        16-9.33764E-11 2.80129E-11 2.80129E-11 2.59557E-20-1.25158E-19-4.92956E-19
 -1        17-9.33764E-11 2.80129E-11 2.80129E-11-6.58489E-19-2.64161E-19 9.56323E-19
 -1        18-1.86753E-10 5.60258E-11 5.60258E-11 2.33835E-19 4.57811E-19-4.81505E-19
 -1        19-1.86753E-10 5.60258E-11 5.60258E-11 3.03192E-26-2.08630E-27 2.14097E-26
 -1        20-9.33764E-11 2.80129E-11 2.80129E-11-3.45326E-26 1.22372E-26-2.95409E-26
 -1        21-9.33764E-11 2.80129E-11 2.80129E-11-3.31088E-19 6.29733E-20-2.39929E-19
 -1        22-9.33764E-11 2.80129E-11 2.80129E-11 2.59509E-19-5.89487E-20 1.14535E-20
 -1        23-9.33764E-11 2.80129E-11 2.80129E-11-1.67663E-18-3.45149E-19-1.13155E-18
 -1        24-1.86753E-10 5.60258E-11 5.60258E-11 9.38306E-20 6.95549E-19-1.29169E-19
 -3
    1PSTEP                        91          31           1          
  100CL  131 2.37781E-01          24                     0   31           1
 -4  DISP        4    1
 -5  D1          1    2    1    0
 -5  D2          1    2    2    0
 -5  D3          1    2    3    0
 -5  ALL         1    2    0    0    1ALL
 -1         1 0.00000E+00 0.00000E+00 0.00000E+00
 -1         2-9.70536E-08 0.00000E+00 0.00000E+00
 -1         3-3.56672E+00 0.00000E+00 0.00000E+00
 -1         4-3.56672E+00 0.00000E+00 0.00000E+00
 -1         5-7.13344E+00 0.00000E+00 0.00000E+00
 -1         6-7.13344E+00 0.00000E+00 0.00000E+00
 -1         7 0.00000E+00 2.91161E-08 0.00000E+00
 -1         8-9.70536E-08 2.91161E-08 0.00000E+00
 -1         9-3.56672E+00 2.91161E-08 0.00000E+00
 -1        10-3.56672E+00 2.91161E-08 0.00000E+00
 -1        11-7.13344E+00 2.91161E-08 0.00000E+00
 -1        12-7.13344E+00 2.91161E-08 0.00000E+00
 -1        13 0.00000E+00 0.00000E+00 4.07625E-08
 -1        14-9.70536E-08 0.00000E+00 4.07625E-08
 -1        15-3.56672E+00 0.00000E+00 4.07625E-08
 -1        16-3.56672E+00 0.00000E+00 4.07625E-08
 -1        17-7.13344E+00 0.00000E+00 4.07625E-08
 -1        18-7.13344E+00 0.00000E+00 4.07625E-08
 -1        19 0.00000E+00 2.91161E-08 4.07625E-08
 -1        20-9.70536E-08 2.91161E-08 4.07625E-08
 -1        21-3.56672E+00 2.91161E-08 4.07625E-08
 -1        22-3.56672E+00 2.91161E-08 4.07625E-08
 -1        23-7.13344E+00 2.91161E-08 4.07625E-08
 -1        24-7.13344E+00 2.91161E-08 4.07625E-08
 -3
    1PSTEP                        92          31           1          
  100CL  131 2.37781E-01          24                     0   31           1
 -4  STRESS      6    1
 -5  SXX         1    4    1    1
 -5  SYY         1    4    2    2
 -5  SZZ         1    4    3    3
 -5  SXY         1    4    1    2
 -5  SYZ         1    4    2    3
 -5  SZX         1    4    3    1
 -1         1-4.07609E-05-2.31423E-21-6.20164E-22 5.17575E-22 4.57163E-22 1.05982E-21
 -1         2-2.03804E-05 1.55564E-20 1.23953E-20-1.01837E-20-2.36716E-22-5.97061E-21
 -1         3-2.03804E-05-1.64992E-14-3.13035E-14-9.56970E-14-1.21414E-21-6.54912E-14
 -1         4-2.03804E-05-3.88579E-14-2.92471E-14 2.15787E-14 1.23674E-20-8.20825E-14
 -1         5-2.03804E-05 9.37745E-15-5.61010E-14 5.91519E-14-1.03726E-19 1.63521E-13
 -1         6-4.07609E-05-2.46732E-13-1.16412E-13 2.75909E-14 1.57918E-19-1.85382E-13
 -1         7-4.07609E-05-2.34289E-20-2.17349E-20 6.57122E-21 1.41960E-21 5.45029E-23
 -1         8-2.03804E-05 1.77707E-21-1.38405E-21-7.15687E-21-2.01345E-21 6.64078E-21
 -1         9-2.03804E-05 3.29103E-14 2.33155E-14-1.09383E-13-5.87444E-15 9.33857E-14
 -1        10-2.03804E-05 4.90561E-15 1.21978E-14 3.41638E-14 3.19729E-15-1.24050E-14
 -1        11-2.03804E-05 1.70221E-13 9.12914E-14-5.26734E-16-1.56829E-14 9.26914E-14
 -1        12-4.07609E-05 1.17699E-13 2.78106E-13 3.63229E-14 3.20480E-14-8.73402E-14
 -1        13-4.07609E-05-5.24835E-21-5.70223E-21-3.00899E-22 4.22260E-21 1.52885E-21
 -1        14-2.03804E-05-4.37903E-21-3.53199E-21 7.80588E-21-2.47513E-23-5.73609E-21
 -1        15-2.03804E-05 2.29698E-14 2.46140E-14-3.35397E-14 3.64657E-15-1.03394E-13
 -1        16-2.03804E-05 4.50625E-14 4.57210E-14 4.92395E-15-1.62303E-15 1.38902E-13
 -1        17-2.03804E-05 1.24594E-14-9.10730E-15-9.49540E-14-9.41615E-15-1.00246E-13
 -1        18-4.07609E-05 7.01576E-14 1.10743E-13-2.57614E-13 2.10616E-14 3.14907E-13
 -1        19-4.07609E-05 2.81786E-20 2.77247E-20-3.64239E-21 7.32402E-21-4.36976E-21
 -1        20-2.03804E-05 3.10014E-22 1.15705E-21 6.13514E-21-2.08805E-21 4.42864E-21
 -1        21-2.03804E-05 7.23794E-14 7.92329E-14-3.45249E-14-2.22786E-15 5.29615E-14
 -1        22-2.03804E-05 8.88260E-14 8.71659E-14 3.02094E-14 1.57424E-15-5.55772E-14
 -1        23-2.03804E-05-4.34299E-14-7.84481E-14-1.77552E-13-2.50989E-14-8.38194E-14
 -1        24-4.07609E-05 1.12200E-15 7.17955E-14 3.42304E-13 5.31094E-14-4.95655E-14
 -3
    1PSTEP                        93          31           1          
  100CL  131 2.37781E-01          24                     0   31           1
 -4  TOSTRAIN    6    1
 -5  EXX         1    4    1    1
 -5  EYY         1    4    2    2
 -5  EZZ         1    4    3    3
 -5  EXY         1    4    1    2
 -5  EYZ         1    4    2    3
 -5  EZX         1    4    3    1
 -1         1-1.94099E-10 5.82298E-11 5.82298E-11 3.20403E-27 2.83006E-27 6.56080E-27
 -1         2-9.70497E-11 2.91149E-11 2.91149E-11-6.30419E-26-1.46539E-27-3.69609E-26
 -1         3-9.70497E-11 2.91149E-11 2.91149E-11-5.92410E-19-7.51612E-27-4.05422E-19
 -1         4-9.70497E-11 2.91149E-11 2.91149E-11 1.33582E-19 7.65604E-26-5.08130E-19
 -1         5-9.70497E-11 2.91149E-11 2.91149E-11 3.66178E-19-6.42111E-25 1.01227E-18
 -1         6-1.94099E-10 5.82298E-11 5.82298E-11 1.70801E-19 9.77586E-25-1.14760E-18
 -1         7-1.94099E-10 5.82298E-11 5.82298E-11 4.06790E-26 8.78797E-27 3.37399E-28
 -1         8-9.70497E-11 2.91149E-11 2.91149E-11-4.43044E-26-1.24642E-26 4.11096E-26
 -1         9-9.70497E-11 2.91149E-11 2.91149E-11-6.77131E-19-3.63656E-20 5.78102E-19
 -1        10-9.70497E-11 2.91149E-11 2.91149E-11 2.11490E-19 1.97927E-20-7.67928E-20
 -1        11-9.70497E-11 2.91149E-11 2.91149E-11-3.26073E-21-9.70845E-20 5.73804E-19
 -1        12-1.94099E-10 5.82298E-11 5.82298E-11 2.24856E-19 1.98393E-19-5.40677E-19
 -1        13-1.94099E-10 5.82298E-11 5.82298E-11-1.86271E-27 2.61399E-26 9.46434E-27
 -1        14-9.70497E-11 2.91149E-11 2.91149E-11 4.83221E-26-1.53222E-28-3.55091E-26
 -1        15-9.70497E-11 2.91149E-11 2.91149E-11-2.07627E-19 2.25740E-20-6.40057E-19
 -1        16-9.70497E-11 2.91149E-11 2.91149E-11 3.04816E-20-1.00473E-20 8.59872E-19
 -1        17-9.70497E-11 2.91149E-11 2.91149E-11-5.87810E-19-5.82905E-20-6.20568E-19
 -1        18-1.94099E-10 5.82298E-11 5.82298E-11-1.59476E-18 1.30381E-19 1.94942E-18
 -1        19-1.94099E-10 5.82298E-11 5.82298E-11-2.25481E-26 4.53392E-26-2.70509E-26
 -1        20-9.70497E-11 2.91149E-11 2.91149E-11 3.79794E-26-1.29260E-26 2.74154E-26
 -1        21-9.70497E-11 2.91149E-11 2.91149E-11-2.13726E-19-1.37915E-20 3.27857E-19
 -1        22-9.70497E-11 2.91149E-11 2.91149E-11 1.87011E-19 9.74531E-21-3.44049E-19
 -1        23-9.70497E-11 2.91149E-11 2.91149E-11-1.09913E-18-1.55374E-19-5.18882E-19
 -1        24-1.94099E-10 5.82298E-11 5.82298E-11 2.11903E-18 3.28773E-19-3.06834E-19
 -3
    1PSTEP                        94          32           1          
  100CL  132 2.46781E-01          24                     0   32           1
 -4  DISP        4    1
 -5  D1          1    2    1    0
 -5  D2          1    2    2    0
 -5  D3          1    2    3    0
 -5  ALL         1    2    0    0    1ALL
 -1         1 0.00000E+00 0.00000E+00 0.00000E+00
 -1         2-1.00727E-07 0.00000E+00 0.00000E+00
 -1         3-3.70172E+00 0.00000E+00 0.00000E+00
 -1         4-3.70172E+00 0.00000E+00 0.00000E+00
 -1         5-7.40344E+00 0.00000E+00 0.00000E+00
 -1         6-7.40344E+00 0.00000E+00 0.00000E+00
 -1         7 0.00000E+00 3.02181E-08 0.00000E+00
 -1         8-1.00727E-07 3.02181E-08 0.00000E+00
 -1         9-3.70172E+00 3.02181E-08 0.00000E+00
 -1        10-3.70172E+00 3.02181E-08 0.00000E+00
 -1        11-7.40344E+00 3.02181E-08 0.00000E+00
 -1        12-7.40344E+00 3.02181E-08 0.00000E+00
 -1        13 0.00000E+00 0.00000E+00 4.23054E-08
 -1        14-1.00727E-07 0.00000E+00 4.23054E-08
 -1        15-3.70172E+00 0.00000E+00 4.23054E-08
 -1        16-3.70172E+00 0.00000E+00 4.23054E-08
 -1        17-7.40344E+00 0.00000E+00 4.23054E-08
 -1        18-7.40344E+00 0.00000E+00 4.23054E-08
 -1        19 0.00000E+00 3.02181E-08 4.23054E-08
 -1        20-1.00727E-07 3.02181E-08 4.23054E-08
 -1        21-3.70172E+00 3.02181E-08 4.23054E-08
 -1        22-3.70172E+00 3.02181E-08 4.23054E-08
 -1        23-7.40344E+00 3.02181E-08 4.23054E-08
 -1        24-7.40344E+00 3.02181E-08 4.23054E-08
 -3
    1PSTEP                        95          32           1          
  100CL  132 2.46781E-01          24                     0   32           1
 -4  STRESS      6    1
 -5  SXX         1    4    1    1
 -5  SYY         1    4    2    2
 -5  SZZ         1    4    3    3
 -5  SXY         1    4    1    2
 -5  SYZ         1    4    2    3
 -5  SZX         1    4    3    1
 -1         1-4.23037E-05-3.55429E-21-3.32444E-22 8.45297E-22-1.28256E-22-4.81110E-22
 -1         2-2.11518E-05-2.17030E-21-3.10041E-21 1.55787E-21 3.00017E-22 2.92621E-21
 -1         3-2.11518E-05-7.56645E-15-9.76785E-15 1.33738E-15-6.36953E-20-1.23833E-14
 -1         4-2.11518E-05 1.18540E-14-6.60787E-16-9.05825E-15-8.16903E-21-3.46270E-14
 -1         5-2.11518E-05-5.92472E-14-7.13771E-14-7.92987E-14 9.32914E-20 1.16024E-14
 -1         6-4.23037E-05 6.47205E-14 9.22606E-14 1.39052E-13-4.96512E-19-4.42499E-13
 -1         7-4.23037E-05 6.82072E-21-9.07884E-22 1.00559E-21-3.16539E-21-3.59980E-22
 -1         8-2.11518E-05 6.23918E-21 1.69400E-21 1.63802E-21-2.58868E-21 5.38098E-21
 -1         9-2.11518E-05-3.24453E-15-1.89152E-14-3.25533E-15 3.76660E-15 5.47178E-14
 -1        10-2.11518E-05 4.68498E-14 6.17642E-14 3.37828E-14-9.29254E-15-5.36389E-16
 -1        11-2.11518E-05 1.06851E-13 1.66691E-13-4.18393E-14 2.45139E-15-7.29947E-14
 -1        12-4.23037E-05 1.92338E-13 9.10437E-14-3.92249E-15 2.83421E-15 4.86358E-13
 -1        13-4.23037E-05 9.54410E-21 3.38800E-21-3.40176E-22 2.95913E-21-4.04191E-21
 -1        14-2.11518E-05-1.27277E-20-6.32232E-21 4.68404E-21-1.13610E-22 1.28909E-21
 -1        15-2.11518E-05-6.56910E-14-7.84390E-14 3.40402E-14-9.42853E-15 2.82863E-14
 -1        16-2.11518E-05-1.10261E-13-9.67563E-14 8.42137E-14 1.92004E-14-7.95093E-14
 -1        17-2.11518E-05 6.48859E-14 4.58924E-14 4.04796E-14 5.03785E-14-1.33688E-13
 -1        18-4.23037E-05 3.02854E-13 3.22457E-13-1.80804E-13-9.01846E-14 1.03177E-14
 -1        19-4.23037E-05 1.61988E-20 2.31411E-20-4.68172E-21-7.80066E-23-5.78727E-21
 -1        20-2.11518E-05 2.62411E-21 8.63635E-21 2.51327E-21-3.00230E-21 2.13259E-21
 -1        21-2.11518E-05-2.19630E-14-4.81803E-14 5.20308E-14-5.66188E-15-7.50931E-15
 -1        22-2.11518E-05-3.58587E-14 5.07474E-15-4.37447E-14 9.90790E-15-2.31853E-14
 -1        23-2.11518E-05-8.42641E-14-3.12885E-14 3.32215E-14 5.28298E-14 3.82400E-14
 -1        24-4.23037E-05-2.00025E-13-3.09257E-13-3.69725E-15-8.73499E-14 1.09920E-13
 -3
    1PSTEP                        96          32           1          
  100CL  132 2.46781E-01          24                     0   32           1
 -4  TOSTRAIN    6    1
 -5  EXX         1    4    1    1
 -5  EYY         1    4    2    2
 -5  EZZ         1    4    3    3
 -5  EXY         1    4    1    2
 -5  EYZ         1    4    2    3
 -5  EZX         1    4    3    1
 -1         1-2.01446E-10 6.04338E-11 6.04338E-11 5.23279E-27-7.93964E-28-2.97830E-27
 -1         2-1.00723E-10 3.02169E-11 3.02169E-11 9.64397E-27 1.85725E-27 1.81147E-26
 -1         3-1.00723E-10 3.02169E-11 3.02169E-11 8.27901E-21-3.94304E-25-7.66587E-20
 -1         4-1.00723E-10 3.02169E-11 3.02169E-11-5.60749E-20-5.05702E-26-2.14358E-19
 -1         5-1.00723E-10 3.02169E-11 3.02169E-11-4.90897E-19 5.77519E-25 7.18245E-20
 -1         6-2.01446E-10 6.04338E-11 6.04338E-11 8.60800E-19-3.07365E-24-2.73928E-18
 -1         7-2.01446E-10 6.04338E-11 6.04338E-11 6.22508E-27-1.95953E-26-2.22844E-27
 -1         8-1.00723E-10 3.02169E-11 3.02169E-11 1.01401E-26-1.60251E-26 3.33108E-26
 -1         9-1.00723E-10 3.02169E-11 3.02169E-11-2.01520E-20 2.33170E-20 3.38729E-19
 -1        10-1.00723E-10 3.02169E-11 3.02169E-11 2.09132E-19-5.75252E-20-3.32050E-21
 -1        11-1.00723E-10 3.02169E-11 3.02169E-11-2.59005E-19 1.51753E-20-4.51872E-19
 -1        12-2.01446E-10 6.04338E-11 6.04338E-11-2.42821E-20 1.75451E-20 3.01079E-18
 -1        13-2.01446E-10 6.04338E-11 6.04338E-11-2.10585E-27 1.83184E-26-2.50214E-26
 -1        14-1.00723E-10 3.02169E-11 3.02169E-11 2.89965E-26-7.03297E-28 7.98011E-27
 -1        15-1.00723E-10 3.02169E-11 3.02169E-11 2.10725E-19-5.83671E-20 1.75105E-19
 -1        16-1.00723E-10 3.02169E-11 3.02169E-11 5.21323E-19 1.18860E-19-4.92200E-19
 -1        17-1.00723E-10 3.02169E-11 3.02169E-11 2.50588E-19 3.11867E-19-8.27589E-19
 -1        18-2.01446E-10 6.04338E-11 6.04338E-11-1.11926E-18-5.58286E-19 6.38715E-20
 -1        19-2.01446E-10 6.04338E-11 6.04338E-11-2.89821E-26-4.82898E-28-3.58260E-26
 -1        20-1.00723E-10 3.02169E-11 3.02169E-11 1.55584E-26-1.85857E-26 1.32017E-26
 -1        21-1.00723E-10 3.02169E-11 3.02169E-11 3.22095E-19-3.50497E-20-4.64862E-20
 -1        22-1.00723E-10 3.02169E-11 3.02169E-11-2.70800E-19 6.13346E-20-1.43528E-19
 -1        23-1.00723E-10 3.02169E-11 3.02169E-11 2.05657E-19 3.27041E-19 2.36724E-19
 -1        24-2.01446E-10 6.04338E-11 6.04338E-11-2.28877E-20-5.40738E-19 6.80457E-19
 -3
    1PSTEP                        97          33           1          
  100CL  133 2.55781E-01          24                     0   33           1
 -4  DISP        4    1
 -5  D1          1    2    1    0
 -5  D2          1    2    2    0
 -5  D3          1    2    3    0
 -5  ALL         1    2    0    0    1ALL
 -1         1 0.00000E+00 0.00000E+00 0.00000E+00
 -1         2-1.04401E-07 0.00000E+00 0.00000E+00
 -1         3-3.83672E+00 0.00000E+00 0.00000E+00
 -1         4-3.83672E+00 0.00000E+00 0.00000E+00
 -1         5-7.67344E+00 0.00000E+00 0.00000E+00
 -1         6-7.67344E+00 0.00000E+00 0.00000E+00
 -1         7 0.00000E+00 3.13202E-08 0.00000E+00
 -1         8-1.04401E-07 3.13202E-08 0.00000E+00
 -1         9-3.83672E+00 3.13202E-08 0.00000E+00
 -1        10-3.83672E+00 3.13202E-08 0.00000E+00
 -1        11-7.67344E+00 3.13202E-08 0.00000E+00
 -1        12-7.67344E+00 3.13202E-08 0.00000E+00
 -1        13 0.00000E+00 0.00000E+00 4.38482E-08
 -1        14-1.04401E-07 0.00000E+00 4.38482E-08
 -1        15-3.83672E+00 0.00000E+00 4.38482E-08
 -1        16-3.83672E+00 0.00000E+00 4.38482E-08
 -1        17-7.67344E+00 0.00000E+00 4.38482E-08
 -1        18-7.67344E+00 0.00000E+00 4.38482E-08
 -1        19 0.00000E+00 3.13202E-08 4.38482E-08
 -1        20-1.04401E-07 3.13202E-08 4.38482E-08
 -1        21-3.83672E+00 3.13202E-08 4.38482E-08
 -1        22-3.83672E+00 3.13202E-08 4.38482E-08
 -1        23-7.67344E+00 3.13202E-08 4.38482E-08
 -1        24-7.67344E+00 3.13202E-08 4.38482E-08
 -3
    1PSTEP                        98          33           1          
  100CL  133 2.55781E-01          24                     0   33           1
 -4  STRESS      6    1
 -5  SXX         1    4    1    1
 -5  SYY         1    4    2    2
 -5  SZZ         1    4    3    3
 -5  SXY         1    4    1    2
 -5  SYZ         1    4    2    3
 -5  SZX         1    4    3    1
 -1         1-4.38465E-05 1.07390E-21 2.20670E-20 1.12287E-21-6.07091E-23-3.63957E-22
 -1         2-2.19232E-05 1.61765E-20 1.27885E-20-1.01898E-20 1.87924E-22-7.22241E-21
 -1         3-2.19232E-05-1.40337E-14-2.23922E-14 8.14177E-15-2.02181E-20-3.61298E-14
 -1         4-2.19232E-05-3.88270E-14-3.58300E-14-2.63201E-14-8.53890E-20 7.21371E-14
 -1         5-2.19232E-05 8.00428E-15-5.16150E-14-7.35898E-14 1.64595E-19 7.74085E-14
 -1         6-4.38465E-05 4.03552E-14 1.46131E-13 2.17778E-13-3.32894E-19-1.82639E-13
 -1         7-4.38465E-05-3.60734E-20-3.85536E-20 4.28191E-21 3.90857E-21 3.07392E-22
 -1         8-2.19232E-05-5.37019E-22 1.94323E-21-8.61026E-21 8.02439E-22 2.89987E-21
 -1         9-2.19232E-05-1.83535E-14 9.40874E-17-5.96773E-15-6.47349E-15-4.79305E-16
 -1        10-2.19232E-05-7.62018E-14-9.04717E-14-5.18730E-15 6.05059E-15-5.83363E-14
 -1        11-2.19232E-05 3.38059E-14 6.77715E-14-2.75797E-16-1.86558E-14 2.85330E-14
 -1        12-4.38465E-05-1.81826E-13-2.53927E-13-4.57988E-14 3.10144E-14 1.01480E-13
 -1        13-4.38465E-05-4.00816E-21-2.25209E-20-7.21546E-22 1.26586E-21 4.44366E-21
 -1        14-2.19232E-05-4.83290E-21-2.04711E-22 7.67828E-21-3.35703E-21-4.81860E-21
 -1        15-2.19232E-05-1.92437E-15 7.84281E-15-5.72993E-14 1.87643E-14-4.26510E-14
 -1        16-2.19232E-05 3.46506E-14 2.07058E-14 2.59023E-15-1.20870E-14-1.51283E-14
 -1        17-2.19232E-05-8.22944E-14-8.96770E-14 2.07677E-13 6.55096E-14-2.72306E-14
 -1        18-4.38465E-05 1.94558E-13 2.13493E-13-3.12932E-13-1.24514E-13-2.20213E-13
 -1        19-4.38465E-05 2.35504E-20 1.67741E-20-1.28142E-21 5.23514E-21-2.12708E-21
 -1        20-2.19232E-05 2.00408E-21-5.10436E-21 7.39834E-21-2.74252E-21 1.68263E-21
 -1        21-2.19232E-05 8.24194E-14 1.18993E-13-5.14711E-14 1.22908E-14 4.55960E-14
 -1        22-2.19232E-05 8.59395E-14 5.47276E-14 3.22852E-14-6.03632E-15 9.37403E-15
 -1        23-2.19232E-05-1.15602E-13-2.93996E-14-2.07719E-14 4.68536E-14-3.92085E-14
 -1        24-4.38465E-05-1.45842E-13-3.04783E-13 1.39519E-13-9.34992E-14 3.19707E-13
 -3
    1PSTEP                        99          33           1          
  100CL  133 2.55781E-01          24                     0   33           1
 -4  TOSTRAIN    6    1
 -5  EXX         1    4    1    1
 -5  EYY         1    4    2    2
 -5  EZZ         1    4    3    3
 -5  EXY         1    4    1    2
 -5  EYZ         1    4    2    3
 -5  EZX         1    4    3    1
 -1         1-2.08793E-10 6.26378E-11 6.26378E-11 6.95113E-27-3.75818E-28-2.25306E-27
 -1         2-1.04396E-10 3.13189E-11 3.13189E-11-6.30796E-26 1.16334E-27-4.47101E-26
 -1         3-1.04396E-10 3.13189E-11 3.13189E-11 5.04014E-20-1.25159E-25-2.23661E-19
 -1         4-1.04396E-10 3.13189E-11 3.13189E-11-1.62934E-19-5.28598E-25 4.46563E-19
 -1         5-1.04396E-10 3.13189E-11 3.13189E-11-4.55556E-19 1.01892E-24 4.79195E-19
 -1         6-2.08793E-10 6.26378E-11 6.26378E-11 1.34815E-18-2.06077E-24-1.13062E-18
 -1         7-2.08793E-10 6.26378E-11 6.26378E-11 2.65070E-26 2.41959E-26 1.90290E-27
 -1         8-1.04396E-10 3.13189E-11 3.13189E-11-5.33016E-26 4.96748E-27 1.79516E-26
 -1         9-1.04396E-10 3.13189E-11 3.13189E-11-3.69431E-20-4.00740E-20-2.96713E-21
 -1        10-1.04396E-10 3.13189E-11 3.13189E-11-3.21119E-20 3.74561E-20-3.61130E-19
 -1        11-1.04396E-10 3.13189E-11 3.13189E-11-1.70731E-21-1.15488E-19 1.76633E-19
 -1        12-2.08793E-10 6.26378E-11 6.26378E-11-2.83516E-19 1.91994E-19 6.28207E-19
 -1        13-2.08793E-10 6.26378E-11 6.26378E-11-4.46671E-27 7.83626E-27 2.75083E-26
 -1        14-1.04396E-10 3.13189E-11 3.13189E-11 4.75322E-26-2.07816E-26-2.98294E-26
 -1        15-1.04396E-10 3.13189E-11 3.13189E-11-3.54710E-19 1.16160E-19-2.64030E-19
 -1        16-1.04396E-10 3.13189E-11 3.13189E-11 1.60348E-20-7.48243E-20-9.36512E-20
 -1        17-1.04396E-10 3.13189E-11 3.13189E-11 1.28562E-18 4.05535E-19-1.68570E-19
 -1        18-2.08793E-10 6.26378E-11 6.26378E-11-1.93720E-18-7.70800E-19-1.36323E-18
 -1        19-2.08793E-10 6.26378E-11 6.26378E-11-7.93261E-27 3.24080E-26-1.31676E-26
 -1        20-1.04396E-10 3.13189E-11 3.13189E-11 4.57993E-26-1.69775E-26 1.04163E-26
 -1        21-1.04396E-10 3.13189E-11 3.13189E-11-3.18630E-19 7.60860E-20 2.82261E-19
 -1        22-1.04396E-10 3.13189E-11 3.13189E-11 1.99861E-19-3.73677E-20 5.80297E-20
 -1        23-1.04396E-10 3.13189E-11 3.13189E-11-1.28588E-19 2.90046E-19-2.42719E-19
 -1        24-2.08793E-10 6.26378E-11 6.26378E-11 8.63688E-19-5.78805E-19 1.97914E-18
 -3
    1PSTEP                       100          34           1          
  100CL  134 2.64781E-01          24                     0   34           1
 -4  DISP        4    1
 -5  D1          1    2    1    0
 -5  D2          1    2    2    0
 -5  D3          1    2    3    0
 -5  ALL         1    2    0    0    1ALL
 -1         1 0.00000E+00 0.00000E+00 0.00000E+00
 -1         2-1.08074E-07 0.00000E+00 0.00000E+00
 -1         3-3.97172E+00 0.00000E+00 0.00000E+00
 -1         4-3.97172E+00 0.00000E+00 0.00000E+00
 -1         5-7.94344E+00 0.00000E+00 0.00000E+00
 -1         6-7.94344E+00 0.00000E+00 0.00000E+00
 -1         7 0.00000E+00 3.24222E-08 0.00000E+00
 -1         8-1.08074E-07 3.24222E-08 0.00000E+00
 -1         9-3.97172E+00 3.24222E-08 0.00000E+00
 -1        10-3.97172E+00 3.24222E-08 0.00000E+00
 -1        11-7.94344E+00 3.24222E-08 0.00000E+00
 -1        12-7.94344E+00 3.24222E-08 0.00000E+00
 -1        13 0.00000E+00 0.00000E+00 4.53911E-08
 -1        14-1.08074E-07 0.00000E+00 4.53911E-08
 -1        15-3.97172E+00 0.00000E+00 4.53911E-08
 -1        16-3.97172E+00 0.00000E+00 4.53911E-08
 -1        17-7.94344E+00 0.00000E+00 4.53911E-08
 -1        18-7.94344E+00 0.00000E+00 4.53911E-08
 -1        19 0.00000E+00 3.24222E-08 4.53911E-08
 -1        20-1.08074E-07 3.24222E-08 4.53911E-08
 -1        21-3.97172E+00 3.24222E-08 4.53911E-08
 -1        22-3.97172E+00 3.24222E-08 4.53911E-08
 -1        23-7.94344E+00 3.24222E-08 4.53911E-08
 -1        24-7.94344E+00 3.24222E-08 4.53911E-08
 -3
    1PSTEP                       101          34           1          
  100CL  134 2.64781E-01          24                     0   34           1
 -4  STRESS      6    1
 -5  SXX         1    4    1    1
 -5  SYY         1    4    2    2
 -5  SZZ         1    4    3    3
 -5  SXY         1    4    1    2
 -5  SYZ         1    4    2    3
 -5  SZX         1    4    3    1
 -1         1-4.53892E-05-1.30984E-20-5.08206E-21 2.26911E-22 1.62976E-22 6.29926E-22
 -1         2-2.26946E-05 4.68904E-21-2.25324E-21-6.50303E-21 2.68496E-23-4.46017E-21
 -1         3-2.26946E-05-8.56063E-14-1.03521E-13-3.66865E-15 1.66011E-20-4.17237E-14
 -1         4-2.26946E-05-1.31550E-13-1.18323E-13 7.43637E-14-2.07573E-20 6.07337E-15
 -1         5-2.26946E-05-2.71880E-14-2.38434E-15-2.47265E-14-1.35174E-19 4.01921E-14
 -1         6-4.53892E-05-3.59230E-14-1.24784E-13 1.68295E-13-1.61438E-19 1.11408E-13
 -1         7-4.53892E-05-1.73943E-20-1.30982E-20 1.20853E-21-4.92901E-22 1.20959E-22
 -1         8-2.26946E-05 2.54110E-21-7.62316E-21-6.01222E-21-8.88285E-22 8.79085E-21
 -1         9-2.26946E-05 2.70471E-13 2.77403E-13-3.31039E-14-1.19604E-14 3.15009E-14
 -1        10-2.26946E-05 1.89809E-13 1.81591E-13 1.18633E-13 9.82710E-15-4.93075E-14
 -1        11-2.26946E-05-6.17270E-14-2.67670E-14-5.76368E-16-8.44788E-15-1.40372E-14
 -1        12-4.53892E-05-9.74667E-14-1.55970E-13 1.03784E-13 6.95362E-15-5.46687E-15
 -1        13-4.53892E-05 5.08220E-21-1.52462E-20-4.57290E-23 4.77782E-21 1.53475E-21
 -1        14-2.26946E-05-1.16313E-20-3.61500E-21 8.62774E-21-2.16756E-21-4.00776E-21
 -1        15-2.26946E-05 1.47727E-13 1.63302E-13-4.38286E-14 1.73926E-14-8.29341E-14
 -1        16-2.26946E-05 2.08543E-13 1.94254E-13-6.28513E-14-1.50112E-14 6.61262E-14
 -1        17-2.26946E-05 2.57694E-14 7.42268E-14 1.42042E-13 7.10925E-15 7.20960E-14
 -1        18-4.53892E-05 1.86853E-13 7.85218E-14-2.15206E-13 2.12505E-14-2.27261E-13
 -1        19-4.53892E-05 2.11148E-20 2.48353E-20-3.17448E-21 4.12194E-21-6.99923E-21
 -1        20-2.26946E-05-3.61500E-21-2.54096E-21 7.06337E-21-3.08270E-21 5.23076E-21
 -1        21-2.26946E-05-9.71381E-14-5.67170E-14-1.89525E-15 5.43226E-15 1.18259E-13
 -1        22-2.26946E-05-7.10410E-14-1.06775E-13-1.40596E-13-5.18405E-15-1.22922E-13
 -1        23-2.26946E-05-1.86097E-13-1.27483E-13 1.39616E-13-1.33850E-15-1.01044E-13
 -1        24-4.53892E-05-2.29345E-13-3.07318E-13 7.66491E-14 2.82042E-14 3.28080E-13
 -3
    1PSTEP                       102          34           1          
  100CL  134 2.64781E-01          24                     0   34           1
 -4  TOSTRAIN    6    1
 -5  EXX         1    4    1    1
 -5  EYY         1    4    2    2
 -5  EZZ         1    4    3    3
 -5  EXY         1    4    1    2
 -5  EYZ         1    4    2    3
 -5  EZX         1    4    3    1
 -1         1-2.16139E-10 6.48418E-11 6.48418E-11 1.40469E-27 1.00890E-27 3.89954E-27
 -1         2-1.08070E-10 3.24209E-11 3.24209E-11-4.02569E-26 1.66212E-28-2.76106E-26
 -1         3-1.08070E-10 3.24209E-11 3.24209E-11-2.27107E-20 1.02769E-25-2.58289E-19
 -1         4-1.08070E-10 3.24209E-11 3.24209E-11 4.60347E-19-1.28498E-25 3.75971E-20
 -1         5-1.08070E-10 3.24209E-11 3.24209E-11-1.53069E-19-8.36791E-25 2.48808E-19
 -1         6-2.16139E-10 6.48418E-11 6.48418E-11 1.04182E-18-9.99377E-25 6.89667E-19
 -1         7-2.16139E-10 6.48418E-11 6.48418E-11 7.48140E-27-3.05129E-27 7.48791E-28
 -1         8-1.08070E-10 3.24209E-11 3.24209E-11-3.72185E-26-5.49891E-27 5.44196E-26
 -1         9-1.08070E-10 3.24209E-11 3.24209E-11-2.04929E-19-7.40403E-20 1.95006E-19
 -1        10-1.08070E-10 3.24209E-11 3.24209E-11 7.34394E-19 6.08344E-20-3.05237E-19
 -1        11-1.08070E-10 3.24209E-11 3.24209E-11-3.56799E-21-5.22964E-20-8.68968E-20
 -1        12-2.16139E-10 6.48418E-11 6.48418E-11 6.42475E-19 4.30462E-20-3.38426E-20
 -1        13-2.16139E-10 6.48418E-11 6.48418E-11-2.83084E-28 2.95770E-26 9.50082E-27
 -1        14-1.08070E-10 3.24209E-11 3.24209E-11 5.34098E-26-1.34183E-26-2.48100E-26
 -1        15-1.08070E-10 3.24209E-11 3.24209E-11-2.71320E-19 1.07669E-19-5.13401E-19
 -1        16-1.08070E-10 3.24209E-11 3.24209E-11-3.89079E-19-9.29263E-20 4.09352E-19
 -1        17-1.08070E-10 3.24209E-11 3.24209E-11 8.79306E-19 4.40096E-20 4.46309E-19
 -1        18-2.16139E-10 6.48418E-11 6.48418E-11-1.33223E-18 1.31550E-19-1.40685E-18
 -1        19-2.16139E-10 6.48418E-11 6.48418E-11-1.96515E-26 2.55168E-26-4.33286E-26
 -1        20-1.08070E-10 3.24209E-11 3.24209E-11 4.37256E-26-1.90834E-26 3.23809E-26
 -1        21-1.08070E-10 3.24209E-11 3.24209E-11-1.17325E-20 3.36283E-20 7.32080E-19
 -1        22-1.08070E-10 3.24209E-11 3.24209E-11-8.70357E-19-3.20917E-20-7.60944E-19
 -1        23-1.08070E-10 3.24209E-11 3.24209E-11 8.64291E-19-8.28593E-21-6.25508E-19
 -1        24-2.16139E-10 6.48418E-11 6.48418E-11 4.74495E-19 1.74598E-19 2.03097E-18
 -3
    1PSTEP                       103          35           1          
  100CL  135 2.73781E-01          24                     0   35           1
 -4  DISP        4    1
 -5  D1          1    2    1    0
 -5  D2          1    2    2    0
 -5  D3          1    2    3    0
 -5  ALL         1    2    0    0    1ALL
 -1         1 0.00000E+00 0.00000E+00 0.00000E+00
 -1         2-1.11747E-07 0.00000E+00 0.00000E+00
 -1         3-4.10672E+00 0.00000E+00 0.00000E+00
 -1         4-4.10672E+00 0.00000E+00 0.00000E+00
 -1         5-8.21344E+00 0.00000E+00 0.00000E+00
 -1         6-8.21344E+00 0.00000E+00 0.00000E+00
 -1         7 0.00000E+00 3.35242E-08 0.00000E+00
 -1         8-1.11747E-07 3.35242E-08 0.00000E+00
 -1         9-4.10672E+00 3.35242E-08 0.00000E+00
 -1        10-4.10672E+00 3.35242E-08 0.00000E+00
 -1        11-8.21344E+00 3.35242E-08 0.00000E+00
 -1        12-8.21344E+00 3.35242E-08 0.00000E+00
 -1        13 0.00000E+00 0.00000E+00 4.69339E-08
 -1        14-1.11747E-07 0.00000E+00 4.69339E-08
 -1        15-4.10672E+00 0.00000E+00 4.69339E-08
 -1        16-4.10672E+00 0.00000E+00 4.69339E-08
 -1        17-8.21344E+00 0.00000E+00 4.69339E-08
 -1        18-8.21344E+00 0.00000E+00 4.69339E-08
 -1        19 0.00000E+00 3.35242E-08 4.69339E-08
 -1        20-1.11747E-07 3.35242E-08 4.69339E-08
 -1        21-4.10672E+00 3.35242E-08 4.69339E-08
 -1        22-4.10672E+00 3.35242E-08 4.69339E-08
 -1        23-8.21344E+00 3.35242E-08 4.69339E-08
 -1        24-8.21344E+00 3.35242E-08 4.69339E-08
 -3
    1PSTEP                       104          35           1          
  100CL  135 2.73781E-01          24                     0   35           1
 -4  STRESS      6    1
 -5  SXX         1    4    1    1
 -5  SYY         1    4    2    2
 -5  SZZ         1    4    3    3
 -5  SXY         1    4    1    2
 -5  SYZ         1    4    2    3
 -5  SZX         1    4    3    1
 -1         1-4.69320E-05 3.38813E-21 3.38813E-21 5.87715E-24 3.84736E-23 5.87570E-23
 -1         2-2.34660E-05-6.32225E-21 2.48032E-21 5.49375E-21-4.15179E-23-4.85465E-21
 -1         3-2.34660E-05-3.57592E-14-4.49090E-14 3.06571E-14 4.68756E-20 4.52795E-14
 -1         4-2.34660E-05-3.91886E-14-3.52958E-14-1.20199E-15-2.91938E-20 3.82042E-14
 -1         5-2.34660E-05-2.03204E-13-2.38017E-13-7.49212E-14 1.71686E-19-1.42530E-13
 -1         6-4.69320E-05-5.53261E-13-4.92630E-13-1.36308E-13 5.31134E-20 9.74986E-14
 -1         7-4.69320E-05 1.72728E-20-6.77613E-21-7.91644E-21 1.01785E-21 1.14163E-22
 -1         8-2.34660E-05-4.46203E-21 7.56245E-21 1.53259E-21 2.94375E-21-5.51201E-21
 -1         9-2.34660E-05-1.66072E-14-2.45192E-15 2.05673E-14-6.06109E-15-1.07201E-13
 -1        10-2.34660E-05-5.30795E-14-6.99387E-14 2.39505E-14 3.21787E-15 1.90087E-14
 -1        11-2.34660E-05 2.99062E-13 3.01954E-13-1.48124E-13-1.18163E-14 7.96290E-14
 -1        12-4.69320E-05 3.26009E-13 2.95030E-13 1.78655E-13 1.14226E-14 8.49098E-14
 -1        13-4.69320E-05-1.47924E-20-8.34863E-21-3.25024E-22-2.13597E-21 6.71803E-21
 -1        14-2.34660E-05-1.66154E-22-3.38806E-21 1.80512E-21-2.40100E-21-1.52501E-21
 -1        15-2.34660E-05 2.72195E-14 3.50408E-14 9.52943E-15 1.63136E-14 2.25439E-14
 -1        16-2.34660E-05 6.92573E-14 6.41400E-14-6.58995E-14-1.45265E-14-8.87013E-15
 -1        17-2.34660E-05 2.12883E-13 2.11157E-13 1.55493E-13 2.63931E-14 8.30478E-15
 -1        18-4.69320E-05 4.50686E-13 4.79333E-13-1.33585E-13-6.41263E-14-1.36551E-13
 -1        19-4.69320E-05-9.07748E-22-1.85129E-20 3.64865E-22-1.15660E-21 5.20758E-21
 -1        20-2.34660E-05 1.69407E-21 1.69407E-21 2.15007E-21 5.84270E-22-2.96530E-21
 -1        21-2.34660E-05-4.22921E-14-1.11657E-14 1.48342E-14 1.02525E-14 1.84822E-14
 -1        22-2.34660E-05-3.32972E-14-5.91665E-14-3.67279E-14-1.13086E-14 1.79745E-14
 -1        23-2.34660E-05-2.89705E-13-2.53727E-13 1.40483E-13 1.45766E-14 9.23100E-15
 -1        24-4.69320E-05-6.79754E-13-7.42715E-13-2.07482E-14-5.27038E-14-4.55823E-14
 -3
    1PSTEP                       105          35           1          
  100CL  135 2.73781E-01          24                     0   35           1
 -4  TOSTRAIN    6    1
 -5  EXX         1    4    1    1
 -5  EYY         1    4    2    2
 -5  EZZ         1    4    3    3
 -5  EXY         1    4    1    2
 -5  EYZ         1    4    2    3
 -5  EZX         1    4    3    1
 -1         1-2.23486E-10 6.70458E-11 6.70458E-11 3.63824E-29 2.38170E-28 3.63734E-28
 -1         2-1.11743E-10 3.35229E-11 3.35229E-11 3.40089E-26-2.57016E-28-3.00526E-26
 -1         3-1.11743E-10 3.35229E-11 3.35229E-11 1.89782E-19 2.90182E-25 2.80302E-19
 -1         4-1.11743E-10 3.35229E-11 3.35229E-11-7.44088E-21-1.80724E-25 2.36502E-19
 -1         5-1.11743E-10 3.35229E-11 3.35229E-11-4.63798E-19 1.06282E-24-8.82326E-19
 -1         6-2.23486E-10 6.70458E-11 6.70458E-11-8.43813E-19 3.28797E-25 6.03563E-19
 -1         7-2.23486E-10 6.70458E-11 6.70458E-11-4.90065E-26 6.30096E-27 7.06723E-28
 -1         8-1.11743E-10 3.35229E-11 3.35229E-11 9.48745E-27 1.82232E-26-3.41220E-26
 -1         9-1.11743E-10 3.35229E-11 3.35229E-11 1.27321E-19-3.75210E-20-6.63628E-19
 -1        10-1.11743E-10 3.35229E-11 3.35229E-11 1.48265E-19 1.99201E-20 1.17673E-19
 -1        11-1.11743E-10 3.35229E-11 3.35229E-11-9.16961E-19-7.31486E-20 4.92941E-19
 -1        12-2.23486E-10 6.70458E-11 6.70458E-11 1.10596E-18 7.07113E-20 5.25632E-19
 -1        13-2.23486E-10 6.70458E-11 6.70458E-11-2.01205E-27-1.32227E-26 4.15878E-26
 -1        14-1.11743E-10 3.35229E-11 3.35229E-11 1.11746E-26-1.48633E-26-9.44055E-27
 -1        15-1.11743E-10 3.35229E-11 3.35229E-11 5.89917E-20 1.00989E-19 1.39558E-19
 -1        16-1.11743E-10 3.35229E-11 3.35229E-11-4.07949E-19-8.99257E-20-5.49103E-20
 -1        17-1.11743E-10 3.35229E-11 3.35229E-11 9.62576E-19 1.63386E-19 5.14105E-20
 -1        18-2.23486E-10 6.70458E-11 6.70458E-11-8.26955E-19-3.96973E-19-8.45314E-19
 -1        19-2.23486E-10 6.70458E-11 6.70458E-11 2.25869E-27-7.15990E-27 3.22374E-26
 -1        20-1.11743E-10 3.35229E-11 3.35229E-11 1.33099E-26 3.61691E-27-1.83566E-26
 -1        21-1.11743E-10 3.35229E-11 3.35229E-11 9.18306E-20 6.34677E-20 1.14413E-19
 -1        22-1.11743E-10 3.35229E-11 3.35229E-11-2.27363E-19-7.00054E-20 1.11271E-19
 -1        23-1.11743E-10 3.35229E-11 3.35229E-11 8.69657E-19 9.02362E-20 5.71443E-20
 -1        24-2.23486E-10 6.70458E-11 6.70458E-11-1.28441E-19-3.26262E-19-2.82176E-19
 -3
    1PSTEP                       106          36           1          
  100CL  136 2.82781E-01          24                     0   36           1
 -4  DISP        4    1
 -5  D1          1    2    1    0
 -5  D2          1    2    2    0
 -5  D3          1    2    3    0
 -5  ALL         1    2    0    0    1ALL
 -1         1 0.00000E+00 0.00000E+00 0.00000E+00
 -1         2-1.15421E-07 0.00000E+00 0.00000E+00
 -1         3-4.24172E+00 0.00000E+00 0.00000E+00
 -1         4-4.24172E+00 0.00000E+00 0.00000E+00
 -1         5-8.48344E+00 0.00000E+00 0.00000E+00
 -1         6-8.48344E+00 0.00000E+00 0.00000E+00
 -1         7 0.00000E+00 3.46263E-08 0.00000E+00
 -1         8-1.15421E-07 3.46263E-08 0.00000E+00
 -1         9-4.24172E+00 3.46263E-08 0.00000E+00
 -1        10-4.24172E+00 3.46263E-08 0.00000E+00
 -1        11-8.48344E+00 3.46263E-08 0.00000E+00
 -1        12-8.48344E+00 3.46263E-08 0.00000E+00
 -1        13 0.00000E+00 0.00000E+00 4.84768E-08
 -1        14-1.15421E-07 0.00000E+00 4.84768E-08
 -1        15-4.24172E+00 0.00000E+00 4.84768E-08
 -1        16-4.24172E+00 0.00000E+00 4.84768E-08
 -1        17-8.48344E+00 0.00000E+00 4.84768E-08
 -1        18-8.48344E+00 0.00000E+00 4.84768E-08
 -1        19 0.00000E+00 3.46263E-08 4.84768E-08
 -1        20-1.15421E-07 3.46263E-08 4.84768E-08
 -1        21-4.24172E+00 3.46263E-08 4.84768E-08
 -1        22-4.24172E+00 3.46263E-08 4.84768E-08
 -1        23-8.48344E+00 3.46263E-08 4.84768E-08
 -1        24-8.48344E+00 3.46263E-08 4.84768E-08
 -3
    1PSTEP                       107          36           1          
  100CL  136 2.82781E-01          24                     0   36           1
 -4  STRESS      6    1
 -5  SXX         1    4    1    1
 -5  SYY         1    4    2    2
 -5  SZZ         1    4    3    3
 -5  SXY         1    4    1    2
 -5  SYZ         1    4    2    3
 -5  SZX         1    4    3    1
 -1         1-4.84748E-05-5.53607E-21-1.52791E-21-6.49320E-22 1.98397E-23-1.16141E-22
 -1         2-2.42374E-05-1.37185E-20-8.38712E-21 5.10043E-21 8.41424E-23 2.78708E-21
 -1         3-2.42374E-05-2.86099E-14-3.97996E-14 1.38084E-14 1.00344E-20 2.34735E-14
 -1         4-2.42374E-05-2.62532E-14-1.81066E-14 9.13719E-15-2.82984E-20 2.56055E-14
 -1         5-2.42374E-05 1.18994E-13 5.04347E-14-3.18372E-14-1.02343E-19-9.22617E-14
 -1         6-4.84748E-05-1.60078E-15 1.36693E-13 2.53898E-13 3.61611E-21-1.78574E-13
 -1         7-4.84748E-05 8.92420E-21 1.98179E-21-4.75119E-21-2.20486E-21 4.91821E-22
 -1         8-2.42374E-05 7.39622E-21 1.04743E-20 3.04950E-21 1.02698E-21-7.46808E-22
 -1         9-2.42374E-05 5.73135E-14 5.56055E-14 3.38742E-15-7.47471E-16-2.99842E-14
 -1        10-2.42374E-05 4.77385E-14 4.94578E-14 3.65345E-14-3.35307E-16 8.15664E-14
 -1        11-2.42374E-05 1.51682E-13 8.67562E-14-6.04683E-14-1.42525E-14 1.06801E-13
 -1        12-4.84748E-05 6.07246E-14 2.02217E-13 4.53633E-14 3.30817E-14 9.38500E-15
 -1        13-4.84748E-05 8.92420E-21 1.80144E-20-4.55399E-22-1.33624E-21-1.37505E-22
 -1        14-2.42374E-05 7.39622E-21 8.32633E-21-2.82762E-21-5.93898E-22 3.63610E-21
 -1        15-2.42374E-05 4.65396E-14 3.74428E-14-7.28962E-14 6.63723E-15 4.24072E-14
 -1        16-2.42374E-05 5.09160E-14 6.00015E-14 4.56307E-14-4.49912E-15 2.90135E-15
 -1        17-2.42374E-05-1.18846E-14-4.05371E-14-9.57552E-14 2.54323E-15 9.92961E-14
 -1        18-4.84748E-05 3.84160E-14 8.40807E-14-1.30293E-13 2.23904E-15 9.94585E-14
 -1        19-4.84748E-05-9.83195E-21-2.55769E-20 1.21683E-21-3.56094E-21 3.68008E-23
 -1        20-2.42374E-05-5.70216E-21-5.16521E-21-1.99151E-21 3.48940E-22-4.18280E-21
 -1        21-2.42374E-05-2.51613E-14-2.47763E-14-5.14895E-14 5.88974E-15 1.85212E-15
 -1        22-2.42374E-05-3.27165E-14-3.00584E-14-4.30253E-14-4.83440E-15-4.19896E-14
 -1        23-2.42374E-05 4.05066E-14 1.54874E-14-1.43777E-13-1.17091E-14 3.42276E-14
 -1        24-4.84748E-05 1.40147E-13 1.89011E-13 2.13914E-13 3.53208E-14-2.40844E-13
 -3
    1PSTEP                       108          36           1          
  100CL  136 2.82781E-01          24                     0   36           1
 -4  TOSTRAIN    6    1
 -5  EXX         1    4    1    1
 -5  EYY         1    4    2    2
 -5  EZZ         1    4    3    3
 -5  EXY         1    4    1    2
 -5  EYZ         1    4    2    3
 -5  EZX         1    4    3    1
 -1         1-2.30833E-10 6.92498E-11 6.92498E-11-4.01960E-27 1.22817E-28-7.18969E-28
 -1         2-1.15416E-10 3.46249E-11 3.46249E-11 3.15741E-26 5.20882E-28 1.72534E-26
 -1         3-1.15416E-10 3.46249E-11 3.46249E-11 8.54803E-20 6.21180E-26 1.45312E-19
 -1         4-1.15416E-10 3.46249E-11 3.46249E-11 5.65636E-20-1.75180E-25 1.58510E-19
 -1         5-1.15416E-10 3.46249E-11 3.46249E-11-1.97088E-19-6.33554E-25-5.71144E-19
 -1         6-2.30833E-10 6.92498E-11 6.92498E-11 1.57175E-18 2.23855E-26-1.10546E-18
 -1         7-2.30833E-10 6.92498E-11 6.92498E-11-2.94121E-26-1.36491E-26 3.04461E-27
 -1         8-1.15416E-10 3.46249E-11 3.46249E-11 1.88778E-26 6.35750E-27-4.62310E-27
 -1         9-1.15416E-10 3.46249E-11 3.46249E-11 2.09697E-20-4.62720E-21-1.85617E-19
 -1        10-1.15416E-10 3.46249E-11 3.46249E-11 2.26166E-19-2.07571E-21 5.04935E-19
 -1        11-1.15416E-10 3.46249E-11 3.46249E-11-3.74328E-19-8.82296E-20 6.61147E-19
 -1        12-2.30833E-10 6.92498E-11 6.92498E-11 2.80820E-19 2.04792E-19 5.80976E-20
 -1        13-2.30833E-10 6.92498E-11 6.92498E-11-2.81913E-27-8.27197E-27-8.51221E-28
 -1        14-1.15416E-10 3.46249E-11 3.46249E-11-1.75043E-26-3.67651E-27 2.25092E-26
 -1        15-1.15416E-10 3.46249E-11 3.46249E-11-4.51262E-19 4.10876E-20 2.62521E-19
 -1        16-1.15416E-10 3.46249E-11 3.46249E-11 2.82476E-19-2.78517E-20 1.79607E-20
 -1        17-1.15416E-10 3.46249E-11 3.46249E-11-5.92771E-19 1.57438E-20 6.14690E-19
 -1        18-2.30833E-10 6.92498E-11 6.92498E-11-8.06578E-19 1.38607E-20 6.15695E-19
 -1        19-2.30833E-10 6.92498E-11 6.92498E-11 7.53273E-27-2.20439E-26 2.27814E-28
 -1        20-1.15416E-10 3.46249E-11 3.46249E-11-1.23284E-26 2.16010E-27-2.58935E-26
 -1        21-1.15416E-10 3.46249E-11 3.46249E-11-3.18744E-19 3.64603E-20 1.14655E-20
 -1        22-1.15416E-10 3.46249E-11 3.46249E-11-2.66347E-19-2.99272E-20-2.59936E-19
 -1        23-1.15416E-10 3.46249E-11 3.46249E-11-8.90048E-19-7.24852E-20 2.11885E-19
 -1        24-2.30833E-10 6.92498E-11 6.92498E-11 1.32423E-18 2.18652E-19-1.49094E-18
 -3
    1PSTEP                       109          37           1          
  100CL  137 2.91781E-01          24                     0   37           1
 -4  DISP        4    1
 -5  D1          1    2    1    0
 -5  D2          1    2    2    0
 -5  D3          1    2    3    0
 -5  ALL         1    2    0    0    1ALL
 -1         1 0.00000E+00 0.00000E+00 0.00000E+00
 -1         2-1.19094E-07 0.00000E+00 0.00000E+00
 -1         3-4.37672E+00 0.00000E+00 0.00000E+00
 -1         4-4.37672E+00 0.00000E+00 0.00000E+00
 -1         5-8.75344E+00 0.00000E+00 0.00000E+00
 -1         6-8.75344E+00 0.00000E+00 0.00000E+00
 -1         7 0.00000E+00 3.57283E-08 0.00000E+00
 -1         8-1.19094E-07 3.57283E-08 0.00000E+00
 -1         9-4.37672E+00 3.57283E-08 0.00000E+00
 -1        10-4.37672E+00 3.57283E-08 0.00000E+00
 -1        11-8.75344E+00 3.57283E-08 0.00000E+00
 -1        12-8.75344E+00 3.57283E-08 0.00000E+00
 -1        13 0.00000E+00 0.00000E+00 5.00196E-08
 -1        14-1.19094E-07 0.00000E+00 5.00196E-08
 -1        15-4.37672E+00 0.00000E+00 5.00196E-08
 -1        16-4.37672E+00 0.00000E+00 5.00196E-08
 -1        17-8.75344E+00 0.00000E+00 5.00196E-08
 -1        18-8.75344E+00 0.00000E+00 5.00196E-08
 -1        19 0.00000E+00 3.57283E-08 5.00196E-08
 -1        20-1.19094E-07 3.57283E-08 5.00196E-08
 -1        21-4.37672E+00 3.57283E-08 5.00196E-08
 -1        22-4.37672E+00 3.57283E-08 5.00196E-08
 -1        23-8.75344E+00 3.57283E-08 5.00196E-08
 -1        24-8.75344E+00 3.57283E-08 5.00196E-08
 -3
    1PSTEP                       110          37           1          
  100CL  137 2.91781E-01          24                     0   37           1
 -4  STRESS      6    1
 -5  SXX         1    4    1    1
 -5  SYY         1    4    2    2
 -5  SZZ         1    4    3    3
 -5  SXY         1    4    1    2
 -5  SYZ         1    4    2    3
 -5  SZX         1    4    3    1
 -1         1-5.00176E-05 5.08193E-21 1.15706E-20 1.36325E-21-3.18118E-22 1.73191E-21
 -1         2-2.50088E-05 1.16313E-20 4.31824E-21-4.60018E-21 2.04347E-23-5.74974E-21
 -1         3-2.50088E-05-1.08427E-13-1.10994E-13-4.29321E-15 1.80756E-20 3.11642E-14
 -1         4-2.50088E-05-9.76967E-14-1.09459E-13 6.85594E-14-2.94914E-20-7.48708E-14
 -1         5-2.50088E-05 8.09003E-14 1.41429E-14 7.32687E-15-1.47919E-19-1.01449E-14
 -1         6-5.00176E-05-2.98454E-15 9.54831E-14 1.87992E-13-2.34157E-19-1.72904E-13
 -1         7-5.00176E-05-2.48353E-20-1.54125E-20 2.65877E-21 1.12365E-21-3.08750E-21
 -1         8-2.50088E-05 5.47515E-21-2.23102E-21-3.95242E-21-5.30939E-22 4.43011E-21
 -1         9-2.50088E-05 1.79158E-13 1.92246E-13-1.63433E-14-3.91645E-15 6.34221E-14
 -1        10-2.50088E-05 1.74145E-13 1.57049E-13 1.30214E-13-2.63280E-15 8.29150E-16
 -1        11-2.50088E-05 4.98597E-14 4.23358E-14-3.08864E-14-3.81545E-14 1.38225E-14
 -1        12-5.00176E-05-2.02791E-13-1.69490E-13 1.52603E-13 7.03108E-14 1.17307E-13
 -1        13-5.00176E-05-7.86318E-22-7.39616E-21-4.46390E-22 3.34538E-21 3.20993E-21
 -1        14-2.50088E-05 2.25324E-21-3.30499E-21 2.91148E-21-3.98732E-22-3.57790E-21
 -1        15-2.50088E-05 1.25474E-13 1.33873E-13 4.51639E-14 1.09592E-14-2.53180E-14
 -1        16-2.50088E-05 1.42494E-13 1.38103E-13 2.75291E-14-3.73373E-15 1.81364E-13
 -1        17-2.50088E-05-4.50144E-14-4.93941E-15-1.21125E-13 4.14633E-14-1.54051E-13
 -1        18-5.00176E-05 4.63623E-13 3.65220E-13-1.60276E-15-4.56167E-14 2.54433E-13
 -1        19-5.00176E-05 1.73941E-20-1.66154E-22 6.62000E-23 4.78715E-21 2.62631E-21
 -1        20-2.50088E-05 2.54103E-21-1.55014E-21 3.16777E-21-9.50106E-22 1.93954E-21
 -1        21-2.50088E-05-1.38627E-13-1.14572E-13 7.57770E-14 7.04273E-15 9.41840E-15
 -1        22-2.50088E-05-1.37349E-13-1.47074E-13-6.15360E-14-6.36650E-15-7.03459E-14
 -1        23-2.50088E-05-9.57580E-14 3.55038E-15-2.30497E-14 3.30888E-15-6.00817E-14
 -1        24-5.00176E-05 2.24411E-13 6.08412E-14-8.29273E-14 2.46943E-14-8.88829E-14
 -3
    1PSTEP                       111          37           1          
  100CL  137 2.91781E-01          24                     0   37           1
 -4  TOSTRAIN    6    1
 -5  EXX         1    4    1    1
 -5  EYY         1    4    2    2
 -5  EZZ         1    4    3    3
 -5  EXY         1    4    1    2
 -5  EYZ         1    4    2    3
 -5  EZX         1    4    3    1
 -1         1-2.38179E-10 7.14538E-11 7.14538E-11 8.43918E-27-1.96930E-27 1.07213E-26
 -1         2-1.19090E-10 3.57269E-11 3.57269E-11-2.84773E-26 1.26500E-28-3.55936E-26
 -1         3-1.19090E-10 3.57269E-11 3.57269E-11-2.65770E-20 1.11897E-25 1.92921E-19
 -1         4-1.19090E-10 3.57269E-11 3.57269E-11 4.24415E-19-1.82566E-25-4.63486E-19
 -1         5-1.19090E-10 3.57269E-11 3.57269E-11 4.53568E-20-9.15687E-25-6.28019E-20
 -1         6-2.38179E-10 7.14538E-11 7.14538E-11 1.16376E-18-1.44954E-24-1.07036E-18
 -1         7-2.38179E-10 7.14538E-11 7.14538E-11 1.64591E-26 6.95593E-27-1.91131E-26
 -1         8-1.19090E-10 3.57269E-11 3.57269E-11-2.44673E-26-3.28677E-27 2.74245E-26
 -1         9-1.19090E-10 3.57269E-11 3.57269E-11-1.01173E-19-2.42447E-20 3.92613E-19
 -1        10-1.19090E-10 3.57269E-11 3.57269E-11 8.06085E-19-1.62983E-20 5.13283E-21
 -1        11-1.19090E-10 3.57269E-11 3.57269E-11-1.91202E-19-2.36195E-19 8.55676E-20
 -1        12-2.38179E-10 7.14538E-11 7.14538E-11 9.44686E-19 4.35257E-19 7.26186E-19
 -1        13-2.38179E-10 7.14538E-11 7.14538E-11-2.76337E-27 2.07095E-26 1.98710E-26
 -1        14-1.19090E-10 3.57269E-11 3.57269E-11 1.80234E-26-2.46834E-27-2.21489E-26
 -1        15-1.19090E-10 3.57269E-11 3.57269E-11 2.79586E-19 6.78426E-20-1.56731E-19
 -1        16-1.19090E-10 3.57269E-11 3.57269E-11 1.70418E-19-2.31135E-20 1.12273E-18
 -1        17-1.19090E-10 3.57269E-11 3.57269E-11-7.49820E-19 2.56677E-19-9.53649E-19
 -1        18-2.38179E-10 7.14538E-11 7.14538E-11-9.92183E-21-2.82389E-19 1.57506E-18
 -1        19-2.38179E-10 7.14538E-11 7.14538E-11 4.09809E-28 2.96347E-26 1.62581E-26
 -1        20-1.19090E-10 3.57269E-11 3.57269E-11 1.96100E-26-5.88161E-27 1.20067E-26
 -1        21-1.19090E-10 3.57269E-11 3.57269E-11 4.69096E-19 4.35979E-20 5.83044E-20
 -1        22-1.19090E-10 3.57269E-11 3.57269E-11-3.80937E-19-3.94117E-20-4.35475E-19
 -1        23-1.19090E-10 3.57269E-11 3.57269E-11-1.42689E-19 2.04835E-20-3.71934E-19
 -1        24-2.38179E-10 7.14538E-11 7.14538E-11-5.13359E-19 1.52869E-19-5.50228E-19
 -3
    1PSTEP                       112          38           1          
  100CL  138 3.00781E-01          24                     0   38           1
 -4  DISP        4    1
 -5  D1          1    2    1    0
 -5  D2          1    2    2    0
 -5  D3          1    2    3    0
 -5  ALL         1    2    0    0    1ALL
 -1         1 0.00000E+00 0.00000E+00 0.00000E+00
 -1         2-1.22768E-07 0.00000E+00 0.00000E+00
 -1         3-4.51172E+00 0.00000E+00 0.00000E+00
 -1         4-4.51172E+00 0.00000E+00 0.00000E+00
 -1         5-9.02344E+00 0.00000E+00 0.00000E+00
 -1         6-9.02344E+00 0.00000E+00 0.00000E+00
 -1         7 0.00000E+00 3.68304E-08 0.00000E+00
 -1         8-1.22768E-07 3.68304E-08 0.00000E+00
 -1         9-4.51172E+00 3.68304E-08 0.00000E+00
 -1        10-4.51172E+00 3.68304E-08 0.00000E+00
 -1        11-9.02344E+00 3.68304E-08 0.00000E+00
 -1        12-9.02344E+00 3.68304E-08 0.00000E+00
 -1        13 0.00000E+00 0.00000E+00 5.15625E-08
 -1        14-1.22768E-07 0.00000E+00 5.15625E-08
 -1        15-4.51172E+00 0.00000E+00 5.15625E-08
 -1        16-4.51172E+00 0.00000E+00 5.15625E-08
 -1        17-9.02344E+00 0.00000E+00 5.15625E-08
 -1        18-9.02344E+00 0.00000E+00 5.15625E-08
 -1        19 0.00000E+00 3.68304E-08 5.15625E-08
 -1        20-1.22768E-07 3.68304E-08 5.15625E-08
 -1        21-4.51172E+00 3.68304E-08 5.15625E-08
 -1        22-4.51172E+00 3.68304E-08 5.15625E-08
 -1        23-9.02344E+00 3.68304E-08 5.15625E-08
 -1        24-9.02344E+00 3.68304E-08 5.15625E-08
 -3
    1PSTEP                       113          38           1          
  100CL  138 3.00781E-01          24                     0   38           1
 -4  STRESS      6    1
 -5  SXX         1    4    1    1
 -5  SYY         1    4    2    2
 -5  SZZ         1    4    3    3
 -5  SXY         1    4    1    2
 -5  SYZ         1    4    2    3
 -5  SZX         1    4    3    1
 -1         1-5.15604E-05-1.98745E-20-1.35523E-20-5.78427E-22-6.04533E-23-4.40110E-22
 -1         2-2.57802E-05-6.07153E-23 2.02644E-21 5.40106E-21 1.12678E-22-9.57870E-22
 -1         3-2.57802E-05 1.15653E-13 9.52124E-14 1.94387E-14 1.88840E-20-3.79883E-14
 -1         4-2.57802E-05 9.55869E-14 1.02908E-13-9.88164E-14-1.90709E-20 2.29662E-15
 -1         5-2.57802E-05 2.42012E-13 1.99163E-13 5.40008E-14-1.01491E-19 2.32301E-13
 -1         6-5.15604E-05 4.06634E-13 4.29960E-13-1.92914E-13 1.70341E-19-3.20017E-14
 -1         7-5.15604E-05 6.32239E-21 4.62832E-21-6.50455E-22-1.46678E-21-5.26416E-22
 -1         8-2.57802E-05 1.30377E-20 1.61989E-20 5.36504E-21 2.73696E-21-5.53099E-21
 -1         9-2.57802E-05-1.41602E-14-1.45729E-14 3.36035E-14-8.68552E-15 1.24480E-13
 -1        10-2.57802E-05-5.76062E-14-6.14290E-14-8.52956E-14 2.48718E-15-1.40097E-13
 -1        11-2.57802E-05 1.32081E-13 8.02532E-14-4.20870E-14-1.96087E-14-1.86293E-14
 -1        12-5.15604E-05 2.46665E-13 3.31893E-13 3.73674E-13 1.03606E-14 2.15973E-13
 -1        13-5.15604E-05-9.13481E-21-8.68093E-21 7.85496E-22-5.15442E-22 4.08097E-21
 -1        14-2.57802E-05 2.27005E-22-6.20028E-22-8.00968E-21 9.61709E-22 2.44893E-21
 -1        15-2.57802E-05-2.62381E-14-2.23597E-14 6.50774E-14 1.40199E-14 2.49901E-15
 -1        16-2.57802E-05 8.44172E-15 8.79888E-15 5.12611E-14-7.80093E-15-5.93785E-15
 -1        17-2.57802E-05 8.82347E-14 1.00289E-13 9.27908E-14-6.28479E-15-1.07438E-13
 -1        18-5.15604E-05 3.42009E-13 3.36326E-13 9.17445E-14 4.33317E-14-1.19269E-13
 -1        19-5.15604E-05-2.35949E-20-3.11574E-20 4.53024E-21-1.92177E-21 4.52560E-21
 -1        20-2.57802E-05-7.00307E-21-6.77613E-21-6.13731E-21 3.58599E-21-7.28295E-21
 -1        21-2.57802E-05-1.16646E-13-9.27389E-14-1.74105E-14 5.33432E-15-1.72261E-14
 -1        22-2.57802E-05-1.05345E-13-1.16132E-13 2.25560E-15-5.31373E-15-6.88886E-14
 -1        23-2.57802E-05-1.79321E-13-1.76244E-13 1.61217E-13-2.58933E-14 3.72884E-13
 -1        24-5.15604E-05-1.33208E-13-7.69891E-14-2.41188E-13 5.36921E-14-9.23560E-14
 -3
    1PSTEP                       114          38           1          
  100CL  138 3.00781E-01          24                     0   38           1
 -4  TOSTRAIN    6    1
 -5  EXX         1    4    1    1
 -5  EYY         1    4    2    2
 -5  EZZ         1    4    3    3
 -5  EXY         1    4    1    2
 -5  EYZ         1    4    2    3
 -5  EZX         1    4    3    1
 -1         1-2.45526E-10 7.36578E-11 7.36578E-11-3.58074E-27-3.74235E-28-2.72449E-27
 -1         2-1.22763E-10 3.68289E-11 3.68289E-11 3.34351E-26 6.97529E-28-5.92967E-27
 -1         3-1.22763E-10 3.68289E-11 3.68289E-11 1.20335E-19 1.16901E-25-2.35166E-19
 -1         4-1.22763E-10 3.68289E-11 3.68289E-11-6.11721E-19-1.18058E-25 1.42172E-20
 -1         5-1.22763E-10 3.68289E-11 3.68289E-11 3.34290E-19-6.28280E-25 1.43806E-18
 -1         6-2.45526E-10 7.36578E-11 7.36578E-11-1.19423E-18 1.05449E-24-1.98106E-19
 -1         7-2.45526E-10 7.36578E-11 7.36578E-11-4.02663E-27-9.08008E-27-3.25877E-27
 -1         8-1.22763E-10 3.68289E-11 3.68289E-11 3.32122E-26 1.69431E-26-3.42394E-26
 -1         9-1.22763E-10 3.68289E-11 3.68289E-11 2.08022E-19-5.37675E-20 7.70588E-19
 -1        10-1.22763E-10 3.68289E-11 3.68289E-11-5.28020E-19 1.53968E-20-8.67265E-19
 -1        11-1.22763E-10 3.68289E-11 3.68289E-11-2.60539E-19-1.21387E-19-1.15324E-19
 -1        12-2.45526E-10 7.36578E-11 7.36578E-11 2.31322E-18 6.41371E-20 1.33698E-18
 -1        13-2.45526E-10 7.36578E-11 7.36578E-11 4.86259E-27-3.19083E-27 2.52631E-26
 -1        14-1.22763E-10 3.68289E-11 3.68289E-11-4.95838E-26 5.95344E-27 1.51601E-26
 -1        15-1.22763E-10 3.68289E-11 3.68289E-11 4.02860E-19 8.67896E-20 1.54701E-20
 -1        16-1.22763E-10 3.68289E-11 3.68289E-11 3.17330E-19-4.82915E-20-3.67581E-20
 -1        17-1.22763E-10 3.68289E-11 3.68289E-11 5.74419E-19-3.89058E-20-6.65093E-19
 -1        18-2.45526E-10 7.36578E-11 7.36578E-11 5.67942E-19 2.68244E-19-7.38329E-19
 -1        19-2.45526E-10 7.36578E-11 7.36578E-11 2.80444E-26-1.18967E-26 2.80156E-26
 -1        20-1.22763E-10 3.68289E-11 3.68289E-11-3.79929E-26 2.21990E-26-4.50850E-26
 -1        21-1.22763E-10 3.68289E-11 3.68289E-11-1.07779E-19 3.30220E-20-1.06638E-19
 -1        22-1.22763E-10 3.68289E-11 3.68289E-11 1.39632E-20-3.28945E-20-4.26454E-19
 -1        23-1.22763E-10 3.68289E-11 3.68289E-11 9.98012E-19-1.60292E-19 2.30833E-18
 -1        24-2.45526E-10 7.36578E-11 7.36578E-11-1.49307E-18 3.32380E-19-5.71728E-19
 -3
    1PSTEP                       115          39           1          
  100CL  139 3.09781E-01          24                     0   39           1
 -4  DISP        4    1
 -5  D1          1    2    1    0
 -5  D2          1    2    2    0
 -5  D3          1    2    3    0
 -5  ALL         1    2    0    0    1ALL
 -1         1 0.00000E+00 0.00000E+00 0.00000E+00
 -1         2-1.26441E-07 0.00000E+00 0.00000E+00
 -1         3-4.64672E+00 0.00000E+00 0.00000E+00
 -1         4-4.64672E+00 0.00000E+00 0.00000E+00
 -1         5-9.29344E+00 0.00000E+00 0.00000E+00
 -1         6-9.29344E+00 0.00000E+00 0.00000E+00
 -1         7 0.00000E+00 3.79324E-08 0.00000E+00
 -1         8-1.26441E-07 3.79324E-08 0.00000E+00
 -1         9-4.64672E+00 3.79324E-08 0.00000E+00
 -1        10-4.64672E+00 3.79324E-08 0.00000E+00
 -1        11-9.29344E+00 3.79324E-08 0.00000E+00
 -1        12-9.29344E+00 3.79324E-08 0.00000E+00
 -1        13 0.00000E+00 0.00000E+00 5.31054E-08
 -1        14-1.26441E-07 0.00000E+00 5.31054E-08
 -1        15-4.64672E+00 0.00000E+00 5.31054E-08
 -1        16-4.64672E+00 0.00000E+00 5.31054E-08
 -1        17-9.29344E+00 0.00000E+00 5.31054E-08
 -1        18-9.29344E+00 0.00000E+00 5.31054E-08
 -1        19 0.00000E+00 3.79324E-08 5.31054E-08
 -1        20-1.26441E-07 3.79324E-08 5.31054E-08
 -1        21-4.64672E+00 3.79324E-08 5.31054E-08
 -1        22-4.64672E+00 3.79324E-08 5.31054E-08
 -1        23-9.29344E+00 3.79324E-08 5.31054E-08
 -1        24-9.29344E+00 3.79324E-08 5.31054E-08
 -3
    1PSTEP                       116          39           1          
  100CL  139 3.09781E-01          24                     0   39           1
 -4  STRESS      6    1
 -5  SXX         1    4    1    1
 -5  SYY         1    4    2    2
 -5  SZZ         1    4    3    3
 -5  SXY         1    4    1    2
 -5  SYZ         1    4    2    3
 -5  SZX         1    4    3    1
 -1         1-5.31032E-05-8.47033E-21-3.50970E-21-4.99763E-22 3.53001E-22-1.00212E-21
 -1         2-2.65516E-05-3.16113E-21-7.33544E-21 5.44039E-21 1.93660E-23 1.03705E-20
 -1         3-2.65516E-05-4.43637E-14-5.17715E-14 3.75007E-14-4.19740E-20-6.31653E-14
 -1         4-2.65516E-05-6.64248E-14-5.81414E-14 8.64603E-14 7.69123E-21 3.96495E-14
 -1         5-2.65516E-05-2.62323E-13-1.94591E-13-1.11493E-13-6.80495E-20-1.75499E-13
 -1         6-5.31032E-05-3.57165E-13-4.22840E-13 2.74269E-13-2.49169E-19-2.36552E-13
 -1         7-5.31032E-05 1.21566E-22-7.86182E-22-1.59181E-21-6.20878E-21-6.03197E-22
 -1         8-2.65516E-05 4.85513E-21-2.25338E-21 4.89436E-21-2.83645E-22 1.37057E-21
 -1         9-2.65516E-05 1.56378E-13 1.42124E-13 1.57037E-14-1.16911E-15 9.94028E-14
 -1        10-2.65516E-05 1.45603E-13 1.62089E-13 1.35792E-13 2.27868E-15-3.13429E-14
 -1        11-2.65516E-05 1.99966E-14 8.67483E-14 3.35501E-14 1.44102E-14 2.19525E-13
 -1        12-5.31032E-05 1.91215E-13 1.01901E-13-8.67501E-14 1.18861E-14-7.58029E-14
 -1        13-5.31032E-05 3.84201E-21 2.48353E-20 7.48192E-22 3.27495E-21-6.52541E-21
 -1        14-2.65516E-05 1.17975E-20 5.47522E-21-8.02834E-21 2.01049E-22 7.60887E-21
 -1        15-2.65516E-05-3.47411E-15-7.60852E-15-4.51399E-14-4.79248E-15-3.17276E-14
 -1        16-2.65516E-05-8.64135E-15-6.73816E-15 1.07787E-13 5.74136E-15 3.45569E-14
 -1        17-2.65516E-05 3.36722E-16 2.77199E-14 1.97804E-13-6.86146E-16-1.43364E-13
 -1        18-5.31032E-05 8.51766E-14-1.37799E-14-1.78573E-13-1.65472E-14 9.16232E-14
 -1        19-5.31032E-05-4.54010E-22 1.46709E-20 5.62597E-21-1.14785E-21-8.86673E-21
 -1        20-2.65516E-05-4.23510E-21-1.34915E-20-5.58945E-21-3.88528E-22-2.76119E-21
 -1        21-2.65516E-05 1.38159E-13 1.27178E-13-5.00906E-14-5.96155E-15 1.94642E-14
 -1        22-2.65516E-05 1.44278E-13 1.54383E-13 1.17087E-13 8.02003E-15-6.81836E-14
 -1        23-2.65516E-05-2.49326E-13-2.22923E-13 5.44103E-15 1.37241E-14-1.09983E-13
 -1        24-5.31032E-05-4.30407E-13-5.53002E-13-1.22361E-13-4.66084E-15 3.93623E-13
 -3
    1PSTEP                       117          39           1          
  100CL  139 3.09781E-01          24                     0   39           1
 -4  TOSTRAIN    6    1
 -5  EXX         1    4    1    1
 -5  EYY         1    4    2    2
 -5  EZZ         1    4    3    3
 -5  EXY         1    4    1    2
 -5  EYZ         1    4    2    3
 -5  EZX         1    4    3    1
 -1         1-2.52873E-10 7.58618E-11 7.58618E-11-3.09377E-27 2.18524E-27-6.20360E-27
 -1         2-1.26436E-10 3.79309E-11 3.79309E-11 3.36786E-26 1.19885E-28 6.41984E-26
 -1         3-1.26436E-10 3.79309E-11 3.79309E-11 2.32147E-19-2.59839E-25-3.91023E-19
 -1         4-1.26436E-10 3.79309E-11 3.79309E-11 5.35230E-19 4.76124E-26 2.45449E-19
 -1         5-1.26436E-10 3.79309E-11 3.79309E-11-6.90193E-19-4.21259E-25-1.08642E-18
 -1         6-2.52873E-10 7.58618E-11 7.58618E-11 1.69786E-18-1.54247E-24-1.46437E-18
 -1         7-2.52873E-10 7.58618E-11 7.58618E-11-9.85408E-27-3.84353E-26-3.73407E-27
 -1         8-1.26436E-10 3.79309E-11 3.79309E-11 3.02984E-26-1.75590E-27 8.48450E-27
 -1         9-1.26436E-10 3.79309E-11 3.79309E-11 9.72133E-20-7.23736E-21 6.15351E-19
 -1        10-1.26436E-10 3.79309E-11 3.79309E-11 8.40616E-19 1.41061E-20-1.94028E-19
 -1        11-1.26436E-10 3.79309E-11 3.79309E-11 2.07691E-19 8.92057E-20 1.35896E-18
 -1        12-2.52873E-10 7.58618E-11 7.58618E-11-5.37025E-19 7.35805E-20-4.69256E-19
 -1        13-2.52873E-10 7.58618E-11 7.58618E-11 4.63166E-27 2.02735E-26-4.03954E-26
 -1        14-1.26436E-10 3.79309E-11 3.79309E-11-4.96992E-26 1.24459E-27 4.71025E-26
 -1        15-1.26436E-10 3.79309E-11 3.79309E-11-2.79437E-19-2.96678E-20-1.96409E-19
 -1        16-1.26436E-10 3.79309E-11 3.79309E-11 6.67251E-19 3.55418E-20 2.13923E-19
 -1        17-1.26436E-10 3.79309E-11 3.79309E-11 1.22450E-18-4.24757E-21-8.87492E-19
 -1        18-2.52873E-10 7.58618E-11 7.58618E-11-1.10545E-18-1.02435E-19 5.67191E-19
 -1        19-2.52873E-10 7.58618E-11 7.58618E-11 3.48274E-26-7.10573E-27-5.48893E-26
 -1        20-1.26436E-10 3.79309E-11 3.79309E-11-3.46013E-26-2.40517E-27-1.70931E-26
 -1        21-1.26436E-10 3.79309E-11 3.79309E-11-3.10085E-19-3.69049E-20 1.20493E-19
 -1        22-1.26436E-10 3.79309E-11 3.79309E-11 7.24825E-19 4.96478E-20-4.22089E-19
 -1        23-1.26436E-10 3.79309E-11 3.79309E-11 3.36825E-20 8.49586E-20-6.80847E-19
 -1        24-2.52873E-10 7.58618E-11 7.58618E-11-7.57470E-19-2.88528E-20 2.43671E-18
 -3
    1PSTEP                       118          40           1          
  100CL  140 3.18781E-01          24                     0   40           1
 -4  DISP        4    1
 -5  D1          1    2    1    0
 -5  D2          1    2    2    0
 -5  D3          1    2    3    0
 -5  ALL         1    2    0    0    1ALL
 -1         1 0.00000E+00 0.00000E+00 0.00000E+00
 -1         2-1.30115E-07 0.00000E+00 0.00000E+00
 -1         3-4.78172E+00 0.00000E+00 0.00000E+00
 -1         4-4.78172E+00 0.00000E+00 0.00000E+00
 -1         5-9.56344E+00 0.00000E+00 0.00000E+00
 -1         6-9.56344E+00 0.00000E+00 0.00000E+00
 -1         7 0.00000E+00 3.90344E-08 0.00000E+00
 -1         8-1.30115E-07 3.90344E-08 0.00000E+00
 -1         9-4.78172E+00 3.90344E-08 0.00000E+00
 -1        10-4.78172E+00 3.90344E-08 0.00000E+00
 -1        11-9.56344E+00 3.90344E-08 0.00000E+00
 -1        12-9.56344E+00 3.90344E-08 0.00000E+00
 -1        13 0.00000E+00 0.00000E+00 5.46482E-08
 -1        14-1.30115E-07 0.00000E+00 5.46482E-08
 -1        15-4.78172E+00 0.00000E+00 5.46482E-08
 -1        16-4.78172E+00 0.00000E+00 5.46482E-08
 -1        17-9.56344E+00 0.00000E+00 5.46482E-08
 -1        18-9.56344E+00 0.00000E+00 5.46482E-08
 -1        19 0.00000E+00 3.90344E-08 5.46482E-08
 -1        20-1.30115E-07 3.90344E-08 5.46482E-08
 -1        21-4.78172E+00 3.90344E-08 5.46482E-08
 -1        22-4.78172E+00 3.90344E-08 5.46482E-08
 -1        23-9.56344E+00 3.90344E-08 5.46482E-08
 -1        24-9.56344E+00 3.90344E-08 5.46482E-08
 -3
    1PSTEP                       119          40           1          
  100CL  140 3.18781E-01          24                     0   40           1
 -4  STRESS      6    1
 -5  SXX         1    4    1    1
 -5  SYY         1    4    2    2
 -5  SZZ         1    4    3    3
 -5  SXY         1    4    1    2
 -5  SYZ         1    4    2    3
 -5  SZX         1    4    3    1
 -1         1-5.46460E-05-5.53607E-21-9.07884E-22-5.87848E-22-2.24912E-22 1.30490E-21
 -1         2-2.73230E-05 4.53942E-22 5.70223E-21-3.18338E-21-6.25907E-23-6.76834E-21
 -1         3-2.73230E-05 2.99583E-14 7.47513E-15-1.03700E-15-1.65146E-20-2.33305E-14
 -1         4-2.73230E-05-1.94563E-15 1.19840E-14 7.93526E-15-4.64022E-20 3.04636E-14
 -1         5-2.73230E-05 1.43845E-13 8.73395E-14 3.25233E-14-1.30959E-19-1.01923E-13
 -1         6-5.46460E-05 9.73048E-14 1.75830E-13-1.63410E-14-9.16456E-20 3.24176E-13
 -1         7-5.46460E-05-5.53594E-21-4.62819E-21-5.37983E-22 1.77081E-21-1.67317E-21
 -1         8-2.73230E-05 9.25644E-21 7.56238E-21-3.15845E-21-4.33904E-23 6.00293E-21
 -1         9-2.73230E-05 1.48325E-14 1.28761E-14-2.27674E-14-8.27699E-15-7.88221E-16
 -1        10-2.73230E-05-4.09023E-14-3.82204E-14 3.29946E-14 5.48122E-15 1.81077E-14
 -1        11-2.73230E-05 1.23159E-13 9.97423E-14-9.00829E-15-2.98870E-14 4.09973E-13
 -1        12-5.46460E-05-1.10330E-14 4.43824E-14-2.24798E-14 5.05227E-14-6.46383E-13
 -1        13-5.46460E-05-4.96050E-21-8.34863E-21-8.92581E-22 4.78253E-22 2.73936E-21
 -1        14-2.73230E-05-5.70223E-21 6.20028E-22 6.05938E-21-1.37473E-21-4.90485E-21
 -1        15-2.73230E-05-4.11198E-14-4.04274E-14-6.89183E-14 1.43687E-14-4.31319E-14
 -1        16-2.73230E-05-5.60836E-15-7.02628E-15 4.59529E-14-7.87344E-15 1.46524E-13
 -1        17-2.73230E-05-4.81034E-14-2.09255E-14-3.09215E-14 2.31620E-14 1.17972E-13
 -1        18-5.46460E-05 2.53862E-13 1.90923E-13 1.70130E-13-1.61773E-14-2.84641E-13
 -1        19-5.46460E-05 1.26445E-20 5.53594E-21-3.48510E-21 2.47397E-21-3.81815E-21
 -1        20-2.73230E-05-5.70216E-21-6.32225E-21 4.76313E-21-1.35553E-21 6.52470E-22
 -1        21-2.73230E-05-4.63941E-14-2.51749E-14-3.77327E-14 6.09177E-15 7.64986E-15
 -1        22-2.73230E-05-3.47135E-14-4.73792E-14-3.53281E-14-2.39218E-15-7.64773E-14
 -1        23-2.73230E-05-6.87894E-14-8.52264E-15 4.32167E-14-6.72488E-15-2.01528E-13
 -1        24-5.46460E-05 1.45524E-13 5.94753E-14 3.13164E-14 3.43455E-14 6.76650E-13
 -3
    1PSTEP                       120          40           1          
  100CL  140 3.18781E-01          24                     0   40           1
 -4  TOSTRAIN    6    1
 -5  EXX         1    4    1    1
 -5  EYY         1    4    2    2
 -5  EZZ         1    4    3    3
 -5  EXY         1    4    1    2
 -5  EYZ         1    4    2    3
 -5  EZX         1    4    3    1
 -1         1-2.60219E-10 7.80657E-11 7.80657E-11-3.63906E-27-1.39231E-27 8.07794E-27
 -1         2-1.30110E-10 3.90329E-11 3.90329E-11-1.97067E-26-3.87466E-28-4.18992E-26
 -1         3-1.30110E-10 3.90329E-11 3.90329E-11-6.41954E-21-1.02233E-25-1.44427E-19
 -1         4-1.30110E-10 3.90329E-11 3.90329E-11 4.91231E-20-2.87252E-25 1.88584E-19
 -1         5-1.30110E-10 3.90329E-11 3.90329E-11 2.01335E-19-8.10701E-25-6.30951E-19
 -1         6-2.60219E-10 7.80657E-11 7.80657E-11-1.01159E-19-5.67330E-25 2.00680E-18
 -1         7-2.60219E-10 7.80657E-11 7.80657E-11-3.33037E-27 1.09621E-26-1.03577E-26
 -1         8-1.30110E-10 3.90329E-11 3.90329E-11-1.95523E-26-2.68607E-28 3.71610E-26
 -1         9-1.30110E-10 3.90329E-11 3.90329E-11-1.40941E-19-5.12385E-20-4.87946E-21
 -1        10-1.30110E-10 3.90329E-11 3.90329E-11 2.04252E-19 3.39314E-20 1.12095E-19
 -1        11-1.30110E-10 3.90329E-11 3.90329E-11-5.57656E-20-1.85015E-19 2.53793E-18
 -1        12-2.60219E-10 7.80657E-11 7.80657E-11-1.39161E-19 3.12760E-19-4.00142E-18
 -1        13-2.60219E-10 7.80657E-11 7.80657E-11-5.52550E-27 2.96061E-27 1.69579E-26
 -1        14-1.30110E-10 3.90329E-11 3.90329E-11 3.75105E-26-8.51023E-27-3.03633E-26
 -1        15-1.30110E-10 3.90329E-11 3.90329E-11-4.26637E-19 8.89494E-20-2.67007E-19
 -1        16-1.30110E-10 3.90329E-11 3.90329E-11 2.84470E-19-4.87404E-20 9.07051E-19
 -1        17-1.30110E-10 3.90329E-11 3.90329E-11-1.91419E-19 1.43384E-19 7.30304E-19
 -1        18-2.60219E-10 7.80657E-11 7.80657E-11 1.05319E-18-1.00145E-19-1.76206E-18
 -1        19-2.60219E-10 7.80657E-11 7.80657E-11-2.15744E-26 1.53151E-26-2.36361E-26
 -1        20-1.30110E-10 3.90329E-11 3.90329E-11 2.94860E-26-8.39138E-27 4.03910E-27
 -1        21-1.30110E-10 3.90329E-11 3.90329E-11-2.33583E-19 3.77110E-20 4.73563E-20
 -1        22-1.30110E-10 3.90329E-11 3.90329E-11-2.18698E-19-1.48087E-20-4.73431E-19
 -1        23-1.30110E-10 3.90329E-11 3.90329E-11 2.67532E-19-4.16302E-20-1.24755E-18
 -1        24-2.60219E-10 7.80657E-11 7.80657E-11 1.93863E-19 2.12615E-19 4.18879E-18
 -3
    1PSTEP                       121          41           1          
  100CL  141 3.27781E-01          24                     0   41           1
 -4  DISP        4    1
 -5  D1          1    2    1    0
 -5  D2          1    2    2    0
 -5  D3          1    2    3    0
 -5  ALL         1    2    0    0    1ALL
 -1         1 0.00000E+00 0.00000E+00 0.00000E+00
 -1         2-1.33788E-07 0.00000E+00 0.00000E+00
 -1         3-4.91672E+00 0.00000E+00 0.00000E+00
 -1         4-4.91672E+00 0.00000E+00 0.00000E+00
 -1         5-9.83344E+00 0.00000E+00 0.00000E+00
 -1         6-9.83344E+00 0.00000E+00 0.00000E+00
 -1         7 0.00000E+00 4.01365E-08 0.00000E+00
 -1         8-1.33788E-07 4.01365E-08 0.00000E+00
 -1         9-4.91672E+00 4.01365E-08 0.00000E+00
 -1        10-4.91672E+00 4.01365E-08 0.00000E+00
 -1        11-9.83344E+00 4.01365E-08 0.00000E+00
 -1        12-9.83344E+00 4.01365E-08 0.00000E+00
 -1        13 0.00000E+00 0.00000E+00 5.61911E-08
 -1        14-1.33788E-07 0.00000E+00 5.61911E-08
 -1        15-4.91672E+00 0.00000E+00 5.61911E-08
 -1        16-4.91672E+00 0.00000E+00 5.61911E-08
 -1        17-9.83344E+00 0.00000E+00 5.61911E-08
 -1        18-9.83344E+00 0.00000E+00 5.61911E-08
 -1        19 0.00000E+00 4.01365E-08 5.61911E-08
 -1        20-1.33788E-07 4.01365E-08 5.61911E-08
 -1        21-4.91672E+00 4.01365E-08 5.61911E-08
 -1        22-4.91672E+00 4.01365E-08 5.61911E-08
 -1        23-9.83344E+00 4.01365E-08 5.61911E-08
 -1        24-9.83344E+00 4.01365E-08 5.61911E-08
 -3
    1PSTEP                       122          41           1          
  100CL  141 3.27781E-01          24                     0   41           1
 -4  STRESS      6    1
 -5  SXX         1    4    1    1
 -5  SYY         1    4    2    2
 -5  SZZ         1    4    3    3
 -5  SXY         1    4    1    2
 -5  SYZ         1    4    2    3
 -5  SZX         1    4    3    1
 -1         1-5.61888E-05-2.93412E-21-4.00816E-21-4.52617E-23-3.45960E-22 6.85504E-22
 -1         2-2.80944E-05-1.34915E-20-3.47121E-21 5.56791E-21-3.33087E-22 3.52395E-21
 -1         3-2.80944E-05 4.99599E-14 1.08648E-14-2.32518E-14-2.87940E-20 1.48185E-14
 -1         4-2.80944E-05 7.43478E-15 4.19484E-14 3.01701E-14-7.89859E-20-8.56371E-14
 -1         5-2.80944E-05-1.02766E-13-1.41493E-13 4.84784E-14-9.13251E-20 5.47446E-14
 -1         6-5.61888E-05-2.19898E-13-1.59035E-13 1.23521E-13-1.64326E-19-3.19804E-13
 -1         7-5.61888E-05 1.30985E-20 9.09022E-21-5.45373E-21-2.94145E-21-4.82186E-22
 -1         8-2.80944E-05-5.47522E-21-3.86430E-21 2.86368E-21 4.80320E-22-8.83700E-22
 -1         9-2.80944E-05 8.96385E-14 8.34729E-14-5.07899E-14-1.29391E-14-1.25415E-13
 -1        10-2.80944E-05 4.55150E-15 1.52453E-14 4.04501E-14 1.29200E-14 1.89097E-13
 -1        11-2.80944E-05-1.13810E-13-1.48031E-13 4.47959E-14 7.02821E-16-3.98506E-14
 -1        12-5.61888E-05-2.32540E-13-1.50069E-13 3.92312E-14-2.32078E-15-3.40572E-14
 -1        13-5.61888E-05 7.86318E-22 1.28107E-20-1.48998E-22 2.20370E-21 2.66731E-22
 -1        14-2.80944E-05 3.61507E-21 3.07805E-21-3.29190E-21-2.98835E-23 3.60113E-21
 -1        15-2.80944E-05-2.12113E-14-2.40769E-14-6.36066E-15 2.30506E-14-2.37301E-14
 -1        16-2.80944E-05 6.29736E-14 6.13110E-14 3.89057E-14-1.66740E-14 6.74814E-14
 -1        17-2.80944E-05-6.82431E-14-1.08938E-13-2.41590E-13 3.15433E-15-4.96110E-14
 -1        18-5.61888E-05-1.69112E-13-1.01751E-13-8.12607E-15 1.51253E-14 3.40482E-13
 -1        19-5.61888E-05-3.50956E-21 1.86022E-21 1.58675E-21-2.53077E-21-5.23559E-22
 -1        20-2.80944E-05 1.46713E-21-5.37019E-22-2.42402E-21 1.07009E-21-1.97388E-21
 -1        21-2.80944E-05 2.83189E-14 5.83827E-14 3.35546E-14 1.01115E-14 8.64940E-14
 -1        22-2.80944E-05 6.99418E-14 4.44594E-14-3.12417E-14-3.75386E-15-2.83236E-13
 -1        23-2.80944E-05-1.18693E-13-1.54882E-13-2.86343E-13 3.85724E-15 2.29024E-13
 -1        24-5.61888E-05-2.60566E-13-1.71597E-13 1.89458E-13 1.28047E-14-1.28869E-13
 -3
    1PSTEP                       123          41           1          
  100CL  141 3.27781E-01          24                     0   41           1
 -4  TOSTRAIN    6    1
 -5  EXX         1    4    1    1
 -5  EYY         1    4    2    2
 -5  EZZ         1    4    3    3
 -5  EXY         1    4    1    2
 -5  EYZ         1    4    2    3
 -5  EZX         1    4    3    1
 -1         1-2.67566E-10 8.02697E-11 8.02697E-11-2.80192E-28-2.14165E-27 4.24360E-27
 -1         2-1.33783E-10 4.01349E-11 4.01349E-11 3.44680E-26-2.06197E-27 2.18149E-26
 -1         3-1.33783E-10 4.01349E-11 4.01349E-11-1.43939E-19-1.78249E-25 9.17338E-20
 -1         4-1.33783E-10 4.01349E-11 4.01349E-11 1.86767E-19-4.88960E-25-5.30134E-19
 -1         5-1.33783E-10 4.01349E-11 4.01349E-11 3.00104E-19-5.65346E-25 3.38895E-19
 -1         6-2.67566E-10 8.02697E-11 8.02697E-11 7.64652E-19-1.01726E-24-1.97974E-18
 -1         7-2.67566E-10 8.02697E-11 8.02697E-11-3.37612E-26-1.82090E-26-2.98496E-27
 -1         8-1.33783E-10 4.01349E-11 4.01349E-11 1.77275E-26 2.97341E-27-5.47052E-27
 -1         9-1.33783E-10 4.01349E-11 4.01349E-11-3.14414E-19-8.00993E-20-7.76379E-19
 -1        10-1.33783E-10 4.01349E-11 4.01349E-11 2.50406E-19 7.99811E-20 1.17060E-18
 -1        11-1.33783E-10 4.01349E-11 4.01349E-11 2.77308E-19 4.35079E-21-2.46694E-19
 -1        12-2.67566E-10 8.02697E-11 8.02697E-11 2.42860E-19-1.43667E-20-2.10830E-19
 -1        13-2.67566E-10 8.02697E-11 8.02697E-11-9.22371E-28 1.36420E-26 1.65119E-27
 -1        14-1.33783E-10 4.01349E-11 4.01349E-11-2.03784E-26-1.84993E-28 2.22927E-26
 -1        15-1.33783E-10 4.01349E-11 4.01349E-11-3.93755E-20 1.42694E-19-1.46901E-19
 -1        16-1.33783E-10 4.01349E-11 4.01349E-11 2.40845E-19-1.03220E-19 4.17742E-19
 -1        17-1.33783E-10 4.01349E-11 4.01349E-11-1.49556E-18 1.95268E-20-3.07116E-19
 -1        18-2.67566E-10 8.02697E-11 8.02697E-11-5.03043E-20 9.36328E-20 2.10775E-18
 -1        19-2.67566E-10 8.02697E-11 8.02697E-11 9.82275E-27-1.56667E-26-3.24108E-27
 -1        20-1.33783E-10 4.01349E-11 4.01349E-11-1.50059E-26 6.62436E-27-1.22193E-26
 -1        21-1.33783E-10 4.01349E-11 4.01349E-11 2.07719E-19 6.25950E-20 5.35439E-19
 -1        22-1.33783E-10 4.01349E-11 4.01349E-11-1.93401E-19-2.32382E-20-1.75337E-18
 -1        23-1.33783E-10 4.01349E-11 4.01349E-11-1.77260E-18 2.38781E-20 1.41777E-18
 -1        24-2.67566E-10 8.02697E-11 8.02697E-11 1.17283E-18 7.92671E-20-7.97761E-19
 -3
    1PSTEP                       124          42           1          
  100CL  142 3.36781E-01          24                     0   42           1
 -4  DISP        4    1
 -5  D1          1    2    1    0
 -5  D2          1    2    2    0
 -5  D3          1    2    3    0
 -5  ALL         1    2    0    0    1ALL
 -1         1 0.00000E+00 0.00000E+00 0.00000E+00
 -1         2-1.37462E-07 0.00000E+00 0.00000E+00
 -1         3-5.05172E+00 0.00000E+00 0.00000E+00
 -1         4-5.05172E+00 0.00000E+00 0.00000E+00
 -1         5-1.01034E+01 0.00000E+00 0.00000E+00
 -1         6-1.01034E+01 0.00000E+00 0.00000E+00
 -1         7 0.00000E+00 4.12385E-08 0.00000E+00
 -1         8-1.37462E-07 4.12385E-08 0.00000E+00
 -1         9-5.05172E+00 4.12385E-08 0.00000E+00
 -1        10-5.05172E+00 4.12385E-08 0.00000E+00
 -1        11-1.01034E+01 4.12385E-08 0.00000E+00
 -1        12-1.01034E+01 4.12385E-08 0.00000E+00
 -1        13 0.00000E+00 0.00000E+00 5.77339E-08
 -1        14-1.37462E-07 0.00000E+00 5.77339E-08
 -1        15-5.05172E+00 0.00000E+00 5.77339E-08
 -1        16-5.05172E+00 0.00000E+00 5.77339E-08
 -1        17-1.01034E+01 0.00000E+00 5.77339E-08
 -1        18-1.01034E+01 0.00000E+00 5.77339E-08
 -1        19 0.00000E+00 4.12385E-08 5.77339E-08
 -1        20-1.37462E-07 4.12385E-08 5.77339E-08
 -1        21-5.05172E+00 4.12385E-08 5.77339E-08
 -1        22-5.05172E+00 4.12385E-08 5.77339E-08
 -1        23-1.01034E+01 4.12385E-08 5.77339E-08
 -1        24-1.01034E+01 4.12385E-08 5.77339E-08
 -3
    1PSTEP                       125          42           1          
  100CL  142 3.36781E-01          24                     0   42           1
 -4  STRESS      6    1
 -5  SXX         1    4    1    1
 -5  SYY         1    4    2    2
 -5  SZZ         1    4    3    3
 -5  SXY         1    4    1    2
 -5  SYZ         1    4    2    3
 -5  SZX         1    4    3    1
 -1         1-5.77316E-05-2.80571E-20-4.00830E-21 8.07183E-22-3.42744E-22-2.82239E-22
 -1         2-2.88658E-05 8.84106E-21 4.83283E-21-6.90794E-21 4.27672E-22-3.01436E-21
 -1         3-2.88658E-05 3.87856E-14 8.04916E-15-4.91953E-14 2.06965E-20-3.03921E-14
 -1         4-2.88658E-05-6.78189E-15 2.00188E-14 1.37792E-14 5.36712E-20 2.24208E-14
 -1         5-2.88658E-05 1.06234E-14 2.56904E-15 8.45212E-14-1.14389E-19 6.99397E-14
 -1         6-5.77316E-05-6.81002E-14-6.39408E-14-3.88193E-13-1.59759E-19 1.57224E-13
 -1         7-5.77316E-05-2.72708E-20-3.22198E-21 5.26766E-21 3.59406E-21 8.73582E-22
 -1         8-2.88658E-05 6.01224E-21 2.00401E-21-4.67770E-21-2.10576E-21 6.88192E-21
 -1         9-2.88658E-05 4.10116E-14 1.54741E-14-6.86992E-14-1.04726E-14 1.11188E-14
 -1        10-2.88658E-05-1.34720E-14 6.63958E-15 2.60289E-15 7.12920E-15-9.40367E-14
 -1        11-2.88658E-05 2.15831E-14 2.81415E-14-1.88231E-14-9.47860E-15-2.50317E-13
 -1        12-5.77316E-05-6.76883E-14-6.29797E-14 2.84243E-13 2.10554E-14 5.38004E-13
 -1        13-5.77316E-05 3.22198E-21 1.07390E-21-1.67095E-21 4.60300E-21 6.55027E-22
 -1        14-2.88658E-05-9.23415E-21-6.01231E-21 1.20134E-20-2.38422E-21-3.40542E-21
 -1        15-2.88658E-05-1.50711E-13-1.52124E-13-1.37799E-14 3.63928E-15-6.55770E-15
 -1        16-2.88658E-05-1.10030E-13-1.03191E-13 9.69282E-14-4.68236E-15-9.85778E-14
 -1        17-2.88658E-05-8.13237E-14-6.28383E-14-8.25197E-14 1.02289E-14 3.14544E-13
 -1        18-5.77316E-05-5.59330E-14-1.10729E-13-2.89752E-13 3.84312E-16-5.91554E-13
 -1        19-5.77316E-05 3.82214E-20 3.60733E-20-6.01842E-21 8.53980E-21-6.36770E-21
 -1        20-2.88658E-05-3.75886E-21-5.37019E-22 9.83965E-21-4.91765E-21 6.46976E-21
 -1        21-2.88658E-05-5.98213E-14-5.60355E-14-1.34491E-14-6.83334E-15 7.88287E-14
 -1        22-2.88658E-05-2.80563E-14-2.79063E-14 1.28338E-13 2.44678E-15 7.91002E-14
 -1        23-2.88658E-05-7.03640E-14-3.72658E-14-1.38624E-13 7.50379E-16-8.30578E-14
 -1        24-5.77316E-05-5.55211E-14-1.09768E-13 2.95156E-13 2.14399E-14 2.71560E-13
 -3
    1PSTEP                       126          42           1          
  100CL  142 3.36781E-01          24                     0   42           1
 -4  TOSTRAIN    6    1
 -5  EXX         1    4    1    1
 -5  EYY         1    4    2    2
 -5  EZZ         1    4    3    3
 -5  EXY         1    4    1    2
 -5  EYZ         1    4    2    3
 -5  EZX         1    4    3    1
 -1         1-2.74912E-10 8.24737E-11 8.24737E-11 4.99685E-27-2.12175E-27-1.74719E-27
 -1         2-1.37456E-10 4.12369E-11 4.12369E-11-4.27634E-26 2.64750E-27-1.86603E-26
 -1         3-1.37456E-10 4.12369E-11 4.12369E-11-3.04542E-19 1.28121E-25-1.88142E-19
 -1         4-1.37456E-10 4.12369E-11 4.12369E-11 8.52999E-20 3.32250E-25 1.38795E-19
 -1         5-1.37456E-10 4.12369E-11 4.12369E-11 5.23227E-19-7.08121E-25 4.32960E-19
 -1         6-2.74912E-10 8.24737E-11 8.24737E-11-2.40310E-18-9.88987E-25 9.73291E-19
 -1         7-2.74912E-10 8.24737E-11 8.24737E-11 3.26093E-26 2.22489E-26 5.40789E-27
 -1         8-1.37456E-10 4.12369E-11 4.12369E-11-2.89572E-26-1.30357E-26 4.26024E-26
 -1         9-1.37456E-10 4.12369E-11 4.12369E-11-4.25281E-19-6.48304E-20 6.88304E-20
 -1        10-1.37456E-10 4.12369E-11 4.12369E-11 1.61131E-20 4.41331E-20-5.82132E-19
 -1        11-1.37456E-10 4.12369E-11 4.12369E-11-1.16524E-19-5.86771E-20-1.54958E-18
 -1        12-2.74912E-10 8.24737E-11 8.24737E-11 1.75960E-18 1.30343E-19 3.33050E-18
 -1        13-2.74912E-10 8.24737E-11 8.24737E-11-1.03440E-26 2.84948E-26 4.05493E-27
 -1        14-1.37456E-10 4.12369E-11 4.12369E-11 7.43686E-26-1.47595E-26-2.10812E-26
 -1        15-1.37456E-10 4.12369E-11 4.12369E-11-8.53042E-20 2.25289E-20-4.05953E-20
 -1        16-1.37456E-10 4.12369E-11 4.12369E-11 6.00032E-19-2.89861E-20-6.10244E-19
 -1        17-1.37456E-10 4.12369E-11 4.12369E-11-5.10836E-19 6.33216E-20 1.94718E-18
 -1        18-2.74912E-10 8.24737E-11 8.24737E-11-1.79370E-18 2.37908E-21-3.66200E-18
 -1        19-2.74912E-10 8.24737E-11 8.24737E-11-3.72569E-26 5.28654E-26-3.94191E-26
 -1        20-1.37456E-10 4.12369E-11 4.12369E-11 6.09121E-26-3.04426E-26 4.00509E-26
 -1        21-1.37456E-10 4.12369E-11 4.12369E-11-8.32564E-20-4.23016E-20 4.87987E-19
 -1        22-1.37456E-10 4.12369E-11 4.12369E-11 7.94470E-19 1.51467E-20 4.89668E-19
 -1        23-1.37456E-10 4.12369E-11 4.12369E-11-8.58149E-19 4.64520E-21-5.14167E-19
 -1        24-2.74912E-10 8.24737E-11 8.24737E-11 1.82716E-18 1.32723E-19 1.68109E-18
 -3
    1PSTEP                       127          43           1          
  100CL  143 3.45781E-01          24                     0   43           1
 -4  DISP        4    1
 -5  D1          1    2    1    0
 -5  D2          1    2    2    0
 -5  D3          1    2    3    0
 -5  ALL         1    2    0    0    1ALL
 -1         1 0.00000E+00 0.00000E+00 0.00000E+00
 -1         2-1.41135E-07 0.00000E+00 0.00000E+00
 -1         3-5.18672E+00 0.00000E+00 0.00000E+00
 -1         4-5.18672E+00 0.00000E+00 0.00000E+00
 -1         5-1.03734E+01 0.00000E+00 0.00000E+00
 -1         6-1.03734E+01 0.00000E+00 0.00000E+00
 -1         7 0.00000E+00 4.23406E-08 0.00000E+00
 -1         8-1.41135E-07 4.23406E-08 0.00000E+00
 -1         9-5.18672E+00 4.23406E-08 0.00000E+00
 -1        10-5.18672E+00 4.23406E-08 0.00000E+00
 -1        11-1.03734E+01 4.23406E-08 0.00000E+00
 -1        12-1.03734E+01 4.23406E-08 0.00000E+00
 -1        13 0.00000E+00 0.00000E+00 5.92768E-08
 -1        14-1.41135E-07 0.00000E+00 5.92768E-08
 -1        15-5.18672E+00 0.00000E+00 5.92768E-08
 -1        16-5.18672E+00 0.00000E+00 5.92768E-08
 -1        17-1.03734E+01 0.00000E+00 5.92768E-08
 -1        18-1.03734E+01 0.00000E+00 5.92768E-08
 -1        19 0.00000E+00 4.23406E-08 5.92768E-08
 -1        20-1.41135E-07 4.23406E-08 5.92768E-08
 -1        21-5.18672E+00 4.23406E-08 5.92768E-08
 -1        22-5.18672E+00 4.23406E-08 5.92768E-08
 -1        23-1.03734E+01 4.23406E-08 5.92768E-08
 -1        24-1.03734E+01 4.23406E-08 5.92768E-08
 -3
    1PSTEP                       128          43           1          
  100CL  143 3.45781E-01          24                     0   43           1
 -4  STRESS      6    1
 -5  SXX         1    4    1    1
 -5  SYY         1    4    2    2
 -5  SZZ         1    4    3    3
 -5  SXY         1    4    1    2
 -5  SYZ         1    4    2    3
 -5  SZX         1    4    3    1
 -1         1-5.92744E-05-1.58664E-20-1.06181E-20 1.93270E-21 2.90241E-22 9.18423E-22
 -1         2-2.96372E-05-1.44824E-20-9.31716E-21 4.72662E-21-1.33918E-22 7.24414E-22
 -1         3-2.96372E-05 9.62870E-14 5.28911E-14-7.20801E-14-6.15311E-20-1.24922E-14
 -1         4-2.96372E-05 7.38631E-14 1.06215E-13 4.25833E-14-7.53649E-20 1.22187E-14
 -1         5-2.96372E-05-8.67003E-15-9.05096E-14-1.30783E-14-1.38506E-19-2.56741E-13
 -1         6-5.92744E-05-9.34343E-14 1.72875E-14 3.40294E-13-3.10597E-19 2.26307E-13
 -1         7-5.92744E-05 2.34291E-20 9.71052E-21-6.34268E-21-9.71330E-22-2.34392E-21
 -1         8-2.96372E-05 7.02549E-21 1.47317E-20 5.88929E-22 1.93364E-21-2.69647E-21
 -1         9-2.96372E-05 1.50974E-13 1.26465E-13-1.17182E-13-7.31609E-15-3.55149E-14
 -1        10-2.96372E-05 1.11550E-13 1.40122E-13 1.35919E-13 4.82324E-15 6.48325E-14
 -1        11-2.96372E-05-6.63198E-14-8.44539E-14 2.87285E-15-3.34991E-14 2.25621E-13
 -1        12-5.92744E-05-3.48417E-13-2.96528E-13-4.55592E-14 5.36630E-14-8.28428E-14
 -1        13-5.92744E-05-1.23567E-20-5.74668E-21-1.30829E-21-3.70417E-21 2.06554E-21
 -1        14-2.96372E-05 4.37903E-21 1.92100E-21-4.52742E-21 6.16156E-22 2.44423E-21
 -1        15-2.96372E-05 1.23711E-13 1.00800E-13-1.80370E-15 1.32210E-14-1.42928E-14
 -1        16-2.96372E-05 1.60770E-13 1.79617E-13 6.74021E-14-2.64592E-15 5.97839E-14
 -1        17-2.96372E-05-9.62336E-14-8.42762E-14-1.65224E-13 4.45937E-14-1.09979E-13
 -1        18-5.92744E-05 3.22679E-13 2.83143E-13 3.27556E-13-4.11833E-14 8.66188E-14
 -1        19-5.92744E-05-2.01622E-20-1.86345E-20 1.76878E-21-7.10473E-21 2.46585E-21
 -1        20-2.96372E-05-6.46605E-21-8.24319E-21-2.98889E-21 2.97028E-21-4.56957E-21
 -1        21-2.96372E-05 4.04771E-14 3.64533E-14 4.94178E-14 5.90502E-15 1.14402E-13
 -1        22-2.96372E-05 6.05356E-14 7.56029E-14-1.18329E-13 2.17740E-15-3.16471E-14
 -1        23-2.96372E-05-1.93289E-13-1.17627E-13-5.03867E-14 1.10947E-14 2.49149E-14
 -1        24-5.92744E-05-1.11159E-14-1.09484E-13 2.97002E-15 1.24801E-14-2.34939E-13
 -3
    1PSTEP                       129          43           1          
  100CL  143 3.45781E-01          24                     0   43           1
 -4  TOSTRAIN    6    1
 -5  EXX         1    4    1    1
 -5  EYY         1    4    2    2
 -5  EZZ         1    4    3    3
 -5  EXY         1    4    1    2
 -5  EYZ         1    4    2    3
 -5  EZX         1    4    3    1
 -1         1-2.82259E-10 8.46777E-11 8.46777E-11 1.19643E-26 1.79673E-27 5.68548E-27
 -1         2-1.41130E-10 4.23389E-11 4.23389E-11 2.92600E-26-8.29014E-28 4.48447E-27
 -1         3-1.41130E-10 4.23389E-11 4.23389E-11-4.46210E-19-3.80907E-25-7.73329E-20
 -1         4-1.41130E-10 4.23389E-11 4.23389E-11 2.63611E-19-4.66545E-25 7.56393E-20
 -1         5-1.41130E-10 4.23389E-11 4.23389E-11-8.09609E-20-8.57418E-25-1.58935E-18
 -1         6-2.82259E-10 8.46777E-11 8.46777E-11 2.10658E-18-1.92275E-24 1.40095E-18
 -1         7-2.82259E-10 8.46777E-11 8.46777E-11-3.92642E-26-6.01300E-27-1.45100E-26
 -1         8-1.41130E-10 4.23389E-11 4.23389E-11 3.64575E-27 1.19702E-26-1.66925E-26
 -1         9-1.41130E-10 4.23389E-11 4.23389E-11-7.25412E-19-4.52901E-20-2.19854E-19
 -1        10-1.41130E-10 4.23389E-11 4.23389E-11 8.41402E-19 2.98581E-20 4.01344E-19
 -1        11-1.41130E-10 4.23389E-11 4.23389E-11 1.77843E-20-2.07375E-19 1.39670E-18
 -1        12-2.82259E-10 8.46777E-11 8.46777E-11-2.82033E-19 3.32200E-19-5.12836E-19
 -1        13-2.82259E-10 8.46777E-11 8.46777E-11-8.09894E-27-2.29306E-26 1.27867E-26
 -1        14-1.41130E-10 4.23389E-11 4.23389E-11-2.80269E-26 3.81430E-27 1.51310E-26
 -1        15-1.41130E-10 4.23389E-11 4.23389E-11-1.11658E-20 8.18446E-20-8.84790E-20
 -1        16-1.41130E-10 4.23389E-11 4.23389E-11 4.17251E-19-1.63795E-20 3.70091E-19
 -1        17-1.41130E-10 4.23389E-11 4.23389E-11-1.02282E-18 2.76056E-19-6.80825E-19
 -1        18-2.82259E-10 8.46777E-11 8.46777E-11 2.02773E-18-2.54944E-19 5.36212E-19
 -1        19-2.82259E-10 8.46777E-11 8.46777E-11 1.09496E-26-4.39817E-26 1.52648E-26
 -1        20-1.41130E-10 4.23389E-11 4.23389E-11-1.85026E-26 1.83875E-26-2.82878E-26
 -1        21-1.41130E-10 4.23389E-11 4.23389E-11 3.05919E-19 3.65549E-20 7.08200E-19
 -1        22-1.41130E-10 4.23389E-11 4.23389E-11-7.32513E-19 1.34791E-20-1.95910E-19
 -1        23-1.41130E-10 4.23389E-11 4.23389E-11-3.11917E-19 6.86818E-20 1.54235E-19
 -1        24-2.82259E-10 8.46777E-11 8.46777E-11 1.83858E-20 7.72577E-20-1.45438E-18
 -3
    1PSTEP                       130          44           1          
  100CL  144 3.54781E-01          24                     0   44           1
 -4  DISP        4    1
 -5  D1          1    2    1    0
 -5  D2          1    2    2    0
 -5  D3          1    2    3    0
 -5  ALL         1    2    0    0    1ALL
 -1         1 0.00000E+00 0.00000E+00 0.00000E+00
 -1         2-1.44809E-07 0.00000E+00 0.00000E+00
 -1         3-5.32172E+00 0.00000E+00 0.00000E+00
 -1         4-5.32172E+00 0.00000E+00 0.00000E+00
 -1         5-1.06434E+01 0.00000E+00 0.00000E+00
 -1         6-1.06434E+01 0.00000E+00 0.00000E+00
 -1         7 0.00000E+00 4.34426E-08 0.00000E+00
 -1         8-1.44809E-07 4.34426E-08 0.00000E+00
 -1         9-5.32172E+00 4.34426E-08 0.00000E+00
 -1        10-5.32172E+00 4.34426E-08 0.00000E+00
 -1        11-1.06434E+01 4.34426E-08 0.00000E+00
 -1        12-1.06434E+01 4.34426E-08 0.00000E+00
 -1        13 0.00000E+00 0.00000E+00 6.08196E-08
 -1        14-1.44809E-07 0.00000E+00 6.08196E-08
 -1        15-5.32172E+00 0.00000E+00 6.08196E-08
 -1        16-5.32172E+00 0.00000E+00 6.08196E-08
 -1        17-1.06434E+01 0.00000E+00 6.08196E-08
 -1        18-1.06434E+01 0.00000E+00 6.08196E-08
 -1        19 0.00000E+00 4.34426E-08 6.08196E-08
 -1        20-1.44809E-07 4.34426E-08 6.08196E-08
 -1        21-5.32172E+00 4.34426E-08 6.08196E-08
 -1        22-5.32172E+00 4.34426E-08 6.08196E-08
 -1        23-1.06434E+01 4.34426E-08 6.08196E-08
 -1        24-1.06434E+01 4.34426E-08 6.08196E-08
 -3
    1PSTEP                       131          44           1          
  100CL  144 3.54781E-01          24                     0   44           1
 -4  STRESS      6    1
 -5  SXX         1    4    1    1
 -5  SYY         1    4    2    2
 -5  SZZ         1    4    3    3
 -5  SXY         1    4    1    2
 -5  SYZ         1    4    2    3
 -5  SZX         1    4    3    1
 -1         1-6.08172E-05 1.23992E-21-3.55442E-21 5.51011E-22-1.08001E-21 1.57245E-22
 -1         2-3.04086E-05-1.66222E-22-6.17846E-21 1.99573E-21 2.23528E-22 3.30339E-21
 -1         3-3.04086E-05-5.91305E-14-6.84619E-14 5.82954E-14-3.05090E-20-5.59608E-14
 -1         4-3.04086E-05-4.42876E-14-5.31107E-14 1.69937E-14-4.59805E-20 1.56310E-13
 -1         5-3.04086E-05 5.01939E-14-4.80723E-14-2.36106E-14 2.10686E-20-4.54758E-14
 -1         6-6.08172E-05-2.57110E-13-1.08027E-14 1.92486E-13-2.66445E-19-2.56957E-13
 -1         7-6.08172E-05 1.14043E-20 7.39616E-21-2.61910E-21-5.91050E-21-6.80290E-22
 -1         8-3.04086E-05 8.63628E-21 6.23911E-21 4.10675E-22-1.74429E-21 6.87603E-21
 -1         9-3.04086E-05-1.03553E-13-1.06982E-13 4.61567E-14 3.20678E-16-2.79313E-14
 -1        10-3.04086E-05-8.51532E-14-8.33318E-14 7.59834E-14-7.37883E-15-9.18474E-14
 -1        11-3.04086E-05-6.15849E-14-9.87241E-14-1.00701E-13-1.77274E-14-1.43845E-13
 -1        12-6.08172E-05-6.79890E-13-5.76959E-13 1.15229E-13 6.34643E-14 8.51087E-14
 -1        13-6.08172E-05-3.32444E-22 9.54410E-21-1.21277E-21 4.76089E-21-1.61682E-21
 -1        14-3.04086E-05 2.76790E-21 2.23095E-21-2.21360E-21 8.02226E-22 3.27605E-21
 -1        15-3.04086E-05-1.54029E-14-2.56323E-14-1.07023E-13 4.13138E-15-1.53976E-14
 -1        16-3.04086E-05-3.82876E-14-2.64501E-14-8.37637E-14 7.45108E-15 2.57691E-14
 -1        17-3.04086E-05-1.03289E-13-1.51919E-13-1.61604E-13 4.27890E-14 1.27543E-13
 -1        18-6.08172E-05-7.93717E-14-1.07655E-14 3.61212E-13-1.00363E-13-2.39049E-13
 -1        19-6.08172E-05 1.72726E-20 1.40507E-20-7.67801E-23-2.20859E-21-5.82399E-21
 -1        20-3.04086E-05-2.31416E-21 2.62411E-21-1.64561E-21-8.79028E-22 1.09570E-21
 -1        21-3.04086E-05 1.17502E-13 1.13175E-13-1.17921E-13 4.45209E-15-3.69340E-14
 -1        22-3.04086E-05 9.81741E-14 1.20656E-13-8.04111E-14 7.22934E-17-2.16938E-14
 -1        23-3.04086E-05 1.00180E-13 1.12678E-13-1.30989E-13 2.50616E-14-8.33727E-14
 -1        24-6.08172E-05 1.28345E-13 5.35753E-14 1.35352E-13-3.68987E-14 5.60453E-13
 -3
    1PSTEP                       132          44           1          
  100CL  144 3.54781E-01          24                     0   44           1
 -4  TOSTRAIN    6    1
 -5  EXX         1    4    1    1
 -5  EYY         1    4    2    2
 -5  EZZ         1    4    3    3
 -5  EXY         1    4    1    2
 -5  EYZ         1    4    2    3
 -5  EZX         1    4    3    1
 -1         1-2.89606E-10 8.68817E-11 8.68817E-11 3.41102E-27-6.68575E-27 9.73422E-28
 -1         2-1.44803E-10 4.34409E-11 4.34409E-11 1.23545E-26 1.38374E-27 2.04496E-26
 -1         3-1.44803E-10 4.34409E-11 4.34409E-11 3.60877E-19-1.88865E-25-3.46424E-19
 -1         4-1.44803E-10 4.34409E-11 4.34409E-11 1.05199E-19-2.84641E-25 9.67631E-19
 -1         5-1.44803E-10 4.34409E-11 4.34409E-11-1.46161E-19 1.30424E-25-2.81517E-19
 -1         6-2.89606E-10 8.68817E-11 8.68817E-11 1.19158E-18-1.64942E-24-1.59069E-18
 -1         7-2.89606E-10 8.68817E-11 8.68817E-11-1.62135E-26-3.65888E-26-4.21132E-27
 -1         8-1.44803E-10 4.34409E-11 4.34409E-11 2.54227E-27-1.07980E-26 4.25659E-26
 -1         9-1.44803E-10 4.34409E-11 4.34409E-11 2.85732E-19 1.98515E-21-1.72908E-19
 -1        10-1.44803E-10 4.34409E-11 4.34409E-11 4.70374E-19-4.56785E-20-5.68579E-19
 -1        11-1.44803E-10 4.34409E-11 4.34409E-11-6.23389E-19-1.09741E-19-8.90471E-19
 -1        12-2.89606E-10 8.68817E-11 8.68817E-11 7.13322E-19 3.92874E-19 5.26864E-19
 -1        13-2.89606E-10 8.68817E-11 8.68817E-11-7.50763E-27 2.94722E-26-1.00089E-26
 -1        14-1.44803E-10 4.34409E-11 4.34409E-11-1.37033E-26 4.96616E-27 2.02803E-26
 -1        15-1.44803E-10 4.34409E-11 4.34409E-11-6.62522E-19 2.55752E-20-9.53185E-20
 -1        16-1.44803E-10 4.34409E-11 4.34409E-11-5.18537E-19 4.61257E-20 1.59523E-19
 -1        17-1.44803E-10 4.34409E-11 4.34409E-11-1.00041E-18 2.64884E-19 7.89549E-19
 -1        18-2.89606E-10 8.68817E-11 8.68817E-11 2.23608E-18-6.21297E-19-1.47983E-18
 -1        19-2.89606E-10 8.68817E-11 8.68817E-11-4.75305E-28-1.36722E-26-3.60533E-26
 -1        20-1.44803E-10 4.34409E-11 4.34409E-11-1.01871E-26-5.44160E-27 6.78290E-27
 -1        21-1.44803E-10 4.34409E-11 4.34409E-11-7.29990E-19 2.75606E-20-2.28639E-19
 -1        22-1.44803E-10 4.34409E-11 4.34409E-11-4.97783E-19 4.47530E-22-1.34295E-19
 -1        23-1.44803E-10 4.34409E-11 4.34409E-11-8.10886E-19 1.55143E-19-5.16117E-19
 -1        24-2.89606E-10 8.68817E-11 8.68817E-11 8.37896E-19-2.28421E-19 3.46947E-18
 -3
    1PSTEP                       133          45           1          
  100CL  145 3.63781E-01          24                     0   45           1
 -4  DISP        4    1
 -5  D1          1    2    1    0
 -5  D2          1    2    2    0
 -5  D3          1    2    3    0
 -5  ALL         1    2    0    0    1ALL
 -1         1 0.00000E+00 0.00000E+00 0.00000E+00
 -1         2-1.48482E-07 0.00000E+00 0.00000E+00
 -1         3-5.45672E+00 0.00000E+00 0.00000E+00
 -1         4-5.45672E+00 0.00000E+00 0.00000E+00
 -1         5-1.09134E+01 0.00000E+00 0.00000E+00
 -1         6-1.09134E+01 0.00000E+00 0.00000E+00
 -1         7 0.00000E+00 4.45446E-08 0.00000E+00
 -1         8-1.48482E-07 4.45446E-08 0.00000E+00
 -1         9-5.45672E+00 4.45446E-08 0.00000E+00
 -1        10-5.45672E+00 4.45446E-08 0.00000E+00
 -1        11-1.09134E+01 4.45446E-08 0.00000E+00
 -1        12-1.09134E+01 4.45446E-08 0.00000E+00
 -1        13 0.00000E+00 0.00000E+00 6.23625E-08
 -1        14-1.48482E-07 0.00000E+00 6.23625E-08
 -1        15-5.45672E+00 0.00000E+00 6.23625E-08
 -1        16-5.45672E+00 0.00000E+00 6.23625E-08
 -1        17-1.09134E+01 0.00000E+00 6.23625E-08
 -1        18-1.09134E+01 0.00000E+00 6.23625E-08
 -1        19 0.00000E+00 4.45446E-08 6.23625E-08
 -1        20-1.48482E-07 4.45446E-08 6.23625E-08
 -1        21-5.45672E+00 4.45446E-08 6.23625E-08
 -1        22-5.45672E+00 4.45446E-08 6.23625E-08
 -1        23-1.09134E+01 4.45446E-08 6.23625E-08
 -1        24-1.09134E+01 4.45446E-08 6.23625E-08
 -3
    1PSTEP                       134          45           1          
  100CL  145 3.63781E-01          24                     0   45           1
 -4  STRESS      6    1
 -5  SXX         1    4    1    1
 -5  SYY         1    4    2    2
 -5  SZZ         1    4    3    3
 -5  SXY         1    4    1    2
 -5  SYZ         1    4    2    3
 -5  SZX         1    4    3    1
 -1         1-6.23600E-05-1.14045E-20-1.03304E-20 3.91360E-22 2.82954E-22 9.98769E-23
 -1         2-3.11800E-05 1.16921E-20 1.66304E-20-6.55378E-21-3.62413E-22-6.03180E-21
 -1         3-3.11800E-05 1.69147E-13 1.81722E-13 9.92666E-14 4.79690E-20 6.73290E-14
 -1         4-3.11800E-05 1.81060E-13 1.63491E-13-8.33764E-14 7.53437E-21 4.98927E-14
 -1         5-3.11800E-05-2.99994E-14-1.23435E-13 1.03668E-13-6.82195E-20 2.57415E-14
 -1         6-6.23600E-05-5.30331E-13-3.54765E-13-3.04687E-13 1.77493E-19-2.04353E-14
 -1         7-6.23600E-05-1.19799E-20-1.38401E-20-1.04225E-22 5.13421E-22 5.93916E-22
 -1         8-3.11800E-05 6.32225E-21-2.23102E-21-6.80157E-21-1.57540E-21 8.02136E-21
 -1         9-3.11800E-05-4.91353E-14-3.30738E-14 9.11396E-14 1.59962E-15 2.78594E-14
 -1        10-3.11800E-05-4.22672E-14-6.30751E-14-2.03749E-14-5.07800E-15-5.14340E-14
 -1        11-3.11800E-05 2.36486E-13 1.86091E-13-8.07819E-14-5.29569E-14-2.91036E-14
 -1        12-6.23600E-05-1.22487E-13-2.76760E-14 3.69691E-13 9.97407E-14-1.36477E-13
 -1        13-6.23600E-05 9.07748E-22-7.39629E-21-9.46395E-22 1.03045E-21 2.02987E-21
 -1        14-3.11800E-05-1.77267E-20-1.42555E-20 1.50908E-20-2.54021E-21-5.35337E-21
 -1        15-3.11800E-05-1.57669E-13-1.49572E-13-8.98447E-14 2.44057E-15 7.17418E-14
 -1        16-3.11800E-05-1.78476E-13-1.81826E-13 4.82125E-14-2.26773E-15-1.25770E-13
 -1        17-3.11800E-05-1.00785E-13-4.59415E-14-1.27707E-13 3.01281E-14-6.42457E-14
 -1        18-6.23600E-05 3.35804E-13 2.32096E-13-1.31363E-14-5.65287E-14 5.59460E-14
 -1        19-6.23600E-05 4.09893E-20 3.61950E-20-7.11821E-21 3.39991E-21-6.07424E-21
 -1        20-3.11800E-05-2.76804E-21-7.63956E-22 1.20049E-20-4.03977E-21 5.75677E-21
 -1        21-3.11800E-05 7.72189E-14 8.88017E-14-9.53009E-14 4.04015E-15 7.73573E-14
 -1        22-3.11800E-05 5.13669E-14 4.47774E-14 5.70076E-14-7.34574E-15 7.96241E-14
 -1        23-3.11800E-05-1.88954E-13-9.10701E-14-1.43498E-14-2.28287E-14 1.47725E-13
 -1        24-6.23600E-05 3.43387E-14-1.50124E-13-1.99203E-13 4.32119E-14-1.17988E-13
 -3
    1PSTEP                       135          45           1          
  100CL  145 3.63781E-01          24                     0   45           1
 -4  TOSTRAIN    6    1
 -5  EXX         1    4    1    1
 -5  EYY         1    4    2    2
 -5  EZZ         1    4    3    3
 -5  EXY         1    4    1    2
 -5  EYZ         1    4    2    3
 -5  EZX         1    4    3    1
 -1         1-2.96952E-10 8.90857E-11 8.90857E-11 2.42270E-27 1.75162E-27 6.18286E-28
 -1         2-1.48476E-10 4.45429E-11 4.45429E-11-4.05710E-26-2.24351E-27-3.73397E-26
 -1         3-1.48476E-10 4.45429E-11 4.45429E-11 6.14508E-19 2.96951E-25 4.16799E-19
 -1         4-1.48476E-10 4.45429E-11 4.45429E-11-5.16139E-19 4.66413E-26 3.08860E-19
 -1         5-1.48476E-10 4.45429E-11 4.45429E-11 6.41755E-19-4.22311E-25 1.59352E-19
 -1         6-2.96952E-10 8.90857E-11 8.90857E-11-1.88615E-18 1.09877E-24-1.26504E-19
 -1         7-2.96952E-10 8.90857E-11 8.90857E-11-6.45200E-28 3.17832E-27 3.67662E-27
 -1         8-1.48476E-10 4.45429E-11 4.45429E-11-4.21050E-26-9.75249E-27 4.96560E-26
 -1         9-1.48476E-10 4.45429E-11 4.45429E-11 5.64198E-19 9.90244E-21 1.72463E-19
 -1        10-1.48476E-10 4.45429E-11 4.45429E-11-1.26130E-19-3.14352E-20-3.18401E-19
 -1        11-1.48476E-10 4.45429E-11 4.45429E-11-5.00078E-19-3.27829E-19-1.80165E-19
 -1        12-2.96952E-10 8.90857E-11 8.90857E-11 2.28856E-18 6.17443E-19-8.44856E-19
 -1        13-2.96952E-10 8.90857E-11 8.90857E-11-5.85864E-27 6.37900E-27 1.25658E-26
 -1        14-1.48476E-10 4.45429E-11 4.45429E-11 9.34192E-26-1.57251E-26-3.31399E-26
 -1        15-1.48476E-10 4.45429E-11 4.45429E-11-5.56181E-19 1.51083E-20 4.44116E-19
 -1        16-1.48476E-10 4.45429E-11 4.45429E-11 2.98458E-19-1.40383E-20-7.78574E-19
 -1        17-1.48476E-10 4.45429E-11 4.45429E-11-7.90565E-19 1.86507E-19-3.97712E-19
 -1        18-2.96952E-10 8.90857E-11 8.90857E-11-8.13202E-20-3.49939E-19 3.46333E-19
 -1        19-2.96952E-10 8.90857E-11 8.90857E-11-4.40651E-26 2.10471E-26-3.76024E-26
 -1        20-1.48476E-10 4.45429E-11 4.45429E-11 7.43159E-26-2.50081E-26 3.56372E-26
 -1        21-1.48476E-10 4.45429E-11 4.45429E-11-5.89958E-19 2.50105E-20 4.78879E-19
 -1        22-1.48476E-10 4.45429E-11 4.45429E-11 3.52904E-19-4.54736E-20 4.92911E-19
 -1        23-1.48476E-10 4.45429E-11 4.45429E-11-8.88322E-20-1.41321E-19 9.14486E-19
 -1        24-2.96952E-10 8.90857E-11 8.90857E-11-1.23316E-18 2.67502E-19-7.30401E-19
 -3
    1PSTEP                       136          46           1          
  100CL  146 3.72781E-01          24                     0   46           1
 -4  DISP        4    1
 -5  D1          1    2    1    0
 -5  D2          1    2    2    0
 -5  D3          1    2    3    0
 -5  ALL         1    2    0    0    1ALL
 -1         1 0.00000E+00 0.00000E+00 0.00000E+00
 -1         2-1.52156E-07 0.00000E+00 0.00000E+00
 -1         3-5.59172E+00 0.00000E+00 0.00000E+00
 -1         4-5.59172E+00 0.00000E+00 0.00000E+00
 -1         5-1.11834E+01 0.00000E+00 0.00000E+00
 -1         6-1.11834E+01 0.00000E+00 0.00000E+00
 -1         7 0.00000E+00 4.56467E-08 0.00000E+00
 -1         8-1.52156E-07 4.56467E-08 0.00000E+00
 -1         9-5.59172E+00 4.56467E-08 0.00000E+00
 -1        10-5.59172E+00 4.56467E-08 0.00000E+00
 -1        11-1.11834E+01 4.56467E-08 0.00000E+00
 -1        12-1.11834E+01 4.56467E-08 0.00000E+00
 -1        13 0.00000E+00 0.00000E+00 6.39054E-08
 -1        14-1.52156E-07 0.00000E+00 6.39054E-08
 -1        15-5.59172E+00 0.00000E+00 6.39054E-08
 -1        16-5.59172E+00 0.00000E+00 6.39054E-08
 -1        17-1.11834E+01 0.00000E+00 6.39054E-08
 -1        18-1.11834E+01 0.00000E+00 6.39054E-08
 -1        19 0.00000E+00 4.56467E-08 6.39054E-08
 -1        20-1.52156E-07 4.56467E-08 6.39054E-08
 -1        21-5.59172E+00 4.56467E-08 6.39054E-08
 -1        22-5.59172E+00 4.56467E-08 6.39054E-08
 -1        23-1.11834E+01 4.56467E-08 6.39054E-08
 -1        24-1.11834E+01 4.56467E-08 6.39054E-08
 -3
    1PSTEP                       137          46           1          
  100CL  146 3.72781E-01          24                     0   46           1
 -4  STRESS      6    1
 -5  SXX         1    4    1    1
 -5  SYY         1    4    2    2
 -5  SZZ         1    4    3    3
 -5  SXY         1    4    1    2
 -5  SYZ         1    4    2    3
 -5  SZX         1    4    3    1
 -1         1-6.39028E-05-4.17431E-21-1.69393E-21 3.16553E-22 3.18071E-22-9.27124E-22
 -1         2-3.19514E-05 7.78938E-21 9.02957E-21-8.21091E-21-2.93002E-22-3.95944E-21
 -1         3-3.19514E-05-2.61034E-14-1.41736E-14-2.28817E-15 3.17409E-20 3.22228E-14
 -1         4-3.19514E-05-8.78046E-15-2.78208E-14-9.24742E-14-1.75823E-20 7.17647E-14
 -1         5-3.19514E-05 1.08081E-13 2.95736E-14 6.73944E-14 4.68350E-20 1.72577E-13
 -1         6-6.39028E-05-1.00252E-13 3.19952E-14-3.39373E-14-5.17761E-20 2.58360E-13
 -1         7-6.39028E-05-2.02070E-20-1.55786E-20 3.65727E-21 5.15002E-21 5.70668E-22
 -1         8-3.19514E-05-2.26937E-22-2.99491E-21-6.54055E-21 2.77583E-22 2.10235E-21
 -1         9-3.19514E-05 2.50885E-14 4.01422E-14-2.73608E-14 4.18362E-15-3.74818E-14
 -1        10-3.19514E-05 4.07224E-14 2.25540E-14 3.94776E-14-7.83551E-15 1.15037E-14
 -1        11-3.19514E-05 1.36962E-13 1.38400E-13 5.93050E-15-4.64070E-14 1.09204E-13
 -1        12-6.39028E-05-2.71535E-13-2.84789E-13-7.99406E-14 8.02620E-14-8.11276E-14
 -1        13-6.39028E-05-6.32225E-21-1.77266E-20-4.24353E-22 2.25025E-21 3.62428E-22
 -1        14-3.19514E-05 1.63328E-21 1.01325E-21 3.74975E-21-1.93644E-22-4.46093E-21
 -1        15-3.19514E-05 8.87476E-14 8.89634E-14-1.99935E-13 2.18679E-15 2.96175E-14
 -1        16-3.19514E-05 4.71770E-14 5.00760E-14 1.42746E-13 6.10356E-16-7.24536E-14
 -1        17-3.19514E-05-1.04890E-13-5.34573E-14-1.53476E-13 5.59621E-14-1.84627E-13
 -1        18-6.39028E-05 3.21880E-13 2.29393E-13 1.79202E-13-1.01851E-13 6.67902E-14
 -1        19-6.39028E-05-2.02637E-21-1.12827E-20 1.54624E-21 2.80422E-21-3.17256E-21
 -1        20-3.19514E-05 3.78122E-21-8.46965E-22 4.73505E-21 9.50072E-22 4.50871E-21
 -1        21-3.19514E-05-3.73877E-14-3.40481E-14-1.50487E-13 6.37038E-15 4.65921E-14
 -1        22-3.19514E-05-8.06473E-14-7.68764E-14-8.30488E-14-7.22514E-15 3.35927E-14
 -1        23-3.19514E-05-3.66028E-14 9.47753E-14-5.53241E-14 9.55512E-15-1.06604E-13
 -1        24-6.39028E-05 2.29409E-13-8.57916E-15 8.84156E-14-2.15889E-14 1.46601E-13
 -3
    1PSTEP                       138          46           1          
  100CL  146 3.72781E-01          24                     0   46           1
 -4  TOSTRAIN    6    1
 -5  EXX         1    4    1    1
 -5  EYY         1    4    2    2
 -5  EZZ         1    4    3    3
 -5  EXY         1    4    1    2
 -5  EYZ         1    4    2    3
 -5  EZX         1    4    3    1
 -1         1-3.04299E-10 9.12897E-11 9.12897E-11 1.95961E-27 1.96901E-27-5.73934E-27
 -1         2-1.52150E-10 4.56449E-11 4.56449E-11-5.08295E-26-1.81382E-27-2.45108E-26
 -1         3-1.52150E-10 4.56449E-11 4.56449E-11-1.41649E-20 1.96491E-25 1.99474E-19
 -1         4-1.52150E-10 4.56449E-11 4.56449E-11-5.72460E-19-1.08843E-25 4.44258E-19
 -1         5-1.52150E-10 4.56449E-11 4.56449E-11 4.17203E-19 2.89931E-25 1.06833E-18
 -1         6-3.04299E-10 9.12897E-11 9.12897E-11-2.10088E-19-3.20519E-25 1.59937E-18
 -1         7-3.04299E-10 9.12897E-11 9.12897E-11 2.26403E-26 3.18811E-26 3.53271E-27
 -1         8-1.52150E-10 4.56449E-11 4.56449E-11-4.04891E-26 1.71837E-27 1.30145E-26
 -1         9-1.52150E-10 4.56449E-11 4.56449E-11-1.69377E-19 2.58986E-20-2.32030E-19
 -1        10-1.52150E-10 4.56449E-11 4.56449E-11 2.44385E-19-4.85055E-20 7.12132E-20
 -1        11-1.52150E-10 4.56449E-11 4.56449E-11 3.67126E-20-2.87281E-19 6.76024E-19
 -1        12-3.04299E-10 9.12897E-11 9.12897E-11-4.94870E-19 4.96860E-19-5.02219E-19
 -1        13-3.04299E-10 9.12897E-11 9.12897E-11-2.62694E-27 1.39301E-26 2.24360E-27
 -1        14-1.52150E-10 4.56449E-11 4.56449E-11 2.32127E-26-1.19875E-27-2.76153E-26
 -1        15-1.52150E-10 4.56449E-11 4.56449E-11-1.23769E-18 1.35373E-20 1.83346E-19
 -1        16-1.52150E-10 4.56449E-11 4.56449E-11 8.83663E-19 3.77839E-21-4.48522E-19
 -1        17-1.52150E-10 4.56449E-11 4.56449E-11-9.50088E-19 3.46432E-19-1.14293E-18
 -1        18-3.04299E-10 9.12897E-11 9.12897E-11 1.10935E-18-6.30506E-19 4.13463E-19
 -1        19-3.04299E-10 9.12897E-11 9.12897E-11 9.57198E-27 1.73595E-26-1.96396E-26
 -1        20-1.52150E-10 4.56449E-11 4.56449E-11 2.93122E-26 5.88140E-27 2.79111E-26
 -1        21-1.52150E-10 4.56449E-11 4.56449E-11-9.31586E-19 3.94357E-20 2.88427E-19
 -1        22-1.52150E-10 4.56449E-11 4.56449E-11-5.14112E-19-4.47271E-20 2.07955E-19
 -1        23-1.52150E-10 4.56449E-11 4.56449E-11-3.42483E-19 5.91507E-20-6.59927E-19
 -1        24-3.04299E-10 9.12897E-11 9.12897E-11 5.47335E-19-1.33645E-19 9.07529E-19
 -3
    1PSTEP                       139          47           1          
  100CL  147 3.81781E-01          24                     0   47           1
 -4  DISP        4    1
 -5  D1          1    2    1    0
 -5  D2          1    2    2    0
 -5  D3          1    2    3    0
 -5  ALL         1    2    0    0    1ALL
 -1         1 0.00000E+00 0.00000E+00 0.00000E+00
 -1         2-1.55829E-07 0.00000E+00 0.00000E+00
 -1         3-5.72672E+00 0.00000E+00 0.00000E+00
 -1         4-5.72672E+00 0.00000E+00 0.00000E+00
 -1         5-1.14534E+01 0.00000E+00 0.00000E+00
 -1         6-1.14534E+01 0.00000E+00 0.00000E+00
 -1         7 0.00000E+00 4.67487E-08 0.00000E+00
 -1         8-1.55829E-07 4.67487E-08 0.00000E+00
 -1         9-5.72672E+00 4.67487E-08 0.00000E+00
 -1        10-5.72672E+00 4.67487E-08 0.00000E+00
 -1        11-1.14534E+01 4.67487E-08 0.00000E+00
 -1        12-1.14534E+01 4.67487E-08 0.00000E+00
 -1        13 0.00000E+00 0.00000E+00 6.54482E-08
 -1        14-1.55829E-07 0.00000E+00 6.54482E-08
 -1        15-5.72672E+00 0.00000E+00 6.54482E-08
 -1        16-5.72672E+00 0.00000E+00 6.54482E-08
 -1        17-1.14534E+01 0.00000E+00 6.54482E-08
 -1        18-1.14534E+01 0.00000E+00 6.54482E-08
 -1        19 0.00000E+00 4.67487E-08 6.54482E-08
 -1        20-1.55829E-07 4.67487E-08 6.54482E-08
 -1        21-5.72672E+00 4.67487E-08 6.54482E-08
 -1        22-5.72672E+00 4.67487E-08 6.54482E-08
 -1        23-1.14534E+01 4.67487E-08 6.54482E-08
 -1        24-1.14534E+01 4.67487E-08 6.54482E-08
 -3
    1PSTEP                       140          47           1          
  100CL  147 3.81781E-01          24                     0   47           1
 -4  STRESS      6    1
 -5  SXX         1    4    1    1
 -5  SYY         1    4    2    2
 -5  SZZ         1    4    3    3
 -5  SXY         1    4    1    2
 -5  SYZ         1    4    2    3
 -5  SZX         1    4    3    1
 -1         1-6.54456E-05-2.04947E-20-1.24784E-20 5.52441E-22 2.76012E-22 8.87810E-22
 -1         2-3.27228E-05-5.55830E-21-9.56646E-21 1.99568E-21 1.93417E-22-2.73303E-22
 -1         3-3.27228E-05-1.94428E-14-4.68599E-14-9.40165E-15-1.23245E-20-1.42429E-13
 -1         4-3.27228E-05-3.13011E-14-1.74290E-14 3.10204E-14-3.70509E-20 3.39533E-13
 -1         5-3.27228E-05 1.80041E-13 7.15499E-14 1.09147E-13 2.13359E-19-2.45847E-14
 -1         6-6.54456E-05 2.47124E-13 4.50121E-13 5.43846E-13-4.88204E-19 9.62643E-14
 -1         7-6.54456E-05 1.45049E-20 1.45049E-20-3.60445E-21-3.98279E-21-2.70343E-22
 -1         8-3.27228E-05 8.71949E-21 5.78530E-21-8.27672E-23 4.05766E-22 5.21531E-21
 -1         9-3.27228E-05-1.32331E-14-2.57291E-14-1.97265E-14-5.51765E-15 6.59212E-14
 -1        10-3.27228E-05-3.85481E-14-2.76974E-14 2.90231E-14 9.24987E-17-1.17645E-13
 -1        11-3.27228E-05-8.81347E-14-5.99095E-14 1.35149E-13-3.01878E-14-1.85728E-13
 -1        12-6.54456E-05-6.89715E-13-7.47270E-13-5.52544E-14 5.49866E-14-3.54111E-13
 -1        13-6.54456E-05-8.96866E-21-3.10028E-21-6.17561E-22 1.60259E-21-6.44035E-22
 -1        14-3.27228E-05-3.01727E-21-3.01727E-21 6.10824E-21-3.06497E-21-1.03923E-21
 -1        15-3.27228E-05 3.95448E-14 2.75771E-14 5.65475E-14 1.04447E-14 6.23123E-14
 -1        16-3.27228E-05 5.51763E-14 6.87893E-14 2.14287E-16-2.11499E-15-2.39472E-13
 -1        17-3.27228E-05-6.55783E-14-8.95428E-14-1.51698E-14 9.57016E-14-1.43059E-13
 -1        18-6.54456E-05 3.21165E-13 3.70198E-13-2.50809E-13-1.82386E-13 1.51557E-13
 -1        19-6.54456E-05 9.42267E-21 7.27473E-21-7.68848E-23-5.17230E-22-8.45708E-21
 -1        20-3.27228E-05-5.84602E-21-4.77205E-21 6.37858E-21-3.13918E-21 1.12195E-21
 -1        21-3.27228E-05-9.21666E-14-8.92133E-14 4.92691E-14 4.92704E-15-9.21769E-14
 -1        22-3.27228E-05-8.99919E-14-7.94002E-14 2.40144E-14-2.02245E-15 1.00807E-13
 -1        23-3.27228E-05 2.09005E-14 1.33652E-13-2.37999E-14 6.55136E-14 2.59250E-13
 -1        24-6.54456E-05 9.36348E-14-1.17883E-13 1.72870E-13-1.27399E-13 1.91062E-13
 -3
    1PSTEP                       141          47           1          
  100CL  147 3.81781E-01          24                     0   47           1
 -4  TOSTRAIN    6    1
 -5  EXX         1    4    1    1
 -5  EYY         1    4    2    2
 -5  EZZ         1    4    3    3
 -5  EXY         1    4    1    2
 -5  EYZ         1    4    2    3
 -5  EZX         1    4    3    1
 -1         1-3.11646E-10 9.34937E-11 9.34937E-11 3.41987E-27 1.70865E-27 5.49597E-27
 -1         2-1.55823E-10 4.67468E-11 4.67468E-11 1.23542E-26 1.19734E-27-1.69188E-27
 -1         3-1.55823E-10 4.67468E-11 4.67468E-11-5.82007E-20-7.62948E-26-8.81701E-19
 -1         4-1.55823E-10 4.67468E-11 4.67468E-11 1.92031E-19-2.29363E-25 2.10187E-18
 -1         5-1.55823E-10 4.67468E-11 4.67468E-11 6.75670E-19 1.32079E-24-1.52191E-19
 -1         6-3.11646E-10 9.34937E-11 9.34937E-11 3.36666E-18-3.02222E-24 5.95922E-19
 -1         7-3.11646E-10 9.34937E-11 9.34937E-11-2.23133E-26-2.46554E-26-1.67355E-27
 -1         8-1.55823E-10 4.67468E-11 4.67468E-11-5.12368E-28 2.51188E-27 3.22853E-26
 -1         9-1.55823E-10 4.67468E-11 4.67468E-11-1.22116E-19-3.41569E-20 4.08084E-19
 -1        10-1.55823E-10 4.67468E-11 4.67468E-11 1.79667E-19 5.72611E-22-7.28280E-19
 -1        11-1.55823E-10 4.67468E-11 4.67468E-11 8.36636E-19-1.86877E-19-1.14974E-18
 -1        12-3.11646E-10 9.34937E-11 9.34937E-11-3.42051E-19 3.40393E-19-2.19212E-18
 -1        13-3.11646E-10 9.34937E-11 9.34937E-11-3.82300E-27 9.92079E-27-3.98688E-27
 -1        14-1.55823E-10 4.67468E-11 4.67468E-11 3.78129E-26-1.89736E-26-6.43330E-27
 -1        15-1.55823E-10 4.67468E-11 4.67468E-11 3.50056E-19 6.46576E-20 3.85743E-19
 -1        16-1.55823E-10 4.67468E-11 4.67468E-11 1.32654E-21-1.30928E-20-1.48245E-18
 -1        17-1.55823E-10 4.67468E-11 4.67468E-11-9.39081E-20 5.92439E-19-8.85605E-19
 -1        18-3.11646E-10 9.34937E-11 9.34937E-11-1.55263E-18-1.12906E-18 9.38211E-19
 -1        19-3.11646E-10 9.34937E-11 9.34937E-11-4.75953E-28-3.20190E-27-5.23533E-26
 -1        20-1.55823E-10 4.67468E-11 4.67468E-11 3.94865E-26-1.94330E-26 6.94538E-27
 -1        21-1.55823E-10 4.67468E-11 4.67468E-11 3.04999E-19 3.05008E-20-5.70619E-19
 -1        22-1.55823E-10 4.67468E-11 4.67468E-11 1.48660E-19-1.25199E-20 6.24042E-19
 -1        23-1.55823E-10 4.67468E-11 4.67468E-11-1.47333E-19 4.05560E-19 1.60488E-18
 -1        24-3.11646E-10 9.34937E-11 9.34937E-11 1.07015E-18-7.88661E-19 1.18277E-18
 -3
    1PSTEP                       142          48           1          
  100CL  148 3.90781E-01          24                     0   48           1
 -4  DISP        4    1
 -5  D1          1    2    1    0
 -5  D2          1    2    2    0
 -5  D3          1    2    3    0
 -5  ALL         1    2    0    0    1ALL
 -1         1 0.00000E+00 0.00000E+00 0.00000E+00
 -1         2-1.59503E-07 0.00000E+00 0.00000E+00
 -1         3-5.86172E+00 0.00000E+00 0.00000E+00
 -1         4-5.86172E+00 0.00000E+00 0.00000E+00
 -1         5-1.17234E+01 0.00000E+00 0.00000E+00
 -1         6-1.17234E+01 0.00000E+00 0.00000E+00
 -1         7 0.00000E+00 4.78508E-08 0.00000E+00
 -1         8-1.59503E-07 4.78508E-08 0.00000E+00
 -1         9-5.86172E+00 4.78508E-08 0.00000E+00
 -1        10-5.86172E+00 4.78508E-08 0.00000E+00
 -1        11-1.17234E+01 4.78508E-08 0.00000E+00
 -1        12-1.17234E+01 4.78508E-08 0.00000E+00
 -1        13 0.00000E+00 0.00000E+00 6.69911E-08
 -1        14-1.59503E-07 0.00000E+00 6.69911E-08
 -1        15-5.86172E+00 0.00000E+00 6.69911E-08
 -1        16-5.86172E+00 0.00000E+00 6.69911E-08
 -1        17-1.17234E+01 0.00000E+00 6.69911E-08
 -1        18-1.17234E+01 0.00000E+00 6.69911E-08
 -1        19 0.00000E+00 4.78508E-08 6.69911E-08
 -1        20-1.59503E-07 4.78508E-08 6.69911E-08
 -1        21-5.86172E+00 4.78508E-08 6.69911E-08
 -1        22-5.86172E+00 4.78508E-08 6.69911E-08
 -1        23-1.17234E+01 4.78508E-08 6.69911E-08
 -1        24-1.17234E+01 4.78508E-08 6.69911E-08
 -3
    1PSTEP                       143          48           1          
  100CL  148 3.90781E-01          24                     0   48           1
 -4  STRESS      6    1
 -5  SXX         1    4    1    1
 -5  SYY         1    4    2    2
 -5  SZZ         1    4    3    3
 -5  SXY         1    4    1    2
 -5  SYZ         1    4    2    3
 -5  SZX         1    4    3    1
 -1         1-6.69884E-05 6.20028E-22 3.43272E-21-3.62062E-22-1.49280E-22 1.35858E-21
 -1         2-3.34942E-05 1.30154E-20 1.54958E-20-9.47644E-21-9.88107E-23-7.64041E-21
 -1         3-3.34942E-05 6.47915E-14 5.96971E-15-2.73444E-14 7.08938E-20 2.16347E-14
 -1         4-3.34942E-05 1.00931E-14 5.68583E-14-1.11607E-14-8.75047E-20-5.85376E-14
 -1         5-3.34942E-05-1.79230E-13-2.08410E-13-5.37146E-14 1.98324E-19-1.63592E-13
 -1         6-6.69884E-05-1.73387E-13-1.30309E-13 1.90762E-13-3.44777E-19 8.34854E-13
 -1         7-6.69884E-05-2.42151E-20-2.66952E-20-3.62062E-22 4.08588E-21-2.11588E-21
 -1         8-3.34942E-05-7.70631E-21-4.15202E-21-9.47644E-21 8.02478E-22 5.39309E-21
 -1         9-3.34942E-05 9.00689E-14 8.56693E-14-6.90171E-14-1.52399E-14-6.28009E-14
 -1        10-3.34942E-05-3.94661E-14-3.80605E-14 1.76511E-14 9.86465E-15 1.51501E-13
 -1        11-3.34942E-05-1.10299E-13-4.75720E-14 1.29974E-13-1.26960E-14 2.07408E-13
 -1        12-6.69884E-05-3.05658E-13-4.38941E-13-2.36510E-13 1.71379E-14-6.03969E-13
 -1        13-6.69884E-05-6.60997E-21-1.71064E-20 3.22571E-23 4.43011E-21 8.52606E-21
 -1        14-3.34942E-05 1.09626E-21 5.72452E-21 4.22623E-21-4.65270E-21-3.77010E-21
 -1        15-3.34942E-05-2.54235E-14-4.15735E-14 1.03021E-14 3.80957E-14 9.70681E-15
 -1        16-3.34942E-05 4.28910E-14 6.20350E-14-8.11246E-15-3.17519E-14 5.32488E-14
 -1        17-3.34942E-05-2.41441E-13-2.35072E-13 2.95533E-13 6.43355E-14 9.00404E-14
 -1        18-6.69884E-05-8.94097E-14-9.43188E-14 1.47149E-13-1.23453E-13-9.70058E-13
 -1        19-6.69884E-05 2.30965E-20 4.58360E-21 3.22571E-23 6.52629E-21-5.33625E-21
 -1        20-3.34942E-05-1.15705E-21-1.44216E-20 4.22623E-21-3.46485E-21 2.71341E-21
 -1        21-3.34942E-05 1.95569E-14 5.78292E-14 8.58374E-15 2.28557E-14 7.10855E-14
 -1        22-3.34942E-05 1.30349E-14-1.31809E-14 3.79028E-14-2.18872E-14-1.14170E-13
 -1        23-3.34942E-05-1.72511E-13-7.42341E-14-4.59557E-14 5.16392E-14-6.71774E-15
 -1        24-6.69884E-05-2.21680E-13-4.02951E-13-5.64273E-14-1.06315E-13 3.86751E-13
 -3
    1PSTEP                       144          48           1          
  100CL  148 3.90781E-01          24                     0   48           1
 -4  TOSTRAIN    6    1
 -5  EXX         1    4    1    1
 -5  EYY         1    4    2    2
 -5  EZZ         1    4    3    3
 -5  EXY         1    4    1    2
 -5  EYZ         1    4    2    3
 -5  EZX         1    4    3    1
 -1         1-3.18992E-10 9.56977E-11 9.56977E-11-2.24133E-27-9.24116E-28 8.41023E-27
 -1         2-1.59496E-10 4.78488E-11 4.78488E-11-5.86636E-26-6.11685E-28-4.72978E-26
 -1         3-1.59496E-10 4.78488E-11 4.78488E-11-1.69275E-19 4.38867E-25 1.33929E-19
 -1         4-1.59496E-10 4.78488E-11 4.78488E-11-6.90902E-20-5.41696E-25-3.62376E-19
 -1         5-1.59496E-10 4.78488E-11 4.78488E-11-3.32519E-19 1.22772E-24-1.01271E-18
 -1         6-3.18992E-10 9.56977E-11 9.56977E-11 1.18091E-18-2.13434E-24 5.16815E-18
 -1         7-3.18992E-10 9.56977E-11 9.56977E-11-2.24133E-27 2.52936E-26-1.30983E-26
 -1         8-1.59496E-10 4.78488E-11 4.78488E-11-5.86636E-26 4.96772E-27 3.33858E-26
 -1         9-1.59496E-10 4.78488E-11 4.78488E-11-4.27249E-19-9.43420E-20-3.88768E-19
 -1        10-1.59496E-10 4.78488E-11 4.78488E-11 1.09269E-19 6.10669E-20 9.37861E-19
 -1        11-1.59496E-10 4.78488E-11 4.78488E-11 8.04601E-19-7.85945E-20 1.28396E-18
 -1        12-3.18992E-10 9.56977E-11 9.56977E-11-1.46411E-18 1.06091E-19-3.73885E-18
 -1        13-3.18992E-10 9.56977E-11 9.56977E-11 1.99687E-28 2.74245E-26 5.27804E-26
 -1        14-1.59496E-10 4.78488E-11 4.78488E-11 2.61624E-26-2.88024E-26-2.33387E-26
 -1        15-1.59496E-10 4.78488E-11 4.78488E-11 6.37752E-20 2.35830E-19 6.00898E-20
 -1        16-1.59496E-10 4.78488E-11 4.78488E-11-5.02200E-20-1.96559E-19 3.29635E-19
 -1        17-1.59496E-10 4.78488E-11 4.78488E-11 1.82949E-18 3.98267E-19 5.57393E-19
 -1        18-3.18992E-10 9.56977E-11 9.56977E-11 9.10925E-19-7.64233E-19-6.00512E-18
 -1        19-3.18992E-10 9.56977E-11 9.56977E-11 1.99687E-28 4.04008E-26-3.30339E-26
 -1        20-1.59496E-10 4.78488E-11 4.78488E-11 2.61624E-26-2.14491E-26 1.67973E-26
 -1        21-1.59496E-10 4.78488E-11 4.78488E-11 5.31375E-20 1.41488E-19 4.40053E-19
 -1        22-1.59496E-10 4.78488E-11 4.78488E-11 2.34636E-19-1.35492E-19-7.06764E-19
 -1        23-1.59496E-10 4.78488E-11 4.78488E-11-2.84488E-19 3.19672E-19-4.15860E-20
 -1        24-3.18992E-10 9.56977E-11 9.56977E-11-3.49312E-19-6.58140E-19 2.39418E-18
 -3
    1PSTEP                       145          49           1          
  100CL  149 3.99781E-01          24                     0   49           1
 -4  DISP        4    1
 -5  D1          1    2    1    0
 -5  D2          1    2    2    0
 -5  D3          1    2    3    0
 -5  ALL         1    2    0    0    1ALL
 -1         1 0.00000E+00 0.00000E+00 0.00000E+00
 -1         2-1.63176E-07 0.00000E+00 0.00000E+00
 -1         3-5.99672E+00 0.00000E+00 0.00000E+00
 -1         4-5.99672E+00 0.00000E+00 0.00000E+00
 -1         5-1.19934E+01 0.00000E+00 0.00000E+00
 -1         6-1.19934E+01 0.00000E+00 0.00000E+00
 -1         7 0.00000E+00 4.89528E-08 0.00000E+00
 -1         8-1.63176E-07 4.89528E-08 0.00000E+00
 -1         9-5.99672E+00 4.89528E-08 0.00000E+00
 -1        10-5.99672E+00 4.89528E-08 0.00000E+00
 -1        11-1.19934E+01 4.89528E-08 0.00000E+00
 -1        12-1.19934E+01 4.89528E-08 0.00000E+00
 -1        13 0.00000E+00 0.00000E+00 6.85339E-08
 -1        14-1.63176E-07 0.00000E+00 6.85339E-08
 -1        15-5.99672E+00 0.00000E+00 6.85339E-08
 -1        16-5.99672E+00 0.00000E+00 6.85339E-08
 -1        17-1.19934E+01 0.00000E+00 6.85339E-08
 -1        18-1.19934E+01 0.00000E+00 6.85339E-08
 -1        19 0.00000E+00 4.89528E-08 6.85339E-08
 -1        20-1.63176E-07 4.89528E-08 6.85339E-08
 -1        21-5.99672E+00 4.89528E-08 6.85339E-08
 -1        22-5.99672E+00 4.89528E-08 6.85339E-08
 -1        23-1.19934E+01 4.89528E-08 6.85339E-08
 -1        24-1.19934E+01 4.89528E-08 6.85339E-08
 -3
    1PSTEP                       146          49           1          
  100CL  149 3.99781E-01          24                     0   49           1
 -4  STRESS      6    1
 -5  SXX         1    4    1    1
 -5  SYY         1    4    2    2
 -5  SZZ         1    4    3    3
 -5  SXY         1    4    1    2
 -5  SYZ         1    4    2    3
 -5  SZX         1    4    3    1
 -1         1-6.85312E-05-1.61987E-20-1.72727E-20-1.45344E-21-2.94703E-22-2.30325E-22
 -1         2-3.42656E-05-3.98587E-21 2.02637E-21 5.75677E-21 1.58425E-22 4.80920E-22
 -1         3-3.42656E-05-3.12877E-13-3.43523E-13-1.96402E-13-1.61334E-20-6.84696E-14
 -1         4-3.42656E-05-2.95472E-13-2.83139E-13 1.06256E-13-6.46567E-20 2.09742E-14
 -1         5-3.42656E-05 2.13697E-13 2.31293E-13 3.15063E-14-1.13520E-19-9.58130E-14
 -1         6-6.85312E-05 3.21747E-13 2.74806E-13-2.50157E-14 2.52203E-21-3.11877E-13
 -1         7-6.85312E-05 1.45047E-20 4.62819E-21-5.28024E-21-2.31555E-21 1.16053E-21
 -1         8-3.42656E-05 1.08675E-20 1.43386E-20 2.69711E-21 1.79038E-21-6.45720E-21
 -1         9-3.42656E-05 7.54777E-14 5.64568E-14-2.10470E-13 1.09758E-15 1.16787E-13
 -1        10-3.42656E-05 8.81133E-14 1.05710E-13 1.44729E-13-8.14641E-15 4.73188E-14
 -1        11-3.42656E-05-7.65927E-14-7.31053E-14 3.80659E-15-2.90970E-15 1.81119E-13
 -1        12-6.85312E-05-2.01122E-13-1.99333E-13 1.40054E-13 4.75333E-15-2.36039E-13
 -1        13-6.85312E-05 7.06385E-21 5.20363E-21 1.32593E-21 5.29587E-22 3.58458E-21
 -1        14-3.42656E-05-3.01720E-21-6.20028E-22-5.35226E-21-3.10224E-22 2.38837E-21
 -1        15-3.42656E-05 2.08645E-13 1.74926E-13 1.32527E-13 8.13720E-15-3.67129E-14
 -1        16-3.42656E-05 1.80755E-13 2.15898E-13-1.16500E-13 3.68506E-15 2.51722E-14
 -1        17-3.42656E-05 1.07370E-14 3.64801E-14 7.44329E-14-9.87630E-15-8.84180E-15
 -1        18-6.85312E-05-3.23674E-14-9.26174E-14 2.28766E-13 3.41108E-14 2.77244E-13
 -1        19-6.85312E-05-3.43792E-20-3.11574E-20 9.99056E-23-1.49126E-21 2.43093E-21
 -1        20-3.42656E-05 2.17023E-21 1.66154E-22-1.68730E-21 1.32174E-21-5.82200E-21
 -1        21-3.42656E-05-2.30527E-13-2.52621E-13 1.05517E-13 9.23480E-15 1.29668E-13
 -1        22-3.42656E-05-2.63187E-13-2.22780E-13-9.09686E-14-4.46128E-15 1.00894E-13
 -1        23-3.42656E-05 7.51019E-14 8.67362E-14 1.11827E-13-1.27859E-14 5.60092E-14
 -1        24-6.85312E-05 1.54073E-13 1.42553E-13-2.19980E-14 3.88641E-14 2.01933E-13
 -3
    1PSTEP                       147          49           1          
  100CL  149 3.99781E-01          24                     0   49           1
 -4  TOSTRAIN    6    1
 -5  EXX         1    4    1    1
 -5  EYY         1    4    2    2
 -5  EZZ         1    4    3    3
 -5  EXY         1    4    1    2
 -5  EYZ         1    4    2    3
 -5  EZX         1    4    3    1
 -1         1-3.26339E-10 9.79017E-11 9.79017E-11-8.99750E-27-1.82435E-27-1.42582E-27
 -1         2-1.63169E-10 4.89508E-11 4.89508E-11 3.56372E-26 9.80726E-28 2.97712E-27
 -1         3-1.63169E-10 4.89508E-11 4.89508E-11-1.21582E-18-9.98733E-26-4.23859E-19
 -1         4-1.63169E-10 4.89508E-11 4.89508E-11 6.57778E-19-4.00256E-25 1.29841E-19
 -1         5-1.63169E-10 4.89508E-11 4.89508E-11 1.95039E-19-7.02744E-25-5.93128E-19
 -1         6-3.26339E-10 9.79017E-11 9.79017E-11-1.54859E-19 1.56126E-26-1.93067E-18
 -1         7-3.26339E-10 9.79017E-11 9.79017E-11-3.26872E-26-1.43343E-26 7.18426E-27
 -1         8-1.63169E-10 4.89508E-11 4.89508E-11 1.66964E-26 1.10833E-26-3.99731E-26
 -1         9-1.63169E-10 4.89508E-11 4.89508E-11-1.30291E-18 6.79454E-21 7.22968E-19
 -1        10-1.63169E-10 4.89508E-11 4.89508E-11 8.95942E-19-5.04301E-20 2.92926E-19
 -1        11-1.63169E-10 4.89508E-11 4.89508E-11 2.35646E-20-1.80124E-20 1.12121E-18
 -1        12-3.26339E-10 9.79017E-11 9.79017E-11 8.67003E-19 2.94254E-20-1.46119E-18
 -1        13-3.26339E-10 9.79017E-11 9.79017E-11 8.20815E-27 3.27840E-27 2.21903E-26
 -1        14-1.63169E-10 4.89508E-11 4.89508E-11-3.31330E-26-1.92043E-27 1.47852E-26
 -1        15-1.63169E-10 4.89508E-11 4.89508E-11 8.20406E-19 5.03732E-20-2.27270E-19
 -1        16-1.63169E-10 4.89508E-11 4.89508E-11-7.21189E-19 2.28123E-20 1.55828E-19
 -1        17-1.63169E-10 4.89508E-11 4.89508E-11 4.60775E-19-6.11390E-20-5.47349E-20
 -1        18-3.26339E-10 9.79017E-11 9.79017E-11 1.41617E-18 2.11162E-19 1.71627E-18
 -1        19-3.26339E-10 9.79017E-11 9.79017E-11 6.18464E-28-9.23159E-27 1.50486E-26
 -1        20-1.63169E-10 4.89508E-11 4.89508E-11-1.04452E-26 8.18217E-27-3.60410E-26
 -1        21-1.63169E-10 4.89508E-11 4.89508E-11 6.53199E-19 5.71678E-20 8.02710E-19
 -1        22-1.63169E-10 4.89508E-11 4.89508E-11-5.63139E-19-2.76174E-20 6.24583E-19
 -1        23-1.63169E-10 4.89508E-11 4.89508E-11 6.92264E-19-7.91508E-20 3.46723E-19
 -1        24-3.26339E-10 9.79017E-11 9.79017E-11-1.36178E-19 2.40587E-19 1.25006E-18
 -3
    1PSTEP                       148          50           1          
  100CL  150 4.08781E-01          24                     0   50           1
 -4  DISP        4    1
 -5  D1          1    2    1    0
 -5  D2          1    2    2    0
 -5  D3          1    2    3    0
 -5  ALL         1    2    0    0    1ALL
 -1         1 0.00000E+00 0.00000E+00 0.00000E+00
 -1         2-1.66849E-07 0.00000E+00 0.00000E+00
 -1         3-6.13172E+00 0.00000E+00 0.00000E+00
 -1         4-6.13172E+00 0.00000E+00 0.00000E+00
 -1         5-1.22634E+01 0.00000E+00 0.00000E+00
 -1         6-1.22634E+01 0.00000E+00 0.00000E+00
 -1         7 0.00000E+00 5.00548E-08 0.00000E+00
 -1         8-1.66849E-07 5.00548E-08 0.00000E+00
 -1         9-6.13172E+00 5.00548E-08 0.00000E+00
 -1        10-6.13172E+00 5.00548E-08 0.00000E+00
 -1        11-1.22634E+01 5.00548E-08 0.00000E+00
 -1        12-1.22634E+01 5.00548E-08 0.00000E+00
 -1        13 0.00000E+00 0.00000E+00 7.00768E-08
 -1        14-1.66849E-07 0.00000E+00 7.00768E-08
 -1        15-6.13172E+00 0.00000E+00 7.00768E-08
 -1        16-6.13172E+00 0.00000E+00 7.00768E-08
 -1        17-1.22634E+01 0.00000E+00 7.00768E-08
 -1        18-1.22634E+01 0.00000E+00 7.00768E-08
 -1        19 0.00000E+00 5.00548E-08 7.00768E-08
 -1        20-1.66849E-07 5.00548E-08 7.00768E-08
 -1        21-6.13172E+00 5.00548E-08 7.00768E-08
 -1        22-6.13172E+00 5.00548E-08 7.00768E-08
 -1        23-1.22634E+01 5.00548E-08 7.00768E-08
 -1        24-1.22634E+01 5.00548E-08 7.00768E-08
 -3
    1PSTEP                       149          50           1          
  100CL  150 4.08781E-01          24                     0   50           1
 -4  STRESS      6    1
 -5  SXX         1    4    1    1
 -5  SYY         1    4    2    2
 -5  SZZ         1    4    3    3
 -5  SXY         1    4    1    2
 -5  SYZ         1    4    2    3
 -5  SZX         1    4    3    1
 -1         1-7.00740E-05-1.95869E-20-7.85030E-21-4.68281E-22-5.24266E-22 2.14082E-21
 -1         2-3.50370E-05-1.12606E-20-7.25243E-21 1.49124E-21 2.99787E-23 3.13185E-21
 -1         3-3.50370E-05 1.16423E-13 8.09089E-14 3.33249E-14 1.95372E-20 6.06398E-14
 -1         4-3.50370E-05 8.27289E-14 1.10648E-13-6.37015E-14-3.90549E-20-6.86907E-14
 -1         5-3.50370E-05-8.60010E-14-1.63492E-13-2.06759E-13 2.63128E-19 2.07146E-13
 -1         6-7.00740E-05 7.50634E-14 2.32271E-13 8.80278E-13-5.59055E-19-8.32804E-13
 -1         7-7.00740E-05 1.97084E-20 5.82366E-21-2.48617E-21-2.21422E-21-6.71072E-22
 -1         8-3.50370E-05-3.63736E-21 1.44470E-21 1.95724E-22 7.57890E-22 4.27042E-21
 -1         9-3.50370E-05 1.34175E-13 1.25303E-13-1.40798E-14-9.92535E-15-6.47259E-14
 -1        10-3.50370E-05 6.51772E-14 7.26682E-14 3.63029E-14 6.71971E-15 4.54722E-14
 -1        11-3.50370E-05 2.23939E-13 2.66659E-13-3.21335E-14-7.15232E-15-1.74665E-13
 -1        12-7.00740E-05 3.34544E-13 2.51641E-13-4.10934E-13 1.60060E-14 4.97168E-13
 -1        13-7.00740E-05 1.91329E-20 2.92972E-20 3.91438E-22 1.28976E-21-2.08179E-21
 -1        14-3.50370E-05 1.13213E-20 1.31815E-20 1.24307E-21-1.50263E-21 1.02054E-21
 -1        15-3.50370E-05-7.09496E-14-7.86729E-14-1.02909E-13 1.86502E-14-3.02763E-15
 -1        16-3.50370E-05-2.30828E-14-1.39793E-14 1.57640E-13-1.42995E-14 6.11967E-14
 -1        17-3.50370E-05 7.72783E-15-4.97359E-14-7.78385E-14 8.41482E-14 6.38993E-14
 -1        18-7.00740E-05 4.11049E-13 5.23438E-13-8.20129E-14-1.68078E-13 5.48219E-14
 -1        19-7.00740E-05 3.88659E-21 6.03440E-21-6.33731E-22-2.53919E-21-4.69795E-21
 -1        20-3.50370E-05 4.76168E-22-5.39221E-21 1.79998E-21-4.88152E-22 2.25698E-21
 -1        21-3.50370E-05 6.50199E-14 8.39397E-14-4.52779E-14 8.72479E-15 1.56998E-13
 -1        22-3.50370E-05 7.75836E-14 6.62594E-14-2.40861E-14-7.57972E-15-5.11448E-14
 -1        23-3.50370E-05-7.63926E-14-1.36450E-14-4.54588E-14 7.69957E-14 2.84856E-13
 -1        24-7.00740E-05-1.17592E-13-2.45314E-13-1.10656E-13-1.52071E-13-2.30782E-13
 -3
    1PSTEP                       150          50           1          
  100CL  150 4.08781E-01          24                     0   50           1
 -4  TOSTRAIN    6    1
 -5  EXX         1    4    1    1
 -5  EYY         1    4    2    2
 -5  EZZ         1    4    3    3
 -5  EXY         1    4    1    2
 -5  EYZ         1    4    2    3
 -5  EZX         1    4    3    1
 -1         1-3.33686E-10 1.00106E-10 1.00106E-10-2.89888E-27-3.24546E-27 1.32527E-26
 -1         2-1.66843E-10 5.00528E-11 5.00528E-11 9.23146E-27 1.85583E-28 1.93876E-26
 -1         3-1.66843E-10 5.00528E-11 5.00528E-11 2.06297E-19 1.20945E-25 3.75389E-19
 -1         4-1.66843E-10 5.00528E-11 5.00528E-11-3.94343E-19-2.41768E-25-4.25228E-19
 -1         5-1.66843E-10 5.00528E-11 5.00528E-11-1.27994E-18 1.62889E-24 1.28233E-18
 -1         6-3.33686E-10 1.00106E-10 1.00106E-10 5.44934E-18-3.46082E-24-5.15545E-18
 -1         7-3.33686E-10 1.00106E-10 1.00106E-10-1.53906E-26-1.37071E-26-4.15426E-27
 -1         8-1.66843E-10 5.00528E-11 5.00528E-11 1.21163E-27 4.69170E-27 2.64359E-26
 -1         9-1.66843E-10 5.00528E-11 5.00528E-11-8.71604E-20-6.14427E-20-4.00684E-19
 -1        10-1.66843E-10 5.00528E-11 5.00528E-11 2.24732E-19 4.15982E-20 2.81494E-19
 -1        11-1.66843E-10 5.00528E-11 5.00528E-11-1.98921E-19-4.42763E-20-1.08126E-18
 -1        12-3.33686E-10 1.00106E-10 1.00106E-10-2.54388E-18 9.90848E-20 3.07771E-18
 -1        13-3.33686E-10 1.00106E-10 1.00106E-10 2.42319E-27 7.98420E-27-1.28873E-26
 -1        14-1.66843E-10 5.00528E-11 5.00528E-11 7.69517E-27-9.30199E-27 6.31766E-27
 -1        15-1.66843E-10 5.00528E-11 5.00528E-11-6.37054E-19 1.15453E-19-1.87425E-20
 -1        16-1.66843E-10 5.00528E-11 5.00528E-11 9.75864E-19-8.85205E-20 3.78837E-19
 -1        17-1.66843E-10 5.00528E-11 5.00528E-11-4.81857E-19 5.20918E-19 3.95567E-19
 -1        18-3.33686E-10 1.00106E-10 1.00106E-10-5.07699E-19-1.04048E-18 3.39374E-19
 -1        19-3.33686E-10 1.00106E-10 1.00106E-10-3.92310E-27-1.57188E-26-2.90826E-26
 -1        20-1.66843E-10 5.00528E-11 5.00528E-11 1.11427E-26-3.02189E-27 1.39718E-26
 -1        21-1.66843E-10 5.00528E-11 5.00528E-11-2.80292E-19 5.40106E-20 9.71891E-19
 -1        22-1.66843E-10 5.00528E-11 5.00528E-11-1.49105E-19-4.69221E-20-3.16611E-19
 -1        23-1.66843E-10 5.00528E-11 5.00528E-11-2.81412E-19 4.76640E-19 1.76340E-18
 -1        24-3.33686E-10 1.00106E-10 1.00106E-10-6.85013E-19-9.41395E-19-1.42865E-18
 -3
    1PSTEP                       151          51           1          
  100CL  151 4.17781E-01          24                     0   51           1
 -4  DISP        4    1
 -5  D1          1    2    1    0
 -5  D2          1    2    2    0
 -5  D3          1    2    3    0
 -5  ALL         1    2    0    0    1ALL
 -1         1 0.00000E+00 0.00000E+00 0.00000E+00
 -1         2-1.70523E-07 0.00000E+00 0.00000E+00
 -1         3-6.26672E+00 0.00000E+00 0.00000E+00
 -1         4-6.26672E+00 0.00000E+00 0.00000E+00
 -1         5-1.25334E+01 0.00000E+00 0.00000E+00
 -1         6-1.25334E+01 0.00000E+00 0.00000E+00
 -1         7 0.00000E+00 5.11569E-08 0.00000E+00
 -1         8-1.70523E-07 5.11569E-08 0.00000E+00
 -1         9-6.26672E+00 5.11569E-08 0.00000E+00
 -1        10-6.26672E+00 5.11569E-08 0.00000E+00
 -1        11-1.25334E+01 5.11569E-08 0.00000E+00
 -1        12-1.25334E+01 5.11569E-08 0.00000E+00
 -1        13 0.00000E+00 0.00000E+00 7.16196E-08
 -1        14-1.70523E-07 0.00000E+00 7.16196E-08
 -1        15-6.26672E+00 0.00000E+00 7.16196E-08
 -1        16-6.26672E+00 0.00000E+00 7.16196E-08
 -1        17-1.25334E+01 0.00000E+00 7.16196E-08
 -1        18-1.25334E+01 0.00000E+00 7.16196E-08
 -1        19 0.00000E+00 5.11569E-08 7.16196E-08
 -1        20-1.70523E-07 5.11569E-08 7.16196E-08
 -1        21-6.26672E+00 5.11569E-08 7.16196E-08
 -1        22-6.26672E+00 5.11569E-08 7.16196E-08
 -1        23-1.25334E+01 5.11569E-08 7.16196E-08
 -1        24-1.25334E+01 5.11569E-08 7.16196E-08
 -3
    1PSTEP                       152          51           1          
  100CL  151 4.17781E-01          24                     0   51           1
 -4  STRESS      6    1
 -5  SXX         1    4    1    1
 -5  SYY         1    4    2    2
 -5  SZZ         1    4    3    3
 -5  SXY         1    4    1    2
 -5  SYZ         1    4    2    3
 -5  SZX         1    4    3    1
 -1         1-7.16168E-05 1.09506E-20 2.26873E-20 6.32578E-22 1.73688E-21 1.17999E-21
 -1         2-3.58084E-05 2.36559E-20 2.25820E-20-1.97355E-20-6.96454E-22-9.05925E-21
 -1         3-3.58084E-05-4.22923E-14-8.65555E-14-6.76093E-14 7.12968E-20 7.32820E-14
 -1         4-3.58084E-05-9.72331E-14-5.65880E-14 2.58988E-14-7.87668E-20 5.47205E-15
 -1         5-3.58084E-05-6.34615E-14-7.57684E-14-1.32214E-13 1.06246E-19-3.11216E-13
 -1         6-7.16168E-05-6.54298E-14-6.19680E-14 8.11596E-14-3.21777E-19 6.83265E-13
 -1         7-7.16168E-05-6.70645E-20-5.69003E-20 7.71061E-21 3.13581E-21-3.33553E-22
 -1         8-3.58084E-05-1.16313E-20-1.85737E-20-1.70562E-20-3.46549E-22 1.23158E-20
 -1         9-3.58084E-05 1.25342E-13 1.35863E-13-9.10616E-14-1.69142E-14 7.47416E-14
 -1        10-3.58084E-05-9.64054E-15-2.09328E-14 1.15860E-15 1.53467E-14-1.43525E-13
 -1        11-3.58084E-05 1.72540E-14 7.11295E-14-1.37387E-13-6.92008E-15 2.43191E-13
 -1        12-7.16168E-05-8.72649E-14-1.95793E-13 1.58042E-13 6.00827E-15 3.05464E-13
 -1        13-7.16168E-05-1.73941E-20-1.36737E-20-6.62418E-22 4.05319E-21 6.09839E-21
 -1        14-3.58084E-05-7.12463E-21-2.04250E-21 4.98539E-21-4.73222E-21-7.17318E-21
 -1        15-3.58084E-05-4.41293E-14-4.10324E-14 2.10910E-14 3.83492E-14 1.21583E-13
 -1        16-3.58084E-05 5.90092E-14 5.66834E-14-1.80423E-14-3.63562E-14-5.07098E-14
 -1        17-3.58084E-05-6.62917E-14-5.92221E-14-3.11934E-14 4.63278E-14-3.65429E-14
 -1        18-7.16168E-05 2.61696E-14 1.28073E-14 4.75511E-13-7.83932E-14-4.38373E-14
 -1        19-7.16168E-05 2.38382E-20 1.58219E-20 1.94380E-22 7.59112E-21-1.28072E-20
 -1        20-3.58084E-05-3.93023E-22-6.26140E-21 8.62227E-21-4.66889E-21 8.21794E-21
 -1        21-3.58084E-05-1.52338E-13-9.44565E-14 2.83810E-14 2.14349E-14-4.30102E-14
 -1        22-3.58084E-05-1.29241E-13-1.83504E-13 5.62124E-14-2.10094E-14 6.65071E-14
 -1        23-3.58084E-05-2.49823E-14 4.82698E-14 7.36835E-14 3.94076E-14 1.88176E-13
 -1        24-7.16168E-05-7.44776E-14-1.99830E-13-1.37543E-13-7.23846E-14-2.61982E-13
 -3
    1PSTEP                       153          51           1          
  100CL  151 4.17781E-01          24                     0   51           1
 -4  TOSTRAIN    6    1
 -5  EXX         1    4    1    1
 -5  EYY         1    4    2    2
 -5  EZZ         1    4    3    3
 -5  EXY         1    4    1    2
 -5  EYZ         1    4    2    3
 -5  EZX         1    4    3    1
 -1         1-3.41032E-10 1.02310E-10 1.02310E-10 3.91596E-27 1.07521E-26 7.30468E-27
 -1         2-1.70516E-10 5.11548E-11 5.11548E-11-1.22172E-25-4.31138E-27-5.60811E-26
 -1         3-1.70516E-10 5.11548E-11 5.11548E-11-4.18534E-19 4.41361E-25 4.53651E-19
 -1         4-1.70516E-10 5.11548E-11 5.11548E-11 1.60326E-19-4.87604E-25 3.38746E-20
 -1         5-1.70516E-10 5.11548E-11 5.11548E-11-8.18466E-19 6.57715E-25-1.92658E-18
 -1         6-3.41032E-10 1.02310E-10 1.02310E-10 5.02417E-19-1.99195E-24 4.22974E-18
 -1         7-3.41032E-10 1.02310E-10 1.02310E-10 4.77323E-26 1.94122E-26-2.06485E-27
 -1         8-1.70516E-10 5.11548E-11 5.11548E-11-1.05586E-25-2.14531E-27 7.62404E-26
 -1         9-1.70516E-10 5.11548E-11 5.11548E-11-5.63714E-19-1.04707E-19 4.62686E-19
 -1        10-1.70516E-10 5.11548E-11 5.11548E-11 7.17231E-21 9.50035E-20-8.88489E-19
 -1        11-1.70516E-10 5.11548E-11 5.11548E-11-8.50489E-19-4.28386E-20 1.50547E-18
 -1        12-3.41032E-10 1.02310E-10 1.02310E-10 9.78355E-19 3.71940E-20 1.89097E-18
 -1        13-3.41032E-10 1.02310E-10 1.02310E-10-4.10068E-27 2.50912E-26 3.77519E-26
 -1        14-1.70516E-10 5.11548E-11 5.11548E-11 3.08619E-26-2.92947E-26-4.44054E-26
 -1        15-1.70516E-10 5.11548E-11 5.11548E-11 1.30563E-19 2.37400E-19 7.52658E-19
 -1        16-1.70516E-10 5.11548E-11 5.11548E-11-1.11691E-19-2.25062E-19-3.13918E-19
 -1        17-1.70516E-10 5.11548E-11 5.11548E-11-1.93102E-19 2.86791E-19-2.26218E-19
 -1        18-3.41032E-10 1.02310E-10 1.02310E-10 2.94364E-18-4.85291E-19-2.71374E-19
 -1        19-3.41032E-10 1.02310E-10 1.02310E-10 1.20331E-27 4.69926E-26-7.92825E-26
 -1        20-1.70516E-10 5.11548E-11 5.11548E-11 5.33759E-26-2.89026E-26 5.08729E-26
 -1        21-1.70516E-10 5.11548E-11 5.11548E-11 1.75692E-19 1.32692E-19-2.66254E-19
 -1        22-1.70516E-10 5.11548E-11 5.11548E-11 3.47981E-19-1.30058E-19 4.11711E-19
 -1        23-1.70516E-10 5.11548E-11 5.11548E-11 4.56136E-19 2.43952E-19 1.16490E-18
 -1        24-3.41032E-10 1.02310E-10 1.02310E-10-8.51456E-19-4.48095E-19-1.62179E-18
 -3
    1PSTEP                       154          52           1          
  100CL  152 4.26781E-01          24                     0   52           1
 -4  DISP        4    1
 -5  D1          1    2    1    0
 -5  D2          1    2    2    0
 -5  D3          1    2    3    0
 -5  ALL         1    2    0    0    1ALL
 -1         1 0.00000E+00 0.00000E+00 0.00000E+00
 -1         2-1.74196E-07 0.00000E+00 0.00000E+00
 -1         3-6.40172E+00 0.00000E+00 0.00000E+00
 -1         4-6.40172E+00 0.00000E+00 0.00000E+00
 -1         5-1.28034E+01 0.00000E+00 0.00000E+00
 -1         6-1.28034E+01 0.00000E+00 0.00000E+00
 -1         7 0.00000E+00 5.22589E-08 0.00000E+00
 -1         8-1.74196E-07 5.22589E-08 0.00000E+00
 -1         9-6.40172E+00 5.22589E-08 0.00000E+00
 -1        10-6.40172E+00 5.22589E-08 0.00000E+00
 -1        11-1.28034E+01 5.22589E-08 0.00000E+00
 -1        12-1.28034E+01 5.22589E-08 0.00000E+00
 -1        13 0.00000E+00 0.00000E+00 7.31625E-08
 -1        14-1.74196E-07 0.00000E+00 7.31625E-08
 -1        15-6.40172E+00 0.00000E+00 7.31625E-08
 -1        16-6.40172E+00 0.00000E+00 7.31625E-08
 -1        17-1.28034E+01 0.00000E+00 7.31625E-08
 -1        18-1.28034E+01 0.00000E+00 7.31625E-08
 -1        19 0.00000E+00 5.22589E-08 7.31625E-08
 -1        20-1.74196E-07 5.22589E-08 7.31625E-08
 -1        21-6.40172E+00 5.22589E-08 7.31625E-08
 -1        22-6.40172E+00 5.22589E-08 7.31625E-08
 -1        23-1.28034E+01 5.22589E-08 7.31625E-08
 -1        24-1.28034E+01 5.22589E-08 7.31625E-08
 -3
    1PSTEP                       155          52           1          
  100CL  152 4.26781E-01          24                     0   52           1
 -4  STRESS      6    1
 -5  SXX         1    4    1    1
 -5  SYY         1    4    2    2
 -5  SZZ         1    4    3    3
 -5  SXY         1    4    1    2
 -5  SYZ         1    4    2    3
 -5  SZX         1    4    3    1
 -1         1-7.31596E-05-1.00427E-20-8.13789E-21 2.46020E-22 5.13764E-22-8.44749E-22
 -1         2-3.65798E-05-1.01034E-20 8.24332E-21-3.25095E-21-3.41198E-22 1.23136E-21
 -1         3-3.65798E-05 8.22764E-14 1.05318E-14-4.20401E-14 1.34357E-19-5.53082E-15
 -1         4-3.65798E-05 2.66512E-14 9.84016E-14-1.22066E-13-2.98924E-20-9.25705E-14
 -1         5-3.65798E-05 2.18844E-13 2.36810E-13-1.60199E-13-1.21026E-19-6.61651E-14
 -1         6-7.31596E-05 5.53206E-13 5.77325E-13 8.07943E-13-5.37993E-19 1.07634E-13
 -1         7-7.31596E-05-1.37630E-20-9.13481E-21-5.58754E-21-3.55156E-21-6.45287E-22
 -1         8-3.65798E-05-8.24326E-21-8.86335E-21-6.16773E-21 4.32293E-21 1.52683E-21
 -1         9-3.65798E-05-6.35417E-14-7.81066E-14-1.39150E-13-1.98014E-14-1.09455E-15
 -1        10-3.65798E-05-2.09322E-13-2.00599E-13-1.24308E-13 1.77173E-14 3.44198E-14
 -1        11-3.65798E-05-3.01115E-13-2.24591E-13-5.30617E-15-8.66413E-15-3.60367E-13
 -1        12-7.31596E-05-6.60139E-13-7.50139E-13-2.30493E-13 6.12919E-14 4.96576E-13
 -1        13-7.31596E-05-1.06180E-20-5.98981E-21-5.82767E-22 2.54351E-21 3.73169E-21
 -1        14-3.65798E-05 1.36578E-20 1.30377E-20-5.33635E-22-4.91172E-21 3.51958E-21
 -1        15-3.65798E-05-1.12449E-13-1.28749E-13-3.00210E-13 4.00259E-14 2.46961E-14
 -1        16-3.65798E-05 1.57685E-14 3.79103E-14 2.00640E-13-4.41190E-14 5.36428E-14
 -1        17-3.65798E-05-2.96482E-13-2.54257E-13-4.76539E-13 4.09902E-14-2.50333E-13
 -1        18-7.31596E-05-9.22065E-14-2.39706E-13 2.98201E-13-7.98839E-14 3.75124E-13
 -1        19-7.31596E-05 3.26657E-21 1.06181E-20 7.28491E-21 6.17171E-22-7.02984E-21
 -1        20-3.65798E-05 6.71548E-21-1.28714E-20 3.40021E-21-5.34160E-22-1.66545E-21
 -1        21-3.65798E-05 9.63874E-14 1.37267E-13-5.28954E-14 2.02244E-14-3.09735E-14
 -1        22-3.65798E-05 1.34450E-13 9.35643E-14 1.56057E-13-2.64017E-14 6.77262E-15
 -1        23-3.65798E-05 1.29304E-13 2.30087E-13-3.62767E-13 3.23262E-14 7.33718E-14
 -1        24-7.31596E-05 5.85939E-13 3.24321E-13 8.75584E-14-1.85915E-14-1.38706E-13
 -3
    1PSTEP                       156          52           1          
  100CL  152 4.26781E-01          24                     0   52           1
 -4  TOSTRAIN    6    1
 -5  EXX         1    4    1    1
 -5  EYY         1    4    2    2
 -5  EZZ         1    4    3    3
 -5  EXY         1    4    1    2
 -5  EYZ         1    4    2    3
 -5  EZX         1    4    3    1
 -1         1-3.48379E-10 1.04514E-10 1.04514E-10 1.52298E-27 3.18045E-27-5.22940E-27
 -1         2-1.74189E-10 5.22568E-11 5.22568E-11-2.01249E-26-2.11218E-27 7.62273E-27
 -1         3-1.74189E-10 5.22568E-11 5.22568E-11-2.60248E-19 8.31735E-25-3.42384E-20
 -1         4-1.74189E-10 5.22568E-11 5.22568E-11-7.55644E-19-1.85048E-25-5.73055E-19
 -1         5-1.74189E-10 5.22568E-11 5.22568E-11-9.91707E-19-7.49211E-25-4.09594E-19
 -1         6-3.48379E-10 1.04514E-10 1.04514E-10 5.00155E-18-3.33043E-24 6.66304E-19
 -1         7-3.48379E-10 1.04514E-10 1.04514E-10-3.45895E-26-2.19858E-26-3.99464E-27
 -1         8-1.74189E-10 5.22568E-11 5.22568E-11-3.81812E-26 2.67610E-26 9.45178E-27
 -1         9-1.74189E-10 5.22568E-11 5.22568E-11-8.61404E-19-1.22580E-19-6.77580E-21
 -1        10-1.74189E-10 5.22568E-11 5.22568E-11-7.69524E-19 1.09679E-19 2.13075E-19
 -1        11-1.74189E-10 5.22568E-11 5.22568E-11-3.28477E-20-5.36351E-20-2.23084E-18
 -1        12-3.48379E-10 1.04514E-10 1.04514E-10-1.42686E-18 3.79426E-19 3.07404E-18
 -1        13-3.48379E-10 1.04514E-10 1.04514E-10-3.60761E-27 1.57455E-26 2.31010E-26
 -1        14-1.74189E-10 5.22568E-11 5.22568E-11-3.30346E-27-3.04059E-26 2.17879E-26
 -1        15-1.74189E-10 5.22568E-11 5.22568E-11-1.85844E-18 2.47780E-19 1.52881E-19
 -1        16-1.74189E-10 5.22568E-11 5.22568E-11 1.24206E-18-2.73118E-19 3.32074E-19
 -1        17-1.74189E-10 5.22568E-11 5.22568E-11-2.95000E-18 2.53749E-19-1.54968E-18
 -1        18-3.48379E-10 1.04514E-10 1.04514E-10 1.84601E-18-4.94519E-19 2.32220E-18
 -1        19-3.48379E-10 1.04514E-10 1.04514E-10 4.50971E-26 3.82058E-27-4.35180E-26
 -1        20-1.74189E-10 5.22568E-11 5.22568E-11 2.10489E-26-3.30670E-27-1.03099E-26
 -1        21-1.74189E-10 5.22568E-11 5.22568E-11-3.27447E-19 1.25199E-19-1.91741E-19
 -1        22-1.74189E-10 5.22568E-11 5.22568E-11 9.66066E-19-1.63439E-19 4.19258E-20
 -1        23-1.74189E-10 5.22568E-11 5.22568E-11-2.24570E-18 2.00115E-19 4.54207E-19
 -1        24-3.48379E-10 1.04514E-10 1.04514E-10 5.42028E-19-1.15090E-19-8.58659E-19
 -3
    1PSTEP                       157          53           1          
  100CL  153 4.35781E-01          24                     0   53           1
 -4  DISP        4    1
 -5  D1          1    2    1    0
 -5  D2          1    2    2    0
 -5  D3          1    2    3    0
 -5  ALL         1    2    0    0    1ALL
 -1         1 0.00000E+00 0.00000E+00 0.00000E+00
 -1         2-1.77870E-07 0.00000E+00 0.00000E+00
 -1         3-6.53672E+00 0.00000E+00 0.00000E+00
 -1         4-6.53672E+00 0.00000E+00 0.00000E+00
 -1         5-1.30734E+01 0.00000E+00 0.00000E+00
 -1         6-1.30734E+01 0.00000E+00 0.00000E+00
 -1         7 0.00000E+00 5.33610E-08 0.00000E+00
 -1         8-1.77870E-07 5.33610E-08 0.00000E+00
 -1         9-6.53672E+00 5.33610E-08 0.00000E+00
 -1        10-6.53672E+00 5.33610E-08 0.00000E+00
 -1        11-1.30734E+01 5.33610E-08 0.00000E+00
 -1        12-1.30734E+01 5.33610E-08 0.00000E+00
 -1        13 0.00000E+00 0.00000E+00 7.47054E-08
 -1        14-1.77870E-07 0.00000E+00 7.47054E-08
 -1        15-6.53672E+00 0.00000E+00 7.47054E-08
 -1        16-6.53672E+00 0.00000E+00 7.47054E-08
 -1        17-1.30734E+01 0.00000E+00 7.47054E-08
 -1        18-1.30734E+01 0.00000E+00 7.47054E-08
 -1        19 0.00000E+00 5.33610E-08 7.47054E-08
 -1        20-1.77870E-07 5.33610E-08 7.47054E-08
 -1        21-6.53672E+00 5.33610E-08 7.47054E-08
 -1        22-6.53672E+00 5.33610E-08 7.47054E-08
 -1        23-1.30734E+01 5.33610E-08 7.47054E-08
 -1        24-1.30734E+01 5.33610E-08 7.47054E-08
 -3
    1PSTEP                       158          53           1          
  100CL  153 4.35781E-01          24                     0   53           1
 -4  STRESS      6    1
 -5  SXX         1    4    1    1
 -5  SYY         1    4    2    2
 -5  SZZ         1    4    3    3
 -5  SXY         1    4    1    2
 -5  SYZ         1    4    2    3
 -5  SZX         1    4    3    1
 -1         1-7.47024E-05-2.19009E-20-1.52463E-20 1.49846E-21-5.72120E-23-5.66853E-22
 -1         2-3.73512E-05 1.51461E-28 1.46713E-21-5.16113E-21 1.20803E-22-5.96185E-21
 -1         3-3.73512E-05 3.20825E-14 1.17046E-14 1.01034E-13 2.25965E-20-3.21514E-14
 -1         4-3.73512E-05 4.80148E-14 6.78598E-14 7.57785E-14-1.67707E-20 1.24058E-13
 -1         5-3.73512E-05 3.29312E-14-5.10710E-15-4.77797E-15-5.10823E-19 6.40917E-14
 -1         6-7.47024E-05-1.16533E-13-7.86235E-14 3.56569E-14 9.56783E-20-3.14207E-13
 -1         7-7.47024E-05 3.02923E-28-2.93412E-21-2.20640E-21 2.66294E-22 7.01346E-22
 -1         8-3.73512E-05-2.93412E-21 2.54110E-21-7.01356E-21 2.47751E-21 1.52746E-22
 -1         9-3.73512E-05-1.19128E-13-1.13209E-13 1.43961E-13-1.29690E-14-5.20549E-14
 -1        10-3.73512E-05-1.42604E-13-1.49007E-13-9.79003E-14 1.26057E-14-1.69840E-14
 -1        11-3.73512E-05 4.01216E-14-2.67931E-14-7.11173E-14-4.50723E-14-3.10214E-13
 -1        12-7.47024E-05 4.26390E-14 2.15850E-13 2.77297E-13 9.05775E-14 5.72058E-14
 -1        13-7.47024E-05 5.86838E-21 5.08220E-21-1.37037E-21 4.27699E-21 8.89400E-21
 -1        14-3.73512E-05 6.78231E-26 1.46713E-21 3.19105E-21-4.47188E-21-1.23142E-21
 -1        15-3.73512E-05-6.58909E-14-4.99554E-14-7.84140E-15 1.84076E-14 5.64792E-14
 -1        16-3.73512E-05 7.53578E-14 5.99068E-14-9.20787E-14-1.83738E-14-9.23449E-14
 -1        17-3.73512E-05-5.23093E-13-4.34930E-13-1.65704E-14-2.02140E-14 2.16796E-13
 -1        18-7.47024E-05-3.43048E-13-5.58756E-13 1.23683E-13 9.47114E-14 1.65480E-13
 -1        19-7.47024E-05 1.35646E-25-2.93412E-21-3.77669E-22 6.73948E-21-4.12623E-21
 -1        20-3.73512E-05 7.86250E-22-7.62316E-21 3.68741E-21-2.40174E-21-2.26104E-21
 -1        21-3.73512E-05-3.67771E-16 4.18643E-14-1.22671E-15 5.43860E-15-8.19378E-14
 -1        22-3.73512E-05 1.01472E-13 5.97730E-14 3.91941E-14-5.76807E-15 3.48652E-14
 -1        23-3.73512E-05-4.37090E-13-3.77804E-13 1.78213E-13-6.52858E-14-4.62539E-13
 -1        24-7.47024E-05-2.62524E-14-1.06658E-13-3.86483E-13 1.85289E-13-2.76620E-14
 -3
    1PSTEP                       159          53           1          
  100CL  153 4.35781E-01          24                     0   53           1
 -4  TOSTRAIN    6    1
 -5  EXX         1    4    1    1
 -5  EYY         1    4    2    2
 -5  EZZ         1    4    3    3
 -5  EXY         1    4    1    2
 -5  EYZ         1    4    2    3
 -5  EZX         1    4    3    1
 -1         1-3.55726E-10 1.06718E-10 1.06718E-10 9.27619E-27-3.54169E-28-3.50909E-27
 -1         2-1.77863E-10 5.33588E-11 5.33588E-11-3.19498E-26 7.47831E-28-3.69067E-26
 -1         3-1.77863E-10 5.33588E-11 5.33588E-11 6.25451E-19 1.39883E-25-1.99033E-19
 -1         4-1.77863E-10 5.33588E-11 5.33588E-11 4.69105E-19-1.03818E-25 7.67976E-19
 -1         5-1.77863E-10 5.33588E-11 5.33588E-11-2.95779E-20-3.16224E-24 3.96758E-19
 -1         6-3.55726E-10 1.06718E-10 1.06718E-10 2.20733E-19 5.92294E-25-1.94509E-18
 -1         7-3.55726E-10 1.06718E-10 1.06718E-10-1.36587E-26 1.64849E-27 4.34167E-27
 -1         8-1.77863E-10 5.33588E-11 5.33588E-11-4.34173E-26 1.53370E-26 9.45572E-28
 -1         9-1.77863E-10 5.33588E-11 5.33588E-11 8.91188E-19-8.02844E-20-3.22244E-19
 -1        10-1.77863E-10 5.33588E-11 5.33588E-11-6.06050E-19 7.80354E-20-1.05139E-19
 -1        11-1.77863E-10 5.33588E-11 5.33588E-11-4.40250E-19-2.79019E-19-1.92037E-18
 -1        12-3.55726E-10 1.06718E-10 1.06718E-10 1.71660E-18 5.60718E-19 3.54131E-19
 -1        13-3.55726E-10 1.06718E-10 1.06718E-10-8.48325E-27 2.64766E-26 5.50581E-26
 -1        14-1.77863E-10 5.33588E-11 5.33588E-11 1.97541E-26-2.76831E-26-7.62308E-27
 -1        15-1.77863E-10 5.33588E-11 5.33588E-11-4.85420E-20 1.13952E-19 3.49633E-19
 -1        16-1.77863E-10 5.33588E-11 5.33588E-11-5.70011E-19-1.13743E-19-5.71659E-19
 -1        17-1.77863E-10 5.33588E-11 5.33588E-11-1.02579E-19-1.25134E-19 1.34207E-18
 -1        18-3.55726E-10 1.06718E-10 1.06718E-10 7.65659E-19 5.86309E-19 1.02440E-18
 -1        19-3.55726E-10 1.06718E-10 1.06718E-10-2.33795E-27 4.17206E-26-2.55434E-26
 -1        20-1.77863E-10 5.33588E-11 5.33588E-11 2.28268E-26-1.48679E-26-1.39969E-26
 -1        21-1.77863E-10 5.33588E-11 5.33588E-11-7.59391E-21 3.36675E-20-5.07234E-19
 -1        22-1.77863E-10 5.33588E-11 5.33588E-11 2.42630E-19-3.57071E-20 2.15832E-19
 -1        23-1.77863E-10 5.33588E-11 5.33588E-11 1.10322E-18-4.04150E-19-2.86333E-18
 -1        24-3.55726E-10 1.06718E-10 1.06718E-10-2.39251E-18 1.14703E-18-1.71241E-19
 -3
    1PSTEP                       160          54           1          
  100CL  154 4.44781E-01          24                     0   54           1
 -4  DISP        4    1
 -5  D1          1    2    1    0
 -5  D2          1    2    2    0
 -5  D3          1    2    3    0
 -5  ALL         1    2    0    0    1ALL
 -1         1 0.00000E+00 0.00000E+00 0.00000E+00
 -1         2-1.81543E-07 0.00000E+00 0.00000E+00
 -1         3-6.67172E+00 0.00000E+00 0.00000E+00
 -1         4-6.67172E+00 0.00000E+00 0.00000E+00
 -1         5-1.33434E+01 0.00000E+00 0.00000E+00
 -1         6-1.33434E+01 0.00000E+00 0.00000E+00
 -1         7 0.00000E+00 5.44630E-08 0.00000E+00
 -1         8-1.81543E-07 5.44630E-08 0.00000E+00
 -1         9-6.67172E+00 5.44630E-08 0.00000E+00
 -1        10-6.67172E+00 5.44630E-08 0.00000E+00
 -1        11-1.33434E+01 5.44630E-08 0.00000E+00
 -1        12-1.33434E+01 5.44630E-08 0.00000E+00
 -1        13 0.00000E+00 0.00000E+00 7.62482E-08
 -1        14-1.81543E-07 0.00000E+00 7.62482E-08
 -1        15-6.67172E+00 0.00000E+00 7.62482E-08
 -1        16-6.67172E+00 0.00000E+00 7.62482E-08
 -1        17-1.33434E+01 0.00000E+00 7.62482E-08
 -1        18-1.33434E+01 0.00000E+00 7.62482E-08
 -1        19 0.00000E+00 5.44630E-08 7.62482E-08
 -1        20-1.81543E-07 5.44630E-08 7.62482E-08
 -1        21-6.67172E+00 5.44630E-08 7.62482E-08
 -1        22-6.67172E+00 5.44630E-08 7.62482E-08
 -1        23-1.33434E+01 5.44630E-08 7.62482E-08
 -1        24-1.33434E+01 5.44630E-08 7.62482E-08
 -3
    1PSTEP                       161          54           1          
  100CL  154 4.44781E-01          24                     0   54           1
 -4  STRESS      6    1
 -5  SXX         1    4    1    1
 -5  SYY         1    4    2    2
 -5  SZZ         1    4    3    3
 -5  SXY         1    4    1    2
 -5  SYZ         1    4    2    3
 -5  SZX         1    4    3    1
 -1         1-7.62452E-05-9.58868E-21 4.05275E-21 2.18882E-21 3.10670E-23-6.38168E-22
 -1         2-3.81226E-05 1.25999E-20 1.70621E-20-1.26024E-20-7.39732E-23-8.13805E-21
 -1         3-3.81226E-05-1.57090E-13-2.43988E-13-8.02787E-19 5.11852E-20 5.17924E-15
 -1         4-3.81226E-05-2.41198E-13-1.83081E-13-8.12942E-15-9.66030E-20-8.81289E-14
 -1         5-3.81226E-05-1.12396E-13-1.49474E-13 3.32708E-13-2.24378E-19 6.58089E-14
 -1         6-7.62452E-05-5.95069E-13-4.57217E-13-2.19153E-13 7.43695E-19 3.19724E-13
 -1         7-7.62452E-05-3.26407E-20-3.54531E-20-2.73915E-21 3.83340E-21 3.63314E-22
 -1         8-3.81226E-05-2.29749E-20-2.57430E-20-1.50664E-20 1.10023E-21 1.54591E-20
 -1         9-3.81226E-05 1.88090E-13 1.79562E-13-4.96780E-14-3.26466E-14-9.51590E-15
 -1        10-3.81226E-05 2.90627E-15 4.62746E-15-5.26522E-15 1.99362E-14-9.99039E-14
 -1        11-3.81226E-05 3.09507E-14-1.11015E-13 2.32646E-13-1.51950E-14-1.73079E-13
 -1        12-7.62452E-05-3.83511E-14 2.49758E-13 2.68128E-14 5.46312E-14-2.99021E-13
 -1        13-7.62452E-05-4.87132E-21-1.62755E-20-3.01123E-21 9.77190E-21 1.05769E-20
 -1        14-3.81226E-05-1.92545E-20-5.98995E-21 2.39439E-20-1.10508E-20-2.53050E-21
 -1        15-3.81226E-05 1.96855E-13 2.01367E-13 1.24314E-13 5.48599E-14-5.61867E-14
 -1        16-3.81226E-05 3.70403E-13 3.72698E-13-4.14387E-14-3.94769E-14 1.55538E-13
 -1        17-3.81226E-05 2.17172E-13 2.22639E-13-1.23256E-13-7.34213E-14-1.15281E-13
 -1        18-7.62452E-05 4.80665E-13 4.65552E-13 3.13296E-13 1.05181E-13 1.31824E-13
 -1        19-7.62452E-05 6.62786E-20 8.10710E-20-1.02880E-20 1.14353E-20-1.58241E-20
 -1        20-3.81226E-05 9.87654E-21-1.55786E-20 2.03056E-20-9.59004E-21 7.36537E-21
 -1        21-3.81226E-05-1.67274E-13-8.43915E-14 1.48253E-13 2.22133E-14 1.26679E-13
 -1        22-3.81226E-05-9.48016E-14-1.48902E-13 3.50415E-14-1.95406E-14-4.54409E-14
 -1        23-3.81226E-05-1.51760E-13-2.51180E-13-1.95717E-14-8.86161E-14-1.80424E-13
 -1        24-7.62452E-05 1.28256E-14 1.47970E-13-3.98299E-13 1.59812E-13-9.39287E-14
 -3
    1PSTEP                       162          54           1          
  100CL  154 4.44781E-01          24                     0   54           1
 -4  TOSTRAIN    6    1
 -5  EXX         1    4    1    1
 -5  EYY         1    4    2    2
 -5  EZZ         1    4    3    3
 -5  EXY         1    4    1    2
 -5  EYZ         1    4    2    3
 -5  EZX         1    4    3    1
 -1         1-3.63072E-10 1.08922E-10 1.08922E-10 1.35499E-26 1.92319E-28-3.95056E-27
 -1         2-1.81536E-10 5.44608E-11 5.44608E-11-7.80151E-26-4.57929E-28-5.03784E-26
 -1         3-1.81536E-10 5.44608E-11 5.44608E-11-4.96963E-24 3.16861E-25 3.20619E-20
 -1         4-1.81536E-10 5.44608E-11 5.44608E-11-5.03250E-20-5.98019E-25-5.45560E-19
 -1         5-1.81536E-10 5.44608E-11 5.44608E-11 2.05962E-18-1.38901E-24 4.07389E-19
 -1         6-3.63072E-10 1.08922E-10 1.08922E-10-1.35666E-18 4.60382E-24 1.97925E-18
 -1         7-3.63072E-10 1.08922E-10 1.08922E-10-1.69566E-26 2.37306E-26 2.24909E-27
 -1         8-1.81536E-10 5.44608E-11 5.44608E-11-9.32683E-26 6.81096E-27 9.56990E-26
 -1         9-1.81536E-10 5.44608E-11 5.44608E-11-3.07531E-19-2.02098E-19-5.89079E-20
 -1        10-1.81536E-10 5.44608E-11 5.44608E-11-3.25942E-20 1.23415E-19-6.18453E-19
 -1        11-1.81536E-10 5.44608E-11 5.44608E-11 1.44019E-18-9.40644E-20-1.07144E-18
 -1        12-3.63072E-10 1.08922E-10 1.08922E-10 1.65984E-19 3.38193E-19-1.85108E-18
 -1        13-3.63072E-10 1.08922E-10 1.08922E-10-1.86410E-26 6.04927E-26 6.54762E-26
 -1        14-1.81536E-10 5.44608E-11 5.44608E-11 1.48224E-25-6.84098E-26-1.56650E-26
 -1        15-1.81536E-10 5.44608E-11 5.44608E-11 7.69563E-19 3.39609E-19-3.47822E-19
 -1        16-1.81536E-10 5.44608E-11 5.44608E-11-2.56526E-19-2.44381E-19 9.62857E-19
 -1        17-1.81536E-10 5.44608E-11 5.44608E-11-7.63015E-19-4.54513E-19-7.13642E-19
 -1        18-3.63072E-10 1.08922E-10 1.08922E-10 1.93945E-18 6.51121E-19 8.16056E-19
 -1        19-3.63072E-10 1.08922E-10 1.08922E-10-6.36875E-26 7.07897E-26-9.79585E-26
 -1        20-1.81536E-10 5.44608E-11 5.44608E-11 1.25701E-25-5.93669E-26 4.55952E-26
 -1        21-1.81536E-10 5.44608E-11 5.44608E-11 9.17756E-19 1.37511E-19 7.84205E-19
 -1        22-1.81536E-10 5.44608E-11 5.44608E-11 2.16924E-19-1.20966E-19-2.81301E-19
 -1        23-1.81536E-10 5.44608E-11 5.44608E-11-1.21158E-19-5.48576E-19-1.11691E-18
 -1        24-3.63072E-10 1.08922E-10 1.08922E-10-2.46566E-18 9.89309E-19-5.81463E-19
 -3
    1PSTEP                       163          55           1          
  100CL  155 4.53781E-01          24                     0   55           1
 -4  DISP        4    1
 -5  D1          1    2    1    0
 -5  D2          1    2    2    0
 -5  D3          1    2    3    0
 -5  ALL         1    2    0    0    1ALL
 -1         1 0.00000E+00 0.00000E+00 0.00000E+00
 -1         2-1.85217E-07 0.00000E+00 0.00000E+00
 -1         3-6.80672E+00 0.00000E+00 0.00000E+00
 -1         4-6.80672E+00 0.00000E+00 0.00000E+00
 -1         5-1.36134E+01 0.00000E+00 0.00000E+00
 -1         6-1.36134E+01 0.00000E+00 0.00000E+00
 -1         7 0.00000E+00 5.55650E-08 0.00000E+00
 -1         8-1.85217E-07 5.55650E-08 0.00000E+00
 -1         9-6.80672E+00 5.55650E-08 0.00000E+00
 -1        10-6.80672E+00 5.55650E-08 0.00000E+00
 -1        11-1.36134E+01 5.55650E-08 0.00000E+00
 -1        12-1.36134E+01 5.55650E-08 0.00000E+00
 -1        13 0.00000E+00 0.00000E+00 7.77911E-08
 -1        14-1.85217E-07 0.00000E+00 7.77911E-08
 -1        15-6.80672E+00 0.00000E+00 7.77911E-08
 -1        16-6.80672E+00 0.00000E+00 7.77911E-08
 -1        17-1.36134E+01 0.00000E+00 7.77911E-08
 -1        18-1.36134E+01 0.00000E+00 7.77911E-08
 -1        19 0.00000E+00 5.55650E-08 7.77911E-08
 -1        20-1.85217E-07 5.55650E-08 7.77911E-08
 -1        21-6.80672E+00 5.55650E-08 7.77911E-08
 -1        22-6.80672E+00 5.55650E-08 7.77911E-08
 -1        23-1.36134E+01 5.55650E-08 7.77911E-08
 -1        24-1.36134E+01 5.55650E-08 7.77911E-08
 -3
    1PSTEP                       164          55           1          
  100CL  155 4.53781E-01          24                     0   55           1
 -4  STRESS      6    1
 -5  SXX         1    4    1    1
 -5  SYY         1    4    2    2
 -5  SZZ         1    4    3    3
 -5  SXY         1    4    1    2
 -5  SYZ         1    4    2    3
 -5  SZX         1    4    3    1
 -1         1-7.77880E-05-1.57236E-21-5.53594E-21 1.31791E-21-8.97507E-23 8.64745E-22
 -1         2-3.88940E-05-1.89668E-20-1.15705E-20 6.43634E-21 4.40203E-22 2.28480E-21
 -1         3-3.88940E-05 1.60863E-13 1.24134E-13 2.38661E-14 9.85388E-20-1.34030E-13
 -1         4-3.88940E-05 1.32367E-13 1.60960E-13 2.41383E-14-3.47967E-20 4.83451E-15
 -1         5-3.88940E-05-1.26854E-13-1.43307E-13-2.97765E-13-8.72298E-20-1.19868E-13
 -1         6-7.77880E-05-5.94767E-13-5.74245E-13 8.96537E-13-1.36013E-19 6.40120E-13
 -1         7-7.77880E-05-1.57236E-21-7.10830E-21-1.48473E-20-4.59383E-21-3.70068E-23
 -1         8-3.88940E-05-1.89668E-20-8.63635E-21-1.64627E-21 7.24077E-21-5.14855E-22
 -1         9-3.88940E-05-1.30519E-13-1.05884E-13 8.64083E-15-2.60744E-14 1.16904E-13
 -1        10-3.88940E-05-2.49647E-13-2.80534E-13 7.62502E-15 2.09362E-14 3.98514E-14
 -1        11-3.88940E-05 4.70966E-13 5.02744E-13-2.23213E-13-3.18567E-14 1.74532E-14
 -1        12-7.77879E-05 4.75421E-13 4.25134E-13-2.06432E-14 6.40293E-14 2.45625E-13
 -1        13-7.77880E-05-2.72324E-21 3.32579E-22-2.84051E-21-1.79144E-21 8.01083E-21
 -1        14-3.88940E-05 1.09506E-20 5.24835E-21 1.61688E-21-9.21858E-21 5.85785E-21
 -1        15-3.88940E-05-3.12907E-14 4.98941E-15-3.42067E-15 4.29542E-14-1.14337E-13
 -1        16-3.88940E-05 1.70566E-13 1.40538E-13-1.75718E-14-4.16361E-14-6.00365E-14
 -1        17-3.88940E-05 5.68004E-15 7.84256E-14-2.07306E-13 3.37617E-14 7.67746E-14
 -1        18-7.77880E-05 2.96241E-13 1.37480E-13 2.21336E-13-4.95657E-14 4.90190E-14
 -1        19-7.77880E-05-2.72324E-21 6.20082E-21 7.22235E-21-6.29552E-21-1.22684E-20
 -1        20-3.88940E-05 1.09506E-20-5.70209E-21 6.64831E-21-2.41802E-21-6.63055E-21
 -1        21-3.88940E-05-1.25642E-13-2.79984E-14 3.27457E-14 1.68797E-14 1.90744E-13
 -1        22-3.88940E-05-1.44174E-14-1.03926E-13 8.55592E-14-2.06999E-14-1.30129E-13
 -1        23-3.88940E-05-2.24027E-13-1.03050E-13-1.29874E-13 1.90505E-15-3.76048E-13
 -1        24-7.77880E-05-2.88626E-13-5.18195E-13 1.28949E-13 1.44638E-14 5.21820E-13
 -3
    1PSTEP                       165          55           1          
  100CL  155 4.53781E-01          24                     0   55           1
 -4  TOSTRAIN    6    1
 -5  EXX         1    4    1    1
 -5  EYY         1    4    2    2
 -5  EZZ         1    4    3    3
 -5  EXY         1    4    1    2
 -5  EYZ         1    4    2    3
 -5  EZX         1    4    3    1
 -1         1-3.70419E-10 1.11126E-10 1.11126E-10 8.15852E-27-5.55599E-28 5.35318E-27
 -1         2-1.85209E-10 5.55628E-11 5.55628E-11 3.98440E-26 2.72507E-27 1.41440E-26
 -1         3-1.85209E-10 5.55628E-11 5.55628E-11 1.47743E-19 6.10002E-25-8.29708E-19
 -1         4-1.85209E-10 5.55628E-11 5.55628E-11 1.49428E-19-2.15408E-25 2.99279E-20
 -1         5-1.85209E-10 5.55628E-11 5.55628E-11-1.84331E-18-5.39994E-25-7.42037E-19
 -1         6-3.70419E-10 1.11126E-10 1.11126E-10 5.54999E-18-8.41988E-25 3.96265E-18
 -1         7-3.70419E-10 1.11126E-10 1.11126E-10-9.19119E-26-2.84380E-26-2.29089E-28
 -1         8-1.85209E-10 5.55628E-11 5.55628E-11-1.01912E-26 4.48238E-26-3.18720E-27
 -1         9-1.85209E-10 5.55628E-11 5.55628E-11 5.34909E-20-1.61413E-19 7.23694E-19
 -1        10-1.85209E-10 5.55628E-11 5.55628E-11 4.72025E-20 1.29605E-19 2.46699E-19
 -1        11-1.85209E-10 5.55628E-11 5.55628E-11-1.38180E-18-1.97208E-19 1.08044E-19
 -1        12-3.70419E-10 1.11126E-10 1.11126E-10-1.27791E-19 3.96372E-19 1.52053E-18
 -1        13-3.70419E-10 1.11126E-10 1.11126E-10-1.75841E-26-1.10898E-26 4.95908E-26
 -1        14-1.85209E-10 5.55628E-11 5.55628E-11 1.00093E-26-5.70674E-26 3.62629E-26
 -1        15-1.85209E-10 5.55628E-11 5.55628E-11-2.11756E-20 2.65907E-19-7.07801E-19
 -1        16-1.85209E-10 5.55628E-11 5.55628E-11-1.08778E-19-2.57747E-19-3.71654E-19
 -1        17-1.85209E-10 5.55628E-11 5.55628E-11-1.28332E-18 2.09001E-19 4.75271E-19
 -1        18-3.70419E-10 1.11126E-10 1.11126E-10 1.37018E-18-3.06835E-19 3.03451E-19
 -1        19-3.70419E-10 1.11126E-10 1.11126E-10 4.47098E-26-3.89723E-26-7.59472E-26
 -1        20-1.85209E-10 5.55628E-11 5.55628E-11 4.11562E-26-1.49687E-26-4.10462E-26
 -1        21-1.85209E-10 5.55628E-11 5.55628E-11 2.02711E-19 1.04493E-19 1.18080E-18
 -1        22-1.85209E-10 5.55628E-11 5.55628E-11 5.29652E-19-1.28142E-19-8.05560E-19
 -1        23-1.85209E-10 5.55628E-11 5.55628E-11-8.03983E-19 1.17932E-20-2.32791E-18
 -1        24-3.70419E-10 1.11126E-10 1.11126E-10 7.98255E-19 8.95378E-20 3.23031E-18
 -3
    1PSTEP                       166          56           1          
  100CL  156 4.62781E-01          24                     0   56           1
 -4  DISP        4    1
 -5  D1          1    2    1    0
 -5  D2          1    2    2    0
 -5  D3          1    2    3    0
 -5  ALL         1    2    0    0    1ALL
 -1         1 0.00000E+00 0.00000E+00 0.00000E+00
 -1         2-1.88890E-07 0.00000E+00 0.00000E+00
 -1         3-6.94172E+00 0.00000E+00 0.00000E+00
 -1         4-6.94172E+00 0.00000E+00 0.00000E+00
 -1         5-1.38834E+01 0.00000E+00 0.00000E+00
 -1         6-1.38834E+01 0.00000E+00 0.00000E+00
 -1         7 0.00000E+00 5.66671E-08 0.00000E+00
 -1         8-1.88890E-07 5.66671E-08 0.00000E+00
 -1         9-6.94172E+00 5.66671E-08 0.00000E+00
 -1        10-6.94172E+00 5.66671E-08 0.00000E+00
 -1        11-1.38834E+01 5.66671E-08 0.00000E+00
 -1        12-1.38834E+01 5.66671E-08 0.00000E+00
 -1        13 0.00000E+00 0.00000E+00 7.93339E-08
 -1        14-1.88890E-07 0.00000E+00 7.93339E-08
 -1        15-6.94172E+00 0.00000E+00 7.93339E-08
 -1        16-6.94172E+00 0.00000E+00 7.93339E-08
 -1        17-1.38834E+01 0.00000E+00 7.93339E-08
 -1        18-1.38834E+01 0.00000E+00 7.93339E-08
 -1        19 0.00000E+00 5.66671E-08 7.93339E-08
 -1        20-1.88890E-07 5.66671E-08 7.93339E-08
 -1        21-6.94172E+00 5.66671E-08 7.93339E-08
 -1        22-6.94172E+00 5.66671E-08 7.93339E-08
 -1        23-1.38834E+01 5.66671E-08 7.93339E-08
 -1        24-1.38834E+01 5.66671E-08 7.93339E-08
 -3
    1PSTEP                       167          56           1          
  100CL  156 4.62781E-01          24                     0   56           1
 -4  STRESS      6    1
 -5  SXX         1    4    1    1
 -5  SYY         1    4    2    2
 -5  SZZ         1    4    3    3
 -5  SXY         1    4    1    2
 -5  SYZ         1    4    2    3
 -5  SZX         1    4    3    1
 -1         1-7.93307E-05-4.62819E-21 8.34836E-21 7.03048E-22 3.39999E-22-1.25479E-22
 -1         2-3.96654E-05 1.88006E-20 1.86345E-20-1.64533E-20-1.07696E-22-1.37802E-20
 -1         3-3.96654E-05-4.65962E-14-1.17725E-13-8.48101E-14 8.55651E-21 9.92606E-14
 -1         4-3.96654E-05-1.17278E-13-9.49657E-14-2.31229E-14-3.60539E-21-1.78424E-13
 -1         5-3.96654E-05-1.56762E-13-1.16194E-13-1.27834E-13-3.16862E-19 2.61007E-13
 -1         6-7.93307E-05-9.32832E-14-2.26518E-13 2.91152E-13-4.97075E-19-9.75882E-13
 -1         7-7.93307E-05-7.35170E-21-1.51249E-20 3.81260E-21 1.84232E-21-1.28548E-22
 -1         8-3.96654E-05 3.55429E-21 4.17418E-21-1.48986E-20-5.23895E-22 1.04890E-20
 -1         9-3.96654E-05 2.34308E-13 2.04724E-13-1.28946E-13-2.75813E-14-6.88311E-14
 -1        10-3.96654E-05 1.25810E-13 1.39247E-13 8.37720E-15 4.38036E-15 1.28506E-13
 -1        11-3.96654E-05-1.36760E-13-8.14227E-14 6.08503E-14-3.38487E-15-3.74877E-13
 -1        12-7.93307E-05-2.37721E-14-8.81218E-14 8.40369E-14 4.70613E-15 2.40871E-13
 -1        13-7.93307E-05-1.04967E-20-1.51249E-20-8.67412E-22 6.07162E-21 8.77331E-21
 -1        14-3.96654E-05-1.83467E-20 4.17418E-21 1.09468E-20-4.67267E-21-9.33083E-21
 -1        15-3.96654E-05-1.14010E-13-1.07912E-13-4.30982E-14 2.90819E-14 5.40194E-14
 -1        16-3.96654E-05-2.80799E-14-1.80322E-14 2.51850E-13-6.21267E-15 8.35226E-15
 -1        17-3.96654E-05 1.99598E-13 2.49642E-13 3.37599E-13 1.03388E-14-2.12175E-13
 -1        18-7.93307E-05 6.75667E-13 5.29254E-13-4.55029E-14 4.82189E-14 1.11796E-12
 -1        19-7.93307E-05 1.99962E-20 3.72686E-20-2.84689E-21 5.43495E-21-7.67125E-21
 -1        20-3.96654E-05 6.20028E-22-7.56245E-21 9.95709E-21-4.80230E-21 6.71766E-21
 -1        21-3.96654E-05-2.07464E-13-1.59820E-13 2.00129E-14 1.50062E-15 1.02353E-13
 -1        22-3.96654E-05-1.59349E-13-1.58177E-13 9.48355E-14-1.83230E-15-1.62196E-13
 -1        23-3.96654E-05-2.53273E-13-1.88459E-13-2.06320E-14 6.95429E-15 1.86671E-13
 -1        24-7.93307E-05-2.00567E-13-2.78095E-13-7.23990E-14 5.29255E-14-7.83036E-13
 -3
    1PSTEP                       168          56           1          
  100CL  156 4.62781E-01          24                     0   56           1
 -4  TOSTRAIN    6    1
 -5  EXX         1    4    1    1
 -5  EYY         1    4    2    2
 -5  EZZ         1    4    3    3
 -5  EXY         1    4    1    2
 -5  EYZ         1    4    2    3
 -5  EZX         1    4    3    1
 -1         1-3.77765E-10 1.13330E-10 1.13330E-10 4.35220E-27 2.10475E-27-7.76773E-28
 -1         2-1.88883E-10 5.66648E-11 5.66648E-11-1.01854E-25-6.66688E-28-8.53061E-26
 -1         3-1.88883E-10 5.66648E-11 5.66648E-11-5.25015E-19 5.29689E-26 6.14471E-19
 -1         4-1.88883E-10 5.66648E-11 5.66648E-11-1.43142E-19-2.23191E-26-1.10453E-18
 -1         5-1.88883E-10 5.66648E-11 5.66648E-11-7.91355E-19-1.96153E-24 1.61576E-18
 -1         6-3.77765E-10 1.13330E-10 1.13330E-10 1.80237E-18-3.07713E-24-6.04117E-18
 -1         7-3.77765E-10 1.13330E-10 1.13330E-10 2.36018E-26 1.14048E-26-7.95774E-28
 -1         8-1.88883E-10 5.66648E-11 5.66648E-11-9.22292E-26-3.24316E-27 6.49320E-26
 -1         9-1.88883E-10 5.66648E-11 5.66648E-11-7.98240E-19-1.70741E-19-4.26097E-19
 -1        10-1.88883E-10 5.66648E-11 5.66648E-11 5.18588E-20 2.71165E-20 7.95512E-19
 -1        11-1.88883E-10 5.66648E-11 5.66648E-11 3.76692E-19-2.09540E-20-2.32066E-18
 -1        12-3.77765E-10 1.13330E-10 1.13330E-10 5.20229E-19 2.91332E-20 1.49111E-18
 -1        13-3.77765E-10 1.13330E-10 1.13330E-10-5.36969E-27 3.75862E-26 5.43109E-26
 -1        14-1.88883E-10 5.66648E-11 5.66648E-11 6.77661E-26-2.89260E-26-5.77623E-26
 -1        15-1.88883E-10 5.66648E-11 5.66648E-11-2.66798E-19 1.80031E-19 3.34406E-19
 -1        16-1.88883E-10 5.66648E-11 5.66648E-11 1.55907E-18-3.84594E-20 5.17044E-20
 -1        17-1.88883E-10 5.66648E-11 5.66648E-11 2.08990E-18 6.40024E-20-1.31347E-18
 -1        18-3.77765E-10 1.13330E-10 1.13330E-10-2.81684E-19 2.98498E-19 6.92070E-18
 -1        19-3.77765E-10 1.13330E-10 1.13330E-10-1.76236E-26 3.36450E-26-4.74887E-26
 -1        20-1.88883E-10 5.66648E-11 5.66648E-11 6.16392E-26-2.97285E-26 4.15855E-26
 -1        21-1.88883E-10 5.66648E-11 5.66648E-11 1.23889E-19 9.28955E-21 6.33615E-19
 -1        22-1.88883E-10 5.66648E-11 5.66648E-11 5.87077E-19-1.13428E-20-1.00407E-18
 -1        23-1.88883E-10 5.66648E-11 5.66648E-11-1.27722E-19 4.30504E-20 1.15558E-18
 -1        24-3.77765E-10 1.13330E-10 1.13330E-10-4.48185E-19 3.27634E-19-4.84736E-18
 -3
    1PSTEP                       169          57           1          
  100CL  157 4.71781E-01          24                     0   57           1
 -4  DISP        4    1
 -5  D1          1    2    1    0
 -5  D2          1    2    2    0
 -5  D3          1    2    3    0
 -5  ALL         1    2    0    0    1ALL
 -1         1 0.00000E+00 0.00000E+00 0.00000E+00
 -1         2-1.92564E-07 0.00000E+00 0.00000E+00
 -1         3-7.07672E+00 0.00000E+00 0.00000E+00
 -1         4-7.07672E+00 0.00000E+00 0.00000E+00
 -1         5-1.41534E+01 0.00000E+00 0.00000E+00
 -1         6-1.41534E+01 0.00000E+00 0.00000E+00
 -1         7 0.00000E+00 5.77691E-08 0.00000E+00
 -1         8-1.92564E-07 5.77691E-08 0.00000E+00
 -1         9-7.07672E+00 5.77691E-08 0.00000E+00
 -1        10-7.07672E+00 5.77691E-08 0.00000E+00
 -1        11-1.41534E+01 5.77691E-08 0.00000E+00
 -1        12-1.41534E+01 5.77691E-08 0.00000E+00
 -1        13 0.00000E+00 0.00000E+00 8.08768E-08
 -1        14-1.92564E-07 0.00000E+00 8.08768E-08
 -1        15-7.07672E+00 0.00000E+00 8.08768E-08
 -1        16-7.07672E+00 0.00000E+00 8.08768E-08
 -1        17-1.41534E+01 0.00000E+00 8.08768E-08
 -1        18-1.41534E+01 0.00000E+00 8.08768E-08
 -1        19 0.00000E+00 5.77691E-08 8.08768E-08
 -1        20-1.92564E-07 5.77691E-08 8.08768E-08
 -1        21-7.07672E+00 5.77691E-08 8.08768E-08
 -1        22-7.07672E+00 5.77691E-08 8.08768E-08
 -1        23-1.41534E+01 5.77691E-08 8.08768E-08
 -1        24-1.41534E+01 5.77691E-08 8.08768E-08
 -3
    1PSTEP                       170          57           1          
  100CL  157 4.71781E-01          24                     0   57           1
 -4  STRESS      6    1
 -5  SXX         1    4    1    1
 -5  SYY         1    4    2    2
 -5  SZZ         1    4    3    3
 -5  SXY         1    4    1    2
 -5  SYZ         1    4    2    3
 -5  SZX         1    4    3    1
 -1         1-8.08735E-05 1.08287E-20 1.04964E-20 3.44049E-22 4.27662E-22 2.62285E-23
 -1         2-4.04368E-05-6.32225E-21-7.85017E-21 3.63464E-21 1.36263E-22 1.89879E-21
 -1         3-4.04368E-05 8.15816E-15-1.98817E-14 5.58456E-14-2.11244E-20 1.41691E-13
 -1         4-4.04368E-05-7.82092E-15-6.79588E-16 2.61292E-14-1.00694E-19-2.45776E-13
 -1         5-4.04368E-05-1.34740E-14-1.03903E-13-2.35064E-13 1.05747E-19 4.45088E-13
 -1         6-8.08735E-05 7.48852E-14 2.09112E-13 3.96011E-13-2.90606E-19-1.47233E-12
 -1         7-8.08735E-05 7.68401E-21-7.10857E-21 3.77293E-22 8.05226E-23-7.01512E-24
 -1         8-4.04368E-05 9.71025E-21 1.75604E-20 3.65126E-21-8.20235E-22-2.22820E-21
 -1         9-4.04368E-05 1.62561E-13 1.74639E-13 3.24777E-14-1.32437E-14 1.69622E-13
 -1        10-4.04368E-05 1.02105E-13 9.00607E-14 7.32458E-14 5.79190E-15 7.54693E-14
 -1        11-4.04368E-05-4.08219E-13-4.53764E-13-2.26850E-13 5.24798E-15-2.18389E-13
 -1        12-8.08735E-05-8.22280E-13-7.41850E-13 2.07425E-13-3.09566E-14 6.01492E-13
 -1        13-8.08735E-05 7.68401E-21 2.92526E-20 7.00888E-23-3.44858E-21-5.13445E-21
 -1        14-4.04368E-05 9.71025E-21 5.24822E-21-4.33162E-21 3.09144E-21-6.81548E-22
 -1        15-4.04368E-05-6.89286E-14-5.98863E-14-1.49585E-13 2.80824E-14 1.29945E-13
 -1        16-4.04368E-05 8.36697E-15-7.09303E-16 7.50776E-14-1.34298E-14 6.86304E-14
 -1        17-4.04368E-05 1.29862E-13 2.47398E-14 1.85723E-14 3.14190E-14-3.47211E-13
 -1        18-8.08735E-05 1.58443E-13 3.79347E-13 2.25397E-13-3.76586E-14-1.55297E-13
 -1        19-8.08735E-05-9.08020E-22-2.15688E-20-1.65826E-21-3.79572E-21 4.81464E-21
 -1        20-4.04368E-05-1.21906E-20-3.55429E-21-5.19579E-21 2.13495E-21 1.82624E-22
 -1        21-4.04368E-05-7.21498E-14-2.29897E-14-1.41496E-13 1.48388E-14-6.97625E-14
 -1        22-4.04368E-05-3.93316E-14-6.75932E-14 1.30901E-13-7.63782E-15 4.84819E-14
 -1        23-4.04368E-05-6.78526E-14-1.28091E-13 2.66166E-14 3.66669E-14-1.22397E-13
 -1        24-8.08735E-05-3.44661E-13-1.77554E-13-2.36539E-13-6.86149E-14 2.82475E-13
 -3
    1PSTEP                       171          57           1          
  100CL  157 4.71781E-01          24                     0   57           1
 -4  TOSTRAIN    6    1
 -5  EXX         1    4    1    1
 -5  EYY         1    4    2    2
 -5  EZZ         1    4    3    3
 -5  EXY         1    4    1    2
 -5  EYZ         1    4    2    3
 -5  EZX         1    4    3    1
 -1         1-3.85112E-10 1.15534E-10 1.15534E-10 2.12983E-27 2.64743E-27 1.62367E-28
 -1         2-1.92556E-10 5.77668E-11 5.77668E-11 2.25001E-26 8.43530E-28 1.17544E-26
 -1         3-1.92556E-10 5.77668E-11 5.77668E-11 3.45711E-19-1.30770E-25 8.77135E-19
 -1         4-1.92556E-10 5.77668E-11 5.77668E-11 1.61752E-19-6.23344E-25-1.52147E-18
 -1         5-1.92556E-10 5.77668E-11 5.77668E-11-1.45516E-18 6.54623E-25 2.75530E-18
 -1         6-3.85112E-10 1.15534E-10 1.15534E-10 2.45150E-18-1.79899E-24-9.11445E-18
 -1         7-3.85112E-10 1.15534E-10 1.15534E-10 2.33562E-27 4.98473E-28-4.34269E-29
 -1         8-1.92556E-10 5.77668E-11 5.77668E-11 2.26030E-26-5.07765E-27-1.37936E-26
 -1         9-1.92556E-10 5.77668E-11 5.77668E-11 2.01052E-19-8.19846E-20 1.05004E-18
 -1        10-1.92556E-10 5.77668E-11 5.77668E-11 4.53426E-19 3.58546E-20 4.67191E-19
 -1        11-1.92556E-10 5.77668E-11 5.77668E-11-1.40431E-18 3.24875E-20-1.35193E-18
 -1        12-3.85112E-10 1.15534E-10 1.15534E-10 1.28406E-18-1.91636E-19 3.72352E-18
 -1        13-3.85112E-10 1.15534E-10 1.15534E-10 4.33883E-28-2.13483E-26-3.17847E-26
 -1        14-1.92556E-10 5.77668E-11 5.77668E-11-2.68148E-26 1.91375E-26-4.21911E-27
 -1        15-1.92556E-10 5.77668E-11 5.77668E-11-9.26005E-19 1.73844E-19 8.04422E-19
 -1        16-1.92556E-10 5.77668E-11 5.77668E-11 4.64766E-19-8.31370E-20 4.24855E-19
 -1        17-1.92556E-10 5.77668E-11 5.77668E-11 1.14971E-19 1.94499E-19-2.14940E-18
 -1        18-3.85112E-10 1.15534E-10 1.15534E-10 1.39532E-18-2.33125E-19-9.61361E-19
 -1        19-3.85112E-10 1.15534E-10 1.15534E-10-1.02654E-26-2.34973E-26 2.98049E-26
 -1        20-1.92556E-10 5.77668E-11 5.77668E-11-3.21644E-26 1.32163E-26 1.13053E-27
 -1        21-1.92556E-10 5.77668E-11 5.77668E-11-8.75926E-19 9.18593E-20-4.31863E-19
 -1        22-1.92556E-10 5.77668E-11 5.77668E-11 8.10339E-19-4.72817E-20 3.00126E-19
 -1        23-1.92556E-10 5.77668E-11 5.77668E-11 1.64770E-19 2.26986E-19-7.57693E-19
 -1        24-3.85112E-10 1.15534E-10 1.15534E-10-1.46429E-18-4.24759E-19 1.74865E-18
 -3
    1PSTEP                       172          58           1          
  100CL  158 4.80781E-01          24                     0   58           1
 -4  DISP        4    1
 -5  D1          1    2    1    0
 -5  D2          1    2    2    0
 -5  D3          1    2    3    0
 -5  ALL         1    2    0    0    1ALL
 -1         1 0.00000E+00 0.00000E+00 0.00000E+00
 -1         2-1.96237E-07 0.00000E+00 0.00000E+00
 -1         3-7.21172E+00 0.00000E+00 0.00000E+00
 -1         4-7.21172E+00 0.00000E+00 0.00000E+00
 -1         5-1.44234E+01 0.00000E+00 0.00000E+00
 -1         6-1.44234E+01 0.00000E+00 0.00000E+00
 -1         7 0.00000E+00 5.88712E-08 0.00000E+00
 -1         8-1.96237E-07 5.88712E-08 0.00000E+00
 -1         9-7.21172E+00 5.88712E-08 0.00000E+00
 -1        10-7.21172E+00 5.88712E-08 0.00000E+00
 -1        11-1.44234E+01 5.88712E-08 0.00000E+00
 -1        12-1.44234E+01 5.88712E-08 0.00000E+00
 -1        13 0.00000E+00 0.00000E+00 8.24196E-08
 -1        14-1.96237E-07 0.00000E+00 8.24196E-08
 -1        15-7.21172E+00 0.00000E+00 8.24196E-08
 -1        16-7.21172E+00 0.00000E+00 8.24196E-08
 -1        17-1.44234E+01 0.00000E+00 8.24196E-08
 -1        18-1.44234E+01 0.00000E+00 8.24196E-08
 -1        19 0.00000E+00 5.88712E-08 8.24196E-08
 -1        20-1.96237E-07 5.88712E-08 8.24196E-08
 -1        21-7.21172E+00 5.88712E-08 8.24196E-08
 -1        22-7.21172E+00 5.88712E-08 8.24196E-08
 -1        23-1.44234E+01 5.88712E-08 8.24196E-08
 -1        24-1.44234E+01 5.88712E-08 8.24196E-08
 -3
    1PSTEP                       173          58           1          
  100CL  158 4.80781E-01          24                     0   58           1
 -4  STRESS      6    1
 -5  SXX         1    4    1    1
 -5  SYY         1    4    2    2
 -5  SZZ         1    4    3    3
 -5  SXY         1    4    1    2
 -5  SYZ         1    4    2    3
 -5  SZX         1    4    3    1
 -1         1-8.24163E-05-1.26448E-20-2.95849E-20-7.87272E-23 7.86451E-22 1.11695E-23
 -1         2-4.12082E-05-3.99599E-20-2.43813E-20 1.34683E-20 2.52132E-22 1.80276E-20
 -1         3-4.12082E-05 4.41719E-14-5.31673E-14-3.00056E-14-4.47700E-21 7.96060E-14
 -1         4-4.12082E-05-9.75894E-14-7.62443E-15 6.75671E-14-6.51651E-20-9.69421E-14
 -1         5-4.12082E-05 9.43844E-14-3.54568E-14 2.15916E-13-4.48495E-19 1.26488E-13
 -1         6-8.24163E-05-3.98218E-13-1.68833E-13 2.32264E-13-1.59754E-19 4.36615E-13
 -1         7-8.24163E-05 4.53928E-21 1.10721E-20-1.88904E-20-1.00091E-20-1.71829E-22
 -1         8-4.12082E-05-6.32239E-21-1.42170E-20 4.63566E-21 5.42389E-21 2.17268E-21
 -1         9-4.12082E-05 3.13455E-13 3.01350E-13-5.69357E-14-4.90547E-14 3.71611E-14
 -1        10-4.12082E-05 5.04870E-14 6.40770E-14 1.11122E-13 4.69513E-14 9.47731E-14
 -1        11-4.12082E-05 1.62316E-13 6.97131E-14 8.58854E-14-6.26391E-14-2.54366E-13
 -1        12-8.24163E-05-3.14413E-13-7.99605E-14 3.00154E-13 1.32045E-13 3.80264E-13
 -1        13-8.24163E-05-9.07478E-22 4.19865E-20-2.02933E-21-1.58296E-21-6.95530E-21
 -1        14-4.12082E-05 3.16113E-20 1.14045E-20-6.50702E-21-6.02161E-21 1.48310E-20
 -1        15-4.12082E-05-2.18351E-13-1.78337E-13 2.72706E-14 5.96639E-14 1.90465E-13
 -1        16-4.12082E-05 1.10317E-13 6.88186E-14 6.39744E-14-5.34626E-14-1.59119E-13
 -1        17-4.12082E-05 9.46772E-15 5.50146E-14-2.32322E-13 2.60665E-14 3.22570E-13
 -1        18-8.24163E-05 6.92827E-13 5.52486E-13-4.41344E-13 3.54673E-15-6.98872E-13
 -1        19-8.24163E-05 2.57105E-20 2.16580E-20 1.41669E-20-1.23785E-20-1.90920E-20
 -1        20-4.12082E-05-4.53739E-22-8.92407E-21-5.47883E-22-8.49848E-22-8.35691E-21
 -1        21-4.12082E-05-3.82534E-13-2.57286E-13-7.06087E-14 1.06092E-14-1.44710E-13
 -1        22-4.12082E-05-1.75073E-13-2.92947E-13 1.38287E-14-6.51120E-15 9.25053E-14
 -1        23-4.12082E-05-4.34880E-13-3.52094E-13-3.07230E-13-3.65721E-14-4.51473E-14
 -1        24-8.24163E-05-2.47925E-13-3.83199E-13 9.19840E-13 1.35592E-13 4.08594E-13
 -3
    1PSTEP                       174          58           1          
  100CL  158 4.80781E-01          24                     0   58           1
 -4  TOSTRAIN    6    1
 -5  EXX         1    4    1    1
 -5  EYY         1    4    2    2
 -5  EZZ         1    4    3    3
 -5  EXY         1    4    1    2
 -5  EYZ         1    4    2    3
 -5  EZX         1    4    3    1
 -1         1-3.92459E-10 1.17738E-10 1.17738E-10-4.87359E-28 4.86851E-27 6.91445E-29
 -1         2-1.96229E-10 5.88688E-11 5.88688E-11 8.33755E-26 1.56082E-27 1.11600E-25
 -1         3-1.96229E-10 5.88688E-11 5.88688E-11-1.85749E-19-2.77148E-26 4.92799E-19
 -1         4-1.96229E-10 5.88688E-11 5.88688E-11 4.18273E-19-4.03403E-25-6.00118E-19
 -1         5-1.96229E-10 5.88688E-11 5.88688E-11 1.33662E-18-2.77639E-24 7.83018E-19
 -1         6-3.92459E-10 1.17738E-10 1.17738E-10 1.43783E-18-9.88955E-25 2.70286E-18
 -1         7-3.92459E-10 1.17738E-10 1.17738E-10-1.16940E-25-6.19610E-26-1.06370E-27
 -1         8-1.96229E-10 5.88688E-11 5.88688E-11 2.86969E-26 3.35765E-26 1.34499E-26
 -1         9-1.96229E-10 5.88688E-11 5.88688E-11-3.52459E-19-3.03672E-19 2.30045E-19
 -1        10-1.96229E-10 5.88688E-11 5.88688E-11 6.87896E-19 2.90651E-19 5.86691E-19
 -1        11-1.96229E-10 5.88688E-11 5.88688E-11 5.31671E-19-3.87766E-19-1.57465E-18
 -1        12-3.92459E-10 1.17738E-10 1.17738E-10 1.85810E-18 8.17419E-19 2.35402E-18
 -1        13-3.92459E-10 1.17738E-10 1.17738E-10-1.25625E-26-9.79928E-27-4.30566E-26
 -1        14-1.96229E-10 5.88688E-11 5.88688E-11-4.02816E-26-3.72766E-26 9.18107E-26
 -1        15-1.96229E-10 5.88688E-11 5.88688E-11 1.68818E-19 3.69348E-19 1.17907E-18
 -1        16-1.96229E-10 5.88688E-11 5.88688E-11 3.96032E-19-3.30959E-19-9.85024E-19
 -1        17-1.96229E-10 5.88688E-11 5.88688E-11-1.43819E-18 1.61364E-19 1.99686E-18
 -1        18-3.92459E-10 1.17738E-10 1.17738E-10-2.73213E-18 2.19559E-20-4.32635E-18
 -1        19-3.92459E-10 1.17738E-10 1.17738E-10 8.77000E-26-7.66288E-26-1.18189E-25
 -1        20-1.96229E-10 5.88688E-11 5.88688E-11-3.39166E-27-5.26096E-27-5.17332E-26
 -1        21-1.96229E-10 5.88688E-11 5.88688E-11-4.37102E-19 6.56761E-20-8.95825E-19
 -1        22-1.96229E-10 5.88688E-11 5.88688E-11 8.56062E-20-4.03074E-20 5.72652E-19
 -1        23-1.96229E-10 5.88688E-11 5.88688E-11-1.90190E-18-2.26399E-19-2.79483E-19
 -1        24-3.92459E-10 1.17738E-10 1.17738E-10 5.69425E-18 8.39376E-19 2.52939E-18
 -3
    1PSTEP                       175          59           1          
  100CL  159 4.89781E-01          24                     0   59           1
 -4  DISP        4    1
 -5  D1          1    2    1    0
 -5  D2          1    2    2    0
 -5  D3          1    2    3    0
 -5  ALL         1    2    0    0    1ALL
 -1         1 0.00000E+00 0.00000E+00 0.00000E+00
 -1         2-1.99911E-07 0.00000E+00 0.00000E+00
 -1         3-7.34672E+00 0.00000E+00 0.00000E+00
 -1         4-7.34672E+00 0.00000E+00 0.00000E+00
 -1         5-1.46934E+01 0.00000E+00 0.00000E+00
 -1         6-1.46934E+01 0.00000E+00 0.00000E+00
 -1         7 0.00000E+00 5.99732E-08 0.00000E+00
 -1         8-1.99911E-07 5.99732E-08 0.00000E+00
 -1         9-7.34672E+00 5.99732E-08 0.00000E+00
 -1        10-7.34672E+00 5.99732E-08 0.00000E+00
 -1        11-1.46934E+01 5.99732E-08 0.00000E+00
 -1        12-1.46934E+01 5.99732E-08 0.00000E+00
 -1        13 0.00000E+00 0.00000E+00 8.39625E-08
 -1        14-1.99911E-07 0.00000E+00 8.39625E-08
 -1        15-7.34672E+00 0.00000E+00 8.39625E-08
 -1        16-7.34672E+00 0.00000E+00 8.39625E-08
 -1        17-1.46934E+01 0.00000E+00 8.39625E-08
 -1        18-1.46934E+01 0.00000E+00 8.39625E-08
 -1        19 0.00000E+00 5.99732E-08 8.39625E-08
 -1        20-1.99911E-07 5.99732E-08 8.39625E-08
 -1        21-7.34672E+00 5.99732E-08 8.39625E-08
 -1        22-7.34672E+00 5.99732E-08 8.39625E-08
 -1        23-1.46934E+01 5.99732E-08 8.39625E-08
 -1        24-1.46934E+01 5.99732E-08 8.39625E-08
 -3
    1PSTEP                       176          59           1          
  100CL  159 4.89781E-01          24                     0   59           1
 -4  STRESS      6    1
 -5  SXX         1    4    1    1
 -5  SYY         1    4    2    2
 -5  SZZ         1    4    3    3
 -5  SXY         1    4    1    2
 -5  SYZ         1    4    2    3
 -5  SZX         1    4    3    1
 -1         1-8.39591E-05-1.60326E-20 8.92407E-21 7.99135E-22-8.99128E-23-1.08892E-21
 -1         2-4.19796E-05 2.03285E-20 3.67585E-21-1.40905E-20-1.65315E-22-7.71786E-21
 -1         3-4.19796E-05-7.34666E-14-5.93619E-14-1.23356E-13-1.50791E-19-9.11962E-14
 -1         4-4.19796E-05-1.48864E-14-5.69411E-14 7.52679E-15-1.95250E-20 2.31200E-13
 -1         5-4.19796E-05-1.21434E-13-4.50785E-14-2.31627E-13-4.03340E-20 2.50474E-13
 -1         6-8.39591E-05-4.17665E-13-6.86944E-13 4.02886E-13 3.49110E-19-5.15408E-13
 -1         7-8.39591E-05-1.71835E-20-1.84236E-20 8.13283E-21 3.64896E-21-3.31214E-22
 -1         8-4.19796E-05 1.97531E-20 1.40509E-20-1.04237E-20-5.53796E-21 1.05634E-20
 -1         9-4.19796E-05 4.06801E-14 1.90210E-14-1.18111E-13 1.14194E-14 1.70158E-13
 -1        10-4.19796E-05 1.74186E-13 1.96268E-13 8.32563E-14-2.12506E-14-3.16157E-14
 -1        11-4.19796E-05 3.29636E-13 3.91792E-13-1.95795E-13-2.44283E-14-1.64865E-13
 -1        12-8.39591E-05 5.74894E-13 3.97779E-13 2.69535E-13-1.16329E-14 1.09298E-12
 -1        13-8.39591E-05-1.91776E-20-2.47136E-20-2.31425E-21 7.68319E-21-1.18370E-22
 -1        14-4.19796E-05-3.20653E-20-2.97512E-20 1.76272E-20 1.37245E-21-6.94602E-21
 -1        15-4.19796E-05 1.23459E-13 1.05589E-13 4.41569E-14-2.50347E-14 8.45728E-15
 -1        16-4.19796E-05 2.19549E-14 3.94020E-14-4.34539E-14 4.48958E-14 1.68488E-14
 -1        17-4.19796E-05-1.43434E-13 1.32007E-15-1.60000E-13-9.93892E-15-2.25951E-15
 -1        18-8.39591E-05-2.79272E-13-5.15978E-13-1.31748E-13 6.45154E-14 1.04657E-13
 -1        19-8.39591E-05 4.06570E-20 3.66935E-20-1.63153E-20 1.14221E-20-7.44851E-22
 -1        20-4.19796E-05-2.14794E-21 7.39629E-21 1.06267E-20-4.00019E-21 9.28713E-21
 -1        21-4.19796E-05 1.16924E-15-5.24647E-14 8.47128E-15-1.36151E-14 4.54406E-14
 -1        22-4.19796E-05-2.54093E-14 5.61746E-14-3.14059E-14 2.36452E-14-7.21974E-14
 -1        23-4.19796E-05-4.70193E-14 8.35364E-14-6.92658E-14-3.43671E-14 3.58123E-13
 -1        24-8.39591E-05 3.97804E-15-1.40564E-13-4.28303E-13 5.28821E-14-6.94169E-13
 -3
    1PSTEP                       177          59           1          
  100CL  159 4.89781E-01          24                     0   59           1
 -4  TOSTRAIN    6    1
 -5  EXX         1    4    1    1
 -5  EYY         1    4    2    2
 -5  EZZ         1    4    3    3
 -5  EXY         1    4    1    2
 -5  EYZ         1    4    2    3
 -5  EZX         1    4    3    1
 -1         1-3.99805E-10 1.19942E-10 1.19942E-10 4.94703E-27-5.56603E-28-6.74094E-27
 -1         2-1.99903E-10 5.99708E-11 5.99708E-11-8.72271E-26-1.02338E-27-4.77772E-26
 -1         3-1.99903E-10 5.99708E-11 5.99708E-11-7.63630E-19-9.33467E-25-5.64548E-19
 -1         4-1.99903E-10 5.99708E-11 5.99708E-11 4.65944E-20-1.20869E-25 1.43124E-18
 -1         5-1.99903E-10 5.99708E-11 5.99708E-11-1.43388E-18-2.49686E-25 1.55055E-18
 -1         6-3.99805E-10 1.19942E-10 1.19942E-10 2.49405E-18 2.16115E-24-3.19062E-18
 -1         7-3.99805E-10 1.19942E-10 1.19942E-10 5.03461E-26 2.25888E-26-2.05038E-27
 -1         8-1.99903E-10 5.99708E-11 5.99708E-11-6.45275E-26-3.42826E-26 6.53927E-26
 -1         9-1.99903E-10 5.99708E-11 5.99708E-11-7.31161E-19 7.06918E-20 1.05336E-18
 -1        10-1.99903E-10 5.99708E-11 5.99708E-11 5.15396E-19-1.31552E-19-1.95716E-19
 -1        11-1.99903E-10 5.99708E-11 5.99708E-11-1.21207E-18-1.51223E-19-1.02059E-18
 -1        12-3.99805E-10 1.19942E-10 1.19942E-10 1.66855E-18-7.20134E-20 6.76607E-18
 -1        13-3.99805E-10 1.19942E-10 1.19942E-10-1.43263E-26 4.75626E-26-7.32765E-28
 -1        14-1.99903E-10 5.99708E-11 5.99708E-11 1.09121E-25 8.49615E-27-4.29991E-26
 -1        15-1.99903E-10 5.99708E-11 5.99708E-11 2.73352E-19-1.54977E-19 5.23546E-20
 -1        16-1.99903E-10 5.99708E-11 5.99708E-11-2.69001E-19 2.77926E-19 1.04302E-19
 -1        17-1.99903E-10 5.99708E-11 5.99708E-11-9.90478E-19-6.15266E-20-1.39875E-20
 -1        18-3.99805E-10 1.19942E-10 1.19942E-10-8.15581E-19 3.99381E-19 6.47878E-19
 -1        19-3.99805E-10 1.19942E-10 1.19942E-10-1.01000E-25 7.07080E-26-4.61098E-27
 -1        20-1.99903E-10 5.99708E-11 5.99708E-11 6.57842E-26-2.47631E-26 5.74918E-26
 -1        21-1.99903E-10 5.99708E-11 5.99708E-11 5.24412E-20-8.42841E-20 2.81299E-19
 -1        22-1.99903E-10 5.99708E-11 5.99708E-11-1.94418E-19 1.46375E-19-4.46936E-19
 -1        23-1.99903E-10 5.99708E-11 5.99708E-11-4.28788E-19-2.12749E-19 2.21695E-18
 -1        24-3.99805E-10 1.19942E-10 1.19942E-10-2.65140E-18 3.27365E-19-4.29724E-18
 -3
    1PSTEP                       178          60           1          
  100CL  160 4.98781E-01          24                     0   60           1
 -4  DISP        4    1
 -5  D1          1    2    1    0
 -5  D2          1    2    2    0
 -5  D3          1    2    3    0
 -5  ALL         1    2    0    0    1ALL
 -1         1 0.00000E+00 0.00000E+00 0.00000E+00
 -1         2-2.03584E-07 0.00000E+00 0.00000E+00
 -1         3-7.48172E+00 0.00000E+00 0.00000E+00
 -1         4-7.48172E+00 0.00000E+00 0.00000E+00
 -1         5-1.49634E+01 0.00000E+00 0.00000E+00
 -1         6-1.49634E+01 0.00000E+00 0.00000E+00
 -1         7 0.00000E+00 6.10753E-08 0.00000E+00
 -1         8-2.03584E-07 6.10753E-08 0.00000E+00
 -1         9-7.48172E+00 6.10753E-08 0.00000E+00
 -1        10-7.48172E+00 6.10753E-08 0.00000E+00
 -1        11-1.49634E+01 6.10753E-08 0.00000E+00
 -1        12-1.49634E+01 6.10753E-08 0.00000E+00
 -1        13 0.00000E+00 0.00000E+00 8.55054E-08
 -1        14-2.03584E-07 0.00000E+00 8.55054E-08
 -1        15-7.48172E+00 0.00000E+00 8.55054E-08
 -1        16-7.48172E+00 0.00000E+00 8.55054E-08
 -1        17-1.49634E+01 0.00000E+00 8.55054E-08
 -1        18-1.49634E+01 0.00000E+00 8.55054E-08
 -1        19 0.00000E+00 6.10753E-08 8.55054E-08
 -1        20-2.03584E-07 6.10753E-08 8.55054E-08
 -1        21-7.48172E+00 6.10753E-08 8.55054E-08
 -1        22-7.48172E+00 6.10753E-08 8.55054E-08
 -1        23-1.49634E+01 6.10753E-08 8.55054E-08
 -1        24-1.49634E+01 6.10753E-08 8.55054E-08
 -3
    1PSTEP                       179          60           1          
  100CL  160 4.98781E-01          24                     0   60           1
 -4  STRESS      6    1
 -5  SXX         1    4    1    1
 -5  SYY         1    4    2    2
 -5  SZZ         1    4    3    3
 -5  SXY         1    4    1    2
 -5  SYZ         1    4    2    3
 -5  SZX         1    4    3    1
 -1         1-8.55019E-05-1.57003E-20 2.22332E-20-1.84304E-21-3.72767E-22 1.44600E-21
 -1         2-4.27510E-05 9.54423E-21-1.40621E-21-3.72233E-21-2.38828E-22-4.79588E-21
 -1         3-4.27510E-05-9.06081E-14-1.37449E-13-1.75141E-14-3.63373E-20 1.09513E-13
 -1         4-4.27510E-05-1.18684E-13-1.03417E-13 6.53623E-14-1.25096E-20 4.00705E-14
 -1         5-4.27510E-05 1.73542E-13 1.09379E-13-1.20910E-13 8.85733E-20-5.48188E-14
 -1         6-8.55019E-05 5.32231E-13 5.73329E-13 4.49637E-13-9.59170E-19 4.43279E-13
 -1         7-8.55019E-05-2.15686E-20-2.74368E-20 2.47931E-21-1.13353E-21-3.25307E-21
 -1         8-4.27510E-05 1.03304E-20 5.24822E-21-1.56116E-21-4.23478E-22 5.06674E-21
 -1         9-4.27510E-05-2.45473E-14-4.99261E-14-4.35486E-14-1.70265E-14 1.12963E-14
 -1        10-4.27510E-05-6.67414E-14-4.88370E-14 9.18692E-14 3.08080E-15 4.77529E-14
 -1        11-4.27510E-05-1.74899E-13-8.50491E-14-6.09281E-14-1.61559E-14-2.41272E-13
 -1        12-8.55019E-05-5.49691E-13-7.13958E-13 5.68892E-14 6.67037E-15 2.79585E-14
 -1        13-8.55019E-05 3.05582E-21-7.10830E-21-1.31421E-21 2.54324E-21-4.78338E-21
 -1        14-4.27510E-05-7.85017E-21-4.91604E-21 1.23965E-21 1.80637E-21-7.05087E-21
 -1        15-4.27510E-05-3.30682E-14-3.22347E-14 1.57956E-14 1.50232E-14 1.49955E-13
 -1        16-4.27510E-05 3.73816E-14 4.40224E-14-5.89522E-14 1.84611E-15-4.05145E-15
 -1        17-4.27510E-05-9.65567E-14-1.15482E-13 6.05531E-14 1.07808E-13 1.91371E-13
 -1        18-8.55019E-05 1.83053E-13 2.05472E-13-3.30645E-13-1.43757E-13-8.40622E-13
 -1        19-8.55019E-05 2.49567E-20 2.65291E-20-2.47236E-21 1.78248E-21-3.25238E-22
 -1        20-4.27510E-05-1.07843E-20-9.42253E-21 6.60576E-22 1.62172E-21 3.32217E-21
 -1        21-4.27510E-05-2.03444E-13-1.81148E-13 1.79113E-14-2.00322E-15 7.22155E-14
 -1        22-4.27510E-05-1.47112E-13-1.37834E-13-4.29513E-15 4.92693E-15-1.35148E-13
 -1        23-4.27510E-05 2.78758E-14 1.62962E-13 2.28210E-14 9.16522E-14 1.58679E-13
 -1        24-8.55019E-05 4.68763E-14-1.36071E-13 2.64226E-13-1.37086E-13 3.71131E-13
 -3
    1PSTEP                       180          60           1          
  100CL  160 4.98781E-01          24                     0   60           1
 -4  TOSTRAIN    6    1
 -5  EXX         1    4    1    1
 -5  EYY         1    4    2    2
 -5  EZZ         1    4    3    3
 -5  EXY         1    4    1    2
 -5  EYZ         1    4    2    3
 -5  EZX         1    4    3    1
 -1         1-4.07152E-10 1.22146E-10 1.22146E-10-1.14093E-26-2.30761E-27 8.95145E-27
 -1         2-2.03576E-10 6.10728E-11 6.10728E-11-2.30430E-26-1.47846E-27-2.96888E-26
 -1         3-2.03576E-10 6.10728E-11 6.10728E-11-1.08420E-19-2.24945E-25 6.77936E-19
 -1         4-2.03576E-10 6.10728E-11 6.10728E-11 4.04624E-19-7.74404E-26 2.48055E-19
 -1         5-2.03576E-10 6.10728E-11 6.10728E-11-7.48490E-19 5.48311E-25-3.39354E-19
 -1         6-4.07152E-10 1.22146E-10 1.22146E-10 2.78347E-18-5.93772E-24 2.74411E-18
 -1         7-4.07152E-10 1.22146E-10 1.22146E-10 1.53481E-26-7.01711E-27-2.01380E-26
 -1         8-2.03576E-10 6.10728E-11 6.10728E-11-9.66431E-27-2.62153E-27 3.13655E-26
 -1         9-2.03576E-10 6.10728E-11 6.10728E-11-2.69586E-19-1.05402E-19 6.99297E-20
 -1        10-2.03576E-10 6.10728E-11 6.10728E-11 5.68714E-19 1.90716E-20 2.95613E-19
 -1        11-2.03576E-10 6.10728E-11 6.10728E-11-3.77174E-19-1.00013E-19-1.49359E-18
 -1        12-4.07152E-10 1.22146E-10 1.22146E-10 3.52171E-19 4.12928E-20 1.73076E-19
 -1        13-4.07152E-10 1.22146E-10 1.22146E-10-8.13558E-27 1.57439E-26-2.96114E-26
 -1        14-2.03576E-10 6.10728E-11 6.10728E-11 7.67404E-27 1.11823E-26-4.36483E-26
 -1        15-2.03576E-10 6.10728E-11 6.10728E-11 9.77824E-20 9.30009E-20 9.28290E-19
 -1        16-2.03576E-10 6.10728E-11 6.10728E-11-3.64942E-19 1.14283E-20-2.50804E-20
 -1        17-2.03576E-10 6.10728E-11 6.10728E-11 3.74853E-19 6.67384E-19 1.18468E-18
 -1        18-4.07152E-10 1.22146E-10 1.22146E-10-2.04685E-18-8.89923E-19-5.20385E-18
 -1        19-4.07152E-10 1.22146E-10 1.22146E-10-1.53051E-26 1.10344E-26-2.01338E-27
 -1        20-2.03576E-10 6.10728E-11 6.10728E-11 4.08928E-27 1.00392E-26 2.05658E-26
 -1        21-2.03576E-10 6.10728E-11 6.10728E-11 1.10879E-19-1.24009E-20 4.47048E-19
 -1        22-2.03576E-10 6.10728E-11 6.10728E-11-2.65889E-20 3.05000E-20-8.36630E-19
 -1        23-2.03576E-10 6.10728E-11 6.10728E-11 1.41273E-19 5.67371E-19 9.82299E-19
 -1        24-4.07152E-10 1.22146E-10 1.22146E-10 1.63569E-18-8.48625E-19 2.29748E-18
 -3
    1PSTEP                       181          61           1          
  100CL  161 5.07781E-01          24                     0   61           1
 -4  DISP        4    1
 -5  D1          1    2    1    0
 -5  D2          1    2    2    0
 -5  D3          1    2    3    0
 -5  ALL         1    2    0    0    1ALL
 -1         1 0.00000E+00 0.00000E+00 0.00000E+00
 -1         2-2.07258E-07 0.00000E+00 0.00000E+00
 -1         3-7.61672E+00 0.00000E+00 0.00000E+00
 -1         4-7.61672E+00 0.00000E+00 0.00000E+00
 -1         5-1.52334E+01 0.00000E+00 0.00000E+00
 -1         6-1.52334E+01 0.00000E+00 0.00000E+00
 -1         7 0.00000E+00 6.21773E-08 0.00000E+00
 -1         8-2.07258E-07 6.21773E-08 0.00000E+00
 -1         9-7.61672E+00 6.21773E-08 0.00000E+00
 -1        10-7.61672E+00 6.21773E-08 0.00000E+00
 -1        11-1.52334E+01 6.21773E-08 0.00000E+00
 -1        12-1.52334E+01 6.21773E-08 0.00000E+00
 -1        13 0.00000E+00 0.00000E+00 8.70482E-08
 -1        14-2.07258E-07 0.00000E+00 8.70482E-08
 -1        15-7.61672E+00 0.00000E+00 8.70482E-08
 -1        16-7.61672E+00 0.00000E+00 8.70482E-08
 -1        17-1.52334E+01 0.00000E+00 8.70482E-08
 -1        18-1.52334E+01 0.00000E+00 8.70482E-08
 -1        19 0.00000E+00 6.21773E-08 8.70482E-08
 -1        20-2.07258E-07 6.21773E-08 8.70482E-08
 -1        21-7.61672E+00 6.21773E-08 8.70482E-08
 -1        22-7.61672E+00 6.21773E-08 8.70482E-08
 -1        23-1.52334E+01 6.21773E-08 8.70482E-08
 -1        24-1.52334E+01 6.21773E-08 8.70482E-08
 -3
    1PSTEP                       182          61           1          
  100CL  161 5.07781E-01          24                     0   61           1
 -4  STRESS      6    1
 -5  SXX         1    4    1    1
 -5  SYY         1    4    2    2
 -5  SZZ         1    4    3    3
 -5  SXY         1    4    1    2
 -5  SYZ         1    4    2    3
 -5  SZX         1    4    3    1
 -1         1-8.70447E-05-1.17368E-20-4.62846E-21-1.56656E-21-7.68739E-23 1.86292E-21
 -1         2-4.35224E-05-1.76051E-20-8.96879E-21 8.54379E-21-6.23049E-22 4.99378E-21
 -1         3-4.35224E-05 4.65217E-14-2.47343E-14-5.45183E-15 2.27145E-20 9.12883E-15
 -1         4-4.35224E-05 9.60956E-15 6.08540E-14-3.21951E-14-6.38791E-20-1.29139E-13
 -1         5-4.35224E-05 2.64094E-13 1.75739E-13 7.75231E-14 1.13491E-19-3.76865E-13
 -1         6-8.70447E-05 2.23176E-13 3.46327E-13 3.27040E-13-3.14344E-19-2.51870E-13
 -1         7-8.70447E-05 1.60326E-20 9.83182E-21-1.72030E-20-7.98591E-21-3.70468E-21
 -1         8-4.35224E-05-1.38847E-20-8.18261E-21-1.56697E-21 2.65749E-21 7.58558E-21
 -1         9-4.35224E-05 5.35637E-15-2.46276E-14 1.45643E-14-1.55377E-14 3.60178E-14
 -1        10-4.35224E-05-8.16145E-14-5.58430E-14-1.86188E-14 6.88622E-15 2.42962E-14
 -1        11-4.35224E-05 6.89809E-14 9.04447E-14 4.83718E-14-3.73637E-14 3.66662E-13
 -1        12-8.70447E-05-4.65727E-13-5.21175E-13 4.31155E-14 5.11274E-14-2.34265E-13
 -1        13-8.70447E-05 7.44088E-21 1.29768E-20 2.74232E-21-1.46542E-21 2.96645E-21
 -1        14-4.35224E-05 2.14794E-21 1.37184E-20 2.92521E-21-4.16247E-21 5.83211E-21
 -1        15-4.35224E-05-1.47235E-13-1.74985E-13 1.70188E-13 2.88904E-14 6.26104E-14
 -1        16-4.35224E-05-7.42695E-14-4.23066E-14-4.68899E-14-1.78312E-14-1.98683E-13
 -1        17-4.35224E-05-1.05461E-13-8.91968E-14-8.87406E-15 7.68731E-14 2.81440E-13
 -1        18-8.70447E-05 1.00758E-13 8.07509E-14-1.76459E-13-1.25019E-13-1.68274E-13
 -1        19-8.70447E-05 3.52103E-20 3.48777E-20 1.36664E-22-7.23547E-21-1.10317E-20
 -1        20-4.35224E-05 5.86838E-21 6.20028E-22 1.01783E-20-1.16850E-21 2.85258E-21
 -1        21-4.35224E-05-3.85430E-13-3.71909E-13-6.06844E-14 1.33527E-14 1.43053E-13
 -1        22-4.35224E-05-3.62524E-13-3.56034E-13 5.70612E-14-1.09449E-14 3.10563E-14
 -1        23-4.35224E-05-6.41373E-14 6.19451E-14-3.64666E-14 3.95093E-14 1.95061E-14
 -1        24-8.70447E-05-1.15272E-13-3.13878E-13 3.61767E-13-7.38915E-14 6.79986E-14
 -3
    1PSTEP                       183          61           1          
  100CL  161 5.07781E-01          24                     0   61           1
 -4  TOSTRAIN    6    1
 -5  EXX         1    4    1    1
 -5  EYY         1    4    2    2
 -5  EZZ         1    4    3    3
 -5  EXY         1    4    1    2
 -5  EYZ         1    4    2    3
 -5  EZX         1    4    3    1
 -1         1-4.14499E-10 1.24350E-10 1.24350E-10-9.69772E-27-4.75886E-28 1.15324E-26
 -1         2-2.07249E-10 6.21748E-11 6.21748E-11 5.28902E-26-3.85697E-27 3.09139E-26
 -1         3-2.07249E-10 6.21748E-11 6.21748E-11-3.37494E-20 1.40613E-25 5.65118E-20
 -1         4-2.07249E-10 6.21748E-11 6.21748E-11-1.99303E-19-3.95442E-25-7.99429E-19
 -1         5-2.07249E-10 6.21748E-11 6.21748E-11 4.79905E-19 7.02566E-25-2.33297E-18
 -1         6-4.14499E-10 1.24350E-10 1.24350E-10 2.02453E-18-1.94594E-24-1.55920E-18
 -1         7-4.14499E-10 1.24350E-10 1.24350E-10-1.06495E-25-4.94366E-26-2.29337E-26
 -1         8-2.07249E-10 6.21748E-11 6.21748E-11-9.70031E-27 1.64511E-26 4.69584E-26
 -1         9-2.07249E-10 6.21748E-11 6.21748E-11 9.01600E-20-9.61857E-20 2.22967E-19
 -1        10-2.07249E-10 6.21748E-11 6.21748E-11-1.15259E-19 4.26290E-20 1.50405E-19
 -1        11-2.07249E-10 6.21748E-11 6.21748E-11 2.99444E-19-2.31299E-19 2.26981E-18
 -1        12-4.14499E-10 1.24350E-10 1.24350E-10 2.66906E-19 3.16503E-19-1.45021E-18
 -1        13-4.14499E-10 1.24350E-10 1.24350E-10 1.69763E-26-9.07165E-27 1.83637E-26
 -1        14-2.07249E-10 6.21748E-11 6.21748E-11 1.81084E-26-2.57677E-26 3.61036E-26
 -1        15-2.07249E-10 6.21748E-11 6.21748E-11 1.05355E-18 1.78845E-19 3.87588E-19
 -1        16-2.07249E-10 6.21748E-11 6.21748E-11-2.90271E-19-1.10383E-19-1.22994E-18
 -1        17-2.07249E-10 6.21748E-11 6.21748E-11-5.49346E-20 4.75881E-19 1.74225E-18
 -1        18-4.14499E-10 1.24350E-10 1.24350E-10-1.09236E-18-7.73929E-19-1.04170E-18
 -1        19-4.14499E-10 1.24350E-10 1.24350E-10 8.46017E-28-4.47910E-26-6.82914E-26
 -1        20-2.07249E-10 6.21748E-11 6.21748E-11 6.30087E-26-7.23356E-27 1.76588E-26
 -1        21-2.07249E-10 6.21748E-11 6.21748E-11-3.75666E-19 8.26596E-20 8.85566E-19
 -1        22-2.07249E-10 6.21748E-11 6.21748E-11 3.53236E-19-6.77541E-20 1.92253E-19
 -1        23-2.07249E-10 6.21748E-11 6.21748E-11-2.25746E-19 2.44582E-19 1.20752E-19
 -1        24-4.14499E-10 1.24350E-10 1.24350E-10 2.23951E-18-4.57424E-19 4.20944E-19
 -3
    1PSTEP                       184          62           1          
  100CL  162 5.16781E-01          24                     0   62           1
 -4  DISP        4    1
 -5  D1          1    2    1    0
 -5  D2          1    2    2    0
 -5  D3          1    2    3    0
 -5  ALL         1    2    0    0    1ALL
 -1         1 0.00000E+00 0.00000E+00 0.00000E+00
 -1         2-2.10931E-07 0.00000E+00 0.00000E+00
 -1         3-7.75172E+00 0.00000E+00 0.00000E+00
 -1         4-7.75172E+00 0.00000E+00 0.00000E+00
 -1         5-1.55034E+01 0.00000E+00 0.00000E+00
 -1         6-1.55034E+01 0.00000E+00 0.00000E+00
 -1         7 0.00000E+00 6.32793E-08 0.00000E+00
 -1         8-2.10931E-07 6.32793E-08 0.00000E+00
 -1         9-7.75172E+00 6.32793E-08 0.00000E+00
 -1        10-7.75172E+00 6.32793E-08 0.00000E+00
 -1        11-1.55034E+01 6.32793E-08 0.00000E+00
 -1        12-1.55034E+01 6.32793E-08 0.00000E+00
 -1        13 0.00000E+00 0.00000E+00 8.85911E-08
 -1        14-2.10931E-07 0.00000E+00 8.85911E-08
 -1        15-7.75172E+00 0.00000E+00 8.85911E-08
 -1        16-7.75172E+00 0.00000E+00 8.85911E-08
 -1        17-1.55034E+01 0.00000E+00 8.85911E-08
 -1        18-1.55034E+01 0.00000E+00 8.85911E-08
 -1        19 0.00000E+00 6.32793E-08 8.85911E-08
 -1        20-2.10931E-07 6.32793E-08 8.85911E-08
 -1        21-7.75172E+00 6.32793E-08 8.85911E-08
 -1        22-7.75172E+00 6.32793E-08 8.85911E-08
 -1        23-1.55034E+01 6.32793E-08 8.85911E-08
 -1        24-1.55034E+01 6.32793E-08 8.85911E-08
 -3
    1PSTEP                       185          62           1          
  100CL  162 5.16781E-01          24                     0   62           1
 -4  STRESS      6    1
 -5  SXX         1    4    1    1
 -5  SYY         1    4    2    2
 -5  SZZ         1    4    3    3
 -5  SXY         1    4    1    2
 -5  SYZ         1    4    2    3
 -5  SZX         1    4    3    1
 -1         1-8.85875E-05-3.32037E-22 1.79376E-20 1.83641E-22 2.77681E-23-2.05649E-21
 -1         2-4.42938E-05 2.62415E-20 2.20673E-20-1.03610E-20 4.88841E-22-7.10329E-21
 -1         3-4.42938E-05-8.95601E-14-1.50654E-13 1.20605E-14 4.23913E-20-1.27220E-13
 -1         4-4.42938E-05-1.62302E-13-9.53505E-14 6.81951E-14-1.10959E-19 1.79573E-13
 -1         5-4.42938E-05 2.74694E-14-7.63829E-14 2.46661E-14 4.01447E-19 4.85124E-13
 -1         6-8.85875E-05-6.22167E-14 6.32963E-14-2.16642E-13-1.05271E-19-2.06846E-13
 -1         7-8.85875E-05-3.08252E-20-3.91736E-20 6.42414E-21 2.82265E-21 1.23036E-21
 -1         8-4.42938E-05-1.03303E-20-2.76797E-21-7.24072E-21 1.69055E-21-2.91535E-21
 -1         9-4.42938E-05-1.63810E-13-1.55175E-13 7.82326E-15-2.52590E-14 4.19242E-14
 -1        10-4.42938E-05-3.41267E-13-3.44209E-13-7.57232E-14 2.93840E-14-2.31214E-13
 -1        11-4.42938E-05 5.49005E-14 5.86011E-14-1.09539E-13-2.13016E-14-4.37904E-13
 -1        12-8.85875E-05-3.17603E-13-3.90648E-13 4.37688E-13-1.01947E-14 8.97678E-13
 -1        13-8.85875E-05-3.05582E-21-1.14042E-20-1.37267E-21 7.44935E-21 1.15723E-20
 -1        14-4.42938E-05-6.60984E-21 9.52472E-22-1.78134E-22-4.80404E-21-2.88873E-22
 -1        15-4.42938E-05-1.12362E-13-1.02731E-13-6.09272E-14 4.88096E-14-7.88771E-14
 -1        16-4.42938E-05 8.26477E-14 6.73232E-14 1.97045E-13-4.89251E-14-1.04960E-14
 -1        17-4.42938E-05 2.33876E-13 1.89669E-13 2.47968E-13 7.52875E-14-5.32470E-13
 -1        18-8.85875E-05 5.09403E-13 6.63461E-13-1.60833E-13-1.38991E-13 4.98379E-13
 -1        19-8.85875E-05-3.55423E-20-2.04177E-20 1.54038E-21 1.02442E-20-4.71401E-21
 -1        20-4.42938E-05 8.63635E-21-1.74388E-20 1.27839E-21-3.60233E-21-5.88753E-21
 -1        21-4.42938E-05 8.92305E-14 1.68590E-13 1.61438E-14 2.35506E-14 8.25041E-14
 -1        22-4.42938E-05 1.79525E-13 9.43074E-14 1.11684E-13-1.95410E-14 1.39726E-13
 -1        23-4.42938E-05-1.32753E-13-6.94070E-14 2.03759E-13 5.39855E-14 3.47882E-13
 -1        24-8.85875E-05-5.34104E-13-5.78605E-13 3.64616E-14-1.49186E-13-7.96578E-13
 -3
    1PSTEP                       186          62           1          
  100CL  162 5.16781E-01          24                     0   62           1
 -4  TOSTRAIN    6    1
 -5  EXX         1    4    1    1
 -5  EYY         1    4    2    2
 -5  EZZ         1    4    3    3
 -5  EXY         1    4    1    2
 -5  EYZ         1    4    2    3
 -5  EZX         1    4    3    1
 -1         1-4.21845E-10 1.26554E-10 1.26554E-10 1.13683E-27 1.71898E-28-1.27306E-26
 -1         2-2.10923E-10 6.32768E-11 6.32768E-11-6.41393E-26 3.02616E-27-4.39727E-26
 -1         3-2.10923E-10 6.32768E-11 6.32768E-11 7.46601E-20 2.62422E-25-7.87555E-19
 -1         4-2.10923E-10 6.32768E-11 6.32768E-11 4.22160E-19-6.86888E-25 1.11164E-18
 -1         5-2.10923E-10 6.32768E-11 6.32768E-11 1.52695E-19 2.48515E-24 3.00315E-18
 -1         6-4.21845E-10 1.26554E-10 1.26554E-10-1.34111E-18-6.51676E-25-1.28047E-18
 -1         7-4.21845E-10 1.26554E-10 1.26554E-10 3.97685E-26 1.74736E-26 7.61653E-27
 -1         8-2.10923E-10 6.32768E-11 6.32768E-11-4.48235E-26 1.04653E-26-1.80474E-26
 -1         9-2.10923E-10 6.32768E-11 6.32768E-11 4.84297E-20-1.56365E-19 2.59531E-19
 -1        10-2.10923E-10 6.32768E-11 6.32768E-11-4.68763E-19 1.81901E-19-1.43132E-18
 -1        11-2.10923E-10 6.32768E-11 6.32768E-11-6.78096E-19-1.31867E-19-2.71083E-18
 -1        12-4.21845E-10 1.26554E-10 1.26554E-10 2.70950E-18-6.31103E-20 5.55705E-18
 -1        13-4.21845E-10 1.26554E-10 1.26554E-10-8.49747E-27 4.61150E-26 7.16383E-26
 -1        14-2.10923E-10 6.32768E-11 6.32768E-11-1.10273E-27-2.97393E-26-1.78826E-27
 -1        15-2.10923E-10 6.32768E-11 6.32768E-11-3.77169E-19 3.02155E-19-4.88287E-19
 -1        16-2.10923E-10 6.32768E-11 6.32768E-11 1.21980E-18-3.02870E-19-6.49752E-20
 -1        17-2.10923E-10 6.32768E-11 6.32768E-11 1.53504E-18 4.66065E-19-3.29624E-18
 -1        18-4.21845E-10 1.26554E-10 1.26554E-10-9.95634E-19-8.60421E-19 3.08521E-18
 -1        19-4.21845E-10 1.26554E-10 1.26554E-10 9.53570E-27 6.34167E-26-2.91820E-26
 -1        20-2.10923E-10 6.32768E-11 6.32768E-11 7.91385E-27-2.23001E-26-3.64466E-26
 -1        21-2.10923E-10 6.32768E-11 6.32768E-11 9.99377E-20 1.45789E-19 5.10740E-19
 -1        22-2.10923E-10 6.32768E-11 6.32768E-11 6.91380E-19-1.20968E-19 8.64971E-19
 -1        23-2.10923E-10 6.32768E-11 6.32768E-11 1.26137E-18 3.34196E-19 2.15355E-18
 -1        24-4.21845E-10 1.26554E-10 1.26554E-10 2.25715E-19-9.23531E-19-4.93120E-18
 -3
    1PSTEP                       187          63           1          
  100CL  163 5.25781E-01          24                     0   63           1
 -4  DISP        4    1
 -5  D1          1    2    1    0
 -5  D2          1    2    2    0
 -5  D3          1    2    3    0
 -5  ALL         1    2    0    0    1ALL
 -1         1 0.00000E+00 0.00000E+00 0.00000E+00
 -1         2-2.14605E-07 0.00000E+00 0.00000E+00
 -1         3-7.88672E+00 0.00000E+00 0.00000E+00
 -1         4-7.88672E+00 0.00000E+00 0.00000E+00
 -1         5-1.57734E+01 0.00000E+00 0.00000E+00
 -1         6-1.57734E+01 0.00000E+00 0.00000E+00
 -1         7 0.00000E+00 6.43814E-08 0.00000E+00
 -1         8-2.14605E-07 6.43814E-08 0.00000E+00
 -1         9-7.88672E+00 6.43814E-08 0.00000E+00
 -1        10-7.88672E+00 6.43814E-08 0.00000E+00
 -1        11-1.57734E+01 6.43814E-08 0.00000E+00
 -1        12-1.57734E+01 6.43814E-08 0.00000E+00
 -1        13 0.00000E+00 0.00000E+00 9.01339E-08
 -1        14-2.14605E-07 0.00000E+00 9.01339E-08
 -1        15-7.88672E+00 0.00000E+00 9.01339E-08
 -1        16-7.88672E+00 0.00000E+00 9.01339E-08
 -1        17-1.57734E+01 0.00000E+00 9.01339E-08
 -1        18-1.57734E+01 0.00000E+00 9.01339E-08
 -1        19 0.00000E+00 6.43814E-08 9.01339E-08
 -1        20-2.14605E-07 6.43814E-08 9.01339E-08
 -1        21-7.88672E+00 6.43814E-08 9.01339E-08
 -1        22-7.88672E+00 6.43814E-08 9.01339E-08
 -1        23-1.57734E+01 6.43814E-08 9.01339E-08
 -1        24-1.57734E+01 6.43814E-08 9.01339E-08
 -3
    1PSTEP                       188          63           1          
  100CL  163 5.25781E-01          24                     0   63           1
 -4  STRESS      6    1
 -5  SXX         1    4    1    1
 -5  SYY         1    4    2    2
 -5  SZZ         1    4    3    3
 -5  SXY         1    4    1    2
 -5  SYZ         1    4    2    3
 -5  SZX         1    4    3    1
 -1         1-9.01303E-05-3.05582E-21 2.03285E-20-9.10207E-22 3.28479E-22 1.73196E-21
 -1         2-4.50652E-05 3.99154E-20 2.19010E-20-1.96634E-20 3.24110E-23-1.98638E-20
 -1         3-4.50652E-05 1.52270E-13 1.28229E-13 1.32311E-13-1.57117E-20-1.50369E-13
 -1         4-4.50652E-05 1.58873E-13 1.52759E-13-3.28229E-14 3.78442E-20 5.17405E-14
 -1         5-4.50652E-05 8.10916E-16-1.36240E-13 3.54985E-15 1.51135E-19 5.10539E-14
 -1         6-9.01303E-05-2.87952E-13-7.75662E-14-2.64978E-14-1.62932E-19 5.52772E-13
 -1         7-9.01303E-05-4.95811E-20-2.89203E-20 1.69309E-20 1.39662E-20-7.88409E-22
 -1         8-4.50652E-05 2.03731E-20 1.76051E-20-1.07428E-20-6.45148E-21 7.45285E-21
 -1         9-4.50652E-05 1.04011E-13 8.07567E-14 1.16048E-13-8.79518E-15 6.46771E-14
 -1        10-4.50652E-05 1.23759E-13 1.35960E-13 2.13980E-14-5.92256E-15-1.04867E-13
 -1        11-4.50652E-05 2.31480E-13 1.82898E-13-1.61419E-13-3.08323E-14 9.35804E-14
 -1        12-9.01303E-05-6.56137E-14 3.04435E-15 5.86910E-13 2.87280E-14-1.08059E-13
 -1        13-9.01303E-05-2.38058E-20-3.52103E-20-2.40393E-22-4.72232E-22 1.79692E-21
 -1        14-4.50652E-05-2.77248E-20-2.61969E-20 8.46546E-21 6.58757E-21-1.98314E-20
 -1        15-4.50652E-05-3.06799E-14-3.00949E-14-1.78203E-13 5.50679E-16-1.05610E-13
 -1        16-4.50652E-05-1.00017E-14 4.67825E-16 1.21208E-13 1.28198E-14-6.49882E-14
 -1        17-4.50652E-05-7.69563E-14-1.27677E-13-1.28511E-14 6.19286E-14-5.17081E-14
 -1        18-9.01303E-05-5.59758E-16 1.29387E-13 9.59257E-14-9.92096E-14-2.93553E-13
 -1        19-9.01303E-05 3.87521E-20-3.14500E-21-9.60601E-21 1.10265E-20 1.18034E-20
 -1        20-4.50652E-05-1.03304E-20 1.01643E-20 3.78265E-21 3.90248E-22 1.37487E-20
 -1        21-4.50652E-05 9.83884E-14 9.97601E-14-1.85637E-13-8.24448E-15 7.84356E-14
 -1        22-4.50652E-05 1.32212E-13 1.60995E-13 1.61508E-13 6.89718E-15-4.78383E-14
 -1        23-4.50652E-05-5.16190E-13-4.78441E-13 6.81505E-14 3.10961E-14 1.36840E-13
 -1        24-9.01303E-05-1.11803E-12-1.12981E-12-5.27793E-13-7.04813E-14-1.16318E-13
 -3
    1PSTEP                       189          63           1          
  100CL  163 5.25781E-01          24                     0   63           1
 -4  TOSTRAIN    6    1
 -5  EXX         1    4    1    1
 -5  EYY         1    4    2    2
 -5  EZZ         1    4    3    3
 -5  EXY         1    4    1    2
 -5  EYZ         1    4    2    3
 -5  EZX         1    4    3    1
 -1         1-4.29192E-10 1.28758E-10 1.28758E-10-5.63462E-27 2.03344E-27 1.07217E-26
 -1         2-2.14596E-10 6.43788E-11 6.43788E-11-1.21726E-25 2.00639E-28-1.22967E-25
 -1         3-2.14596E-10 6.43788E-11 6.43788E-11 8.19070E-19-9.72630E-26-9.30858E-19
 -1         4-2.14596E-10 6.43788E-11 6.43788E-11-2.03189E-19 2.34274E-25 3.20299E-19
 -1         5-2.14596E-10 6.43788E-11 6.43788E-11 2.19753E-20 9.35598E-25 3.16048E-19
 -1         6-4.29192E-10 1.28758E-10 1.28758E-10-1.64034E-19-1.00863E-24 3.42192E-18
 -1         7-4.29192E-10 1.28758E-10 1.28758E-10 1.04810E-25 8.64573E-26-4.88063E-27
 -1         8-2.14596E-10 6.43788E-11 6.43788E-11-6.65032E-26-3.99377E-26 4.61367E-26
 -1         9-2.14596E-10 6.43788E-11 6.43788E-11 7.18391E-19-5.44463E-20 4.00382E-19
 -1        10-2.14596E-10 6.43788E-11 6.43788E-11 1.32464E-19-3.66634E-20-6.49175E-19
 -1        11-2.14596E-10 6.43788E-11 6.43788E-11-9.99263E-19-1.90867E-19 5.79307E-19
 -1        12-4.29192E-10 1.28758E-10 1.28758E-10 3.63325E-18 1.77840E-19-6.68934E-19
 -1        13-4.29192E-10 1.28758E-10 1.28758E-10-1.48815E-27-2.92334E-27 1.11238E-26
 -1        14-2.14596E-10 6.43788E-11 6.43788E-11 5.24052E-26 4.07802E-26-1.22766E-25
 -1        15-2.14596E-10 6.43788E-11 6.43788E-11-1.10316E-18 3.40896E-21-6.53776E-19
 -1        16-2.14596E-10 6.43788E-11 6.43788E-11 7.50336E-19 7.93605E-20-4.02308E-19
 -1        17-2.14596E-10 6.43788E-11 6.43788E-11-7.95545E-20 3.83368E-19-3.20098E-19
 -1        18-4.29192E-10 1.28758E-10 1.28758E-10 5.93826E-19-6.14154E-19-1.81723E-18
 -1        19-4.29192E-10 1.28758E-10 1.28758E-10-5.94658E-26 6.82592E-26 7.30686E-26
 -1        20-2.14596E-10 6.43788E-11 6.43788E-11 2.34164E-26 2.41582E-27 8.51113E-26
 -1        21-2.14596E-10 6.43788E-11 6.43788E-11-1.14918E-18-5.10373E-20 4.85554E-19
 -1        22-2.14596E-10 6.43788E-11 6.43788E-11 9.99809E-19 4.26968E-20-2.96142E-19
 -1        23-2.14596E-10 6.43788E-11 6.43788E-11 4.21884E-19 1.92500E-19 8.47107E-19
 -1        24-4.29192E-10 1.28758E-10 1.28758E-10-3.26729E-18-4.36313E-19-7.20062E-19
 -3
    1PSTEP                       190          64           1          
  100CL  164 5.34781E-01          24                     0   64           1
 -4  DISP        4    1
 -5  D1          1    2    1    0
 -5  D2          1    2    2    0
 -5  D3          1    2    3    0
 -5  ALL         1    2    0    0    1ALL
 -1         1 0.00000E+00 0.00000E+00 0.00000E+00
 -1         2-2.18278E-07 0.00000E+00 0.00000E+00
 -1         3-8.02172E+00 0.00000E+00 0.00000E+00
 -1         4-8.02172E+00 0.00000E+00 0.00000E+00
 -1         5-1.60434E+01 0.00000E+00 0.00000E+00
 -1         6-1.60434E+01 0.00000E+00 0.00000E+00
 -1         7 0.00000E+00 6.54834E-08 0.00000E+00
 -1         8-2.18278E-07 6.54834E-08 0.00000E+00
 -1         9-8.02172E+00 6.54834E-08 0.00000E+00
 -1        10-8.02172E+00 6.54834E-08 0.00000E+00
 -1        11-1.60434E+01 6.54834E-08 0.00000E+00
 -1        12-1.60434E+01 6.54834E-08 0.00000E+00
 -1        13 0.00000E+00 0.00000E+00 9.16768E-08
 -1        14-2.18278E-07 0.00000E+00 9.16768E-08
 -1        15-8.02172E+00 0.00000E+00 9.16768E-08
 -1        16-8.02172E+00 0.00000E+00 9.16768E-08
 -1        17-1.60434E+01 0.00000E+00 9.16768E-08
 -1        18-1.60434E+01 0.00000E+00 9.16768E-08
 -1        19 0.00000E+00 6.54834E-08 9.16768E-08
 -1        20-2.18278E-07 6.54834E-08 9.16768E-08
 -1        21-8.02172E+00 6.54834E-08 9.16768E-08
 -1        22-8.02172E+00 6.54834E-08 9.16768E-08
 -1        23-1.60434E+01 6.54834E-08 9.16768E-08
 -1        24-1.60434E+01 6.54834E-08 9.16768E-08
 -3
    1PSTEP                       191          64           1          
  100CL  164 5.34781E-01          24                     0   64           1
 -4  STRESS      6    1
 -5  SXX         1    4    1    1
 -5  SYY         1    4    2    2
 -5  SZZ         1    4    3    3
 -5  SXY         1    4    1    2
 -5  SYZ         1    4    2    3
 -5  SZX         1    4    3    1
 -1         1-9.16731E-05-1.81804E-20 1.35523E-20 2.04087E-21-6.80405E-22 1.53832E-21
 -1         2-4.58366E-05 2.87720E-22-1.24019E-21-1.20876E-21 7.89698E-23-7.47890E-21
 -1         3-4.58366E-05 1.26546E-13 7.48375E-14 2.05033E-14-7.49853E-20 1.09217E-14
 -1         4-4.58366E-05 1.15995E-13 1.26064E-13 2.85584E-14-3.59359E-20-1.49897E-13
 -1         5-4.58366E-05-2.65426E-14-1.53813E-13-1.33340E-14 3.92529E-21-4.00931E-13
 -1         6-9.16731E-05-5.42371E-13-2.42223E-13 9.95325E-14 1.04225E-19 1.92648E-13
 -1         7-9.16731E-05 2.56956E-21-3.63126E-21 3.16732E-21 4.10879E-21 1.67319E-22
 -1         8-4.58366E-05 1.71067E-20 2.06608E-20-6.45533E-22-5.36275E-21 5.73257E-21
 -1         9-4.58366E-05 9.48853E-14 5.41961E-14-5.76840E-15-9.99128E-15-3.07883E-14
 -1        10-4.58366E-05 9.35361E-14 1.26893E-13 7.27712E-14-7.50016E-15-6.60055E-14
 -1        11-4.58366E-05 1.03598E-13 2.85092E-14-1.71028E-13-4.49654E-14 2.14689E-13
 -1        12-9.16731E-05-4.66516E-13-3.07909E-13 4.19794E-13 1.09232E-13-1.15618E-14
 -1        13-9.16731E-05 1.66081E-20 6.11138E-21-4.90728E-21-3.04103E-21-1.41763E-21
 -1        14-4.58366E-05-3.68596E-20-2.52892E-20 1.76306E-20 5.84011E-21-8.95688E-21
 -1        15-4.58366E-05 3.76639E-14 1.39308E-14 1.10691E-13 7.71342E-15 5.61087E-14
 -1        16-4.58366E-05 3.93196E-14 7.03888E-14-2.09349E-14 1.63015E-14-1.89274E-13
 -1        17-4.58366E-05-3.37878E-13-3.39245E-13 8.04993E-14 3.65267E-14 2.13290E-13
 -1        18-9.16731E-05-1.89142E-13-1.94845E-13-6.00853E-13-9.90786E-14-2.24527E-13
 -1        19-9.16731E-05 2.99175E-20 9.25638E-21-2.35498E-20 3.88715E-21 1.01297E-20
 -1        20-4.58366E-05-6.15610E-21 6.77613E-21 8.30937E-21 1.11830E-22 1.07137E-20
 -1        21-4.58366E-05-2.89542E-13-3.02256E-13 9.27147E-14-2.27778E-15 5.66412E-14
 -1        22-4.58366E-05-2.78685E-13-2.24328E-13 8.82231E-15 8.80136E-15-2.22396E-13
 -1        23-4.58366E-05-2.07738E-13-1.56923E-13 9.10666E-14-8.43870E-15 7.76599E-14
 -1        24-9.16731E-05-1.13288E-13-2.60531E-13-2.17080E-13 1.01538E-14-1.11164E-13
 -3
    1PSTEP                       192          64           1          
  100CL  164 5.34781E-01          24                     0   64           1
 -4  TOSTRAIN    6    1
 -5  EXX         1    4    1    1
 -5  EYY         1    4    2    2
 -5  EZZ         1    4    3    3
 -5  EXY         1    4    1    2
 -5  EYZ         1    4    2    3
 -5  EZX         1    4    3    1
 -1         1-4.36539E-10 1.30962E-10 1.30962E-10 1.26340E-26-4.21203E-27 9.52292E-27
 -1         2-2.18269E-10 6.54808E-11 6.54808E-11-7.48277E-27 4.88860E-28-4.62980E-26
 -1         3-2.18269E-10 6.54808E-11 6.54808E-11 1.26925E-19-4.64195E-25 6.76107E-20
 -1         4-2.18269E-10 6.54808E-11 6.54808E-11 1.76790E-19-2.22461E-25-9.27936E-19
 -1         5-2.18269E-10 6.54808E-11 6.54808E-11-8.25440E-20 2.42994E-26-2.48195E-18
 -1         6-4.36539E-10 1.30962E-10 1.30962E-10 6.16153E-19 6.45205E-25 1.19258E-18
 -1         7-4.36539E-10 1.30962E-10 1.30962E-10 1.96072E-26 2.54353E-26 1.03578E-27
 -1         8-2.18269E-10 6.54808E-11 6.54808E-11-3.99616E-27-3.31980E-26 3.54873E-26
 -1         9-2.18269E-10 6.54808E-11 6.54808E-11-3.57092E-20-6.18508E-20-1.90594E-19
 -1        10-2.18269E-10 6.54808E-11 6.54808E-11 4.50488E-19-4.64296E-20-4.08605E-19
 -1        11-2.18269E-10 6.54808E-11 6.54808E-11-1.05874E-18-2.78357E-19 1.32903E-18
 -1        12-4.36539E-10 1.30962E-10 1.30962E-10 2.59872E-18 6.76201E-19-7.15730E-20
 -1        13-4.36539E-10 1.30962E-10 1.30962E-10-3.03784E-26-1.88254E-26-8.77580E-27
 -1        14-2.18269E-10 6.54808E-11 6.54808E-11 1.09142E-25 3.61531E-26-5.54473E-26
 -1        15-2.18269E-10 6.54808E-11 6.54808E-11 6.85231E-19 4.77497E-20 3.47340E-19
 -1        16-2.18269E-10 6.54808E-11 6.54808E-11-1.29597E-19 1.00914E-19-1.17170E-18
 -1        17-2.18269E-10 6.54808E-11 6.54808E-11 4.98329E-19 2.26118E-19 1.32036E-18
 -1        18-4.36539E-10 1.30962E-10 1.30962E-10-3.71956E-18-6.13343E-19-1.38993E-18
 -1        19-4.36539E-10 1.30962E-10 1.30962E-10-1.45784E-25 2.40633E-26 6.27076E-26
 -1        20-2.18269E-10 6.54808E-11 6.54808E-11 5.14390E-26 6.92279E-28 6.63232E-26
 -1        21-2.18269E-10 6.54808E-11 6.54808E-11 5.73948E-19-1.41006E-20 3.50636E-19
 -1        22-2.18269E-10 6.54808E-11 6.54808E-11 5.46143E-20 5.44846E-20-1.37674E-18
 -1        23-2.18269E-10 6.54808E-11 6.54808E-11 5.63746E-19-5.22396E-20 4.80752E-19
 -1        24-4.36539E-10 1.30962E-10 1.30962E-10-1.34383E-18 6.28570E-20-6.88158E-19
 -3
    1PSTEP                       193          65           1          
  100CL  165 5.43781E-01          24                     0   65           1
 -4  DISP        4    1
 -5  D1          1    2    1    0
 -5  D2          1    2    2    0
 -5  D3          1    2    3    0
 -5  ALL         1    2    0    0    1ALL
 -1         1 0.00000E+00 0.00000E+00 0.00000E+00
 -1         2-2.21952E-07 0.00000E+00 0.00000E+00
 -1         3-8.15672E+00 0.00000E+00 0.00000E+00
 -1         4-8.15672E+00 0.00000E+00 0.00000E+00
 -1         5-1.63134E+01 0.00000E+00 0.00000E+00
 -1         6-1.63134E+01 0.00000E+00 0.00000E+00
 -1         7 0.00000E+00 6.65855E-08 0.00000E+00
 -1         8-2.21952E-07 6.65855E-08 0.00000E+00
 -1         9-8.15672E+00 6.65855E-08 0.00000E+00
 -1        10-8.15672E+00 6.65855E-08 0.00000E+00
 -1        11-1.63134E+01 6.65855E-08 0.00000E+00
 -1        12-1.63134E+01 6.65855E-08 0.00000E+00
 -1        13 0.00000E+00 0.00000E+00 9.32196E-08
 -1        14-2.21952E-07 0.00000E+00 9.32196E-08
 -1        15-8.15672E+00 0.00000E+00 9.32196E-08
 -1        16-8.15672E+00 0.00000E+00 9.32196E-08
 -1        17-1.63134E+01 0.00000E+00 9.32196E-08
 -1        18-1.63134E+01 0.00000E+00 9.32196E-08
 -1        19 0.00000E+00 6.65855E-08 9.32196E-08
 -1        20-2.21952E-07 6.65855E-08 9.32196E-08
 -1        21-8.15672E+00 6.65855E-08 9.32196E-08
 -1        22-8.15672E+00 6.65855E-08 9.32196E-08
 -1        23-1.63134E+01 6.65855E-08 9.32196E-08
 -1        24-1.63134E+01 6.65855E-08 9.32196E-08
 -3
    1PSTEP                       194          65           1          
  100CL  165 5.43781E-01          24                     0   65           1
 -4  STRESS      6    1
 -5  SXX         1    4    1    1
 -5  SYY         1    4    2    2
 -5  SZZ         1    4    3    3
 -5  SXY         1    4    1    2
 -5  SYZ         1    4    2    3
 -5  SZX         1    4    3    1
 -1         1-9.32159E-05-2.74371E-20-1.57003E-20-1.78307E-21 5.62004E-22 2.07351E-21
 -1         2-4.66080E-05-2.89649E-20-2.09485E-20 1.72813E-20-2.33517E-22 8.54104E-21
 -1         3-4.66080E-05 8.84010E-14 4.66971E-14 2.14462E-14-1.05019E-19 7.35484E-14
 -1         4-4.66080E-05 4.79889E-14 5.61478E-14 4.12966E-14-5.33793E-20-1.87545E-13
 -1         5-4.66080E-05 1.99988E-13 1.03989E-13-8.30354E-16 1.58685E-19-3.84637E-14
 -1         6-9.32159E-05-1.24825E-13 4.88849E-14-2.63345E-14 2.83733E-19 5.03203E-13
 -1         7-9.32159E-05 3.94170E-20 1.47926E-20-1.29095E-20-4.84467E-21-6.91783E-22
 -1         8-4.66080E-05 1.83467E-20 2.85110E-20 1.17180E-20 5.00435E-21-1.44489E-20
 -1         9-4.66080E-05 2.07688E-13 1.79999E-13-9.01065E-15-1.23183E-14 5.12696E-14
 -1        10-4.66080E-05 1.69900E-13 1.95572E-13 8.13243E-14-3.82130E-16 7.24587E-14
 -1        11-4.66080E-05 4.02763E-13 3.63991E-13-1.80414E-13-4.65216E-14 2.43833E-14
 -1        12-9.32159E-05 9.31131E-14 1.31127E-13 5.57845E-13 7.23944E-14 2.93041E-13
 -1        13-9.32159E-05 7.35170E-21 2.76802E-20 8.34727E-22-6.94232E-21-2.68026E-21
 -1        14-4.66080E-05 2.26426E-20 4.46203E-21-1.82075E-20 4.64059E-21 5.30446E-21
 -1        15-4.66080E-05 3.09813E-16-6.90330E-15-1.64753E-13 9.81072E-15 7.42017E-14
 -1        16-4.66080E-05 1.83844E-14 2.76132E-14 1.62018E-13 1.22597E-14-2.28274E-14
 -1        17-4.66080E-05 1.31887E-13 1.66149E-13 2.14743E-13 4.00587E-14 1.32310E-13
 -1        18-9.32159E-05 5.49616E-13 5.20623E-13 8.71657E-14-9.49870E-14-6.47016E-13
 -1        19-9.32159E-05-4.03247E-20-3.60289E-20 1.24132E-20-1.66270E-20 8.49361E-21
 -1        20-4.66080E-05-4.91591E-21-1.07843E-20-1.24182E-20 1.04516E-20-6.64772E-21
 -1        21-4.66080E-05-1.83245E-14-1.15221E-14-1.73692E-13-2.50744E-15 2.14058E-14
 -1        22-4.66080E-05 2.37396E-15 2.91166E-14 2.00813E-13 1.18776E-14-1.34605E-13
 -1        23-4.66080E-05-9.88049E-14-7.31623E-15 3.33662E-13-6.46301E-15 1.49842E-13
 -1        24-9.32159E-05-9.93785E-14-2.64068E-13-4.60720E-13-2.25929E-14 1.44236E-13
 -3
    1PSTEP                       195          65           1          
  100CL  165 5.43781E-01          24                     0   65           1
 -4  TOSTRAIN    6    1
 -5  EXX         1    4    1    1
 -5  EYY         1    4    2    2
 -5  EZZ         1    4    3    3
 -5  EXY         1    4    1    2
 -5  EYZ         1    4    2    3
 -5  EZX         1    4    3    1
 -1         1-4.43885E-10 1.33166E-10 1.33166E-10-1.10381E-26 3.47907E-27 1.28360E-26
 -1         2-2.21943E-10 6.65828E-11 6.65828E-11 1.06979E-25-1.44558E-27 5.28731E-26
 -1         3-2.21943E-10 6.65828E-11 6.65828E-11 1.32762E-19-6.50120E-25 4.55299E-19
 -1         4-2.21943E-10 6.65828E-11 6.65828E-11 2.55646E-19-3.30443E-25-1.16099E-18
 -1         5-2.21943E-10 6.65828E-11 6.65828E-11-5.14029E-21 9.82339E-25-2.38109E-19
 -1         6-4.43885E-10 1.33166E-10 1.33166E-10-1.63023E-19 1.75644E-24 3.11507E-18
 -1         7-4.43885E-10 1.33166E-10 1.33166E-10-7.99161E-26-2.99908E-26-4.28247E-27
 -1         8-2.21943E-10 6.65828E-11 6.65828E-11 7.25402E-26 3.09793E-26-8.94455E-26
 -1         9-2.21943E-10 6.65828E-11 6.65828E-11-5.57802E-20-7.62559E-20 3.17384E-19
 -1        10-2.21943E-10 6.65828E-11 6.65828E-11 5.03436E-19-2.36557E-21 4.48554E-19
 -1        11-2.21943E-10 6.65828E-11 6.65828E-11-1.11685E-18-2.87991E-19 1.50945E-19
 -1        12-4.43885E-10 1.33166E-10 1.33166E-10 3.45333E-18 4.48156E-19 1.81406E-18
 -1        13-4.43885E-10 1.33166E-10 1.33166E-10 5.16736E-27-4.29763E-26-1.65921E-26
 -1        14-2.21943E-10 6.65828E-11 6.65828E-11-1.12713E-25 2.87275E-26 3.28371E-26
 -1        15-2.21943E-10 6.65828E-11 6.65828E-11-1.01990E-18 6.07330E-20 4.59344E-19
 -1        16-2.21943E-10 6.65828E-11 6.65828E-11 1.00297E-18 7.58932E-20-1.41313E-19
 -1        17-2.21943E-10 6.65828E-11 6.65828E-11 1.32936E-18 2.47983E-19 8.19062E-19
 -1        18-4.43885E-10 1.33166E-10 1.33166E-10 5.39597E-19-5.88015E-19-4.00534E-18
 -1        19-4.43885E-10 1.33166E-10 1.33166E-10 7.68436E-26-1.02929E-25 5.25795E-26
 -1        20-2.21943E-10 6.65828E-11 6.65828E-11-7.68747E-26 6.47004E-26-4.11525E-26
 -1        21-2.21943E-10 6.65828E-11 6.65828E-11-1.07523E-18-1.55222E-20 1.32512E-19
 -1        22-2.21943E-10 6.65828E-11 6.65828E-11 1.24313E-18 7.35280E-20-8.33267E-19
 -1        23-2.21943E-10 6.65828E-11 6.65828E-11 2.06553E-18-4.00091E-20 9.27596E-19
 -1        24-4.43885E-10 1.33166E-10 1.33166E-10-2.85207E-18-1.39861E-19 8.92888E-19
 -3
    1PSTEP                       196          66           1          
  100CL  166 5.52781E-01          24                     0   66           1
 -4  DISP        4    1
 -5  D1          1    2    1    0
 -5  D2          1    2    2    0
 -5  D3          1    2    3    0
 -5  ALL         1    2    0    0    1ALL
 -1         1 0.00000E+00 0.00000E+00 0.00000E+00
 -1         2-2.25625E-07 0.00000E+00 0.00000E+00
 -1         3-8.29172E+00 0.00000E+00 0.00000E+00
 -1         4-8.29172E+00 0.00000E+00 0.00000E+00
 -1         5-1.65834E+01 0.00000E+00 0.00000E+00
 -1         6-1.65834E+01 0.00000E+00 0.00000E+00
 -1         7 0.00000E+00 6.76875E-08 0.00000E+00
 -1         8-2.25625E-07 6.76875E-08 0.00000E+00
 -1         9-8.29172E+00 6.76875E-08 0.00000E+00
 -1        10-8.29172E+00 6.76875E-08 0.00000E+00
 -1        11-1.65834E+01 6.76875E-08 0.00000E+00
 -1        12-1.65834E+01 6.76875E-08 0.00000E+00
 -1        13 0.00000E+00 0.00000E+00 9.47625E-08
 -1        14-2.25625E-07 0.00000E+00 9.47625E-08
 -1        15-8.29172E+00 0.00000E+00 9.47625E-08
 -1        16-8.29172E+00 0.00000E+00 9.47625E-08
 -1        17-1.65834E+01 0.00000E+00 9.47625E-08
 -1        18-1.65834E+01 0.00000E+00 9.47625E-08
 -1        19 0.00000E+00 6.76875E-08 9.47625E-08
 -1        20-2.25625E-07 6.76875E-08 9.47625E-08
 -1        21-8.29172E+00 6.76875E-08 9.47625E-08
 -1        22-8.29172E+00 6.76875E-08 9.47625E-08
 -1        23-1.65834E+01 6.76875E-08 9.47625E-08
 -1        24-1.65834E+01 6.76875E-08 9.47625E-08
 -3
    1PSTEP                       197          66           1          
  100CL  166 5.52781E-01          24                     0   66           1
 -4  STRESS      6    1
 -5  SXX         1    4    1    1
 -5  SYY         1    4    2    2
 -5  SZZ         1    4    3    3
 -5  SXY         1    4    1    2
 -5  SYZ         1    4    2    3
 -5  SZX         1    4    3    1
 -1         1-9.47587E-05-1.36414E-20-2.14780E-21 1.38218E-21 3.45519E-21 1.22008E-21
 -1         2-4.73793E-05-1.19029E-20 8.30418E-21-1.66220E-20-7.24521E-22-1.36481E-20
 -1         3-4.73793E-05 7.12599E-14 4.45465E-14 2.95746E-14 2.88282E-20 1.88857E-14
 -1         4-4.73793E-05 3.65565E-14 2.91739E-14 2.83281E-15-3.53256E-20-9.26927E-14
 -1         5-4.73794E-05 2.36939E-14-1.04091E-13 8.36216E-14-1.67796E-19-7.38069E-14
 -1         6-9.47587E-05-3.62209E-13-5.02043E-14 3.14054E-13-3.42865E-19-6.41889E-13
 -1         7-9.47587E-05-1.63649E-20-1.54569E-20-5.75205E-21 5.59848E-22 9.96879E-22
 -1         8-4.73793E-05-3.73135E-20-3.52871E-20-2.01891E-20 5.82469E-21 1.09306E-20
 -1         9-4.73793E-05 5.78315E-14 6.79345E-14 4.83936E-15-1.65623E-14 2.47339E-13
 -1        10-4.73793E-05-1.45718E-14-3.54046E-14 4.85821E-14 5.53161E-16-5.58622E-14
 -1        11-4.73793E-05 4.43029E-13 4.12588E-13 5.42675E-14-5.76358E-14-2.45108E-13
 -1        12-9.47587E-05 1.84251E-13 3.01331E-13-2.57365E-13 1.55497E-13 1.00076E-12
 -1        13-9.47587E-05-1.00749E-20-4.12322E-20-1.05184E-21 2.83490E-21 1.01085E-20
 -1        14-4.73793E-05 6.48854E-21 1.28108E-20 2.13074E-20-1.33939E-20-1.03502E-20
 -1        15-4.73793E-05 4.00687E-14 5.97299E-14-2.12069E-14 2.57715E-14 4.24803E-14
 -1        16-4.73793E-05 8.92315E-14 8.03000E-14 4.88065E-14-9.41519E-15 1.33340E-13
 -1        17-4.73793E-05-3.39838E-15 3.01959E-14-2.04415E-13 6.81409E-14-2.46047E-14
 -1        18-9.47587E-05 9.10370E-13 7.86983E-13-4.06941E-13-1.36448E-13 1.28227E-13
 -1        19-9.47587E-05 4.07465E-20 3.42134E-20 2.57918E-21 8.49551E-21-2.25499E-20
 -1        20-4.73793E-05 2.54553E-20-4.00802E-21 2.31229E-20-7.99096E-21 3.43519E-21
 -1        21-4.73794E-05-2.09796E-13-1.53318E-13-1.71726E-14 9.20911E-15-1.66041E-13
 -1        22-4.73794E-05-1.98333E-13-2.20715E-13 1.00574E-13-8.86200E-15 1.42711E-13
 -1        23-4.73794E-05-2.53966E-13-1.23027E-13-1.69234E-13 1.05053E-14 3.58597E-15
 -1        24-9.47587E-05 1.17024E-13-2.01287E-13 3.33757E-13 1.90492E-14-1.42309E-14
 -3
    1PSTEP                       198          66           1          
  100CL  166 5.52781E-01          24                     0   66           1
 -4  TOSTRAIN    6    1
 -5  EXX         1    4    1    1
 -5  EYY         1    4    2    2
 -5  EZZ         1    4    3    3
 -5  EXY         1    4    1    2
 -5  EYZ         1    4    2    3
 -5  EZX         1    4    3    1
 -1         1-4.51232E-10 1.35370E-10 1.35370E-10 8.55638E-27 2.13893E-26 7.55287E-27
 -1         2-2.25616E-10 6.76848E-11 6.76848E-11-1.02898E-25-4.48513E-27-8.44885E-26
 -1         3-2.25616E-10 6.76848E-11 6.76848E-11 1.83081E-19 1.78460E-25 1.16912E-19
 -1         4-2.25616E-10 6.76848E-11 6.76848E-11 1.75365E-20-2.18682E-25-5.73812E-19
 -1         5-2.25616E-10 6.76848E-11 6.76848E-11 5.17658E-19-1.03873E-24-4.56900E-19
 -1         6-4.51232E-10 1.35370E-10 1.35370E-10 1.94415E-18-2.12250E-24-3.97360E-18
 -1         7-4.51232E-10 1.35370E-10 1.35370E-10-3.56079E-26 3.46572E-27 6.17116E-27
 -1         8-2.25616E-10 6.76848E-11 6.76848E-11-1.24980E-25 3.60576E-26 6.76658E-26
 -1         9-2.25616E-10 6.76848E-11 6.76848E-11 2.99580E-20-1.02529E-19 1.53115E-18
 -1        10-2.25616E-10 6.76848E-11 6.76848E-11 3.00746E-19 3.42433E-21-3.45814E-19
 -1        11-2.25616E-10 6.76848E-11 6.76848E-11 3.35942E-19-3.56793E-19-1.51733E-18
 -1        12-4.51232E-10 1.35370E-10 1.35370E-10-1.59321E-18 9.62598E-19 6.19516E-18
 -1        13-4.51232E-10 1.35370E-10 1.35370E-10-6.51140E-27 1.75494E-26 6.25765E-26
 -1        14-2.25616E-10 6.76848E-11 6.76848E-11 1.31903E-25-8.29147E-26-6.40726E-26
 -1        15-2.25616E-10 6.76848E-11 6.76848E-11-1.31281E-19 1.59538E-19 2.62973E-19
 -1        16-2.25616E-10 6.76848E-11 6.76848E-11 3.02136E-19-5.82845E-20 8.25436E-19
 -1        17-2.25616E-10 6.76848E-11 6.76848E-11-1.26543E-18 4.21824E-19-1.52315E-19
 -1        18-4.51232E-10 1.35370E-10 1.35370E-10-2.51916E-18-8.44676E-19 7.93788E-19
 -1        19-4.51232E-10 1.35370E-10 1.35370E-10 1.59664E-26 5.25912E-26-1.39595E-25
 -1        20-2.25616E-10 6.76848E-11 6.76848E-11 1.43142E-25-4.94679E-26 2.12654E-26
 -1        21-2.25616E-10 6.76848E-11 6.76848E-11-1.06306E-19 5.70088E-20-1.02788E-18
 -1        22-2.25616E-10 6.76848E-11 6.76848E-11 6.22604E-19-5.48600E-20 8.83451E-19
 -1        23-2.25616E-10 6.76848E-11 6.76848E-11-1.04764E-18 6.50327E-20 2.21988E-20
 -1        24-4.51232E-10 1.35370E-10 1.35370E-10 2.06612E-18 1.17923E-19-8.80962E-20
 -3
    1PSTEP                       199          67           1          
  100CL  167 5.61781E-01          24                     0   67           1
 -4  DISP        4    1
 -5  D1          1    2    1    0
 -5  D2          1    2    2    0
 -5  D3          1    2    3    0
 -5  ALL         1    2    0    0    1ALL
 -1         1 0.00000E+00 0.00000E+00 0.00000E+00
 -1         2-2.29298E-07 0.00000E+00 0.00000E+00
 -1         3-8.42672E+00 0.00000E+00 0.00000E+00
 -1         4-8.42672E+00 0.00000E+00 0.00000E+00
 -1         5-1.68534E+01 0.00000E+00 0.00000E+00
 -1         6-1.68534E+01 0.00000E+00 0.00000E+00
 -1         7 0.00000E+00 6.87895E-08 0.00000E+00
 -1         8-2.29298E-07 6.87895E-08 0.00000E+00
 -1         9-8.42672E+00 6.87895E-08 0.00000E+00
 -1        10-8.42672E+00 6.87895E-08 0.00000E+00
 -1        11-1.68534E+01 6.87895E-08 0.00000E+00
 -1        12-1.68534E+01 6.87895E-08 0.00000E+00
 -1        13 0.00000E+00 0.00000E+00 9.63054E-08
 -1        14-2.29298E-07 0.00000E+00 9.63054E-08
 -1        15-8.42672E+00 0.00000E+00 9.63054E-08
 -1        16-8.42672E+00 0.00000E+00 9.63054E-08
 -1        17-1.68534E+01 0.00000E+00 9.63053E-08
 -1        18-1.68534E+01 0.00000E+00 9.63054E-08
 -1        19 0.00000E+00 6.87895E-08 9.63054E-08
 -1        20-2.29298E-07 6.87895E-08 9.63054E-08
 -1        21-8.42672E+00 6.87895E-08 9.63054E-08
 -1        22-8.42672E+00 6.87895E-08 9.63054E-08
 -1        23-1.68534E+01 6.87895E-08 9.63054E-08
 -1        24-1.68534E+01 6.87895E-08 9.63053E-08
 -3
    1PSTEP                       200          67           1          
  100CL  167 5.61781E-01          24                     0   67           1
 -4  STRESS      6    1
 -5  SXX         1    4    1    1
 -5  SYY         1    4    2    2
 -5  SZZ         1    4    3    3
 -5  SXY         1    4    1    2
 -5  SYZ         1    4    2    3
 -5  SZX         1    4    3    1
 -1         1-9.63015E-05-1.51249E-20-1.69404E-20 1.31676E-21 1.17687E-21 5.80658E-22
 -1         2-4.81507E-05-2.20226E-20-1.06181E-20 1.48176E-20-3.27446E-22 8.96908E-21
 -1         3-4.81507E-05 1.87268E-13 1.47654E-13 3.70028E-14 2.90230E-20 7.84067E-15
 -1         4-4.81507E-05 1.50484E-13 1.67500E-13-1.67538E-14-6.50448E-20-1.34344E-13
 -1         5-4.81507E-05 2.85799E-13 1.23370E-13 3.21172E-13 7.65671E-20-1.84839E-13
 -1         6-9.63015E-05 8.53634E-14 4.23124E-13-1.65590E-13-1.38075E-19-1.89046E-13
 -1         7-9.63015E-05 2.98280E-20 1.62758E-20-1.49157E-20-1.24638E-20-4.88328E-21
 -1         8-4.81507E-05 4.53874E-22-4.17431E-21 6.70133E-21 8.09120E-21-3.81555E-21
 -1         9-4.81507E-05 1.56907E-13 1.58203E-13 2.14238E-14-1.44713E-14 8.67257E-14
 -1        10-4.81507E-05 7.17245E-14 6.51170E-14-3.36207E-14 4.50354E-15 6.85105E-14
 -1        11-4.81507E-05 4.29291E-14 9.51882E-15 8.52590E-14-6.99092E-14 2.29943E-13
 -1        12-9.63015E-05-7.94633E-13-7.24510E-13 6.64793E-13 1.45606E-13 1.00076E-12
 -1        13-9.63015E-05 1.26445E-20 1.51249E-20-1.58143E-22-2.35065E-21-8.50584E-22
 -1        14-4.81507E-05 3.25192E-20 2.57430E-20-1.76285E-20-3.29373E-21 1.11191E-20
 -1        15-4.81507E-05 5.53164E-14 5.62227E-14-1.20150E-13 2.86361E-14 5.18320E-14
 -1        16-4.81507E-05 1.11510E-13 1.15915E-13-4.43534E-15-1.65364E-14-5.78913E-15
 -1        17-4.81507E-05-2.14380E-13-1.81063E-13 1.12204E-13 9.03132E-14-1.20496E-14
 -1        18-9.63015E-05 4.83586E-13 4.13649E-13 2.45811E-13-1.87346E-13 2.54064E-13
 -1        19-9.63015E-05-4.40452E-20-3.29730E-20 2.13857E-20-7.43534E-21-4.88931E-21
 -1        20-4.81507E-05 4.17431E-21-8.47019E-21-6.85657E-21 3.97866E-21-1.45135E-20
 -1        21-4.81507E-05 4.46591E-14 8.64741E-14-1.23588E-13 1.41648E-14-1.58275E-13
 -1        22-4.81507E-05 5.24533E-14 3.32357E-14 5.90920E-14-1.20328E-14 6.73295E-14
 -1        23-4.81507E-05-1.42002E-13 2.03335E-14 3.06862E-13 2.04039E-14-4.77364E-14
 -1        24-9.63015E-05 2.34086E-13-1.03488E-13-2.46752E-13-4.17401E-14-9.13128E-13
 -3
    1PSTEP                       201          67           1          
  100CL  167 5.61781E-01          24                     0   67           1
 -4  TOSTRAIN    6    1
 -5  EXX         1    4    1    1
 -5  EYY         1    4    2    2
 -5  EZZ         1    4    3    3
 -5  EXY         1    4    1    2
 -5  EYZ         1    4    2    3
 -5  EZX         1    4    3    1
 -1         1-4.58579E-10 1.37574E-10 1.37574E-10 8.15138E-27 7.28539E-27 3.59455E-27
 -1         2-2.29289E-10 6.87868E-11 6.87868E-11 9.17278E-26-2.02705E-27 5.55229E-26
 -1         3-2.29289E-10 6.87868E-11 6.87868E-11 2.29065E-19 1.79666E-25 4.85375E-20
 -1         4-2.29289E-10 6.87868E-11 6.87868E-11-1.03714E-19-4.02658E-25-8.31655E-19
 -1         5-2.29289E-10 6.87868E-11 6.87868E-11 1.98821E-18 4.73987E-25-1.14424E-18
 -1         6-4.58579E-10 1.37574E-10 1.37574E-10-1.02508E-18-8.54750E-25-1.17028E-18
 -1         7-4.58579E-10 1.37574E-10 1.37574E-10-9.23354E-26-7.71566E-26-3.02298E-26
 -1         8-2.29289E-10 6.87868E-11 6.87868E-11 4.14844E-26 5.00884E-26-2.36200E-26
 -1         9-2.29289E-10 6.87868E-11 6.87868E-11 1.32624E-19-8.95840E-20 5.36873E-19
 -1        10-2.29289E-10 6.87868E-11 6.87868E-11-2.08128E-19 2.78791E-20 4.24113E-19
 -1        11-2.29289E-10 6.87868E-11 6.87868E-11 5.27794E-19-4.32771E-19 1.42346E-18
 -1        12-4.58579E-10 1.37574E-10 1.37574E-10 4.11539E-18 9.01371E-19 6.19516E-18
 -1        13-4.58579E-10 1.37574E-10 1.37574E-10-9.78981E-28-1.45517E-26-5.26552E-27
 -1        14-2.29289E-10 6.87868E-11 6.87868E-11-1.09129E-25-2.03897E-26 6.88326E-26
 -1        15-2.29289E-10 6.87868E-11 6.87868E-11-7.43788E-19 1.77271E-19 3.20865E-19
 -1        16-2.29289E-10 6.87868E-11 6.87868E-11-2.74568E-20-1.02368E-19-3.58375E-20
 -1        17-2.29289E-10 6.87868E-11 6.87868E-11 6.94596E-19 5.59082E-19-7.45929E-20
 -1        18-4.58579E-10 1.37574E-10 1.37574E-10 1.52169E-18-1.15976E-18 1.57278E-18
 -1        19-4.58579E-10 1.37574E-10 1.37574E-10 1.32387E-25-4.60283E-26-3.02672E-26
 -1        20-2.29289E-10 6.87868E-11 6.87868E-11-4.24454E-26 2.46298E-26-8.98455E-26
 -1        21-2.29289E-10 6.87868E-11 6.87868E-11-7.65068E-19 8.76871E-20-9.79801E-19
 -1        22-2.29289E-10 6.87868E-11 6.87868E-11 3.65807E-19-7.44889E-20 4.16801E-19
 -1        23-2.29289E-10 6.87868E-11 6.87868E-11 1.89962E-18 1.26310E-19-2.95511E-19
 -1        24-4.58579E-10 1.37574E-10 1.37574E-10-1.52751E-18-2.58391E-19-5.65270E-18
 -3
    1PSTEP                       202          68           1          
  100CL  168 5.70781E-01          24                     0   68           1
 -4  DISP        4    1
 -5  D1          1    2    1    0
 -5  D2          1    2    2    0
 -5  D3          1    2    3    0
 -5  ALL         1    2    0    0    1ALL
 -1         1 0.00000E+00 0.00000E+00 0.00000E+00
 -1         2-2.32972E-07 0.00000E+00 0.00000E+00
 -1         3-8.56172E+00 0.00000E+00 0.00000E+00
 -1         4-8.56172E+00 0.00000E+00 0.00000E+00
 -1         5-1.71234E+01 0.00000E+00 0.00000E+00
 -1         6-1.71234E+01 0.00000E+00 0.00000E+00
 -1         7 0.00000E+00 6.98916E-08 0.00000E+00
 -1         8-2.32972E-07 6.98916E-08 0.00000E+00
 -1         9-8.56172E+00 6.98916E-08 0.00000E+00
 -1        10-8.56172E+00 6.98916E-08 0.00000E+00
 -1        11-1.71234E+01 6.98916E-08 0.00000E+00
 -1        12-1.71234E+01 6.98916E-08 0.00000E+00
 -1        13 0.00000E+00 0.00000E+00 9.78482E-08
 -1        14-2.32972E-07 0.00000E+00 9.78482E-08
 -1        15-8.56172E+00 0.00000E+00 9.78482E-08
 -1        16-8.56172E+00 0.00000E+00 9.78482E-08
 -1        17-1.71234E+01 0.00000E+00 9.78482E-08
 -1        18-1.71234E+01 0.00000E+00 9.78482E-08
 -1        19 0.00000E+00 6.98916E-08 9.78482E-08
 -1        20-2.32972E-07 6.98916E-08 9.78482E-08
 -1        21-8.56172E+00 6.98916E-08 9.78482E-08
 -1        22-8.56172E+00 6.98916E-08 9.78482E-08
 -1        23-1.71234E+01 6.98916E-08 9.78482E-08
 -1        24-1.71234E+01 6.98916E-08 9.78482E-08
 -3
    1PSTEP                       203          68           1          
  100CL  168 5.70781E-01          24                     0   68           1
 -4  STRESS      6    1
 -5  SXX         1    4    1    1
 -5  SYY         1    4    2    2
 -5  SZZ         1    4    3    3
 -5  SXY         1    4    1    2
 -5  SYZ         1    4    2    3
 -5  SZX         1    4    3    1
 -1         1-9.78443E-05-3.39702E-20-1.47926E-20-4.41509E-22-5.31427E-22 3.00836E-22
 -1         2-4.89221E-05-3.88659E-21-1.56232E-20-9.70454E-21 8.77335E-23 4.57633E-22
 -1         3-4.89221E-05 3.26248E-14 1.76428E-14 5.28703E-14 5.46547E-21-1.13969E-13
 -1         4-4.89221E-05-2.28143E-14-1.15115E-15-8.41070E-14-3.01415E-20-8.00417E-14
 -1         5-4.89221E-05-1.86458E-13-2.37489E-13-2.09108E-13 1.62867E-19 5.95794E-14
 -1         6-9.78443E-05-4.29029E-13-3.76499E-13 2.02269E-13-2.67057E-19-2.67064E-13
 -1         7-9.78443E-05-2.06608E-20-2.49564E-20 9.83998E-23-5.09306E-21-1.90617E-21
 -1         8-4.89221E-05 6.48841E-21 6.20028E-22-9.43459E-21-2.09522E-21 1.71517E-20
 -1         9-4.89221E-05 7.74933E-15 2.32448E-14 5.13489E-15-1.55142E-14-1.97339E-15
 -1        10-4.89221E-05-9.57151E-14-1.07608E-13 1.55666E-14 1.91867E-14-6.73771E-14
 -1        11-4.89221E-05 1.70712E-13 2.19990E-13-2.04651E-13-2.91706E-14-1.75766E-13
 -1        12-9.78443E-05 7.05112E-15-1.10817E-13 6.16812E-15 3.37542E-14 6.48931E-13
 -1        13-9.78443E-05-1.63649E-20-4.62792E-21-2.59620E-21 8.69233E-21-6.37905E-21
 -1        14-4.89221E-05-1.52791E-21-9.54423E-21 1.27060E-20-2.15101E-21-2.30918E-21
 -1        15-4.89221E-05-4.56255E-14-1.71678E-14-4.74766E-14 2.13342E-14-1.29406E-13
 -1        16-4.89221E-05 6.89700E-14 3.69101E-14 1.46850E-13-2.34896E-14-1.09151E-14
 -1        17-4.89221E-05-4.74561E-14-1.68084E-14 2.78742E-14 7.02159E-14 2.08018E-14
 -1        18-9.78443E-05 3.00246E-13 2.58263E-13 1.55971E-13-1.19278E-13-5.34177E-13
 -1        19-9.78443E-05 4.50421E-20 6.85156E-20 1.27115E-21 4.13070E-21-1.76179E-20
 -1        20-4.89221E-05 1.52910E-20-4.46190E-21 1.46396E-20-4.33396E-21 7.15685E-21
 -1        21-4.89221E-05 4.77172E-14 1.06652E-13 3.51016E-14 5.82000E-15-9.58887E-14
 -1        22-4.89221E-05 1.14287E-13 4.86710E-14-9.92823E-15-4.30279E-15 8.25277E-14
 -1        23-4.89221E-05-1.63159E-13-3.22028E-14 1.25645E-13 4.10451E-14 1.91320E-13
 -1        24-9.78443E-05-2.09420E-13-4.21800E-13-1.26513E-13-8.55238E-14 1.01500E-13
 -3
    1PSTEP                       204          68           1          
  100CL  168 5.70781E-01          24                     0   68           1
 -4  TOSTRAIN    6    1
 -5  EXX         1    4    1    1
 -5  EYY         1    4    2    2
 -5  EZZ         1    4    3    3
 -5  EXY         1    4    1    2
 -5  EYZ         1    4    2    3
 -5  EZX         1    4    3    1
 -1         1-4.65925E-10 1.39778E-10 1.39778E-10-2.73315E-27-3.28979E-27 1.86232E-27
 -1         2-2.32963E-10 6.98888E-11 6.98888E-11-6.00757E-26 5.43112E-28 2.83296E-27
 -1         3-2.32963E-10 6.98888E-11 6.98888E-11 3.27292E-19 3.38338E-26-7.05524E-19
 -1         4-2.32963E-10 6.98888E-11 6.98888E-11-5.20662E-19-1.86590E-25-4.95496E-19
 -1         5-2.32963E-10 6.98888E-11 6.98888E-11-1.29448E-18 1.00823E-24 3.68825E-19
 -1         6-4.65925E-10 1.39778E-10 1.39778E-10 1.25214E-18-1.65321E-24-1.65325E-18
 -1         7-4.65925E-10 1.39778E-10 1.39778E-10 6.09141E-28-3.15285E-26-1.18001E-26
 -1         8-2.32963E-10 6.98888E-11 6.98888E-11-5.84046E-26-1.29704E-26 1.06177E-25
 -1         9-2.32963E-10 6.98888E-11 6.98888E-11 3.17874E-20-9.60400E-20-1.22163E-20
 -1        10-2.32963E-10 6.98888E-11 6.98888E-11 9.63647E-20 1.18775E-19-4.17096E-19
 -1        11-2.32963E-10 6.98888E-11 6.98888E-11-1.26689E-18-1.80580E-19-1.08807E-18
 -1        12-4.65925E-10 1.39778E-10 1.39778E-10 3.81836E-20 2.08955E-19 4.01719E-18
 -1        13-4.65925E-10 1.39778E-10 1.39778E-10-1.60717E-26 5.38097E-26-3.94893E-26
 -1        14-2.32963E-10 6.98888E-11 6.98888E-11 7.86559E-26-1.33158E-26-1.42949E-26
 -1        15-2.32963E-10 6.98888E-11 6.98888E-11-2.93903E-19 1.32069E-19-8.01087E-19
 -1        16-2.32963E-10 6.98888E-11 6.98888E-11 9.09072E-19-1.45412E-19-6.75697E-20
 -1        17-2.32963E-10 6.98888E-11 6.98888E-11 1.72554E-19 4.34670E-19 1.28773E-19
 -1        18-4.65925E-10 1.39778E-10 1.39778E-10 9.65532E-19-7.38389E-19-3.30681E-18
 -1        19-4.65925E-10 1.39778E-10 1.39778E-10 7.86902E-27 2.55710E-26-1.09063E-25
 -1        20-2.32963E-10 6.98888E-11 6.98888E-11 9.06263E-26-2.68292E-26 4.43043E-26
 -1        21-2.32963E-10 6.98888E-11 6.98888E-11 2.17295E-19 3.60286E-20-5.93596E-19
 -1        22-2.32963E-10 6.98888E-11 6.98888E-11-6.14605E-20-2.66363E-20 5.10886E-19
 -1        23-2.32963E-10 6.98888E-11 6.98888E-11 7.77800E-19 2.54089E-19 1.18436E-18
 -1        24-4.65925E-10 1.39778E-10 1.39778E-10-7.83177E-19-5.29433E-19 6.28336E-19
 -3
    1PSTEP                       205          69           1          
  100CL  169 5.79781E-01          24                     0   69           1
 -4  DISP        4    1
 -5  D1          1    2    1    0
 -5  D2          1    2    2    0
 -5  D3          1    2    3    0
 -5  ALL         1    2    0    0    1ALL
 -1         1 0.00000E+00 0.00000E+00 0.00000E+00
 -1         2-2.36645E-07 0.00000E+00 0.00000E+00
 -1         3-8.69672E+00 0.00000E+00 0.00000E+00
 -1         4-8.69672E+00 0.00000E+00 0.00000E+00
 -1         5-1.73934E+01 0.00000E+00 0.00000E+00
 -1         6-1.73934E+01 0.00000E+00 0.00000E+00
 -1         7 0.00000E+00 7.09936E-08 0.00000E+00
 -1         8-2.36645E-07 7.09936E-08 0.00000E+00
 -1         9-8.69672E+00 7.09936E-08 0.00000E+00
 -1        10-8.69672E+00 7.09936E-08 0.00000E+00
 -1        11-1.73934E+01 7.09936E-08 0.00000E+00
 -1        12-1.73934E+01 7.09936E-08 0.00000E+00
 -1        13 0.00000E+00 0.00000E+00 9.93911E-08
 -1        14-2.36645E-07 0.00000E+00 9.93911E-08
 -1        15-8.69672E+00 0.00000E+00 9.93911E-08
 -1        16-8.69672E+00 0.00000E+00 9.93911E-08
 -1        17-1.73934E+01 0.00000E+00 9.93911E-08
 -1        18-1.73934E+01 0.00000E+00 9.93911E-08
 -1        19 0.00000E+00 7.09936E-08 9.93911E-08
 -1        20-2.36645E-07 7.09936E-08 9.93911E-08
 -1        21-8.69672E+00 7.09936E-08 9.93911E-08
 -1        22-8.69672E+00 7.09936E-08 9.93911E-08
 -1        23-1.73934E+01 7.09936E-08 9.93911E-08
 -1        24-1.73934E+01 7.09936E-08 9.93911E-08
 -3
    1PSTEP                       206          69           1          
  100CL  169 5.79781E-01          24                     0   69           1
 -4  STRESS      6    1
 -5  SXX         1    4    1    1
 -5  SYY         1    4    2    2
 -5  SZZ         1    4    3    3
 -5  SXY         1    4    1    2
 -5  SYZ         1    4    2    3
 -5  SZX         1    4    3    1
 -1         1-9.93871E-05-7.77319E-21-1.81804E-20 1.93981E-22-5.89834E-22 2.53236E-21
 -1         2-4.96935E-05-3.51657E-20-9.87654E-21 9.75500E-21 4.78221E-23 3.86753E-21
 -1         3-4.96935E-05 1.01660E-13 4.36736E-14 5.60200E-14 4.23308E-20 8.22761E-15
 -1         4-4.96935E-05 3.29825E-14 7.25908E-14-8.77251E-14-1.19302E-19-1.66276E-14
 -1         5-4.96935E-05 1.21458E-13 6.40351E-14 4.82782E-14 1.01212E-19-2.29545E-13
 -1         6-9.93871E-05 2.17057E-13 3.41701E-13 1.25008E-13-6.86739E-19 1.12121E-13
 -1         7-9.93871E-05 4.61930E-20 3.69366E-20-2.80564E-20-5.18999E-21-3.13115E-21
 -1         8-4.96935E-05-3.22314E-20-3.68596E-20-4.37017E-21 1.12673E-20 6.90774E-21
 -1         9-4.96935E-05-1.39501E-13-1.28347E-13 8.95853E-15-2.32057E-14-1.40596E-13
 -1        10-4.96935E-05-2.99338E-13-3.12135E-13-4.63588E-14 1.60552E-14 8.00005E-14
 -1        11-4.96935E-05-5.60174E-14 3.17930E-14 4.93925E-14-3.15608E-14 7.93561E-14
 -1        12-9.93871E-05-5.58238E-13-7.03585E-13-7.77775E-14 7.74324E-14 6.77382E-13
 -1        13-9.93871E-05 8.91751E-23 2.56956E-21-1.95995E-21 8.52177E-21 1.69797E-20
 -1        14-4.96935E-05 2.60307E-20 2.72709E-20 7.89511E-21-2.18061E-20 1.10912E-20
 -1        15-4.96935E-05 1.34529E-14 2.04428E-14-1.08989E-13 4.83983E-14-3.17051E-14
 -1        16-4.96935E-05 1.37155E-13 1.31808E-13-4.60881E-14-3.66841E-14-4.75445E-14
 -1        17-4.96935E-05-3.19591E-13-2.88643E-13-2.83771E-13 1.01664E-13-1.52284E-13
 -1        18-9.93871E-05 2.36774E-14-6.84909E-14 3.06723E-13-1.88995E-13 5.64782E-14
 -1        19-9.93871E-05 5.95769E-21 9.58895E-21 1.36337E-20-3.56362E-22-3.56595E-20
 -1        20-4.96935E-05 2.25210E-20-6.15610E-21 1.56919E-20-1.00135E-20-9.35645E-21
 -1        21-4.96935E-05 2.84312E-14 1.04561E-13-9.14692E-14 2.51925E-14 1.50600E-13
 -1        22-4.96935E-05 6.09737E-14 3.22145E-15 1.43574E-14-2.06287E-14-9.75558E-14
 -1        23-4.96935E-05 2.12242E-13 3.88423E-13-1.55422E-13 7.01026E-14-3.95431E-14
 -1        24-9.93871E-05 6.67000E-13 3.04841E-13 8.53969E-14-1.11562E-13 2.29418E-13
 -3
    1PSTEP                       207          69           1          
  100CL  169 5.79781E-01          24                     0   69           1
 -4  TOSTRAIN    6    1
 -5  EXX         1    4    1    1
 -5  EYY         1    4    2    2
 -5  EZZ         1    4    3    3
 -5  EXY         1    4    1    2
 -5  EYZ         1    4    2    3
 -5  EZX         1    4    3    1
 -1         1-4.73272E-10 1.41982E-10 1.41982E-10 1.20083E-27-3.65135E-27 1.56765E-26
 -1         2-2.36636E-10 7.09908E-11 7.09908E-11 6.03881E-26 2.96041E-28 2.39418E-26
 -1         3-2.36636E-10 7.09908E-11 7.09908E-11 3.46790E-19 2.62048E-25 5.09328E-20
 -1         4-2.36636E-10 7.09908E-11 7.09908E-11-5.43060E-19-7.38537E-25-1.02933E-19
 -1         5-2.36636E-10 7.09908E-11 7.09908E-11 2.98865E-19 6.26553E-25-1.42099E-18
 -1         6-4.73272E-10 1.41982E-10 1.41982E-10 7.73856E-19-4.25124E-24 6.94085E-19
 -1         7-4.73272E-10 1.41982E-10 1.41982E-10-1.73682E-25-3.21285E-26-1.93833E-26
 -1         8-2.36636E-10 7.09908E-11 7.09908E-11-2.70535E-26 6.97500E-26 4.27622E-26
 -1         9-2.36636E-10 7.09908E-11 7.09908E-11 5.54576E-20-1.43655E-19-8.70359E-19
 -1        10-2.36636E-10 7.09908E-11 7.09908E-11-2.86983E-19 9.93893E-20 4.95241E-19
 -1        11-2.36636E-10 7.09908E-11 7.09908E-11 3.05763E-19-1.95376E-19 4.91252E-19
 -1        12-4.73272E-10 1.41982E-10 1.41982E-10-4.81480E-19 4.79343E-19 4.19332E-18
 -1        13-4.73272E-10 1.41982E-10 1.41982E-10-1.21330E-26 5.27538E-26 1.05112E-25
 -1        14-2.36636E-10 7.09908E-11 7.09908E-11 4.88745E-26-1.34990E-25 6.86597E-26
 -1        15-2.36636E-10 7.09908E-11 7.09908E-11-6.74693E-19 2.99608E-19-1.96270E-19
 -1        16-2.36636E-10 7.09908E-11 7.09908E-11-2.85307E-19-2.27092E-19-2.94323E-19
 -1        17-2.36636E-10 7.09908E-11 7.09908E-11-1.75668E-18 6.29346E-19-9.42708E-19
 -1        18-4.73272E-10 1.41982E-10 1.41982E-10 1.89876E-18-1.16997E-18 3.49627E-19
 -1        19-4.73272E-10 1.41982E-10 1.41982E-10 8.43989E-26-2.20605E-27-2.20749E-25
 -1        20-2.36636E-10 7.09908E-11 7.09908E-11 9.71404E-26-6.19884E-26-5.79209E-26
 -1        21-2.36636E-10 7.09908E-11 7.09908E-11-5.66238E-19 1.55953E-19 9.32288E-19
 -1        22-2.36636E-10 7.09908E-11 7.09908E-11 8.88793E-20-1.27702E-19-6.03917E-19
 -1        23-2.36636E-10 7.09908E-11 7.09908E-11-9.62137E-19 4.33969E-19-2.44791E-19
 -1        24-4.73272E-10 1.41982E-10 1.41982E-10 5.28647E-19-6.90620E-19 1.42021E-18
 -3
    1PSTEP                       208          70           1          
  100CL  170 5.88781E-01          24                     0   70           1
 -4  DISP        4    1
 -5  D1          1    2    1    0
 -5  D2          1    2    2    0
 -5  D3          1    2    3    0
 -5  ALL         1    2    0    0    1ALL
 -1         1 0.00000E+00 0.00000E+00 0.00000E+00
 -1         2-2.40319E-07 0.00000E+00 0.00000E+00
 -1         3-8.83172E+00 0.00000E+00 0.00000E+00
 -1         4-8.83172E+00 0.00000E+00 0.00000E+00
 -1         5-1.76634E+01 0.00000E+00 0.00000E+00
 -1         6-1.76634E+01 0.00000E+00 0.00000E+00
 -1         7 0.00000E+00 7.20957E-08 0.00000E+00
 -1         8-2.40319E-07 7.20957E-08 0.00000E+00
 -1         9-8.83172E+00 7.20957E-08 0.00000E+00
 -1        10-8.83172E+00 7.20957E-08 0.00000E+00
 -1        11-1.76634E+01 7.20957E-08 0.00000E+00
 -1        12-1.76634E+01 7.20957E-08 0.00000E+00
 -1        13 0.00000E+00 0.00000E+00 1.00934E-07
 -1        14-2.40319E-07 0.00000E+00 1.00934E-07
 -1        15-8.83172E+00 0.00000E+00 1.00934E-07
 -1        16-8.83172E+00 0.00000E+00 1.00934E-07
 -1        17-1.76634E+01 0.00000E+00 1.00934E-07
 -1        18-1.76634E+01 0.00000E+00 1.00934E-07
 -1        19 0.00000E+00 7.20957E-08 1.00934E-07
 -1        20-2.40319E-07 7.20957E-08 1.00934E-07
 -1        21-8.83172E+00 7.20957E-08 1.00934E-07
 -1        22-8.83172E+00 7.20957E-08 1.00934E-07
 -1        23-1.76634E+01 7.20957E-08 1.00934E-07
 -1        24-1.76634E+01 7.20957E-08 1.00934E-07
 -3
    1PSTEP                       209          70           1          
  100CL  170 5.88781E-01          24                     0   70           1
 -4  STRESS      6    1
 -5  SXX         1    4    1    1
 -5  SYY         1    4    2    2
 -5  SZZ         1    4    3    3
 -5  SXY         1    4    1    2
 -5  SYZ         1    4    2    3
 -5  SZX         1    4    3    1
 -1         1-1.00930E-04-1.24014E-20-8.92380E-21 1.41393E-21-8.25467E-22-1.30978E-21
 -1         2-5.04649E-05 1.19798E-20 2.30966E-20-3.96997E-21 3.05999E-22-3.75413E-21
 -1         3-5.04649E-05-4.46655E-14-5.66598E-14-2.20928E-13 1.74426E-20-7.63989E-15
 -1         4-5.04649E-05-5.82941E-14-5.50319E-14 4.01668E-14-1.72210E-19 1.86141E-13
 -1         5-5.04649E-05 1.69527E-13 2.12239E-13-2.70718E-13 2.75695E-19 2.82251E-13
 -1         6-1.00930E-04 1.09855E-12 1.09001E-12 6.62152E-13-1.12959E-18-1.50245E-13
 -1         7-1.00930E-04-3.38810E-20-1.47923E-20-5.68706E-21 4.01976E-21-2.93382E-22
 -1         8-5.04649E-05-2.65292E-20-4.45435E-20-7.52047E-21 3.52560E-21 9.28092E-21
 -1         9-5.04649E-05 1.66840E-13 2.08943E-13-2.40837E-13-6.34231E-15 2.42538E-14
 -1        10-5.04649E-05 8.29869E-14 4.67137E-14 9.07421E-14 5.30570E-15-2.86604E-13
 -1        11-5.04649E-05-2.99809E-13-1.25092E-13-4.47221E-14 3.49718E-14-4.49952E-13
 -1        12-1.00930E-04-2.50858E-13-5.43038E-13-2.39230E-13-2.20381E-14-7.78943E-14
 -1        13-1.00930E-04 5.62511E-21-3.62717E-20-2.83621E-21 7.95524E-21 1.22335E-20
 -1        14-5.04649E-05-1.69404E-20-4.46190E-21 1.81757E-20-2.09305E-20 3.01750E-21
 -1        15-5.04649E-05-4.13178E-14-3.55536E-14-6.72942E-14 3.78683E-14 1.66118E-14
 -1        16-5.04649E-05 2.12971E-15-9.46448E-15 4.09840E-14-2.76750E-14-9.72162E-14
 -1        17-5.04649E-05-4.09462E-13-4.64670E-13 9.31520E-14 9.24036E-14-2.89318E-13
 -1        18-1.00930E-04-5.10128E-13-4.56964E-13-3.31272E-13-1.98550E-13 8.57504E-14
 -1        19-1.00930E-04 7.09068E-20 5.20618E-20-9.33529E-22 8.52249E-21-3.37258E-20
 -1        20-5.04649E-05 2.31411E-20-7.39616E-21 1.91271E-20-1.71377E-20-7.43529E-21
 -1        21-5.04649E-05-4.65454E-14 1.33163E-14-6.60881E-14 3.15260E-14 8.25491E-14
 -1        22-5.04649E-05-7.33225E-14-1.24452E-13 8.99237E-14-2.23691E-14-1.26473E-14
 -1        23-5.04649E-05 3.03384E-13 3.80180E-13 1.29760E-13 1.27375E-13 3.17031E-13
 -1        24-1.00930E-04 5.04825E-13 2.74349E-13-4.28382E-13-2.20587E-13 2.87103E-13
 -3
    1PSTEP                       210          70           1          
  100CL  170 5.88781E-01          24                     0   70           1
 -4  TOSTRAIN    6    1
 -5  EXX         1    4    1    1
 -5  EYY         1    4    2    2
 -5  EZZ         1    4    3    3
 -5  EXY         1    4    1    2
 -5  EYZ         1    4    2    3
 -5  EZX         1    4    3    1
 -1         1-4.80618E-10 1.44186E-10 1.44186E-10 8.75293E-27-5.11004E-27-8.10818E-27
 -1         2-2.40309E-10 7.20928E-11 7.20928E-11-2.45760E-26 1.89428E-27-2.32398E-26
 -1         3-2.40309E-10 7.20928E-11 7.20928E-11-1.36765E-18 1.07978E-25-4.72946E-20
 -1         4-2.40309E-10 7.20928E-11 7.20928E-11 2.48652E-19-1.06606E-24 1.15230E-18
 -1         5-2.40309E-10 7.20928E-11 7.20928E-11-1.67588E-18 1.70668E-24 1.74727E-18
 -1         6-4.80618E-10 1.44186E-10 1.44186E-10 4.09903E-18-6.99270E-24-9.30091E-19
 -1         7-4.80618E-10 1.44186E-10 1.44186E-10-3.52056E-26 2.48842E-26-1.81618E-27
 -1         8-2.40309E-10 7.20928E-11 7.20928E-11-4.65553E-26 2.18252E-26 5.74533E-26
 -1         9-2.40309E-10 7.20928E-11 7.20928E-11-1.49090E-18-3.92619E-20 1.50143E-19
 -1        10-2.40309E-10 7.20928E-11 7.20928E-11 5.61737E-19 3.28448E-20-1.77422E-18
 -1        11-2.40309E-10 7.20928E-11 7.20928E-11-2.76851E-19 2.16492E-19-2.78542E-18
 -1        12-4.80618E-10 1.44186E-10 1.44186E-10-1.48095E-18-1.36426E-19-4.82203E-19
 -1        13-4.80618E-10 1.44186E-10 1.44186E-10-1.75575E-26 4.92467E-26 7.57310E-26
 -1        14-2.40309E-10 7.20928E-11 7.20928E-11 1.12516E-25-1.29570E-25 1.86797E-26
 -1        15-2.40309E-10 7.20928E-11 7.20928E-11-4.16583E-19 2.34423E-19 1.02835E-19
 -1        16-2.40309E-10 7.20928E-11 7.20928E-11 2.53711E-19-1.71321E-19-6.01814E-19
 -1        17-2.40309E-10 7.20928E-11 7.20928E-11 5.76655E-19 5.72022E-19-1.79101E-18
 -1        18-4.80618E-10 1.44186E-10 1.44186E-10-2.05073E-18-1.22912E-18 5.30836E-19
 -1        19-4.80618E-10 1.44186E-10 1.44186E-10-5.77899E-27 5.27583E-26-2.08779E-25
 -1        20-2.40309E-10 7.20928E-11 7.20928E-11 1.18406E-25-1.06091E-25-4.60280E-26
 -1        21-2.40309E-10 7.20928E-11 7.20928E-11-4.09117E-19 1.95161E-19 5.11018E-19
 -1        22-2.40309E-10 7.20928E-11 7.20928E-11 5.56671E-19-1.38475E-19-7.82931E-20
 -1        23-2.40309E-10 7.20928E-11 7.20928E-11 8.03276E-19 7.88513E-19 1.96257E-18
 -1        24-4.80618E-10 1.44186E-10 1.44186E-10-2.65189E-18-1.36554E-18 1.77730E-18
 -3
    1PSTEP                       211          71           1          
  100CL  171 5.97781E-01          24                     0   71           1
 -4  DISP        4    1
 -5  D1          1    2    1    0
 -5  D2          1    2    2    0
 -5  D3          1    2    3    0
 -5  ALL         1    2    0    0    1ALL
 -1         1 0.00000E+00 0.00000E+00 0.00000E+00
 -1         2-2.43992E-07 0.00000E+00 0.00000E+00
 -1         3-8.96672E+00 0.00000E+00 0.00000E+00
 -1         4-8.96672E+00 0.00000E+00 0.00000E+00
 -1         5-1.79334E+01 0.00000E+00 0.00000E+00
 -1         6-1.79334E+01 0.00000E+00 0.00000E+00
 -1         7 0.00000E+00 7.31977E-08 0.00000E+00
 -1         8-2.43992E-07 7.31977E-08 0.00000E+00
 -1         9-8.96672E+00 7.31977E-08 0.00000E+00
 -1        10-8.96672E+00 7.31977E-08 0.00000E+00
 -1        11-1.79334E+01 7.31977E-08 0.00000E+00
 -1        12-1.79334E+01 7.31977E-08 0.00000E+00
 -1        13 0.00000E+00 0.00000E+00 1.02477E-07
 -1        14-2.43992E-07 0.00000E+00 1.02477E-07
 -1        15-8.96672E+00 0.00000E+00 1.02477E-07
 -1        16-8.96672E+00 0.00000E+00 1.02477E-07
 -1        17-1.79334E+01 0.00000E+00 1.02477E-07
 -1        18-1.79334E+01 0.00000E+00 1.02477E-07
 -1        19 0.00000E+00 7.31977E-08 1.02477E-07
 -1        20-2.43992E-07 7.31977E-08 1.02477E-07
 -1        21-8.96672E+00 7.31977E-08 1.02477E-07
 -1        22-8.96672E+00 7.31977E-08 1.02477E-07
 -1        23-1.79334E+01 7.31977E-08 1.02477E-07
 -1        24-1.79334E+01 7.31977E-08 1.02477E-07
 -3
    1PSTEP                       212          71           1          
  100CL  171 5.97781E-01          24                     0   71           1
 -4  STRESS      6    1
 -5  SXX         1    4    1    1
 -5  SYY         1    4    2    2
 -5  SZZ         1    4    3    3
 -5  SXY         1    4    1    2
 -5  SYZ         1    4    2    3
 -5  SZX         1    4    3    1
 -1         1-1.02473E-04-2.73476E-20 2.43133E-22-2.29537E-22-7.42466E-22 6.10473E-22
 -1         2-5.12363E-05 4.45884E-20-1.27661E-20 1.29018E-22 2.10305E-22 5.98365E-21
 -1         3-5.12363E-05 2.88511E-13 2.68725E-13 1.34258E-13-5.68973E-20-1.02781E-13
 -1         4-5.12363E-05 2.61076E-13 2.85222E-13 5.68609E-14 2.74940E-20 3.31046E-13
 -1         5-5.12363E-05 2.27130E-14-2.18067E-13 2.56558E-13 2.26903E-19 1.21193E-13
 -1         6-1.02473E-04-4.84362E-13-2.80641E-14 3.81764E-13-5.60625E-19-8.60183E-13
 -1         7-1.02473E-04-6.48597E-20-6.73401E-20 3.89050E-20 5.73674E-21 6.23406E-22
 -1         8-5.12363E-05 9.69822E-20 9.57420E-20 1.96963E-20-2.20791E-20-1.62937E-21
 -1         9-5.12363E-05-9.89339E-14-1.27746E-13 1.06198E-13-4.86251E-15 2.55554E-13
 -1        10-5.12363E-05-1.13835E-13-8.20058E-14 1.04437E-13 7.49705E-15-3.65488E-13
 -1        11-5.12363E-05 3.13704E-13 2.98134E-13 1.54902E-13-8.45183E-14-3.01714E-13
 -1        12-1.02473E-04-5.60720E-13-5.31789E-13-2.65619E-14 1.59225E-13-5.66065E-14
 -1        13-1.02473E-04 2.96497E-20 3.89061E-20-1.28983E-21-1.65845E-20-5.29817E-20
 -1        14-5.12363E-05-7.93769E-20-7.47487E-20-1.33194E-20 4.41723E-20-2.13856E-20
 -1        15-5.12363E-05 2.93532E-13 2.87361E-13 5.20530E-14-6.31846E-15 1.45084E-13
 -1        16-5.12363E-05 3.26659E-13 3.29813E-13 7.65629E-14 5.37906E-15-3.18334E-13
 -1        17-5.12363E-05-5.42359E-13-5.46487E-13-3.07068E-13 1.57647E-13 1.57640E-13
 -1        18-1.02473E-04-6.01829E-15 4.44741E-15-4.75641E-15-2.99157E-13 2.84145E-13
 -1        19-1.02473E-04-2.81909E-20-4.90057E-20-3.18359E-20-1.43832E-20 5.19717E-20
 -1        20-5.12363E-05-3.71473E-20 2.35951E-20-2.85925E-20 2.24561E-20 2.61838E-20
 -1        21-5.12363E-05-1.51001E-14-3.02973E-14 1.03797E-13-1.11809E-14-1.32556E-13
 -1        22-5.12363E-05 3.05599E-14 4.13978E-14-9.18183E-14 1.28761E-14 4.19489E-13
 -1        23-5.12363E-05-2.90774E-13-6.96923E-14-1.50093E-13 7.31287E-14-1.41858E-13
 -1        24-1.02473E-04-1.61188E-13-5.78089E-13-1.68832E-13-1.39932E-13 2.42498E-13
 -3
    1PSTEP                       213          71           1          
  100CL  171 5.97781E-01          24                     0   71           1
 -4  TOSTRAIN    6    1
 -5  EXX         1    4    1    1
 -5  EYY         1    4    2    2
 -5  EZZ         1    4    3    3
 -5  EXY         1    4    1    2
 -5  EYZ         1    4    2    3
 -5  EZX         1    4    3    1
 -1         1-4.87965E-10 1.46390E-10 1.46390E-10-1.42094E-27-4.59622E-27 3.77912E-27
 -1         2-2.43983E-10 7.31948E-11 7.31948E-11 7.98682E-28 1.30189E-27 3.70416E-26
 -1         3-2.43983E-10 7.31948E-11 7.31948E-11 8.31122E-19-3.52221E-25-6.36265E-19
 -1         4-2.43983E-10 7.31948E-11 7.31948E-11 3.51996E-19 1.70201E-25 2.04933E-18
 -1         5-2.43983E-10 7.31948E-11 7.31948E-11 1.58822E-18 1.40464E-24 7.50245E-19
 -1         6-4.87965E-10 1.46390E-10 1.46390E-10 2.36330E-18-3.47053E-24-5.32494E-18
 -1         7-4.87965E-10 1.46390E-10 1.46390E-10 2.40841E-25 3.55132E-26 3.85918E-27
 -1         8-2.43983E-10 7.31948E-11 7.31948E-11 1.21929E-25-1.36680E-25-1.00866E-26
 -1         9-2.43983E-10 7.31948E-11 7.31948E-11 6.57416E-19-3.01013E-20 1.58200E-18
 -1        10-2.43983E-10 7.31948E-11 7.31948E-11 6.46516E-19 4.64103E-20-2.26255E-18
 -1        11-2.43983E-10 7.31948E-11 7.31948E-11 9.58918E-19-5.23208E-19-1.86775E-18
 -1        12-4.87965E-10 1.46390E-10 1.46390E-10-1.64431E-19 9.85680E-19-3.50421E-19
 -1        13-4.87965E-10 1.46390E-10 1.46390E-10-7.98468E-27-1.02666E-25-3.27982E-25
 -1        14-2.43983E-10 7.31948E-11 7.31948E-11-8.24537E-26 2.73448E-25-1.32387E-25
 -1        15-2.43983E-10 7.31948E-11 7.31948E-11 3.22233E-19-3.91143E-20 8.98139E-19
 -1        16-2.43983E-10 7.31948E-11 7.31948E-11 4.73961E-19 3.32990E-20-1.97064E-18
 -1        17-2.43983E-10 7.31948E-11 7.31948E-11-1.90090E-18 9.75911E-19 9.75866E-19
 -1        18-4.87965E-10 1.46390E-10 1.46390E-10-2.94444E-20-1.85193E-18 1.75900E-18
 -1        19-4.87965E-10 1.46390E-10 1.46390E-10-1.97079E-25-8.90392E-26 3.21730E-25
 -1        20-2.43983E-10 7.31948E-11 7.31948E-11-1.77001E-25 1.39014E-25 1.62090E-25
 -1        21-2.43983E-10 7.31948E-11 7.31948E-11 6.42554E-19-6.92152E-20-8.20588E-19
 -1        22-2.43983E-10 7.31948E-11 7.31948E-11-5.68399E-19 7.97091E-20 2.59683E-18
 -1        23-2.43983E-10 7.31948E-11 7.31948E-11-9.29149E-19 4.52701E-19-8.78166E-19
 -1        24-4.87965E-10 1.46390E-10 1.46390E-10-1.04515E-18-8.66243E-19 1.50118E-18
 -3
    1PSTEP                       214          72           1          
  100CL  172 6.06781E-01          24                     0   72           1
 -4  DISP        4    1
 -5  D1          1    2    1    0
 -5  D2          1    2    2    0
 -5  D3          1    2    3    0
 -5  ALL         1    2    0    0    1ALL
 -1         1 0.00000E+00 0.00000E+00 0.00000E+00
 -1         2-2.47666E-07 0.00000E+00 0.00000E+00
 -1         3-9.10172E+00 0.00000E+00 0.00000E+00
 -1         4-9.10172E+00 0.00000E+00 0.00000E+00
 -1         5-1.82034E+01 0.00000E+00 0.00000E+00
 -1         6-1.82034E+01 0.00000E+00 0.00000E+00
 -1         7 0.00000E+00 7.42997E-08 0.00000E+00
 -1         8-2.47666E-07 7.42997E-08 0.00000E+00
 -1         9-9.10172E+00 7.42997E-08 0.00000E+00
 -1        10-9.10172E+00 7.42997E-08 0.00000E+00
 -1        11-1.82034E+01 7.42997E-08 0.00000E+00
 -1        12-1.82034E+01 7.42997E-08 0.00000E+00
 -1        13 0.00000E+00 0.00000E+00 1.04020E-07
 -1        14-2.47666E-07 0.00000E+00 1.04020E-07
 -1        15-9.10172E+00 0.00000E+00 1.04020E-07
 -1        16-9.10172E+00 0.00000E+00 1.04020E-07
 -1        17-1.82034E+01 0.00000E+00 1.04020E-07
 -1        18-1.82034E+01 0.00000E+00 1.04020E-07
 -1        19 0.00000E+00 7.42997E-08 1.04020E-07
 -1        20-2.47666E-07 7.42997E-08 1.04020E-07
 -1        21-9.10172E+00 7.42997E-08 1.04020E-07
 -1        22-9.10172E+00 7.42997E-08 1.04020E-07
 -1        23-1.82034E+01 7.42997E-08 1.04020E-07
 -1        24-1.82034E+01 7.42997E-08 1.04020E-07
 -3
    1PSTEP                       215          72           1          
  100CL  172 6.06781E-01          24                     0   72           1
 -4  STRESS      6    1
 -5  SXX         1    4    1    1
 -5  SYY         1    4    2    2
 -5  SZZ         1    4    3    3
 -5  SXY         1    4    1    2
 -5  SYZ         1    4    2    3
 -5  SZX         1    4    3    1
 -1         1-1.04015E-04-1.45495E-20-1.57003E-20 5.87240E-22-8.09109E-22-1.97668E-21
 -1         2-5.20077E-05-3.79782E-20 1.16922E-20 1.32148E-20 2.14852E-22 5.55354E-22
 -1         3-5.20077E-05-2.08141E-14-8.88447E-14-4.33700E-14 1.01863E-19 3.08929E-14
 -1         4-5.20077E-05-8.74775E-14-2.26862E-14 1.69989E-13-1.56743E-19-8.71446E-14
 -1         5-5.20077E-05 4.27523E-14-1.52372E-13 2.66571E-13-3.32550E-19-3.95605E-13
 -1         6-1.04015E-04-6.12357E-13-2.63866E-13 4.84666E-13 6.30265E-20 7.86191E-13
 -1         7-1.04015E-04 1.16476E-20-1.61218E-20-2.93937E-20-3.64248E-21 9.18919E-22
 -1         8-5.20077E-05-4.14879E-20-3.56196E-20-1.77566E-21 1.35619E-20 4.58333E-23
 -1         9-5.20077E-05 1.42252E-13 1.64353E-13-1.56852E-14-2.49947E-14 1.81062E-13
 -1        10-5.20077E-05-5.56795E-14-7.57801E-14-9.07037E-14 2.45523E-14 3.53209E-15
 -1        11-5.20077E-05-9.92868E-14-2.47066E-13 7.42158E-14-7.61410E-14 3.60581E-13
 -1        12-1.04015E-04-9.92039E-13-6.76329E-13-1.05058E-13 1.44565E-13-8.80036E-13
 -1        13-1.04015E-04 5.04994E-21-6.68682E-21-2.64727E-21 7.91261E-21 3.67058E-20
 -1        14-5.20077E-05 2.63631E-20 3.00835E-20 1.35549E-20-2.83213E-20 1.98966E-20
 -1        15-5.20077E-05-2.29832E-13-2.27877E-13-1.06744E-13 6.30924E-14-6.00110E-14
 -1        16-5.20077E-05-5.37139E-14-5.76694E-14-2.41379E-14-5.94245E-14 2.61602E-13
 -1        17-5.20077E-05 2.20155E-13 2.38225E-13-3.74778E-13 3.31414E-14 6.79528E-14
 -1        18-1.04015E-04 1.19700E-12 1.14070E-12-1.62382E-13-2.29466E-14-2.04298E-13
 -1        19-1.04015E-04 5.90161E-20 4.09893E-20 7.10542E-21 9.35721E-21-3.00791E-20
 -1        20-5.20077E-05 1.91331E-20-1.07843E-20 1.84312E-20-1.55474E-20-1.54532E-20
 -1        21-5.20077E-05-3.03202E-13-2.11115E-13-1.01040E-13 3.80977E-14 3.94157E-13
 -1        22-5.20077E-05-2.58352E-13-3.47200E-13 1.25454E-13-3.48720E-14-3.67513E-13
 -1        23-5.20077E-05-1.58320E-13-9.29053E-14 8.98376E-14-4.29992E-14-5.99610E-13
 -1        24-1.04015E-04 3.44441E-13 2.55369E-13 2.88823E-13 1.21618E-13 3.78181E-13
 -3
    1PSTEP                       216          72           1          
  100CL  172 6.06781E-01          24                     0   72           1
 -4  TOSTRAIN    6    1
 -5  EXX         1    4    1    1
 -5  EYY         1    4    2    2
 -5  EZZ         1    4    3    3
 -5  EXY         1    4    1    2
 -5  EYZ         1    4    2    3
 -5  EZX         1    4    3    1
 -1         1-4.95312E-10 1.48594E-10 1.48594E-10 3.63530E-27-5.00877E-27-1.22366E-26
 -1         2-2.47656E-10 7.42968E-11 7.42968E-11 8.18058E-26 1.33003E-27 3.43790E-27
 -1         3-2.47656E-10 7.42968E-11 7.42968E-11-2.68481E-19 6.30579E-25 1.91242E-19
 -1         4-2.47656E-10 7.42968E-11 7.42968E-11 1.05232E-18-9.70312E-25-5.39467E-19
 -1         5-2.47656E-10 7.42968E-11 7.42968E-11 1.65020E-18-2.05864E-24-2.44898E-18
 -1         6-4.95312E-10 1.48594E-10 1.48594E-10 3.00031E-18 3.90164E-25 4.86689E-18
 -1         7-4.95312E-10 1.48594E-10 1.48594E-10-1.81961E-25-2.25487E-26 5.68855E-27
 -1         8-2.47656E-10 7.42968E-11 7.42968E-11-1.09922E-26 8.39544E-26 2.83730E-28
 -1         9-2.47656E-10 7.42968E-11 7.42968E-11-9.70986E-20-1.54729E-19 1.12086E-18
 -1        10-2.47656E-10 7.42968E-11 7.42968E-11-5.61499E-19 1.51990E-19 2.18653E-20
 -1        11-2.47656E-10 7.42968E-11 7.42968E-11 4.59431E-19-4.71349E-19 2.23217E-18
 -1        12-4.95312E-10 1.48594E-10 1.48594E-10-6.50360E-19 8.94927E-19-5.44784E-18
 -1        13-4.95312E-10 1.48594E-10 1.48594E-10-1.63879E-26 4.89828E-26 2.27227E-25
 -1        14-2.47656E-10 7.42968E-11 7.42968E-11 8.39110E-26-1.75322E-25 1.23170E-25
 -1        15-2.47656E-10 7.42968E-11 7.42968E-11-6.60793E-19 3.90572E-19-3.71496E-19
 -1        16-2.47656E-10 7.42968E-11 7.42968E-11-1.49425E-19-3.67866E-19 1.61944E-18
 -1        17-2.47656E-10 7.42968E-11 7.42968E-11-2.32005E-18 2.05161E-19 4.20660E-19
 -1        18-4.95312E-10 1.48594E-10 1.48594E-10-1.00522E-18-1.42050E-19-1.26470E-18
 -1        19-4.95312E-10 1.48594E-10 1.48594E-10 4.39860E-26 5.79256E-26-1.86204E-25
 -1        20-2.47656E-10 7.42968E-11 7.42968E-11 1.14098E-25-9.62461E-26-9.56627E-26
 -1        21-2.47656E-10 7.42968E-11 7.42968E-11-6.25489E-19 2.35843E-19 2.44002E-18
 -1        22-2.47656E-10 7.42968E-11 7.42968E-11 7.76622E-19-2.15875E-19-2.27508E-18
 -1        23-2.47656E-10 7.42968E-11 7.42968E-11 5.56138E-19-2.66186E-19-3.71187E-18
 -1        24-4.95312E-10 1.48594E-10 1.48594E-10 1.78795E-18 7.52876E-19 2.34112E-18
 -3
    1PSTEP                       217          73           1          
  100CL  173 6.15781E-01          24                     0   73           1
 -4  DISP        4    1
 -5  D1          1    2    1    0
 -5  D2          1    2    2    0
 -5  D3          1    2    3    0
 -5  ALL         1    2    0    0    1ALL
 -1         1 0.00000E+00 0.00000E+00 0.00000E+00
 -1         2-2.51339E-07 0.00000E+00 0.00000E+00
 -1         3-9.23672E+00 0.00000E+00 0.00000E+00
 -1         4-9.23672E+00 0.00000E+00 0.00000E+00
 -1         5-1.84734E+01 0.00000E+00 0.00000E+00
 -1         6-1.84734E+01 0.00000E+00 0.00000E+00
 -1         7 0.00000E+00 7.54018E-08 0.00000E+00
 -1         8-2.51339E-07 7.54018E-08 0.00000E+00
 -1         9-9.23672E+00 7.54018E-08 0.00000E+00
 -1        10-9.23672E+00 7.54018E-08 0.00000E+00
 -1        11-1.84734E+01 7.54018E-08 0.00000E+00
 -1        12-1.84734E+01 7.54018E-08 0.00000E+00
 -1        13 0.00000E+00 0.00000E+00 1.05562E-07
 -1        14-2.51339E-07 0.00000E+00 1.05562E-07
 -1        15-9.23672E+00 0.00000E+00 1.05562E-07
 -1        16-9.23672E+00 0.00000E+00 1.05562E-07
 -1        17-1.84734E+01 0.00000E+00 1.05562E-07
 -1        18-1.84734E+01 0.00000E+00 1.05562E-07
 -1        19 0.00000E+00 7.54018E-08 1.05562E-07
 -1        20-2.51339E-07 7.54018E-08 1.05562E-07
 -1        21-9.23672E+00 7.54018E-08 1.05562E-07
 -1        22-9.23672E+00 7.54018E-08 1.05562E-07
 -1        23-1.84734E+01 7.54018E-08 1.05562E-07
 -1        24-1.84734E+01 7.54018E-08 1.05562E-07
 -3
    1PSTEP                       218          73           1          
  100CL  173 6.15781E-01          24                     0   73           1
 -4  STRESS      6    1
 -5  SXX         1    4    1    1
 -5  SYY         1    4    2    2
 -5  SZZ         1    4    3    3
 -5  SXY         1    4    1    2
 -5  SYZ         1    4    2    3
 -5  SZX         1    4    3    1
 -1         1-1.05558E-04-1.70298E-20-4.23825E-20 1.71557E-21-7.50525E-22-9.67179E-22
 -1         2-5.27791E-05-2.80571E-20-3.22143E-21 5.90842E-21-2.86229E-22-3.28474E-22
 -1         3-5.27791E-05 1.71784E-13 1.13717E-13 2.10492E-14 8.96520E-20-1.82150E-13
 -1         4-5.27791E-05 9.46733E-14 1.51795E-13 3.46555E-14-2.00121E-19 5.27896E-16
 -1         5-5.27791E-05 9.90785E-14 8.53972E-15 3.88853E-13-2.79680E-20-8.45937E-14
 -1         6-1.05558E-04-4.88980E-13-2.87073E-13-1.85385E-13 3.13597E-19 1.78574E-13
 -1         7-1.05558E-04 3.92384E-20 2.36283E-20-2.95809E-20-1.07367E-20 1.20316E-21
 -1         8-5.27791E-05-5.71883E-20-6.81383E-20-9.73983E-21 2.47655E-20-1.17420E-20
 -1         9-5.27791E-05 1.06992E-13 1.56343E-13 3.30339E-14-3.10426E-14 4.71316E-13
 -1        10-5.27791E-05-1.26141E-13-1.69634E-13-1.64813E-13 3.27965E-14-8.26922E-15
 -1        11-5.27791E-05 2.77811E-13 2.09469E-13 2.24252E-13-4.54220E-14-3.69508E-13
 -1        12-1.05558E-04-2.19500E-13-9.05140E-14 1.21061E-13 9.55334E-14 5.82649E-13
 -1        13-1.05558E-04-3.80875E-20-3.65140E-20-1.39858E-21 1.38210E-20 2.12666E-20
 -1        14-5.27791E-05 8.71055E-20 4.40902E-20-7.78404E-21-3.17554E-20 9.64214E-21
 -1        15-5.27791E-05 1.01833E-13 1.30686E-13-1.45649E-14 7.51921E-14-3.78812E-14
 -1        16-5.27791E-05 3.37536E-13 3.02826E-13 2.40241E-14-7.04302E-14 4.73533E-14
 -1        17-5.27791E-05 2.20607E-13 2.57250E-13-9.22947E-14 1.55371E-14 3.19291E-13
 -1        18-1.05558E-04 6.67324E-13 6.01739E-13-3.91591E-14-5.10450E-14-5.61740E-13
 -1        19-1.05558E-04-1.50357E-20-2.40481E-20 4.48148E-20 3.83480E-21-6.14545E-20
 -1        20-5.27791E-05 2.37612E-20-6.52041E-20 1.53226E-20-6.70364E-21-3.87929E-20
 -1        21-5.27791E-05-2.97909E-13-1.61640E-13 7.23715E-14 4.41494E-14-6.09468E-14
 -1        22-5.27791E-05-2.18230E-13-3.53554E-13-3.22403E-14-3.76335E-14-1.14705E-13
 -1        23-5.27791E-05-1.52345E-13-9.35062E-14-9.75853E-14-2.98849E-14-4.51451E-14
 -1        24-1.05558E-04-1.66565E-13-3.05072E-13 3.12898E-13 4.44881E-14 4.73057E-14
 -3
    1PSTEP                       219          73           1          
  100CL  173 6.15781E-01          24                     0   73           1
 -4  TOSTRAIN    6    1
 -5  EXX         1    4    1    1
 -5  EYY         1    4    2    2
 -5  EZZ         1    4    3    3
 -5  EXY         1    4    1    2
 -5  EYZ         1    4    2    3
 -5  EZX         1    4    3    1
 -1         1-5.02658E-10 1.50798E-10 1.50798E-10 1.06202E-26-4.64610E-27-5.98730E-27
 -1         2-2.51329E-10 7.53988E-11 7.53988E-11 3.65759E-26-1.77189E-27-2.03341E-27
 -1         3-2.51329E-10 7.53988E-11 7.53988E-11 1.30305E-19 5.54989E-25-1.12760E-18
 -1         4-2.51329E-10 7.53988E-11 7.53988E-11 2.14534E-19-1.23885E-24 3.26793E-21
 -1         5-2.51329E-10 7.53988E-11 7.53988E-11 2.40718E-18-1.73135E-25-5.23675E-19
 -1         6-5.02658E-10 1.50798E-10 1.50798E-10-1.14762E-18 1.94132E-24 1.10546E-18
 -1         7-5.02658E-10 1.50798E-10 1.50798E-10-1.83120E-25-6.64652E-26 7.44812E-27
 -1         8-2.51329E-10 7.53988E-11 7.53988E-11-6.02942E-26 1.53311E-25-7.26887E-26
 -1         9-2.51329E-10 7.53988E-11 7.53988E-11 2.04495E-19-1.92168E-19 2.91767E-18
 -1        10-2.51329E-10 7.53988E-11 7.53988E-11-1.02027E-18 2.03026E-19-5.11904E-20
 -1        11-2.51329E-10 7.53988E-11 7.53988E-11 1.38822E-18-2.81184E-19-2.28743E-18
 -1        12-5.02658E-10 1.50798E-10 1.50798E-10 7.49425E-19 5.91397E-19 3.60688E-18
 -1        13-5.02658E-10 1.50798E-10 1.50798E-10-8.65787E-27 8.55584E-26 1.31650E-25
 -1        14-2.51329E-10 7.53988E-11 7.53988E-11-4.81869E-26-1.96581E-25 5.96894E-26
 -1        15-2.51329E-10 7.53988E-11 7.53988E-11-9.01636E-20 4.65475E-19-2.34503E-19
 -1        16-2.51329E-10 7.53988E-11 7.53988E-11 1.48721E-19-4.35997E-19 2.93139E-19
 -1        17-2.51329E-10 7.53988E-11 7.53988E-11-5.71348E-19 9.61818E-20 1.97656E-18
 -1        18-5.02658E-10 1.50798E-10 1.50798E-10-2.42414E-19-3.15993E-19-3.47744E-18
 -1        19-5.02658E-10 1.50798E-10 1.50798E-10 2.77425E-25 2.37393E-26-3.80433E-25
 -1        20-2.51329E-10 7.53988E-11 7.53988E-11 9.48545E-26-4.14987E-26-2.40146E-25
 -1        21-2.51329E-10 7.53988E-11 7.53988E-11 4.48014E-19 2.73306E-19-3.77290E-19
 -1        22-2.51329E-10 7.53988E-11 7.53988E-11-1.99583E-19-2.32969E-19-7.10079E-19
 -1        23-2.51329E-10 7.53988E-11 7.53988E-11-6.04099E-19-1.85002E-19-2.79470E-19
 -1        24-5.02658E-10 1.50798E-10 1.50798E-10 1.93699E-18 2.75402E-19 2.92845E-19
 -3
    1PSTEP                       220          74           1          
  100CL  174 6.24781E-01          24                     0   74           1
 -4  DISP        4    1
 -5  D1          1    2    1    0
 -5  D2          1    2    2    0
 -5  D3          1    2    3    0
 -5  ALL         1    2    0    0    1ALL
 -1         1 0.00000E+00 0.00000E+00 0.00000E+00
 -1         2-2.55013E-07 0.00000E+00 0.00000E+00
 -1         3-9.37172E+00 0.00000E+00 0.00000E+00
 -1         4-9.37172E+00 0.00000E+00 0.00000E+00
 -1         5-1.87434E+01 0.00000E+00 0.00000E+00
 -1         6-1.87434E+01 0.00000E+00 0.00000E+00
 -1         7 0.00000E+00 7.65038E-08 0.00000E+00
 -1         8-2.55013E-07 7.65038E-08 0.00000E+00
 -1         9-9.37172E+00 7.65038E-08 0.00000E+00
 -1        10-9.37172E+00 7.65038E-08 0.00000E+00
 -1        11-1.87434E+01 7.65038E-08 0.00000E+00
 -1        12-1.87434E+01 7.65038E-08 0.00000E+00
 -1        13 0.00000E+00 0.00000E+00 1.07105E-07
 -1        14-2.55013E-07 0.00000E+00 1.07105E-07
 -1        15-9.37172E+00 0.00000E+00 1.07105E-07
 -1        16-9.37172E+00 0.00000E+00 1.07105E-07
 -1        17-1.87434E+01 0.00000E+00 1.07105E-07
 -1        18-1.87434E+01 0.00000E+00 1.07105E-07
 -1        19 0.00000E+00 7.65038E-08 1.07105E-07
 -1        20-2.55013E-07 7.65038E-08 1.07105E-07
 -1        21-9.37172E+00 7.65038E-08 1.07105E-07
 -1        22-9.37172E+00 7.65038E-08 1.07105E-07
 -1        23-1.87434E+01 7.65038E-08 1.07105E-07
 -1        24-1.87434E+01 7.65038E-08 1.07105E-07
 -3
    1PSTEP                       221          74           1          
  100CL  174 6.24781E-01          24                     0   74           1
 -4  STRESS      6    1
 -5  SXX         1    4    1    1
 -5  SYY         1    4    2    2
 -5  SZZ         1    4    3    3
 -5  SXY         1    4    1    2
 -5  SYZ         1    4    2    3
 -5  SZX         1    4    3    1
 -1         1-1.07101E-04-1.20691E-20-2.24769E-20 2.06097E-21-2.09973E-22 1.48844E-21
 -1         2-5.35505E-05-5.11982E-20 1.78927E-20 3.12517E-21 5.13258E-22-4.60331E-21
 -1         3-5.35505E-05 5.59797E-14 3.28317E-15 1.60530E-13-2.01848E-20-1.78150E-14
 -1         4-5.35505E-05-4.35002E-14 1.06495E-14-2.49242E-14-1.27142E-19-3.94493E-13
 -1         5-5.35505E-05 1.22129E-13 5.79762E-14 2.94875E-13-4.03321E-19-1.07858E-13
 -1         6-1.07101E-04-1.67401E-13-1.23996E-15 9.57607E-14-9.01594E-20-6.81021E-14
 -1         7-1.07101E-04 4.73441E-20 3.06463E-20-3.62234E-20-3.22363E-21-2.18968E-21
 -1         8-5.35505E-05-4.82641E-20-2.29752E-20-1.60170E-20 1.89711E-20-4.66672E-21
 -1         9-5.35505E-05 6.85104E-14 7.99089E-14 1.08624E-13-2.53786E-14 6.76224E-14
 -1        10-5.35505E-05-1.21693E-13-1.24413E-13-1.19431E-15 2.89951E-14 2.91484E-13
 -1        11-5.35505E-05 8.06127E-14-3.40652E-15 1.94795E-13-2.34848E-14-2.25677E-13
 -1        12-1.07101E-04-1.72417E-13 5.80335E-14 2.44159E-13 8.27816E-14 2.37130E-13
 -1        13-1.07101E-04-8.50231E-21-4.87159E-21-3.92148E-22 3.81416E-21 4.03895E-20
 -1        14-5.35505E-05 5.59481E-20 7.10727E-20 2.68154E-21-2.62473E-20 1.42741E-20
 -1        15-5.35505E-05-1.94921E-13-1.76557E-13-1.81407E-13 4.48665E-14-2.03496E-13
 -1        16-5.35505E-05-2.79691E-14-5.50061E-14 1.02835E-13-3.98090E-14 4.14426E-13
 -1        17-5.35505E-05 7.14438E-14 7.30472E-14-2.77278E-13-1.39068E-14-1.17185E-13
 -1        18-1.07101E-04 3.67006E-13 3.01378E-13-2.27115E-13 4.50027E-14 1.38865E-13
 -1        19-1.07101E-04-2.63407E-21-5.29335E-21 1.78900E-20 8.00503E-22-1.68911E-20
 -1        20-5.35505E-05 1.45049E-20-1.41726E-20 1.18226E-20-7.78944E-21-9.87842E-21
 -1        21-5.35505E-05 9.34521E-14 1.75911E-13-9.46890E-14 1.94879E-14 1.48234E-13
 -1        22-5.35505E-05 1.69680E-13 8.57735E-14-3.05721E-14-1.08138E-14-2.94121E-13
 -1        23-5.35505E-05-1.67103E-13-1.85366E-13-2.96149E-13-3.73912E-14-1.12056E-13
 -1        24-1.07101E-04-3.20705E-14-3.34089E-14 1.74707E-13 1.27784E-13-1.29040E-13
 -3
    1PSTEP                       222          74           1          
  100CL  174 6.24781E-01          24                     0   74           1
 -4  TOSTRAIN    6    1
 -5  EXX         1    4    1    1
 -5  EYY         1    4    2    2
 -5  EZZ         1    4    3    3
 -5  EXY         1    4    1    2
 -5  EYZ         1    4    2    3
 -5  EZX         1    4    3    1
 -1         1-5.10005E-10 1.53002E-10 1.53002E-10 1.27584E-26-1.29984E-27 9.21414E-27
 -1         2-2.55003E-10 7.65008E-11 7.65008E-11 1.93463E-26 3.17731E-27-2.84967E-26
 -1         3-2.55003E-10 7.65008E-11 7.65008E-11 9.93760E-19-1.24954E-25-1.10283E-19
 -1         4-2.55003E-10 7.65008E-11 7.65008E-11-1.54293E-19-7.87069E-25-2.44210E-18
 -1         5-2.55003E-10 7.65008E-11 7.65008E-11 1.82542E-18-2.49675E-24-6.67692E-19
 -1         6-5.10005E-10 1.53002E-10 1.53002E-10 5.92804E-19-5.58130E-25-4.21584E-19
 -1         7-5.10005E-10 1.53002E-10 1.53002E-10-2.24240E-25-1.99558E-26-1.35552E-26
 -1         8-2.55003E-10 7.65008E-11 7.65008E-11-9.91529E-26 1.17440E-25-2.88892E-26
 -1         9-2.55003E-10 7.65008E-11 7.65008E-11 6.72434E-19-1.57106E-19 4.18615E-19
 -1        10-2.55003E-10 7.65008E-11 7.65008E-11-7.39332E-21 1.79494E-19 1.80442E-18
 -1        11-2.55003E-10 7.65008E-11 7.65008E-11 1.20587E-18-1.45382E-19-1.39705E-18
 -1        12-5.10005E-10 1.53002E-10 1.53002E-10 1.51146E-18 5.12458E-19 1.46795E-18
 -1        13-5.10005E-10 1.53002E-10 1.53002E-10-2.42758E-27 2.36115E-26 2.50030E-25
 -1        14-2.55003E-10 7.65008E-11 7.65008E-11 1.66000E-26-1.62483E-25 8.83634E-26
 -1        15-2.55003E-10 7.65008E-11 7.65008E-11-1.12300E-18 2.77745E-19-1.25974E-18
 -1        16-2.55003E-10 7.65008E-11 7.65008E-11 6.36600E-19-2.46437E-19 2.56549E-18
 -1        17-2.55003E-10 7.65008E-11 7.65008E-11-1.71648E-18-8.60895E-20-7.25433E-19
 -1        18-5.10005E-10 1.53002E-10 1.53002E-10-1.40595E-18 2.78588E-19 8.59638E-19
 -1        19-5.10005E-10 1.53002E-10 1.53002E-10 1.10748E-25 4.95549E-27-1.04564E-25
 -1        20-2.55003E-10 7.65008E-11 7.65008E-11 7.31877E-26-4.82204E-26-6.11521E-26
 -1        21-2.55003E-10 7.65008E-11 7.65008E-11-5.86170E-19 1.20639E-19 9.17637E-19
 -1        22-2.55003E-10 7.65008E-11 7.65008E-11-1.89256E-19-6.69424E-20-1.82075E-18
 -1        23-2.55003E-10 7.65008E-11 7.65008E-11-1.83330E-18-2.31469E-19-6.93683E-19
 -1        24-5.10005E-10 1.53002E-10 1.53002E-10 1.08152E-18 7.91047E-19-7.98822E-19
 -3
    1PSTEP                       223          75           1          
  100CL  175 6.33781E-01          24                     0   75           1
 -4  DISP        4    1
 -5  D1          1    2    1    0
 -5  D2          1    2    2    0
 -5  D3          1    2    3    0
 -5  ALL         1    2    0    0    1ALL
 -1         1 0.00000E+00 0.00000E+00 0.00000E+00
 -1         2-2.58686E-07 0.00000E+00 0.00000E+00
 -1         3-9.50672E+00 0.00000E+00 0.00000E+00
 -1         4-9.50672E+00 0.00000E+00 0.00000E+00
 -1         5-1.90134E+01 0.00000E+00 0.00000E+00
 -1         6-1.90134E+01 0.00000E+00 0.00000E+00
 -1         7 0.00000E+00 7.76059E-08 0.00000E+00
 -1         8-2.58686E-07 7.76059E-08 0.00000E+00
 -1         9-9.50672E+00 7.76059E-08 0.00000E+00
 -1        10-9.50672E+00 7.76059E-08 0.00000E+00
 -1        11-1.90134E+01 7.76059E-08 0.00000E+00
 -1        12-1.90134E+01 7.76059E-08 0.00000E+00
 -1        13 0.00000E+00 0.00000E+00 1.08648E-07
 -1        14-2.58686E-07 0.00000E+00 1.08648E-07
 -1        15-9.50672E+00 0.00000E+00 1.08648E-07
 -1        16-9.50672E+00 0.00000E+00 1.08648E-07
 -1        17-1.90134E+01 0.00000E+00 1.08648E-07
 -1        18-1.90134E+01 0.00000E+00 1.08648E-07
 -1        19 0.00000E+00 7.76059E-08 1.08648E-07
 -1        20-2.58686E-07 7.76059E-08 1.08648E-07
 -1        21-9.50672E+00 7.76059E-08 1.08648E-07
 -1        22-9.50672E+00 7.76059E-08 1.08648E-07
 -1        23-1.90134E+01 7.76059E-08 1.08648E-07
 -1        24-1.90134E+01 7.76059E-08 1.08648E-07
 -3
    1PSTEP                       224          75           1          
  100CL  175 6.33781E-01          24                     0   75           1
 -4  STRESS      6    1
 -5  SXX         1    4    1    1
 -5  SYY         1    4    2    2
 -5  SZZ         1    4    3    3
 -5  SXY         1    4    1    2
 -5  SYZ         1    4    2    3
 -5  SZX         1    4    3    1
 -1         1-1.08644E-04-8.70931E-20-6.18939E-20-5.67579E-22-2.04440E-21-3.18438E-21
 -1         2-5.43219E-05 2.46691E-20 1.18582E-20 2.31582E-20 8.93876E-22 1.51787E-20
 -1         3-5.43219E-05 4.31765E-14 1.37247E-14-1.45321E-13 1.16743E-19 1.17757E-14
 -1         4-5.43219E-05 1.21197E-13 1.11196E-13 8.95012E-14-3.35933E-20 1.90605E-13
 -1         5-5.43219E-05 1.90471E-13 8.35783E-14 1.86041E-13-6.31590E-19 1.17636E-14
 -1         6-1.08644E-04-3.46328E-13-1.52959E-13 4.22736E-13 5.84907E-19 3.97560E-13
 -1         7-1.08644E-04 8.94464E-23 7.68374E-21 2.89533E-20-4.13354E-22 3.19291E-21
 -1         8-5.43219E-05 7.19807E-20 5.40876E-20 3.79186E-20-2.29669E-20-2.17050E-21
 -1         9-5.43219E-05-3.28021E-14-3.77567E-14-7.16938E-14 1.73511E-15 3.59480E-13
 -1        10-5.43219E-05 2.49989E-14 1.25363E-14-1.25250E-13-2.20457E-14-2.56085E-13
 -1        11-5.43219E-05-1.73869E-13-3.58115E-13 1.06617E-13-6.63891E-14 9.00308E-14
 -1        12-1.08644E-04-8.04178E-13-4.04411E-13 3.82661E-14 1.36655E-13-1.86637E-13
 -1        13-1.08644E-04 5.59359E-20 6.12284E-20-1.45936E-21 7.17938E-21 7.86371E-21
 -1        14-5.43219E-05-3.22314E-20 9.71011E-21-5.86457E-21-7.71721E-22 2.01296E-20
 -1        15-5.43219E-05-4.26735E-14-7.69833E-14 1.75291E-14 1.71481E-14 3.13730E-13
 -1        16-5.43219E-05-8.11788E-14-2.94517E-14 5.59207E-14-1.72324E-15-3.67512E-13
 -1        17-5.43219E-05-7.71370E-14 1.85785E-15-2.16956E-14-5.41480E-14-2.54644E-13
 -1        18-1.08644E-04 4.38669E-13 2.49406E-13-3.23442E-13 1.44480E-13 6.97592E-14
 -1        19-1.08644E-04 8.25945E-21 2.37161E-20-4.31849E-20 1.30884E-20-6.06512E-22
 -1        20-5.43219E-05-6.99542E-20-3.68152E-20-2.67274E-20-2.52056E-20-1.93122E-21
 -1        21-5.43219E-05 5.86752E-14 4.88626E-14-3.34845E-14 1.88831E-14-1.91237E-13
 -1        22-5.43219E-05-4.92360E-17 4.92161E-14 1.48796E-13-2.37689E-14 2.89705E-13
 -1        23-5.43219E-05-2.83852E-13-2.82211E-13 9.42165E-16-1.20537E-13-7.88362E-14
 -1        24-1.08644E-04 2.96067E-13 3.13202E-13 3.15245E-13 2.81134E-13-4.63468E-14
 -3
    1PSTEP                       225          75           1          
  100CL  175 6.33781E-01          24                     0   75           1
 -4  TOSTRAIN    6    1
 -5  EXX         1    4    1    1
 -5  EYY         1    4    2    2
 -5  EZZ         1    4    3    3
 -5  EXY         1    4    1    2
 -5  EYZ         1    4    2    3
 -5  EZX         1    4    3    1
 -1         1-5.17352E-10 1.55206E-10 1.55206E-10-3.51358E-27-1.26558E-26-1.97128E-26
 -1         2-2.58676E-10 7.76028E-11 7.76028E-11 1.43360E-25 5.53352E-27 9.39631E-26
 -1         3-2.58676E-10 7.76028E-11 7.76028E-11-8.99606E-19 7.22697E-25 7.28975E-20
 -1         4-2.58676E-10 7.76028E-11 7.76028E-11 5.54055E-19-2.07959E-25 1.17994E-18
 -1         5-2.58676E-10 7.76028E-11 7.76028E-11 1.15168E-18-3.90984E-24 7.28224E-20
 -1         6-5.17352E-10 1.55206E-10 1.55206E-10 2.61694E-18 3.62085E-24 2.46108E-18
 -1         7-5.17352E-10 1.55206E-10 1.55206E-10 1.79235E-25-2.55886E-27 1.97656E-26
 -1         8-2.58676E-10 7.76028E-11 7.76028E-11 2.34734E-25-1.42176E-25-1.34364E-26
 -1         9-2.58676E-10 7.76028E-11 7.76028E-11-4.43819E-19 1.07412E-20 2.22535E-18
 -1        10-2.58676E-10 7.76028E-11 7.76028E-11-7.75355E-19-1.36474E-19-1.58529E-18
 -1        11-2.58676E-10 7.76028E-11 7.76028E-11 6.60010E-19-4.10980E-19 5.57333E-19
 -1        12-5.17352E-10 1.55206E-10 1.55206E-10 2.36885E-19 8.45959E-19-1.15537E-18
 -1        13-5.17352E-10 1.55206E-10 1.55206E-10-9.03410E-27 4.44438E-26 4.86801E-26
 -1        14-2.58676E-10 7.76028E-11 7.76028E-11-3.63045E-26-4.77732E-27 1.24612E-25
 -1        15-2.58676E-10 7.76028E-11 7.76028E-11 1.08514E-19 1.06155E-19 1.94214E-18
 -1        16-2.58676E-10 7.76028E-11 7.76028E-11 3.46176E-19-1.06677E-20-2.27507E-18
 -1        17-2.58676E-10 7.76028E-11 7.76028E-11-1.34306E-19-3.35202E-19-1.57636E-18
 -1        18-5.17352E-10 1.55206E-10 1.55206E-10-2.00226E-18 8.94397E-19 4.31843E-19
 -1        19-5.17352E-10 1.55206E-10 1.55206E-10-2.67335E-25 8.10234E-26-3.75460E-27
 -1        20-2.58676E-10 7.76028E-11 7.76028E-11-1.65455E-25-1.56035E-25-1.19552E-26
 -1        21-2.58676E-10 7.76028E-11 7.76028E-11-2.07285E-19 1.16896E-19-1.18385E-18
 -1        22-2.58676E-10 7.76028E-11 7.76028E-11 9.21120E-19-1.47141E-19 1.79341E-18
 -1        23-2.58676E-10 7.76028E-11 7.76028E-11 5.83245E-21-7.46178E-19-4.88033E-19
 -1        24-5.17352E-10 1.55206E-10 1.55206E-10 1.95152E-18 1.74035E-18-2.86909E-19
 -3
    1PSTEP                       226          76           1          
  100CL  176 6.42781E-01          24                     0   76           1
 -4  DISP        4    1
 -5  D1          1    2    1    0
 -5  D2          1    2    2    0
 -5  D3          1    2    3    0
 -5  ALL         1    2    0    0    1ALL
 -1         1 0.00000E+00 0.00000E+00 0.00000E+00
 -1         2-2.62360E-07 0.00000E+00 0.00000E+00
 -1         3-9.64172E+00 0.00000E+00 0.00000E+00
 -1         4-9.64172E+00 0.00000E+00 0.00000E+00
 -1         5-1.92834E+01 0.00000E+00 0.00000E+00
 -1         6-1.92834E+01 0.00000E+00 0.00000E+00
 -1         7 0.00000E+00 7.87079E-08 0.00000E+00
 -1         8-2.62360E-07 7.87079E-08 0.00000E+00
 -1         9-9.64172E+00 7.87079E-08 0.00000E+00
 -1        10-9.64172E+00 7.87079E-08 0.00000E+00
 -1        11-1.92834E+01 7.87079E-08 0.00000E+00
 -1        12-1.92834E+01 7.87079E-08 0.00000E+00
 -1        13 0.00000E+00 0.00000E+00 1.10191E-07
 -1        14-2.62360E-07 0.00000E+00 1.10191E-07
 -1        15-9.64172E+00 0.00000E+00 1.10191E-07
 -1        16-9.64172E+00 0.00000E+00 1.10191E-07
 -1        17-1.92834E+01 0.00000E+00 1.10191E-07
 -1        18-1.92834E+01 0.00000E+00 1.10191E-07
 -1        19 0.00000E+00 7.87079E-08 1.10191E-07
 -1        20-2.62360E-07 7.87079E-08 1.10191E-07
 -1        21-9.64172E+00 7.87079E-08 1.10191E-07
 -1        22-9.64172E+00 7.87079E-08 1.10191E-07
 -1        23-1.92834E+01 7.87079E-08 1.10191E-07
 -1        24-1.92834E+01 7.87079E-08 1.10191E-07
 -3
    1PSTEP                       227          76           1          
  100CL  176 6.42781E-01          24                     0   76           1
 -4  STRESS      6    1
 -5  SXX         1    4    1    1
 -5  SYY         1    4    2    2
 -5  SZZ         1    4    3    3
 -5  SXY         1    4    1    2
 -5  SYZ         1    4    2    3
 -5  SZX         1    4    3    1
 -1         1-1.10187E-04-6.11192E-21 2.36269E-20 9.00870E-22 1.70545E-22-5.68193E-22
 -1         2-5.50933E-05 7.18144E-20 3.39252E-20-2.39636E-20-5.61059E-22-2.65269E-20
 -1         3-5.50933E-05 5.15039E-14 7.43315E-14-1.16317E-14-6.87245E-20 2.65443E-13
 -1         4-5.50933E-05 5.78130E-14 1.38066E-14-1.00002E-15 1.28649E-20-4.40853E-13
 -1         5-5.50933E-05 2.37247E-14 2.61830E-14 2.66770E-13-3.50645E-19 6.09406E-13
 -1         6-1.10187E-04-4.40737E-13-5.15260E-13-1.79835E-13-1.37143E-19-1.60957E-12
 -1         7-1.10187E-04-6.39522E-20-4.23839E-20 3.97710E-20 1.30579E-20 2.12771E-22
 -1         8-5.50933E-05 8.08277E-20 7.85136E-20-4.52855E-21-1.81924E-20 7.13803E-21
 -1         9-5.50933E-05 1.50338E-13 1.62885E-13 4.43401E-14-2.71434E-15-3.10243E-13
 -1        10-5.50933E-05 1.85118E-13 1.68793E-13 5.36839E-14-6.19873E-15 2.82495E-13
 -1        11-5.50933E-05 3.09229E-13 3.45981E-13 1.51340E-13-5.16222E-14-6.04233E-13
 -1        12-1.10187E-04 9.78211E-14 4.86192E-14 2.76117E-13 8.70633E-14 8.10378E-13
 -1        13-1.10187E-04-2.61325E-20-2.48927E-20-4.68594E-22-1.33314E-20-1.96259E-20
 -1        14-5.50933E-05-7.30549E-20-6.52047E-20 2.35017E-20 3.10514E-20-3.60558E-20
 -1        15-5.50933E-05 8.24080E-15 3.86683E-14 3.86048E-14-7.19631E-15-1.01122E-13
 -1        16-5.50933E-05-2.52399E-15-2.91739E-14 2.16778E-14 1.93769E-14 3.60263E-13
 -1        17-5.50933E-05-6.04435E-14 8.65560E-14 2.92434E-14 2.40052E-14 3.67937E-14
 -1        18-1.10187E-04 3.23431E-13 5.13119E-15-7.03655E-13 1.77243E-14 9.36521E-13
 -1        19-1.10187E-04 7.32080E-20 3.29841E-21-3.32364E-20-4.44078E-22 4.88783E-20
 -1        20-5.50933E-05-2.06610E-20 4.40895E-20 7.11783E-21 1.34201E-20 3.14708E-20
 -1        21-5.50933E-05 8.73719E-14 1.07519E-13-1.34891E-13-9.91059E-15 2.94145E-13
 -1        22-5.50933E-05 1.05078E-13 1.06110E-13-8.48528E-14 1.31781E-14-4.25286E-13
 -1        23-5.50933E-05-6.81278E-13-4.99985E-13-2.98966E-14-2.76166E-14 2.07065E-13
 -1        24-1.10187E-04-9.50689E-13-1.24367E-12 5.92907E-13 1.04788E-13-1.54967E-13
 -3
    1PSTEP                       228          76           1          
  100CL  176 6.42781E-01          24                     0   76           1
 -4  TOSTRAIN    6    1
 -5  EXX         1    4    1    1
 -5  EYY         1    4    2    2
 -5  EZZ         1    4    3    3
 -5  EXY         1    4    1    2
 -5  EYZ         1    4    2    3
 -5  EZX         1    4    3    1
 -1         1-5.24698E-10 1.57410E-10 1.57410E-10 5.57681E-27 1.05575E-27-3.51739E-27
 -1         2-2.62349E-10 7.87048E-11 7.87048E-11-1.48346E-25-3.47322E-27-1.64214E-25
 -1         3-2.62349E-10 7.87048E-11 7.87048E-11-7.20060E-20-4.25438E-25 1.64322E-18
 -1         4-2.62349E-10 7.87048E-11 7.87048E-11-6.19058E-21 7.96397E-26-2.72909E-18
 -1         5-2.62349E-10 7.87048E-11 7.87048E-11 1.65144E-18-2.17066E-24 3.77251E-18
 -1         6-5.24698E-10 1.57410E-10 1.57410E-10-1.11327E-18-8.48981E-25-9.96398E-18
 -1         7-5.24698E-10 1.57410E-10 1.57410E-10 2.46201E-25 8.08347E-26 1.31715E-27
 -1         8-2.62349E-10 7.87048E-11 7.87048E-11-2.80339E-26-1.12620E-25 4.41878E-26
 -1         9-2.62349E-10 7.87048E-11 7.87048E-11 2.74487E-19-1.68031E-20-1.92055E-18
 -1        10-2.62349E-10 7.87048E-11 7.87048E-11 3.32329E-19-3.83731E-20 1.74878E-18
 -1        11-2.62349E-10 7.87048E-11 7.87048E-11 9.36866E-19-3.19566E-19-3.74049E-18
 -1        12-5.24698E-10 1.57410E-10 1.57410E-10 1.70930E-18 5.38963E-19 5.01663E-18
 -1        13-5.24698E-10 1.57410E-10 1.57410E-10-2.90082E-27-8.25280E-26-1.21494E-25
 -1        14-2.62349E-10 7.87048E-11 7.87048E-11 1.45487E-25 1.92223E-25-2.23202E-25
 -1        15-2.62349E-10 7.87048E-11 7.87048E-11 2.38982E-19-4.45486E-20-6.25993E-19
 -1        16-2.62349E-10 7.87048E-11 7.87048E-11 1.34196E-19 1.19952E-19 2.23020E-18
 -1        17-2.62349E-10 7.87048E-11 7.87048E-11 1.81030E-19 1.48604E-19 2.27771E-19
 -1        18-5.24698E-10 1.57410E-10 1.57410E-10-4.35596E-18 1.09722E-19 5.79751E-18
 -1        19-5.24698E-10 1.57410E-10 1.57410E-10-2.05749E-25-2.74905E-27 3.02580E-25
 -1        20-2.62349E-10 7.87048E-11 7.87048E-11 4.40628E-26 8.30766E-26 1.94819E-25
 -1        21-2.62349E-10 7.87048E-11 7.87048E-11-8.35037E-19-6.13513E-20 1.82090E-18
 -1        22-2.62349E-10 7.87048E-11 7.87048E-11-5.25279E-19 8.15788E-20-2.63272E-18
 -1        23-2.62349E-10 7.87048E-11 7.87048E-11-1.85074E-19-1.70960E-19 1.28183E-18
 -1        24-5.24698E-10 1.57410E-10 1.57410E-10 3.67038E-18 6.48686E-19-9.59317E-19
 -3
    1PSTEP                       229          77           1          
  100CL  177 6.51781E-01          24                     0   77           1
 -4  DISP        4    1
 -5  D1          1    2    1    0
 -5  D2          1    2    2    0
 -5  D3          1    2    3    0
 -5  ALL         1    2    0    0    1ALL
 -1         1 0.00000E+00 0.00000E+00 0.00000E+00
 -1         2-2.66033E-07 0.00000E+00 0.00000E+00
 -1         3-9.77672E+00 0.00000E+00 0.00000E+00
 -1         4-9.77672E+00 0.00000E+00 0.00000E+00
 -1         5-1.95534E+01 0.00000E+00 0.00000E+00
 -1         6-1.95534E+01 0.00000E+00 0.00000E+00
 -1         7 0.00000E+00 7.98099E-08 0.00000E+00
 -1         8-2.66033E-07 7.98099E-08 0.00000E+00
 -1         9-9.77672E+00 7.98099E-08 0.00000E+00
 -1        10-9.77672E+00 7.98099E-08 0.00000E+00
 -1        11-1.95534E+01 7.98099E-08 0.00000E+00
 -1        12-1.95534E+01 7.98099E-08 0.00000E+00
 -1        13 0.00000E+00 0.00000E+00 1.11734E-07
 -1        14-2.66033E-07 0.00000E+00 1.11734E-07
 -1        15-9.77672E+00 0.00000E+00 1.11734E-07
 -1        16-9.77672E+00 0.00000E+00 1.11734E-07
 -1        17-1.95534E+01 0.00000E+00 1.11734E-07
 -1        18-1.95534E+01 0.00000E+00 1.11734E-07
 -1        19 0.00000E+00 7.98099E-08 1.11734E-07
 -1        20-2.66033E-07 7.98099E-08 1.11734E-07
 -1        21-9.77672E+00 7.98099E-08 1.11734E-07
 -1        22-9.77672E+00 7.98099E-08 1.11734E-07
 -1        23-1.95534E+01 7.98099E-08 1.11734E-07
 -1        24-1.95534E+01 7.98099E-08 1.11734E-07
 -3
    1PSTEP                       230          77           1          
  100CL  177 6.51781E-01          24                     0   77           1
 -4  STRESS      6    1
 -5  SXX         1    4    1    1
 -5  SYY         1    4    2    2
 -5  SZZ         1    4    3    3
 -5  SXY         1    4    1    2
 -5  SYZ         1    4    2    3
 -5  SZX         1    4    3    1
 -1         1-1.11729E-04-2.09294E-20-6.13181E-20 6.03411E-22-4.89535E-22 4.79711E-22
 -1         2-5.58647E-05-4.48316E-20 3.21099E-20-7.78113E-22 1.09546E-21-8.40004E-22
 -1         3-5.58647E-05 2.72818E-14 1.65143E-14-2.29899E-13-9.08614E-20 7.97585E-14
 -1         4-5.58647E-05 4.01860E-14 2.24053E-14 2.47529E-13-6.92803E-20-2.36996E-13
 -1         5-5.58647E-05-1.20119E-13 9.45660E-15-5.20406E-13-7.94628E-20 1.29206E-13
 -1         6-1.11729E-04 6.90843E-13 3.58316E-13 2.61622E-13-8.17120E-19-9.64409E-13
 -1         7-1.11729E-04 5.40949E-20 4.65006E-20-4.63112E-20-1.84676E-20 3.55713E-21
 -1         8-5.58647E-05-7.10287E-20-6.27243E-20-2.42354E-20 4.42690E-20-1.45121E-20
 -1         9-5.58647E-05-1.79812E-14-2.84295E-14-1.08448E-13 1.82973E-15 1.15428E-13
 -1        10-5.58647E-05 1.56447E-14 2.58121E-14 2.16199E-14-1.21261E-14 1.27146E-13
 -1        11-5.58647E-05-2.39724E-13-6.24322E-14-3.10353E-13 2.73472E-14-3.89749E-14
 -1        12-1.11729E-04 3.86577E-13 6.27445E-14-5.08471E-15-6.99185E-14 2.90927E-13
 -1        13-1.11729E-04-9.51100E-20-6.08964E-20-3.26810E-21 1.64397E-20 6.72574E-20
 -1        14-5.58647E-05 1.79625E-19 1.37684E-19-9.36876E-21-4.97467E-20 3.02563E-20
 -1        15-5.58647E-05 1.27253E-13 1.11362E-13 1.08989E-13 2.23435E-16 2.19430E-15
 -1        16-5.58647E-05 7.17734E-14 8.79456E-14-8.93268E-14 1.95636E-14 2.63484E-13
 -1        17-5.58647E-05-5.05053E-14 2.49758E-15 8.74875E-14 3.34017E-14 1.93147E-15
 -1        18-1.11729E-04 2.19470E-13 8.27124E-14 3.17724E-13 6.08515E-15-1.52675E-13
 -1        19-1.11729E-04-6.61900E-20-4.72796E-20 9.64206E-20-1.53830E-21-5.20809E-20
 -1        20-5.58647E-05 9.51663E-20-2.18564E-20 4.04756E-20-6.57314E-21-3.37752E-20
 -1        21-5.58647E-05 8.19899E-14 6.64182E-14-1.62729E-13 2.05325E-15 4.41571E-14
 -1        22-5.58647E-05 4.72320E-14 9.13524E-14 6.51269E-14 7.43760E-15-2.98868E-13
 -1        23-5.58647E-05 2.69193E-14 1.27639E-13 2.87237E-13 6.07489E-14-1.10068E-13
 -1        24-1.11729E-04 3.09264E-13 1.81201E-13-6.97620E-13-6.38326E-14 3.95991E-13
 -3
    1PSTEP                       231          77           1          
  100CL  177 6.51781E-01          24                     0   77           1
 -4  TOSTRAIN    6    1
 -5  EXX         1    4    1    1
 -5  EYY         1    4    2    2
 -5  EZZ         1    4    3    3
 -5  EXY         1    4    1    2
 -5  EYZ         1    4    2    3
 -5  EZX         1    4    3    1
 -1         1-5.32045E-10 1.59614E-10 1.59614E-10 3.73540E-27-3.03045E-27 2.96964E-27
 -1         2-2.66022E-10 7.98068E-11 7.98068E-11-4.81689E-27 6.78141E-27-5.20003E-27
 -1         3-2.66022E-10 7.98068E-11 7.98068E-11-1.42318E-18-5.62475E-25 4.93743E-19
 -1         4-2.66022E-10 7.98068E-11 7.98068E-11 1.53232E-18-4.28878E-25-1.46712E-18
 -1         5-2.66022E-10 7.98067E-11 7.98068E-11-3.22156E-18-4.91913E-25 7.99848E-19
 -1         6-5.32045E-10 1.59614E-10 1.59613E-10 1.61956E-18-5.05836E-24-5.97015E-18
 -1         7-5.32045E-10 1.59614E-10 1.59614E-10-2.86688E-25-1.14323E-25 2.20203E-26
 -1         8-2.66022E-10 7.98068E-11 7.98068E-11-1.50029E-25 2.74046E-25-8.98370E-26
 -1         9-2.66022E-10 7.98068E-11 7.98068E-11-6.71345E-19 1.13269E-20 7.14553E-19
 -1        10-2.66022E-10 7.98068E-11 7.98068E-11 1.33837E-19-7.50665E-20 7.87094E-19
 -1        11-2.66022E-10 7.98067E-11 7.98068E-11-1.92123E-18 1.69292E-19-2.41273E-19
 -1        12-5.32045E-10 1.59614E-10 1.59614E-10-3.14768E-20-4.32829E-19 1.80097E-18
 -1        13-5.32045E-10 1.59614E-10 1.59614E-10-2.02311E-26 1.01770E-25 4.16355E-25
 -1        14-2.66022E-10 7.98068E-11 7.98068E-11-5.79971E-26-3.07956E-25 1.87301E-25
 -1        15-2.66022E-10 7.98068E-11 7.98068E-11 6.74694E-19 1.38317E-21 1.35838E-20
 -1        16-2.66022E-10 7.98067E-11 7.98068E-11-5.52975E-19 1.21108E-19 1.63109E-18
 -1        17-2.66022E-10 7.98067E-11 7.98068E-11 5.41589E-19 2.06772E-19 1.19567E-20
 -1        18-5.32045E-10 1.59614E-10 1.59613E-10 1.96686E-18 3.76700E-20-9.45129E-19
 -1        19-5.32045E-10 1.59614E-10 1.59614E-10 5.96889E-25-9.52283E-27-3.22406E-25
 -1        20-2.66022E-10 7.98068E-11 7.98068E-11 2.50563E-25-4.06909E-26-2.09085E-25
 -1        21-2.66022E-10 7.98068E-11 7.98068E-11-1.00737E-18 1.27106E-20 2.73353E-19
 -1        22-2.66022E-10 7.98067E-11 7.98068E-11 4.03166E-19 4.60423E-20-1.85013E-18
 -1        23-2.66022E-10 7.98067E-11 7.98068E-11 1.77813E-18 3.76065E-19-6.81376E-19
 -1        24-5.32045E-10 1.59614E-10 1.59614E-10-4.31860E-18-3.95154E-19 2.45137E-18
 -3
    1PSTEP                       232          78           1          
  100CL  178 6.60781E-01          24                     0   78           1
 -4  DISP        4    1
 -5  D1          1    2    1    0
 -5  D2          1    2    2    0
 -5  D3          1    2    3    0
 -5  ALL         1    2    0    0    1ALL
 -1         1 0.00000E+00 0.00000E+00 0.00000E+00
 -1         2-2.69707E-07 0.00000E+00 0.00000E+00
 -1         3-9.91172E+00 0.00000E+00 0.00000E+00
 -1         4-9.91172E+00 0.00000E+00 0.00000E+00
 -1         5-1.98234E+01 0.00000E+00 0.00000E+00
 -1         6-1.98234E+01 0.00000E+00 0.00000E+00
 -1         7 0.00000E+00 8.09120E-08 0.00000E+00
 -1         8-2.69707E-07 8.09120E-08 0.00000E+00
 -1         9-9.91172E+00 8.09120E-08 0.00000E+00
 -1        10-9.91172E+00 8.09120E-08 0.00000E+00
 -1        11-1.98234E+01 8.09120E-08 0.00000E+00
 -1        12-1.98234E+01 8.09120E-08 0.00000E+00
 -1        13 0.00000E+00 0.00000E+00 1.13277E-07
 -1        14-2.69707E-07 0.00000E+00 1.13277E-07
 -1        15-9.91172E+00 0.00000E+00 1.13277E-07
 -1        16-9.91172E+00 0.00000E+00 1.13277E-07
 -1        17-1.98234E+01 0.00000E+00 1.13277E-07
 -1        18-1.98234E+01 0.00000E+00 1.13277E-07
 -1        19 0.00000E+00 8.09120E-08 1.13277E-07
 -1        20-2.69707E-07 8.09120E-08 1.13277E-07
 -1        21-9.91172E+00 8.09120E-08 1.13277E-07
 -1        22-9.91172E+00 8.09120E-08 1.13277E-07
 -1        23-1.98234E+01 8.09120E-08 1.13277E-07
 -1        24-1.98234E+01 8.09120E-08 1.13277E-07
 -3
    1PSTEP                       233          78           1          
  100CL  178 6.60781E-01          24                     0   78           1
 -4  STRESS      6    1
 -5  SXX         1    4    1    1
 -5  SYY         1    4    2    2
 -5  SZZ         1    4    3    3
 -5  SXY         1    4    1    2
 -5  SYZ         1    4    2    3
 -5  SZX         1    4    3    1
 -1         1-1.13272E-04-5.89508E-21-1.98486E-19 2.08804E-21 5.12190E-22 1.82411E-21
 -1         2-5.66361E-05 3.94927E-20-1.26530E-20-4.04836E-20-7.71759E-23 8.15021E-21
 -1         3-5.66361E-05 3.15688E-14 2.73772E-15 3.31692E-14 1.44201E-19 8.35193E-14
 -1         4-5.66361E-05 8.00564E-15 1.81329E-14-1.23785E-13-6.33287E-20-2.51032E-13
 -1         5-5.66361E-05-2.12552E-14-1.30598E-13 2.62965E-13-1.26008E-19 8.83824E-13
 -1         6-1.13272E-04-6.04458E-13-4.23859E-13-1.83962E-13 3.80225E-20-1.19534E-12
 -1         7-1.13272E-04 2.52129E-20 4.31204E-20-4.48037E-21-2.00334E-20 6.42896E-22
 -1         8-5.66361E-05-3.14587E-19-7.49368E-19-4.37678E-20 6.45035E-20 6.52865E-20
 -1         9-5.66361E-05-7.80422E-14-4.58303E-14-3.38538E-15-1.56263E-14 9.38071E-14
 -1        10-5.66361E-05-1.87089E-13-2.29896E-13-3.73136E-14 5.16281E-15 2.07834E-13
 -1        11-5.66361E-05-7.40596E-14-9.99540E-14 1.07483E-13-7.59769E-14-8.95468E-13
 -1        12-1.13272E-04-9.32095E-13-8.80637E-13 1.61330E-13 1.38231E-13 1.25849E-12
 -1        13-1.13272E-04-2.47309E-20-1.78351E-19-1.19856E-21 1.35561E-19 5.82487E-20
 -1        14-5.66361E-05 3.61775E-19 1.35994E-19 3.46000E-20-2.66485E-19 3.69356E-20
 -1        15-5.66361E-05-1.83841E-14-3.46110E-15 3.77049E-14 4.27303E-14 3.45260E-14
 -1        16-5.66361E-05 5.99205E-14 5.55917E-14-1.40712E-13-3.70543E-14 2.01094E-13
 -1        17-5.66361E-05 2.19108E-13 3.22500E-13 1.44058E-13 5.84139E-14-7.54578E-13
 -1        18-1.13272E-04 1.29818E-12 1.09173E-12 1.29397E-13-9.03982E-14 9.62316E-13
 -1        19-1.13272E-04 2.02222E-19 2.38771E-19 1.96577E-19 1.19294E-19-6.13147E-19
 -1        20-5.66361E-05 1.23223E-19-4.95359E-19 1.33488E-19-2.02478E-19-2.43747E-19
 -1        21-5.66361E-05 6.90351E-14 1.45001E-13 3.50632E-14 2.71038E-14-1.24942E-13
 -1        22-5.66361E-05 6.18566E-14 4.59324E-15-4.30788E-14-3.18914E-14-7.85681E-14
 -1        23-5.66361E-05-1.48945E-13 3.78958E-14 3.35939E-13-1.75628E-14 5.34753E-14
 -1        24-1.13272E-04 3.40041E-13 4.45117E-15-1.95639E-13 4.78332E-14-9.64546E-13
 -3
    1PSTEP                       234          78           1          
  100CL  178 6.60781E-01          24                     0   78           1
 -4  TOSTRAIN    6    1
 -5  EXX         1    4    1    1
 -5  EYY         1    4    2    2
 -5  EZZ         1    4    3    3
 -5  EXY         1    4    1    2
 -5  EYZ         1    4    2    3
 -5  EZX         1    4    3    1
 -1         1-5.39392E-10 1.61817E-10 1.61817E-10 1.29260E-26 3.17070E-27 1.12921E-26
 -1         2-2.69696E-10 8.09087E-11 8.09087E-11-2.50613E-25-4.77756E-28 5.04537E-26
 -1         3-2.69696E-10 8.09087E-11 8.09087E-11 2.05333E-19 8.92674E-25 5.17024E-19
 -1         4-2.69696E-10 8.09087E-11 8.09087E-11-7.66288E-19-3.92035E-25-1.55401E-18
 -1         5-2.69696E-10 8.09087E-11 8.09087E-11 1.62788E-18-7.80047E-25 5.47129E-18
 -1         6-5.39392E-10 1.61817E-10 1.61817E-10-1.13881E-18 2.35377E-25-7.39971E-18
 -1         7-5.39392E-10 1.61817E-10 1.61817E-10-2.77356E-26-1.24016E-25 3.97983E-27
 -1         8-2.69696E-10 8.09087E-11 8.09087E-11-2.70944E-25 3.99307E-25 4.04154E-25
 -1         9-2.69696E-10 8.09087E-11 8.09087E-11-2.09571E-20-9.67344E-20 5.80710E-19
 -1        10-2.69696E-10 8.09087E-11 8.09087E-11-2.30989E-19 3.19602E-20 1.28659E-18
 -1        11-2.69696E-10 8.09087E-11 8.09087E-11 6.65373E-19-4.70333E-19-5.54337E-18
 -1        12-5.39392E-10 1.61817E-10 1.61817E-10 9.98711E-19 8.55719E-19 7.79066E-18
 -1        13-5.39392E-10 1.61817E-10 1.61817E-10-7.41964E-27 8.39189E-25 3.60587E-25
 -1        14-2.69696E-10 8.09087E-11 8.09087E-11 2.14191E-25-1.64967E-24 2.28649E-25
 -1        15-2.69696E-10 8.09087E-11 8.09087E-11 2.33411E-19 2.64521E-19 2.13733E-19
 -1        16-2.69696E-10 8.09087E-11 8.09087E-11-8.71075E-19-2.29383E-19 1.24487E-18
 -1        17-2.69696E-10 8.09087E-11 8.09087E-11 8.91789E-19 3.61610E-19-4.67120E-18
 -1        18-5.39392E-10 1.61817E-10 1.61817E-10 8.01031E-19-5.59608E-19 5.95719E-18
 -1        19-5.39392E-10 1.61817E-10 1.61817E-10 1.21691E-24 7.38485E-25-3.79567E-24
 -1        20-2.69696E-10 8.09087E-11 8.09087E-11 8.26354E-25-1.25343E-24-1.50891E-24
 -1        21-2.69696E-10 8.09087E-11 8.09087E-11 2.17058E-19 1.67785E-19-7.73448E-19
 -1        22-2.69696E-10 8.09087E-11 8.09087E-11-2.66678E-19-1.97423E-19-4.86374E-19
 -1        23-2.69696E-10 8.09087E-11 8.09087E-11 2.07962E-18-1.08722E-19 3.31037E-19
 -1        24-5.39392E-10 1.61817E-10 1.61817E-10-1.21110E-18 2.96110E-19-5.97100E-18
 -3
    1PSTEP                       235          79           1          
  100CL  179 6.69781E-01          24                     0   79           1
 -4  DISP        4    1
 -5  D1          1    2    1    0
 -5  D2          1    2    2    0
 -5  D3          1    2    3    0
 -5  ALL         1    2    0    0    1ALL
 -1         1 0.00000E+00 0.00000E+00 0.00000E+00
 -1         2-3.11373E-02 0.00000E+00 0.00000E+00
 -1         3-1.00311E+01 0.00000E+00 0.00000E+00
 -1         4-1.00623E+01 0.00000E+00 0.00000E+00
 -1         5-2.00623E+01 0.00000E+00 0.00000E+00
 -1         6-2.00934E+01 0.00000E+00 0.00000E+00
 -1         7 0.00000E+00 9.34082E-03 0.00000E+00
 -1         8-3.11373E-02 9.34082E-03 0.00000E+00
 -1         9-1.00311E+01 9.34082E-03 0.00000E+00
 -1        10-1.00623E+01 9.34082E-03 0.00000E+00
 -1        11-2.00623E+01 9.34082E-03 0.00000E+00
 -1        12-2.00934E+01 9.34082E-03 0.00000E+00
 -1        13 0.00000E+00 0.00000E+00 1.30772E-02
 -1        14-3.11373E-02 0.00000E+00 1.30772E-02
 -1        15-1.00311E+01 0.00000E+00 1.30772E-02
 -1        16-1.00623E+01 0.00000E+00 1.30772E-02
 -1        17-2.00623E+01 0.00000E+00 1.30772E-02
 -1        18-2.00934E+01 0.00000E+00 1.30772E-02
 -1        19 0.00000E+00 9.34082E-03 1.30772E-02
 -1        20-3.11373E-02 9.34082E-03 1.30772E-02
 -1        21-1.00311E+01 9.34082E-03 1.30772E-02
 -1        22-1.00623E+01 9.34082E-03 1.30772E-02
 -1        23-2.00623E+01 9.34082E-03 1.30772E-02
 -1        24-2.00934E+01 9.34082E-03 1.30772E-02
 -3
    1PSTEP                       236          79           1          
  100CL  179 6.69781E-01          24                     0   79           1
 -4  STRESS      6    1
 -5  SXX         1    4    1    1
 -5  SYY         1    4    2    2
 -5  SZZ         1    4    3    3
 -5  SXY         1    4    1    2
 -5  SYZ         1    4    2    3
 -5  SZX         1    4    3    1
 -1         1-1.30754E+01-7.00513E-14 3.58733E-13 2.86532E-16 2.39327E-16 1.70491E-16
 -1         2-6.53772E+00 1.41099E-12 1.05084E-12-1.02238E-12-5.87311E-17 4.02362E-13
 -1         3-6.53772E+00 2.30972E-12 2.30085E-12 8.14491E-13-2.81178E-17 1.26492E-12
 -1         4-6.53772E+00-2.20286E-13-2.41462E-12-1.26220E-12-9.74395E-17 1.74595E-12
 -1         5-6.53772E+00 9.64182E-13-1.57435E-12 1.24243E-12 3.74698E-17-9.03139E-13
 -1         6-1.30754E+01-1.26507E-12-1.01896E-12 9.16084E-13-2.27085E-16-1.82517E-13
 -1         7-1.30754E+01-2.38720E-12-9.49477E-13 7.51159E-13-4.25936E-13-2.25525E-16
 -1         8-6.53772E+00-1.40979E-13-5.28392E-13-6.46943E-13 1.16239E-13-2.41159E-13
 -1         9-6.53772E+00 3.58844E-13 2.11209E-12 5.99940E-13-3.16643E-14 2.72462E-12
 -1        10-6.53772E+00-3.67257E-12-6.10693E-12-1.30626E-12-8.78395E-13 4.91088E-12
 -1        11-6.53772E+00-6.43005E-13-2.94697E-12 5.95987E-13-1.19685E-12-3.16433E-12
 -1        12-1.30754E+01-3.84791E-12-2.29766E-12-1.06356E-12-3.40608E-13 2.56603E-13
 -1        13-1.30754E+01-4.65034E-13 1.15936E-12-7.01415E-17 7.02117E-13 2.43333E-13
 -1        14-6.53772E+00 2.82793E-12 2.13948E-12-1.92338E-12-1.71963E-14 5.23943E-13
 -1        15-6.53772E+00 3.02395E-12 3.10497E-12 2.60313E-12 1.23420E-12-4.66670E-13
 -1        16-6.53772E+00-3.65614E-12-3.39135E-12 3.25811E-12-1.68350E-13-2.11155E-13
 -1        17-6.53772E+00-2.67703E-12-1.86690E-12-1.92089E-12 1.65260E-13 6.82764E-14
 -1        18-1.30754E+01 1.50629E-12 2.70834E-12-1.60611E-13 9.16022E-13 1.46810E-12
 -1        19-1.30754E+01-5.47953E-12-2.85446E-12 1.67344E-12 2.75942E-13-4.94114E-13
 -1        20-6.53772E+00-7.73332E-14-7.90246E-13-1.08663E-12 9.91016E-14-4.88104E-13
 -1        21-6.53772E+00 4.82239E-12 6.66189E-12 1.34714E-12 1.20267E-12-3.85085E-13
 -1        22-6.53772E+00-3.36603E-12-3.34028E-12 1.49014E-12-1.04702E-12 1.46191E-12
 -1        23-6.53772E+00 1.69771E-13 1.21628E-12-1.05368E-12-1.03157E-12-2.07313E-12
 -1        24-1.30754E+01 7.83142E-12 1.03366E-11 1.59066E-13 5.73791E-13 2.78376E-12
 -3
    1PSTEP                       237          79           1          
  100CL  179 6.69781E-01          24                     0   79           1
 -4  TOSTRAIN    6    1
 -5  EXX         1    4    1    1
 -5  EYY         1    4    2    2
 -5  EZZ         1    4    3    3
 -5  EXY         1    4    1    2
 -5  EYZ         1    4    2    3
 -5  EZX         1    4    3    1
 -1         1-6.22702E-05 1.86811E-05 1.86811E-05 1.77377E-21 1.48146E-21 1.05550E-21
 -1         2-3.11351E-05 9.34053E-06 9.34053E-06-6.32913E-18-3.63551E-22 2.49086E-18
 -1         3-3.11351E-05 9.34053E-06 9.34053E-06 5.04218E-18-1.74052E-22 7.83061E-18
 -1         4-3.11351E-05 9.34053E-06 9.34053E-06-7.81379E-18-6.03160E-22 1.08085E-17
 -1         5-3.11351E-05 9.34053E-06 9.34053E-06 7.69138E-18 2.31941E-22-5.59097E-18
 -1         6-6.22702E-05 1.86811E-05 1.86811E-05 5.67110E-18-1.40568E-21-1.12989E-18
 -1         7-6.22702E-05 1.86811E-05 1.86811E-05 4.65087E-18-2.63658E-18-1.39626E-21
 -1         8-3.11351E-05 9.34053E-06 9.34053E-06-4.00458E-18 7.19531E-19-1.49292E-18
 -1         9-3.11351E-05 9.34053E-06 9.34053E-06 3.71381E-18-1.96005E-19 1.68670E-17
 -1        10-3.11351E-05 9.34053E-06 9.34053E-06-8.08673E-18-5.43734E-18 3.04012E-17
 -1        11-3.11351E-05 9.34053E-06 9.34053E-06 3.68879E-18-7.40859E-18-1.95891E-17
 -1        12-6.22702E-05 1.86811E-05 1.86811E-05-6.58553E-18-2.10840E-18 1.58852E-18
 -1        13-6.22702E-05 1.86811E-05 1.86811E-05-4.34172E-22 4.34616E-18 1.50662E-18
 -1        14-3.11351E-05 9.34053E-06 9.34053E-06-1.19069E-17-1.06447E-19 3.24364E-18
 -1        15-3.11351E-05 9.34053E-06 9.34053E-06 1.61149E-17 7.63983E-18-2.89075E-18
 -1        16-3.11351E-05 9.34053E-06 9.34053E-06 2.01696E-17-1.04210E-18-1.30896E-18
 -1        17-3.11351E-05 9.34053E-06 9.34053E-06-1.18914E-17 1.02297E-18 4.23531E-19
 -1        18-6.22702E-05 1.86811E-05 1.86811E-05-9.94275E-19 5.67026E-18 9.09010E-18
 -1        19-6.22702E-05 1.86811E-05 1.86811E-05 1.03612E-17 1.70810E-18-3.05936E-18
 -1        20-3.11351E-05 9.34053E-06 9.34053E-06-6.72605E-18 6.13448E-19-3.02190E-18
 -1        21-3.11351E-05 9.34053E-06 9.34053E-06 8.33823E-18 7.44461E-18-2.38709E-18
 -1        22-3.11351E-05 9.34053E-06 9.34053E-06 9.22348E-18-6.48112E-18 9.04690E-18
 -1        23-3.11351E-05 9.34053E-06 9.34053E-06-6.52221E-18-6.38553E-18-1.28327E-17
 -1        24-6.22702E-05 1.86811E-05 1.86811E-05 9.86149E-19 3.55182E-18 1.72354E-17
 -3
    1PSTEP                       238          80           1          
  100CL  180 6.78781E-01          24                     0   80           1
 -4  DISP        4    1
 -5  D1          1    2    1    0
 -5  D2          1    2    2    0
 -5  D3          1    2    3    0
 -5  ALL         1    2    0    0    1ALL
 -1         1 0.00000E+00 0.00000E+00 0.00000E+00
 -1         2-1.19186E-01 0.00000E+00 0.00000E+00
 -1         3-1.01221E+01 0.00000E+00 0.00000E+00
 -1         4-1.02413E+01 0.00000E+00 0.00000E+00
 -1         5-2.02443E+01 0.00000E+00 0.00000E+00
 -1         6-2.03634E+01 0.00000E+00 0.00000E+00
 -1         7 0.00000E+00 3.57504E-02 0.00000E+00
 -1         8-1.19186E-01 3.57504E-02 0.00000E+00
 -1         9-1.01221E+01 3.57504E-02 0.00000E+00
 -1        10-1.02413E+01 3.57504E-02 0.00000E+00
 -1        11-2.02443E+01 3.57504E-02 0.00000E+00
 -1        12-2.03634E+01 3.57504E-02 0.00000E+00
 -1        13 0.00000E+00 0.00000E+00 5.00505E-02
 -1        14-1.19186E-01 0.00000E+00 5.00505E-02
 -1        15-1.01221E+01 0.00000E+00 5.00505E-02
 -1        16-1.02413E+01 0.00000E+00 5.00505E-02
 -1        17-2.02443E+01 0.00000E+00 5.00505E-02
 -1        18-2.03634E+01 0.00000E+00 5.00505E-02
 -1        19 0.00000E+00 3.57504E-02 5.00505E-02
 -1        20-1.19186E-01 3.57504E-02 5.00505E-02
 -1        21-1.01221E+01 3.57504E-02 5.00505E-02
 -1        22-1.02413E+01 3.57504E-02 5.00505E-02
 -1        23-2.02443E+01 3.57504E-02 5.00505E-02
 -1        24-2.03634E+01 3.57504E-02 5.00505E-02
 -3
    1PSTEP                       239          80           1          
  100CL  180 6.78781E-01          24                     0   80           1
 -4  STRESS      6    1
 -5  SXX         1    4    1    1
 -5  SYY         1    4    2    2
 -5  SZZ         1    4    3    3
 -5  SXY         1    4    1    2
 -5  SYZ         1    4    2    3
 -5  SZX         1    4    3    1
 -1         1-5.00312E+01 7.03886E-13 8.59223E-13-5.99256E-16 4.67816E-16 1.42315E-16
 -1         2-2.50156E+01 1.29926E-12-2.79253E-12-9.66833E-13-3.29595E-16 3.68133E-12
 -1         3-2.50156E+01 1.79560E-12-2.87706E-13 7.00022E-13-2.23817E-16-1.67720E-12
 -1         4-2.50156E+01 6.47456E-13-2.26862E-12-1.47589E-12 2.39800E-16 1.52837E-12
 -1         5-2.50156E+01 1.53003E-12-2.70922E-12 2.22484E-12 1.46858E-16-1.80121E-12
 -1         6-5.00312E+01 1.12869E-13 2.56789E-13 3.06935E-13-4.51893E-16-8.93442E-13
 -1         7-5.00312E+01-6.94331E-13 1.49047E-12 1.62715E-12-2.56103E-12-3.71270E-17
 -1         8-2.50156E+01 1.21171E-12-1.06439E-12-1.52956E-13-5.76578E-13 1.15726E-12
 -1         9-2.50156E+01 5.60975E-13 9.74878E-13 5.61867E-13-3.63796E-13 1.29401E-12
 -1        10-2.50156E+01-2.08978E-12-4.55795E-12-1.45390E-12-2.14998E-12 5.37569E-12
 -1        11-2.50156E+01-1.06059E-12-4.79480E-12 1.26842E-12-1.50632E-12-5.12131E-12
 -1        12-5.00312E+01-3.75711E-12-8.77166E-13-1.45209E-12-1.60336E-12 6.64403E-13
 -1        13-5.00312E+01 3.61746E-12 1.09627E-11 4.54988E-16 1.41450E-12-3.55321E-12
 -1        14-2.50156E+01 6.21397E-12 3.73037E-12-4.50334E-12 1.26943E-12 1.90465E-12
 -1        15-2.50156E+01 7.52572E-12 6.46703E-12 5.17080E-12 1.74281E-12-2.60847E-12
 -1        16-2.50156E+01-2.37953E-12 7.20988E-13 3.50958E-12 3.22168E-13 1.11867E-12
 -1        17-2.50156E+01-1.73645E-13-1.87771E-13-1.77233E-12 3.51183E-13-9.52655E-13
 -1        18-5.00312E+01 3.60289E-12 8.21963E-12 2.92642E-13 1.93015E-12 3.38152E-12
 -1        19-5.00312E+01-8.36953E-12 9.76065E-13 3.59893E-12-1.14699E-12-2.42999E-12
 -1        20-2.50156E+01 8.13561E-13 1.49563E-13-2.70410E-12 6.93177E-13-5.77158E-14
 -1        21-2.50156E+01 6.30228E-12 7.72233E-12 2.56290E-12 1.37775E-12-2.84047E-13
 -1        22-2.50156E+01-5.13329E-12-1.56639E-12 9.25369E-13-1.82642E-12 2.65891E-12
 -1        23-2.50156E+01 2.03832E-12 2.51804E-12-1.66638E-12-1.15472E-12-2.92431E-12
 -1        24-5.00312E+01 9.33806E-12 1.67238E-11-6.94581E-14 3.24985E-13 4.63407E-12
 -3
    1PSTEP                       240          80           1          
  100CL  180 6.78781E-01          24                     0   80           1
 -4  TOSTRAIN    6    1
 -5  EXX         1    4    1    1
 -5  EYY         1    4    2    2
 -5  EZZ         1    4    3    3
 -5  EXY         1    4    1    2
 -5  EYZ         1    4    2    3
 -5  EZX         1    4    3    1
 -1         1-2.38335E-04 7.15004E-05 7.15004E-05-3.71014E-21 2.89531E-21 8.81957E-22
 -1         2-1.19167E-04 3.57502E-05 3.57502E-05-5.98558E-18-2.03987E-21 2.27908E-17
 -1         3-1.19167E-04 3.57502E-05 3.57502E-05 4.33378E-18-1.38520E-21-1.03834E-17
 -1         4-1.19167E-04 3.57502E-05 3.57502E-05-9.13713E-18 1.48412E-21 9.46204E-18
 -1         5-1.19167E-04 3.57502E-05 3.57502E-05 1.37738E-17 9.08903E-22-1.11511E-17
 -1         6-2.38335E-04 7.15004E-05 7.15004E-05 1.90021E-18-2.79677E-21-5.53123E-18
 -1         7-2.38335E-04 7.15004E-05 7.15004E-05 1.00798E-17-1.58502E-17-2.29720E-22
 -1         8-1.19167E-04 3.57502E-05 3.57502E-05-9.43814E-19-3.56844E-18 7.16451E-18
 -1         9-1.19167E-04 3.57502E-05 3.57502E-05 3.47807E-18-2.25153E-18 8.01108E-18
 -1        10-1.19167E-04 3.57502E-05 3.57502E-05-9.00135E-18-1.33062E-17 3.32805E-17
 -1        11-1.19167E-04 3.57502E-05 3.57502E-05 7.84910E-18-9.32261E-18-3.17056E-17
 -1        12-2.38335E-04 7.15004E-05 7.15004E-05-8.99699E-18-9.92323E-18 4.11327E-18
 -1        13-2.38335E-04 7.15004E-05 7.15004E-05 2.81627E-21 8.75436E-18-2.20113E-17
 -1        14-1.19167E-04 3.57502E-05 3.57502E-05-2.78798E-17 7.85647E-18 1.17847E-17
 -1        15-1.19167E-04 3.57502E-05 3.57502E-05 3.20120E-17 1.07862E-17-1.61517E-17
 -1        16-1.19167E-04 3.57502E-05 3.57502E-05 2.17275E-17 1.99390E-18 6.92278E-18
 -1        17-1.19167E-04 3.57502E-05 3.57502E-05-1.09724E-17 2.17347E-18-5.89130E-18
 -1        18-2.38335E-04 7.15004E-05 7.15004E-05 1.81172E-18 1.19457E-17 2.09477E-17
 -1        19-2.38335E-04 7.15004E-05 7.15004E-05 2.22945E-17-7.09872E-18-1.50532E-17
 -1        20-1.19167E-04 3.57502E-05 3.57502E-05-1.67340E-17 4.29007E-18-3.61977E-19
 -1        21-1.19167E-04 3.57502E-05 3.57502E-05 1.58567E-17 8.52692E-18-1.76676E-18
 -1        22-1.19167E-04 3.57502E-05 3.57502E-05 5.71889E-18-1.13037E-17 1.64528E-17
 -1        23-1.19167E-04 3.57502E-05 3.57502E-05-1.03163E-17-7.14657E-18-1.80953E-17
 -1        24-2.38335E-04 7.15004E-05 7.15004E-05-4.29662E-19 2.01133E-18 2.87069E-17
 -3
    1PSTEP                       241          81           1          
  100CL  181 6.87781E-01          24                     0   81           1
 -4  DISP        4    1
 -5  D1          1    2    1    0
 -5  D2          1    2    2    0
 -5  D3          1    2    3    0
 -5  ALL         1    2    0    0    1ALL
 -1         1 0.00000E+00 0.00000E+00 0.00000E+00
 -1         2-2.06495E-01 0.00000E+00 0.00000E+00
 -1         3-1.02135E+01 0.00000E+00 0.00000E+00
 -1         4-1.04200E+01 0.00000E+00 0.00000E+00
 -1         5-2.04269E+01 0.00000E+00 0.00000E+00
 -1         6-2.06334E+01 0.00000E+00 0.00000E+00
 -1         7 0.00000E+00 6.19319E-02 0.00000E+00
 -1         8-2.06495E-01 6.19319E-02 0.00000E+00
 -1         9-1.02135E+01 6.19319E-02 0.00000E+00
 -1        10-1.04200E+01 6.19319E-02 0.00000E+00
 -1        11-2.04269E+01 6.19319E-02 0.00000E+00
 -1        12-2.06334E+01 6.19319E-02 0.00000E+00
 -1        13 0.00000E+00 0.00000E+00 8.67046E-02
 -1        14-2.06495E-01 0.00000E+00 8.67046E-02
 -1        15-1.02135E+01 0.00000E+00 8.67046E-02
 -1        16-1.04200E+01 0.00000E+00 8.67046E-02
 -1        17-2.04269E+01 0.00000E+00 8.67046E-02
 -1        18-2.06334E+01 0.00000E+00 8.67046E-02
 -1        19 0.00000E+00 6.19319E-02 8.67046E-02
 -1        20-2.06495E-01 6.19319E-02 8.67046E-02
 -1        21-1.02135E+01 6.19319E-02 8.67046E-02
 -1        22-1.04200E+01 6.19319E-02 8.67046E-02
 -1        23-2.04269E+01 6.19319E-02 8.67046E-02
 -1        24-2.06334E+01 6.19319E-02 8.67046E-02
 -3
    1PSTEP                       242          81           1          
  100CL  181 6.87781E-01          24                     0   81           1
 -4  STRESS      6    1
 -5  SXX         1    4    1    1
 -5  SYY         1    4    2    2
 -5  SZZ         1    4    3    3
 -5  SXY         1    4    1    2
 -5  SYZ         1    4    2    3
 -5  SZX         1    4    3    1
 -1         1-8.66492E+01 1.18318E-11 1.28342E-11 7.95931E-16 7.59740E-16 1.69977E-15
 -1         2-4.33246E+01 8.65391E-12 8.01373E-12-1.80419E-12-3.70138E-16-5.63170E-13
 -1         3-4.33246E+01 9.62704E-12 8.57544E-12 2.30734E-12 1.61877E-16 7.94401E-13
 -1         4-4.33246E+01 5.20166E-12 6.30169E-12 2.93891E-13-5.11778E-16-3.17159E-13
 -1         5-4.33246E+01 6.10761E-12 6.22466E-12 4.33164E-13 2.37197E-16 3.70338E-13
 -1         6-8.66492E+01 1.07172E-11 1.11136E-11 5.18548E-13-9.12078E-16-2.13470E-15
 -1         7-8.66492E+01 7.04111E-12 8.86028E-12 1.43474E-12 1.20224E-13-3.33809E-15
 -1         8-4.33246E+01 6.34385E-12 6.22934E-12-1.08721E-12 1.70031E-13-9.42652E-13
 -1         9-4.33246E+01 7.18577E-12 6.65724E-12 1.03363E-12 2.56279E-13 1.15110E-12
 -1        10-4.33246E+01 2.38720E-12 3.51594E-12-6.83873E-13-2.50436E-14 7.22301E-13
 -1        11-4.33246E+01 6.05030E-12 6.05984E-12 2.60414E-13-7.34933E-14 3.68007E-13
 -1        12-8.66492E+01 1.06801E-11 1.10050E-11 2.49931E-13 4.81171E-13 4.88816E-13
 -1        13-8.66492E+01 1.00653E-11 1.07350E-11-1.12915E-15 5.64140E-13 4.08042E-13
 -1        14-4.33246E+01 8.30375E-12 7.18802E-12-2.34136E-12 3.66115E-13-3.58498E-13
 -1        15-4.33246E+01 8.96795E-12 7.19414E-12 2.38051E-12 3.73703E-13 4.45507E-13
 -1        16-4.33246E+01 3.13513E-12 4.30874E-12 2.17277E-12 2.48202E-14-8.83193E-14
 -1        17-4.33246E+01 5.14613E-12 5.45635E-12-1.05968E-12-7.64432E-14 4.91548E-13
 -1        18-8.66492E+01 1.18359E-11 1.09069E-11 1.82880E-13-6.23351E-14-8.92011E-13
 -1        19-8.66492E+01 3.65386E-12 5.11905E-12 1.73686E-12 6.88092E-13 5.76174E-13
 -1        20-4.33246E+01 5.18335E-12 4.58263E-12-1.47236E-12 5.35914E-13-6.58500E-13
 -1        21-4.33246E+01 7.41166E-12 6.15702E-12 8.88394E-13 6.29782E-13 8.64840E-13
 -1        22-4.33246E+01 1.20566E-12 2.42253E-12 1.35264E-13 4.28636E-16 8.14874E-14
 -1        23-4.33246E+01 5.40478E-12 5.61530E-12-7.54124E-13-1.47944E-13-5.80833E-14
 -1        24-8.66492E+01 1.24676E-11 1.14090E-11 5.07066E-13 4.12825E-13-8.58978E-13
 -3
    1PSTEP                       243          81           1          
  100CL  181 6.87781E-01          24                     0   81           1
 -4  TOSTRAIN    6    1
 -5  EXX         1    4    1    1
 -5  EYY         1    4    2    2
 -5  EZZ         1    4    3    3
 -5  EXY         1    4    1    2
 -5  EYZ         1    4    2    3
 -5  EZX         1    4    3    1
 -1         1-4.12888E-04 1.23866E-04 1.23866E-04 4.92959E-21 4.70121E-21 1.05256E-20
 -1         2-2.06444E-04 6.19332E-05 6.19332E-05-1.11701E-17-2.29038E-21-3.48672E-18
 -1         3-2.06444E-04 6.19332E-05 6.19332E-05 1.42853E-17 1.00168E-21 4.91833E-18
 -1         4-2.06444E-04 6.19332E-05 6.19332E-05 1.81955E-18-3.16684E-21-1.96361E-18
 -1         5-2.06444E-04 6.19332E-05 6.19332E-05 2.68183E-18 1.46776E-21 2.29286E-18
 -1         6-4.12888E-04 1.23866E-04 1.23866E-04 3.21046E-18-5.64387E-21-1.32135E-20
 -1         7-4.12888E-04 1.23866E-04 1.23866E-04 8.89237E-18 7.43935E-19-2.06736E-20
 -1         8-2.06444E-04 6.19332E-05 6.19332E-05-6.72643E-18 1.05214E-18-5.83619E-18
 -1         9-2.06444E-04 6.19332E-05 6.19332E-05 6.39138E-18 1.58583E-18 7.12675E-18
 -1        10-2.06444E-04 6.19332E-05 6.19332E-05-4.24208E-18-1.54968E-19 4.47194E-18
 -1        11-2.06444E-04 6.19332E-05 6.19332E-05 1.61119E-18-4.54771E-19 2.27842E-18
 -1        12-4.12888E-04 1.23866E-04 1.23866E-04 1.54519E-18 2.97745E-18 3.02638E-18
 -1        13-4.12888E-04 1.23866E-04 1.23866E-04-6.99364E-21 3.49085E-18 2.52900E-18
 -1        14-2.06444E-04 6.19332E-05 6.19332E-05-1.44959E-17 2.26549E-18-2.21819E-18
 -1        15-2.06444E-04 6.19332E-05 6.19332E-05 1.47383E-17 2.31244E-18 2.75703E-18
 -1        16-2.06444E-04 6.19332E-05 6.19332E-05 1.34521E-17 1.53585E-19-5.48018E-19
 -1        17-2.06444E-04 6.19332E-05 6.19332E-05-6.56076E-18-4.73024E-19 3.04216E-18
 -1        18-4.12888E-04 1.23866E-04 1.23866E-04 1.13226E-18-3.85724E-19-5.52492E-18
 -1        19-4.12888E-04 1.23866E-04 1.23866E-04 1.07649E-17 4.25786E-18 3.57106E-18
 -1        20-2.06444E-04 6.19332E-05 6.19332E-05-9.10997E-18 3.31619E-18-4.07502E-18
 -1        21-2.06444E-04 6.19332E-05 6.19332E-05 5.48957E-18 3.89704E-18 5.35093E-18
 -1        22-2.06444E-04 6.19332E-05 6.19332E-05 8.26759E-19 2.65237E-21 5.01003E-19
 -1        23-2.06444E-04 6.19332E-05 6.19332E-05-4.66713E-18-9.15468E-19-3.60440E-19
 -1        24-4.12888E-04 1.23866E-04 1.23866E-04 3.14303E-18 2.55453E-18-5.31980E-18
 -3
    1PSTEP                       244          82           1          
  100CL  182 6.96781E-01          24                     0   82           1
 -4  DISP        4    1
 -5  D1          1    2    1    0
 -5  D2          1    2    2    0
 -5  D3          1    2    3    0
 -5  ALL         1    2    0    0    1ALL
 -1         1 0.00000E+00 0.00000E+00 0.00000E+00
 -1         2-2.93375E-01 0.00000E+00 0.00000E+00
 -1         3-1.03050E+01 0.00000E+00 0.00000E+00
 -1         4-1.05984E+01 0.00000E+00 0.00000E+00
 -1         5-2.06101E+01 0.00000E+00 0.00000E+00
 -1         6-2.09034E+01 0.00000E+00 0.00000E+00
 -1         7 0.00000E+00 8.79789E-02 0.00000E+00
 -1         8-2.93375E-01 8.79789E-02 0.00000E+00
 -1         9-1.03050E+01 8.79789E-02 0.00000E+00
 -1        10-1.05984E+01 8.79789E-02 0.00000E+00
 -1        11-2.06101E+01 8.79789E-02 0.00000E+00
 -1        12-2.09034E+01 8.79789E-02 0.00000E+00
 -1        13 0.00000E+00 0.00000E+00 1.23170E-01
 -1        14-2.93375E-01 0.00000E+00 1.23170E-01
 -1        15-1.03050E+01 0.00000E+00 1.23170E-01
 -1        16-1.05984E+01 0.00000E+00 1.23170E-01
 -1        17-2.06101E+01 0.00000E+00 1.23170E-01
 -1        18-2.09034E+01 0.00000E+00 1.23170E-01
 -1        19 0.00000E+00 8.79789E-02 1.23170E-01
 -1        20-2.93375E-01 8.79789E-02 1.23170E-01
 -1        21-1.03050E+01 8.79789E-02 1.23170E-01
 -1        22-1.05984E+01 8.79789E-02 1.23170E-01
 -1        23-2.06101E+01 8.79789E-02 1.23170E-01
 -1        24-2.09034E+01 8.79789E-02 1.23170E-01
 -3
    1PSTEP                       245          82           1          
  100CL  182 6.96781E-01          24                     0   82           1
 -4  STRESS      6    1
 -5  SXX         1    4    1    1
 -5  SYY         1    4    2    2
 -5  SZZ         1    4    3    3
 -5  SXY         1    4    1    2
 -5  SYZ         1    4    2    3
 -5  SZX         1    4    3    1
 -1         1-1.23061E+02 4.73310E-13 1.71219E-12-1.50398E-15 7.63221E-16-2.03579E-15
 -1         2-6.15304E+01 3.58009E-12 1.84266E-12-2.12597E-12-4.35348E-16 4.99627E-13
 -1         3-6.15304E+01 1.62729E-12 6.67504E-14 1.85522E-12-2.95352E-16-4.70176E-14
 -1         4-6.15304E+01-3.15670E-12-3.54214E-12 3.75901E-12 2.34226E-16 4.94772E-12
 -1         5-6.15304E+01-2.42693E-12-4.06844E-12-2.83123E-12 1.62764E-16-5.15471E-12
 -1         6-1.23061E+02-1.98574E-12-1.61951E-12-7.91424E-13 3.29429E-16 1.34573E-14
 -1         7-1.23061E+02-4.85980E-12-2.33527E-12 2.03204E-12-6.63626E-13 3.53775E-17
 -1         8-6.15304E+01 1.35362E-12 8.77555E-13-1.11160E-12 2.16908E-13-1.45605E-12
 -1         9-6.15304E+01 4.16524E-12 2.28038E-12 7.28132E-13-1.92443E-12-5.78041E-13
 -1        10-6.15304E+01 2.56987E-12 6.12294E-12 2.61142E-12 1.82108E-12-8.20645E-12
 -1        11-6.15304E+01 5.02169E-12 7.01947E-12-3.08230E-12 1.70487E-12 7.56832E-12
 -1        12-1.23061E+02 6.58264E-12 5.86878E-12 1.15513E-12-3.28213E-12 8.55592E-13
 -1        13-1.23061E+02-6.66821E-13 2.43239E-12 5.81398E-16 9.23342E-13-4.56496E-13
 -1        14-6.15304E+01 5.67894E-12 3.31470E-12-4.86560E-12 8.93008E-13 2.72998E-13
 -1        15-6.15304E+01 2.61296E-12 6.44311E-12 8.44414E-13-2.10101E-13-7.10785E-13
 -1        16-6.15304E+01 1.61715E-11 1.06909E-11-1.44140E-11 2.74957E-12 4.03800E-12
 -1        17-6.15304E+01 1.71201E-11 1.06892E-11 1.47252E-11 2.55180E-12-3.80312E-12
 -1        18-1.23061E+02 4.26806E-12 1.38481E-11 1.24156E-13-7.75528E-13 2.15833E-12
 -1        19-1.23061E+02-1.42910E-11-9.88482E-12 3.56627E-12 2.58952E-13 4.09521E-13
 -1        20-6.15304E+01-6.56118E-13-1.74834E-12-3.07380E-12 1.11035E-12-1.25355E-12
 -1        21-6.15304E+01-2.05073E-11-1.69830E-11 4.91282E-12-2.13435E-12 1.29584E-12
 -1        22-6.15304E+01-3.76014E-12-5.32067E-12-1.02069E-11 4.57083E-12-5.60098E-12
 -1        23-6.15304E+01-3.00623E-12-5.77542E-12 1.01892E-11 4.25535E-12 5.99742E-12
 -1        24-1.23061E+02-4.22395E-11-3.38056E-11-1.01365E-11-4.05320E-12-2.93544E-12
 -3
    1PSTEP                       246          82           1          
  100CL  182 6.96781E-01          24                     0   82           1
 -4  TOSTRAIN    6    1
 -5  EXX         1    4    1    1
 -5  EYY         1    4    2    2
 -5  EZZ         1    4    3    3
 -5  EXY         1    4    1    2
 -5  EYZ         1    4    2    3
 -5  EZX         1    4    3    1
 -1         1-5.86554E-04 1.75966E-04 1.75966E-04-9.31169E-21 4.72193E-21-1.26025E-20
 -1         2-2.93277E-04 8.79831E-05 8.79831E-05-1.31631E-17-2.69343E-21 3.09348E-18
 -1         3-2.93277E-04 8.79831E-05 8.79831E-05 1.14867E-17-1.82730E-21-2.91114E-19
 -1         4-2.93277E-04 8.79831E-05 8.79831E-05 2.32741E-17 1.44912E-21 3.06341E-17
 -1         5-2.93277E-04 8.79831E-05 8.79831E-05-1.75298E-17 1.00700E-21-3.19157E-17
 -1         6-5.86554E-04 1.75966E-04 1.75966E-04-4.90015E-18 2.03813E-21 8.33330E-20
 -1         7-5.86554E-04 1.75966E-04 1.75966E-04 1.26007E-17-4.10575E-18 2.20100E-22
 -1         8-2.93277E-04 8.79831E-05 8.79831E-05-6.87297E-18 1.34198E-18-9.01524E-18
 -1         9-2.93277E-04 8.79831E-05 8.79831E-05 4.49758E-18-1.19062E-17-3.57898E-18
 -1        10-2.93277E-04 8.79831E-05 8.79831E-05 1.61581E-17 1.12667E-17-5.08108E-17
 -1        11-2.93277E-04 8.79831E-05 8.79831E-05-1.90842E-17 1.05478E-17 4.68597E-17
 -1        12-5.86554E-04 1.75966E-04 1.75966E-04 7.15223E-18-2.03060E-17 5.29745E-18
 -1        13-5.86554E-04 1.75966E-04 1.75966E-04 3.59432E-21 5.71257E-18-2.83071E-18
 -1        14-2.93277E-04 8.79831E-05 8.79831E-05-3.01257E-17 5.52490E-18 1.68814E-18
 -1        15-2.93277E-04 8.79831E-05 8.79831E-05 5.22824E-18-1.29986E-18-4.40806E-18
 -1        16-2.93277E-04 8.79831E-05 8.79831E-05-8.92451E-17 1.70111E-17 2.49944E-17
 -1        17-2.93277E-04 8.79831E-05 8.79831E-05 9.11719E-17 1.57876E-17-2.35350E-17
 -1        18-5.86554E-04 1.75966E-04 1.75966E-04 7.68717E-19-4.79807E-18 1.33879E-17
 -1        19-5.86554E-04 1.75966E-04 1.75966E-04 2.21145E-17 1.60210E-18 2.53941E-18
 -1        20-2.93277E-04 8.79831E-05 8.79831E-05-1.90147E-17 6.86957E-18-7.75952E-18
 -1        21-2.93277E-04 8.79831E-05 8.79831E-05 3.04568E-17-1.32049E-17 8.04400E-18
 -1        22-2.93277E-04 8.79831E-05 8.79831E-05-6.31582E-17 2.82790E-17-3.46581E-17
 -1        23-2.93277E-04 8.79831E-05 8.79831E-05 6.30428E-17 2.63272E-17 3.71179E-17
 -1        24-5.86554E-04 1.75966E-04 1.75966E-04-6.28491E-17-2.50765E-17-1.82060E-17
 -3
    1PSTEP                       247          83           1          
  100CL  183 7.05781E-01          24                     0   83           1
 -4  DISP        4    1
 -5  D1          1    2    1    0
 -5  D2          1    2    2    0
 -5  D3          1    2    3    0
 -5  ALL         1    2    0    0    1ALL
 -1         1 0.00000E+00 0.00000E+00 0.00000E+00
 -1         2-3.79977E-01 0.00000E+00 0.00000E+00
 -1         3-1.03967E+01 0.00000E+00 0.00000E+00
 -1         4-1.07767E+01 0.00000E+00 0.00000E+00
 -1         5-2.07935E+01 0.00000E+00 0.00000E+00
 -1         6-2.11734E+01 0.00000E+00 0.00000E+00
 -1         7 0.00000E+00 1.13937E-01 0.00000E+00
 -1         8-3.79977E-01 1.13937E-01 0.00000E+00
 -1         9-1.03967E+01 1.13937E-01 0.00000E+00
 -1        10-1.07767E+01 1.13937E-01 0.00000E+00
 -1        11-2.07935E+01 1.13937E-01 0.00000E+00
 -1        12-2.11734E+01 1.13937E-01 0.00000E+00
 -1        13 0.00000E+00 0.00000E+00 1.59512E-01
 -1        14-3.79977E-01 0.00000E+00 1.59512E-01
 -1        15-1.03967E+01 0.00000E+00 1.59512E-01
 -1        16-1.07767E+01 0.00000E+00 1.59512E-01
 -1        17-2.07935E+01 0.00000E+00 1.59512E-01
 -1        18-2.11734E+01 0.00000E+00 1.59512E-01
 -1        19 0.00000E+00 1.13937E-01 1.59512E-01
 -1        20-3.79977E-01 1.13937E-01 1.59512E-01
 -1        21-1.03967E+01 1.13937E-01 1.59512E-01
 -1        22-1.07767E+01 1.13937E-01 1.59512E-01
 -1        23-2.07935E+01 1.13937E-01 1.59512E-01
 -1        24-2.11734E+01 1.13937E-01 1.59512E-01
 -3
    1PSTEP                       248          83           1          
  100CL  183 7.05781E-01          24                     0   83           1
 -4  STRESS      6    1
 -5  SXX         1    4    1    1
 -5  SYY         1    4    2    2
 -5  SZZ         1    4    3    3
 -5  SXY         1    4    1    2
 -5  SYZ         1    4    2    3
 -5  SZX         1    4    3    1
 -1         1-1.59330E+02-4.82689E-11-4.57943E-11 1.32682E-15-2.06196E-15-2.94420E-15
 -1         2-7.96648E+01-1.73799E-11-1.71149E-11-4.54319E-12 4.30197E-16-3.61348E-12
 -1         3-7.96648E+01-1.82692E-11-1.79154E-11 5.54489E-12-6.92543E-16 7.21803E-12
 -1         4-7.96648E+01-4.12172E-11-4.18588E-11 1.32385E-11 9.26009E-16 1.43666E-11
 -1         5-7.96648E+01-3.96018E-11-3.95499E-11-1.13110E-11 6.03160E-16-1.12501E-11
 -1         6-1.59330E+02-5.59805E-11-5.89325E-11-5.10900E-13-1.45011E-15-4.22538E-13
 -1         7-1.59330E+02-6.09507E-11-5.71545E-11 3.01260E-12 1.82119E-12 4.96811E-15
 -1         8-7.96648E+01-2.40544E-11-2.36697E-11-3.03755E-12 4.53096E-13-1.99607E-12
 -1         9-7.96648E+01-9.95397E-12-1.32236E-11 1.23328E-12-4.02596E-12 1.10734E-12
 -1        10-7.96648E+01-2.54493E-11-1.98317E-11 8.36987E-12 4.77498E-12-1.05821E-11
 -1        11-7.96648E+01-1.78317E-11-1.26784E-11-8.95200E-12 3.13691E-12 1.29629E-11
 -1        12-1.59330E+02-2.37192E-11-3.14863E-11 5.96354E-12-6.42666E-12 3.77655E-13
 -1        13-1.59330E+02-5.45747E-11-5.71431E-11-1.64283E-15 9.17815E-13 2.81991E-12
 -1        14-7.96648E+01-2.27223E-11-2.37493E-11-2.27040E-12 1.00228E-13-2.20266E-12
 -1        15-7.96648E+01-2.29060E-11-1.12658E-11-2.83034E-12-2.54661E-12 3.36402E-13
 -1        16-7.96648E+01-2.75512E-12-1.67645E-11-2.20435E-11 4.38521E-12 7.41193E-12
 -1        17-7.96648E+01-7.07257E-13-9.43107E-12 2.11351E-11 3.57194E-12-8.78961E-12
 -1        18-1.59330E+02-4.04544E-11-2.54183E-11-6.28886E-13-3.36493E-12 5.63541E-12
 -1        19-1.59330E+02-6.04146E-11-6.17197E-11 1.73105E-12 2.74106E-12 2.10396E-12
 -1        20-7.96648E+01-2.60127E-11-2.69122E-11-1.40405E-12 5.52893E-13-9.44336E-13
 -1        21-7.96648E+01-5.46235E-11-4.66436E-11 4.97766E-12-6.57434E-12 1.11079E-12
 -1        22-7.96648E+01-2.70568E-11-3.47702E-11-1.40197E-11 9.16070E-12-1.04926E-11
 -1        23-7.96648E+01-2.95236E-11-3.31673E-11 1.46656E-11 6.71409E-12 9.85864E-12
 -1        24-1.59330E+02-1.09292E-10-9.91138E-11-1.21750E-11-9.80266E-12-5.60305E-12
 -3
    1PSTEP                       249          83           1          
  100CL  183 7.05781E-01          24                     0   83           1
 -4  TOSTRAIN    6    1
 -5  EXX         1    4    1    1
 -5  EYY         1    4    2    2
 -5  EZZ         1    4    3    3
 -5  EXY         1    4    1    2
 -5  EYZ         1    4    2    3
 -5  EZX         1    4    3    1
 -1         1-7.59636E-04 2.27891E-04 2.27891E-04 8.20818E-21-1.27548E-20-1.82409E-20
 -1         2-3.79818E-04 1.13945E-04 1.13945E-04-2.81309E-17 2.66110E-21-2.23743E-17
 -1         3-3.79818E-04 1.13945E-04 1.13945E-04 3.43333E-17-4.28391E-21 4.46932E-17
 -1         4-3.79818E-04 1.13945E-04 1.13945E-04 8.19710E-17 5.72808E-21 8.89561E-17
 -1         5-3.79818E-04 1.13945E-04 1.13945E-04-7.00362E-17 3.73101E-21-6.96595E-17
 -1         6-7.59636E-04 2.27891E-04 2.27891E-04-3.16344E-18-8.97007E-21-2.61630E-18
 -1         7-7.59636E-04 2.27891E-04 2.27891E-04 1.86906E-17 1.12654E-17 3.07707E-20
 -1         8-3.79818E-04 1.13945E-04 1.13945E-04-1.87897E-17 2.80275E-18-1.23595E-17
 -1         9-3.79818E-04 1.13945E-04 1.13945E-04 7.58206E-18-2.49036E-17 6.85655E-18
 -1        10-3.79818E-04 1.13945E-04 1.13945E-04 5.17710E-17 2.95369E-17-6.55233E-17
 -1        11-3.79818E-04 1.13945E-04 1.13945E-04-5.53986E-17 1.94042E-17 8.02648E-17
 -1        12-7.59636E-04 2.27891E-04 2.27891E-04 3.69879E-17-3.97539E-17 2.33840E-18
 -1        13-7.59636E-04 2.27891E-04 2.27891E-04-1.01699E-20 5.67740E-18 1.74951E-17
 -1        14-3.79818E-04 1.13945E-04 1.13945E-04-1.40581E-17 6.19985E-19-1.36213E-17
 -1        15-3.79818E-04 1.13945E-04 1.13945E-04-1.75251E-17-1.57527E-17 1.99849E-18
 -1        16-3.79818E-04 1.13945E-04 1.13945E-04-1.36491E-16 2.71259E-17 4.58094E-17
 -1        17-3.79818E-04 1.13945E-04 1.13945E-04 1.30866E-16 2.20952E-17-5.43938E-17
 -1        18-7.59636E-04 2.27891E-04 2.27891E-04-3.89401E-18-2.08147E-17 3.49549E-17
 -1        19-7.59636E-04 2.27891E-04 2.27891E-04 1.07397E-17 1.69556E-17 1.30533E-17
 -1        20-3.79818E-04 1.13945E-04 1.13945E-04-8.68311E-18 3.42007E-18-5.83434E-18
 -1        21-3.79818E-04 1.13945E-04 1.13945E-04 3.09173E-17-4.06674E-17 6.87817E-18
 -1        22-3.79818E-04 1.13945E-04 1.13945E-04-8.67122E-17 5.66660E-17-6.49685E-17
 -1        23-3.79818E-04 1.13945E-04 1.13945E-04 9.07304E-17 4.15318E-17 6.10099E-17
 -1        24-7.59636E-04 2.27891E-04 2.27891E-04-7.55413E-17-6.06370E-17-3.47608E-17
 -3
    1PSTEP                       250          84           1          
  100CL  184 7.14781E-01          24                     0   84           1
 -4  DISP        4    1
 -5  D1          1    2    1    0
 -5  D2          1    2    2    0
 -5  D3          1    2    3    0
 -5  ALL         1    2    0    0    1ALL
 -1         1 0.00000E+00 0.00000E+00 0.00000E+00
 -1         2-4.66395E-01 0.00000E+00 0.00000E+00
 -1         3-1.04885E+01 0.00000E+00 0.00000E+00
 -1         4-1.09549E+01 0.00000E+00 0.00000E+00
 -1         5-2.09770E+01 0.00000E+00 0.00000E+00
 -1         6-2.14434E+01 0.00000E+00 0.00000E+00
 -1         7 0.00000E+00 1.39834E-01 0.00000E+00
 -1         8-4.66395E-01 1.39834E-01 0.00000E+00
 -1         9-1.04885E+01 1.39834E-01 0.00000E+00
 -1        10-1.09549E+01 1.39834E-01 0.00000E+00
 -1        11-2.09770E+01 1.39834E-01 0.00000E+00
 -1        12-2.14434E+01 1.39834E-01 0.00000E+00
 -1        13 0.00000E+00 0.00000E+00 1.95767E-01
 -1        14-4.66395E-01 0.00000E+00 1.95767E-01
 -1        15-1.04885E+01 0.00000E+00 1.95767E-01
 -1        16-1.09549E+01 0.00000E+00 1.95767E-01
 -1        17-2.09770E+01 0.00000E+00 1.95767E-01
 -1        18-2.14434E+01 0.00000E+00 1.95767E-01
 -1        19 0.00000E+00 1.39834E-01 1.95767E-01
 -1        20-4.66395E-01 1.39834E-01 1.95767E-01
 -1        21-1.04885E+01 1.39834E-01 1.95767E-01
 -1        22-1.09549E+01 1.39834E-01 1.95767E-01
 -1        23-2.09770E+01 1.39834E-01 1.95767E-01
 -1        24-2.14434E+01 1.39834E-01 1.95767E-01
 -3
    1PSTEP                       251          84           1          
  100CL  184 7.14781E-01          24                     0   84           1
 -4  STRESS      6    1
 -5  SXX         1    4    1    1
 -5  SYY         1    4    2    2
 -5  SZZ         1    4    3    3
 -5  SXY         1    4    1    2
 -5  SYZ         1    4    2    3
 -5  SZX         1    4    3    1
 -1         1-1.95495E+02-7.65712E-12-5.92823E-12-2.47088E-15 5.06456E-15-3.78087E-16
 -1         2-9.77473E+01 7.55727E-13 1.13283E-12-2.92987E-12-1.35196E-15-2.42101E-12
 -1         3-9.77473E+01 1.03972E-12-8.60409E-14 5.38355E-12-7.52598E-17 5.36950E-12
 -1         4-9.77473E+01-2.21798E-11-2.07006E-11 1.37116E-11 4.90665E-16 1.21919E-11
 -1         5-9.77473E+01-2.04997E-11-1.90525E-11-1.31580E-11 1.94029E-16-1.07329E-11
 -1         6-1.95495E+02-1.40214E-11-1.75246E-11-6.86681E-13-1.00501E-15 6.85875E-14
 -1         7-1.95495E+02-1.59346E-11-1.34371E-11 1.98912E-12 1.19396E-12 2.34368E-15
 -1         8-9.77473E+01-3.43140E-12-2.81364E-12-1.93407E-12 5.03061E-13-2.07111E-12
 -1         9-9.77473E+01 1.16196E-11 6.73105E-12 3.07234E-13-3.56067E-12 4.55248E-13
 -1        10-9.77473E+01-4.80732E-12 1.93417E-12 8.93101E-12 4.36247E-12-1.03407E-11
 -1        11-9.77473E+01 1.75649E-12 7.54930E-12-1.02324E-11 3.15638E-12 1.23559E-11
 -1        12-1.95495E+02 1.96295E-11 1.00802E-11 7.49424E-12-5.83944E-12-2.40421E-13
 -1        13-1.95495E+02-1.20119E-11-1.35603E-11 3.92573E-15 4.96920E-13 2.07209E-12
 -1        14-9.77473E+01-1.83275E-12-2.87523E-12-2.43551E-12 1.68926E-13-1.38718E-12
 -1        15-9.77473E+01-1.24115E-12 7.60678E-12-2.16991E-12-2.62382E-12-3.86106E-14
 -1        16-9.77473E+01 1.43358E-11 3.62066E-12-1.81713E-11 3.67986E-12 7.74260E-12
 -1        17-9.77473E+01 1.65282E-11 9.12363E-12 1.82993E-11 3.03683E-12-7.62077E-12
 -1        18-1.95495E+02 6.55120E-13 1.34849E-11-9.34549E-13-4.20159E-12 4.04495E-12
 -1        19-1.95495E+02-1.87646E-11-1.96610E-11 1.72812E-12 1.69480E-12 1.91359E-12
 -1        20-9.77473E+01-5.33140E-12-6.11762E-12-1.57341E-12 6.72136E-13-1.10652E-12
 -1        21-9.77473E+01-2.92074E-11-2.41436E-11 3.97403E-12-6.18344E-12 1.69340E-12
 -1        22-9.77473E+01-6.87484E-12-1.23490E-11-1.25724E-11 8.03820E-12-9.82519E-12
 -1        23-9.77473E+01-7.90995E-12-1.09981E-11 1.28700E-11 6.19084E-12 9.06481E-12
 -1        24-1.95495E+02-5.93784E-11-5.25791E-11-1.05543E-11-1.00316E-11-4.88949E-12
 -3
    1PSTEP                       252          84           1          
  100CL  184 7.14781E-01          24                     0   84           1
 -4  TOSTRAIN    6    1
 -5  EXX         1    4    1    1
 -5  EYY         1    4    2    2
 -5  EZZ         1    4    3    3
 -5  EXY         1    4    1    2
 -5  EYZ         1    4    2    3
 -5  EZX         1    4    3    1
 -1         1-9.32318E-04 2.79695E-04 2.79695E-04-1.53138E-20 3.13228E-20-2.31846E-21
 -1         2-4.66159E-04 1.39848E-04 1.39848E-04-1.81423E-17-8.36148E-21-1.49914E-17
 -1         3-4.66159E-04 1.39848E-04 1.39848E-04 3.33361E-17-4.65459E-22 3.32491E-17
 -1         4-4.66159E-04 1.39848E-04 1.39848E-04 8.49049E-17 3.03462E-21 7.54947E-17
 -1         5-4.66159E-04 1.39848E-04 1.39848E-04-8.14772E-17 1.20001E-21-6.64606E-17
 -1         6-9.32318E-04 2.79695E-04 2.79695E-04-4.25206E-18-6.21571E-21 4.24670E-19
 -1         7-9.32318E-04 2.79695E-04 2.79695E-04 1.23470E-17 7.38428E-18 1.44849E-20
 -1         8-4.66159E-04 1.39848E-04 1.39848E-04-1.19612E-17 3.11128E-18-1.28247E-17
 -1         9-4.66159E-04 1.39848E-04 1.39848E-04 1.82706E-18-2.20217E-17 2.81897E-18
 -1        10-4.66159E-04 1.39848E-04 1.39848E-04 5.52272E-17 2.69806E-17-6.40315E-17
 -1        11-4.66159E-04 1.39848E-04 1.39848E-04-6.33132E-17 1.95212E-17 7.65103E-17
 -1        12-9.32318E-04 2.79695E-04 2.79695E-04 4.65013E-17-3.61152E-17-1.48870E-18
 -1        13-9.32318E-04 2.79695E-04 2.79695E-04 2.43096E-20 3.07330E-18 1.28620E-17
 -1        14-4.66159E-04 1.39848E-04 1.39848E-04-1.50812E-17 1.04476E-18-8.57411E-18
 -1        15-4.66159E-04 1.39848E-04 1.39848E-04-1.34366E-17-1.62275E-17-3.17353E-19
 -1        16-4.66159E-04 1.39848E-04 1.39848E-04-1.12521E-16 2.27589E-17 4.78655E-17
 -1        17-4.66159E-04 1.39848E-04 1.39848E-04 1.13313E-16 1.87819E-17-4.71561E-17
 -1        18-9.32318E-04 2.79695E-04 2.79695E-04-5.78693E-18-2.59856E-17 2.51137E-17
 -1        19-9.32318E-04 2.79695E-04 2.79695E-04 1.07268E-17 1.04818E-17 1.18781E-17
 -1        20-4.66159E-04 1.39848E-04 1.39848E-04-9.72993E-18 4.15696E-18-6.83744E-18
 -1        21-4.66159E-04 1.39848E-04 1.39848E-04 2.46987E-17-3.82427E-17 1.05022E-17
 -1        22-4.66159E-04 1.39848E-04 1.39848E-04-7.77602E-17 4.97138E-17-6.08233E-17
 -1        23-4.66159E-04 1.39848E-04 1.39848E-04 7.96143E-17 3.82885E-17 5.60875E-17
 -1        24-9.32318E-04 2.79695E-04 2.79695E-04-6.55135E-17-6.20423E-17-3.03642E-17
 -3
    1PSTEP                       253          85           1          
  100CL  185 7.23781E-01          24                     0   85           1
 -4  DISP        4    1
 -5  D1          1    2    1    0
 -5  D2          1    2    2    0
 -5  D3          1    2    3    0
 -5  ALL         1    2    0    0    1ALL
 -1         1 0.00000E+00 0.00000E+00 0.00000E+00
 -1         2-5.52691E-01 0.00000E+00 0.00000E+00
 -1         3-1.05804E+01 0.00000E+00 0.00000E+00
 -1         4-1.11331E+01 0.00000E+00 0.00000E+00
 -1         5-2.11607E+01 0.00000E+00 0.00000E+00
 -1         6-2.17134E+01 0.00000E+00 0.00000E+00
 -1         7 0.00000E+00 1.65688E-01 0.00000E+00
 -1         8-5.52691E-01 1.65688E-01 0.00000E+00
 -1         9-1.05804E+01 1.65688E-01 0.00000E+00
 -1        10-1.11331E+01 1.65688E-01 0.00000E+00
 -1        11-2.11607E+01 1.65688E-01 0.00000E+00
 -1        12-2.17134E+01 1.65688E-01 0.00000E+00
 -1        13 0.00000E+00 0.00000E+00 2.31963E-01
 -1        14-5.52691E-01 0.00000E+00 2.31963E-01
 -1        15-1.05804E+01 0.00000E+00 2.31963E-01
 -1        16-1.11331E+01 0.00000E+00 2.31963E-01
 -1        17-2.11607E+01 0.00000E+00 2.31963E-01
 -1        18-2.17134E+01 0.00000E+00 2.31963E-01
 -1        19 0.00000E+00 1.65688E-01 2.31963E-01
 -1        20-5.52691E-01 1.65688E-01 2.31963E-01
 -1        21-1.05804E+01 1.65688E-01 2.31963E-01
 -1        22-1.11331E+01 1.65688E-01 2.31963E-01
 -1        23-2.11607E+01 1.65688E-01 2.31963E-01
 -1        24-2.17134E+01 1.65688E-01 2.31963E-01
 -3
    1PSTEP                       254          85           1          
  100CL  185 7.23781E-01          24                     0   85           1
 -4  STRESS      6    1
 -5  SXX         1    4    1    1
 -5  SYY         1    4    2    2
 -5  SZZ         1    4    3    3
 -5  SXY         1    4    1    2
 -5  SYZ         1    4    2    3
 -5  SZX         1    4    3    1
 -1         1-2.31583E+02-2.63127E-12-3.58742E-12 1.22290E-15 2.27805E-15-1.35373E-15
 -1         2-1.15791E+02-4.90040E-12-3.20164E-12 3.23193E-12 2.83277E-16 1.00930E-12
 -1         3-1.15791E+02-1.45326E-12-5.11919E-12 2.44981E-12-1.90218E-16 3.19075E-12
 -1         4-1.15791E+02-3.68429E-11-3.18191E-11 2.70347E-11 5.51389E-16 1.84058E-11
 -1         5-1.15791E+02-3.59531E-11-3.05964E-11-2.64133E-11-2.02564E-15-1.71085E-11
 -1         6-2.31583E+02-1.03921E-11-1.96569E-11 1.20906E-12 1.12522E-15-2.96519E-13
 -1         7-2.31583E+02 5.60942E-12 2.65984E-12-2.10702E-12-4.28466E-13 3.77899E-16
 -1         8-1.15791E+02 6.57212E-14 1.96487E-12 2.17781E-12 7.90595E-13-2.58211E-12
 -1         9-1.15791E+02 2.97094E-11 1.93731E-11-5.90796E-12-5.01243E-12 5.93057E-13
 -1        10-1.15791E+02 3.17576E-12 1.33086E-11 1.86756E-11 5.41840E-12-1.54811E-11
 -1        11-1.15791E+02 6.21236E-12 1.62198E-11-1.86501E-11 4.61835E-12 1.60815E-11
 -1        12-2.31583E+02 5.78062E-11 3.62896E-11 1.53583E-11-9.23771E-12-9.80801E-14
 -1        13-2.31583E+02-4.22981E-13-2.59230E-13-5.58998E-15-1.36127E-12 1.63061E-13
 -1        14-1.15791E+02 1.06136E-12 5.90692E-13-1.80001E-12 1.18864E-13 1.09151E-12
 -1        15-1.15791E+02 6.20660E-12 1.65242E-11-1.71687E-12-4.66404E-12-2.45901E-12
 -1        16-1.15791E+02 2.18613E-11 1.16974E-11-2.09161E-11 3.58360E-12 1.32743E-11
 -1        17-1.15791E+02 2.24471E-11 1.48676E-11 2.06449E-11 3.27573E-12-1.32605E-11
 -1        18-2.31583E+02 1.58005E-11 3.23902E-11-8.57612E-13-8.52875E-12 6.80035E-12
 -1        19-2.31583E+02-7.34902E-12-9.08915E-12 6.92340E-13-1.79201E-12 1.73733E-12
 -1        20-1.15791E+02-1.51892E-12-1.85531E-12-1.45104E-12 9.09176E-13-1.71363E-12
 -1        21-1.15791E+02-2.74177E-11-2.37492E-11 4.45344E-12-9.67772E-12 2.86184E-12
 -1        22-1.15791E+02-2.90708E-12-7.94059E-12-1.46790E-11 9.00678E-12-1.32846E-11
 -1        23-1.15791E+02-4.82641E-12-7.73397E-12 1.52534E-11 7.89717E-12 1.20898E-11
 -1        24-2.31583E+02-5.48793E-11-5.04985E-11-1.04733E-11-1.77833E-11-6.59059E-12
 -3
    1PSTEP                       255          85           1          
  100CL  185 7.23781E-01          24                     0   85           1
 -4  TOSTRAIN    6    1
 -5  EXX         1    4    1    1
 -5  EYY         1    4    2    2
 -5  EZZ         1    4    3    3
 -5  EXY         1    4    1    2
 -5  EYZ         1    4    2    3
 -5  EZX         1    4    3    1
 -1         1-1.10473E-03 3.31418E-04 3.31418E-04 7.55490E-21 1.40867E-20-8.41530E-21
 -1         2-5.52363E-04 1.65709E-04 1.65709E-04 2.00138E-17 1.75168E-21 6.25013E-18
 -1         3-5.52363E-04 1.65709E-04 1.65709E-04 1.51705E-17-1.17624E-21 1.97588E-17
 -1         4-5.52363E-04 1.65709E-04 1.65709E-04 1.67413E-16 3.40959E-21 1.13978E-16
 -1         5-5.52363E-04 1.65709E-04 1.65709E-04-1.63565E-16-1.25258E-20-1.05945E-16
 -1         6-1.10473E-03 3.31418E-04 3.31418E-04 7.48712E-18 6.95797E-21-1.83625E-18
 -1         7-1.10473E-03 3.31418E-04 3.31418E-04-1.30854E-17-2.64947E-18 2.37422E-21
 -1         8-5.52363E-04 1.65709E-04 1.65709E-04 1.34674E-17 4.88875E-18-1.59898E-17
 -1         9-5.52363E-04 1.65709E-04 1.65709E-04-3.67342E-17-3.09950E-17 3.67254E-18
 -1        10-5.52363E-04 1.65709E-04 1.65709E-04 1.15500E-16 3.35054E-17-9.58670E-17
 -1        11-5.52363E-04 1.65709E-04 1.65709E-04-1.15356E-16 2.85582E-17 9.95852E-17
 -1        12-1.10473E-03 3.31418E-04 3.31418E-04 9.53783E-17-5.71226E-17-6.07296E-19
 -1        13-1.10473E-03 3.31418E-04 3.31418E-04-3.46064E-20-8.41758E-18 1.01266E-18
 -1        14-5.52363E-04 1.65709E-04 1.65709E-04-1.11466E-17 7.35013E-19 6.76067E-18
 -1        15-5.52363E-04 1.65709E-04 1.65709E-04-1.06318E-17-2.88407E-17-1.53279E-17
 -1        16-5.52363E-04 1.65709E-04 1.65709E-04-1.29524E-16 2.21596E-17 8.21013E-17
 -1        17-5.52363E-04 1.65709E-04 1.65709E-04 1.27844E-16 2.02559E-17-8.20500E-17
 -1        18-1.10473E-03 3.31418E-04 3.31418E-04-5.31078E-18-5.27387E-17 4.22433E-17
 -1        19-1.10473E-03 3.31418E-04 3.31418E-04 4.29979E-18-1.10811E-17 1.07895E-17
 -1        20-5.52363E-04 1.65709E-04 1.65709E-04-8.97938E-18 5.62201E-18-1.05962E-17
 -1        21-5.52363E-04 1.65709E-04 1.65709E-04 2.76883E-17-5.98434E-17 1.77681E-17
 -1        22-5.52363E-04 1.65709E-04 1.65709E-04-9.07896E-17 5.56946E-17-8.22195E-17
 -1        23-5.52363E-04 1.65709E-04 1.65709E-04 9.43632E-17 4.88332E-17 7.47982E-17
 -1        24-1.10473E-03 3.31418E-04 3.31418E-04-6.50440E-17-1.09965E-16-4.09482E-17
 -3
    1PSTEP                       256          86           1          
  100CL  186 7.32781E-01          24                     0   86           1
 -4  DISP        4    1
 -5  D1          1    2    1    0
 -5  D2          1    2    2    0
 -5  D3          1    2    3    0
 -5  ALL         1    2    0    0    1ALL
 -1         1 0.00000E+00 0.00000E+00 0.00000E+00
 -1         2-6.38914E-01 0.00000E+00 0.00000E+00
 -1         3-1.06723E+01 0.00000E+00 0.00000E+00
 -1         4-1.13112E+01 0.00000E+00 0.00000E+00
 -1         5-2.13445E+01 0.00000E+00 0.00000E+00
 -1         6-2.19834E+01 0.00000E+00 0.00000E+00
 -1         7 0.00000E+00 1.91515E-01 0.00000E+00
 -1         8-6.38914E-01 1.91515E-01 0.00000E+00
 -1         9-1.06723E+01 1.91515E-01 0.00000E+00
 -1        10-1.13112E+01 1.91515E-01 0.00000E+00
 -1        11-2.13445E+01 1.91515E-01 0.00000E+00
 -1        12-2.19834E+01 1.91515E-01 0.00000E+00
 -1        13 0.00000E+00 0.00000E+00 2.68121E-01
 -1        14-6.38914E-01 0.00000E+00 2.68121E-01
 -1        15-1.06723E+01 0.00000E+00 2.68121E-01
 -1        16-1.13112E+01 0.00000E+00 2.68121E-01
 -1        17-2.13445E+01 0.00000E+00 2.68121E-01
 -1        18-2.19834E+01 0.00000E+00 2.68121E-01
 -1        19 0.00000E+00 1.91515E-01 2.68121E-01
 -1        20-6.38914E-01 1.91515E-01 2.68121E-01
 -1        21-1.06723E+01 1.91515E-01 2.68121E-01
 -1        22-1.13112E+01 1.91515E-01 2.68121E-01
 -1        23-2.13445E+01 1.91515E-01 2.68121E-01
 -1        24-2.19834E+01 1.91515E-01 2.68121E-01
 -3
    1PSTEP                       257          86           1          
  100CL  186 7.32781E-01          24                     0   86           1
 -4  STRESS      6    1
 -5  SXX         1    4    1    1
 -5  SYY         1    4    2    2
 -5  SZZ         1    4    3    3
 -5  SXY         1    4    1    2
 -5  SYZ         1    4    2    3
 -5  SZX         1    4    3    1
 -1         1-2.67614E+02-7.55411E-13-1.69959E-12-2.69962E-15 3.10618E-15 2.72228E-15
 -1         2-1.33807E+02-3.96707E-12-9.73355E-13 3.40983E-12-7.61163E-16-1.85197E-13
 -1         3-1.33807E+02-3.58075E-12-3.16438E-12-1.09322E-13 1.31740E-15 4.46685E-12
 -1         4-1.33807E+02-2.89043E-11-2.79318E-11 2.23768E-11 3.06760E-16 1.92509E-11
 -1         5-1.33807E+02-2.97278E-11-2.60821E-11-2.29231E-11-1.33102E-15-1.68355E-11
 -1         6-2.67614E+02-7.98115E-12-1.55910E-11-6.29969E-15-3.47121E-15-2.66365E-14
 -1         7-2.67614E+02 7.71648E-12 4.25590E-12-2.48183E-12 3.68607E-13-6.60037E-15
 -1         8-1.33807E+02 1.01589E-12 3.69051E-12 2.17027E-12 1.05732E-12-3.28837E-12
 -1         9-1.33807E+02 2.47814E-11 1.86970E-11-4.99956E-12-5.16412E-12 7.91488E-13
 -1        10-1.33807E+02 8.96341E-12 1.61209E-11 1.67585E-11 6.04310E-12-1.71969E-11
 -1        11-1.33807E+02 8.75136E-12 1.83456E-11-1.66753E-11 5.04357E-12 1.82304E-11
 -1        12-2.67614E+02 5.23835E-11 3.46173E-11 1.23000E-11-9.69752E-12-6.77625E-15
 -1        13-2.67614E+02 4.29834E-13-1.58986E-12-1.86690E-15-1.78134E-12 1.35180E-12
 -1        14-1.33807E+02 8.51518E-13 8.95689E-13-9.55744E-13-2.05960E-13 4.90539E-13
 -1        15-1.33807E+02 2.03193E-12 1.68972E-11-5.09477E-12-4.53579E-12-2.20702E-12
 -1        16-1.33807E+02 3.15897E-11 1.56657E-11-2.85260E-11 4.32041E-12 1.20639E-11
 -1        17-1.33807E+02 3.06525E-11 2.01737E-11 2.63924E-11 4.17287E-12-1.34443E-11
 -1        18-2.67614E+02 1.56790E-11 3.52001E-11-7.36033E-14-7.09417E-12 7.24714E-12
 -1        19-2.67614E+02-4.45916E-12-8.99525E-12-4.91982E-14-1.40685E-12 2.72688E-12
 -1        20-1.33807E+02-8.45965E-13-1.12089E-12-9.79410E-13 8.50922E-13-1.92611E-12
 -1        21-1.33807E+02-3.72776E-11-2.89053E-11 4.88775E-12-9.70334E-12 2.66767E-12
 -1        22-1.33807E+02 1.74879E-12-8.01949E-12-1.77498E-11 1.03711E-11-1.45846E-11
 -1        23-1.33807E+02-4.90245E-12-9.40361E-12 1.89648E-11 9.22108E-12 1.40525E-11
 -1        24-2.67614E+02-7.18767E-11-6.25275E-11-1.62083E-11-1.68129E-11-7.96212E-12
 -3
    1PSTEP                       258          86           1          
  100CL  186 7.32781E-01          24                     0   86           1
 -4  TOSTRAIN    6    1
 -5  EXX         1    4    1    1
 -5  EYY         1    4    2    2
 -5  EZZ         1    4    3    3
 -5  EXY         1    4    1    2
 -5  EYZ         1    4    2    3
 -5  EZX         1    4    3    1
 -1         1-1.27696E-03 3.83088E-04 3.83088E-04-1.67258E-20 1.92042E-20 1.68727E-20
 -1         2-6.38480E-04 1.91544E-04 1.91544E-04 2.11166E-17-4.70594E-21-1.14689E-18
 -1         3-6.38480E-04 1.91544E-04 1.91544E-04-6.77025E-19 8.14490E-21 2.76625E-17
 -1         4-6.38480E-04 1.91544E-04 1.91544E-04 1.38576E-16 1.89656E-21 1.19218E-16
 -1         5-6.38480E-04 1.91544E-04 1.91544E-04-1.41959E-16-8.22910E-21-1.04260E-16
 -1         6-1.27696E-03 3.83088E-04 3.83088E-04-3.90385E-20-2.14610E-20-1.64957E-19
 -1         7-1.27696E-03 3.83088E-04 3.83088E-04-1.54207E-17 2.27894E-18-4.09027E-20
 -1         8-6.38480E-04 1.91544E-04 1.91544E-04 1.34146E-17 6.53698E-18-2.03644E-17
 -1         9-6.38480E-04 1.91544E-04 1.91544E-04-3.10674E-17-3.19275E-17 4.90155E-18
 -1        10-6.38480E-04 1.91544E-04 1.91544E-04 1.03677E-16 3.73619E-17-1.06498E-16
 -1        11-6.38480E-04 1.91544E-04 1.91544E-04-1.03139E-16 3.11822E-17 1.12898E-16
 -1        12-1.27696E-03 3.83088E-04 3.83088E-04 7.64285E-17-5.99556E-17-4.19732E-20
 -1        13-1.27696E-03 3.83088E-04 3.83088E-04-1.15671E-20-1.10132E-17 8.39933E-18
 -1        14-6.38480E-04 1.91544E-04 1.91544E-04-5.91878E-18-1.27336E-18 3.05177E-18
 -1        15-6.38480E-04 1.91544E-04 1.91544E-04-3.15511E-17-2.80428E-17-1.38075E-17
 -1        16-6.38480E-04 1.91544E-04 1.91544E-04-1.76657E-16 2.67112E-17 7.45703E-17
 -1        17-6.38480E-04 1.91544E-04 1.91544E-04 1.63444E-16 2.57990E-17-8.31857E-17
 -1        18-1.27696E-03 3.83088E-04 3.83088E-04-4.55783E-19-4.38602E-17 4.50258E-17
 -1        19-1.27696E-03 3.83088E-04 3.83088E-04-3.05658E-19-8.69794E-18 1.69434E-17
 -1        20-6.38480E-04 1.91544E-04 1.91544E-04-6.06583E-18 5.26088E-18-1.19000E-17
 -1        21-6.38480E-04 1.91544E-04 1.91544E-04 3.04852E-17-5.99915E-17 1.65623E-17
 -1        22-6.38480E-04 1.91544E-04 1.91544E-04-1.09706E-16 6.41198E-17-9.02785E-17
 -1        23-6.38480E-04 1.91544E-04 1.91544E-04 1.17290E-16 5.70099E-17 8.69395E-17
 -1        24-1.27696E-03 3.83088E-04 3.83088E-04-1.00687E-16-1.03947E-16-4.94796E-17
 -3
    1PSTEP                       259          87           1          
  100CL  187 7.41781E-01          24                     0   87           1
 -4  DISP        4    1
 -5  D1          1    2    1    0
 -5  D2          1    2    2    0
 -5  D3          1    2    3    0
 -5  ALL         1    2    0    0    1ALL
 -1         1 0.00000E+00 0.00000E+00 0.00000E+00
 -1         2-7.25101E-01 0.00000E+00 0.00000E+00
 -1         3-1.07642E+01 0.00000E+00 0.00000E+00
 -1         4-1.14893E+01 0.00000E+00 0.00000E+00
 -1         5-2.15283E+01 0.00000E+00 0.00000E+00
 -1         6-2.22534E+01 0.00000E+00 0.00000E+00
 -1         7 0.00000E+00 2.17325E-01 0.00000E+00
 -1         8-7.25101E-01 2.17325E-01 0.00000E+00
 -1         9-1.07642E+01 2.17325E-01 0.00000E+00
 -1        10-1.14893E+01 2.17325E-01 0.00000E+00
 -1        11-2.15283E+01 2.17325E-01 0.00000E+00
 -1        12-2.22534E+01 2.17325E-01 0.00000E+00
 -1        13 0.00000E+00 0.00000E+00 3.04255E-01
 -1        14-7.25101E-01 0.00000E+00 3.04255E-01
 -1        15-1.07642E+01 0.00000E+00 3.04255E-01
 -1        16-1.14893E+01 0.00000E+00 3.04255E-01
 -1        17-2.15283E+01 0.00000E+00 3.04255E-01
 -1        18-2.22534E+01 0.00000E+00 3.04255E-01
 -1        19 0.00000E+00 2.17325E-01 3.04255E-01
 -1        20-7.25101E-01 2.17325E-01 3.04255E-01
 -1        21-1.07642E+01 2.17325E-01 3.04255E-01
 -1        22-1.14893E+01 2.17325E-01 3.04255E-01
 -1        23-2.15283E+01 2.17325E-01 3.04255E-01
 -1        24-2.22534E+01 2.17325E-01 3.04255E-01
 -3
    1PSTEP                       260          87           1          
  100CL  187 7.41781E-01          24                     0   87           1
 -4  STRESS      6    1
 -5  SXX         1    4    1    1
 -5  SYY         1    4    2    2
 -5  SZZ         1    4    3    3
 -5  SXY         1    4    1    2
 -5  SYZ         1    4    2    3
 -5  SZX         1    4    3    1
 -1         1-3.03604E+02 2.27463E-13-1.86492E-12-5.42036E-16 2.69142E-16-2.01707E-15
 -1         2-1.51802E+02-6.66809E-12 6.31263E-13 5.25347E-12 1.93949E-15-3.82088E-12
 -1         3-1.51802E+02-3.49485E-12-1.87634E-12 6.51653E-13-6.68039E-17 8.54793E-12
 -1         4-1.51802E+02-3.92743E-11-3.49302E-11 2.99538E-11-3.10252E-15 2.23623E-11
 -1         5-1.51802E+02-4.16257E-11-3.32296E-11-3.16761E-11 1.55774E-15-1.83280E-11
 -1         6-3.03604E+02-1.06686E-11-2.11966E-11 5.41843E-13-3.05809E-15-6.07992E-13
 -1         7-3.03604E+02 1.24605E-11 5.69391E-12-5.19174E-12 3.16002E-12 5.86133E-15
 -1         8-1.51802E+02-1.11231E-12 2.93774E-12 2.65787E-12 8.64147E-13-1.25300E-12
 -1         9-1.51802E+02 3.18437E-11 2.23605E-11-6.89435E-12-6.29763E-12-2.02168E-12
 -1        10-1.51802E+02 8.59498E-12 1.83870E-11 2.25677E-11 8.53713E-12-1.99980E-11
 -1        11-1.51802E+02 9.39342E-12 2.25287E-11-2.24938E-11 6.06029E-12 2.09693E-11
 -1        12-3.03604E+02 7.27083E-11 4.68691E-11 1.95562E-11-9.69761E-12-5.56650E-13
 -1        13-3.03604E+02-3.51249E-13-1.13545E-11-7.82575E-15-3.30638E-12 4.36168E-12
 -1        14-1.51802E+02-1.05068E-11-5.60783E-12 8.86508E-12-2.23992E-12-1.63903E-12
 -1        15-1.51802E+02-6.31797E-12 1.29148E-11-1.45169E-11-7.78780E-12-1.72287E-14
 -1        16-1.51802E+02 3.05250E-11 1.09478E-11-2.83330E-11 3.84246E-12 1.34326E-11
 -1        17-1.51802E+02 2.77330E-11 1.91455E-11 2.37357E-11 3.31288E-12-1.53045E-11
 -1        18-3.03604E+02 2.09683E-11 3.77119E-11 1.55572E-13-1.07093E-11 7.13254E-12
 -1        19-3.03604E+02 2.28000E-11 7.00586E-12-7.19299E-12-1.37635E-13 3.20492E-12
 -1        20-1.51802E+02 4.34176E-13 2.09943E-12 5.27249E-12-1.37891E-12 3.46531E-13
 -1        21-1.51802E+02-3.57247E-11-2.76093E-11-1.39197E-12-1.40902E-11 8.05380E-13
 -1        22-1.51802E+02 1.36489E-11-4.22016E-13-1.51843E-11 1.23850E-11-1.67408E-11
 -1        23-1.51802E+02-5.46370E-12-9.30419E-12 1.78428E-11 9.37455E-12 1.57665E-11
 -1        24-3.03604E+02-6.38646E-11-6.24906E-11-1.20703E-11-2.04102E-11-1.00861E-11
 -3
    1PSTEP                       261          87           1          
  100CL  187 7.41781E-01          24                     0   87           1
 -4  TOSTRAIN    6    1
 -5  EXX         1    4    1    1
 -5  EYY         1    4    2    2
 -5  EZZ         1    4    3    3
 -5  EXY         1    4    1    2
 -5  EYZ         1    4    2    3
 -5  EZX         1    4    3    1
 -1         1-1.44909E-03 4.34728E-04 4.34728E-04-3.34690E-21 1.66370E-21-1.25295E-20
 -1         2-7.24546E-04 2.17364E-04 2.17364E-04 3.25356E-17 1.19889E-20-2.36634E-17
 -1         3-7.24546E-04 2.17364E-04 2.17364E-04 4.03578E-18-4.12948E-22 5.29387E-17
 -1         4-7.24546E-04 2.17364E-04 2.17364E-04 1.85509E-16-1.91782E-20 1.38494E-16
 -1         5-7.24546E-04 2.17364E-04 2.17364E-04-1.96175E-16 9.62917E-21-1.13509E-16
 -1         6-1.44909E-03 4.34728E-04 4.34728E-04 3.35570E-18-1.89036E-20-3.76542E-18
 -1         7-1.44909E-03 4.34728E-04 4.34728E-04-3.22748E-17 1.95337E-17 3.63202E-20
 -1         8-7.24546E-04 2.17364E-04 2.17364E-04 1.63999E-17 5.34172E-18-7.76001E-18
 -1         9-7.24546E-04 2.17364E-04 2.17364E-04-4.28737E-17-3.89288E-17-1.25206E-17
 -1        10-7.24546E-04 2.17364E-04 2.17364E-04 1.39590E-16 5.27722E-17-1.23851E-16
 -1        11-7.24546E-04 2.17364E-04 2.17364E-04-1.39092E-16 3.74617E-17 1.29866E-16
 -1        12-1.44909E-03 4.34728E-04 4.34728E-04 1.21548E-16-5.99458E-17-3.44746E-18
 -1        13-1.44909E-03 4.34728E-04 4.34728E-04-4.84744E-20-2.04384E-17 2.71147E-17
 -1        14-7.24546E-04 2.17364E-04 2.17364E-04 5.49029E-17-1.38460E-17-1.00997E-17
 -1        15-7.24546E-04 2.17364E-04 2.17364E-04-8.99058E-17-4.81403E-17-3.08953E-19
 -1        16-7.24546E-04 2.17364E-04 2.17364E-04-1.75471E-16 2.37522E-17 8.29879E-17
 -1        17-7.24546E-04 2.17364E-04 2.17364E-04 1.46999E-16 2.04786E-17-9.47029E-17
 -1        18-1.44909E-03 4.34728E-04 4.34728E-04 9.63484E-19-6.61998E-17 4.43345E-17
 -1        19-1.44909E-03 4.34728E-04 4.34728E-04-4.47156E-17-8.50791E-19 1.99235E-17
 -1        20-7.24546E-04 2.17364E-04 2.17364E-04 3.25693E-17-8.52376E-18 2.18357E-18
 -1        21-7.24546E-04 2.17364E-04 2.17364E-04-8.31337E-18-8.70983E-17 5.05616E-18
 -1        22-7.24546E-04 2.17364E-04 2.17364E-04-9.37318E-17 7.65580E-17-1.03610E-16
 -1        23-7.24546E-04 2.17364E-04 2.17364E-04 1.10365E-16 5.79487E-17 9.75235E-17
 -1        24-1.44909E-03 4.34728E-04 4.34728E-04-7.50312E-17-1.26165E-16-6.27074E-17
 -3
    1PSTEP                       262          88           1          
  100CL  188 7.50781E-01          24                     0   88           1
 -4  DISP        4    1
 -5  D1          1    2    1    0
 -5  D2          1    2    2    0
 -5  D3          1    2    3    0
 -5  ALL         1    2    0    0    1ALL
 -1         1 0.00000E+00 0.00000E+00 0.00000E+00
 -1         2-8.11285E-01 0.00000E+00 0.00000E+00
 -1         3-1.08561E+01 0.00000E+00 0.00000E+00
 -1         4-1.16674E+01 0.00000E+00 0.00000E+00
 -1         5-2.17122E+01 0.00000E+00 0.00000E+00
 -1         6-2.25234E+01 0.00000E+00 0.00000E+00
 -1         7 0.00000E+00 2.43129E-01 0.00000E+00
 -1         8-8.11285E-01 2.43129E-01 0.00000E+00
 -1         9-1.08561E+01 2.43129E-01 0.00000E+00
 -1        10-1.16674E+01 2.43129E-01 0.00000E+00
 -1        11-2.17122E+01 2.43129E-01 0.00000E+00
 -1        12-2.25234E+01 2.43129E-01 0.00000E+00
 -1        13 0.00000E+00 0.00000E+00 3.40381E-01
 -1        14-8.11285E-01 0.00000E+00 3.40381E-01
 -1        15-1.08561E+01 0.00000E+00 3.40381E-01
 -1        16-1.16674E+01 0.00000E+00 3.40381E-01
 -1        17-2.17122E+01 0.00000E+00 3.40381E-01
 -1        18-2.25234E+01 0.00000E+00 3.40381E-01
 -1        19 0.00000E+00 2.43129E-01 3.40381E-01
 -1        20-8.11285E-01 2.43129E-01 3.40381E-01
 -1        21-1.08561E+01 2.43129E-01 3.40381E-01
 -1        22-1.16674E+01 2.43129E-01 3.40381E-01
 -1        23-2.17122E+01 2.43129E-01 3.40381E-01
 -1        24-2.25234E+01 2.43129E-01 3.40381E-01
 -3
    1PSTEP                       263          88           1          
  100CL  188 7.50781E-01          24                     0   88           1
 -4  STRESS      6    1
 -5  SXX         1    4    1    1
 -5  SYY         1    4    2    2
 -5  SZZ         1    4    3    3
 -5  SXY         1    4    1    2
 -5  SYZ         1    4    2    3
 -5  SZX         1    4    3    1
 -1         1-3.39567E+02 2.06986E-12 1.19791E-12 7.82954E-15 2.05823E-15 2.39579E-15
 -1         2-1.69783E+02-1.82881E-12 7.09187E-12 2.23577E-12-6.92198E-16-8.20324E-12
 -1         3-1.69783E+02 4.20136E-12 1.81933E-12 6.25579E-12-1.03308E-15 9.48544E-12
 -1         4-1.69783E+02-4.28014E-11-2.88724E-11 3.37564E-11 3.80382E-16 1.56184E-11
 -1         5-1.69783E+02-4.34444E-11-2.83030E-11-3.30674E-11-4.67253E-15-1.23262E-11
 -1         6-3.39567E+02-8.88428E-12-1.99873E-11-9.50217E-13 3.99006E-16-3.39411E-13
 -1         7-3.39567E+02 5.82470E-12 6.74294E-13-3.94667E-12 5.82572E-12-4.30134E-15
 -1         8-1.69783E+02-1.88858E-12 2.41620E-12 2.51326E-13 7.17809E-13-3.83887E-13
 -1         9-1.69783E+02 3.54871E-11 1.99937E-11-5.63211E-12-4.85201E-12-4.86373E-12
 -1        10-1.69783E+02 8.13550E-13 1.78264E-11 2.20195E-11 9.50508E-12-2.07965E-11
 -1        11-1.69783E+02 7.61961E-12 2.39264E-11-2.25388E-11 6.55623E-12 2.08825E-11
 -1        12-3.39567E+02 7.74129E-11 4.73443E-11 2.31255E-11-5.28426E-12-2.55726E-13
 -1        13-3.39567E+02-3.75250E-12-2.09308E-11-5.17128E-15-3.01927E-12 7.49836E-12
 -1        14-1.69783E+02-1.55163E-11-8.59984E-12 1.31637E-11-3.23987E-12-4.45046E-12
 -1        15-1.69783E+02-7.34685E-12 3.82310E-12-1.48188E-11-9.17350E-12 4.42735E-12
 -1        16-1.69783E+02 1.60106E-11 3.27847E-12-1.69216E-11 2.22148E-12 1.06204E-11
 -1        17-1.69783E+02 1.50758E-11 1.19123E-11 1.28996E-11 7.96648E-13-1.14243E-11
 -1        18-3.39567E+02 1.80251E-11 2.15226E-11 3.08659E-13-1.31721E-11 1.40303E-12
 -1        19-3.39567E+02 3.25095E-11 1.10527E-11-1.00563E-11 2.81338E-12 4.05058E-12
 -1        20-1.69783E+02 7.51410E-13 3.05201E-12 8.16502E-12-2.52257E-12 1.62565E-12
 -1        21-1.69783E+02-2.09089E-11-2.28815E-11-6.20073E-12-1.40236E-11 8.73249E-13
 -1        22-1.69783E+02 1.46299E-11 5.09828E-12-8.74287E-12 1.17228E-11-1.44773E-11
 -1        23-1.69783E+02-4.50377E-12-6.51749E-12 1.10982E-11 7.34668E-12 1.42864E-11
 -1        24-3.39567E+02-3.68169E-11-5.21684E-11-4.63474E-12-1.84457E-11-1.39634E-11
 -3
    1PSTEP                       264          88           1          
  100CL  188 7.50781E-01          24                     0   88           1
 -4  TOSTRAIN    6    1
 -5  EXX         1    4    1    1
 -5  EYY         1    4    2    2
 -5  EZZ         1    4    3    3
 -5  EXY         1    4    1    2
 -5  EYZ         1    4    2    3
 -5  EZX         1    4    3    1
 -1         1-1.62119E-03 4.86357E-04 4.86357E-04 4.85161E-20 1.27208E-20 1.48542E-20
 -1         2-8.10595E-04 2.43178E-04 2.43178E-04 1.38472E-17-4.27808E-21-5.08066E-17
 -1         3-8.10595E-04 2.43178E-04 2.43178E-04 3.87451E-17-6.38491E-21 5.87480E-17
 -1         4-8.10595E-04 2.43178E-04 2.43178E-04 2.09070E-16 2.35092E-21 9.67324E-17
 -1         5-8.10595E-04 2.43178E-04 2.43178E-04-2.04803E-16-2.88783E-20-7.63421E-17
 -1         6-1.62119E-03 4.86357E-04 4.86357E-04-5.88516E-18 2.46603E-21-2.10218E-18
 -1         7-1.62119E-03 4.86357E-04 4.86357E-04-2.45472E-17 3.60055E-17-2.66495E-20
 -1         8-8.10595E-04 2.43178E-04 2.43178E-04 1.50480E-18 4.43637E-18-2.37760E-18
 -1         9-8.10595E-04 2.43178E-04 2.43178E-04-3.51906E-17-2.99875E-17-3.01234E-17
 -1        10-8.10595E-04 2.43178E-04 2.43178E-04 1.36069E-16 5.87455E-17-1.28803E-16
 -1        11-8.10595E-04 2.43178E-04 2.43178E-04-1.39309E-16 4.05203E-17 1.29336E-16
 -1        12-1.62119E-03 4.86357E-04 4.86357E-04 1.43796E-16-3.26590E-17-1.58381E-18
 -1        13-1.62119E-03 4.86357E-04 4.86357E-04-3.20409E-20-1.86604E-17 4.66374E-17
 -1        14-8.10595E-04 2.43178E-04 2.43178E-04 8.15292E-17-2.00238E-17-2.74656E-17
 -1        15-8.10595E-04 2.43178E-04 2.43178E-04-9.17799E-17-5.66962E-17 2.72863E-17
 -1        16-8.10595E-04 2.43178E-04 2.43178E-04-1.04804E-16 1.37297E-17 6.56426E-17
 -1        17-8.10595E-04 2.43178E-04 2.43178E-04 7.98936E-17 4.92363E-18-7.07371E-17
 -1        18-1.62119E-03 4.86357E-04 4.86357E-04 1.91169E-18-8.14090E-17 8.72783E-18
 -1        19-1.62119E-03 4.86357E-04 4.86357E-04-6.25465E-17 1.73879E-17 2.51932E-17
 -1        20-8.10595E-04 2.43178E-04 2.43178E-04 5.04383E-17-1.55906E-17 1.01214E-17
 -1        21-8.10595E-04 2.43178E-04 2.43178E-04-3.81895E-17-8.66717E-17 5.57061E-18
 -1        22-8.10595E-04 2.43178E-04 2.43178E-04-5.39341E-17 7.24520E-17-8.95025E-17
 -1        23-8.10595E-04 2.43178E-04 2.43178E-04 6.86857E-17 4.54057E-17 8.83095E-17
 -1        24-1.62119E-03 4.86357E-04 4.86357E-04-2.88070E-17-1.14002E-16-8.68280E-17
 -3
    1PSTEP                       265          89           1          
  100CL  189 7.59781E-01          24                     0   89           1
 -4  DISP        4    1
 -5  D1          1    2    1    0
 -5  D2          1    2    2    0
 -5  D3          1    2    3    0
 -5  ALL         1    2    0    0    1ALL
 -1         1 0.00000E+00 0.00000E+00 0.00000E+00
 -1         2-8.97494E-01 0.00000E+00 0.00000E+00
 -1         3-1.09480E+01 0.00000E+00 0.00000E+00
 -1         4-1.18455E+01 0.00000E+00 0.00000E+00
 -1         5-2.18959E+01 0.00000E+00 0.00000E+00
 -1         6-2.27934E+01 0.00000E+00 0.00000E+00
 -1         7 0.00000E+00 2.68934E-01 0.00000E+00
 -1         8-8.97494E-01 2.68934E-01 0.00000E+00
 -1         9-1.09480E+01 2.68934E-01 0.00000E+00
 -1        10-1.18455E+01 2.68934E-01 0.00000E+00
 -1        11-2.18959E+01 2.68934E-01 0.00000E+00
 -1        12-2.27934E+01 2.68934E-01 0.00000E+00
 -1        13 0.00000E+00 0.00000E+00 3.76508E-01
 -1        14-8.97494E-01 0.00000E+00 3.76508E-01
 -1        15-1.09480E+01 0.00000E+00 3.76508E-01
 -1        16-1.18455E+01 0.00000E+00 3.76508E-01
 -1        17-2.18959E+01 0.00000E+00 3.76508E-01
 -1        18-2.27934E+01 0.00000E+00 3.76508E-01
 -1        19 0.00000E+00 2.68934E-01 3.76508E-01
 -1        20-8.97494E-01 2.68934E-01 3.76508E-01
 -1        21-1.09480E+01 2.68934E-01 3.76508E-01
 -1        22-1.18455E+01 2.68934E-01 3.76508E-01
 -1        23-2.18959E+01 2.68934E-01 3.76508E-01
 -1        24-2.27934E+01 2.68934E-01 3.76508E-01
 -3
    1PSTEP                       266          89           1          
  100CL  189 7.59781E-01          24                     0   89           1
 -4  STRESS      6    1
 -5  SXX         1    4    1    1
 -5  SYY         1    4    2    2
 -5  SZZ         1    4    3    3
 -5  SXY         1    4    1    2
 -5  SYZ         1    4    2    3
 -5  SZX         1    4    3    1
 -1         1-3.75514E+02 8.77538E-13-2.33200E-13 1.10191E-14-2.22877E-15 7.16378E-15
 -1         2-1.87757E+02-3.84124E-12 2.77670E-12 3.74828E-12 1.53891E-15-4.11900E-12
 -1         3-1.87757E+02 1.60414E-12-2.20551E-12 4.25189E-12 1.03832E-15 5.59884E-12
 -1         4-1.87757E+02-4.16267E-11-2.91246E-11 3.23199E-11-5.87164E-16 1.55819E-11
 -1         5-1.87757E+02-4.17227E-11-2.88451E-11-3.25348E-11 4.83148E-16-1.38471E-11
 -1         6-3.75514E+02-9.49222E-12-2.00630E-11 5.57149E-13-3.11990E-15-8.01534E-13
 -1         7-3.75514E+02 9.04658E-12 3.67129E-12-3.85485E-12 3.12931E-12-3.45954E-15
 -1         8-1.87757E+02-1.41102E-13 4.00708E-12 1.81535E-12 1.10032E-12-2.49965E-12
 -1         9-1.87757E+02 3.53453E-11 2.08730E-11-6.74961E-12-4.44655E-12-2.45363E-12
 -1        10-1.87757E+02 2.76451E-12 1.86239E-11 2.13159E-11 7.98442E-12-2.01644E-11
 -1        11-1.87757E+02 8.29083E-12 2.32456E-11-2.25218E-11 6.24614E-12 2.04813E-11
 -1        12-3.75514E+02 7.42430E-11 4.62159E-11 2.06599E-11-6.33931E-12-2.21560E-13
 -1        13-3.75514E+02-1.16989E-12-1.10465E-11-6.27280E-15-2.83343E-12 4.63852E-12
 -1        14-1.87757E+02-7.21393E-12-3.65077E-12 6.00675E-12-1.79258E-12-1.80692E-12
 -1        15-1.87757E+02 3.60350E-13 9.04423E-12-7.60658E-12-7.50323E-12 1.63166E-12
 -1        16-1.87757E+02 1.80477E-11 8.16178E-12-1.76497E-11 2.36449E-12 1.11787E-11
 -1        17-1.87757E+02 1.79869E-11 1.32941E-11 1.59239E-11 1.44396E-12-1.20155E-11
 -1        18-3.75514E+02 1.72721E-11 2.43483E-11-2.62352E-13-1.21313E-11 3.71571E-12
 -1        19-3.75514E+02 1.39179E-11-4.39802E-14-5.18201E-12 2.98110E-13 3.88039E-12
 -1        20-1.87757E+02-5.43916E-14 9.06709E-13 3.41889E-12-6.93799E-13-5.44296E-13
 -1        21-1.87757E+02-2.28989E-11-2.49944E-11-1.35974E-12-1.19474E-11 2.97254E-12
 -1        22-1.87757E+02 5.36449E-12-1.13288E-12-1.12692E-11 1.03522E-11-1.42891E-11
 -1        23-1.87757E+02-4.08034E-12-6.65335E-12 1.28946E-11 7.68424E-12 1.39870E-11
 -1        24-3.75514E+02-4.28583E-11-5.31531E-11-6.60741E-12-1.84896E-11-1.31731E-11
 -3
    1PSTEP                       267          89           1          
  100CL  189 7.59781E-01          24                     0   89           1
 -4  TOSTRAIN    6    1
 -5  EXX         1    4    1    1
 -5  EYY         1    4    2    2
 -5  EZZ         1    4    3    3
 -5  EXY         1    4    1    2
 -5  EYZ         1    4    2    3
 -5  EZX         1    4    3    1
 -1         1-1.79331E-03 5.37992E-04 5.37992E-04 6.82599E-20-1.37724E-20 4.44254E-20
 -1         2-8.96653E-04 2.68996E-04 2.68996E-04 2.32161E-17 9.50951E-21-2.55123E-17
 -1         3-8.96653E-04 2.68996E-04 2.68996E-04 2.63353E-17 6.41618E-21 3.46781E-17
 -1         4-8.96653E-04 2.68996E-04 2.68996E-04 2.00183E-16-3.62830E-21 9.65114E-17
 -1         5-8.96653E-04 2.68996E-04 2.68996E-04-2.01514E-16 2.98555E-21-8.57661E-17
 -1         6-1.79331E-03 5.37992E-04 5.37992E-04 3.45092E-18-1.92790E-20-4.96457E-18
 -1         7-1.79331E-03 5.37992E-04 5.37992E-04-2.39882E-17 1.93371E-17-2.13660E-20
 -1         8-8.96653E-04 2.68996E-04 2.68996E-04 1.11879E-17 6.79931E-18-1.54823E-17
 -1         9-8.96653E-04 2.68996E-04 2.68996E-04-4.21247E-17-2.74769E-17-1.51973E-17
 -1        10-8.96653E-04 2.68996E-04 2.68996E-04 1.31707E-16 4.93387E-17-1.24895E-16
 -1        11-8.96653E-04 2.68996E-04 2.68996E-04-1.39205E-16 3.85972E-17 1.26857E-16
 -1        12-1.79331E-03 5.37992E-04 5.37992E-04 1.28545E-16-3.91729E-17-1.37228E-18
 -1        13-1.79331E-03 5.37992E-04 5.37992E-04-3.87642E-20-1.75088E-17 2.88644E-17
 -1        14-8.96653E-04 2.68996E-04 2.68996E-04 3.72047E-17-1.10770E-17-1.11246E-17
 -1        15-8.96653E-04 2.68996E-04 2.68996E-04-4.71136E-17-4.63652E-17 9.98720E-18
 -1        16-8.96653E-04 2.68996E-04 2.68996E-04-1.09319E-16 1.46110E-17 6.91196E-17
 -1        17-8.96653E-04 2.68996E-04 2.68996E-04 9.86295E-17 8.92278E-18-7.43807E-17
 -1        18-1.79331E-03 5.37992E-04 5.37992E-04-1.62499E-18-7.49636E-17 2.30967E-17
 -1        19-1.79331E-03 5.37992E-04 5.37992E-04-3.22463E-17 1.84213E-18 2.41470E-17
 -1        20-8.96653E-04 2.68996E-04 2.68996E-04 2.11010E-17-4.28724E-18-3.31494E-18
 -1        21-8.96653E-04 2.68996E-04 2.68996E-04-8.24008E-18-7.38272E-17 1.85762E-17
 -1        22-8.96653E-04 2.68996E-04 2.68996E-04-6.96174E-17 6.39702E-17-8.83391E-17
 -1        23-8.96653E-04 2.68996E-04 2.68996E-04 7.97778E-17 4.74837E-17 8.64575E-17
 -1        24-1.79331E-03 5.37992E-04 5.37992E-04-4.11024E-17-1.14254E-16-8.19422E-17
 -3
    1PSTEP                       268          90           1          
  100CL  190 7.68781E-01          24                     0   90           1
 -4  DISP        4    1
 -5  D1          1    2    1    0
 -5  D2          1    2    2    0
 -5  D3          1    2    3    0
 -5  ALL         1    2    0    0    1ALL
 -1         1 0.00000E+00 0.00000E+00 0.00000E+00
 -1         2-9.83754E-01 0.00000E+00 0.00000E+00
 -1         3-1.10398E+01 0.00000E+00 0.00000E+00
 -1         4-1.20236E+01 0.00000E+00 0.00000E+00
 -1         5-2.20797E+01 0.00000E+00 0.00000E+00
 -1         6-2.30634E+01 0.00000E+00 0.00000E+00
 -1         7 0.00000E+00 2.94749E-01 0.00000E+00
 -1         8-9.83754E-01 2.94749E-01 0.00000E+00
 -1         9-1.10398E+01 2.94749E-01 0.00000E+00
 -1        10-1.20236E+01 2.94749E-01 0.00000E+00
 -1        11-2.20797E+01 2.94749E-01 0.00000E+00
 -1        12-2.30634E+01 2.94749E-01 0.00000E+00
 -1        13 0.00000E+00 0.00000E+00 4.12648E-01
 -1        14-9.83754E-01 0.00000E+00 4.12648E-01
 -1        15-1.10398E+01 0.00000E+00 4.12648E-01
 -1        16-1.20236E+01 0.00000E+00 4.12648E-01
 -1        17-2.20797E+01 0.00000E+00 4.12648E-01
 -1        18-2.30634E+01 0.00000E+00 4.12648E-01
 -1        19 0.00000E+00 2.94749E-01 4.12648E-01
 -1        20-9.83754E-01 2.94749E-01 4.12648E-01
 -1        21-1.10398E+01 2.94749E-01 4.12648E-01
 -1        22-1.20236E+01 2.94749E-01 4.12648E-01
 -1        23-2.20797E+01 2.94749E-01 4.12648E-01
 -1        24-2.30634E+01 2.94749E-01 4.12648E-01
 -3
    1PSTEP                       269          90           1          
  100CL  190 7.68781E-01          24                     0   90           1
 -4  STRESS      6    1
 -5  SXX         1    4    1    1
 -5  SYY         1    4    2    2
 -5  SZZ         1    4    3    3
 -5  SXY         1    4    1    2
 -5  SYZ         1    4    2    3
 -5  SZX         1    4    3    1
 -1         1-4.11456E+02-1.68679E-14-1.35926E-12-1.13208E-14 4.76978E-15-7.54288E-16
 -1         2-2.05728E+02-3.79649E-12-4.93037E-13 2.42733E-12 1.15890E-15-2.06402E-12
 -1         3-2.05728E+02-8.14491E-13-6.16679E-12 3.79202E-12-3.14217E-15 3.38384E-12
 -1         4-2.05728E+02-3.55439E-11-2.56092E-11 2.78968E-11-3.61496E-15 1.43416E-11
 -1         5-2.05728E+02-3.62860E-11-2.72281E-11-2.77440E-11-7.73325E-16-1.50130E-11
 -1         6-4.11456E+02-7.66246E-12-1.73212E-11-6.46435E-13 9.70945E-15-4.03135E-13
 -1         7-4.11456E+02 5.82192E-12 2.48269E-12-2.72927E-12 1.77587E-12-9.36681E-15
 -1         8-2.05728E+02-1.72723E-12-6.80780E-13 1.05877E-12-2.09610E-13 1.84004E-12
 -1         9-2.05728E+02 2.88609E-11 1.37364E-11-5.55256E-12-5.91024E-12-7.77404E-12
 -1        10-2.05728E+02 5.23756E-12 2.03977E-11 1.88655E-11 7.53129E-12-2.15636E-11
 -1        11-2.05728E+02 8.67731E-12 2.14756E-11-1.94820E-11 5.65469E-12 1.87386E-11
 -1        12-4.11456E+02 6.55424E-11 4.16732E-11 1.79588E-11-7.69088E-12 1.39366E-12
 -1        13-4.11456E+02 2.29291E-14-6.17071E-12 9.57410E-15-1.39148E-12 1.77497E-12
 -1        14-2.05728E+02-9.11191E-12-5.30649E-12 7.82449E-12-1.56694E-12-1.17376E-12
 -1        15-2.05728E+02-4.82465E-12 6.27850E-12-1.18486E-11-6.76328E-12 1.10292E-12
 -1        16-2.05728E+02 2.62713E-11 1.52038E-11-2.31198E-11 3.61810E-12 1.23509E-11
 -1        17-2.05728E+02 2.22897E-11 1.55219E-11 1.95913E-11 2.64851E-12-1.29646E-11
 -1        18-4.11456E+02 1.62202E-11 2.82279E-11-9.40179E-15-1.00867E-11 4.07269E-12
 -1        19-4.11456E+02 2.22731E-11 1.37866E-11-5.75286E-12 3.79626E-13 4.45385E-14
 -1        20-2.05728E+02 9.41065E-13 2.63745E-12 4.97906E-12-1.77771E-12 1.85804E-12
 -1        21-2.05728E+02-3.01676E-11-2.87043E-11-1.92115E-12-1.26768E-11 5.92793E-13
 -1        22-2.05728E+02 1.20346E-11 6.10270E-12-1.37414E-11 1.11459E-11-1.34739E-11
 -1        23-2.05728E+02-4.02853E-12-7.09453E-12 1.49649E-11 8.30171E-12 1.45688E-11
 -1        24-4.11456E+02-5.28422E-11-5.55661E-11-1.00856E-11-1.77704E-11-1.18319E-11
 -3
    1PSTEP                       270          90           1          
  100CL  190 7.68781E-01          24                     0   90           1
 -4  TOSTRAIN    6    1
 -5  EXX         1    4    1    1
 -5  EYY         1    4    2    2
 -5  EZZ         1    4    3    3
 -5  EXY         1    4    1    2
 -5  EYZ         1    4    2    3
 -5  EZX         1    4    3    1
 -1         1-1.96549E-03 5.89648E-04 5.89648E-04-7.00505E-20 2.94691E-20-4.70665E-21
 -1         2-9.82747E-04 2.94824E-04 2.94824E-04 1.50353E-17 7.16003E-21-1.27848E-17
 -1         3-9.82747E-04 2.94824E-04 2.94824E-04 2.34883E-17-1.94133E-20 2.09599E-17
 -1         4-9.82747E-04 2.94824E-04 2.94824E-04 1.72797E-16-2.23343E-20 8.88335E-17
 -1         5-9.82747E-04 2.94824E-04 2.94824E-04-1.71850E-16-4.77783E-21-9.29926E-17
 -1         6-1.96549E-03 5.89648E-04 5.89648E-04-4.00417E-18 5.99879E-20-2.49693E-18
 -1         7-1.96549E-03 5.89648E-04 5.89648E-04-1.69918E-17 1.09719E-17-5.79694E-20
 -1         8-9.82747E-04 2.94824E-04 2.94824E-04 6.51495E-18-1.29503E-18 1.13974E-17
 -1         9-9.82747E-04 2.94824E-04 2.94824E-04-3.46853E-17-3.65152E-17-4.81535E-17
 -1        10-9.82747E-04 2.94824E-04 2.94824E-04 1.16563E-16 4.65306E-17-1.33568E-16
 -1        11-9.82747E-04 2.94824E-04 2.94824E-04-1.20404E-16 3.49363E-17 1.16069E-16
 -1        12-1.96549E-03 5.89648E-04 5.89648E-04 1.11778E-16-4.75165E-17 8.63243E-18
 -1        13-1.96549E-03 5.89648E-04 5.89648E-04 5.92514E-20-8.59695E-18 1.10509E-17
 -1        14-9.82747E-04 2.94824E-04 2.94824E-04 4.84658E-17-9.68103E-18-7.24218E-18
 -1        15-9.82747E-04 2.94824E-04 2.94824E-04-7.33916E-17-4.17856E-17 6.76251E-18
 -1        16-9.82747E-04 2.94824E-04 2.94824E-04-1.43207E-16 2.23537E-17 7.64336E-17
 -1        17-9.82747E-04 2.94824E-04 2.94824E-04 1.21351E-16 1.63633E-17-8.02320E-17
 -1        18-1.96549E-03 5.89648E-04 5.89648E-04-5.82195E-20-6.23186E-17 2.53709E-17
 -1        19-1.96549E-03 5.89648E-04 5.89648E-04-3.58167E-17 2.34544E-18 2.77192E-19
 -1        20-9.82747E-04 2.94824E-04 2.94824E-04 3.07496E-17-1.09832E-17 1.15096E-17
 -1        21-9.82747E-04 2.94824E-04 2.94824E-04-1.15986E-17-7.83211E-17 3.93052E-18
 -1        22-9.82747E-04 2.94824E-04 2.94824E-04-8.48148E-17 6.88624E-17-8.32003E-17
 -1        23-9.82747E-04 2.94824E-04 2.94824E-04 9.25445E-17 5.12904E-17 9.00710E-17
 -1        24-1.96549E-03 5.89648E-04 5.89648E-04-6.27713E-17-1.09791E-16-7.36280E-17
 -3
    1PSTEP                       271          91           1          
  100CL  191 7.77781E-01          24                     0   91           1
 -4  DISP        4    1
 -5  D1          1    2    1    0
 -5  D2          1    2    2    0
 -5  D3          1    2    3    0
 -5  ALL         1    2    0    0    1ALL
 -1         1 0.00000E+00 0.00000E+00 0.00000E+00
 -1         2-1.07009E+00 0.00000E+00 0.00000E+00
 -1         3-1.11317E+01 0.00000E+00 0.00000E+00
 -1         4-1.22018E+01 0.00000E+00 0.00000E+00
 -1         5-2.22634E+01 0.00000E+00 0.00000E+00
 -1         6-2.33334E+01 0.00000E+00 0.00000E+00
 -1         7 0.00000E+00 3.20580E-01 0.00000E+00
 -1         8-1.07009E+00 3.20580E-01 0.00000E+00
 -1         9-1.11317E+01 3.20580E-01 0.00000E+00
 -1        10-1.22018E+01 3.20580E-01 0.00000E+00
 -1        11-2.22634E+01 3.20580E-01 0.00000E+00
 -1        12-2.33334E+01 3.20580E-01 0.00000E+00
 -1        13 0.00000E+00 0.00000E+00 4.48812E-01
 -1        14-1.07009E+00 0.00000E+00 4.48812E-01
 -1        15-1.11317E+01 0.00000E+00 4.48812E-01
 -1        16-1.22018E+01 0.00000E+00 4.48812E-01
 -1        17-2.22634E+01 0.00000E+00 4.48812E-01
 -1        18-2.33334E+01 0.00000E+00 4.48812E-01
 -1        19 0.00000E+00 3.20580E-01 4.48812E-01
 -1        20-1.07009E+00 3.20580E-01 4.48812E-01
 -1        21-1.11317E+01 3.20580E-01 4.48812E-01
 -1        22-1.22018E+01 3.20580E-01 4.48812E-01
 -1        23-2.22634E+01 3.20580E-01 4.48812E-01
 -1        24-2.33334E+01 3.20580E-01 4.48812E-01
 -3
    1PSTEP                       272          91           1          
  100CL  191 7.77781E-01          24                     0   91           1
 -4  STRESS      6    1
 -5  SXX         1    4    1    1
 -5  SYY         1    4    2    2
 -5  SZZ         1    4    3    3
 -5  SXY         1    4    1    2
 -5  SYZ         1    4    2    3
 -5  SZX         1    4    3    1
 -1         1-4.47403E+02 7.86592E-13 3.17707E-14 1.50274E-14-1.06886E-15-8.50447E-15
 -1         2-2.23701E+02-1.41443E-12 1.24464E-12 8.78142E-13 4.05969E-15-2.60175E-12
 -1         3-2.23701E+02-4.53073E-13-1.02261E-12 2.04017E-12-6.68907E-16 4.38886E-12
 -1         4-2.23701E+02-1.89750E-11-1.60038E-11 1.54886E-11-2.23949E-15 1.02442E-11
 -1         5-2.23701E+02-2.01783E-11-1.65453E-11-1.50741E-11 2.84661E-15-1.01415E-11
 -1         6-4.47403E+02-5.09592E-12-9.92479E-12 1.72717E-13-8.50554E-15 1.19075E-12
 -1         7-4.47403E+02 2.34906E-12 4.48470E-13-1.62308E-12 1.98824E-12 6.53794E-15
 -1         8-2.23701E+02-1.74400E-12-1.26567E-12 5.90879E-14-3.61291E-13 2.19995E-12
 -1         9-2.23701E+02 1.48112E-11 7.86827E-12-2.08286E-12-4.03854E-12-4.99222E-12
 -1        10-2.23701E+02 3.92108E-12 1.07184E-11 1.09438E-11 4.82466E-12-1.18711E-11
 -1        11-2.23701E+02 5.07068E-12 1.15058E-11-1.06078E-11 3.01453E-12 1.06380E-11
 -1        12-4.47403E+02 3.54986E-11 2.28275E-11 8.28207E-12-4.95686E-12 9.05763E-13
 -1        13-4.47403E+02-5.28015E-13-6.99599E-12-1.49511E-14-8.40457E-13 1.92908E-12
 -1        14-2.23701E+02-8.86476E-12-5.11608E-12 7.62707E-12-1.51549E-12-1.63296E-12
 -1        15-2.23701E+02-7.01854E-12 3.70075E-12-1.08380E-11-4.43394E-12 8.11505E-13
 -1        16-2.23701E+02 1.78082E-11 7.36261E-12-1.60449E-11 2.63416E-12 7.12317E-12
 -1        17-2.23701E+02 1.47276E-11 9.93374E-12 1.29184E-11 1.93811E-12-7.32501E-12
 -1        18-4.47403E+02 1.08074E-11 1.98543E-11-9.38254E-13-5.37923E-12 1.39446E-12
 -1        19-4.47403E+02 2.15417E-11 1.39592E-11-5.43300E-12 1.14885E-12-2.20976E-13
 -1        20-2.23701E+02 1.05929E-12 2.56887E-12 4.91804E-12-1.88084E-12 2.08619E-12
 -1        21-2.23701E+02-1.99247E-11-1.55475E-11-2.69356E-12-8.46684E-12-9.10446E-13
 -1        22-2.23701E+02 1.26079E-11 5.87170E-12-8.18606E-12 7.44250E-12-8.37663E-12
 -1        23-2.23701E+02-2.48629E-12-4.49373E-12 9.46082E-12 4.95746E-12 7.77841E-12
 -1        24-4.47403E+02-3.39679E-11-3.26466E-11-5.77262E-12-1.03693E-11-3.89019E-12
 -3
    1PSTEP                       273          91           1          
  100CL  191 7.77781E-01          24                     0   91           1
 -4  TOSTRAIN    6    1
 -5  EXX         1    4    1    1
 -5  EYY         1    4    2    2
 -5  EZZ         1    4    3    3
 -5  EXY         1    4    1    2
 -5  EYZ         1    4    2    3
 -5  EZX         1    4    3    1
 -1         1-2.13780E-03 6.41339E-04 6.41339E-04 9.30843E-20-6.60256E-21-5.28192E-20
 -1         2-1.06890E-03 3.20670E-04 3.20670E-04 5.43960E-18 2.50776E-20-1.61165E-17
 -1         3-1.06890E-03 3.20670E-04 3.20670E-04 1.26377E-17-4.13199E-21 2.71866E-17
 -1         4-1.06890E-03 3.20670E-04 3.20670E-04 9.59433E-17-1.38338E-20 6.34572E-17
 -1         5-1.06890E-03 3.20670E-04 3.20670E-04-9.33755E-17 1.75842E-20-6.28209E-17
 -1         6-2.13780E-03 6.41339E-04 6.41339E-04 1.06998E-18-5.25407E-20 7.37622E-18
 -1         7-2.13780E-03 6.41339E-04 6.41339E-04-1.01107E-17 1.22818E-17 4.05995E-20
 -1         8-1.06890E-03 3.20670E-04 3.20670E-04 3.37693E-19-2.23177E-18 1.36275E-17
 -1         9-1.06890E-03 3.20670E-04 3.20670E-04-1.30478E-17-2.49470E-17-3.09241E-17
 -1        10-1.06890E-03 3.20670E-04 3.20670E-04 6.76453E-17 2.98030E-17-7.35349E-17
 -1        11-1.06890E-03 3.20670E-04 3.20670E-04-6.55577E-17 1.86214E-17 6.58966E-17
 -1        12-2.13780E-03 6.41339E-04 6.41339E-04 5.16058E-17-3.06197E-17 5.61054E-18
 -1        13-2.13780E-03 6.41339E-04 6.41339E-04-9.26698E-20-5.19169E-18 1.20164E-17
 -1        14-1.06890E-03 3.20670E-04 3.20670E-04 4.72454E-17-9.36155E-18-1.00818E-17
 -1        15-1.06890E-03 3.20670E-04 3.20670E-04-6.71354E-17-2.73895E-17 4.90959E-18
 -1        16-1.06890E-03 3.20670E-04 3.20670E-04-9.93893E-17 1.62718E-17 4.40068E-17
 -1        17-1.06890E-03 3.20670E-04 3.20670E-04 8.00222E-17 1.19721E-17-4.53082E-17
 -1        18-2.13780E-03 6.41339E-04 6.41339E-04-5.81203E-18-3.32287E-17 8.77038E-18
 -1        19-2.13780E-03 6.41339E-04 6.41339E-04-3.38418E-17 7.09673E-18-1.37659E-18
 -1        20-1.06890E-03 3.20670E-04 3.20670E-04 3.03708E-17-1.16184E-17 1.29189E-17
 -1        21-1.06890E-03 3.20670E-04 3.20670E-04-1.64056E-17-5.23016E-17-5.51436E-18
 -1        22-1.06890E-03 3.20670E-04 3.20670E-04-5.04286E-17 4.59740E-17-5.17632E-17
 -1        23-1.06890E-03 3.20670E-04 3.20670E-04 5.84925E-17 3.06234E-17 4.80904E-17
 -1        24-2.13780E-03 6.41339E-04 6.41339E-04-3.59822E-17-6.40534E-17-2.42827E-17
 -3
    1PSTEP                       274          92           1          
  100CL  192 7.86781E-01          24                     0   92           1
 -4  DISP        4    1
 -5  D1          1    2    1    0
 -5  D2          1    2    2    0
 -5  D3          1    2    3    0
 -5  ALL         1    2    0    0    1ALL
 -1         1 0.00000E+00 0.00000E+00 0.00000E+00
 -1         2-1.15651E+00 0.00000E+00 0.00000E+00
 -1         3-1.12235E+01 0.00000E+00 0.00000E+00
 -1         4-1.23800E+01 0.00000E+00 0.00000E+00
 -1         5-2.24469E+01 0.00000E+00 0.00000E+00
 -1         6-2.36034E+01 0.00000E+00 0.00000E+00
 -1         7 0.00000E+00 3.46433E-01 0.00000E+00
 -1         8-1.15651E+00 3.46433E-01 0.00000E+00
 -1         9-1.12235E+01 3.46433E-01 0.00000E+00
 -1        10-1.23800E+01 3.46433E-01 0.00000E+00
 -1        11-2.24469E+01 3.46433E-01 0.00000E+00
 -1        12-2.36034E+01 3.46433E-01 0.00000E+00
 -1        13 0.00000E+00 0.00000E+00 4.85006E-01
 -1        14-1.15651E+00 0.00000E+00 4.85006E-01
 -1        15-1.12235E+01 0.00000E+00 4.85006E-01
 -1        16-1.23800E+01 0.00000E+00 4.85006E-01
 -1        17-2.24469E+01 0.00000E+00 4.85006E-01
 -1        18-2.36034E+01 0.00000E+00 4.85006E-01
 -1        19 0.00000E+00 3.46433E-01 4.85006E-01
 -1        20-1.15651E+00 3.46433E-01 4.85006E-01
 -1        21-1.12235E+01 3.46433E-01 4.85006E-01
 -1        22-1.23800E+01 3.46433E-01 4.85006E-01
 -1        23-2.24469E+01 3.46433E-01 4.85006E-01
 -1        24-2.36034E+01 3.46433E-01 4.85006E-01
 -3
    1PSTEP                       275          92           1          
  100CL  192 7.86781E-01          24                     0   92           1
 -4  STRESS      6    1
 -5  SXX         1    4    1    1
 -5  SYY         1    4    2    2
 -5  SZZ         1    4    3    3
 -5  SXY         1    4    1    2
 -5  SYZ         1    4    2    3
 -5  SZX         1    4    3    1
 -1         1-4.83363E+02 7.70872E-13-5.72843E-13 1.10102E-14 2.79510E-15-9.35311E-16
 -1         2-2.41681E+02-2.31178E-12-1.03211E-13 7.41264E-13-3.40041E-18-2.62572E-12
 -1         3-2.41681E+02 1.99477E-12-5.06691E-12 6.56900E-12-9.57020E-17 4.91626E-12
 -1         4-2.41681E+02-4.12847E-11-3.07088E-11 3.18971E-11 1.95340E-15 1.74179E-11
 -1         5-2.41681E+02-4.24715E-11-3.36129E-11-3.13185E-11 1.30747E-15-1.79410E-11
 -1         6-4.83363E+02-9.51458E-12-2.07947E-11-2.18808E-13-7.99787E-15-3.36763E-13
 -1         7-4.83363E+02 2.49079E-12 3.67142E-13-1.91079E-12 2.11163E-12 2.02832E-14
 -1         8-2.41681E+02-3.35907E-12-4.08868E-12-2.19638E-13-1.17256E-12 5.31306E-12
 -1         9-2.41681E+02 3.19760E-11 1.36733E-11-4.68051E-12-7.31168E-12-1.02948E-11
 -1        10-2.41681E+02 1.57415E-12 1.81452E-11 2.07984E-11 7.90190E-12-2.11888E-11
 -1        11-2.41681E+02 7.90926E-12 2.04272E-11-2.17263E-11 5.41362E-12 1.86124E-11
 -1        12-4.83363E+02 7.40379E-11 4.72665E-11 1.90628E-11-9.06287E-12-7.21719E-13
 -1        13-4.83363E+02 6.63418E-14-7.09183E-12-1.78607E-14-5.19537E-13 1.30519E-12
 -1        14-2.41681E+02-1.35448E-11-8.03182E-12 1.18878E-11-2.05790E-12-1.98224E-12
 -1        15-2.41681E+02-7.49238E-12 5.88378E-12-1.50224E-11-7.81108E-12 1.33241E-12
 -1        16-2.41681E+02 2.37236E-11 1.21931E-11-2.19165E-11 4.16847E-12 1.44039E-11
 -1        17-2.41681E+02 2.16861E-11 1.52945E-11 1.84407E-11 2.60641E-12-1.45292E-11
 -1        18-4.83363E+02 2.11721E-11 3.53774E-11 4.96644E-13-1.08673E-11 7.01296E-12
 -1        19-4.83363E+02 3.53185E-11 2.73262E-11-8.12194E-12 1.58930E-12-2.24579E-12
 -1        20-2.41681E+02 2.10006E-12 4.57373E-12 7.83576E-12-3.23046E-12 4.21580E-12
 -1        21-2.41681E+02-2.65932E-11-2.44424E-11-5.05520E-12-1.51051E-11-1.66550E-12
 -1        22-2.41681E+02 1.74264E-11 1.18326E-11-1.23882E-11 1.20653E-11-1.25793E-11
 -1        23-2.41681E+02-3.88148E-12-6.52405E-12 1.43896E-11 8.01740E-12 1.38661E-11
 -1        24-4.83363E+02-4.70240E-11-4.85747E-11-8.96005E-12-1.99590E-11-7.96426E-12
 -3
    1PSTEP                       276          92           1          
  100CL  192 7.86781E-01          24                     0   92           1
 -4  TOSTRAIN    6    1
 -5  EXX         1    4    1    1
 -5  EYY         1    4    2    2
 -5  EZZ         1    4    3    3
 -5  EXY         1    4    1    2
 -5  EYZ         1    4    2    3
 -5  EZX         1    4    3    1
 -1         1-2.31026E-03 6.93079E-04 6.93079E-04 6.82761E-20 1.72630E-20-5.87073E-21
 -1         2-1.15513E-03 3.46539E-04 3.46539E-04 4.59199E-18-2.10015E-23-1.62657E-17
 -1         3-1.15513E-03 3.46539E-04 3.46539E-04 4.06934E-17-5.91071E-22 3.04550E-17
 -1         4-1.15513E-03 3.46539E-04 3.46539E-04 1.97595E-16 1.20645E-20 1.07900E-16
 -1         5-1.15513E-03 3.46539E-04 3.46539E-04-1.94011E-16 8.07513E-21-1.11140E-16
 -1         6-2.31026E-03 6.93079E-04 6.93079E-04-1.35555E-18-4.93961E-20-2.08607E-18
 -1         7-2.31026E-03 6.93079E-04 6.93079E-04-1.19087E-17 1.30418E-17 1.25637E-19
 -1         8-1.15513E-03 3.46539E-04 3.46539E-04-1.39649E-18-7.24192E-18 3.29131E-17
 -1         9-1.15513E-03 3.46539E-04 3.46539E-04-2.94140E-17-4.51581E-17-6.37741E-17
 -1        10-1.15513E-03 3.46539E-04 3.46539E-04 1.28422E-16 4.88034E-17-1.31260E-16
 -1        11-1.15513E-03 3.46539E-04 3.46539E-04-1.34231E-16 3.34354E-17 1.15299E-16
 -1        12-2.31026E-03 6.93079E-04 6.93079E-04 1.18808E-16-5.59737E-17-4.47108E-18
 -1        13-2.31026E-03 6.93079E-04 6.93079E-04-1.10696E-19-3.20874E-18 8.13392E-18
 -1        14-1.15513E-03 3.46539E-04 3.46539E-04 7.36421E-17-1.27099E-17-1.22552E-17
 -1        15-1.15513E-03 3.46539E-04 3.46539E-04-9.30601E-17-4.82424E-17 8.12610E-18
 -1        16-1.15513E-03 3.46539E-04 3.46539E-04-1.35767E-16 2.57451E-17 8.91011E-17
 -1        17-1.15513E-03 3.46539E-04 3.46539E-04 1.14236E-16 1.60976E-17-8.98756E-17
 -1        18-2.31026E-03 6.93079E-04 6.93079E-04 3.07670E-18-6.71179E-17 4.37030E-17
 -1        19-2.31026E-03 6.93079E-04 6.93079E-04-5.06166E-17 9.81575E-18-1.39963E-17
 -1        20-1.15513E-03 3.46539E-04 3.46539E-04 4.83892E-17-1.99518E-17 2.60738E-17
 -1        21-1.15513E-03 3.46539E-04 3.46539E-04-3.09467E-17-9.32916E-17-1.00011E-17
 -1        22-1.15513E-03 3.46539E-04 3.46539E-04-7.63730E-17 7.45171E-17-7.76097E-17
 -1        23-1.15513E-03 3.46539E-04 3.46539E-04 8.89833E-17 4.95167E-17 8.57286E-17
 -1        24-2.31026E-03 6.93079E-04 6.93079E-04-5.58189E-17-1.23270E-16-4.96740E-17
 -3
    1PSTEP                       277          93           1          
  100CL  193 7.95781E-01          24                     0   93           1
 -4  DISP        4    1
 -5  D1          1    2    1    0
 -5  D2          1    2    2    0
 -5  D3          1    2    3    0
 -5  ALL         1    2    0    0    1ALL
 -1         1 0.00000E+00 0.00000E+00 0.00000E+00
 -1         2-1.24306E+00 0.00000E+00 0.00000E+00
 -1         3-1.13152E+01 0.00000E+00 0.00000E+00
 -1         4-1.25582E+01 0.00000E+00 0.00000E+00
 -1         5-2.26304E+01 0.00000E+00 0.00000E+00
 -1         6-2.38734E+01 0.00000E+00 0.00000E+00
 -1         7 0.00000E+00 3.72316E-01 0.00000E+00
 -1         8-1.24306E+00 3.72316E-01 0.00000E+00
 -1         9-1.13152E+01 3.72316E-01 0.00000E+00
 -1        10-1.25582E+01 3.72316E-01 0.00000E+00
 -1        11-2.26304E+01 3.72316E-01 0.00000E+00
 -1        12-2.38734E+01 3.72316E-01 0.00000E+00
 -1        13 0.00000E+00 0.00000E+00 5.21242E-01
 -1        14-1.24306E+00 0.00000E+00 5.21242E-01
 -1        15-1.13152E+01 0.00000E+00 5.21242E-01
 -1        16-1.25582E+01 0.00000E+00 5.21242E-01
 -1        17-2.26304E+01 0.00000E+00 5.21242E-01
 -1        18-2.38734E+01 0.00000E+00 5.21242E-01
 -1        19 0.00000E+00 3.72316E-01 5.21242E-01
 -1        20-1.24306E+00 3.72316E-01 5.21242E-01
 -1        21-1.13152E+01 3.72316E-01 5.21242E-01
 -1        22-1.25582E+01 3.72316E-01 5.21242E-01
 -1        23-2.26304E+01 3.72316E-01 5.21242E-01
 -1        24-2.38734E+01 3.72316E-01 5.21242E-01
 -3
    1PSTEP                       278          93           1          
  100CL  193 7.95781E-01          24                     0   93           1
 -4  STRESS      6    1
 -5  SXX         1    4    1    1
 -5  SYY         1    4    2    2
 -5  SZZ         1    4    3    3
 -5  SXY         1    4    1    2
 -5  SYZ         1    4    2    3
 -5  SZX         1    4    3    1
 -1         1-5.19345E+02 1.71634E-12-1.76903E-13 6.59813E-15 1.95212E-15-1.21541E-14
 -1         2-2.59673E+02-3.28517E-12 1.32622E-12 1.59732E-12-4.62284E-16-4.91162E-12
 -1         3-2.59673E+02-1.13941E-12-6.44203E-12 4.27165E-12 1.78937E-15 4.72911E-12
 -1         4-2.59673E+02-3.54366E-11-2.41141E-11 2.98223E-11-3.31085E-15 1.46010E-11
 -1         5-2.59673E+02-3.91143E-11-2.86457E-11-3.08038E-11 2.71416E-16-1.63694E-11
 -1         6-5.19345E+02-7.75846E-12-1.84082E-11 7.32513E-13 1.52170E-16 4.35939E-13
 -1         7-5.19345E+02 5.12764E-12 1.19849E-12-3.30403E-12 3.84216E-12-1.13810E-15
 -1         8-2.59673E+02-4.29912E-12-4.30715E-12-5.79911E-14-1.31594E-12 6.57891E-12
 -1         9-2.59673E+02 2.74184E-11 9.07246E-12-5.04428E-12-7.76785E-12-1.46986E-11
 -1        10-2.59673E+02 7.89719E-12 2.58631E-11 2.06661E-11 9.70290E-12-2.75381E-11
 -1        11-2.59673E+02 1.03304E-11 2.50048E-11-2.14400E-11 6.60448E-12 2.22688E-11
 -1        12-5.19345E+02 7.29556E-11 4.64965E-11 1.89851E-11-8.38624E-12 4.73947E-13
 -1        13-5.19345E+02-1.34673E-13-1.28831E-11-1.70738E-14-1.29092E-12 3.11091E-12
 -1        14-2.59673E+02-2.00509E-11-1.17753E-11 1.76603E-11-3.23141E-12-3.35249E-12
 -1        15-2.59673E+02-1.76415E-11-1.26723E-12-2.26729E-11-9.10437E-12 3.14023E-12
 -1        16-2.59673E+02 3.36118E-11 1.77458E-11-2.98782E-11 4.69552E-12 1.36061E-11
 -1        17-2.59673E+02 2.75084E-11 1.95470E-11 2.30406E-11 2.92612E-12-1.40304E-11
 -1        18-5.19345E+02 1.96984E-11 3.25890E-11 6.03275E-14-1.10920E-11 2.81956E-12
 -1        19-5.19345E+02 5.16876E-11 3.72223E-11-1.22951E-11 2.54929E-12-2.01183E-12
 -1        20-2.59673E+02 3.06659E-12 6.73422E-12 1.15213E-11-4.54689E-12 5.58251E-12
 -1        21-2.59673E+02-3.77314E-11-3.44160E-11-7.74456E-12-1.68638E-11-2.39359E-12
 -1        22-2.59673E+02 2.81499E-11 1.89857E-11-1.49262E-11 1.43948E-11-1.55915E-11
 -1        23-2.59673E+02-4.53312E-12-8.38983E-12 1.75120E-11 9.52521E-12 1.58865E-11
 -1        24-5.19345E+02-6.27080E-11-6.56809E-11-1.21977E-11-1.94401E-11-1.14103E-11
 -3
    1PSTEP                       279          93           1          
  100CL  193 7.95781E-01          24                     0   93           1
 -4  TOSTRAIN    6    1
 -5  EXX         1    4    1    1
 -5  EYY         1    4    2    2
 -5  EZZ         1    4    3    3
 -5  EXY         1    4    1    2
 -5  EYZ         1    4    2    3
 -5  EZX         1    4    3    1
 -1         1-2.48293E-03 7.44879E-04 7.44879E-04 4.09818E-20 1.20545E-20-7.52964E-20
 -1         2-1.24147E-03 3.72440E-04 3.72440E-04 9.89559E-18-2.85464E-21-3.04279E-17
 -1         3-1.24147E-03 3.72440E-04 3.72440E-04 2.64633E-17 1.10495E-20 2.92974E-17
 -1         4-1.24147E-03 3.72440E-04 3.72440E-04 1.84752E-16-2.04448E-20 9.04544E-17
 -1         5-1.24147E-03 3.72440E-04 3.72440E-04-1.90832E-16 1.67602E-21-1.01410E-16
 -1         6-2.48293E-03 7.44879E-04 7.44879E-04 4.53793E-18 9.39666E-22 2.70077E-18
 -1         7-2.48293E-03 7.44879E-04 7.44879E-04-2.06017E-17 2.37257E-17-7.05740E-21
 -1         8-1.24147E-03 3.72440E-04 3.72440E-04-4.25741E-19-8.12606E-18 4.07569E-17
 -1         9-1.24147E-03 3.72440E-04 3.72440E-04-3.16228E-17-4.79672E-17-9.10592E-17
 -1        10-1.24147E-03 3.72440E-04 3.72440E-04 1.27655E-16 5.99163E-17-1.70601E-16
 -1        11-1.24147E-03 3.72440E-04 3.72440E-04-1.32448E-16 4.07833E-17 1.37957E-16
 -1        12-2.48293E-03 7.44879E-04 7.44879E-04 1.18363E-16-5.17857E-17 2.93609E-18
 -1        13-2.48293E-03 7.44879E-04 7.44879E-04-1.05933E-19-7.97155E-18 1.93977E-17
 -1        14-1.24147E-03 3.72440E-04 3.72440E-04 1.09407E-16-1.99543E-17-2.07063E-17
 -1        15-1.24147E-03 3.72440E-04 3.72440E-04-1.40461E-16-5.62203E-17 1.93953E-17
 -1        16-1.24147E-03 3.72440E-04 3.72440E-04-1.85098E-16 2.89952E-17 8.42325E-17
 -1        17-1.24147E-03 3.72440E-04 3.72440E-04 1.42738E-16 1.80691E-17-8.68352E-17
 -1        18-2.48293E-03 7.44879E-04 7.44879E-04 3.73881E-19-6.84940E-17 1.76360E-17
 -1        19-2.48293E-03 7.44879E-04 7.44879E-04-7.66631E-17 1.57421E-17-1.25437E-17
 -1        20-1.24147E-03 3.72440E-04 3.72440E-04 7.11287E-17-2.80775E-17 3.45440E-17
 -1        21-1.24147E-03 3.72440E-04 3.72440E-04-4.73780E-17-1.04135E-16-1.43371E-17
 -1        22-1.24147E-03 3.72440E-04 3.72440E-04-9.18690E-17 8.88892E-17-9.60994E-17
 -1        23-1.24147E-03 3.72440E-04 3.72440E-04 1.08261E-16 5.88190E-17 9.81655E-17
 -1        24-2.48293E-03 7.44879E-04 7.44879E-04-7.60200E-17-1.20044E-16-7.11932E-17
 -3
    1PSTEP                       280          94           1          
  100CL  194 8.04781E-01          24                     0   94           1
 -4  DISP        4    1
 -5  D1          1    2    1    0
 -5  D2          1    2    2    0
 -5  D3          1    2    3    0
 -5  ALL         1    2    0    0    1ALL
 -1         1 0.00000E+00 0.00000E+00 0.00000E+00
 -1         2-1.32974E+00 0.00000E+00 0.00000E+00
 -1         3-1.14068E+01 0.00000E+00 0.00000E+00
 -1         4-1.27366E+01 0.00000E+00 0.00000E+00
 -1         5-2.28137E+01 0.00000E+00 0.00000E+00
 -1         6-2.41434E+01 0.00000E+00 0.00000E+00
 -1         7 0.00000E+00 3.98234E-01 0.00000E+00
 -1         8-1.32974E+00 3.98234E-01 0.00000E+00
 -1         9-1.14068E+01 3.98234E-01 0.00000E+00
 -1        10-1.27366E+01 3.98234E-01 0.00000E+00
 -1        11-2.28137E+01 3.98234E-01 0.00000E+00
 -1        12-2.41434E+01 3.98234E-01 0.00000E+00
 -1        13 0.00000E+00 0.00000E+00 5.57528E-01
 -1        14-1.32974E+00 0.00000E+00 5.57528E-01
 -1        15-1.14068E+01 0.00000E+00 5.57528E-01
 -1        16-1.27366E+01 0.00000E+00 5.57528E-01
 -1        17-2.28137E+01 0.00000E+00 5.57528E-01
 -1        18-2.41434E+01 0.00000E+00 5.57528E-01
 -1        19 0.00000E+00 3.98234E-01 5.57528E-01
 -1        20-1.32974E+00 3.98234E-01 5.57528E-01
 -1        21-1.14068E+01 3.98234E-01 5.57528E-01
 -1        22-1.27366E+01 3.98234E-01 5.57528E-01
 -1        23-2.28137E+01 3.98234E-01 5.57528E-01
 -1        24-2.41434E+01 3.98234E-01 5.57528E-01
 -3
    1PSTEP                       281          94           1          
  100CL  194 8.04781E-01          24                     0   94           1
 -4  STRESS      6    1
 -5  SXX         1    4    1    1
 -5  SYY         1    4    2    2
 -5  SZZ         1    4    3    3
 -5  SXY         1    4    1    2
 -5  SYZ         1    4    2    3
 -5  SZX         1    4    3    1
 -1         1-5.55359E+02 2.69223E-12 1.41575E-12 4.76618E-15 7.65418E-15-5.08472E-15
 -1         2-2.77680E+02-1.01805E-12 1.57177E-12 4.75438E-13-2.52429E-15-3.37077E-12
 -1         3-2.77680E+02-2.27723E-12-4.46650E-12 1.09328E-12 2.60125E-17 8.61895E-13
 -1         4-2.77680E+02-9.01207E-12-3.63115E-12 9.55749E-12-1.47453E-16 3.08463E-12
 -1         5-2.77680E+02-1.15457E-11-6.94949E-12-1.10471E-11 1.48904E-15-4.60318E-12
 -1         6-5.55359E+02-2.96710E-13-3.73126E-12 4.40001E-13-4.67187E-15-2.39699E-13
 -1         7-5.55359E+02 3.35829E-12 1.34741E-12-1.89330E-12 2.64235E-12 8.53273E-15
 -1         8-2.77680E+02-2.79101E-12-3.57623E-12-4.73594E-13-1.28634E-12 5.76642E-12
 -1         9-2.77680E+02 6.63649E-12-2.18044E-12-1.57490E-12-3.87600E-12-1.15290E-11
 -1        10-2.77680E+02 7.44053E-12 1.63016E-11 7.31984E-12 5.05548E-12-1.60483E-11
 -1        11-2.77680E+02 6.44351E-12 1.29366E-11-7.88850E-12 3.02096E-12 1.02646E-11
 -1        12-5.55359E+02 2.83379E-11 1.89198E-11 6.85435E-12-2.72975E-12 7.34221E-13
 -1        13-5.55359E+02 1.27885E-12-7.42393E-12-5.30270E-15-5.25580E-13 1.81317E-12
 -1        14-2.77680E+02-1.45599E-11-8.34662E-12 1.33150E-11-2.33854E-12-2.46644E-12
 -1        15-2.77680E+02-1.66095E-11-8.04462E-12-1.71111E-11-4.59071E-12 2.78627E-12
 -1        16-2.77680E+02 2.02719E-11 1.16770E-11-1.63321E-11 2.37065E-12 4.66798E-12
 -1        17-2.77680E+02 1.41073E-11 1.02743E-11 1.16816E-11 1.37022E-12-5.54519E-12
 -1        18-5.55359E+02 8.27197E-12 1.23983E-11 1.27193E-13-4.18263E-12 8.44728E-13
 -1        19-5.55359E+02 4.09061E-11 3.13521E-11-9.14649E-12 2.10911E-12-2.30015E-12
 -1        20-2.77680E+02 2.99964E-12 5.85353E-12 8.74437E-12-3.62235E-12 4.62996E-12
 -1        21-2.77680E+02-2.08458E-11-1.88460E-11-6.68765E-12-8.45893E-12-2.80283E-12
 -1        22-2.77680E+02 2.35004E-11 1.81522E-11-7.01992E-12 7.42837E-12-7.16436E-12
 -1        23-2.77680E+02-2.48056E-12-4.43229E-12 8.94151E-12 4.39032E-12 7.72790E-12
 -1        24-5.55359E+02-3.26918E-11-3.44322E-11-6.70679E-12-6.94355E-12-6.99351E-12
 -3
    1PSTEP                       282          94           1          
  100CL  194 8.04781E-01          24                     0   94           1
 -4  TOSTRAIN    6    1
 -5  EXX         1    4    1    1
 -5  EYY         1    4    2    2
 -5  EZZ         1    4    3    3
 -5  EXY         1    4    1    2
 -5  EYZ         1    4    2    3
 -5  EZX         1    4    3    1
 -1         1-2.65584E-03 7.96753E-04 7.96753E-04 2.94779E-20 4.72570E-20-3.13197E-20
 -1         2-1.32792E-03 3.98377E-04 3.98377E-04 2.94551E-18-1.55850E-20-2.08832E-17
 -1         3-1.32792E-03 3.98377E-04 3.98377E-04 6.77332E-18 1.60602E-22 5.33980E-18
 -1         4-1.32792E-03 3.98377E-04 3.98377E-04 5.92126E-17-9.10377E-22 1.91105E-17
 -1         5-1.32792E-03 3.98377E-04 3.98377E-04-6.84410E-17 9.19338E-21-2.85187E-17
 -1         6-2.65584E-03 7.96753E-04 7.96753E-04 2.72623E-18-2.88442E-20-1.48521E-18
 -1         7-2.65584E-03 7.96753E-04 7.96753E-04-1.18114E-17 1.63139E-17 5.25334E-20
 -1         8-1.32792E-03 3.98377E-04 3.98377E-04-2.97495E-18-7.94188E-18 3.57252E-17
 -1         9-1.32792E-03 3.98377E-04 3.98377E-04-9.86415E-18-2.39305E-17-7.14270E-17
 -1        10-1.32792E-03 3.98377E-04 3.98377E-04 4.52423E-17 3.12126E-17-9.94258E-17
 -1        11-1.32792E-03 3.98377E-04 3.98377E-04-4.87361E-17 1.86515E-17 6.35935E-17
 -1        12-2.65584E-03 7.96753E-04 7.96753E-04 4.27383E-17-1.68535E-17 4.54882E-18
 -1        13-2.65584E-03 7.96753E-04 7.96753E-04-3.27467E-20-3.24494E-18 1.13114E-17
 -1        14-1.32792E-03 3.98377E-04 3.98377E-04 8.24916E-17-1.44382E-17-1.52415E-17
 -1        15-1.32792E-03 3.98377E-04 3.98377E-04-1.06010E-16-2.83431E-17 1.73418E-17
 -1        16-1.32792E-03 3.98377E-04 3.98377E-04-1.01184E-16 1.46364E-17 2.89997E-17
 -1        17-1.32792E-03 3.98377E-04 3.98377E-04 7.23721E-17 8.45974E-18-3.43496E-17
 -1        18-2.65584E-03 7.96753E-04 7.96753E-04 7.87931E-19-2.58236E-17 5.24365E-18
 -1        19-2.65584E-03 7.96753E-04 7.96753E-04-5.70593E-17 1.30217E-17-1.43488E-17
 -1        20-1.32792E-03 3.98377E-04 3.98377E-04 5.39784E-17-2.23645E-17 2.86353E-17
 -1        21-1.32792E-03 3.98377E-04 3.98377E-04-4.10087E-17-5.22256E-17-1.69879E-17
 -1        22-1.32792E-03 3.98377E-04 3.98377E-04-4.30672E-17 4.58628E-17-4.40094E-17
 -1        23-1.32792E-03 3.98377E-04 3.98377E-04 5.52723E-17 2.71059E-17 4.77345E-17
 -1        24-2.65584E-03 7.96753E-04 7.96753E-04-4.17994E-17-4.28696E-17-4.36136E-17
 -3
    1PSTEP                       283          95           1          
  100CL  195 8.13781E-01          24                     0   95           1
 -4  DISP        4    1
 -5  D1          1    2    1    0
 -5  D2          1    2    2    0
 -5  D3          1    2    3    0
 -5  ALL         1    2    0    0    1ALL
 -1         1 0.00000E+00 0.00000E+00 0.00000E+00
 -1         2-1.41659E+00 0.00000E+00 0.00000E+00
 -1         3-1.14984E+01 0.00000E+00 0.00000E+00
 -1         4-1.29150E+01 0.00000E+00 0.00000E+00
 -1         5-2.29969E+01 0.00000E+00 0.00000E+00
 -1         6-2.44134E+01 0.00000E+00 0.00000E+00
 -1         7 0.00000E+00 4.24194E-01 0.00000E+00
 -1         8-1.41659E+00 4.24194E-01 0.00000E+00
 -1         9-1.14984E+01 4.24194E-01 0.00000E+00
 -1        10-1.29150E+01 4.24194E-01 0.00000E+00
 -1        11-2.29969E+01 4.24194E-01 0.00000E+00
 -1        12-2.44134E+01 4.24194E-01 0.00000E+00
 -1        13 0.00000E+00 0.00000E+00 5.93872E-01
 -1        14-1.41659E+00 0.00000E+00 5.93872E-01
 -1        15-1.14984E+01 0.00000E+00 5.93872E-01
 -1        16-1.29150E+01 0.00000E+00 5.93872E-01
 -1        17-2.29969E+01 0.00000E+00 5.93872E-01
 -1        18-2.44134E+01 0.00000E+00 5.93872E-01
 -1        19 0.00000E+00 4.24194E-01 5.93872E-01
 -1        20-1.41659E+00 4.24194E-01 5.93872E-01
 -1        21-1.14984E+01 4.24194E-01 5.93872E-01
 -1        22-1.29150E+01 4.24194E-01 5.93872E-01
 -1        23-2.29969E+01 4.24194E-01 5.93872E-01
 -1        24-2.44134E+01 4.24194E-01 5.93872E-01
 -3
    1PSTEP                       284          95           1          
  100CL  195 8.13781E-01          24                     0   95           1
 -4  STRESS      6    1
 -5  SXX         1    4    1    1
 -5  SYY         1    4    2    2
 -5  SZZ         1    4    3    3
 -5  SXY         1    4    1    2
 -5  SYZ         1    4    2    3
 -5  SZX         1    4    3    1
 -1         1-5.91413E+02 2.75337E-12-6.67434E-13-6.78815E-15 2.86924E-16 2.43805E-15
 -1         2-2.95706E+02-7.38802E-12-3.32083E-12 5.45103E-12 1.43764E-15-7.96230E-13
 -1         3-2.95706E+02-1.11653E-11-6.61622E-12-7.44249E-12 3.63788E-15-5.48153E-13
 -1         4-2.95706E+02 4.22287E-12 1.45624E-12-7.06609E-14-4.04560E-15 2.05960E-12
 -1         5-2.95706E+02-1.55486E-12-1.28062E-12-4.05115E-12 3.99617E-15-3.65901E-12
 -1         6-5.91413E+02 3.30785E-12 3.12580E-12 7.67294E-13-2.48360E-15-4.78162E-14
 -1         7-5.91413E+02 1.66535E-11 1.01806E-11-5.11331E-12 1.35481E-12-6.09794E-15
 -1         8-2.95706E+02-1.34305E-12-3.72300E-13 2.89777E-12-6.37564E-13 3.88039E-12
 -1         9-2.95706E+02-3.60173E-12-3.21696E-12-3.35860E-12-2.52428E-12-7.47079E-12
 -1        10-2.95706E+02 1.62755E-11 1.55323E-11 4.17284E-12 3.03900E-12-1.04829E-11
 -1        11-2.95706E+02 5.97005E-12 9.05922E-12-3.26008E-12 1.86204E-12 8.55767E-12
 -1        12-5.91413E+02 1.25829E-11 9.93054E-12 1.30248E-12-2.31473E-12-1.71327E-12
 -1        13-5.91413E+02 5.97788E-12-1.06549E-12-1.86679E-14-2.19900E-12 7.17992E-13
 -1        14-2.95706E+02-1.20250E-11-6.25186E-12 1.19657E-11-2.16439E-12-4.31268E-13
 -1        15-2.95706E+02-1.76152E-11-6.04123E-12-1.68456E-11-2.84500E-12 2.96698E-13
 -1        16-2.95706E+02 2.50067E-11 1.36914E-11-1.80301E-11 1.39494E-12 2.54562E-12
 -1        17-2.95706E+02 1.44865E-11 9.55644E-12 1.13377E-11 1.96286E-12-3.32636E-12
 -1        18-5.91413E+02 6.01601E-12 1.22931E-11 3.45557E-13-1.68050E-12 3.04841E-12
 -1        19-5.91413E+02 3.97009E-11 2.93719E-11-8.78260E-12-8.62486E-13-1.38526E-12
 -1        20-2.95706E+02 3.56120E-12 6.26917E-12 7.58374E-12-2.80098E-12 3.16400E-12
 -1        21-2.95706E+02-2.20653E-11-1.45388E-11-5.04163E-12-5.37996E-12-2.76735E-12
 -1        22-2.95706E+02 2.50457E-11 1.57225E-11-6.20254E-12 4.43308E-12-5.61690E-12
 -1        23-2.95706E+02 9.88504E-14-2.09029E-12 7.95146E-12 3.81760E-12 5.61088E-12
 -1        24-5.91413E+02-2.91263E-11-2.51715E-11-7.47393E-12-3.98366E-12-4.54122E-12
 -3
    1PSTEP                       285          95           1          
  100CL  195 8.13781E-01          24                     0   95           1
 -4  TOSTRAIN    6    1
 -5  EXX         1    4    1    1
 -5  EYY         1    4    2    2
 -5  EZZ         1    4    3    3
 -5  EXY         1    4    1    2
 -5  EYZ         1    4    2    3
 -5  EZX         1    4    3    1
 -1         1-2.82905E-03 8.48714E-04 8.48714E-04-4.22271E-20 1.77116E-21 1.49598E-20
 -1         2-1.41452E-03 4.24357E-04 4.24357E-04 3.37730E-17 8.87445E-21-4.93330E-18
 -1         3-1.41452E-03 4.24357E-04 4.24357E-04-4.61117E-17 2.24564E-20-3.39631E-18
 -1         4-1.41452E-03 4.24357E-04 4.24357E-04-4.37840E-19-2.49732E-20 1.27606E-17
 -1         5-1.41452E-03 4.24357E-04 4.24357E-04-2.50999E-17 2.46681E-20-2.26703E-17
 -1         6-2.82905E-03 8.48714E-04 8.48714E-04 4.75388E-18-1.53311E-20-2.96344E-19
 -1         7-2.82905E-03 8.48714E-04 8.48714E-04-3.19149E-17 8.36319E-18-3.77242E-20
 -1         8-1.41452E-03 4.24357E-04 4.24357E-04 1.78367E-17-3.93564E-18 2.40419E-17
 -1         9-1.41452E-03 4.24357E-04 4.24357E-04-2.06203E-17-1.55822E-17-4.62868E-17
 -1        10-1.41452E-03 4.24357E-04 4.24357E-04 2.60425E-17 1.87595E-17-6.49487E-17
 -1        11-1.41452E-03 4.24357E-04 4.24357E-04-2.01674E-17 1.14943E-17 5.30210E-17
 -1        12-2.82905E-03 8.48714E-04 8.48714E-04 8.13210E-18-1.42887E-17-1.06149E-17
 -1        13-2.82905E-03 8.48714E-04 8.48714E-04-1.15600E-19-1.35743E-17 4.48115E-18
 -1        14-1.41452E-03 4.24357E-04 4.24357E-04 7.41363E-17-1.33607E-17-2.65569E-18
 -1        15-1.41452E-03 4.24357E-04 4.24357E-04-1.04371E-16-1.75620E-17 1.87137E-18
 -1        16-1.41452E-03 4.24357E-04 4.24357E-04-1.11710E-16 8.61089E-18 1.58051E-17
 -1        17-1.41452E-03 4.24357E-04 4.24357E-04 7.02455E-17 1.21166E-17-2.05752E-17
 -1        18-2.82905E-03 8.48714E-04 8.48714E-04 2.14117E-18-1.03736E-17 1.89551E-17
 -1        19-2.82905E-03 8.48714E-04 8.48714E-04-5.48162E-17-5.32407E-18-8.64591E-18
 -1        20-1.41452E-03 4.24357E-04 4.24357E-04 4.67860E-17-1.72903E-17 1.95717E-17
 -1        21-1.41452E-03 4.24357E-04 4.24357E-04-3.06953E-17-3.32102E-17-1.69209E-17
 -1        22-1.41452E-03 4.24357E-04 4.24357E-04-3.78880E-17 2.73651E-17-3.45759E-17
 -1        23-1.41452E-03 4.24357E-04 4.24357E-04 4.91049E-17 2.35658E-17 3.46695E-17
 -1        24-2.82905E-03 8.48714E-04 8.48714E-04-4.66268E-17-2.45909E-17-2.83241E-17
 -3
    1PSTEP                       286          96           1          
  100CL  196 8.22781E-01          24                     0   96           1
 -4  DISP        4    1
 -5  D1          1    2    1    0
 -5  D2          1    2    2    0
 -5  D3          1    2    3    0
 -5  ALL         1    2    0    0    1ALL
 -1         1 0.00000E+00 0.00000E+00 0.00000E+00
 -1         2-1.50361E+00 0.00000E+00 0.00000E+00
 -1         3-1.15899E+01 0.00000E+00 0.00000E+00
 -1         4-1.30935E+01 0.00000E+00 0.00000E+00
 -1         5-2.31798E+01 0.00000E+00 0.00000E+00
 -1         6-2.46834E+01 0.00000E+00 0.00000E+00
 -1         7 0.00000E+00 4.50202E-01 0.00000E+00
 -1         8-1.50361E+00 4.50202E-01 0.00000E+00
 -1         9-1.15899E+01 4.50202E-01 0.00000E+00
 -1        10-1.30935E+01 4.50202E-01 0.00000E+00
 -1        11-2.31798E+01 4.50202E-01 0.00000E+00
 -1        12-2.46834E+01 4.50202E-01 0.00000E+00
 -1        13 0.00000E+00 0.00000E+00 6.30283E-01
 -1        14-1.50361E+00 0.00000E+00 6.30283E-01
 -1        15-1.15899E+01 0.00000E+00 6.30283E-01
 -1        16-1.30935E+01 0.00000E+00 6.30283E-01
 -1        17-2.31798E+01 0.00000E+00 6.30283E-01
 -1        18-2.46834E+01 0.00000E+00 6.30283E-01
 -1        19 0.00000E+00 4.50202E-01 6.30283E-01
 -1        20-1.50361E+00 4.50202E-01 6.30283E-01
 -1        21-1.15899E+01 4.50202E-01 6.30283E-01
 -1        22-1.30935E+01 4.50202E-01 6.30283E-01
 -1        23-2.31798E+01 4.50202E-01 6.30283E-01
 -1        24-2.46834E+01 4.50202E-01 6.30283E-01
 -3
    1PSTEP                       287          96           1          
  100CL  196 8.22781E-01          24                     0   96           1
 -4  STRESS      6    1
 -5  SXX         1    4    1    1
 -5  SYY         1    4    2    2
 -5  SZZ         1    4    3    3
 -5  SXY         1    4    1    2
 -5  SYZ         1    4    2    3
 -5  SZX         1    4    3    1
 -1         1-6.27515E+02 4.33147E-12-1.55499E-12 2.10752E-14 7.10141E-15 3.23673E-15
 -1         2-3.13758E+02-1.54418E-11-5.69896E-12 1.30385E-11 3.14910E-15-3.36185E-13
 -1         3-3.13758E+02-1.68729E-11-1.06888E-11-1.17258E-11 6.01287E-15-1.40897E-13
 -1         4-3.13758E+02-1.06809E-11-9.74436E-12 1.19403E-11-2.09846E-15 7.59174E-12
 -1         5-3.13758E+02-1.75832E-11-1.06263E-11-1.70149E-11-4.46958E-15-8.75858E-12
 -1         6-6.27515E+02 1.88784E-12-3.01479E-12 5.29287E-13 3.12329E-15 3.17938E-13
 -1         7-6.27515E+02 3.71042E-11 2.27961E-11-1.06775E-11 1.69745E-12-6.06517E-15
 -1         8-3.13758E+02 1.21258E-12 7.23482E-12 7.69874E-12 1.17011E-12-1.45462E-12
 -1         9-3.13758E+02 1.26228E-11 1.08173E-11-9.76159E-12-2.89915E-12-4.44719E-12
 -1        10-3.13758E+02 2.61467E-11 2.85865E-11 1.40449E-11 5.69519E-12-1.83719E-11
 -1        11-3.13758E+02 1.05029E-11 2.05083E-11-1.21858E-11 4.83037E-12 1.62987E-11
 -1        12-6.27515E+02 4.64918E-11 3.19190E-11 1.07342E-11-4.54371E-12 8.40538E-14
 -1        13-6.27515E+02 1.11153E-11 4.96226E-13-2.08798E-14-5.83380E-12 2.54056E-12
 -1        14-3.13758E+02-1.04563E-11-3.95789E-12 1.14766E-11-2.66846E-12 9.32474E-13
 -1        15-3.13758E+02-1.36750E-11 5.90298E-13-1.73839E-11-5.58322E-12-1.04500E-12
 -1        16-3.13758E+02 3.45705E-11 1.95568E-11-2.49792E-11 1.10768E-12 6.97232E-12
 -1        17-3.13758E+02 2.43322E-11 1.77000E-11 1.73603E-11 2.15336E-12-7.99788E-12
 -1        18-6.27515E+02 1.61670E-11 2.39078E-11 2.19039E-13-6.73702E-12 1.68131E-12
 -1        19-6.27515E+02 3.93784E-11 2.05484E-11-9.79615E-12-4.12544E-12 3.04931E-12
 -1        20-3.13758E+02 4.09140E-12 6.67829E-12 6.55321E-12-1.50392E-12 7.30725E-14
 -1        21-3.13758E+02-3.05547E-11-2.42362E-11-3.53870E-12-8.47756E-12 1.31950E-12
 -1        22-3.13758E+02 2.47264E-11 1.12588E-11-1.10389E-11 6.79581E-12-1.26151E-11
 -1        23-3.13758E+02-4.87984E-13-4.08729E-12 1.35304E-11 6.98847E-12 1.23128E-11
 -1        24-6.27515E+02-4.53379E-11-4.71504E-11-9.97603E-12-1.12391E-11-1.07653E-11
 -3
    1PSTEP                       288          96           1          
  100CL  196 8.22781E-01          24                     0   96           1
 -4  TOSTRAIN    6    1
 -5  EXX         1    4    1    1
 -5  EYY         1    4    2    2
 -5  EZZ         1    4    3    3
 -5  EXY         1    4    1    2
 -5  EYZ         1    4    2    3
 -5  EZX         1    4    3    1
 -1         1-3.00258E-03 9.00774E-04 9.00774E-04 1.30820E-19 4.38289E-20 2.01146E-20
 -1         2-1.50129E-03 4.50387E-04 4.50387E-04 8.07870E-17 1.94358E-20-2.08299E-18
 -1         3-1.50129E-03 4.50387E-04 4.50387E-04-7.26536E-17 3.71106E-20-8.73027E-19
 -1         4-1.50129E-03 4.50387E-04 4.50387E-04 7.39825E-17-1.29514E-20 4.70388E-17
 -1         5-1.50129E-03 4.50387E-04 4.50387E-04-1.05425E-16-2.75856E-20-5.42686E-17
 -1         6-3.00258E-03 9.00774E-04 9.00774E-04 3.27950E-18 1.92765E-20 1.96986E-18
 -1         7-3.00258E-03 9.00774E-04 9.00774E-04-6.66786E-17 1.04764E-17-3.78131E-20
 -1         8-1.50129E-03 4.50387E-04 4.50387E-04 4.74417E-17 7.22173E-18-9.01300E-18
 -1         9-1.50129E-03 4.50387E-04 4.50387E-04-6.03864E-17-1.78931E-17-2.75550E-17
 -1        10-1.50129E-03 4.50387E-04 4.50387E-04 8.71198E-17 3.51499E-17-1.13833E-16
 -1        11-1.50129E-03 4.50387E-04 4.50387E-04-7.52574E-17 2.98124E-17 1.00988E-16
 -1        12-3.00258E-03 9.00774E-04 9.00774E-04 6.70023E-17-2.80431E-17 5.21074E-19
 -1        13-3.00258E-03 9.00774E-04 9.00774E-04-1.29416E-19-3.60054E-17 1.58649E-17
 -1        14-1.50129E-03 4.50387E-04 4.50387E-04 7.11095E-17-1.64694E-17 5.83943E-18
 -1        15-1.50129E-03 4.50387E-04 4.50387E-04-1.07711E-16-3.44589E-17-6.51597E-18
 -1        16-1.50129E-03 4.50387E-04 4.50387E-04-1.54772E-16 6.83646E-18 4.31597E-17
 -1        17-1.50129E-03 4.50387E-04 4.50387E-04 1.07565E-16 1.32902E-17-4.95266E-17
 -1        18-3.00258E-03 9.00774E-04 9.00774E-04 1.35716E-18-4.15799E-17 1.04749E-17
 -1        19-3.00258E-03 9.00774E-04 9.00774E-04-6.11739E-17-2.54616E-17 1.90422E-17
 -1        20-1.50129E-03 4.50387E-04 4.50387E-04 4.03658E-17-9.28197E-18 5.26989E-19
 -1        21-1.50129E-03 4.50387E-04 4.50387E-04-2.12511E-17-5.23223E-17 8.45624E-18
 -1        22-1.50129E-03 4.50387E-04 4.50387E-04-6.77227E-17 4.19428E-17-7.78831E-17
 -1        23-1.50129E-03 4.50387E-04 4.50387E-04 8.36036E-17 4.31319E-17 7.60542E-17
 -1        24-3.00258E-03 9.00774E-04 9.00774E-04-6.22751E-17-6.93659E-17-6.71754E-17
 -3
    1PSTEP                       289          97           1          
  100CL  197 8.31781E-01          24                     0   97           1
 -4  DISP        4    1
 -5  D1          1    2    1    0
 -5  D2          1    2    2    0
 -5  D3          1    2    3    0
 -5  ALL         1    2    0    0    1ALL
 -1         1 0.00000E+00 0.00000E+00 0.00000E+00
 -1         2-1.59084E+00 0.00000E+00 0.00000E+00
 -1         3-1.16813E+01 0.00000E+00 0.00000E+00
 -1         4-1.32721E+01 0.00000E+00 0.00000E+00
 -1         5-2.33626E+01 0.00000E+00 0.00000E+00
 -1         6-2.49534E+01 0.00000E+00 0.00000E+00
 -1         7 0.00000E+00 4.76266E-01 0.00000E+00
 -1         8-1.59084E+00 4.76266E-01 0.00000E+00
 -1         9-1.16813E+01 4.76266E-01 0.00000E+00
 -1        10-1.32721E+01 4.76266E-01 0.00000E+00
 -1        11-2.33626E+01 4.76266E-01 0.00000E+00
 -1        12-2.49534E+01 4.76266E-01 0.00000E+00
 -1        13 0.00000E+00 0.00000E+00 6.66772E-01
 -1        14-1.59084E+00 0.00000E+00 6.66772E-01
 -1        15-1.16813E+01 0.00000E+00 6.66772E-01
 -1        16-1.32721E+01 0.00000E+00 6.66772E-01
 -1        17-2.33626E+01 0.00000E+00 6.66772E-01
 -1        18-2.49534E+01 0.00000E+00 6.66772E-01
 -1        19 0.00000E+00 4.76266E-01 6.66772E-01
 -1        20-1.59084E+00 4.76266E-01 6.66772E-01
 -1        21-1.16813E+01 4.76266E-01 6.66772E-01
 -1        22-1.32721E+01 4.76266E-01 6.66772E-01
 -1        23-2.33626E+01 4.76266E-01 6.66772E-01
 -1        24-2.49534E+01 4.76266E-01 6.66772E-01
 -3
    1PSTEP                       290          97           1          
  100CL  197 8.31781E-01          24                     0   97           1
 -4  STRESS      6    1
 -5  SXX         1    4    1    1
 -5  SYY         1    4    2    2
 -5  SZZ         1    4    3    3
 -5  SXY         1    4    1    2
 -5  SYZ         1    4    2    3
 -5  SZX         1    4    3    1
 -1         1-6.63676E+02 7.47002E-12 2.84798E-12-9.61600E-15 1.30358E-14 6.06477E-15
 -1         2-3.31838E+02-9.15664E-12-4.66888E-12 8.75699E-12-2.33063E-15 1.68897E-12
 -1         3-3.31838E+02-1.17497E-11-3.50146E-12-1.18153E-11 3.40384E-15-1.10556E-12
 -1         4-3.31838E+02 1.34999E-11 5.39215E-12-7.20563E-12-8.55314E-15-1.00204E-13
 -1         5-3.31838E+02 8.06312E-12 5.06222E-12 3.09794E-12 3.39010E-16 2.25870E-13
 -1         6-6.63676E+02 8.93929E-12 1.04262E-11-6.63127E-13-5.15981E-15-1.19558E-12
 -1         7-6.63676E+02 3.05142E-11 2.13453E-11-7.09959E-12 2.13497E-14 1.04068E-15
 -1         8-3.31838E+02 2.10886E-12 3.94970E-12 5.21200E-12-2.52078E-13 2.66100E-12
 -1         9-3.31838E+02-6.22818E-12 1.07339E-12-4.38643E-12-2.19282E-13-1.43820E-12
 -1        10-3.31838E+02 1.88588E-11 9.22847E-12 2.04050E-13-5.28813E-13 1.63141E-12
 -1        11-3.31838E+02 5.08163E-12 2.45466E-12 1.65873E-12-9.75182E-13-2.55759E-12
 -1        12-6.63676E+02 4.17381E-12 7.54349E-12-1.46360E-12-3.78008E-13 5.50609E-13
 -1        13-6.63676E+02 1.48848E-11 1.03193E-11 1.00007E-14-3.16472E-12-6.83098E-13
 -1        14-3.31838E+02-6.81782E-12-1.64884E-12 1.00487E-11-1.79318E-12 1.34439E-12
 -1        15-3.31838E+02-1.07474E-11-1.85838E-12-1.21474E-11-6.91350E-13-2.03706E-12
 -1        16-3.31838E+02 1.30565E-11 6.38224E-12-4.54822E-12-1.05529E-12-8.77296E-13
 -1        17-3.31838E+02 4.55614E-12 4.33967E-12-3.85673E-13 1.86878E-13-1.11068E-13
 -1        18-6.63676E+02 9.96572E-12 1.21689E-11 2.03272E-13 1.49766E-12 1.36236E-12
 -1        19-6.63676E+02 4.20348E-11 3.26886E-11-7.81275E-12-3.15640E-12-1.10173E-12
 -1        20-3.31838E+02 6.50055E-12 9.05392E-12 6.13737E-12-2.04292E-12 2.10962E-12
 -1        21-3.31838E+02 6.84573E-13 8.47869E-12-5.17327E-12-9.10717E-13-2.98306E-12
 -1        22-3.31838E+02 2.38813E-11 1.58326E-11 2.49735E-12-1.58794E-12 3.76887E-13
 -1        23-3.31838E+02 4.56841E-12 4.69457E-12-4.24989E-13-7.91349E-13-8.83576E-13
 -1        24-6.63676E+02 1.11878E-11 1.55074E-11-6.97512E-13 1.12939E-12 2.23656E-12
 -3
    1PSTEP                       291          97           1          
  100CL  197 8.31781E-01          24                     0   97           1
 -4  TOSTRAIN    6    1
 -5  EXX         1    4    1    1
 -5  EYY         1    4    2    2
 -5  EZZ         1    4    3    3
 -5  EXY         1    4    1    2
 -5  EYZ         1    4    2    3
 -5  EZX         1    4    3    1
 -1         1-3.17649E-03 9.52947E-04 9.52947E-04-5.95330E-20 8.04413E-20 3.77122E-20
 -1         2-1.58824E-03 4.76473E-04 4.76473E-04 5.42616E-17-1.43818E-20 1.04656E-17
 -1         3-1.58824E-03 4.76473E-04 4.76473E-04-7.32117E-17 2.10043E-20-6.85039E-18
 -1         4-1.58824E-03 4.76473E-04 4.76473E-04-4.46487E-17-5.27795E-20-6.20845E-19
 -1         5-1.58824E-03 4.76473E-04 4.76473E-04 1.91958E-17 2.09195E-21 1.39958E-18
 -1         6-3.17649E-03 9.52947E-04 9.52947E-04-4.10924E-18-3.18401E-20-7.40824E-18
 -1         7-3.17649E-03 9.52947E-04 9.52947E-04-4.43568E-17 1.31744E-19 6.53114E-21
 -1         8-1.58824E-03 4.76473E-04 4.76473E-04 3.21130E-17-1.55552E-18 1.64886E-17
 -1         9-1.58824E-03 4.76473E-04 4.76473E-04-2.67975E-17-1.35314E-18-8.91159E-18
 -1        10-1.58824E-03 4.76473E-04 4.76473E-04 1.64685E-18-3.26319E-18 1.01088E-17
 -1        11-1.58824E-03 4.76473E-04 4.76473E-04 1.02152E-17-6.01764E-18-1.58478E-17
 -1        12-3.17649E-03 9.52947E-04 9.52947E-04-9.19487E-18-2.33261E-18 3.41188E-18
 -1        13-3.17649E-03 9.52947E-04 9.52947E-04 6.21507E-20-1.95288E-17-4.26809E-18
 -1        14-1.58824E-03 4.76473E-04 4.76473E-04 6.22659E-17-1.10653E-17 8.31267E-18
 -1        15-1.58824E-03 4.76473E-04 4.76473E-04-7.52696E-17-4.26617E-18-1.26709E-17
 -1        16-1.58824E-03 4.76473E-04 4.76473E-04-2.81825E-17-6.51196E-18-5.48457E-18
 -1        17-1.58824E-03 4.76473E-04 4.76473E-04-2.38977E-18 1.15318E-18-6.49718E-19
 -1        18-3.17649E-03 9.52947E-04 9.52947E-04 1.25956E-18 9.24172E-18 8.51869E-18
 -1        19-3.17649E-03 9.52947E-04 9.52947E-04-4.88134E-17-1.94775E-17-6.88345E-18
 -1        20-1.58824E-03 4.76473E-04 4.76473E-04 3.78281E-17-1.26064E-17 1.30436E-17
 -1        21-1.58824E-03 4.76473E-04 4.76473E-04-3.16956E-17-5.61983E-18-1.85521E-17
 -1        22-1.58824E-03 4.76473E-04 4.76473E-04 1.58344E-17-9.79880E-18 2.26743E-18
 -1        23-1.58824E-03 4.76473E-04 4.76473E-04-2.63989E-18-4.88324E-18-5.40799E-18
 -1        24-3.17649E-03 9.52947E-04 9.52947E-04-4.33504E-18 6.96924E-18 1.39925E-17
 -3
    1PSTEP                       292          98           1          
  100CL  198 8.40781E-01          24                     0   98           1
 -4  DISP        4    1
 -5  D1          1    2    1    0
 -5  D2          1    2    2    0
 -5  D3          1    2    3    0
 -5  ALL         1    2    0    0    1ALL
 -1         1 0.00000E+00 0.00000E+00 0.00000E+00
 -1         2-1.67830E+00 0.00000E+00 0.00000E+00
 -1         3-1.17726E+01 0.00000E+00 0.00000E+00
 -1         4-1.34509E+01 0.00000E+00 0.00000E+00
 -1         5-2.35451E+01 0.00000E+00 0.00000E+00
 -1         6-2.52234E+01 0.00000E+00 0.00000E+00
 -1         7 0.00000E+00 5.02391E-01 0.00000E+00
 -1         8-1.67830E+00 5.02391E-01 0.00000E+00
 -1         9-1.17726E+01 5.02391E-01 0.00000E+00
 -1        10-1.34509E+01 5.02391E-01 0.00000E+00
 -1        11-2.35451E+01 5.02391E-01 0.00000E+00
 -1        12-2.52234E+01 5.02391E-01 0.00000E+00
 -1        13 0.00000E+00 0.00000E+00 7.03348E-01
 -1        14-1.67830E+00 0.00000E+00 7.03348E-01
 -1        15-1.17726E+01 0.00000E+00 7.03348E-01
 -1        16-1.34509E+01 0.00000E+00 7.03348E-01
 -1        17-2.35451E+01 0.00000E+00 7.03348E-01
 -1        18-2.52234E+01 0.00000E+00 7.03348E-01
 -1        19 0.00000E+00 5.02391E-01 7.03348E-01
 -1        20-1.67830E+00 5.02391E-01 7.03348E-01
 -1        21-1.17726E+01 5.02391E-01 7.03348E-01
 -1        22-1.34509E+01 5.02391E-01 7.03348E-01
 -1        23-2.35451E+01 5.02391E-01 7.03348E-01
 -1        24-2.52234E+01 5.02391E-01 7.03348E-01
 -3
    1PSTEP                       293          98           1          
  100CL  198 8.40781E-01          24                     0   98           1
 -4  STRESS      6    1
 -5  SXX         1    4    1    1
 -5  SYY         1    4    2    2
 -5  SZZ         1    4    3    3
 -5  SXY         1    4    1    2
 -5  SYZ         1    4    2    3
 -5  SZX         1    4    3    1
 -1         1-6.99904E+02 1.37228E-11 9.59588E-12-2.39687E-15-4.37689E-16 8.91092E-15
 -1         2-3.49952E+02-4.38011E-12 1.54010E-13 7.54658E-12-2.84145E-15 6.78905E-13
 -1         3-3.49952E+02-9.52897E-12-1.73382E-12-1.07931E-11-4.34530E-15-8.92797E-13
 -1         4-3.49952E+02 1.50599E-11 7.22940E-12-4.23830E-12-7.43286E-16 2.88532E-12
 -1         5-3.49952E+02 8.27246E-12 5.99177E-12-1.12945E-12 1.28390E-15-4.17470E-12
 -1         6-6.99904E+02 1.56169E-11 1.64035E-11 6.53122E-13-5.51589E-15 1.83881E-13
 -1         7-6.99904E+02 3.37264E-11 2.55289E-11-6.37601E-12 5.78976E-13-7.85059E-15
 -1         8-3.49952E+02 5.07708E-12 6.83726E-12 4.36456E-12-2.84490E-13 2.65098E-12
 -1         9-3.49952E+02-1.43633E-12 3.62248E-12-3.65335E-12-2.19491E-12-4.94471E-12
 -1        10-3.49952E+02 2.68626E-11 2.10010E-11 2.89887E-12 2.10782E-12-8.36316E-12
 -1        11-3.49952E+02 1.13558E-11 1.25149E-11-1.57332E-12 1.37903E-12 5.57618E-12
 -1        12-6.99904E+02 1.65878E-11 1.75810E-11-1.06137E-12-3.03299E-12 5.98078E-13
 -1        13-6.99904E+02 1.95883E-11 1.38721E-11-1.60283E-14-2.89405E-12 2.39210E-14
 -1        14-3.49952E+02-4.30185E-12 1.00885E-12 1.03138E-11-1.87753E-12 6.88803E-13
 -1        15-3.49952E+02-1.13925E-11 2.45383E-12-1.64337E-11-1.97795E-12-1.57942E-12
 -1        16-3.49952E+02 3.41022E-11 2.06879E-11-2.00562E-11 1.40624E-12 1.76353E-12
 -1        17-3.49952E+02 2.36305E-11 1.74590E-11 1.34849E-11 2.40670E-12-3.04350E-12
 -1        18-6.99904E+02 1.75252E-11 2.69560E-11 1.78573E-13 1.63540E-13 1.14495E-12
 -1        19-6.99904E+02 4.74000E-11 3.78470E-11-7.89529E-12-2.33266E-12-8.37626E-13
 -1        20-3.49952E+02 9.20756E-12 1.17130E-11 6.35635E-12-2.15676E-12 2.22716E-12
 -1        21-3.49952E+02-1.90955E-11-8.15663E-12-3.40211E-12-4.17602E-12-2.24932E-12
 -1        22-3.49952E+02 2.99610E-11 1.83446E-11-6.89132E-12 3.51159E-12-5.21951E-12
 -1        23-3.49952E+02 5.80802E-12 2.99076E-12 9.11318E-12 3.78715E-12 5.37203E-12
 -1        24-6.99904E+02-2.30191E-11-1.35528E-11-9.93524E-12-2.85283E-12-2.38003E-12
 -3
    1PSTEP                       294          98           1          
  100CL  198 8.40781E-01          24                     0   98           1
 -4  TOSTRAIN    6    1
 -5  EXX         1    4    1    1
 -5  EYY         1    4    2    2
 -5  EZZ         1    4    3    3
 -5  EXY         1    4    1    2
 -5  EYZ         1    4    2    3
 -5  EZX         1    4    3    1
 -1         1-3.35082E-03 1.00525E-03 1.00525E-03-1.48361E-20-2.70041E-21 5.54297E-20
 -1         2-1.67541E-03 5.02623E-04 5.02623E-04 4.67639E-17-1.75309E-20 4.20707E-18
 -1         3-1.67541E-03 5.02623E-04 5.02623E-04-6.68815E-17-2.68092E-20-5.53233E-18
 -1         4-1.67541E-03 5.02623E-04 5.02623E-04-2.62635E-17-4.58585E-21 1.78795E-17
 -1         5-1.67541E-03 5.02623E-04 5.02623E-04-6.99889E-18 7.92129E-21-2.58693E-17
 -1         6-3.35082E-03 1.00525E-03 1.00525E-03 4.04714E-18-3.40314E-20 1.13956E-18
 -1         7-3.35082E-03 1.00525E-03 1.00525E-03-3.98562E-17 3.57211E-18-4.86411E-20
 -1         8-1.67541E-03 5.02623E-04 5.02623E-04 2.68728E-17-1.75522E-18 1.64273E-17
 -1         9-1.67541E-03 5.02623E-04 5.02623E-04-2.22507E-17-1.35419E-17-3.06409E-17
 -1        10-1.67541E-03 5.02623E-04 5.02623E-04 1.83515E-17 1.30046E-17-5.18240E-17
 -1        11-1.67541E-03 5.02623E-04 5.02623E-04-9.77832E-18 8.50820E-18 3.45538E-17
 -1        12-3.35082E-03 1.00525E-03 1.00525E-03-6.63478E-18-1.87126E-17 3.70597E-18
 -1        13-3.35082E-03 1.00525E-03 1.00525E-03-9.94272E-20-1.78554E-17 1.49464E-19
 -1        14-1.67541E-03 5.02623E-04 5.02623E-04 6.39117E-17-1.15838E-17 4.26892E-18
 -1        15-1.67541E-03 5.02623E-04 5.02623E-04-1.01834E-16-1.22033E-17-9.82702E-18
 -1        16-1.67541E-03 5.02623E-04 5.02623E-04-1.24282E-16 8.67605E-18 1.08882E-17
 -1        17-1.67541E-03 5.02623E-04 5.02623E-04 8.35617E-17 1.48486E-17-1.87960E-17
 -1        18-3.35082E-03 1.00525E-03 1.00525E-03 1.10637E-18 1.00899E-18 7.22227E-18
 -1        19-3.35082E-03 1.00525E-03 1.00525E-03-4.93546E-17-1.43918E-17-5.23637E-18
 -1        20-1.67541E-03 5.02623E-04 5.02623E-04 3.91734E-17-1.33066E-17 1.37781E-17
 -1        21-1.67541E-03 5.02623E-04 5.02623E-04-2.03720E-17-2.57648E-17-1.37957E-17
 -1        22-1.67541E-03 5.02623E-04 5.02623E-04-4.19935E-17 2.16654E-17-3.22011E-17
 -1        23-1.67541E-03 5.02623E-04 5.02623E-04 5.62260E-17 2.33655E-17 3.32271E-17
 -1        24-3.35082E-03 1.00525E-03 1.00525E-03-6.20568E-17-1.76011E-17-1.48719E-17
 -3
    1PSTEP                       295          99           1          
  100CL  199 8.49781E-01          24                     0   99           1
 -4  DISP        4    1
 -5  D1          1    2    1    0
 -5  D2          1    2    2    0
 -5  D3          1    2    3    0
 -5  ALL         1    2    0    0    1ALL
 -1         1 0.00000E+00 0.00000E+00 0.00000E+00
 -1         2-1.76600E+00 0.00000E+00 0.00000E+00
 -1         3-1.18637E+01 0.00000E+00 0.00000E+00
 -1         4-1.36297E+01 0.00000E+00 0.00000E+00
 -1         5-2.37274E+01 0.00000E+00 0.00000E+00
 -1         6-2.54934E+01 0.00000E+00 0.00000E+00
 -1         7 0.00000E+00 5.28586E-01 0.00000E+00
 -1         8-1.76600E+00 5.28586E-01 0.00000E+00
 -1         9-1.18637E+01 5.28586E-01 0.00000E+00
 -1        10-1.36297E+01 5.28586E-01 0.00000E+00
 -1        11-2.37274E+01 5.28586E-01 0.00000E+00
 -1        12-2.54934E+01 5.28586E-01 0.00000E+00
 -1        13 0.00000E+00 0.00000E+00 7.40021E-01
 -1        14-1.76600E+00 0.00000E+00 7.40021E-01
 -1        15-1.18637E+01 0.00000E+00 7.40021E-01
 -1        16-1.36297E+01 0.00000E+00 7.40021E-01
 -1        17-2.37274E+01 0.00000E+00 7.40021E-01
 -1        18-2.54934E+01 0.00000E+00 7.40021E-01
 -1        19 0.00000E+00 5.28586E-01 7.40021E-01
 -1        20-1.76600E+00 5.28586E-01 7.40021E-01
 -1        21-1.18637E+01 5.28586E-01 7.40021E-01
 -1        22-1.36297E+01 5.28586E-01 7.40021E-01
 -1        23-2.37274E+01 5.28586E-01 7.40021E-01
 -1        24-2.54934E+01 5.28586E-01 7.40021E-01
 -3
    1PSTEP                       296          99           1          
  100CL  199 8.49781E-01          24                     0   99           1
 -4  STRESS      6    1
 -5  SXX         1    4    1    1
 -5  SYY         1    4    2    2
 -5  SZZ         1    4    3    3
 -5  SXY         1    4    1    2
 -5  SYZ         1    4    2    3
 -5  SZX         1    4    3    1
 -1         1-7.36210E+02 2.51696E-11 2.46968E-11-8.44132E-15-7.84845E-15-1.66051E-14
 -1         2-3.68105E+02 1.15761E-11 1.45126E-11 5.85924E-14 7.22660E-15-3.60336E-12
 -1         3-3.68105E+02 3.36383E-12 1.33462E-11-5.91439E-12-5.63968E-15 3.80094E-12
 -1         4-3.68105E+02 3.06196E-11 1.94334E-11-1.13542E-11-1.00760E-15 2.59666E-12
 -1         5-3.68105E+02 2.52677E-11 1.90554E-11 7.31400E-12-5.93267E-15-1.44172E-12
 -1         6-7.36210E+02 2.62209E-11 3.09672E-11 6.91355E-13 4.20242E-15-5.20212E-13
 -1         7-7.36210E+02 2.44346E-11 2.30380E-11-1.38436E-12 2.62335E-12 9.36960E-15
 -1         8-3.68105E+02 9.73109E-12 1.00352E-11-6.29366E-13-5.58408E-13 3.06674E-12
 -1         9-3.68105E+02-5.38115E-12 3.22833E-12 2.53952E-12-2.38645E-12-4.96543E-12
 -1        10-3.68105E+02 2.58649E-11 1.90158E-11-2.86462E-12 2.59326E-12-6.62991E-12
 -1        11-3.68105E+02 1.75692E-11 1.63258E-11 3.87877E-12 8.34457E-13 5.66260E-12
 -1        12-7.36210E+02 7.12178E-12 1.56282E-11-8.33266E-12-2.22240E-12-2.37539E-13
 -1        13-7.36210E+02 2.29203E-11 1.49820E-11-6.27337E-16-6.38744E-13 2.50413E-12
 -1        14-3.68105E+02 1.10185E-12 5.66488E-12 9.40141E-12-1.84389E-12-2.35257E-12
 -1        15-3.68105E+02-1.04209E-11 6.09720E-12-1.83237E-11-9.17282E-13 1.10516E-12
 -1        16-3.68105E+02 4.09333E-11 2.25692E-11-2.39109E-11 2.95068E-12-3.63191E-13
 -1        17-3.68105E+02 3.27328E-11 2.42155E-11 1.80957E-11 3.39430E-12-8.99741E-13
 -1        18-7.36210E+02 2.20469E-11 3.29479E-11-9.23528E-13 2.95171E-12 9.15836E-13
 -1        19-7.36210E+02 5.07186E-11 4.16227E-11-6.57774E-12 1.99245E-12-5.08564E-13
 -1        20-3.68105E+02 1.32270E-11 1.51890E-11 6.11286E-12-2.40952E-12 2.84349E-12
 -1        21-3.68105E+02-2.10796E-11-5.78629E-12-3.00530E-12-3.29537E-12-3.64775E-12
 -1        22-3.68105E+02 3.44130E-11 2.02378E-11-8.60206E-12 5.53481E-12-5.44042E-12
 -1        23-3.68105E+02 9.57820E-12 5.85023E-12 1.16356E-11 4.21666E-12 5.15868E-12
 -1        24-7.36210E+02-2.82609E-11-1.30697E-11-1.27362E-11 7.34765E-13-1.07445E-12
 -3
    1PSTEP                       297          99           1          
  100CL  199 8.49781E-01          24                     0   99           1
 -4  TOSTRAIN    6    1
 -5  EXX         1    4    1    1
 -5  EYY         1    4    2    2
 -5  EZZ         1    4    3    3
 -5  EXY         1    4    1    2
 -5  EYZ         1    4    2    3
 -5  EZX         1    4    3    1
 -1         1-3.52563E-03 1.05769E-03 1.05769E-03-5.24832E-20-4.84140E-20-1.03542E-19
 -1         2-1.76281E-03 5.28844E-04 5.28844E-04 3.63012E-19 4.45781E-20-2.23304E-17
 -1         3-1.76281E-03 5.28844E-04 5.28844E-04-3.66516E-17-3.47890E-20 2.35545E-17
 -1         4-1.76281E-03 5.28844E-04 5.28844E-04-7.03625E-17-6.21552E-21 1.60915E-17
 -1         5-1.76281E-03 5.28844E-04 5.28844E-04 4.53251E-17-3.65963E-20-8.93461E-18
 -1         6-3.52563E-03 1.05769E-03 1.05769E-03 4.28454E-18 2.59231E-20-3.22424E-18
 -1         7-3.52563E-03 1.05769E-03 1.05769E-03-8.65779E-18 1.61824E-17 5.86778E-20
 -1         8-1.76281E-03 5.28844E-04 5.28844E-04-3.93964E-18-3.44460E-18 1.90049E-17
 -1         9-1.76281E-03 5.28844E-04 5.28844E-04 1.62215E-17-1.47211E-17-3.07710E-17
 -1        10-1.76281E-03 5.28844E-04 5.28844E-04-1.72680E-17 1.59968E-17-4.10858E-17
 -1        11-1.76281E-03 5.28844E-04 5.28844E-04 2.38274E-17 5.14744E-18 3.50917E-17
 -1        12-3.52563E-03 1.05769E-03 1.05769E-03-5.20566E-17-1.37091E-17-1.47113E-18
 -1        13-3.52563E-03 1.05769E-03 1.05769E-03-3.88971E-21-3.94016E-18 1.56615E-17
 -1        14-1.76281E-03 5.28844E-04 5.28844E-04 5.82608E-17-1.13742E-17-1.45072E-17
 -1        15-1.76281E-03 5.28844E-04 5.28844E-04-1.13552E-16-5.65836E-18 6.69381E-18
 -1        16-1.76281E-03 5.28844E-04 5.28844E-04-1.48176E-16 1.82016E-17-2.40559E-18
 -1        17-1.76281E-03 5.28844E-04 5.28844E-04 1.12140E-16 2.09381E-17-5.53270E-18
 -1        18-3.52563E-03 1.05769E-03 1.05769E-03-5.72308E-18 1.82079E-17 5.76148E-18
 -1        19-3.52563E-03 1.05769E-03 1.05769E-03-4.11387E-17 1.22907E-17-3.17973E-18
 -1        20-1.76281E-03 5.28844E-04 5.28844E-04 3.76934E-17-1.48634E-17 1.76071E-17
 -1        21-1.76281E-03 5.28844E-04 5.28844E-04-1.77477E-17-2.03279E-17-2.25409E-17
 -1        22-1.76281E-03 5.28844E-04 5.28844E-04-5.24309E-17 3.41421E-17-3.36501E-17
 -1        23-1.76281E-03 5.28844E-04 5.28844E-04 7.17434E-17 2.60109E-17 3.19034E-17
 -1        24-3.52563E-03 1.05769E-03 1.05769E-03-7.96523E-17 4.53248E-18-6.78860E-18
 -3
    1PSTEP                       298         100           1          
  100CL  200 8.58781E-01          24                     0  100           1
 -4  DISP        4    1
 -5  D1          1    2    1    0
 -5  D2          1    2    2    0
 -5  D3          1    2    3    0
 -5  ALL         1    2    0    0    1ALL
 -1         1 0.00000E+00 0.00000E+00 0.00000E+00
 -1         2-1.85399E+00 0.00000E+00 0.00000E+00
 -1         3-1.19547E+01 0.00000E+00 0.00000E+00
 -1         4-1.38087E+01 0.00000E+00 0.00000E+00
 -1         5-2.39094E+01 0.00000E+00 0.00000E+00
 -1         6-2.57634E+01 0.00000E+00 0.00000E+00
 -1         7 0.00000E+00 5.54859E-01 0.00000E+00
 -1         8-1.85399E+00 5.54859E-01 0.00000E+00
 -1         9-1.19547E+01 5.54859E-01 0.00000E+00
 -1        10-1.38087E+01 5.54859E-01 0.00000E+00
 -1        11-2.39094E+01 5.54859E-01 0.00000E+00
 -1        12-2.57634E+01 5.54859E-01 0.00000E+00
 -1        13 0.00000E+00 0.00000E+00 7.76803E-01
 -1        14-1.85399E+00 0.00000E+00 7.76803E-01
 -1        15-1.19547E+01 0.00000E+00 7.76803E-01
 -1        16-1.38087E+01 0.00000E+00 7.76803E-01
 -1        17-2.39094E+01 0.00000E+00 7.76803E-01
 -1        18-2.57634E+01 0.00000E+00 7.76803E-01
 -1        19 0.00000E+00 5.54859E-01 7.76803E-01
 -1        20-1.85399E+00 5.54859E-01 7.76803E-01
 -1        21-1.19547E+01 5.54859E-01 7.76803E-01
 -1        22-1.38087E+01 5.54859E-01 7.76803E-01
 -1        23-2.39094E+01 5.54859E-01 7.76803E-01
 -1        24-2.57634E+01 5.54859E-01 7.76803E-01
 -3
    1PSTEP                       299         100           1          
  100CL  200 8.58781E-01          24                     0  100           1
 -4  STRESS      6    1
 -5  SXX         1    4    1    1
 -5  SYY         1    4    2    2
 -5  SZZ         1    4    3    3
 -5  SXY         1    4    1    2
 -5  SYZ         1    4    2    3
 -5  SZX         1    4    3    1
 -1         1-7.72605E+02 3.84248E-11 3.90479E-11 8.69223E-16-1.47451E-15 5.38848E-15
 -1         2-3.86302E+02 2.24334E-11 2.12296E-11-3.80974E-12 4.30359E-15-2.58402E-12
 -1         3-3.86302E+02 1.50782E-11 2.32673E-11-1.19577E-12 5.81202E-15 7.64441E-12
 -1         4-3.86302E+02 2.54539E-11 1.02788E-11-3.58120E-12-3.80825E-16 1.41714E-11
 -1         5-3.86302E+02 2.09187E-11 1.05611E-11 1.23153E-12 3.36945E-16-1.25308E-11
 -1         6-7.72605E+02 3.55956E-11 3.70920E-11 3.72509E-13 8.57075E-15-1.96404E-14
 -1         7-7.72605E+02 2.85913E-11 3.14951E-11 1.69700E-12 1.60307E-12-2.26218E-15
 -1         8-3.86302E+02 1.54710E-11 1.24352E-11-2.96168E-12-1.74093E-12 6.43846E-12
 -1         9-3.86302E+02 9.38245E-12 1.53489E-11 4.26958E-12-6.21412E-12-5.12933E-12
 -1        10-3.86302E+02 2.80366E-11 2.13907E-11 2.06271E-12 3.57382E-12-7.46089E-12
 -1        11-3.86302E+02 2.42561E-11 2.18218E-11-9.67034E-13 9.09780E-13 6.87432E-12
 -1        12-7.72605E+02 3.30278E-11 3.87651E-11-5.03486E-12-8.58449E-12-1.12126E-12
 -1        13-7.72605E+02 3.54385E-11 3.16397E-11-1.69479E-14 1.59335E-12 3.24348E-13
 -1        14-3.86302E+02 8.53930E-12 1.21652E-11 8.78289E-12-1.23598E-12-2.42454E-12
 -1        15-3.86302E+02-1.16511E-12 2.43800E-11-1.94751E-11-1.54163E-12-6.80495E-13
 -1        16-3.86302E+02 5.71132E-11 3.18768E-11-3.39175E-11 6.01405E-12 5.82471E-12
 -1        17-3.86302E+02 5.04097E-11 3.70716E-11 2.71416E-11 5.71314E-12-7.34557E-12
 -1        18-7.72605E+02 4.35712E-11 6.94359E-11-1.00165E-12 2.69353E-12 8.66190E-12
 -1        19-7.72605E+02 6.37910E-11 6.19765E-11-5.34743E-12 3.23395E-12-3.71616E-12
 -1        20-3.86302E+02 2.02253E-11 2.21674E-11 6.11765E-12-2.98604E-12 4.58151E-12
 -1        21-3.86302E+02-2.45991E-11-1.30803E-12-4.99779E-13-7.74202E-12-6.65251E-12
 -1        22-3.86302E+02 4.16612E-11 2.50708E-11-1.49900E-11 9.57778E-12-7.85115E-12
 -1        23-3.86302E+02 1.59202E-11 1.10356E-11 1.75917E-11 6.62191E-12 6.84699E-12
 -1        24-7.72605E+02-3.46505E-11-5.26314E-12-1.93004E-11-5.80085E-12 1.66340E-12
 -3
    1PSTEP                       300         100           1          
  100CL  200 8.58781E-01          24                     0  100           1
 -4  TOSTRAIN    6    1
 -5  EXX         1    4    1    1
 -5  EYY         1    4    2    2
 -5  EZZ         1    4    3    3
 -5  EXY         1    4    1    2
 -5  EYZ         1    4    2    3
 -5  EZX         1    4    3    1
 -1         1-3.70096E-03 1.11029E-03 1.11029E-03 5.47487E-21-9.09405E-21 3.29927E-20
 -1         2-1.85048E-03 5.55145E-04 5.55145E-04-2.36102E-17 2.65425E-20-1.60143E-17
 -1         3-1.85048E-03 5.55145E-04 5.55145E-04-7.41073E-18 3.58457E-20 4.73752E-17
 -1         4-1.85048E-03 5.55145E-04 5.55145E-04-2.21941E-17-2.34875E-21 8.78253E-17
 -1         5-1.85048E-03 5.55145E-04 5.55145E-04 7.63220E-18 2.07811E-21-7.76580E-17
 -1         6-3.70096E-03 1.11029E-03 1.11029E-03 2.30850E-18 5.28603E-20-1.21967E-19
 -1         7-3.70096E-03 1.11029E-03 1.11029E-03 1.06189E-17 9.88695E-18-1.37595E-20
 -1         8-1.85048E-03 5.55145E-04 5.55145E-04-1.83035E-17-1.07372E-17 3.99015E-17
 -1         9-1.85048E-03 5.55145E-04 5.55145E-04 2.67906E-17-3.83257E-17-3.17881E-17
 -1        10-1.85048E-03 5.55145E-04 5.55145E-04 1.31139E-17 2.20416E-17-4.62376E-17
 -1        11-1.85048E-03 5.55145E-04 5.55145E-04-6.13159E-18 5.61109E-18 4.26027E-17
 -1        12-3.70096E-03 1.11029E-03 1.11029E-03-3.14799E-17-5.29450E-17-6.94846E-18
 -1        13-3.70096E-03 1.11029E-03 1.11029E-03-1.05250E-19 9.82703E-18 2.02886E-18
 -1        14-1.85048E-03 5.55145E-04 5.55145E-04 5.44305E-17-7.62292E-18-1.50164E-17
 -1        15-1.85048E-03 5.55145E-04 5.55145E-04-1.20694E-16-9.50803E-18-4.72284E-18
 -1        16-1.85048E-03 5.55145E-04 5.55145E-04-2.10198E-16 3.70918E-17 3.55922E-17
 -1        17-1.85048E-03 5.55145E-04 5.55145E-04 1.68206E-16 3.52359E-17-4.52422E-17
 -1        18-3.70096E-03 1.11029E-03 1.11029E-03-6.20737E-18 1.66124E-17 5.42425E-17
 -1        19-3.70096E-03 1.11029E-03 1.11029E-03-3.34604E-17 1.99455E-17-2.32532E-17
 -1        20-1.85048E-03 5.55145E-04 5.55145E-04 3.77530E-17-1.84165E-17 2.82818E-17
 -1        21-1.85048E-03 5.55145E-04 5.55145E-04-1.95778E-18-4.77491E-17-4.12851E-17
 -1        22-1.85048E-03 5.55145E-04 5.55145E-04-9.17588E-17 5.90712E-17-4.87135E-17
 -1        23-1.85048E-03 5.55145E-04 5.55145E-04 1.08453E-16 4.08408E-17 4.24550E-17
 -1        24-3.70096E-03 1.11029E-03 1.11029E-03-1.20748E-16-3.57769E-17 1.03524E-17
 -3
    1PSTEP                       301         101           1          
  100CL  201 8.67781E-01          24                     0  101           1
 -4  DISP        4    1
 -5  D1          1    2    1    0
 -5  D2          1    2    2    0
 -5  D3          1    2    3    0
 -5  ALL         1    2    0    0    1ALL
 -1         1 0.00000E+00 0.00000E+00 0.00000E+00
 -1         2-1.94229E+00 0.00000E+00 0.00000E+00
 -1         3-1.20456E+01 0.00000E+00 0.00000E+00
 -1         4-1.39879E+01 0.00000E+00 0.00000E+00
 -1         5-2.40911E+01 0.00000E+00 0.00000E+00
 -1         6-2.60334E+01 0.00000E+00 0.00000E+00
 -1         7 0.00000E+00 5.81218E-01 0.00000E+00
 -1         8-1.94229E+00 5.81218E-01 0.00000E+00
 -1         9-1.20456E+01 5.81218E-01 0.00000E+00
 -1        10-1.39879E+01 5.81218E-01 0.00000E+00
 -1        11-2.40911E+01 5.81218E-01 0.00000E+00
 -1        12-2.60334E+01 5.81218E-01 0.00000E+00
 -1        13 0.00000E+00 0.00000E+00 8.13706E-01
 -1        14-1.94229E+00 0.00000E+00 8.13706E-01
 -1        15-1.20456E+01 0.00000E+00 8.13706E-01
 -1        16-1.39879E+01 0.00000E+00 8.13706E-01
 -1        17-2.40911E+01 0.00000E+00 8.13706E-01
 -1        18-2.60334E+01 0.00000E+00 8.13706E-01
 -1        19 0.00000E+00 5.81218E-01 8.13706E-01
 -1        20-1.94229E+00 5.81218E-01 8.13706E-01
 -1        21-1.20456E+01 5.81218E-01 8.13706E-01
 -1        22-1.39879E+01 5.81218E-01 8.13706E-01
 -1        23-2.40911E+01 5.81218E-01 8.13706E-01
 -1        24-2.60334E+01 5.81218E-01 8.13706E-01
 -3
    1PSTEP                       302         101           1          
  100CL  201 8.67781E-01          24                     0  101           1
 -4  STRESS      6    1
 -5  SXX         1    4    1    1
 -5  SYY         1    4    2    2
 -5  SZZ         1    4    3    3
 -5  SXY         1    4    1    2
 -5  SYZ         1    4    2    3
 -5  SZX         1    4    3    1
 -1         1-8.09101E+02 7.04179E-11 6.96909E-11 1.92623E-14 1.11291E-14-6.62418E-15
 -1         2-4.04551E+02 3.41907E-11 3.22962E-11-6.72798E-13 3.05622E-15 6.98524E-13
 -1         3-4.04551E+02 2.76110E-11 3.57671E-11-3.24770E-12-1.52900E-15 6.81497E-12
 -1         4-4.04551E+02 3.38780E-11 1.62901E-11 1.00707E-12-4.98382E-15 2.00516E-11
 -1         5-4.04551E+02 2.91883E-11 1.72317E-11-3.54283E-12-4.01944E-15-1.75242E-11
 -1         6-8.09101E+02 6.37787E-11 6.33245E-11-9.88634E-13 2.41848E-15-2.08776E-13
 -1         7-8.09101E+02 6.94407E-11 6.97700E-11-1.79465E-14-2.40117E-13-2.36190E-15
 -1         8-4.04551E+02 3.22157E-11 2.93482E-11-6.91403E-13-1.73249E-12 6.35959E-12
 -1         9-4.04551E+02 3.19561E-11 3.76818E-11 1.82767E-12-7.22173E-12-3.71368E-12
 -1        10-4.04551E+02 4.69540E-11 3.85224E-11 5.80704E-12 3.07711E-12-5.99648E-12
 -1        11-4.04551E+02 4.27045E-11 3.95863E-11-5.20430E-12 5.60390E-13 6.14041E-12
 -1        12-8.09101E+02 7.92160E-11 8.20125E-11-7.51296E-13-1.14242E-11-6.38275E-14
 -1        13-8.09101E+02 7.20913E-11 7.18915E-11-2.47638E-14 1.01114E-12-1.93946E-12
 -1        14-4.04551E+02 2.70356E-11 3.00666E-11 7.21201E-12-7.94145E-13-2.67894E-13
 -1        15-4.04551E+02 1.97238E-11 4.80851E-11-1.84056E-11-1.69270E-12-3.87120E-12
 -1        16-4.04551E+02 7.62360E-11 5.02096E-11-3.49709E-11 6.33788E-12 9.25451E-12
 -1        17-4.04551E+02 6.97539E-11 5.60298E-11 2.87643E-11 6.29901E-12-1.10698E-11
 -1        18-8.09101E+02 8.26416E-11 1.14557E-10 6.28919E-14 2.08117E-12 1.35057E-11
 -1        19-8.09101E+02 9.50185E-11 9.64679E-11-4.45545E-12 7.95960E-13-4.53910E-12
 -1        20-4.04551E+02 3.71610E-11 3.89226E-11 4.99667E-12-2.53453E-12 4.09122E-12
 -1        21-4.04551E+02-8.02976E-12 1.78468E-11 8.81536E-13-8.92460E-12-6.12139E-12
 -1        22-4.04551E+02 5.72133E-11 4.01408E-11-1.61402E-11 9.40114E-12-9.10361E-12
 -1        23-4.04551E+02 3.15928E-11 2.67697E-11 1.88848E-11 6.86403E-12 6.84698E-12
 -1        24-8.09101E+02-4.68278E-12 3.00156E-11-2.01199E-11-9.34997E-12 3.78480E-12
 -3
    1PSTEP                       303         101           1          
  100CL  201 8.67781E-01          24                     0  101           1
 -4  TOSTRAIN    6    1
 -5  EXX         1    4    1    1
 -5  EYY         1    4    2    2
 -5  EZZ         1    4    3    3
 -5  EXY         1    4    1    2
 -5  EYZ         1    4    2    3
 -5  EZX         1    4    3    1
 -1         1-3.87689E-03 1.16307E-03 1.16307E-03 1.19536E-19 6.86270E-20-4.12563E-20
 -1         2-1.93844E-03 5.81533E-04 5.81533E-04-4.16971E-18 1.88460E-20 4.32912E-18
 -1         3-1.93844E-03 5.81533E-04 5.81533E-04-2.01281E-17-9.42847E-21 4.22371E-17
 -1         4-1.93844E-03 5.81533E-04 5.81533E-04 6.24149E-18-3.07324E-20 1.24273E-16
 -1         5-1.93844E-03 5.81533E-04 5.81533E-04-2.19572E-17-2.47856E-20-1.08609E-16
 -1         6-3.87689E-03 1.16307E-03 1.16307E-03-6.12710E-18 1.49134E-20-1.29362E-18
 -1         7-3.87689E-03 1.16307E-03 1.16307E-03-1.13415E-19-1.48066E-18-1.41096E-20
 -1         8-1.93844E-03 5.81533E-04 5.81533E-04-4.28618E-18-1.06833E-17 3.94149E-17
 -1         9-1.93844E-03 5.81533E-04 5.81533E-04 1.16432E-17-4.45323E-17-2.30161E-17
 -1        10-1.93844E-03 5.81533E-04 5.81533E-04 3.63060E-17 1.89748E-17-3.71641E-17
 -1        11-1.93844E-03 5.81533E-04 5.81533E-04-3.23354E-17 3.45560E-18 3.80563E-17
 -1        12-3.87689E-03 1.16307E-03 1.16307E-03-4.81801E-18-7.04466E-17-3.95475E-19
 -1        13-3.87689E-03 1.16307E-03 1.16307E-03-1.53776E-19 6.23511E-18-1.21420E-17
 -1        14-1.93844E-03 5.81533E-04 5.81533E-04 4.46976E-17-4.89704E-18-1.72127E-18
 -1        15-1.93844E-03 5.81533E-04 5.81533E-04-1.14072E-16-1.04379E-17-2.46638E-17
 -1        16-1.93844E-03 5.81533E-04 5.81533E-04-2.16738E-16 3.90821E-17 5.66851E-17
 -1        17-1.93844E-03 5.81533E-04 5.81533E-04 1.78272E-16 3.88424E-17-6.82004E-17
 -1        18-3.87689E-03 1.16307E-03 1.16307E-03 3.89486E-19 1.28334E-17 8.45166E-17
 -1        19-3.87689E-03 1.16307E-03 1.16307E-03-2.78927E-17 4.90823E-18-2.84170E-17
 -1        20-1.93844E-03 5.81533E-04 5.81533E-04 3.08281E-17-1.56290E-17 2.52135E-17
 -1        21-1.93844E-03 5.81533E-04 5.81533E-04 6.67180E-18-5.50329E-17-3.81095E-17
 -1        22-1.93844E-03 5.81533E-04 5.81533E-04-9.88236E-17 5.79715E-17-5.65923E-17
 -1        23-1.93844E-03 5.81533E-04 5.81533E-04 1.16417E-16 4.23265E-17 4.25169E-17
 -1        24-3.87689E-03 1.16307E-03 1.16307E-03-1.25947E-16-5.76559E-17 2.36200E-17
 -3
    1PSTEP                       304         102           1          
  100CL  202 8.76781E-01          24                     0  102           1
 -4  DISP        4    1
 -5  D1          1    2    1    0
 -5  D2          1    2    2    0
 -5  D3          1    2    3    0
 -5  ALL         1    2    0    0    1ALL
 -1         1 0.00000E+00 0.00000E+00 0.00000E+00
 -1         2-2.03094E+00 0.00000E+00 0.00000E+00
 -1         3-1.21363E+01 0.00000E+00 0.00000E+00
 -1         4-1.41672E+01 0.00000E+00 0.00000E+00
 -1         5-2.42725E+01 0.00000E+00 0.00000E+00
 -1         6-2.63034E+01 0.00000E+00 0.00000E+00
 -1         7 0.00000E+00 6.07674E-01 0.00000E+00
 -1         8-2.03094E+00 6.07674E-01 0.00000E+00
 -1         9-1.21363E+01 6.07674E-01 0.00000E+00
 -1        10-1.41672E+01 6.07674E-01 0.00000E+00
 -1        11-2.42725E+01 6.07674E-01 0.00000E+00
 -1        12-2.63034E+01 6.07674E-01 0.00000E+00
 -1        13 0.00000E+00 0.00000E+00 8.50743E-01
 -1        14-2.03094E+00 0.00000E+00 8.50743E-01
 -1        15-1.21363E+01 0.00000E+00 8.50743E-01
 -1        16-1.41672E+01 0.00000E+00 8.50743E-01
 -1        17-2.42725E+01 0.00000E+00 8.50743E-01
 -1        18-2.63034E+01 0.00000E+00 8.50743E-01
 -1        19 0.00000E+00 6.07674E-01 8.50743E-01
 -1        20-2.03094E+00 6.07674E-01 8.50743E-01
 -1        21-1.21363E+01 6.07674E-01 8.50743E-01
 -1        22-1.41672E+01 6.07674E-01 8.50743E-01
 -1        23-2.42725E+01 6.07674E-01 8.50743E-01
 -1        24-2.63034E+01 6.07674E-01 8.50743E-01
 -3
    1PSTEP                       305         102           1          
  100CL  202 8.76781E-01          24                     0  102           1
 -4  STRESS      6    1
 -5  SXX         1    4    1    1
 -5  SYY         1    4    2    2
 -5  SZZ         1    4    3    3
 -5  SXY         1    4    1    2
 -5  SYZ         1    4    2    3
 -5  SZX         1    4    3    1
 -1         1-8.45712E+02-1.19618E-12-2.48712E-12 2.32559E-14-3.72819E-15-1.57105E-14
 -1         2-4.22856E+02-3.21889E-12-4.65603E-12 6.93863E-13 2.20814E-15 1.41365E-12
 -1         3-4.22856E+02-7.49504E-12 1.69851E-12-3.89993E-12-1.74473E-15 7.39121E-12
 -1         4-4.22856E+02-9.43815E-13-1.91868E-11-1.12738E-12 1.69463E-15 1.75261E-11
 -1         5-4.22856E+02-5.20304E-12-1.69502E-11-1.82603E-12-8.62673E-15-1.44449E-11
 -1         6-8.45712E+02-5.14327E-12-5.65933E-12-5.99666E-13 5.46604E-15-1.37682E-13
 -1         7-8.45712E+02 1.32073E-12 6.21967E-13-8.36635E-13-6.06135E-13-4.90637E-15
 -1         8-4.22856E+02-3.04205E-12-5.49862E-12 2.63917E-13-1.51633E-12 5.60698E-12
 -1         9-4.22856E+02-4.00626E-12 4.06300E-12 1.38451E-12-5.37452E-12-6.37657E-14
 -1        10-4.22856E+02 7.93850E-12-4.30007E-12 4.29729E-12 9.13807E-13 2.37453E-12
 -1        11-4.22856E+02 2.42293E-12-2.63349E-12-3.36475E-12-1.07693E-12-7.99423E-13
 -1        12-8.45712E+02 3.21385E-12 5.78913E-12-1.74912E-12-9.47531E-12-2.47379E-13
 -1        13-8.45712E+02 1.77499E-12 2.15069E-12-2.74339E-14 5.63938E-13-2.18362E-12
 -1        14-4.22856E+02-7.86602E-12-5.07670E-12 6.62340E-12-7.32390E-13 3.20131E-13
 -1        15-4.22856E+02-1.17340E-11 1.26044E-11-1.42568E-11-8.27548E-13-4.11635E-12
 -1        16-4.22856E+02 2.55519E-11 4.75500E-12-2.24502E-11 4.21044E-12 6.09628E-12
 -1        17-4.22856E+02 2.05380E-11 1.18164E-11 1.71188E-11 4.65003E-12-8.75660E-12
 -1        18-8.45712E+02 1.06784E-11 3.64011E-11 2.28673E-13 2.48865E-12 1.24269E-11
 -1        19-8.45712E+02 2.26755E-11 2.34095E-11-4.29748E-12-3.84684E-14-4.13828E-12
 -1        20-4.22856E+02 1.35433E-12 3.15556E-12 4.48838E-12-2.25093E-12 3.57599E-12
 -1        21-4.22856E+02-2.47683E-11-1.78806E-12-2.79783E-13-6.23731E-12-6.70672E-12
 -1        22-4.22856E+02 1.79111E-11 3.18136E-12-8.37824E-12 5.13560E-12-3.69283E-12
 -1        23-4.22856E+02-1.13821E-12-3.34866E-12 1.20392E-11 3.56907E-12 2.10820E-12
 -1        24-8.45712E+02-4.01619E-11-1.08174E-11-1.41581E-11-6.92883E-12 6.57489E-12
 -3
    1PSTEP                       306         102           1          
  100CL  202 8.76781E-01          24                     0  102           1
 -4  TOSTRAIN    6    1
 -5  EXX         1    4    1    1
 -5  EYY         1    4    2    2
 -5  EZZ         1    4    3    3
 -5  EXY         1    4    1    2
 -5  EYZ         1    4    2    3
 -5  EZX         1    4    3    1
 -1         1-4.05346E-03 1.21604E-03 1.21604E-03 1.44020E-19-2.29856E-20-9.75370E-20
 -1         2-2.02673E-03 6.08019E-04 6.08019E-04 4.30050E-18 1.36139E-20 8.76173E-18
 -1         3-2.02673E-03 6.08019E-04 6.08019E-04-2.41717E-17-1.07569E-20 4.58107E-17
 -1         4-2.02673E-03 6.08019E-04 6.08019E-04-6.98744E-18 1.04480E-20 1.08627E-16
 -1         5-2.02673E-03 6.08019E-04 6.08019E-04-1.13177E-17-5.31867E-20-8.95293E-17
 -1         6-4.05346E-03 1.21604E-03 1.21604E-03-3.71664E-18 3.36999E-20-8.53333E-19
 -1         7-4.05346E-03 1.21604E-03 1.21604E-03-5.24221E-18-3.73702E-18-3.07897E-20
 -1         8-2.02673E-03 6.08019E-04 6.08019E-04 1.60738E-18-9.34866E-18 3.47519E-17
 -1         9-2.02673E-03 6.08019E-04 6.08019E-04 8.93122E-18-3.31357E-17-3.95101E-19
 -1        10-2.02673E-03 6.08019E-04 6.08019E-04 2.69846E-17 5.63392E-18 1.47174E-17
 -1        11-2.02673E-03 6.08019E-04 6.08019E-04-2.09310E-17-6.63960E-18-4.95497E-18
 -1        12-4.05346E-03 1.21604E-03 1.21604E-03-1.09935E-17-5.84184E-17-1.53355E-18
 -1        13-4.05346E-03 1.21604E-03 1.21604E-03-1.69953E-19 3.47687E-18-1.36773E-17
 -1        14-2.02673E-03 6.08019E-04 6.08019E-04 4.10519E-17-4.51543E-18 1.91257E-18
 -1        15-2.02673E-03 6.08019E-04 6.08019E-04-8.83634E-17-5.10211E-18-2.62699E-17
 -1        16-2.02673E-03 6.08019E-04 6.08019E-04-1.39146E-16 2.59587E-17 3.70280E-17
 -1        17-2.02673E-03 6.08019E-04 6.08019E-04 1.06102E-16 2.86690E-17-5.38634E-17
 -1        18-4.05346E-03 1.21604E-03 1.21604E-03 1.41705E-18 1.53434E-17 7.78422E-17
 -1        19-4.05346E-03 1.21604E-03 1.21604E-03-2.69169E-17-2.37170E-19-2.59207E-17
 -1        20-2.02673E-03 6.08019E-04 6.08019E-04 2.76784E-17-1.38777E-17 2.20282E-17
 -1        21-2.02673E-03 6.08019E-04 6.08019E-04-8.12305E-19-3.84551E-17-4.19976E-17
 -1        22-2.02673E-03 6.08019E-04 6.08019E-04-5.10066E-17 3.16627E-17-2.33175E-17
 -1        23-2.02673E-03 6.08019E-04 6.08019E-04 7.42115E-17 2.20045E-17 1.32577E-17
 -1        24-4.05346E-03 1.21604E-03 1.21604E-03-8.85670E-17-4.27185E-17 4.11333E-17
 -3
    1PSTEP                       307         103           1          
  100CL  203 8.85781E-01          24                     0  103           1
 -4  DISP        4    1
 -5  D1          1    2    1    0
 -5  D2          1    2    2    0
 -5  D3          1    2    3    0
 -5  ALL         1    2    0    0    1ALL
 -1         1 0.00000E+00 0.00000E+00 0.00000E+00
 -1         2-2.11996E+00 0.00000E+00 0.00000E+00
 -1         3-1.22267E+01 0.00000E+00 0.00000E+00
 -1         4-1.43467E+01 0.00000E+00 0.00000E+00
 -1         5-2.44535E+01 0.00000E+00 0.00000E+00
 -1         6-2.65734E+01 0.00000E+00 0.00000E+00
 -1         7 0.00000E+00 6.34237E-01 0.00000E+00
 -1         8-2.11996E+00 6.34237E-01 0.00000E+00
 -1         9-1.22267E+01 6.34237E-01 0.00000E+00
 -1        10-1.43467E+01 6.34237E-01 0.00000E+00
 -1        11-2.44535E+01 6.34237E-01 0.00000E+00
 -1        12-2.65734E+01 6.34237E-01 0.00000E+00
 -1        13 0.00000E+00 0.00000E+00 8.87931E-01
 -1        14-2.11996E+00 0.00000E+00 8.87931E-01
 -1        15-1.22267E+01 0.00000E+00 8.87931E-01
 -1        16-1.43467E+01 0.00000E+00 8.87931E-01
 -1        17-2.44535E+01 0.00000E+00 8.87931E-01
 -1        18-2.65734E+01 0.00000E+00 8.87931E-01
 -1        19 0.00000E+00 6.34237E-01 8.87931E-01
 -1        20-2.11996E+00 6.34237E-01 8.87931E-01
 -1        21-1.22267E+01 6.34237E-01 8.87931E-01
 -1        22-1.43467E+01 6.34237E-01 8.87931E-01
 -1        23-2.44535E+01 6.34237E-01 8.87931E-01
 -1        24-2.65734E+01 6.34237E-01 8.87931E-01
 -3
    1PSTEP                       308         103           1          
  100CL  203 8.85781E-01          24                     0  103           1
 -4  STRESS      6    1
 -5  SXX         1    4    1    1
 -5  SYY         1    4    2    2
 -5  SZZ         1    4    3    3
 -5  SXY         1    4    1    2
 -5  SYZ         1    4    2    3
 -5  SZX         1    4    3    1
 -1         1-8.82452E+02-2.87909E-12-5.52986E-12-5.88033E-15-9.60122E-15 3.13052E-16
 -1         2-4.41226E+02-8.50680E-12-9.52102E-12 4.41390E-12 1.84509E-15 4.42735E-12
 -1         3-4.41226E+02-1.07954E-11-1.33401E-12-6.87711E-12 4.19446E-15 6.11697E-12
 -1         4-4.41226E+02-8.00536E-12-2.72946E-11 2.12051E-12 3.61771E-15 2.08332E-11
 -1         5-4.41226E+02-1.17393E-11-2.33034E-11-5.59902E-12-5.68852E-15-1.71275E-11
 -1         6-8.82452E+02-6.16017E-12-8.93848E-12 1.18365E-12 2.08096E-15-2.41354E-12
 -1         7-8.82452E+02 9.91706E-12 6.60067E-12-2.87583E-12-2.34118E-12-2.82486E-14
 -1         8-4.41226E+02-1.85184E-12-3.02762E-12 2.97892E-12-8.43648E-13 3.29769E-12
 -1         9-4.41226E+02 1.99178E-12 1.08685E-11-2.16285E-12-4.98487E-12 4.76017E-12
 -1        10-4.41226E+02 8.89191E-12-5.64176E-12 7.02346E-12-2.89751E-13 6.05747E-12
 -1        11-4.41226E+02 9.96414E-13-4.48047E-12-5.06088E-12-1.34941E-12-2.62661E-12
 -1        12-8.82452E+02 1.22271E-11 1.22043E-11-9.92712E-13-1.08454E-11 1.01560E-12
 -1        13-8.82452E+02 4.50288E-12 8.28154E-12-1.25426E-14-4.91966E-13-3.69790E-12
 -1        14-4.41226E+02-3.44578E-12-2.18719E-12 2.82667E-12-3.62640E-14 2.58302E-12
 -1        15-4.41226E+02-4.01118E-12 1.92993E-11-8.96955E-12-3.95796E-13-6.98965E-12
 -1        16-4.41226E+02 2.14700E-11 3.13155E-12-1.83067E-11 3.32358E-12 7.95858E-12
 -1        17-4.41226E+02 1.71627E-11 9.43915E-12 1.43625E-11 4.29604E-12-9.95156E-12
 -1        18-8.82452E+02 1.13365E-11 3.88448E-11 6.50419E-13 1.95619E-12 1.57315E-11
 -1        19-8.82452E+02 1.28464E-11 1.59595E-11-2.03482E-12-2.82354E-12-3.27181E-12
 -1        20-4.41226E+02 9.82873E-13 2.07991E-12 1.81553E-12-8.81757E-13 1.65806E-12
 -1        21-4.41226E+02-1.88815E-11 3.87556E-12 2.33062E-12-5.36893E-12-4.61915E-12
 -1        22-4.41226E+02 1.07098E-11-2.99015E-12-7.58711E-12 3.03327E-12-3.38400E-12
 -1        23-4.41226E+02-1.88012E-13-1.82435E-12 8.99877E-12 2.97340E-12 1.43629E-12
 -1        24-8.82452E+02-3.01525E-11 1.11302E-13-1.07956E-11-8.95490E-12 7.59501E-12
 -3
    1PSTEP                       309         103           1          
  100CL  203 8.85781E-01          24                     0  103           1
 -4  TOSTRAIN    6    1
 -5  EXX         1    4    1    1
 -5  EYY         1    4    2    2
 -5  EZZ         1    4    3    3
 -5  EXY         1    4    1    2
 -5  EYZ         1    4    2    3
 -5  EZX         1    4    3    1
 -1         1-4.23076E-03 1.26923E-03 1.26923E-03-3.69284E-20-5.91841E-20 1.55357E-21
 -1         2-2.11538E-03 6.34613E-04 6.34613E-04 2.73586E-17 1.13735E-20 2.74419E-17
 -1         3-2.11538E-03 6.34613E-04 6.34613E-04-4.26268E-17 2.58556E-20 3.79149E-17
 -1         4-2.11538E-03 6.34613E-04 6.34613E-04 1.31434E-17 2.23004E-20 1.29131E-16
 -1         5-2.11538E-03 6.34613E-04 6.34613E-04-3.47046E-17-3.50654E-20-1.06162E-16
 -1         6-4.23076E-03 1.26923E-03 1.26923E-03 7.33665E-18 1.28275E-20-1.49603E-17
 -1         7-4.23076E-03 1.26923E-03 1.26923E-03-1.80232E-17-1.44315E-17-1.74993E-19
 -1         8-2.11538E-03 6.34613E-04 6.34613E-04 1.83654E-17-5.20044E-18 2.04402E-17
 -1         9-2.11538E-03 6.34613E-04 6.34613E-04-1.30793E-17-3.07279E-17 2.95050E-17
 -1        10-2.11538E-03 6.34613E-04 6.34613E-04 4.38604E-17-1.78609E-18 3.75461E-17
 -1        11-2.11538E-03 6.34613E-04 6.34613E-04-3.13557E-17-8.31809E-18-1.62805E-17
 -1        12-4.23076E-03 1.26923E-03 1.26923E-03-6.12643E-18-6.68534E-17 6.29536E-18
 -1        13-4.23076E-03 1.26923E-03 1.26923E-03-7.72604E-20-3.03259E-18-2.31750E-17
 -1        14-2.11538E-03 6.34613E-04 6.34613E-04 1.75209E-17-2.23540E-19 1.58833E-17
 -1        15-2.11538E-03 6.34613E-04 6.34613E-04-5.55960E-17-2.43978E-18-4.42222E-17
 -1        16-2.11538E-03 6.34613E-04 6.34613E-04-1.13471E-16 2.04873E-17 4.84318E-17
 -1        17-2.11538E-03 6.34613E-04 6.34613E-04 8.90236E-17 2.64817E-17-6.11849E-17
 -1        18-4.23076E-03 1.26923E-03 1.26923E-03 4.03141E-18 1.20584E-17 9.85055E-17
 -1        19-4.23076E-03 1.26923E-03 1.26923E-03-1.27510E-17-1.74049E-17-2.05046E-17
 -1        20-2.11538E-03 6.34613E-04 6.34613E-04 1.11840E-17-5.43535E-18 1.01648E-17
 -1        21-2.11538E-03 6.34613E-04 6.34613E-04 1.52148E-17-3.30953E-17-2.92769E-17
 -1        22-2.11538E-03 6.34613E-04 6.34613E-04-4.62586E-17 1.86978E-17-2.16211E-17
 -1        23-2.11538E-03 6.34613E-04 6.34613E-04 5.54032E-17 1.83287E-17 9.17701E-18
 -1        24-4.23076E-03 1.26923E-03 1.26923E-03-6.76631E-17-5.52000E-17 4.76251E-17
 -3
    1PSTEP                       310         104           1          
  100CL  204 8.94781E-01          24                     0  104           1
 -4  DISP        4    1
 -5  D1          1    2    1    0
 -5  D2          1    2    2    0
 -5  D3          1    2    3    0
 -5  ALL         1    2    0    0    1ALL
 -1         1 0.00000E+00 0.00000E+00 0.00000E+00
 -1         2-2.20940E+00 0.00000E+00 0.00000E+00
 -1         3-1.23170E+01 0.00000E+00 0.00000E+00
 -1         4-1.45264E+01 0.00000E+00 0.00000E+00
 -1         5-2.46340E+01 0.00000E+00 0.00000E+00
 -1         6-2.68434E+01 0.00000E+00 0.00000E+00
 -1         7 0.00000E+00 6.60919E-01 0.00000E+00
 -1         8-2.20940E+00 6.60919E-01 0.00000E+00
 -1         9-1.23170E+01 6.60919E-01 0.00000E+00
 -1        10-1.45264E+01 6.60919E-01 0.00000E+00
 -1        11-2.46340E+01 6.60919E-01 0.00000E+00
 -1        12-2.68434E+01 6.60919E-01 0.00000E+00
 -1        13 0.00000E+00 0.00000E+00 9.25287E-01
 -1        14-2.20940E+00 0.00000E+00 9.25287E-01
 -1        15-1.23170E+01 0.00000E+00 9.25287E-01
 -1        16-1.45264E+01 0.00000E+00 9.25287E-01
 -1        17-2.46340E+01 0.00000E+00 9.25287E-01
 -1        18-2.68434E+01 0.00000E+00 9.25287E-01
 -1        19 0.00000E+00 6.60919E-01 9.25287E-01
 -1        20-2.20940E+00 6.60919E-01 9.25287E-01
 -1        21-1.23170E+01 6.60919E-01 9.25287E-01
 -1        22-1.45264E+01 6.60919E-01 9.25287E-01
 -1        23-2.46340E+01 6.60919E-01 9.25287E-01
 -1        24-2.68434E+01 6.60919E-01 9.25287E-01
 -3
    1PSTEP                       311         104           1          
  100CL  204 8.94781E-01          24                     0  104           1
 -4  STRESS      6    1
 -5  SXX         1    4    1    1
 -5  SYY         1    4    2    2
 -5  SZZ         1    4    3    3
 -5  SXY         1    4    1    2
 -5  SYZ         1    4    2    3
 -5  SZX         1    4    3    1
 -1         1-9.19338E+02-2.78503E-12-6.60358E-12 4.30377E-15-1.64710E-14 5.61012E-15
 -1         2-4.59669E+02-1.21373E-11-1.05227E-11 7.02670E-12 2.66402E-15 3.38449E-12
 -1         3-4.59669E+02-1.28432E-11-1.48091E-12-7.69116E-12-1.19587E-15 8.77382E-12
 -1         4-4.59669E+02-1.67486E-11-3.57658E-11 7.15713E-12-4.28913E-15 2.38524E-11
 -1         5-4.59669E+02-1.99854E-11-2.91180E-11-1.08541E-11 1.19907E-15-1.83125E-11
 -1         6-9.19338E+02-8.19341E-12-1.34794E-11 8.75257E-13-1.64543E-14-1.90849E-12
 -1         7-9.19338E+02 1.60513E-11 9.30220E-12-5.37993E-12-1.30392E-12-2.79137E-15
 -1         8-4.59669E+02-2.75050E-12-2.53845E-12 4.33459E-12-7.26695E-13 3.71985E-12
 -1         9-4.59669E+02 7.98174E-12 1.68145E-11-4.16278E-12-5.01900E-12 6.38355E-12
 -1        10-4.59669E+02 8.10157E-12-7.94115E-12 1.09430E-11 8.01065E-14 9.06001E-12
 -1        11-4.59669E+02-1.13023E-12-5.51609E-12-8.51732E-12-1.62395E-12-4.09654E-12
 -1        12-9.19338E+02 2.30082E-11 1.73896E-11 3.96868E-12-1.08075E-11 8.20245E-13
 -1        13-9.19338E+02 5.12989E-12 4.76287E-12-1.05989E-14-1.84049E-12-2.43146E-12
 -1        14-4.59669E+02-8.81071E-12-5.06504E-12 7.44370E-12-1.04287E-12 2.16596E-12
 -1        15-4.59669E+02-5.44665E-12 2.00453E-11-1.17095E-11-1.75359E-12-7.13999E-12
 -1        16-4.59669E+02 1.53986E-11-3.85393E-12-1.39214E-11 2.09625E-12 8.74016E-12
 -1        17-4.59669E+02 1.00207E-11 5.30774E-12 9.22420E-12 3.21032E-12-1.10867E-11
 -1        18-9.19338E+02 1.46501E-11 3.95511E-11-5.64259E-13 1.02941E-13 1.42660E-11
 -1        19-9.19338E+02 2.56164E-11 2.26155E-11-5.58798E-12-3.20012E-12-2.67684E-12
 -1        20-4.59669E+02 1.54953E-12 3.74427E-12 4.65501E-12-1.76256E-12 2.38283E-12
 -1        21-4.59669E+02-1.09139E-11 1.19002E-11-6.27455E-13-6.76867E-12-5.52159E-12
 -1        22-4.59669E+02 1.39566E-11-2.17315E-12-3.30574E-12 2.17049E-12-2.99367E-12
 -1        23-4.59669E+02 6.99561E-13 7.01918E-13 6.09194E-12 1.61714E-12 3.73240E-13
 -1        24-9.19338E+02-1.05010E-11 1.43014E-11-5.87547E-12-1.08329E-11 8.76826E-12
 -3
    1PSTEP                       312         104           1          
  100CL  204 8.94781E-01          24                     0  104           1
 -4  TOSTRAIN    6    1
 -5  EXX         1    4    1    1
 -5  EYY         1    4    2    2
 -5  EZZ         1    4    3    3
 -5  EXY         1    4    1    2
 -5  EYZ         1    4    2    3
 -5  EZX         1    4    3    1
 -1         1-4.40886E-03 1.32266E-03 1.32266E-03 2.65881E-20-1.01513E-19 3.46146E-20
 -1         2-2.20443E-03 6.61329E-04 6.61329E-04 4.35561E-17 1.64187E-20 2.09792E-17
 -1         3-2.20443E-03 6.61329E-04 6.61329E-04-4.76750E-17-7.37027E-21 5.43860E-17
 -1         4-2.20443E-03 6.61329E-04 6.61329E-04 4.43645E-17-2.64344E-20 1.47853E-16
 -1         5-2.20443E-03 6.61329E-04 6.61329E-04-6.72809E-17 7.39003E-21-1.13513E-16
 -1         6-4.40886E-03 1.32266E-03 1.32266E-03 5.42554E-18-1.01410E-19-1.18305E-17
 -1         7-4.40886E-03 1.32266E-03 1.32266E-03-3.37344E-17-8.03622E-18-1.64261E-20
 -1         8-2.20443E-03 6.61329E-04 6.61329E-04 2.66756E-17-4.47871E-18 2.30585E-17
 -1         9-2.20443E-03 6.61329E-04 6.61329E-04-2.55406E-17-3.09327E-17 3.95693E-17
 -1        10-2.20443E-03 6.61329E-04 6.61329E-04 6.80948E-17 4.93706E-19 5.61597E-17
 -1        11-2.20443E-03 6.61329E-04 6.61329E-04-5.26403E-17-1.00086E-17-2.53932E-17
 -1        12-4.40886E-03 1.32266E-03 1.32266E-03 2.49117E-17-6.66076E-17 5.08411E-18
 -1        13-4.40886E-03 1.32266E-03 1.32266E-03-6.53483E-20-1.13431E-17-1.52466E-17
 -1        14-2.20443E-03 6.61329E-04 6.61329E-04 4.61412E-17-6.42732E-18 1.33386E-17
 -1        15-2.20443E-03 6.61329E-04 6.61329E-04-7.25829E-17-1.08076E-17-4.53870E-17
 -1        16-2.20443E-03 6.61329E-04 6.61329E-04-8.62936E-17 1.29194E-17 5.30487E-17
 -1        17-2.20443E-03 6.61329E-04 6.61329E-04 5.71777E-17 1.97856E-17-6.81861E-17
 -1        18-4.40886E-03 1.32266E-03 1.32266E-03-3.49761E-18 6.34440E-19 8.95033E-17
 -1        19-4.40886E-03 1.32266E-03 1.32266E-03-3.50375E-17-1.97227E-17-1.67836E-17
 -1        20-2.20443E-03 6.61329E-04 6.61329E-04 2.86551E-17-1.08628E-17 1.46749E-17
 -1        21-2.20443E-03 6.61329E-04 6.61329E-04-3.12533E-18-4.17162E-17-3.50824E-17
 -1        22-2.20443E-03 6.61329E-04 6.61329E-04-1.97271E-17 1.33770E-17-1.94127E-17
 -1        23-2.20443E-03 6.61329E-04 6.61329E-04 3.75446E-17 9.96664E-18 2.62478E-18
 -1        24-4.40886E-03 1.32266E-03 1.32266E-03-3.68547E-17-6.67646E-17 5.49738E-17
 -3
    1PSTEP                       313         105           1          
  100CL  205 9.03781E-01          24                     0  105           1
 -4  DISP        4    1
 -5  D1          1    2    1    0
 -5  D2          1    2    2    0
 -5  D3          1    2    3    0
 -5  ALL         1    2    0    0    1ALL
 -1         1 0.00000E+00 0.00000E+00 0.00000E+00
 -1         2-2.29932E+00 0.00000E+00 0.00000E+00
 -1         3-1.24071E+01 0.00000E+00 0.00000E+00
 -1         4-1.47064E+01 0.00000E+00 0.00000E+00
 -1         5-2.48141E+01 0.00000E+00 0.00000E+00
 -1         6-2.71134E+01 0.00000E+00 0.00000E+00
 -1         7 0.00000E+00 6.87736E-01 0.00000E+00
 -1         8-2.29932E+00 6.87736E-01 0.00000E+00
 -1         9-1.24071E+01 6.87736E-01 0.00000E+00
 -1        10-1.47064E+01 6.87736E-01 0.00000E+00
 -1        11-2.48141E+01 6.87736E-01 0.00000E+00
 -1        12-2.71134E+01 6.87736E-01 0.00000E+00
 -1        13 0.00000E+00 0.00000E+00 9.62830E-01
 -1        14-2.29932E+00 0.00000E+00 9.62830E-01
 -1        15-1.24071E+01 0.00000E+00 9.62830E-01
 -1        16-1.47064E+01 0.00000E+00 9.62830E-01
 -1        17-2.48141E+01 0.00000E+00 9.62830E-01
 -1        18-2.71134E+01 0.00000E+00 9.62830E-01
 -1        19 0.00000E+00 6.87736E-01 9.62830E-01
 -1        20-2.29932E+00 6.87736E-01 9.62830E-01
 -1        21-1.24071E+01 6.87736E-01 9.62830E-01
 -1        22-1.47064E+01 6.87736E-01 9.62830E-01
 -1        23-2.48141E+01 6.87736E-01 9.62830E-01
 -1        24-2.71134E+01 6.87736E-01 9.62830E-01
 -3
    1PSTEP                       314         105           1          
  100CL  205 9.03781E-01          24                     0  105           1
 -4  STRESS      6    1
 -5  SXX         1    4    1    1
 -5  SYY         1    4    2    2
 -5  SZZ         1    4    3    3
 -5  SXY         1    4    1    2
 -5  SYZ         1    4    2    3
 -5  SZX         1    4    3    1
 -1         1-9.56390E+02-4.45763E-12-8.98509E-12 2.19645E-14 3.98356E-15-1.50171E-14
 -1         2-4.78195E+02-1.63458E-11-1.50643E-11 9.68397E-12 1.15271E-15 6.22069E-12
 -1         3-4.78195E+02-1.66909E-11-7.78176E-12-9.45347E-12 1.18284E-15 5.14966E-12
 -1         4-4.78195E+02-2.17814E-11-3.87843E-11 1.13788E-11-7.25614E-15 2.60411E-11
 -1         5-4.78195E+02-2.64889E-11-3.49080E-11-1.61991E-11-3.51539E-15-2.18158E-11
 -1         6-9.56390E+02-1.02546E-11-1.75693E-11 1.20330E-13-5.91774E-15-1.38879E-12
 -1         7-9.56390E+02 2.25028E-11 1.39705E-11-6.69044E-12-2.99084E-12 1.98128E-14
 -1         8-4.78195E+02-2.07171E-12-1.29670E-12 6.32776E-12-3.62433E-13 2.21831E-12
 -1         9-4.78195E+02 1.27052E-11 1.83170E-11-6.70431E-12-6.01054E-12 5.04722E-12
 -1        10-4.78195E+02 1.37592E-11 1.42507E-12 1.44235E-11 9.93896E-13 1.37037E-12
 -1        11-4.78195E+02 3.06356E-12 1.34761E-12-1.26813E-11-1.91377E-14 1.99379E-12
 -1        12-9.56390E+02 3.71382E-11 2.75313E-11 6.60574E-12-1.34097E-11 1.33009E-12
 -1        13-9.56390E+02 7.62686E-12 1.07594E-11-1.54708E-14-2.49104E-12-4.15503E-12
 -1        14-4.78195E+02-4.96982E-12-2.55958E-12 4.14867E-12-3.92512E-13 4.14591E-12
 -1        15-4.78195E+02-2.70932E-12 2.29874E-11-1.05498E-11-2.32889E-12-8.57251E-12
 -1        16-4.78195E+02 2.63548E-11 6.69510E-12-2.19077E-11 3.28310E-12 1.17494E-11
 -1        17-4.78195E+02 2.08193E-11 1.23315E-11 1.77580E-11 4.71022E-12-1.46910E-11
 -1        18-9.56390E+02 1.83425E-11 4.89851E-11 1.10135E-13-1.54267E-12 1.66370E-11
 -1        19-9.56390E+02 1.71590E-11 1.70515E-11-3.58045E-12-5.44976E-12-2.50753E-12
 -1        20-4.78195E+02 8.86848E-13 2.57952E-12 2.36618E-12-7.60935E-13 9.72470E-13
 -1        21-4.78195E+02-2.30177E-11-7.03983E-13 1.97075E-12-8.29574E-12-3.72987E-12
 -1        22-4.78195E+02 1.18941E-11-3.18245E-12-9.99618E-12 4.24186E-12-6.39322E-12
 -1        23-4.78195E+02-1.73962E-12-3.49297E-12 1.21054E-11 4.70215E-12 4.74385E-12
 -1        24-9.56390E+02-3.81908E-11-1.00743E-11-1.21072E-11-1.50028E-11 6.08330E-12
 -3
    1PSTEP                       315         105           1          
  100CL  205 9.03781E-01          24                     0  105           1
 -4  TOSTRAIN    6    1
 -5  EXX         1    4    1    1
 -5  EYY         1    4    2    2
 -5  EZZ         1    4    3    3
 -5  EXY         1    4    1    2
 -5  EYZ         1    4    2    3
 -5  EZX         1    4    3    1
 -1         1-4.58787E-03 1.37636E-03 1.37636E-03 1.36436E-19 2.45467E-20-9.31670E-20
 -1         2-2.29394E-03 6.88181E-04 6.88181E-04 6.00310E-17 7.10304E-21 3.85620E-17
 -1         3-2.29394E-03 6.88181E-04 6.88181E-04-5.86020E-17 7.28868E-21 3.19229E-17
 -1         4-2.29394E-03 6.88181E-04 6.88181E-04 7.05367E-17-4.47124E-20 1.61429E-16
 -1         5-2.29394E-03 6.88181E-04 6.88181E-04-1.00418E-16-2.16619E-20-1.35236E-16
 -1         6-4.58787E-03 1.37636E-03 1.37636E-03 7.45706E-19-3.64652E-20-8.60873E-18
 -1         7-4.58787E-03 1.37636E-03 1.37636E-03-4.19747E-17-1.84296E-17 1.22473E-19
 -1         8-2.29394E-03 6.88181E-04 6.88181E-04 3.89754E-17-2.23332E-18 1.37511E-17
 -1         9-2.29394E-03 6.88181E-04 6.88181E-04-4.13502E-17-3.70370E-17 3.12878E-17
 -1        10-2.29394E-03 6.88181E-04 6.88181E-04 8.96211E-17 6.12440E-18 8.49504E-18
 -1        11-2.29394E-03 6.88181E-04 6.88181E-04-7.83529E-17-1.17927E-19 1.23595E-17
 -1        12-4.58787E-03 1.37636E-03 1.37636E-03 4.14651E-17-8.26305E-17 8.24525E-18
 -1        13-4.58787E-03 1.37636E-03 1.37636E-03-9.63290E-20-1.53498E-17-2.60666E-17
 -1        14-2.29394E-03 6.88181E-04 6.88181E-04 2.57174E-17-2.41866E-18 2.55456E-17
 -1        15-2.29394E-03 6.88181E-04 6.88181E-04-6.53978E-17-1.43506E-17-5.41771E-17
 -1        16-2.29394E-03 6.88181E-04 6.88181E-04-1.35806E-16 2.02305E-17 7.17981E-17
 -1        17-2.29394E-03 6.88181E-04 6.88181E-04 1.10082E-16 2.90244E-17-9.04588E-17
 -1        18-4.58787E-03 1.37636E-03 1.37636E-03 6.82996E-19-9.50596E-18 1.04354E-16
 -1        19-4.58787E-03 1.37636E-03 1.37636E-03-2.24616E-17-3.35815E-17-1.57310E-17
 -1        20-2.29394E-03 6.88181E-04 6.88181E-04 1.45347E-17-4.68889E-18 5.93490E-18
 -1        21-2.29394E-03 6.88181E-04 6.88181E-04 1.31416E-17-5.11184E-17-2.37481E-17
 -1        22-2.29394E-03 6.88181E-04 6.88181E-04-6.10413E-17 2.61384E-17-4.02582E-17
 -1        23-2.29394E-03 6.88181E-04 6.88181E-04 7.46122E-17 2.89747E-17 2.96162E-17
 -1        24-4.58787E-03 1.37636E-03 1.37636E-03-7.59101E-17-9.24476E-17 3.81286E-17
 -3
    1PSTEP                       316         106           1          
  100CL  206 9.12781E-01          24                     0  106           1
 -4  DISP        4    1
 -5  D1          1    2    1    0
 -5  D2          1    2    2    0
 -5  D3          1    2    3    0
 -5  ALL         1    2    0    0    1ALL
 -1         1 0.00000E+00 0.00000E+00 0.00000E+00
 -1         2-2.38976E+00 0.00000E+00 0.00000E+00
 -1         3-1.24968E+01 0.00000E+00 0.00000E+00
 -1         4-1.48866E+01 0.00000E+00 0.00000E+00
 -1         5-2.49937E+01 0.00000E+00 0.00000E+00
 -1         6-2.73834E+01 0.00000E+00 0.00000E+00
 -1         7 0.00000E+00 7.14703E-01 0.00000E+00
 -1         8-2.38976E+00 7.14703E-01 0.00000E+00
 -1         9-1.24968E+01 7.14703E-01 0.00000E+00
 -1        10-1.48866E+01 7.14703E-01 0.00000E+00
 -1        11-2.49937E+01 7.14703E-01 0.00000E+00
 -1        12-2.73834E+01 7.14703E-01 0.00000E+00
 -1        13 0.00000E+00 0.00000E+00 1.00058E+00
 -1        14-2.38976E+00 0.00000E+00 1.00058E+00
 -1        15-1.24968E+01 0.00000E+00 1.00058E+00
 -1        16-1.48866E+01 0.00000E+00 1.00058E+00
 -1        17-2.49937E+01 0.00000E+00 1.00058E+00
 -1        18-2.73834E+01 0.00000E+00 1.00058E+00
 -1        19 0.00000E+00 7.14703E-01 1.00058E+00
 -1        20-2.38976E+00 7.14703E-01 1.00058E+00
 -1        21-1.24968E+01 7.14703E-01 1.00058E+00
 -1        22-1.48866E+01 7.14703E-01 1.00058E+00
 -1        23-2.49937E+01 7.14703E-01 1.00058E+00
 -1        24-2.73834E+01 7.14703E-01 1.00058E+00
 -3
    1PSTEP                       317         106           1          
  100CL  206 9.12781E-01          24                     0  106           1
 -4  STRESS      6    1
 -5  SXX         1    4    1    1
 -5  SYY         1    4    2    2
 -5  SZZ         1    4    3    3
 -5  SXY         1    4    1    2
 -5  SYZ         1    4    2    3
 -5  SZX         1    4    3    1
 -1         1-9.93631E+02-4.16521E-12-9.05299E-12-1.32715E-14-1.94654E-15-1.49490E-14
 -1         2-4.96815E+02-1.61912E-11-1.42845E-11 9.71286E-12 1.53048E-15 5.65420E-12
 -1         3-4.96815E+02-1.55668E-11-6.18571E-12-9.52015E-12-2.31784E-15 4.92159E-12
 -1         4-4.96815E+02-1.62246E-11-3.21980E-11 7.01891E-12 3.70171E-15 2.08798E-11
 -1         5-4.96815E+02-2.03740E-11-2.80789E-11-1.13076E-11-2.39032E-15-1.71996E-11
 -1         6-9.93631E+02-9.73010E-12-1.45603E-11 3.95933E-13 2.68974E-15-1.11624E-12
 -1         7-9.93631E+02 2.23992E-11 1.36145E-11-6.86777E-12-2.56390E-12-9.43323E-15
 -1         8-4.96815E+02-2.28627E-12-1.38568E-12 6.28561E-12-4.04506E-13 2.51096E-12
 -1         9-4.96815E+02 8.29122E-12 1.55914E-11-5.96493E-12-4.23632E-12 5.54962E-12
 -1        10-4.96815E+02 1.06863E-11-3.37265E-12 1.07525E-11-3.18126E-13 6.64288E-12
 -1        11-4.96815E+02 1.67068E-13-3.52956E-12-8.97855E-12-1.29543E-12-2.98430E-12
 -1        12-9.93631E+02 2.50290E-11 1.91338E-11 4.65677E-12-9.78497E-12 1.24270E-12
 -1        13-9.93631E+02 7.19988E-12 9.39677E-12-8.87129E-15-2.60040E-12-3.78017E-12
 -1        14-4.96815E+02-6.45901E-12-3.58020E-12 5.34200E-12-6.43323E-13 3.77159E-12
 -1        15-4.96815E+02-3.73246E-12 1.74517E-11-9.62705E-12-1.51048E-12-7.52758E-12
 -1        16-4.96815E+02 1.45979E-11-4.84344E-13-1.19945E-11 1.40733E-12 8.18607E-12
 -1        17-4.96815E+02 9.91766E-12 5.78292E-12 8.11957E-12 2.86712E-12-1.02628E-11
 -1        18-9.93631E+02 1.59153E-11 3.81015E-11 3.17873E-13-6.63533E-13 1.40467E-11
 -1        19-9.93631E+02 2.04452E-11 1.89164E-11-4.42121E-12-5.19846E-12-2.43844E-12
 -1        20-4.96815E+02 1.08309E-12 3.04149E-12 3.13583E-12-1.04452E-12 1.29646E-12
 -1        21-4.96815E+02-9.72014E-12 9.35173E-12-6.43508E-13-5.75537E-12-3.81213E-12
 -1        22-4.96815E+02 1.18115E-11-1.23932E-12-3.05873E-12 1.12613E-12-2.91817E-12
 -1        23-4.96815E+02-2.89634E-13-3.30488E-13 5.62869E-12 1.56261E-12 1.38601E-12
 -1        24-9.93631E+02-1.17127E-11 9.57989E-12-6.14641E-12-1.03969E-11 5.66545E-12
 -3
    1PSTEP                       318         106           1          
  100CL  206 9.12781E-01          24                     0  106           1
 -4  TOSTRAIN    6    1
 -5  EXX         1    4    1    1
 -5  EYY         1    4    2    2
 -5  EZZ         1    4    3    3
 -5  EXY         1    4    1    2
 -5  EYZ         1    4    2    3
 -5  EZX         1    4    3    1
 -1         1-4.76790E-03 1.43037E-03 1.43037E-03-8.23551E-20-1.19924E-20-9.23929E-20
 -1         2-2.38395E-03 7.15185E-04 7.15185E-04 6.02131E-17 9.42913E-21 3.50524E-17
 -1         3-2.38395E-03 7.15185E-04 7.15185E-04-5.90184E-17-1.42800E-20 3.05105E-17
 -1         4-2.38395E-03 7.15185E-04 7.15185E-04 4.35126E-17 2.28058E-20 1.29440E-16
 -1         5-2.38395E-03 7.15185E-04 7.15185E-04-7.00995E-17-1.47265E-20-1.06626E-16
 -1         6-4.76790E-03 1.43037E-03 1.43037E-03 2.45444E-18 1.65712E-20-6.92028E-18
 -1         7-4.76790E-03 1.43037E-03 1.43037E-03-4.31075E-17-1.57959E-17-5.91872E-20
 -1         8-2.38395E-03 7.15185E-04 7.15185E-04 3.87006E-17-2.49211E-18 1.55659E-17
 -1         9-2.38395E-03 7.15185E-04 7.15185E-04-3.66997E-17-2.60995E-17 3.44041E-17
 -1        10-2.38395E-03 7.15185E-04 7.15185E-04 6.69368E-17-1.95994E-18 4.11816E-17
 -1        11-2.38395E-03 7.15185E-04 7.15185E-04-5.54835E-17-7.98098E-18-1.85005E-17
 -1        12-4.76790E-03 1.43037E-03 1.43037E-03 2.92237E-17-6.02841E-17 7.70429E-18
 -1        13-4.76790E-03 1.43037E-03 1.43037E-03-5.54563E-20-1.60208E-17-2.37264E-17
 -1        14-2.38395E-03 7.15185E-04 7.15185E-04 3.31166E-17-3.96344E-18 2.32354E-17
 -1        15-2.38395E-03 7.15185E-04 7.15185E-04-5.96813E-17-9.30590E-18-4.76325E-17
 -1        16-2.38395E-03 7.15185E-04 7.15185E-04-7.43579E-17 8.67040E-18 4.97815E-17
 -1        17-2.38395E-03 7.15185E-04 7.15185E-04 5.03357E-17 1.76640E-17-6.30926E-17
 -1        18-4.76790E-03 1.43037E-03 1.43037E-03 1.97034E-18-4.08795E-18 8.81397E-17
 -1        19-4.76790E-03 1.43037E-03 1.43037E-03-2.77513E-17-3.20272E-17-1.53059E-17
 -1        20-2.38395E-03 7.15185E-04 7.15185E-04 1.92686E-17-6.43518E-18 7.94259E-18
 -1        21-2.38395E-03 7.15185E-04 7.15185E-04-3.29315E-18-3.54582E-17-2.43749E-17
 -1        22-2.38395E-03 7.15185E-04 7.15185E-04-1.82659E-17 6.93794E-18-1.88330E-17
 -1        23-2.38395E-03 7.15185E-04 7.15185E-04 3.46885E-17 9.62709E-18 8.87753E-18
 -1        24-4.76790E-03 1.43037E-03 1.43037E-03-3.85147E-17-6.40539E-17 3.56923E-17
 -3
    1PSTEP                       319         107           1          
  100CL  207 9.21781E-01          24                     0  107           1
 -4  DISP        4    1
 -5  D1          1    2    1    0
 -5  D2          1    2    2    0
 -5  D3          1    2    3    0
 -5  ALL         1    2    0    0    1ALL
 -1         1 0.00000E+00 0.00000E+00 0.00000E+00
 -1         2-2.48079E+00 0.00000E+00 0.00000E+00
 -1         3-1.25863E+01 0.00000E+00 0.00000E+00
 -1         4-1.50671E+01 0.00000E+00 0.00000E+00
 -1         5-2.51726E+01 0.00000E+00 0.00000E+00
 -1         6-2.76534E+01 0.00000E+00 0.00000E+00
 -1         7 0.00000E+00 7.41841E-01 0.00000E+00
 -1         8-2.48079E+00 7.41841E-01 0.00000E+00
 -1         9-1.25863E+01 7.41841E-01 0.00000E+00
 -1        10-1.50671E+01 7.41841E-01 0.00000E+00
 -1        11-2.51726E+01 7.41841E-01 0.00000E+00
 -1        12-2.76534E+01 7.41841E-01 0.00000E+00
 -1        13 0.00000E+00 0.00000E+00 1.03858E+00
 -1        14-2.48079E+00 0.00000E+00 1.03858E+00
 -1        15-1.25863E+01 0.00000E+00 1.03858E+00
 -1        16-1.50671E+01 0.00000E+00 1.03858E+00
 -1        17-2.51726E+01 0.00000E+00 1.03858E+00
 -1        18-2.76534E+01 0.00000E+00 1.03858E+00
 -1        19 0.00000E+00 7.41841E-01 1.03858E+00
 -1        20-2.48079E+00 7.41841E-01 1.03858E+00
 -1        21-1.25863E+01 7.41841E-01 1.03858E+00
 -1        22-1.50671E+01 7.41841E-01 1.03858E+00
 -1        23-2.51726E+01 7.41841E-01 1.03858E+00
 -1        24-2.76534E+01 7.41841E-01 1.03858E+00
 -3
    1PSTEP                       320         107           1          
  100CL  207 9.21781E-01          24                     0  107           1
 -4  STRESS      6    1
 -5  SXX         1    4    1    1
 -5  SYY         1    4    2    2
 -5  SZZ         1    4    3    3
 -5  SXY         1    4    1    2
 -5  SYZ         1    4    2    3
 -5  SZX         1    4    3    1
 -1         1-1.03109E+03-2.49250E-12-5.53558E-12 8.00007E-15-2.11900E-15-2.12387E-14
 -1         2-5.15544E+02-8.90097E-12-9.17550E-12 4.19241E-12-1.19289E-15 3.20798E-12
 -1         3-5.15544E+02-9.01759E-12-1.05164E-12-5.03960E-12 1.48459E-15 6.46804E-12
 -1         4-5.15544E+02-1.04325E-11-2.65248E-11 3.73131E-12 2.41372E-15 1.84672E-11
 -1         5-5.15544E+02-1.37142E-11-2.25022E-11-7.12603E-12-3.60141E-15-1.53563E-11
 -1         6-1.03109E+03-5.46867E-12-1.01779E-11 9.89275E-14 4.87317E-16-8.18396E-15
 -1         7-1.03109E+03 9.59505E-12 5.60488E-12-3.30597E-12-1.48204E-12 3.88595E-14
 -1         8-5.15544E+02-3.37133E-12-4.77356E-12 2.53542E-12-1.29819E-12 5.28270E-12
 -1         9-5.15544E+02 2.79243E-12 8.80127E-12-1.86447E-12-4.76378E-12 2.01925E-12
 -1        10-5.15544E+02 5.09350E-12-7.44043E-12 7.01085E-12-9.71506E-14 6.79769E-12
 -1        11-5.15544E+02-1.04188E-12-5.49405E-12-5.96171E-12-1.62840E-12-3.92900E-12
 -1        12-1.03109E+03 1.53742E-11 1.21847E-11 3.13044E-12-9.41698E-12 5.09935E-13
 -1        13-1.03109E+03 3.94350E-12 4.94847E-12-1.41681E-14-5.69842E-13-3.11297E-12
 -1        14-5.15544E+02-8.51071E-12-5.18745E-12 7.16344E-12-7.42931E-13 1.63823E-12
 -1        15-5.15544E+02-7.25001E-12 1.39814E-11-1.10146E-11-1.20129E-12-5.31717E-12
 -1        16-5.15544E+02 1.42454E-11-1.48912E-12-1.24756E-11 2.31929E-12 6.24770E-12
 -1        17-5.15544E+02 9.76495E-12 5.64707E-12 8.25672E-12 2.99785E-12-9.10538E-12
 -1        18-1.03109E+03 1.19666E-11 3.34386E-11-5.89921E-13 1.29144E-12 1.20304E-11
 -1        19-1.03109E+03 2.49427E-11 2.52347E-11-4.91658E-12-2.01365E-12-4.02793E-12
 -1        20-5.15544E+02 1.47476E-12 3.63896E-12 4.71223E-12-2.04476E-12 3.33844E-12
 -1        21-5.15544E+02-1.00615E-11 9.24417E-12-1.45172E-12-5.98915E-12-6.27806E-12
 -1        22-5.15544E+02 1.50016E-11 2.70831E-12-2.80824E-12 2.24149E-12-1.05231E-12
 -1        23-5.15544E+02 1.35098E-13 2.04661E-13 5.24990E-12 1.36701E-12-2.65168E-13
 -1        24-1.03109E+03-1.23885E-11 1.09001E-11-6.26236E-12-8.08088E-12 6.10841E-12
 -3
    1PSTEP                       321         107           1          
  100CL  207 9.21781E-01          24                     0  107           1
 -4  TOSTRAIN    6    1
 -5  EXX         1    4    1    1
 -5  EYY         1    4    2    2
 -5  EZZ         1    4    3    3
 -5  EXY         1    4    1    2
 -5  EYZ         1    4    2    3
 -5  EZX         1    4    3    1
 -1         1-4.94908E-03 1.48472E-03 1.48472E-03 4.94112E-20-1.30525E-20-1.31880E-19
 -1         2-2.47454E-03 7.42361E-04 7.42361E-04 2.59914E-17-7.34789E-21 1.98883E-17
 -1         3-2.47454E-03 7.42361E-04 7.42361E-04-3.12437E-17 9.14469E-21 4.00994E-17
 -1         4-2.47454E-03 7.42361E-04 7.42361E-04 2.31329E-17 1.48679E-20 1.14490E-16
 -1         5-2.47454E-03 7.42361E-04 7.42361E-04-4.41789E-17-2.21838E-20-9.52038E-17
 -1         6-4.94908E-03 1.48472E-03 1.48472E-03 6.13422E-19 3.00175E-21-5.04770E-20
 -1         7-4.94908E-03 1.48472E-03 1.48472E-03-2.07631E-17-9.12904E-18 2.41274E-19
 -1         8-2.47454E-03 7.42361E-04 7.42361E-04 1.55852E-17-7.99651E-18 3.27511E-17
 -1         9-2.47454E-03 7.42361E-04 7.42361E-04-1.13013E-17-2.93438E-17 1.25189E-17
 -1        10-2.47454E-03 7.42361E-04 7.42361E-04 4.37226E-17-5.98424E-19 4.21436E-17
 -1        11-2.47454E-03 7.42361E-04 7.42361E-04-3.68607E-17-1.00306E-17-2.43586E-17
 -1        12-4.94908E-03 1.48472E-03 1.48472E-03 1.96074E-17-5.80063E-17 3.16125E-18
 -1        13-4.94908E-03 1.48472E-03 1.48472E-03-8.72175E-20-3.51009E-18-1.95499E-17
 -1        14-2.47454E-03 7.42361E-04 7.42361E-04 4.44112E-17-4.57627E-18 1.00312E-17
 -1        15-2.47454E-03 7.42361E-04 7.42361E-04-6.82869E-17-7.39968E-18-3.39184E-17
 -1        16-2.47454E-03 7.42361E-04 7.42361E-04-7.73442E-17 1.42863E-17 3.77799E-17
 -1        17-2.47454E-03 7.42361E-04 7.42361E-04 5.11892E-17 1.84661E-17-5.59575E-17
 -1        18-4.94908E-03 1.48472E-03 1.48472E-03-3.65667E-18 7.95494E-18 7.55696E-17
 -1        19-4.94908E-03 1.48472E-03 1.48472E-03-3.08755E-17-1.24036E-17-2.52945E-17
 -1        20-2.47454E-03 7.42361E-04 7.42361E-04 2.90170E-17-1.25952E-17 2.05359E-17
 -1        21-2.47454E-03 7.42361E-04 7.42361E-04-8.22772E-18-3.68918E-17-3.95958E-17
 -1        22-2.47454E-03 7.42361E-04 7.42361E-04-1.66377E-17 1.38071E-17-7.19791E-18
 -1        23-2.47454E-03 7.42361E-04 7.42361E-04 3.23086E-17 8.42043E-18-1.33701E-18
 -1        24-4.94908E-03 1.48472E-03 1.48472E-03-3.93026E-17-4.97763E-17 3.84840E-17
 -3
    1PSTEP                       322         108           1          
  100CL  208 9.30781E-01          24                     0  108           1
 -4  DISP        4    1
 -5  D1          1    2    1    0
 -5  D2          1    2    2    0
 -5  D3          1    2    3    0
 -5  ALL         1    2    0    0    1ALL
 -1         1 0.00000E+00 0.00000E+00 0.00000E+00
 -1         2-2.57250E+00 0.00000E+00 0.00000E+00
 -1         3-1.26755E+01 0.00000E+00 0.00000E+00
 -1         4-1.52480E+01 0.00000E+00 0.00000E+00
 -1         5-2.53509E+01 0.00000E+00 0.00000E+00
 -1         6-2.79234E+01 0.00000E+00 0.00000E+00
 -1         7 0.00000E+00 7.69174E-01 0.00000E+00
 -1         8-2.57250E+00 7.69174E-01 0.00000E+00
 -1         9-1.26755E+01 7.69174E-01 0.00000E+00
 -1        10-1.52480E+01 7.69174E-01 0.00000E+00
 -1        11-2.53509E+01 7.69174E-01 0.00000E+00
 -1        12-2.79234E+01 7.69174E-01 0.00000E+00
 -1        13 0.00000E+00 0.00000E+00 1.07684E+00
 -1        14-2.57250E+00 0.00000E+00 1.07684E+00
 -1        15-1.26755E+01 0.00000E+00 1.07684E+00
 -1        16-1.52480E+01 0.00000E+00 1.07684E+00
 -1        17-2.53509E+01 0.00000E+00 1.07684E+00
 -1        18-2.79234E+01 0.00000E+00 1.07684E+00
 -1        19 0.00000E+00 7.69174E-01 1.07684E+00
 -1        20-2.57250E+00 7.69174E-01 1.07684E+00
 -1        21-1.26755E+01 7.69174E-01 1.07684E+00
 -1        22-1.52480E+01 7.69174E-01 1.07684E+00
 -1        23-2.53509E+01 7.69174E-01 1.07684E+00
 -1        24-2.79234E+01 7.69174E-01 1.07684E+00
 -3
    1PSTEP                       323         108           1          
  100CL  208 9.30781E-01          24                     0  108           1
 -4  STRESS      6    1
 -5  SXX         1    4    1    1
 -5  SYY         1    4    2    2
 -5  SZZ         1    4    3    3
 -5  SXY         1    4    1    2
 -5  SYZ         1    4    2    3
 -5  SZX         1    4    3    1
 -1         1-1.06879E+03-9.66127E-13-2.37631E-12-1.20390E-14-1.23180E-14-1.76074E-14
 -1         2-5.34397E+02-3.38243E-12-3.33285E-12 1.03383E-12 3.65045E-16 1.87238E-13
 -1         3-5.34397E+02-6.10723E-12 2.49245E-12-2.87210E-12 2.25918E-15 8.20134E-12
 -1         4-5.34397E+02-8.01906E-12-2.34817E-11 3.39956E-12 2.09800E-15 1.91975E-11
 -1         5-5.34397E+02-1.11944E-11-2.00211E-11-6.11189E-12-2.32079E-15-1.45467E-11
 -1         6-1.06879E+03-6.36782E-12-8.81554E-12-4.27606E-13-1.45365E-16 8.51796E-13
 -1         7-1.06879E+03 2.14827E-12 8.45793E-13-1.42777E-12 2.07327E-13 2.18911E-14
 -1         8-5.34397E+02-3.08784E-12-4.64417E-12 3.25961E-13-1.26755E-12 5.03638E-12
 -1         9-5.34397E+02 1.55284E-12 7.48515E-12 1.77204E-13-5.33145E-12 6.55954E-13
 -1        10-5.34397E+02 5.46894E-12-4.80760E-12 6.55324E-12 1.56816E-12 2.16575E-12
 -1        11-5.34397E+02 2.60910E-12-5.28997E-13-5.82183E-12-5.54057E-13 4.80434E-13
 -1        12-1.06879E+03 1.34171E-11 1.17650E-11 1.41533E-12-9.12461E-12-1.43824E-12
 -1        13-1.06879E+03 1.14767E-12-1.02482E-12-1.29627E-14 8.93364E-14-9.49424E-13
 -1        14-5.34397E+02-9.41608E-12-5.83659E-12 7.80512E-12-1.07447E-12-2.83447E-13
 -1        15-5.34397E+02-1.00684E-11 1.32781E-11-1.40744E-11-1.77131E-12-3.75359E-12
 -1        16-5.34397E+02 2.14447E-11 1.67100E-12-1.98328E-11 3.65387E-12 6.90264E-12
 -1        17-5.34397E+02 1.78173E-11 1.05586E-11 1.51929E-11 3.98379E-12-9.56089E-12
 -1        18-1.06879E+03 1.22941E-11 3.53114E-11-8.12946E-13 6.28780E-13 1.19334E-11
 -1        19-1.06879E+03 2.47058E-11 2.25782E-11-5.18403E-12 3.08981E-13-3.11324E-12
 -1        20-5.34397E+02 1.39726E-12 3.48791E-12 5.21958E-12-2.34238E-12 3.48664E-12
 -1        21-5.34397E+02-2.08349E-11-1.01416E-13-1.55578E-12-7.12036E-12-6.08857E-12
 -1        22-5.34397E+02 1.65061E-11 2.12134E-12-7.20972E-12 5.21461E-12-4.42151E-12
 -1        23-5.34397E+02-4.87134E-13-2.20581E-12 1.00175E-11 3.44318E-12 2.82403E-12
 -1        24-1.06879E+03-3.24337E-11-8.32408E-12-1.04435E-11-8.48488E-12 4.53974E-12
 -3
    1PSTEP                       324         108           1          
  100CL  208 9.30781E-01          24                     0  108           1
 -4  TOSTRAIN    6    1
 -5  EXX         1    4    1    1
 -5  EYY         1    4    2    2
 -5  EZZ         1    4    3    3
 -5  EXY         1    4    1    2
 -5  EYZ         1    4    2    3
 -5  EZX         1    4    3    1
 -1         1-5.13157E-03 1.53947E-03 1.53947E-03-7.48568E-20-7.58618E-20-1.09548E-19
 -1         2-2.56578E-03 7.69735E-04 7.69735E-04 6.40961E-18 2.24818E-21 1.16068E-18
 -1         3-2.56578E-03 7.69735E-04 7.69735E-04-1.78068E-17 1.39135E-20 5.08483E-17
 -1         4-2.56578E-03 7.69735E-04 7.69735E-04 2.10775E-17 1.29208E-20 1.19024E-16
 -1         5-2.56578E-03 7.69735E-04 7.69735E-04-3.78939E-17-1.42929E-20-9.01893E-17
 -1         6-5.13157E-03 1.53947E-03 1.53947E-03-2.65162E-18-8.95246E-22 5.28168E-18
 -1         7-5.13157E-03 1.53947E-03 1.53947E-03-8.97071E-18 1.27685E-18 1.35635E-19
 -1         8-2.56578E-03 7.69735E-04 7.69735E-04 1.96169E-18-7.80634E-18 3.12255E-17
 -1         9-2.56578E-03 7.69735E-04 7.69735E-04 1.35562E-18-3.28344E-17 4.06705E-18
 -1        10-2.56578E-03 7.69735E-04 7.69735E-04 4.08871E-17 9.65770E-18 1.34278E-17
 -1        11-2.56578E-03 7.69735E-04 7.69735E-04-3.60602E-17-3.41223E-18 2.97864E-18
 -1        12-5.13157E-03 1.53947E-03 1.53947E-03 8.84540E-18-5.61951E-17-8.91717E-18
 -1        13-5.13157E-03 1.53947E-03 1.53947E-03-8.07062E-20 5.50189E-19-5.96533E-18
 -1        14-2.56578E-03 7.69735E-04 7.69735E-04 4.83916E-17-6.61724E-18-1.79682E-18
 -1        15-2.56578E-03 7.69735E-04 7.69735E-04-8.72617E-17-1.09088E-17-2.42775E-17
 -1        16-2.56578E-03 7.69735E-04 7.69735E-04-1.22963E-16 2.25028E-17 4.17911E-17
 -1        17-2.56578E-03 7.69735E-04 7.69735E-04 9.41966E-17 2.45346E-17-5.87888E-17
 -1        18-5.13157E-03 1.53947E-03 1.53947E-03-5.03936E-18 3.87242E-18 7.49647E-17
 -1        19-5.13157E-03 1.53947E-03 1.53947E-03-3.25736E-17 1.90290E-18-1.95619E-17
 -1        20-2.56578E-03 7.69735E-04 7.69735E-04 3.21451E-17-1.44258E-17 2.14873E-17
 -1        21-2.56578E-03 7.69735E-04 7.69735E-04-8.59778E-18-4.38516E-17-3.83099E-17
 -1        22-2.56578E-03 7.69735E-04 7.69735E-04-4.36522E-17 3.21148E-17-2.79742E-17
 -1        23-2.56578E-03 7.69735E-04 7.69735E-04 6.16824E-17 2.12052E-17 1.76996E-17
 -1        24-5.13157E-03 1.53947E-03 1.53947E-03-6.56010E-17-5.22552E-17 2.85276E-17
 -3
    1PSTEP                       325         109           1          
  100CL  209 9.39781E-01          24                     0  109           1
 -4  DISP        4    1
 -5  D1          1    2    1    0
 -5  D2          1    2    2    0
 -5  D3          1    2    3    0
 -5  ALL         1    2    0    0    1ALL
 -1         1 0.00000E+00 0.00000E+00 0.00000E+00
 -1         2-2.66499E+00 0.00000E+00 0.00000E+00
 -1         3-1.27642E+01 0.00000E+00 0.00000E+00
 -1         4-1.54292E+01 0.00000E+00 0.00000E+00
 -1         5-2.55284E+01 0.00000E+00 0.00000E+00
 -1         6-2.81934E+01 0.00000E+00 0.00000E+00
 -1         7 0.00000E+00 7.96733E-01 0.00000E+00
 -1         8-2.66499E+00 7.96733E-01 0.00000E+00
 -1         9-1.27642E+01 7.96733E-01 0.00000E+00
 -1        10-1.54292E+01 7.96733E-01 0.00000E+00
 -1        11-2.55284E+01 7.96733E-01 0.00000E+00
 -1        12-2.81934E+01 7.96733E-01 0.00000E+00
 -1        13 0.00000E+00 0.00000E+00 1.11543E+00
 -1        14-2.66499E+00 0.00000E+00 1.11543E+00
 -1        15-1.27642E+01 0.00000E+00 1.11543E+00
 -1        16-1.54292E+01 0.00000E+00 1.11543E+00
 -1        17-2.55284E+01 0.00000E+00 1.11543E+00
 -1        18-2.81934E+01 0.00000E+00 1.11543E+00
 -1        19 0.00000E+00 7.96733E-01 1.11543E+00
 -1        20-2.66499E+00 7.96733E-01 1.11543E+00
 -1        21-1.27642E+01 7.96733E-01 1.11543E+00
 -1        22-1.54292E+01 7.96733E-01 1.11543E+00
 -1        23-2.55284E+01 7.96733E-01 1.11543E+00
 -1        24-2.81934E+01 7.96733E-01 1.11543E+00
 -3
    1PSTEP                       326         109           1          
  100CL  209 9.39781E-01          24                     0  109           1
 -4  STRESS      6    1
 -5  SXX         1    4    1    1
 -5  SYY         1    4    2    2
 -5  SZZ         1    4    3    3
 -5  SXY         1    4    1    2
 -5  SYZ         1    4    2    3
 -5  SZX         1    4    3    1
 -1         1-1.10679E+03-3.27998E-13-1.53077E-12 9.07348E-15-1.84652E-15-7.62715E-15
 -1         2-5.53395E+02-2.48553E-12-3.48011E-12 1.40034E-13-2.90864E-15 4.68621E-13
 -1         3-5.53395E+02-1.02828E-12 4.54902E-12 1.42777E-12 8.76405E-15 1.13594E-11
 -1         4-5.53395E+02-2.24194E-11-3.57862E-11 1.33740E-11-7.73520E-15 2.45455E-11
 -1         5-5.53395E+02-2.36798E-11-3.06903E-11-1.30885E-11-9.27064E-16-1.90242E-11
 -1         6-1.10679E+03-8.95616E-12-1.59497E-11-5.69629E-13 2.47787E-15 1.33793E-12
 -1         7-1.10679E+03 5.58235E-13 1.39251E-13-7.58280E-13 5.29194E-14 1.99565E-14
 -1         8-5.53395E+02-3.32822E-12-5.78539E-12-2.43643E-13-1.71319E-12 6.44377E-12
 -1         9-5.53395E+02 1.35792E-11 1.46301E-11 5.81809E-14-6.78743E-12 6.91062E-13
 -1        10-5.53395E+02-4.39953E-13-7.85841E-12 1.14317E-11 2.04804E-12 3.82844E-12
 -1        11-5.53395E+02 1.98270E-12-1.76445E-13-1.02256E-11-6.59361E-13-5.88353E-13
 -1        12-1.10679E+03 3.36713E-11 2.49566E-11 8.08831E-12-1.12426E-11-1.91067E-12
 -1        13-1.10679E+03 1.85606E-12 4.55611E-13 4.36747E-15 6.19069E-13-1.56178E-12
 -1        14-5.53395E+02-9.96559E-12-6.14154E-12 8.52207E-12-1.05316E-12-3.08455E-13
 -1        15-5.53395E+02-5.38909E-12 1.89164E-11-1.33154E-11-2.95485E-12-3.56974E-12
 -1        16-5.53395E+02 1.62517E-11-2.54343E-12-1.62388E-11 3.93380E-12 9.84675E-12
 -1        17-5.53395E+02 1.45096E-11 9.13763E-12 1.12247E-11 3.47476E-12-1.18942E-11
 -1        18-1.10679E+03 1.79220E-11 4.25561E-11-6.67479E-13-1.17554E-12 1.33069E-11
 -1        19-1.10679E+03 2.82871E-11 2.77332E-11-5.54639E-12 6.73835E-13-4.25785E-12
 -1        20-5.53395E+02 1.96413E-12 4.20849E-12 5.74669E-12-2.76344E-12 4.30487E-12
 -1        21-5.53395E+02-1.34120E-11 6.72683E-12-2.79133E-12-9.74862E-12-7.06094E-12
 -1        22-5.53395E+02 1.56008E-11 2.22293E-12-5.42888E-12 5.98054E-12-3.91913E-12
 -1        23-5.53395E+02-8.65210E-13-1.26876E-12 7.32926E-12 2.81721E-12 2.60629E-12
 -1        24-1.10679E+03-2.09313E-11 1.91882E-12-6.06845E-12-1.23960E-11 5.62178E-12
 -3
    1PSTEP                       327         109           1          
  100CL  209 9.39781E-01          24                     0  109           1
 -4  TOSTRAIN    6    1
 -5  EXX         1    4    1    1
 -5  EYY         1    4    2    2
 -5  EZZ         1    4    3    3
 -5  EXY         1    4    1    2
 -5  EYZ         1    4    2    3
 -5  EZX         1    4    3    1
 -1         1-5.31557E-03 1.59467E-03 1.59467E-03 5.59866E-20-1.13699E-20-4.73236E-20
 -1         2-2.65779E-03 7.97336E-04 7.97336E-04 8.68121E-19-1.79099E-20 2.90559E-18
 -1         3-2.65779E-03 7.97336E-04 7.97336E-04 8.85235E-18 5.39645E-20 7.04320E-17
 -1         4-2.65779E-03 7.97336E-04 7.97336E-04 8.29233E-17-4.76294E-20 1.52190E-16
 -1         5-2.65779E-03 7.97336E-04 7.97336E-04-8.11531E-17-5.70838E-21-1.17957E-16
 -1         6-5.31557E-03 1.59467E-03 1.59467E-03-3.53239E-18 1.52574E-20 8.29529E-18
 -1         7-5.31557E-03 1.59467E-03 1.59467E-03-4.76833E-18 3.25850E-19 1.23837E-19
 -1         8-2.65779E-03 7.97336E-04 7.97336E-04-1.54404E-18-1.05490E-17 3.99536E-17
 -1         9-2.65779E-03 7.97336E-04 7.97336E-04 2.31344E-19-4.17934E-17 4.28532E-18
 -1        10-2.65779E-03 7.97336E-04 7.97336E-04 7.07509E-17 1.26108E-17 2.37381E-17
 -1        11-2.65779E-03 7.97336E-04 7.97336E-04-6.31276E-17-4.06000E-18-3.64767E-18
 -1        12-5.31557E-03 1.59467E-03 1.59467E-03 5.06994E-17-6.92262E-17-1.18461E-17
 -1        13-5.31557E-03 1.59467E-03 1.59467E-03 2.77164E-20 3.81190E-18-9.81820E-18
 -1        14-2.65779E-03 7.97336E-04 7.97336E-04 5.28400E-17-6.48479E-18-1.97985E-18
 -1        15-2.65779E-03 7.97336E-04 7.97336E-04-8.25596E-17-1.81944E-17-2.34151E-17
 -1        16-2.65779E-03 7.97336E-04 7.97336E-04-1.00685E-16 2.42223E-17 5.97716E-17
 -1        17-2.65779E-03 7.97336E-04 7.97336E-04 6.95974E-17 2.13958E-17-7.31438E-17
 -1        18-5.31557E-03 1.59467E-03 1.59467E-03-4.13819E-18-7.23835E-18 8.37156E-17
 -1        19-5.31557E-03 1.59467E-03 1.59467E-03-3.48697E-17 4.14912E-18-2.67706E-17
 -1        20-2.65779E-03 7.97336E-04 7.97336E-04 3.53913E-17-1.70158E-17 2.65064E-17
 -1        21-2.65779E-03 7.97336E-04 7.97336E-04-1.63899E-17-6.00269E-17-4.44796E-17
 -1        22-2.65779E-03 7.97336E-04 7.97336E-04-3.27436E-17 3.68250E-17-2.49993E-17
 -1        23-2.65779E-03 7.97336E-04 7.97336E-04 4.51286E-17 1.73469E-17 1.64189E-17
 -1        24-5.31557E-03 1.59467E-03 1.59467E-03-3.82571E-17-7.63279E-17 3.53749E-17
 -3
    1PSTEP                       328         110           1          
  100CL  210 9.48781E-01          24                     0  110           1
 -4  DISP        4    1
 -5  D1          1    2    1    0
 -5  D2          1    2    2    0
 -5  D3          1    2    3    0
 -5  ALL         1    2    0    0    1ALL
 -1         1 0.00000E+00 0.00000E+00 0.00000E+00
 -1         2-2.75840E+00 0.00000E+00 0.00000E+00
 -1         3-1.28525E+01 0.00000E+00 0.00000E+00
 -1         4-1.56109E+01 0.00000E+00 0.00000E+00
 -1         5-2.57050E+01 0.00000E+00 0.00000E+00
 -1         6-2.84634E+01 0.00000E+00 0.00000E+00
 -1         7 0.00000E+00 8.24557E-01 0.00000E+00
 -1         8-2.75840E+00 8.24557E-01 0.00000E+00
 -1         9-1.28525E+01 8.24557E-01 0.00000E+00
 -1        10-1.56109E+01 8.24557E-01 0.00000E+00
 -1        11-2.57050E+01 8.24557E-01 0.00000E+00
 -1        12-2.84634E+01 8.24557E-01 0.00000E+00
 -1        13 0.00000E+00 0.00000E+00 1.15438E+00
 -1        14-2.75840E+00 0.00000E+00 1.15438E+00
 -1        15-1.28525E+01 0.00000E+00 1.15438E+00
 -1        16-1.56109E+01 0.00000E+00 1.15438E+00
 -1        17-2.57050E+01 0.00000E+00 1.15438E+00
 -1        18-2.84634E+01 0.00000E+00 1.15438E+00
 -1        19 0.00000E+00 8.24557E-01 1.15438E+00
 -1        20-2.75840E+00 8.24557E-01 1.15438E+00
 -1        21-1.28525E+01 8.24557E-01 1.15438E+00
 -1        22-1.56109E+01 8.24557E-01 1.15438E+00
 -1        23-2.57050E+01 8.24557E-01 1.15438E+00
 -1        24-2.84634E+01 8.24557E-01 1.15438E+00
 -3
    1PSTEP                       329         110           1          
  100CL  210 9.48781E-01          24                     0  110           1
 -4  STRESS      6    1
 -5  SXX         1    4    1    1
 -5  SYY         1    4    2    2
 -5  SZZ         1    4    3    3
 -5  SXY         1    4    1    2
 -5  SYZ         1    4    2    3
 -5  SZX         1    4    3    1
 -1         1-1.14513E+03 3.21152E-12 1.69005E-12 1.38430E-14 1.38420E-14 5.53802E-15
 -1         2-5.72566E+02-1.65835E-12-2.67096E-12 1.34401E-12-6.62153E-15 1.64896E-12
 -1         3-5.72566E+02-1.95827E-12 3.86467E-12-8.78708E-13 8.65096E-16 8.60615E-12
 -1         4-5.72566E+02-1.68143E-11-3.01064E-11 1.06124E-11-1.22555E-15 2.25769E-11
 -1         5-5.72566E+02-1.76694E-11-2.50349E-11-1.20219E-11 2.70581E-15-1.81272E-11
 -1         6-1.14513E+03-2.73539E-12-7.97343E-12-2.72097E-13-1.44518E-14-5.13289E-14
 -1         7-1.14513E+03 7.75972E-12 6.65982E-12-1.23326E-12-7.71209E-13 9.50831E-15
 -1         8-5.72566E+02-7.38278E-15-1.95517E-12 7.20456E-13-1.27067E-12 4.67480E-12
 -1         9-5.72566E+02 1.36046E-11 1.61965E-11-9.98736E-13-5.80955E-12 2.47863E-12
 -1        10-5.72566E+02 5.18727E-12-3.01101E-12 1.04898E-11 1.53261E-12 2.80737E-12
 -1        11-5.72566E+02 3.89754E-12 1.71080E-12-9.98630E-12-5.95367E-13 8.49080E-13
 -1        12-1.14513E+03 3.08418E-11 2.39123E-11 5.57076E-12-1.05591E-11-5.47433E-13
 -1        13-1.14513E+03 6.81632E-12 7.42530E-12-6.21796E-15 2.58126E-13-2.05783E-12
 -1        14-5.72566E+02-4.33724E-12-1.74390E-12 5.62459E-12-5.88977E-13 6.22050E-13
 -1        15-5.72566E+02-6.29052E-13 2.12443E-11-1.06426E-11-2.19875E-12-4.54033E-12
 -1        16-5.72566E+02 2.03614E-11 2.97986E-12-1.64991E-11 3.56324E-12 9.09062E-12
 -1        17-5.72566E+02 1.73019E-11 1.11641E-11 1.24329E-11 3.74066E-12-1.14251E-11
 -1        18-1.14513E+03 2.02692E-11 4.47051E-11 2.25954E-13-1.15779E-12 1.30373E-11
 -1        19-1.14513E+03 2.40076E-11 2.48040E-11-3.70051E-12-5.26925E-13-3.46842E-12
 -1        20-5.72566E+02 3.33828E-12 5.02783E-12 3.77745E-12-1.85303E-12 2.91802E-12
 -1        21-5.72566E+02-1.35225E-11 5.38550E-12-7.71082E-13-8.00674E-12-5.08866E-12
 -1        22-5.72566E+02 1.34612E-11 9.93640E-13-6.49460E-12 5.08804E-12-4.60274E-12
 -1        23-5.72566E+02 2.19635E-12 1.55736E-12 9.43109E-12 3.17488E-12 2.62998E-12
 -1        24-1.14513E+03-1.89045E-11 3.88587E-12-9.42725E-12-1.18184E-11 4.68641E-12
 -3
    1PSTEP                       330         110           1          
  100CL  210 9.48781E-01          24                     0  110           1
 -4  TOSTRAIN    6    1
 -5  EXX         1    4    1    1
 -5  EYY         1    4    2    2
 -5  EZZ         1    4    3    3
 -5  EXY         1    4    1    2
 -5  EYZ         1    4    2    3
 -5  EZX         1    4    3    1
 -1         1-5.50136E-03 1.65041E-03 1.65041E-03 8.59625E-20 8.52158E-20 3.46017E-20
 -1         2-2.75068E-03 8.25204E-04 8.25204E-04 8.33383E-18-4.07643E-20 1.02248E-17
 -1         3-2.75068E-03 8.25204E-04 8.25204E-04-5.44881E-18 5.32581E-21 5.33645E-17
 -1         4-2.75068E-03 8.25204E-04 8.25204E-04 6.58039E-17-7.54486E-21 1.39992E-16
 -1         5-2.75068E-03 8.25204E-04 8.25204E-04-7.45440E-17 1.66578E-20-1.12402E-16
 -1         6-5.50136E-03 1.65041E-03 1.65041E-03-1.68680E-18-8.89699E-20-3.19113E-19
 -1         7-5.50136E-03 1.65041E-03 1.65041E-03-7.75877E-18-4.74782E-18 5.92163E-20
 -1         8-2.75068E-03 8.25204E-04 8.25204E-04 4.41146E-18-7.82268E-18 2.89871E-17
 -1         9-2.75068E-03 8.25204E-04 8.25204E-04-6.20388E-18-3.57655E-17 1.53692E-17
 -1        10-2.75068E-03 8.25204E-04 8.25204E-04 6.50330E-17 9.43522E-18 1.74076E-17
 -1        11-2.75068E-03 8.25204E-04 8.25204E-04-6.17065E-17-3.66527E-18 5.26513E-18
 -1        12-5.50136E-03 1.65041E-03 1.65041E-03 3.49733E-17-6.50055E-17-3.39395E-18
 -1        13-5.50136E-03 1.65041E-03 1.65041E-03-3.83099E-20 1.58911E-18-1.29441E-17
 -1        14-2.75068E-03 8.25204E-04 8.25204E-04 3.48764E-17-3.62593E-18 3.76508E-18
 -1        15-2.75068E-03 8.25204E-04 8.25204E-04-6.59914E-17-1.35362E-17-2.93382E-17
 -1        16-2.75068E-03 8.25204E-04 8.25204E-04-1.02306E-16 2.19365E-17 5.51831E-17
 -1        17-2.75068E-03 8.25204E-04 8.25204E-04 7.70927E-17 2.30287E-17-7.02319E-17
 -1        18-5.50136E-03 1.65041E-03 1.65041E-03 1.40137E-18-7.12775E-18 8.20627E-17
 -1        19-5.50136E-03 1.65041E-03 1.65041E-03-2.32767E-17-3.24392E-18-2.18207E-17
 -1        20-2.75068E-03 8.25204E-04 8.25204E-04 2.32572E-17-1.14078E-17 1.79367E-17
 -1        21-2.75068E-03 8.25204E-04 8.25204E-04-3.89339E-18-4.92921E-17-3.22289E-17
 -1        22-2.75068E-03 8.25204E-04 8.25204E-04-3.93831E-17 3.13236E-17-2.92158E-17
 -1        23-2.75068E-03 8.25204E-04 8.25204E-04 5.81165E-17 1.95456E-17 1.65346E-17
 -1        24-5.50136E-03 1.65041E-03 1.65041E-03-5.91807E-17-7.27576E-17 2.95128E-17
 -3
    1PSTEP                       331         111           1          
  100CL  211 9.57781E-01          24                     0  111           1
 -4  DISP        4    1
 -5  D1          1    2    1    0
 -5  D2          1    2    2    0
 -5  D3          1    2    3    0
 -5  ALL         1    2    0    0    1ALL
 -1         1 0.00000E+00 0.00000E+00 0.00000E+00
 -1         2-2.85289E+00 0.00000E+00 0.00000E+00
 -1         3-1.29403E+01 0.00000E+00 0.00000E+00
 -1         4-1.57932E+01 0.00000E+00 0.00000E+00
 -1         5-2.58805E+01 0.00000E+00 0.00000E+00
 -1         6-2.87334E+01 0.00000E+00 0.00000E+00
 -1         7 0.00000E+00 8.52699E-01 0.00000E+00
 -1         8-2.85289E+00 8.52699E-01 0.00000E+00
 -1         9-1.29403E+01 8.52699E-01 0.00000E+00
 -1        10-1.57932E+01 8.52699E-01 0.00000E+00
 -1        11-2.58805E+01 8.52699E-01 0.00000E+00
 -1        12-2.87334E+01 8.52699E-01 0.00000E+00
 -1        13 0.00000E+00 0.00000E+00 1.19378E+00
 -1        14-2.85289E+00 0.00000E+00 1.19378E+00
 -1        15-1.29403E+01 0.00000E+00 1.19378E+00
 -1        16-1.57932E+01 0.00000E+00 1.19378E+00
 -1        17-2.58805E+01 0.00000E+00 1.19378E+00
 -1        18-2.87334E+01 0.00000E+00 1.19378E+00
 -1        19 0.00000E+00 8.52699E-01 1.19378E+00
 -1        20-2.85289E+00 8.52699E-01 1.19378E+00
 -1        21-1.29403E+01 8.52699E-01 1.19378E+00
 -1        22-1.57932E+01 8.52699E-01 1.19378E+00
 -1        23-2.58805E+01 8.52699E-01 1.19378E+00
 -1        24-2.87334E+01 8.52699E-01 1.19378E+00
 -3
    1PSTEP                       332         111           1          
  100CL  211 9.57781E-01          24                     0  111           1
 -4  STRESS      6    1
 -5  SXX         1    4    1    1
 -5  SYY         1    4    2    2
 -5  SZZ         1    4    3    3
 -5  SXY         1    4    1    2
 -5  SYZ         1    4    2    3
 -5  SZX         1    4    3    1
 -1         1-1.18389E+03 4.54818E-11 4.45498E-11-1.28883E-14-7.38324E-15-8.86883E-15
 -1         2-5.91945E+02 2.03398E-11 2.02528E-11 8.29223E-13 4.60687E-15 1.83949E-13
 -1         3-5.91945E+02 2.36128E-11 2.70106E-11 2.72615E-12 5.87343E-15 1.02614E-11
 -1         4-5.91945E+02-4.49726E-12-1.29788E-11 1.70844E-11-6.37650E-15 2.34163E-11
 -1         5-5.91945E+02-5.96725E-12-9.35986E-12-1.76871E-11-6.90012E-15-1.80838E-11
 -1         6-1.18389E+03 3.62254E-11 2.80836E-11-7.48596E-13 7.67048E-15-5.62534E-13
 -1         7-1.18389E+03 4.81320E-11 4.70868E-11-1.16995E-12 2.23483E-13 3.82790E-14
 -1         8-5.91945E+02 2.06757E-11 1.92457E-11 2.50691E-13-1.23483E-12 4.89975E-12
 -1         9-5.91945E+02 4.20799E-11 4.01062E-11-1.25431E-12-6.03736E-12 1.51887E-12
 -1        10-5.91945E+02 2.10560E-11 1.73930E-11 1.32541E-11 2.53184E-12 1.81565E-12
 -1        11-5.91945E+02 2.48235E-11 2.51797E-11-1.31218E-11 1.43332E-13 5.51170E-13
 -1        12-1.18389E+03 8.76711E-11 7.45071E-11 9.64390E-12-1.03115E-11 1.56340E-12
 -1        13-1.18389E+03 4.78867E-11 4.61160E-11-1.91854E-14 1.31848E-13-8.79361E-13
 -1        14-5.91945E+02 1.48076E-11 1.82458E-11 7.46902E-12-1.04576E-12-2.56069E-13
 -1        15-5.91945E+02 2.08332E-11 4.08608E-11-1.08556E-11-3.56439E-12-2.93374E-12
 -1        16-5.91945E+02 3.42821E-11 1.92624E-11-1.21755E-11 3.14554E-12 9.95791E-12
 -1        17-5.91945E+02 3.48990E-11 3.09905E-11 9.25692E-12 2.70778E-12-1.21374E-11
 -1        18-1.18389E+03 6.49455E-11 8.59572E-11-1.50387E-13-3.54828E-12 1.21194E-11
 -1        19-1.18389E+03 7.06828E-11 6.86273E-11-4.92934E-12 3.98868E-13-3.04204E-12
 -1        20-5.91945E+02 2.46223E-11 2.66318E-11 5.01394E-12-2.29005E-12 3.37740E-12
 -1        21-5.91945E+02 1.41433E-11 2.89562E-11-2.61163E-12-9.58562E-12-4.89761E-12
 -1        22-5.91945E+02 3.48268E-11 2.40400E-11-4.36858E-12 5.66422E-12-4.72865E-12
 -1        23-5.91945E+02 2.28904E-11 2.27308E-11 6.61919E-12 2.83241E-12 3.30158E-12
 -1        24-1.18389E+03 3.16838E-11 4.76732E-11-4.70593E-12-1.38642E-11 2.88517E-12
 -3
    1PSTEP                       333         111           1          
  100CL  211 9.57781E-01          24                     0  111           1
 -4  TOSTRAIN    6    1
 -5  EXX         1    4    1    1
 -5  EYY         1    4    2    2
 -5  EZZ         1    4    3    3
 -5  EXY         1    4    1    2
 -5  EYZ         1    4    2    3
 -5  EZX         1    4    3    1
 -1         1-5.68928E-03 1.70678E-03 1.70678E-03-8.02708E-20-4.54450E-20-5.50036E-20
 -1         2-2.84464E-03 8.53392E-04 8.53392E-04 5.14187E-18 2.83560E-20 1.14067E-18
 -1         3-2.84464E-03 8.53392E-04 8.53392E-04 1.69050E-17 3.61519E-20 6.36309E-17
 -1         4-2.84464E-03 8.53392E-04 8.53392E-04 1.05941E-16-3.92484E-20 1.45205E-16
 -1         5-2.84464E-03 8.53392E-04 8.53392E-04-1.09678E-16-4.24713E-20-1.12138E-16
 -1         6-5.68928E-03 1.70678E-03 1.70678E-03-4.64148E-18 4.72130E-20-3.48796E-18
 -1         7-5.68928E-03 1.70678E-03 1.70678E-03-7.36262E-18 1.37557E-18 2.38396E-19
 -1         8-2.84464E-03 8.53392E-04 8.53392E-04 1.50069E-18-7.60059E-18 3.03840E-17
 -1         9-2.84464E-03 8.53392E-04 8.53392E-04-8.13616E-18-3.71609E-17 9.41809E-18
 -1        10-2.84464E-03 8.53392E-04 8.53392E-04 8.18308E-17 1.55838E-17 1.12584E-17
 -1        11-2.84464E-03 8.53392E-04 8.53392E-04-8.09324E-17 8.82233E-19 3.41786E-18
 -1        12-5.68928E-03 1.70678E-03 1.70678E-03 6.06747E-17-6.34687E-17 9.69474E-18
 -1        13-5.68928E-03 1.70678E-03 1.70678E-03-1.18525E-19 8.11544E-19-5.53442E-18
 -1        14-2.84464E-03 8.53392E-04 8.53392E-04 4.63159E-17-6.43682E-18-1.62863E-18
 -1        15-2.84464E-03 8.53392E-04 8.53392E-04-6.73163E-17-2.19394E-17-1.94177E-17
 -1        16-2.84464E-03 8.53392E-04 8.53392E-04-7.55014E-17 1.93613E-17 6.05238E-17
 -1        17-2.84464E-03 8.53392E-04 8.53392E-04 5.74023E-17 1.66668E-17-7.46813E-17
 -1        18-5.68928E-03 1.70678E-03 1.70678E-03-9.32894E-19-2.18402E-17 7.63193E-17
 -1        19-5.68928E-03 1.70678E-03 1.70678E-03-3.10222E-17 2.45509E-18-1.91460E-17
 -1        20-2.84464E-03 8.53392E-04 8.53392E-04 3.08641E-17-1.40956E-17 2.08023E-17
 -1        21-2.84464E-03 8.53392E-04 8.53392E-04-1.54694E-17-5.90009E-17-3.09838E-17
 -1        22-2.84464E-03 8.53392E-04 8.53392E-04-2.63643E-17 3.48641E-17-2.99361E-17
 -1        23-2.84464E-03 8.53392E-04 8.53392E-04 4.08080E-17 1.74339E-17 2.06528E-17
 -1        24-5.68928E-03 1.70678E-03 1.70678E-03-2.96573E-17-8.53363E-17 1.82503E-17
 -3
    1PSTEP                       334         112           1          
  100CL  212 9.66781E-01          24                     0  112           1
 -4  DISP        4    1
 -5  D1          1    2    1    0
 -5  D2          1    2    2    0
 -5  D3          1    2    3    0
 -5  ALL         1    2    0    0    1ALL
 -1         1 0.00000E+00 0.00000E+00 0.00000E+00
 -1         2-2.94873E+00 0.00000E+00 0.00000E+00
 -1         3-1.30274E+01 0.00000E+00 0.00000E+00
 -1         4-1.59761E+01 0.00000E+00 0.00000E+00
 -1         5-2.60547E+01 0.00000E+00 0.00000E+00
 -1         6-2.90034E+01 0.00000E+00 0.00000E+00
 -1         7 0.00000E+00 8.81234E-01 0.00000E+00
 -1         8-2.94873E+00 8.81234E-01 0.00000E+00
 -1         9-1.30274E+01 8.81234E-01 0.00000E+00
 -1        10-1.59761E+01 8.81234E-01 0.00000E+00
 -1        11-2.60547E+01 8.81234E-01 0.00000E+00
 -1        12-2.90034E+01 8.81234E-01 0.00000E+00
 -1        13 0.00000E+00 0.00000E+00 1.23373E+00
 -1        14-2.94873E+00 0.00000E+00 1.23373E+00
 -1        15-1.30274E+01 0.00000E+00 1.23373E+00
 -1        16-1.59761E+01 0.00000E+00 1.23373E+00
 -1        17-2.60547E+01 0.00000E+00 1.23373E+00
 -1        18-2.90034E+01 0.00000E+00 1.23373E+00
 -1        19 0.00000E+00 8.81234E-01 1.23373E+00
 -1        20-2.94873E+00 8.81234E-01 1.23373E+00
 -1        21-1.30274E+01 8.81234E-01 1.23373E+00
 -1        22-1.59761E+01 8.81234E-01 1.23373E+00
 -1        23-2.60547E+01 8.81234E-01 1.23373E+00
 -1        24-2.90034E+01 8.81234E-01 1.23373E+00
 -3
    1PSTEP                       335         112           1          
  100CL  212 9.66781E-01          24                     0  112           1
 -4  STRESS      6    1
 -5  SXX         1    4    1    1
 -5  SYY         1    4    2    2
 -5  SZZ         1    4    3    3
 -5  SXY         1    4    1    2
 -5  SYZ         1    4    2    3
 -5  SZX         1    4    3    1
 -1         1-1.22317E+03-2.10052E-13-1.49982E-12-2.90983E-14 1.72532E-14 9.86806E-16
 -1         2-6.11584E+02-4.61760E-12-1.61569E-12 2.97491E-12-1.88987E-15-1.02836E-12
 -1         3-6.11584E+02-2.10117E-12 9.40125E-13-4.54189E-13-1.24393E-16 5.75500E-12
 -1         4-6.11584E+02-1.78977E-11-2.01145E-11 1.11171E-11-1.93831E-15 1.10448E-11
 -1         5-6.11584E+02-1.89526E-11-1.72964E-11-1.20270E-11 3.67890E-15-8.14348E-12
 -1         6-1.22317E+03-5.75821E-12-1.09504E-11 1.79292E-13-4.81594E-15-8.97284E-13
 -1         7-1.22317E+03 6.54433E-12 2.81127E-12-2.83425E-12 1.15494E-12 1.61861E-15
 -1         8-6.11584E+02-1.40354E-12-1.69282E-13 1.57234E-12-8.16357E-14 1.11620E-12
 -1         9-6.11584E+02 1.24767E-11 1.15053E-11-2.72780E-12-2.17408E-12 2.34285E-12
 -1        10-6.11584E+02-3.75448E-14-1.57273E-12 8.60441E-12 1.76479E-12 1.04371E-12
 -1        11-6.11584E+02 4.91494E-13 2.66806E-12-8.25012E-12 5.05830E-13 2.53863E-12
 -1        12-1.22317E+03 2.79042E-11 1.78451E-11 7.14277E-12-3.95057E-12 1.86314E-14
 -1        13-1.22317E+03 1.00592E-12-3.60685E-12 1.49575E-14-1.47582E-12 1.21458E-12
 -1        14-6.11584E+02-7.00315E-12-3.89296E-12 5.96239E-12-1.22991E-12-4.21561E-13
 -1        15-6.11584E+02-1.07746E-12 8.03407E-12-5.93448E-12-2.71640E-12-1.07501E-12
 -1        16-6.11584E+02 2.27569E-12-4.78665E-12-2.89248E-12 3.89391E-13 4.52132E-12
 -1        17-6.11584E+02 1.57222E-12 1.46987E-12 1.10510E-12 5.13921E-13-4.93125E-12
 -1        18-1.22317E+03 9.99556E-12 1.64780E-11-8.42291E-13-3.57700E-12 2.96277E-12
 -1        19-1.22317E+03 1.75549E-11 1.04360E-11-4.52675E-12-3.38125E-13 2.25662E-13
 -1        20-6.11584E+02 6.62529E-13 2.12223E-12 3.69153E-12-1.30965E-12 1.22823E-12
 -1        21-6.11584E+02-7.14375E-13 4.44722E-12-2.80357E-12-4.88673E-12-1.49632E-12
 -1        22-6.11584E+02 6.21812E-12-3.96903E-13-2.26401E-13 2.14255E-12-3.07592E-12
 -1        23-6.11584E+02-5.51683E-13 3.43327E-13 1.24550E-12 1.06344E-12 8.56027E-13
 -1        24-1.22317E+03 1.71040E-12 2.20032E-12 6.54410E-13-7.62575E-12 1.04272E-12
 -3
    1PSTEP                       336         112           1          
  100CL  212 9.66781E-01          24                     0  112           1
 -4  TOSTRAIN    6    1
 -5  EXX         1    4    1    1
 -5  EYY         1    4    2    2
 -5  EZZ         1    4    3    3
 -5  EXY         1    4    1    2
 -5  EYZ         1    4    2    3
 -5  EZX         1    4    3    1
 -1         1-5.87984E-03 1.76395E-03 1.76395E-03-1.80260E-19 1.06175E-19 6.71929E-21
 -1         2-2.93992E-03 8.81976E-04 8.81976E-04 1.84487E-17-1.16302E-20-6.37693E-18
 -1         3-2.93992E-03 8.81976E-04 8.81976E-04-2.81662E-18-7.65508E-22 3.56891E-17
 -1         4-2.93992E-03 8.81976E-04 8.81976E-04 6.89413E-17-1.19283E-20 6.84932E-17
 -1         5-2.93992E-03 8.81976E-04 8.81976E-04-7.45843E-17 2.26398E-20-5.05007E-17
 -1         6-5.87984E-03 1.76395E-03 1.76395E-03 1.11109E-18-2.96372E-20-5.56401E-18
 -1         7-5.87984E-03 1.76395E-03 1.76395E-03-1.78452E-17 7.10749E-18 1.02795E-20
 -1         8-2.93992E-03 8.81976E-04 8.81976E-04 9.61622E-18-5.02383E-19 6.92213E-18
 -1         9-2.93992E-03 8.81976E-04 8.81976E-04-1.71391E-17-1.33792E-17 1.45288E-17
 -1        10-2.93992E-03 8.81976E-04 8.81976E-04 5.31363E-17 1.08604E-17 6.47238E-18
 -1        11-2.93992E-03 8.81976E-04 8.81976E-04-5.08062E-17 3.11286E-18 1.57429E-17
 -1        12-5.87984E-03 1.76395E-03 1.76395E-03 4.50070E-17-2.43117E-17 1.15363E-19
 -1        13-5.87984E-03 1.76395E-03 1.76395E-03 9.25083E-20-9.08213E-18 7.64908E-18
 -1        14-2.93992E-03 8.81976E-04 8.81976E-04 3.69749E-17-7.56880E-18-2.55575E-18
 -1        15-2.93992E-03 8.81976E-04 8.81976E-04-3.68018E-17-1.67167E-17-7.31973E-18
 -1        16-2.93992E-03 8.81976E-04 8.81976E-04-1.79372E-17 2.39630E-18 2.73853E-17
 -1        17-2.93992E-03 8.81976E-04 8.81976E-04 6.85413E-18 3.16265E-18-3.03478E-17
 -1        18-5.87984E-03 1.76395E-03 1.76395E-03-5.22146E-18-2.20127E-17 1.88388E-17
 -1        19-5.87984E-03 1.76395E-03 1.76395E-03-2.85081E-17-2.08081E-18 1.42115E-18
 -1        20-2.93992E-03 8.81976E-04 8.81976E-04 2.26746E-17-8.05955E-18 7.62757E-18
 -1        21-2.93992E-03 8.81976E-04 8.81976E-04-1.70949E-17-3.00728E-17-9.63759E-18
 -1        22-2.93992E-03 8.81976E-04 8.81976E-04-1.11287E-18 1.31852E-17-1.94333E-17
 -1        23-2.93992E-03 8.81976E-04 8.81976E-04 7.75056E-18 6.54436E-18 5.32201E-18
 -1        24-5.87984E-03 1.76395E-03 1.76395E-03 4.11175E-18-4.69286E-17 6.49320E-18
 -3
    1PSTEP                       337         113           1          
  100CL  213 9.75781E-01          24                     0  113           1
 -4  DISP        4    1
 -5  D1          1    2    1    0
 -5  D2          1    2    2    0
 -5  D3          1    2    3    0
 -5  ALL         1    2    0    0    1ALL
 -1         1 0.00000E+00 0.00000E+00 0.00000E+00
 -1         2-3.04631E+00 0.00000E+00 0.00000E+00
 -1         3-1.31136E+01 0.00000E+00 0.00000E+00
 -1         4-1.61599E+01 0.00000E+00 0.00000E+00
 -1         5-2.62271E+01 0.00000E+00 0.00000E+00
 -1         6-2.92734E+01 0.00000E+00 0.00000E+00
 -1         7 0.00000E+00 9.10280E-01 0.00000E+00
 -1         8-3.04631E+00 9.10280E-01 0.00000E+00
 -1         9-1.31136E+01 9.10280E-01 0.00000E+00
 -1        10-1.61599E+01 9.10280E-01 0.00000E+00
 -1        11-2.62271E+01 9.10280E-01 0.00000E+00
 -1        12-2.92734E+01 9.10280E-01 0.00000E+00
 -1        13 0.00000E+00 0.00000E+00 1.27439E+00
 -1        14-3.04631E+00 0.00000E+00 1.27439E+00
 -1        15-1.31136E+01 0.00000E+00 1.27439E+00
 -1        16-1.61599E+01 0.00000E+00 1.27439E+00
 -1        17-2.62271E+01 0.00000E+00 1.27439E+00
 -1        18-2.92734E+01 0.00000E+00 1.27439E+00
 -1        19 0.00000E+00 9.10280E-01 1.27439E+00
 -1        20-3.04631E+00 9.10280E-01 1.27439E+00
 -1        21-1.31136E+01 9.10280E-01 1.27439E+00
 -1        22-1.61599E+01 9.10280E-01 1.27439E+00
 -1        23-2.62271E+01 9.10280E-01 1.27439E+00
 -1        24-2.92734E+01 9.10280E-01 1.27439E+00
 -3
    1PSTEP                       338         113           1          
  100CL  213 9.75781E-01          24                     0  113           1
 -4  STRESS      6    1
 -5  SXX         1    4    1    1
 -5  SYY         1    4    2    2
 -5  SZZ         1    4    3    3
 -5  SXY         1    4    1    2
 -5  SYZ         1    4    2    3
 -5  SZX         1    4    3    1
 -1         1-1.26313E+03 1.74165E-13-1.78909E-12 4.40731E-14-1.11468E-15-6.15375E-17
 -1         2-6.31563E+02-4.58127E-12-1.02207E-12 2.61295E-12-5.05225E-15-1.76167E-12
 -1         3-6.31563E+02-6.74063E-13 3.86191E-12 2.92455E-14-5.01929E-15 7.32359E-12
 -1         4-6.31563E+02-1.45135E-11-1.82437E-11 8.18770E-12-1.01767E-14 9.74581E-12
 -1         5-6.31563E+02-1.56243E-11-1.50565E-11-9.41950E-12 7.08698E-16-5.72896E-12
 -1         6-1.26313E+03-4.76303E-12-9.33915E-12 4.77160E-13-8.88170E-16-1.46051E-12
 -1         7-1.26313E+03 6.30215E-12 2.37003E-12-2.93082E-12 1.62560E-12-1.82458E-14
 -1         8-6.31563E+02-2.18674E-12-1.51611E-12 1.12550E-12-4.22892E-13 2.62240E-12
 -1         9-6.31563E+02 8.99579E-12 9.48815E-12-1.62140E-12-1.79044E-12 1.82081E-12
 -1        10-6.31563E+02-2.37883E-12-6.18966E-12 6.71507E-12 9.37886E-13 5.74916E-12
 -1        11-6.31563E+02-1.80140E-12-2.10569E-12-6.35955E-12-6.95306E-13-2.86793E-12
 -1        12-1.26313E+03 2.12590E-11 1.34741E-11 5.58995E-12-2.67150E-12 4.68267E-13
 -1        13-1.26313E+03 8.41543E-14-6.00398E-12-5.23133E-14-1.34647E-12 1.42249E-12
 -1        14-6.31563E+02-1.02714E-11-6.04626E-12 8.80037E-12-1.69543E-12-1.04563E-12
 -1        15-6.31563E+02-4.11236E-12 5.10303E-12-7.47276E-12-2.53159E-12-4.54532E-13
 -1        16-6.31563E+02-5.02100E-12-1.09179E-11 2.32325E-12-2.93145E-13 2.56161E-12
 -1        17-6.31563E+02-6.11141E-12-3.76314E-12-5.45400E-12-5.58199E-13-4.02352E-12
 -1        18-1.26313E+03 7.49177E-12 1.08455E-11-6.26402E-13-2.19372E-12 4.82926E-12
 -1        19-1.26313E+03 2.58051E-11 1.73713E-11-6.37249E-12 2.44063E-13-5.05853E-13
 -1        20-6.31563E+02 1.02814E-12 3.06780E-12 5.64028E-12-2.10843E-12 2.36079E-12
 -1        21-6.31563E+02 8.02232E-12 1.35541E-11-5.41205E-12-4.31096E-12-2.73043E-12
 -1        22-6.31563E+02 9.28133E-12 2.77227E-12 4.33626E-12 6.32310E-13-2.16985E-13
 -1        23-6.31563E+02 1.58083E-12 3.35417E-12-3.44783E-12-1.26626E-12-1.12957E-12
 -1        24-1.26313E+03 2.24412E-11 2.19918E-11 4.18453E-12-4.86837E-12 1.58736E-12
 -3
    1PSTEP                       339         113           1          
  100CL  213 9.75781E-01          24                     0  113           1
 -4  TOSTRAIN    6    1
 -5  EXX         1    4    1    1
 -5  EYY         1    4    2    2
 -5  EZZ         1    4    3    3
 -5  EXY         1    4    1    2
 -5  EYZ         1    4    2    3
 -5  EZX         1    4    3    1
 -1         1-6.07381E-03 1.82214E-03 1.82214E-03 2.73918E-19-6.85839E-21 6.86250E-23
 -1         2-3.03691E-03 9.11072E-04 9.11072E-04 1.62051E-17-3.10853E-20-1.09252E-17
 -1         3-3.03691E-03 9.11072E-04 9.11072E-04 1.81020E-19-3.08825E-20 4.54188E-17
 -1         4-3.03691E-03 9.11072E-04 9.11072E-04 5.07777E-17-6.26148E-20 6.04408E-17
 -1         5-3.03691E-03 9.11072E-04 9.11072E-04-5.84174E-17 4.36045E-21-3.55293E-17
 -1         6-6.07381E-03 1.82214E-03 1.82214E-03 2.95904E-18-5.46470E-21-9.05713E-18
 -1         7-6.07381E-03 1.82214E-03 1.82214E-03-1.84705E-17 1.00019E-17-1.13752E-19
 -1         8-3.03691E-03 9.11072E-04 9.11072E-04 6.83291E-18-2.60195E-18 1.62631E-17
 -1         9-3.03691E-03 9.11072E-04 9.11072E-04-1.02158E-17-1.10161E-17 1.12923E-17
 -1        10-3.03691E-03 9.11072E-04 9.11072E-04 4.14849E-17 5.77059E-18 3.56550E-17
 -1        11-3.03691E-03 9.11072E-04 9.11072E-04-3.91476E-17-4.27805E-18-1.77867E-17
 -1        12-6.07381E-03 1.82214E-03 1.82214E-03 3.52529E-17-1.64371E-17 2.90313E-18
 -1        13-6.07381E-03 1.82214E-03 1.82214E-03-3.24987E-19-8.28454E-18 8.96417E-18
 -1        14-3.03691E-03 9.11072E-04 9.11072E-04 5.45774E-17-1.04316E-17-6.41358E-18
 -1        15-3.03691E-03 9.11072E-04 9.11072E-04-4.63439E-17-1.55763E-17-3.56475E-18
 -1        16-3.03691E-03 9.11072E-04 9.11072E-04 1.44085E-17-1.80365E-18 1.51406E-17
 -1        17-3.03691E-03 9.11072E-04 9.11072E-04-3.38243E-17-3.43447E-18-2.47295E-17
 -1        18-6.07381E-03 1.82214E-03 1.82214E-03-3.88470E-18-1.34975E-17 3.03967E-17
 -1        19-6.07381E-03 1.82214E-03 1.82214E-03-4.01478E-17 1.50166E-18-3.18890E-18
 -1        20-3.03691E-03 9.11072E-04 9.11072E-04 3.46660E-17-1.29726E-17 1.46152E-17
 -1        21-3.03691E-03 9.11072E-04 9.11072E-04-3.33605E-17-2.65243E-17-1.74631E-17
 -1        22-3.03691E-03 9.11072E-04 9.11072E-04 2.70960E-17 3.89045E-18-1.87536E-18
 -1        23-3.03691E-03 9.11072E-04 9.11072E-04-2.11753E-17-7.79102E-18-6.83428E-18
 -1        24-6.07381E-03 1.82214E-03 1.82214E-03 2.63660E-17-2.99539E-17 1.01865E-17
 -3
    1PSTEP                       340         114           1          
  100CL  214 9.84781E-01          24                     0  114           1
 -4  DISP        4    1
 -5  D1          1    2    1    0
 -5  D2          1    2    2    0
 -5  D3          1    2    3    0
 -5  ALL         1    2    0    0    1ALL
 -1         1 0.00000E+00 0.00000E+00 0.00000E+00
 -1         2-3.14630E+00 0.00000E+00 0.00000E+00
 -1         3-1.31986E+01 0.00000E+00 0.00000E+00
 -1         4-1.63449E+01 0.00000E+00 0.00000E+00
 -1         5-2.63971E+01 0.00000E+00 0.00000E+00
 -1         6-2.95434E+01 0.00000E+00 0.00000E+00
 -1         7 0.00000E+00 9.40036E-01 0.00000E+00
 -1         8-3.14630E+00 9.40036E-01 0.00000E+00
 -1         9-1.31986E+01 9.40036E-01 0.00000E+00
 -1        10-1.63449E+01 9.40036E-01 0.00000E+00
 -1        11-2.63971E+01 9.40036E-01 0.00000E+00
 -1        12-2.95434E+01 9.40036E-01 0.00000E+00
 -1        13 0.00000E+00 0.00000E+00 1.31605E+00
 -1        14-3.14630E+00 0.00000E+00 1.31605E+00
 -1        15-1.31986E+01 0.00000E+00 1.31605E+00
 -1        16-1.63449E+01 0.00000E+00 1.31605E+00
 -1        17-2.63971E+01 0.00000E+00 1.31605E+00
 -1        18-2.95434E+01 0.00000E+00 1.31605E+00
 -1        19 0.00000E+00 9.40036E-01 1.31605E+00
 -1        20-3.14630E+00 9.40036E-01 1.31605E+00
 -1        21-1.31986E+01 9.40036E-01 1.31605E+00
 -1        22-1.63449E+01 9.40036E-01 1.31605E+00
 -1        23-2.63971E+01 9.40036E-01 1.31605E+00
 -1        24-2.95434E+01 9.40036E-01 1.31605E+00
 -3
    1PSTEP                       341         114           1          
  100CL  214 9.84781E-01          24                     0  114           1
 -4  STRESS      6    1
 -5  SXX         1    4    1    1
 -5  SYY         1    4    2    2
 -5  SZZ         1    4    3    3
 -5  SXY         1    4    1    2
 -5  SYZ         1    4    2    3
 -5  SZX         1    4    3    1
 -1         1-1.30404E+03-2.73698E-13-8.30822E-13-2.13117E-14 1.45017E-14-6.60067E-15
 -1         2-6.52019E+02-2.04262E-12-5.73068E-13 6.83199E-13-3.76471E-15-1.71680E-12
 -1         3-6.52019E+02 9.94398E-13 2.23200E-12 2.28555E-12 1.11681E-15 6.21786E-12
 -1         4-6.52019E+02-1.73492E-11-1.87145E-11 1.14266E-11 8.36059E-15 1.11172E-11
 -1         5-6.52019E+02-1.79201E-11-1.71905E-11-1.14609E-11 2.40066E-15-9.56599E-12
 -1         6-1.30404E+03-4.83500E-12-9.99077E-12 2.83510E-13-1.24480E-14 2.00219E-13
 -1         7-1.30404E+03 1.66247E-12-1.24374E-13-1.43658E-12 1.42710E-12-4.18035E-15
 -1         8-6.52019E+02-2.44740E-12-2.77713E-12-2.44345E-14-8.61960E-13 3.78557E-12
 -1         9-6.52019E+02 1.08022E-11 7.27981E-12-9.52930E-13-3.40186E-12-1.44416E-12
 -1        10-6.52019E+02-2.97076E-12-2.38650E-12 8.04322E-12 2.38279E-12-9.75111E-13
 -1        11-6.52019E+02 2.02598E-13 2.11307E-12-7.87336E-12 6.05316E-13 2.62196E-12
 -1        12-1.30404E+03 2.60446E-11 1.67631E-11 5.72962E-12-4.62967E-12-3.41997E-13
 -1        13-1.30404E+03-1.39027E-13-5.25703E-12 1.46919E-14-3.83937E-13 8.28292E-13
 -1        14-6.52019E+02-9.86925E-12-5.85828E-12 8.30967E-12-1.40825E-12-1.29935E-12
 -1        15-6.52019E+02-5.69542E-12 4.84623E-12-8.93047E-12-3.01872E-12 1.62267E-13
 -1        16-6.52019E+02 4.21349E-12-3.61883E-12-5.38011E-12 1.26944E-12 5.13907E-12
 -1        17-6.52019E+02 2.96583E-12 1.74330E-12 2.67844E-12 9.35485E-13-5.91805E-12
 -1        18-1.30404E+03 8.23240E-12 1.67100E-11-4.73899E-13-3.20453E-12 4.88225E-12
 -1        19-1.30404E+03 2.44494E-11 1.91650E-11-5.73588E-12 1.06484E-12-1.50493E-12
 -1        20-6.52019E+02 1.05209E-12 2.90372E-12 5.43438E-12-2.27129E-12 3.03520E-12
 -1        21-6.52019E+02-3.32956E-12 2.98375E-12-4.32103E-12-6.45978E-12-3.81870E-12
 -1        22-6.52019E+02 1.14472E-11 5.20436E-12-5.99683E-13 3.72335E-12-2.77573E-12
 -1        23-6.52019E+02 9.01630E-13 1.04840E-12 1.95075E-12 1.54952E-12 1.49021E-12
 -1        24-1.30404E+03-1.85629E-12 1.08910E-12-4.08811E-13-7.77943E-12 7.37912E-13
 -3
    1PSTEP                       342         114           1          
  100CL  214 9.84781E-01          24                     0  114           1
 -4  TOSTRAIN    6    1
 -5  EXX         1    4    1    1
 -5  EYY         1    4    2    2
 -5  EZZ         1    4    3    3
 -5  EXY         1    4    1    2
 -5  EYZ         1    4    2    3
 -5  EZX         1    4    3    1
 -1         1-6.27255E-03 1.88176E-03 1.88176E-03-1.31830E-19 8.92077E-20-3.94944E-20
 -1         2-3.13627E-03 9.40882E-04 9.40882E-04 4.23745E-18-2.31587E-20-1.06471E-17
 -1         3-3.13627E-03 9.40882E-04 9.40882E-04 1.41752E-17 6.87008E-21 3.85636E-17
 -1         4-3.13627E-03 9.40882E-04 9.40882E-04 7.08692E-17 5.14304E-20 6.89497E-17
 -1         5-3.13627E-03 9.40882E-04 9.40882E-04-7.10815E-17 1.47677E-20-5.93291E-17
 -1         6-6.27255E-03 1.88176E-03 1.88176E-03 1.75862E-18-7.65739E-20 1.24221E-18
 -1         7-6.27255E-03 1.88176E-03 1.88176E-03-9.05445E-18 8.77882E-18-2.60821E-20
 -1         8-3.13627E-03 9.40882E-04 9.40882E-04-2.23859E-19-5.30237E-18 2.34785E-17
 -1         9-3.13627E-03 9.40882E-04 9.40882E-04-6.24511E-18-2.09266E-17-8.95619E-18
 -1        10-3.13627E-03 9.40882E-04 9.40882E-04 4.95501E-17 1.46578E-17-6.04711E-18
 -1        11-3.13627E-03 9.40882E-04 9.40882E-04-4.84826E-17 3.72362E-18 1.62615E-17
 -1        12-6.27255E-03 1.88176E-03 1.88176E-03 3.62336E-17-2.84795E-17-2.12152E-18
 -1        13-6.27255E-03 1.88176E-03 1.88176E-03 9.16974E-20-2.36180E-18 5.22413E-18
 -1        14-3.13627E-03 9.40882E-04 9.40882E-04 5.15378E-17-8.66289E-18-8.01525E-18
 -1        15-3.13627E-03 9.40882E-04 9.40882E-04-5.53880E-17-1.85697E-17 3.78456E-19
 -1        16-3.13627E-03 9.40882E-04 9.40882E-04-3.33682E-17 7.80899E-18 3.12452E-17
 -1        17-3.13627E-03 9.40882E-04 9.40882E-04 1.66120E-17 5.75466E-18-3.64196E-17
 -1        18-6.27255E-03 1.88176E-03 1.88176E-03-2.93910E-18-1.97127E-17 3.08500E-17
 -1        19-6.27255E-03 1.88176E-03 1.88176E-03-3.61631E-17 6.55038E-18-9.48761E-18
 -1        20-3.13627E-03 9.40882E-04 9.40882E-04 3.34104E-17-1.39719E-17 1.87477E-17
 -1        21-3.13627E-03 9.40882E-04 9.40882E-04-2.63238E-17-3.97375E-17-2.38805E-17
 -1        22-3.13627E-03 9.40882E-04 9.40882E-04-3.24361E-18 2.29042E-17-1.74119E-17
 -1        23-3.13627E-03 9.40882E-04 9.40882E-04 1.20407E-17 9.53193E-18 9.27257E-18
 -1        24-6.27255E-03 1.88176E-03 1.88176E-03-2.65158E-18-4.78553E-17 4.63685E-18
 -3
    1PSTEP                       343         115           1          
  100CL  215 9.93781E-01          24                     0  115           1
 -4  DISP        4    1
 -5  D1          1    2    1    0
 -5  D2          1    2    2    0
 -5  D3          1    2    3    0
 -5  ALL         1    2    0    0    1ALL
 -1         1 0.00000E+00 0.00000E+00 0.00000E+00
 -1         2-3.25019E+00 0.00000E+00 0.00000E+00
 -1         3-1.32816E+01 0.00000E+00 0.00000E+00
 -1         4-1.65318E+01 0.00000E+00 0.00000E+00
 -1         5-2.65632E+01 0.00000E+00 0.00000E+00
 -1         6-2.98134E+01 0.00000E+00 0.00000E+00
 -1         7 0.00000E+00 9.70945E-01 0.00000E+00
 -1         8-3.25019E+00 9.70945E-01 0.00000E+00
 -1         9-1.32816E+01 9.70945E-01 0.00000E+00
 -1        10-1.65318E+01 9.70945E-01 0.00000E+00
 -1        11-2.65632E+01 9.70945E-01 0.00000E+00
 -1        12-2.98134E+01 9.70945E-01 0.00000E+00
 -1        13 0.00000E+00 0.00000E+00 1.35932E+00
 -1        14-3.25019E+00 0.00000E+00 1.35932E+00
 -1        15-1.32816E+01 0.00000E+00 1.35932E+00
 -1        16-1.65318E+01 0.00000E+00 1.35932E+00
 -1        17-2.65632E+01 0.00000E+00 1.35932E+00
 -1        18-2.98134E+01 0.00000E+00 1.35932E+00
 -1        19 0.00000E+00 9.70945E-01 1.35932E+00
 -1        20-3.25019E+00 9.70945E-01 1.35932E+00
 -1        21-1.32816E+01 9.70945E-01 1.35932E+00
 -1        22-1.65318E+01 9.70945E-01 1.35932E+00
 -1        23-2.65632E+01 9.70945E-01 1.35932E+00
 -1        24-2.98134E+01 9.70945E-01 1.35932E+00
 -3
    1PSTEP                       344         115           1          
  100CL  215 9.93781E-01          24                     0  115           1
 -4  STRESS      6    1
 -5  SXX         1    4    1    1
 -5  SYY         1    4    2    2
 -5  SZZ         1    4    3    3
 -5  SXY         1    4    1    2
 -5  SYZ         1    4    2    3
 -5  SZX         1    4    3    1
 -1         1-1.34651E+03 3.36170E-13 8.07707E-13-2.73614E-14-7.24195E-15-4.86954E-15
 -1         2-6.73254E+02 2.44092E-12 1.46191E-12-2.31542E-12 4.46131E-15-1.29137E-12
 -1         3-6.73254E+02 5.45708E-12 5.23384E-12 3.65432E-12-1.31995E-16 3.94755E-12
 -1         4-6.73254E+02-3.67593E-12-5.10520E-12 1.40142E-12-1.95211E-15 2.21959E-12
 -1         5-6.73254E+02-3.21184E-12-4.57117E-12-6.43738E-13 7.67955E-15-6.43477E-13
 -1         6-1.34651E+03-1.58148E-12-2.79614E-12-3.46017E-13-4.45364E-15-1.04546E-12
 -1         7-1.34651E+03-5.56322E-12-3.94328E-12 1.15452E-12 8.18573E-13 3.97520E-14
 -1         8-6.73254E+02-1.88192E-12-3.59706E-12-1.76262E-12-1.03471E-12 3.63822E-12
 -1         9-6.73254E+02 1.15656E-12 4.74091E-13 2.00520E-12-8.41072E-13-9.28633E-13
 -1        10-6.73254E+02-8.03927E-12-9.45883E-12-2.50256E-13-4.73633E-13 6.68133E-12
 -1        11-6.73254E+02-2.04536E-12-4.42483E-12-3.68838E-13-1.59219E-12-5.29134E-12
 -1        12-1.34651E+03 2.46793E-12 1.36469E-12 1.46437E-12-3.31791E-13-1.23378E-12
 -1        13-1.34651E+03-1.38546E-12-2.93285E-12 1.16469E-14 1.04722E-12 4.94827E-14
 -1        14-6.73254E+02-5.45729E-12-3.60678E-12 4.50390E-12-6.28956E-13-1.27373E-12
 -1        15-6.73254E+02-1.94467E-12 1.04249E-13-2.92629E-12-4.06712E-13 6.23885E-13
 -1        16-6.73254E+02-9.59571E-12-9.48539E-12 6.87910E-12-2.76062E-13-1.27991E-13
 -1        17-6.73254E+02-9.07236E-12-5.66001E-12-7.27670E-12-7.48114E-13-7.55671E-13
 -1        18-1.34651E+03 1.45884E-12 2.67475E-13-9.93840E-13 3.52907E-13 3.09658E-12
 -1        19-1.34651E+03 1.39990E-11 1.37256E-11-2.70557E-12 1.83684E-12-2.19197E-12
 -1        20-6.73254E+02 8.61780E-13 1.74169E-12 3.28763E-12-1.66328E-12 2.55794E-12
 -1        21-6.73254E+02 1.22295E-11 1.37732E-11-4.11486E-12-1.24765E-12-3.48086E-12
 -1        22-6.73254E+02 4.81293E-12 4.29239E-12 5.82333E-12-7.47743E-13 3.07487E-12
 -1        23-6.73254E+02 1.19124E-12 3.45780E-12-4.92825E-12-2.35405E-12-3.24092E-12
 -1        24-1.34651E+03 2.37025E-11 2.35604E-11 4.42223E-12 7.08083E-14 4.07520E-12
 -3
    1PSTEP                       345         115           1          
  100CL  215 9.93781E-01          24                     0  115           1
 -4  TOSTRAIN    6    1
 -5  EXX         1    4    1    1
 -5  EYY         1    4    2    2
 -5  EZZ         1    4    3    3
 -5  EXY         1    4    1    2
 -5  EYZ         1    4    2    3
 -5  EZX         1    4    3    1
 -1         1-6.47899E-03 1.94370E-03 1.94370E-03-1.68612E-19-4.45397E-20-2.93750E-20
 -1         2-3.23949E-03 9.71848E-04 9.71848E-04-1.43608E-17 2.74381E-20-8.00931E-18
 -1         3-3.23949E-03 9.71848E-04 9.71848E-04 2.26659E-17-8.11801E-22 2.44847E-17
 -1         4-3.23949E-03 9.71848E-04 9.71848E-04 8.69223E-18-1.20060E-20 1.37670E-17
 -1         5-3.23949E-03 9.71848E-04 9.71848E-04-3.99235E-18 4.72311E-20-3.99138E-18
 -1         6-6.47899E-03 1.94370E-03 1.94370E-03-2.14530E-18-2.73909E-20-6.48488E-18
 -1         7-6.47899E-03 1.94370E-03 1.94370E-03 7.28540E-18 5.03442E-18 2.46816E-19
 -1         8-3.23949E-03 9.71848E-04 9.71848E-04-1.08704E-17-6.36372E-18 2.25662E-17
 -1         9-3.23949E-03 9.71848E-04 9.71848E-04 1.22626E-17-5.17279E-18-5.76001E-18
 -1        10-3.23949E-03 9.71848E-04 9.71848E-04-1.72690E-18-2.91296E-18 4.14408E-17
 -1        11-3.23949E-03 9.71848E-04 9.71848E-04-2.24408E-18-9.79236E-18-3.28195E-17
 -1        12-6.47899E-03 1.94370E-03 1.94370E-03 9.17002E-18-2.04059E-18-7.65253E-18
 -1        13-6.47899E-03 1.94370E-03 1.94370E-03 7.12385E-20 6.44063E-18 3.11906E-19
 -1        14-3.23949E-03 9.71848E-04 9.71848E-04 2.79349E-17-3.86823E-18-7.89780E-18
 -1        15-3.23949E-03 9.71848E-04 9.71848E-04-1.81505E-17-2.50137E-18 3.54427E-18
 -1        16-3.23949E-03 9.71848E-04 9.71848E-04 4.26674E-17-1.69785E-18-1.11924E-18
 -1        17-3.23949E-03 9.71848E-04 9.71848E-04-4.51339E-17-4.60108E-18-4.59748E-18
 -1        18-6.47899E-03 1.94370E-03 1.94370E-03-6.16464E-18 2.17046E-18 1.93857E-17
 -1        19-6.47899E-03 1.94370E-03 1.94370E-03-1.70636E-17 1.12970E-17-1.38258E-17
 -1        20-3.23949E-03 9.71848E-04 9.71848E-04 2.02504E-17-1.02296E-17 1.57506E-17
 -1        21-3.23949E-03 9.71848E-04 9.71848E-04-2.56455E-17-7.67335E-18-2.19014E-17
 -1        22-3.23949E-03 9.71848E-04 9.71848E-04 3.59961E-17-4.59880E-18 1.87605E-17
 -1        23-3.23949E-03 9.71848E-04 9.71848E-04-3.03110E-17-1.44779E-17-1.99177E-17
 -1        24-6.47899E-03 1.94370E-03 1.94370E-03 2.79418E-17 4.35488E-19 2.56446E-17
 -3
    1PSTEP                       346         116           1          
  100CL  216 1.000000000          24                     0  116           1
 -4  DISP        4    1
 -5  D1          1    2    1    0
 -5  D2          1    2    2    0
 -5  D3          1    2    3    0
 -5  ALL         1    2    0    0    1ALL
 -1         1 0.00000E+00 0.00000E+00 0.00000E+00
 -1         2-3.32658E+00 0.00000E+00 0.00000E+00
 -1         3-1.33367E+01 0.00000E+00 0.00000E+00
 -1         4-1.66633E+01 0.00000E+00 0.00000E+00
 -1         5-2.66734E+01 0.00000E+00 0.00000E+00
 -1         6-3.00000E+01 0.00000E+00 0.00000E+00
 -1         7 0.00000E+00 9.93667E-01 0.00000E+00
 -1         8-3.32658E+00 9.93667E-01 0.00000E+00
 -1         9-1.33367E+01 9.93667E-01 0.00000E+00
 -1        10-1.66633E+01 9.93667E-01 0.00000E+00
 -1        11-2.66734E+01 9.93667E-01 0.00000E+00
 -1        12-3.00000E+01 9.93667E-01 0.00000E+00
 -1        13 0.00000E+00 0.00000E+00 1.39113E+00
 -1        14-3.32658E+00 0.00000E+00 1.39113E+00
 -1        15-1.33367E+01 0.00000E+00 1.39113E+00
 -1        16-1.66633E+01 0.00000E+00 1.39113E+00
 -1        17-2.66734E+01 0.00000E+00 1.39113E+00
 -1        18-3.00000E+01 0.00000E+00 1.39113E+00
 -1        19 0.00000E+00 9.93667E-01 1.39113E+00
 -1        20-3.32658E+00 9.93667E-01 1.39113E+00
 -1        21-1.33367E+01 9.93667E-01 1.39113E+00
 -1        22-1.66633E+01 9.93667E-01 1.39113E+00
 -1        23-2.66734E+01 9.93667E-01 1.39113E+00
 -1        24-3.00000E+01 9.93667E-01 1.39113E+00
 -3
    1PSTEP                       347         116           1          
  100CL  216 1.000000000          24                     0  116           1
 -4  STRESS      6    1
 -5  SXX         1    4    1    1
 -5  SYY         1    4    2    2
 -5  SZZ         1    4    3    3
 -5  SXY         1    4    1    2
 -5  SYZ         1    4    2    3
 -5  SZX         1    4    3    1
 -1         1-1.37772E+03 1.28953E-12 1.05352E-12 1.87824E-15-6.89994E-15-8.14762E-15
 -1         2-6.88858E+02-1.37120E-12 2.48856E-13 1.51807E-12 4.81445E-15-6.85213E-13
 -1         3-6.88858E+02 1.49059E-12 1.05019E-12 7.39485E-13 4.80486E-15 1.15085E-12
 -1         4-6.88858E+02-5.91287E-12-3.07278E-12 4.14470E-12-9.81774E-15 9.61627E-14
 -1         5-6.88858E+02-5.04049E-12-2.44948E-12-4.05637E-12-3.10330E-15-4.65960E-13
 -1         6-1.37772E+03 1.64820E-12 3.02005E-14 5.66678E-13 1.82434E-14 2.02006E-12
 -1         7-1.37772E+03 5.34091E-12 2.77927E-12-1.40859E-12 6.31154E-13 4.75292E-14
 -1         8-6.88858E+02 4.82816E-13 1.23740E-12 8.12837E-13 8.17980E-14 1.37674E-13
 -1         9-6.88858E+02 6.36760E-12 4.07059E-12-1.18129E-12 1.88925E-13 2.76947E-13
 -1        10-6.88858E+02-8.01358E-13 6.51135E-13 2.22138E-12 3.98052E-13 3.93062E-13
 -1        11-6.88858E+02-3.65273E-13 1.05936E-12-2.33163E-12 6.53063E-14-2.24449E-13
 -1        12-1.37772E+03 1.06553E-11 5.89220E-12 3.56880E-12 6.46121E-13-1.26978E-12
 -1        13-1.37772E+03 2.35324E-12-3.00399E-13-3.02618E-15-7.62020E-13 7.83611E-13
 -1        14-6.88858E+02-2.38438E-12-9.89115E-13 2.66156E-12-6.57850E-13-3.17932E-13
 -1        15-6.88858E+02 1.23049E-12 6.89431E-15-1.06584E-12-1.12759E-12 4.42260E-13
 -1        16-6.88858E+02-5.08012E-12-3.41256E-12 4.62871E-12-9.96303E-13 1.15624E-13
 -1        17-6.88858E+02-4.58380E-12-2.05918E-12-4.59541E-12-8.32047E-13 1.36923E-13
 -1        18-1.37772E+03 4.62164E-12 1.02847E-12-1.06293E-12-2.04956E-12-2.99519E-12
 -1        19-1.37772E+03 9.15134E-12 5.45343E-12-2.11062E-12-5.15692E-14 2.84616E-13
 -1        20-6.88858E+02 8.42996E-13 1.41879E-12 1.60776E-12-5.90566E-13 3.62947E-13
 -1        21-6.88858E+02 7.71537E-12 5.10417E-12-2.71021E-12-9.41649E-13 2.75920E-13
 -1        22-6.88858E+02 1.34192E-12 1.49621E-12 3.11711E-12-5.95220E-13 2.63004E-13
 -1        23-6.88858E+02 1.12144E-12 2.24518E-12-2.73566E-12-7.36726E-13-9.26772E-13
 -1        24-1.37772E+03 1.56888E-11 9.07618E-12 3.83317E-12-1.52850E-12 5.77550E-13
 -3
    1PSTEP                       348         116           1          
  100CL  216 1.000000000          24                     0  116           1
 -4  TOSTRAIN    6    1
 -5  EXX         1    4    1    1
 -5  EYY         1    4    2    2
 -5  EZZ         1    4    3    3
 -5  EXY         1    4    1    2
 -5  EYZ         1    4    2    3
 -5  EZX         1    4    3    1
 -1         1-6.63077E-03 1.98923E-03 1.98923E-03 1.14602E-20-4.24297E-20-5.02151E-20
 -1         2-3.31538E-03 9.94615E-04 9.94615E-04 9.41616E-18 2.96055E-20-4.25007E-18
 -1         3-3.31538E-03 9.94615E-04 9.94615E-04 4.58674E-18 2.95465E-20 7.13804E-18
 -1         4-3.31538E-03 9.94615E-04 9.94615E-04 2.57085E-17-6.03721E-20 5.96074E-19
 -1         5-3.31538E-03 9.94615E-04 9.94615E-04-2.51610E-17-1.90831E-20-2.89038E-18
 -1         6-6.63077E-03 1.98923E-03 1.98923E-03 3.51449E-18 1.12184E-19 1.25297E-17
 -1         7-6.63077E-03 1.98923E-03 1.98923E-03-8.89022E-18 3.88115E-18 2.94431E-19
 -1         8-3.31538E-03 9.94615E-04 9.94615E-04 4.96532E-18 5.02999E-19 8.53768E-19
 -1         9-3.31538E-03 9.94615E-04 9.94615E-04-7.53560E-18 1.16176E-18 1.71775E-18
 -1        10-3.31538E-03 9.94615E-04 9.94615E-04 1.35704E-17 2.44774E-18 2.43799E-18
 -1        11-3.31538E-03 9.94615E-04 9.94615E-04-1.42811E-17 4.01587E-19-1.39220E-18
 -1        12-6.63077E-03 1.98923E-03 1.98923E-03 2.24996E-17 3.97319E-18-7.87614E-18
 -1        13-6.63077E-03 1.98923E-03 1.98923E-03-1.91506E-20-4.68588E-18 4.94419E-18
 -1        14-3.31538E-03 9.94615E-04 9.94615E-04 1.65089E-17-4.04531E-18-1.93025E-18
 -1        15-3.31538E-03 9.94615E-04 9.94615E-04-6.61108E-18-6.93387E-18 2.69226E-18
 -1        16-3.31538E-03 9.94615E-04 9.94615E-04 2.87109E-17-6.12655E-18 6.66211E-19
 -1        17-3.31538E-03 9.94615E-04 9.94615E-04-2.85041E-17-5.11650E-18 8.34370E-19
 -1        18-6.63077E-03 1.98923E-03 1.98923E-03-6.59272E-18-1.26033E-17-1.86083E-17
 -1        19-6.63077E-03 1.98923E-03 1.98923E-03-1.33205E-17-3.17114E-19 1.80006E-18
 -1        20-3.31538E-03 9.94615E-04 9.94615E-04 9.85820E-18-3.63156E-18 2.26861E-18
 -1        21-3.31538E-03 9.94615E-04 9.94615E-04-1.69859E-17-5.79047E-18 1.67270E-18
 -1        22-3.31538E-03 9.94615E-04 9.94615E-04 1.91596E-17-3.66018E-18 1.59258E-18
 -1        23-3.31538E-03 9.94615E-04 9.94615E-04-1.67534E-17-4.53034E-18-5.78504E-18
 -1        24-6.63077E-03 1.98923E-03 1.98923E-03 2.42068E-17-9.39919E-18 3.50945E-18
 -3
 9999
