
 displacements (vx,vy,vz) for set NALL and time  0.1000000E-02

         1  0.000000E+00  0.000000E+00  0.000000E+00
         2 -1.833215E-15  0.000000E+00  0.000000E+00
         3 -9.624375E-08  0.000000E+00  0.000000E+00
         4 -9.624412E-08  0.000000E+00  0.000000E+00
         5 -1.926925E-07  0.000000E+00  0.000000E+00
         6 -1.925702E-07  0.000000E+00  0.000000E+00
         7  0.000000E+00 -1.833215E-15  0.000000E+00
         8 -1.833215E-15 -1.833215E-15  0.000000E+00
         9 -9.624375E-08  1.229886E-12  0.000000E+00
        10 -9.624412E-08  1.229875E-12  0.000000E+00
        11 -1.926917E-07 -4.067657E-10  0.000000E+00
        12 -1.925695E-07 -4.083223E-10  0.000000E+00
        13  0.000000E+00 -9.624375E-08  0.000000E+00
        14  1.229886E-12 -9.624375E-08  0.000000E+00
        15  4.516910E-05  4.516910E-05  0.000000E+00
        16  4.516910E-05  4.516910E-05  0.000000E+00
        17  6.410732E-05 -1.496222E-02  0.000000E+00
        18  6.410744E-05 -1.499229E-02  0.000000E+00
        19  0.000000E+00 -9.624412E-08  0.000000E+00
        20  1.229875E-12 -9.624412E-08  0.000000E+00
        21  4.516910E-05  4.516910E-05  0.000000E+00
        22  4.516910E-05  4.516910E-05  0.000000E+00
        23  9.418350E-05 -1.496222E-02  0.000000E+00
        24  9.418362E-05 -1.499230E-02  0.000000E+00
        25  0.000000E+00 -1.926925E-07  0.000000E+00
        26 -4.067657E-10 -1.926917E-07  0.000000E+00
        27 -1.496222E-02  6.410732E-05  0.000000E+00
        28 -1.496222E-02  9.418350E-05  0.000000E+00
        29 -3.000000E-02 -3.000000E-02  0.000000E+00
        30 -3.000000E-02 -3.000000E-02  0.000000E+00
        31  0.000000E+00 -1.925702E-07  0.000000E+00
        32 -4.083223E-10 -1.925695E-07  0.000000E+00
        33 -1.499229E-02  6.410744E-05  0.000000E+00
        34 -1.499230E-02  9.418362E-05  0.000000E+00
        35 -3.000000E-02 -3.000000E-02  0.000000E+00
        36 -3.000000E-02 -3.000000E-02  0.000000E+00
        37  0.000000E+00  0.000000E+00  2.199858E-15
        38 -1.833215E-15  0.000000E+00  2.199858E-15
        39 -9.624375E-08  0.000000E+00 -5.151204E-13
        40 -9.624412E-08  0.000000E+00 -5.151163E-13
        41 -1.926929E-07  0.000000E+00  1.708699E-10
        42 -1.925707E-07  0.000000E+00  1.714685E-10
        43  0.000000E+00 -1.833215E-15  2.199858E-15
        44 -1.833215E-15 -1.833215E-15  2.199858E-15
        45 -9.624375E-08  1.229886E-12 -5.151204E-13
        46 -9.624412E-08  1.229875E-12 -5.151163E-13
        47 -1.926921E-07 -4.067657E-10  1.708699E-10
        48 -1.925699E-07 -4.083223E-10  1.714685E-10
        49  0.000000E+00 -9.624375E-08 -5.151204E-13
        50  1.229886E-12 -9.624375E-08 -5.151204E-13
        51  4.516910E-05  4.516910E-05 -7.331108E-13
        52  4.516910E-05  4.516910E-05 -1.032959E-12
        53  6.410732E-05 -1.496222E-02  1.710601E-10
        54  6.410744E-05 -1.499229E-02  1.710606E-10
        55  0.000000E+00 -9.624412E-08 -5.151163E-13
        56  1.229875E-12 -9.624412E-08 -5.151163E-13
        57  4.516910E-05  4.516910E-05 -1.032959E-12
        58  4.516910E-05  4.516910E-05 -1.332808E-12
        59  9.418350E-05 -1.496222E-02  1.707607E-10
        60  9.418362E-05 -1.499230E-02  1.707612E-10
        61  0.000000E+00 -1.926929E-07  1.708699E-10
        62 -4.067657E-10 -1.926922E-07  1.708699E-10
        63 -1.496222E-02  6.410732E-05  1.710601E-10
        64 -1.496222E-02  9.418350E-05  1.707607E-10
        65 -3.000000E-02 -3.000000E-02  4.595229E-19
        66 -3.000000E-02 -3.000000E-02 -1.201334E-18
        67  0.000000E+00 -1.925707E-07  1.714685E-10
        68 -4.083223E-10 -1.925699E-07  1.714685E-10
        69 -1.499229E-02  6.410744E-05  1.710606E-10
        70 -1.499230E-02  9.418362E-05  1.707612E-10
        71 -3.000000E-02 -3.000000E-02 -1.065491E-18
        72 -3.000000E-02 -3.000000E-02  1.131436E-18

 stresses (elem, integ.pnt.,sxx,syy,szz,sxy,sxz,syz) for set EALL and time  0.1000000E-02

         1   1 -1.099929E-12 -1.099929E-12 -2.001086E-23  1.717830E-23 -2.525039E-24 -2.519889E-24
         1   2 -1.099929E-12 -1.099929E-12  1.128861E-23  4.065182E-23 -7.868291E-24 -2.522517E-24
         1   3 -1.099929E-12 -1.099929E-12  1.126620E-23  4.063673E-23 -2.523474E-24 -7.831173E-24
         1   4 -1.099929E-12 -1.099929E-12  4.257163E-23  6.411026E-23 -7.864703E-24 -7.843246E-24
         1   5 -1.099929E-12 -1.099929E-12 -4.238543E-23  1.717448E-23 -4.080301E-24 -4.093095E-24
         1   6 -1.099929E-12 -1.099929E-12 -1.110585E-23  4.065082E-23 -9.423552E-24 -4.093412E-24
         1   7 -1.099929E-12 -1.099929E-12 -1.110403E-23  4.061968E-23 -4.076451E-24 -9.404364E-24
         1   8 -1.099929E-12 -1.099929E-12  2.018131E-23  6.409602E-23 -9.417680E-24 -9.414141E-24
         2   1 -1.100559E-12  5.162210E-10  2.642955E-16  1.666195E-15 -1.933958E-16  8.901530E-20
         2   2 -1.101637E-12  5.162179E-10 -2.646742E-16  1.668170E-15 -1.946067E-16  2.878890E-20
         2   3 -1.100553E-12  5.162210E-10  2.649022E-16  6.731367E-16 -1.932871E-16  1.274374E-18
         2   4 -1.101631E-12  5.162179E-10 -2.640154E-16  6.751126E-16 -1.944999E-16  1.028721E-18
         2   5 -1.100563E-12  5.162210E-10  2.642365E-16  1.666242E-15  1.908511E-16 -8.531487E-19
         2   6 -1.101641E-12  5.162179E-10 -2.651226E-16  1.668217E-15  1.896393E-16 -8.924904E-19
         2   7 -1.100557E-12  5.162210E-10  2.648453E-16  6.729241E-16  1.909827E-16  3.322096E-19
         2   8 -1.101635E-12  5.162179E-10 -2.644616E-16  6.748981E-16  1.897681E-16  1.074417E-19
         3   1  7.841547E-11 -1.709445E-07  3.908462E-11  7.203438E-11 -2.791742E-11  2.523347E-17
         3   2 -7.951737E-11 -1.713928E-07 -3.908416E-11  7.203393E-11 -2.791741E-11  2.517556E-17
         3   3  7.841401E-11 -1.709445E-07  3.908420E-11 -7.313620E-11 -2.791742E-11 -4.067718E-18
         3   4 -7.951883E-11 -1.713928E-07 -3.908458E-11 -7.313665E-11 -2.791741E-11 -4.310590E-18
         3   5  7.841546E-11 -1.709445E-07  3.908458E-11  7.203438E-11  2.791742E-11  1.234738E-16
         3   6 -7.951738E-11 -1.713928E-07 -3.908420E-11  7.203393E-11  2.791743E-11  1.234426E-16
         3   7  7.841399E-11 -1.709445E-07  3.908416E-11 -7.313620E-11  2.791742E-11  9.417260E-17
         3   8 -7.951884E-11 -1.713928E-07 -3.908462E-11 -7.313665E-11  2.791743E-11  9.395648E-17
         4   1  5.162210E-10 -1.100559E-12  2.646610E-16  1.666099E-15 -7.828660E-21 -1.928201E-16
         4   2  5.162210E-10 -1.100553E-12  2.654146E-16  6.730462E-16  8.890233E-19 -1.931110E-16
         4   3  5.162179E-10 -1.101638E-12 -2.654012E-16  1.668129E-15  1.282367E-19 -1.937753E-16
         4   4  5.162179E-10 -1.101632E-12 -2.644722E-16  6.750760E-16  1.326661E-18 -1.943452E-16
         4   5  5.162210E-10 -1.100562E-12  2.645346E-16  1.665806E-15 -9.260689E-19  1.909898E-16
         4   6  5.162210E-10 -1.100558E-12  2.647052E-16  6.731755E-16 -2.921696E-20  1.907633E-16
         4   7  5.162179E-10 -1.101640E-12 -2.648881E-16  1.667447E-15 -7.198385E-19  1.900336E-16
         4   8  5.162179E-10 -1.101635E-12 -2.645483E-16  6.748165E-16  4.785860E-19  1.895318E-16
         5   1  3.646688E-10  3.646688E-10 -3.915120E-11  1.283559E-11  1.398257E-11  1.398257E-11
         5   2  4.437702E-10  5.891890E-10  5.351997E-20  8.554496E-11  1.398257E-11  1.398257E-11
         5   3  5.891890E-10  4.437702E-10  6.188028E-19  8.554496E-11  1.398257E-11  1.398257E-11
         5   4  6.682904E-10  6.682904E-10  3.915120E-11  1.582543E-10  1.398257E-11  1.398257E-11
         5   5  3.646688E-10  3.646688E-10 -3.915120E-11  1.283559E-11 -1.398257E-11 -1.398257E-11
         5   6  4.437702E-10  5.891890E-10 -4.475605E-19  8.554496E-11 -1.398257E-11 -1.398257E-11
         5   7  5.891890E-10  4.437702E-10  2.179385E-19  8.554496E-11 -1.398257E-11 -1.398257E-11
         5   8  6.682904E-10  6.682904E-10  3.915120E-11  1.582543E-10 -1.398257E-11 -1.398257E-11
         6   1  1.462111E-10 -1.712082E-07 -1.951596E-11  1.352206E-10 -2.108428E-14  1.396104E-11
         6   2  1.460910E-10 -1.712086E-07 -1.957582E-11  2.078190E-10 -2.105054E-14  1.396101E-11
         6   3  3.703887E-10 -1.711292E-07  1.957549E-11  1.351103E-10 -2.118520E-14  1.396135E-11
         6   4  3.702690E-10 -1.711296E-07  1.951620E-11  2.077088E-10 -2.117745E-14  1.396125E-11
         6   5  1.462115E-10 -1.712082E-07 -1.951568E-11  1.352205E-10  2.110884E-14 -1.396144E-11
         6   6  1.460915E-10 -1.712086E-07 -1.957541E-11  2.078189E-10  2.114058E-14 -1.396128E-11
         6   7  3.703890E-10 -1.711292E-07  1.957571E-11  1.351102E-10  2.112302E-14 -1.396100E-11
         6   8  3.702689E-10 -1.711296E-07  1.951607E-11  2.077086E-10  2.113077E-14 -1.396094E-11
         7   1 -1.709445E-07  7.841547E-11  3.908462E-11  7.203438E-11  2.522648E-17 -2.791742E-11
         7   2 -1.709445E-07  7.841401E-11  3.908420E-11 -7.313620E-11 -4.251297E-18 -2.791742E-11
         7   3 -1.713928E-07 -7.951737E-11 -3.908416E-11  7.203393E-11  2.515279E-17 -2.791741E-11
         7   4 -1.713928E-07 -7.951883E-11 -3.908458E-11 -7.313665E-11 -4.440190E-18 -2.791741E-11
         7   5 -1.709445E-07  7.841546E-11  3.908458E-11  7.203438E-11  1.236243E-16  2.791742E-11
         7   6 -1.709445E-07  7.841399E-11  3.908416E-11 -7.313620E-11  9.414651E-17  2.791742E-11
         7   7 -1.713928E-07 -7.951738E-11 -3.908420E-11  7.203393E-11  1.234645E-16  2.791743E-11
         7   8 -1.713928E-07 -7.951884E-11 -3.908462E-11 -7.313665E-11  9.387150E-17  2.791743E-11
         8   1 -1.712082E-07  1.462116E-10 -1.951567E-11  1.352210E-10  1.396119E-11 -2.117016E-14
         8   2 -1.711292E-07  3.703890E-10  1.957578E-11  1.351106E-10  1.396112E-11 -2.112550E-14
         8   3 -1.712086E-07  1.460911E-10 -1.957574E-11  2.078193E-10  1.396095E-11 -2.117444E-14
         8   4 -1.711296E-07  3.702685E-10  1.951570E-11  2.077091E-10  1.396146E-11 -2.114541E-14
         8   5 -1.712082E-07  1.462108E-10 -1.951652E-11  1.352202E-10 -1.396132E-11  2.113944E-14
         8   6 -1.711292E-07  3.703881E-10  1.957489E-11  1.351105E-10 -1.396115E-11  2.118568E-14
         8   7 -1.712086E-07  1.460914E-10 -1.957544E-11  2.078186E-10 -1.396122E-11  2.113543E-14
         8   8 -1.711296E-07  3.702687E-10  1.951597E-11  2.077090E-10 -1.396122E-11  2.116363E-14
         9   1 -7.173894E-18 -7.173894E-18 -1.673909E-17  1.186666E-36 -2.341093E-16 -2.294720E-16
         9   2  3.188128E-16  8.661264E-16  1.965828E-16  2.736568E-16  4.500327E-16  5.307033E-16
         9   3 -7.809819E-17 -7.809819E-17 -1.822291E-16  7.247905E-36 -5.001470E-16 -5.715430E-16
         9   4  1.625890E-16  2.994174E-16  2.425460E-16  6.841420E-17 -4.317328E-16 -4.270955E-16
         9   5 -7.173894E-18 -7.173894E-18 -1.673909E-17  1.303599E-36  1.659248E-16  1.832314E-16
         9   6 -2.969150E-16 -5.705718E-16 -4.191450E-16 -1.368284E-16  1.659248E-16  4.669915E-16
         9   7 -7.809819E-17 -7.809819E-17 -1.822291E-16  1.367265E-36 -9.762866E-17 -3.640822E-16
         9   8  2.652103E-16  5.388671E-16  3.451673E-16  1.368284E-16 -2.344571E-16 -2.171505E-16

 strains (elem, integ.pnt.,exx,eyy,ezz,exy,exz,eyz) forset EALL and time  0.1000000E-02

         1   1 -3.666429E-18 -3.666429E-18  3.142654E-18  1.063418E-28 -1.563120E-29 -1.559931E-29
         1   2 -3.666429E-18 -3.666429E-18  3.142654E-18  2.516541E-28 -4.870847E-29 -1.561558E-29
         1   3 -3.666429E-18 -3.666429E-18  3.142654E-18  2.515607E-28 -1.562151E-29 -4.847869E-29
         1   4 -3.666429E-18 -3.666429E-18  3.142654E-18  3.968730E-28 -4.868626E-29 -4.855343E-29
         1   5 -3.666429E-18 -3.666429E-18  3.142654E-18  1.063182E-28 -2.525900E-29 -2.533821E-29
         1   6 -3.666429E-18 -3.666429E-18  3.142654E-18  2.516479E-28 -5.833627E-29 -2.534017E-29
         1   7 -3.666429E-18 -3.666429E-18  3.142654E-18  2.514552E-28 -2.523517E-29 -5.821749E-29
         1   8 -3.666429E-18 -3.666429E-18  3.142654E-18  3.967849E-28 -5.829992E-29 -5.827801E-29
         2   1 -7.426997E-16  2.459767E-15 -7.358851E-16  1.031454E-20 -1.197212E-21  5.510471E-25
         2   2 -7.426997E-16  2.459755E-15 -7.358817E-16  1.032677E-20 -1.204708E-21  1.782170E-25
         2   3 -7.426997E-16  2.459767E-15 -7.358851E-16  4.167037E-21 -1.196539E-21  7.888979E-24
         2   4 -7.426997E-16  2.459755E-15 -7.358817E-16  4.179268E-21 -1.204047E-21  6.368272E-24
         2   5 -7.426997E-16  2.459767E-15 -7.358851E-16  1.031483E-20  1.181459E-21 -5.281397E-24
         2   6 -7.426997E-16  2.459755E-15 -7.358817E-16  1.032706E-20  1.173957E-21 -5.524940E-24
         2   7 -7.426997E-16  2.459767E-15 -7.358851E-16  4.165720E-21  1.182274E-21  2.056536E-24
         2   8 -7.426997E-16  2.459755E-15 -7.358817E-16  4.177941E-21  1.174755E-21  6.651150E-25
         3   1  2.445240E-13 -8.141893E-13  2.442805E-13  4.459271E-16 -1.728221E-16  1.562072E-22
         3   2  2.445240E-13 -8.159866E-13  2.447743E-13  4.459244E-16 -1.728221E-16  1.558487E-22
         3   3  2.445240E-13 -8.141893E-13  2.442805E-13 -4.527479E-16 -1.728221E-16 -2.518111E-23
         3   4  2.445240E-13 -8.159866E-13  2.447743E-13 -4.527507E-16 -1.728221E-16 -2.668460E-23
         3   5  2.445240E-13 -8.141893E-13  2.442805E-13  4.459271E-16  1.728221E-16  7.643616E-22
         3   6  2.445240E-13 -8.159867E-13  2.447743E-13  4.459244E-16  1.728222E-16  7.641687E-22
         3   7  2.445240E-13 -8.141893E-13  2.442805E-13 -4.527479E-16  1.728221E-16  5.829733E-22
         3   8  2.445240E-13 -8.159867E-13  2.447743E-13 -4.527507E-16  1.728222E-16  5.816353E-22
         4   1  2.459767E-15 -7.426997E-16 -7.358851E-16  1.031395E-20 -4.846313E-26 -1.193648E-21
         4   2  2.459767E-15 -7.426997E-16 -7.358851E-16  4.166477E-21  5.503477E-24 -1.195449E-21
         4   3  2.459755E-15 -7.426997E-16 -7.358817E-16  1.032651E-20  7.938463E-25 -1.199561E-21
         4   4  2.459755E-15 -7.426997E-16 -7.358817E-16  4.179042E-21  8.212664E-24 -1.203089E-21
         4   5  2.459767E-15 -7.426997E-16 -7.358851E-16  1.031213E-20 -5.732807E-24  1.182318E-21
         4   6  2.459767E-15 -7.426997E-16 -7.358851E-16  4.167277E-21 -1.808669E-25  1.180916E-21
         4   7  2.459755E-15 -7.426997E-16 -7.358817E-16  1.032229E-20 -4.456143E-24  1.176398E-21
         4   8  2.459755E-15 -7.426997E-16 -7.358817E-16  4.177436E-21  2.962675E-24  1.173292E-21
         5   1  1.271493E-15  1.271493E-15 -1.228345E-15  7.945842E-17  8.655876E-17  8.655876E-17
         5   2  1.271493E-15  2.171704E-15 -1.475656E-15  5.295640E-16  8.655876E-17  8.655876E-17
         5   3  2.171704E-15  1.271493E-15 -1.475656E-15  5.295640E-16  8.655876E-17  8.655876E-17
         5   4  2.171704E-15  2.171704E-15 -1.722967E-15  9.796697E-16  8.655876E-17  8.655876E-17
         5   5  1.271493E-15  1.271493E-15 -1.228345E-15  7.945842E-17 -8.655877E-17 -8.655877E-17
         5   6  1.271493E-15  2.171704E-15 -1.475656E-15  5.295640E-16 -8.655878E-17 -8.655877E-17
         5   7  2.171704E-15  1.271493E-15 -1.475656E-15  5.295640E-16 -8.655878E-17 -8.655878E-17
         5   8  2.171704E-15  2.171704E-15 -1.722967E-15  9.796697E-16 -8.655878E-17 -8.655878E-17
         6   1  2.453073E-13 -8.154582E-13  2.442814E-13  8.371438E-16 -1.305269E-19  8.642547E-17
         6   2  2.453073E-13 -8.154596E-13  2.442817E-13  1.286563E-15 -1.303181E-19  8.642531E-17
         6   3  2.462061E-13 -8.154582E-13  2.440344E-13  8.364612E-16 -1.311517E-19  8.642738E-17
         6   4  2.462061E-13 -8.154596E-13  2.440348E-13  1.285880E-15 -1.311037E-19  8.642680E-17
         6   5  2.453073E-13 -8.154582E-13  2.442814E-13  8.371431E-16  1.306790E-19 -8.642797E-17
         6   6  2.453073E-13 -8.154596E-13  2.442817E-13  1.286562E-15  1.308754E-19 -8.642699E-17
         6   7  2.462061E-13 -8.154582E-13  2.440344E-13  8.364604E-16  1.307668E-19 -8.642522E-17
         6   8  2.462061E-13 -8.154596E-13  2.440348E-13  1.285879E-15  1.308147E-19 -8.642488E-17
         7   1 -8.141893E-13  2.445240E-13  2.442805E-13  4.459271E-16  1.561639E-22 -1.728221E-16
         7   2 -8.141893E-13  2.445240E-13  2.442805E-13 -4.527479E-16 -2.631756E-23 -1.728221E-16
         7   3 -8.159866E-13  2.445240E-13  2.447743E-13  4.459244E-16  1.557078E-22 -1.728221E-16
         7   4 -8.159866E-13  2.445240E-13  2.447743E-13 -4.527507E-16 -2.748689E-23 -1.728221E-16
         7   5 -8.141893E-13  2.445240E-13  2.442805E-13  4.459271E-16  7.652932E-22  1.728221E-16
         7   6 -8.141893E-13  2.445240E-13  2.442805E-13 -4.527479E-16  5.828117E-22  1.728221E-16
         7   7 -8.159867E-13  2.445240E-13  2.447743E-13  4.459244E-16  7.643039E-22  1.728222E-16
         7   8 -8.159867E-13  2.445240E-13  2.447743E-13 -4.527507E-16  5.811093E-22  1.728222E-16
         8   1 -8.154582E-13  2.453073E-13  2.442814E-13  8.371460E-16  8.642641E-17 -1.310586E-19
         8   2 -8.154582E-13  2.462061E-13  2.440344E-13  8.364630E-16  8.642599E-17 -1.307821E-19
         8   3 -8.154596E-13  2.453073E-13  2.442817E-13  1.286564E-15  8.642493E-17 -1.310851E-19
         8   4 -8.154596E-13  2.462061E-13  2.440348E-13  1.285882E-15  8.642810E-17 -1.309054E-19
         8   5 -8.154582E-13  2.453073E-13  2.442814E-13  8.371413E-16 -8.642721E-17  1.308684E-19
         8   6 -8.154582E-13  2.462061E-13  2.440344E-13  8.364624E-16 -8.642616E-17  1.311547E-19
         8   7 -8.154596E-13  2.453073E-13  2.442817E-13  1.286560E-15 -8.642658E-17  1.308436E-19
         8   8 -8.154596E-13  2.462061E-13  2.440348E-13  1.285881E-15 -8.642658E-17  1.310182E-19
         9   1  6.386642E-44  4.499500E-44 -5.921309E-23  5.360662E-44 -1.449248E-21 -1.420541E-21
         9   2  6.386642E-44  3.388132E-21 -7.566614E-22  1.694066E-21  2.785917E-21  3.285306E-21
         9   3  1.705090E-43  4.499500E-44 -6.446200E-22 -8.759024E-44 -3.096148E-21 -3.538123E-21
         9   4  1.705090E-43  8.470329E-22  4.949718E-22  4.235165E-22 -2.672632E-21 -2.643925E-21
         9   5  8.895445E-43  6.266995E-43 -5.921309E-23  7.466439E-43  1.027153E-21  1.134289E-21
         9   6  8.895445E-43 -1.694066E-21 -7.566614E-22 -8.470329E-22  1.027153E-21  2.890900E-21
         9   7  2.374883E-42  6.266995E-43 -6.446200E-22 -1.219975E-42 -6.043679E-22 -2.253842E-21
         9   8  2.374883E-42  1.694066E-21  4.949718E-22  8.470329E-22 -1.451401E-21 -1.344265E-21

 displacements (vx,vy,vz) for set NALL and time  0.2000000E-02

         1  0.000000E+00  0.000000E+00  0.000000E+00
         2 -1.476027E-14  0.000000E+00  0.000000E+00
         3 -7.749140E-07  0.000000E+00  0.000000E+00
         4 -7.749155E-07  0.000000E+00  0.000000E+00
         5 -1.553133E-06  0.000000E+00  0.000000E+00
         6 -1.552889E-06  0.000000E+00  0.000000E+00
         7  0.000000E+00 -1.476027E-14  0.000000E+00
         8 -1.476027E-14 -1.476027E-14  0.000000E+00
         9 -7.749140E-07  4.941315E-12  0.000000E+00
        10 -7.749155E-07  4.941144E-12  0.000000E+00
        11 -1.553130E-06 -8.107101E-10  0.000000E+00
        12 -1.552886E-06 -8.169318E-10  0.000000E+00
        13  0.000000E+00 -7.749140E-07  0.000000E+00
        14  4.941315E-12 -7.749140E-07  0.000000E+00
        15  1.813556E-04  1.813556E-04  0.000000E+00
        16  1.813556E-04  1.813556E-04  0.000000E+00
        17  2.578720E-04 -2.984774E-02  0.000000E+00
        18  2.578722E-04 -2.996835E-02  0.000000E+00
        19  0.000000E+00 -7.749155E-07  0.000000E+00
        20  4.941144E-12 -7.749155E-07  0.000000E+00
        21  1.813556E-04  1.813556E-04  0.000000E+00
        22  1.813556E-04  1.813556E-04  0.000000E+00
        23  3.784811E-04 -2.984774E-02  0.000000E+00
        24  3.784813E-04 -2.996835E-02  0.000000E+00
        25  0.000000E+00 -1.553133E-06  0.000000E+00
        26 -8.107101E-10 -1.553130E-06  0.000000E+00
        27 -2.984774E-02  2.578720E-04  0.000000E+00
        28 -2.984774E-02  3.784811E-04  0.000000E+00
        29 -6.000000E-02 -6.000000E-02  0.000000E+00
        30 -6.000000E-02 -6.000000E-02  0.000000E+00
        31  0.000000E+00 -1.552889E-06  0.000000E+00
        32 -8.169318E-10 -1.552886E-06  0.000000E+00
        33 -2.996835E-02  2.578722E-04  0.000000E+00
        34 -2.996835E-02  3.784813E-04  0.000000E+00
        35 -6.000000E-02 -6.000000E-02  0.000000E+00
        36 -6.000000E-02 -6.000000E-02  0.000000E+00
        37  0.000000E+00  0.000000E+00  1.771232E-14
        38 -1.476027E-14  0.000000E+00  1.771232E-14
        39 -7.749140E-07  0.000000E+00 -2.063812E-12
        40 -7.749155E-07  0.000000E+00 -2.063746E-12
        41 -1.553135E-06  0.000000E+00  3.406141E-10
        42 -1.552891E-06  0.000000E+00  3.430071E-10
        43  0.000000E+00 -1.476027E-14  1.771232E-14
        44 -1.476027E-14 -1.476027E-14  1.771232E-14
        45 -7.749140E-07  4.941315E-12 -2.063812E-12
        46 -7.749155E-07  4.941144E-12 -2.063746E-12
        47 -1.553132E-06 -8.107101E-10  3.406141E-10
        48 -1.552888E-06 -8.169318E-10  3.430071E-10
        49  0.000000E+00 -7.749140E-07 -2.063812E-12
        50  4.941315E-12 -7.749140E-07 -2.063812E-12
        51  1.813556E-04  1.813556E-04 -2.948907E-12
        52  1.813556E-04  1.813556E-04 -4.149519E-12
        53  2.578720E-04 -2.984774E-02  3.413675E-10
        54  2.578722E-04 -2.996835E-02  3.413711E-10
        55  0.000000E+00 -7.749155E-07 -2.063746E-12
        56  4.941144E-12 -7.749155E-07 -2.063746E-12
        57  1.813556E-04  1.813556E-04 -4.149519E-12
        58  1.813556E-04  1.813556E-04 -5.350130E-12
        59  3.784811E-04 -2.984774E-02  3.401706E-10
        60  3.784813E-04 -2.996835E-02  3.401742E-10
        61  0.000000E+00 -1.553135E-06  3.406141E-10
        62 -8.107101E-10 -1.553132E-06  3.406141E-10
        63 -2.984774E-02  2.578720E-04  3.413674E-10
        64 -2.984774E-02  3.784811E-04  3.401706E-10
        65 -6.000000E-02 -6.000000E-02  8.801149E-19
        66 -6.000000E-02 -6.000000E-02 -2.422700E-18
        67  0.000000E+00 -1.552891E-06  3.430071E-10
        68 -8.169318E-10 -1.552888E-06  3.430071E-10
        69 -2.996835E-02  2.578722E-04  3.413711E-10
        70 -2.996835E-02  3.784813E-04  3.401742E-10
        71 -6.000000E-02 -6.000000E-02 -2.151014E-18
        72 -6.000000E-02 -6.000000E-02  2.261338E-18

 stresses (elem, integ.pnt.,sxx,syy,szz,sxy,sxz,syz) for set EALL and time  0.2000000E-02

         1   1 -8.856160E-12 -8.856160E-12 -8.085367E-23  7.047346E-23 -1.022635E-23 -1.023166E-23
         1   2 -8.856160E-12 -8.856160E-12  4.902741E-23  1.667453E-22 -3.235833E-23 -1.022951E-23
         1   3 -8.856160E-12 -8.856160E-12  4.905811E-23  1.667392E-22 -1.023023E-23 -3.238698E-23
         1   4 -8.856160E-12 -8.856160E-12  1.789465E-22  2.630110E-22 -3.237529E-23 -3.238163E-23
         1   5 -8.856160E-12 -8.856160E-12 -1.738566E-22  7.046843E-23 -1.603322E-23 -1.602954E-23
         1   6 -8.856160E-12 -8.856160E-12 -4.397063E-23  1.667216E-22 -3.816520E-23 -1.602509E-23
         1   7 -8.856160E-12 -8.856160E-12 -4.397224E-23  1.667385E-22 -1.603433E-23 -3.818486E-23
         1   8 -8.856160E-12 -8.856160E-12  8.592177E-23  2.629917E-22 -3.817951E-23 -3.817721E-23
         2   1 -8.866337E-12  2.072679E-09  4.298021E-15  2.688243E-14 -3.086810E-15  2.246346E-19
         2   2 -8.883741E-12  2.072629E-09 -4.299704E-15  2.689008E-14 -3.091476E-15  2.846077E-19
         2   3 -8.866314E-12  2.072679E-09  4.300296E-15  1.087603E-14 -3.086916E-15  4.509426E-18
         2   4 -8.883718E-12  2.072629E-09 -4.297483E-15  1.088366E-14 -3.091576E-15  4.754734E-18
         2   5 -8.866350E-12  2.072679E-09  4.297245E-15  2.688238E-14  3.077943E-15 -3.446444E-18
         2   6 -8.883755E-12  2.072629E-09 -4.300091E-15  2.689002E-14  3.073300E-15 -3.407956E-18
         2   7 -8.866328E-12  2.072679E-09  4.299548E-15  1.087624E-14  3.077791E-15  8.383477E-19
         2   8 -8.883732E-12  2.072629E-09 -4.297841E-15  1.088388E-14  3.073156E-15  1.062170E-18
         3   1  3.111900E-10 -3.409102E-07  1.562267E-10  2.856849E-10 -1.115878E-10  4.082834E-16
         3   2 -3.200779E-10 -3.427020E-07 -1.562191E-10  2.856776E-10 -1.115877E-10  4.082984E-16
         3   3  3.111662E-10 -3.409102E-07  1.562197E-10 -2.945715E-10 -1.115878E-10 -8.216415E-17
         3   4 -3.201017E-10 -3.427020E-07 -1.562260E-10 -2.945788E-10 -1.115877E-10 -8.213346E-17
         3   5  3.111898E-10 -3.409102E-07  1.562260E-10  2.856849E-10  1.115877E-10  2.014182E-15
         3   6 -3.200781E-10 -3.427020E-07 -1.562197E-10  2.856776E-10  1.115879E-10  2.014222E-15
         3   7  3.111660E-10 -3.409103E-07  1.562191E-10 -2.945715E-10  1.115877E-10  1.523734E-15
         3   8 -3.201019E-10 -3.427020E-07 -1.562267E-10 -2.945788E-10  1.115879E-10  1.523791E-15
         4   1  2.072679E-09 -8.866337E-12  4.297918E-15  2.688235E-14  2.696312E-19 -3.086833E-15
         4   2  2.072679E-09 -8.866314E-12  4.299991E-15  1.087624E-14  4.745954E-18 -3.086823E-15
         4   3  2.072629E-09 -8.883741E-12 -4.299561E-15  2.688997E-14  2.708377E-19 -3.091498E-15
         4   4  2.072629E-09 -8.883718E-12 -4.297470E-15  1.088386E-14  4.743787E-18 -3.091503E-15
         4   5  2.072679E-09 -8.866350E-12  4.297472E-15  2.688232E-14 -3.470045E-18  3.077864E-15
         4   6  2.072679E-09 -8.866328E-12  4.299585E-15  1.087621E-14  1.006278E-18  3.077850E-15
         4   7  2.072629E-09 -8.883754E-12 -4.300014E-15  2.688996E-14 -3.462169E-18  3.073158E-15
         4   8  2.072629E-09 -8.883732E-12 -4.297884E-15  1.088385E-14  1.010780E-18  3.073176E-15
         5   1  1.466899E-09  1.466899E-09 -1.567639E-10  5.035905E-11  5.598709E-11  5.598709E-11
         5   2  1.783626E-09  2.365892E-09  4.082261E-18  3.414919E-10  5.598708E-11  5.598708E-11
         5   3  2.365892E-09  1.783626E-09 -2.005752E-18  3.414919E-10  5.598708E-11  5.598708E-11
         5   4  2.682619E-09  2.682619E-09  1.567639E-10  6.326248E-10  5.598708E-11  5.598708E-11
         5   5  1.466899E-09  1.466899E-09 -1.567639E-10  5.035905E-11 -5.598709E-11 -5.598709E-11
         5   6  1.783626E-09  2.365892E-09  7.690042E-18  3.414919E-10 -5.598710E-11 -5.598709E-11
         5   7  2.365892E-09  1.783626E-09 -2.005751E-18  3.414919E-10 -5.598710E-11 -5.598710E-11
         5   8  2.682619E-09  2.682619E-09  1.567639E-10  6.326248E-10 -5.598709E-11 -5.598709E-11
         6   1  5.897669E-10 -3.419647E-07 -7.789838E-11  5.413084E-10 -1.706558E-13  5.581351E-11
         6   2  5.888002E-10 -3.419675E-07 -7.837773E-11  8.315368E-10 -1.706170E-13  5.581278E-11
         6   3  1.485967E-09 -3.416490E-07  7.837803E-11  5.404199E-10 -1.706455E-13  5.581304E-11
         6   4  1.485001E-09 -3.416517E-07  7.789962E-11  8.306483E-10 -1.707065E-13  5.581343E-11
         6   5  5.897658E-10 -3.419647E-07 -7.789954E-11  5.413076E-10  1.705972E-13 -5.581301E-11
         6   6  5.888018E-10 -3.419675E-07 -7.837623E-11  8.315360E-10  1.706333E-13 -5.581293E-11
         6   7  1.485965E-09 -3.416490E-07  7.837665E-11  5.404210E-10  1.707627E-13 -5.581349E-11
         6   8  1.485001E-09 -3.416517E-07  7.790055E-11  8.306494E-10  1.706889E-13 -5.581260E-11
         7   1 -3.409102E-07  3.111900E-10  1.562267E-10  2.856849E-10  4.083160E-16 -1.115878E-10
         7   2 -3.409102E-07  3.111662E-10  1.562197E-10 -2.945715E-10 -8.193419E-17 -1.115878E-10
         7   3 -3.427020E-07 -3.200779E-10 -1.562191E-10  2.856776E-10  4.083314E-16 -1.115877E-10
         7   4 -3.427020E-07 -3.201017E-10 -1.562260E-10 -2.945788E-10 -8.191158E-17 -1.115877E-10
         7   5 -3.409102E-07  3.111898E-10  1.562260E-10  2.856849E-10  2.014106E-15  1.115877E-10
         7   6 -3.409103E-07  3.111660E-10  1.562191E-10 -2.945715E-10  1.523856E-15  1.115877E-10
         7   7 -3.427020E-07 -3.200781E-10 -1.562197E-10  2.856776E-10  2.014157E-15  1.115879E-10
         7   8 -3.427020E-07 -3.201019E-10 -1.562267E-10 -2.945788E-10  1.523914E-15  1.115879E-10
         8   1 -3.419647E-07  5.897671E-10 -7.789848E-11  5.413087E-10  5.581285E-11 -1.707652E-13
         8   2 -3.416490E-07  1.485967E-09  7.837884E-11  5.404201E-10  5.581292E-11 -1.705705E-13
         8   3 -3.419675E-07  5.888001E-10 -7.837794E-11  8.315370E-10  5.581261E-11 -1.707448E-13
         8   4 -3.416517E-07  1.485000E-09  7.789912E-11  8.306486E-10  5.581315E-11 -1.705486E-13
         8   5 -3.419647E-07  5.897677E-10 -7.789801E-11  5.413080E-10 -5.581331E-11  1.706043E-13
         8   6 -3.416490E-07  1.485968E-09  7.837931E-11  5.404205E-10 -5.581338E-11  1.706906E-13
         8   7 -3.419675E-07  5.888017E-10 -7.837644E-11  8.315370E-10 -5.581305E-11  1.706267E-13
         8   8 -3.416517E-07  1.485002E-09  7.790062E-11  8.306490E-10 -5.581353E-11  1.707125E-13
         9   1 -1.970643E-17 -1.970643E-17 -4.598166E-17  4.739295E-36 -4.675764E-16 -4.583018E-16
         9   2  6.341469E-16  1.728774E-15  3.850489E-16  5.473136E-16  9.007076E-16  1.062041E-15
         9   3 -1.596750E-16 -1.596750E-16 -3.725750E-16  2.897469E-35 -9.996597E-16 -1.142444E-15
         9   4  3.235562E-16  5.972130E-16  4.813078E-16  1.368284E-16 -8.628313E-16 -8.535567E-16
         9   5 -1.970643E-17 -1.970643E-17 -4.598166E-17  5.235190E-36  3.342465E-16  3.688597E-16
         9   6 -5.973087E-16 -1.144622E-15 -8.464067E-16 -2.736568E-16  3.342465E-16  9.363503E-16
         9   7 -1.596750E-16 -1.596750E-16 -3.725750E-16  5.441992E-36 -1.928900E-16 -7.257675E-16
         9   8  5.287988E-16  1.076112E-15  6.865504E-16  2.736568E-16 -4.665468E-16 -4.319337E-16

 strains (elem, integ.pnt.,exx,eyy,ezz,exy,exz,eyz) forset EALL and time  0.2000000E-02

         1   1 -2.952053E-17 -2.952053E-17  2.530331E-17  4.362643E-28 -6.330599E-29 -6.333883E-29
         1   2 -2.952053E-17 -2.952053E-17  2.530331E-17  1.032233E-27 -2.003135E-28 -6.332554E-29
         1   3 -2.952053E-17 -2.952053E-17  2.530331E-17  1.032195E-27 -6.332997E-29 -2.004908E-28
         1   4 -2.952053E-17 -2.952053E-17  2.530331E-17  1.628163E-27 -2.004184E-28 -2.004577E-28
         1   5 -2.952053E-17 -2.952053E-17  2.530331E-17  4.362331E-28 -9.925328E-29 -9.923046E-29
         1   6 -2.952053E-17 -2.952053E-17  2.530331E-17  1.032086E-27 -2.362608E-28 -9.920292E-29
         1   7 -2.952053E-17 -2.952053E-17  2.530331E-17  1.032191E-27 -9.926012E-29 -2.363825E-28
         1   8 -2.952053E-17 -2.952053E-17  2.530331E-17  1.628044E-27 -2.363494E-28 -2.363351E-28
         2   1 -3.003196E-15  9.882558E-15 -2.948283E-15  1.664151E-19 -1.910882E-20  1.390595E-24
         2   2 -3.003196E-15  9.882360E-15 -2.948228E-15  1.664624E-19 -1.913771E-20  1.761857E-24
         2   3 -3.003196E-15  9.882558E-15 -2.948283E-15  6.732779E-20 -1.910948E-20  2.791549E-23
         2   4 -3.003196E-15  9.882360E-15 -2.948228E-15  6.737506E-20 -1.913833E-20  2.943407E-23
         2   5 -3.003196E-15  9.882558E-15 -2.948283E-15  1.664147E-19  1.905393E-20 -2.133513E-23
         2   6 -3.003196E-15  9.882360E-15 -2.948228E-15  1.664621E-19  1.902519E-20 -2.109687E-23
         2   7 -3.003196E-15  9.882558E-15 -2.948283E-15  6.732908E-20  1.905299E-20  5.189771E-24
         2   8 -3.003196E-15  9.882360E-15 -2.948228E-15  6.737641E-20  1.902430E-20  6.575340E-24
         3   1  4.882733E-13 -1.624050E-12  4.873140E-13  1.768525E-15 -6.907819E-16  2.527469E-21
         3   2  4.882733E-13 -1.631234E-12  4.892877E-13  1.768480E-15 -6.907807E-16  2.527562E-21
         3   3  4.882732E-13 -1.624050E-12  4.873140E-13 -1.823538E-15 -6.907818E-16 -5.086352E-22
         3   4  4.882732E-13 -1.631234E-12  4.892877E-13 -1.823583E-15 -6.907807E-16 -5.084452E-22
         3   5  4.882733E-13 -1.624050E-12  4.873140E-13  1.768525E-15  6.907808E-16  1.246875E-20
         3   6  4.882733E-13 -1.631234E-12  4.892877E-13  1.768480E-15  6.907819E-16  1.246900E-20
         3   7  4.882732E-13 -1.624050E-12  4.873140E-13 -1.823538E-15  6.907808E-16  9.432641E-21
         3   8  4.882732E-13 -1.631234E-12  4.892877E-13 -1.823583E-15  6.907819E-16  9.432989E-21
         4   1  9.882558E-15 -3.003196E-15 -2.948283E-15  1.664145E-19  1.669146E-24 -1.910897E-20
         4   2  9.882558E-15 -3.003196E-15 -2.948283E-15  6.732912E-20  2.937971E-23 -1.910890E-20
         4   3  9.882360E-15 -3.003196E-15 -2.948228E-15  1.664617E-19  1.676614E-24 -1.913784E-20
         4   4  9.882360E-15 -3.003196E-15 -2.948228E-15  6.737628E-20  2.936630E-23 -1.913788E-20
         4   5  9.882558E-15 -3.003196E-15 -2.948283E-15  1.664144E-19 -2.148123E-23  1.905344E-20
         4   6  9.882558E-15 -3.003196E-15 -2.948283E-15  6.732894E-20  6.229337E-24  1.905336E-20
         4   7  9.882360E-15 -3.003196E-15 -2.948228E-15  1.664617E-19 -2.143247E-23  1.902431E-20
         4   8  9.882360E-15 -3.003196E-15 -2.948228E-15  6.737621E-20  6.257211E-24  1.902442E-20
         5   1  5.113613E-15  5.113613E-15 -4.937636E-15  3.117465E-16  3.465867E-16  3.465867E-16
         5   2  5.113613E-15  8.718116E-15 -5.927884E-15  2.113998E-15  3.465867E-16  3.465867E-16
         5   3  8.718116E-15  5.113613E-15 -5.927884E-15  2.113998E-15  3.465867E-16  3.465867E-16
         5   4  8.718116E-15  8.718116E-15 -6.918132E-15  3.916249E-15  3.465867E-16  3.465867E-16
         5   5  5.113613E-15  5.113613E-15 -4.937636E-15  3.117465E-16 -3.465868E-16 -3.465868E-16
         5   6  5.113613E-15  8.718116E-15 -5.927884E-15  2.113998E-15 -3.465868E-16 -3.465868E-16
         5   7  8.718116E-15  5.113613E-15 -5.927884E-15  2.113998E-15 -3.465868E-16 -3.465868E-16
         5   8  8.718116E-15  8.718116E-15 -6.918132E-15  3.916249E-15 -3.465868E-16 -3.465868E-16
         6   1  4.914407E-13 -1.629135E-12  4.873076E-13  3.351468E-15 -1.056524E-18  3.455122E-16
         6   2  4.914407E-13 -1.629146E-12  4.873106E-13  5.148121E-15 -1.056284E-18  3.455077E-16
         6   3  4.950340E-13 -1.629135E-12  4.863204E-13  3.345969E-15 -1.056460E-18  3.455093E-16
         6   4  4.950340E-13 -1.629146E-12  4.863234E-13  5.142621E-15 -1.056838E-18  3.455117E-16
         6   5  4.914407E-13 -1.629135E-12  4.873076E-13  3.351464E-15  1.056161E-18 -3.455091E-16
         6   6  4.914407E-13 -1.629146E-12  4.873106E-13  5.148115E-15  1.056385E-18 -3.455086E-16
         6   7  4.950340E-13 -1.629135E-12  4.863204E-13  3.345976E-15  1.057186E-18 -3.455121E-16
         6   8  4.950340E-13 -1.629146E-12  4.863234E-13  5.142628E-15  1.056729E-18 -3.455066E-16
         7   1 -1.624050E-12  4.882733E-13  4.873140E-13  1.768525E-15  2.527670E-21 -6.907819E-16
         7   2 -1.624050E-12  4.882732E-13  4.873140E-13 -1.823538E-15 -5.072117E-22 -6.907819E-16
         7   3 -1.631234E-12  4.882733E-13  4.892877E-13  1.768480E-15  2.527766E-21 -6.907807E-16
         7   4 -1.631234E-12  4.882732E-13  4.892877E-13 -1.823583E-15 -5.070717E-22 -6.907807E-16
         7   5 -1.624050E-12  4.882733E-13  4.873140E-13  1.768525E-15  1.246828E-20  6.907808E-16
         7   6 -1.624050E-12  4.882732E-13  4.873140E-13 -1.823538E-15  9.433395E-21  6.907808E-16
         7   7 -1.631234E-12  4.882733E-13  4.892877E-13  1.768480E-15  1.246859E-20  6.907819E-16
         7   8 -1.631234E-12  4.882732E-13  4.892877E-13 -1.823583E-15  9.433750E-21  6.907819E-16
         8   1 -1.629135E-12  4.914407E-13  4.873076E-13  3.351470E-15  3.455081E-16 -1.057201E-18
         8   2 -1.629135E-12  4.950340E-13  4.863204E-13  3.345970E-15  3.455085E-16 -1.055996E-18
         8   3 -1.629146E-12  4.914407E-13  4.873106E-13  5.148122E-15  3.455066E-16 -1.057075E-18
         8   4 -1.629146E-12  4.950340E-13  4.863234E-13  5.142623E-15  3.455100E-16 -1.055860E-18
         8   5 -1.629135E-12  4.914407E-13  4.873076E-13  3.351466E-15 -3.455110E-16  1.056205E-18
         8   6 -1.629135E-12  4.950340E-13  4.863204E-13  3.345973E-15 -3.455114E-16  1.056739E-18
         8   7 -1.629146E-12  4.914407E-13  4.873106E-13  5.148121E-15 -3.455093E-16  1.056344E-18
         8   8 -1.629146E-12  4.950340E-13  4.863234E-13  5.142625E-15 -3.455123E-16  1.056875E-18
         9   1  2.498134E-43  1.752408E-43 -1.626562E-22  2.092307E-43 -2.894520E-21 -2.837106E-21
         9   2  2.498134E-43  6.776264E-21 -1.542035E-21  3.388132E-21  5.575809E-21  6.574539E-21
         9   3  6.912390E-43  1.752408E-43 -1.317952E-21 -3.480421E-43 -6.188369E-21 -7.072271E-21
         9   4  6.912390E-43  1.694066E-21  9.765570E-22  8.470329E-22 -5.341337E-21 -5.283923E-21
         9   5  3.479452E-42  2.440789E-42 -1.626562E-22  2.914208E-42  2.069145E-21  2.283417E-21
         9   6  3.479452E-42 -3.388132E-21 -1.542035E-21 -1.694066E-21  2.069145E-21  5.796454E-21
         9   7  9.627717E-42  2.440789E-42 -1.317952E-21 -4.847600E-42 -1.194081E-21 -4.492847E-21
         9   8  9.627717E-42  3.388132E-21  9.765570E-22  1.694066E-21 -2.888147E-21 -2.673875E-21

 displacements (vx,vy,vz) for set NALL and time  0.3500000E-02

         1  0.000000E+00  0.000000E+00  0.000000E+00
         2 -7.986809E-14  0.000000E+00  0.000000E+00
         3 -4.193075E-06  0.000000E+00  0.000000E+00
         4 -4.193079E-06  0.000000E+00  0.000000E+00
         5 -8.417586E-06  0.000000E+00  0.000000E+00
         6 -8.417160E-06  0.000000E+00  0.000000E+00
         7  0.000000E+00 -7.986809E-14  0.000000E+00
         8 -7.986809E-14 -7.986809E-14  0.000000E+00
         9 -4.193075E-06  1.523387E-11  0.000000E+00
        10 -4.193079E-06  1.523224E-11  0.000000E+00
        11 -8.417576E-06 -1.411249E-09  0.000000E+00
        12 -8.417150E-06 -1.430280E-09  0.000000E+00
        13  0.000000E+00 -4.193075E-06  0.000000E+00
        14  1.523387E-11 -4.193075E-06  0.000000E+00
        15  5.585364E-04  5.585364E-04  0.000000E+00
        16  5.585364E-04  5.585364E-04  0.000000E+00
        17  7.964369E-04 -5.202840E-02  0.000000E+00
        18  7.964372E-04 -5.239916E-02  0.000000E+00
        19  0.000000E+00 -4.193079E-06  0.000000E+00
        20  1.523224E-11 -4.193079E-06  0.000000E+00
        21  5.585364E-04  5.585364E-04  0.000000E+00
        22  5.585364E-04  5.585364E-04  0.000000E+00
        23  1.167199E-03 -5.202840E-02  0.000000E+00
        24  1.167200E-03 -5.239916E-02  0.000000E+00
        25  0.000000E+00 -8.417586E-06  0.000000E+00
        26 -1.411249E-09 -8.417576E-06  0.000000E+00
        27 -5.202840E-02  7.964369E-04  0.000000E+00
        28 -5.202840E-02  1.167199E-03  0.000000E+00
        29 -1.050000E-01 -1.050000E-01  0.000000E+00
        30 -1.050000E-01 -1.050000E-01  0.000000E+00
        31  0.000000E+00 -8.417160E-06  0.000000E+00
        32 -1.430280E-09 -8.417150E-06  0.000000E+00
        33 -5.239916E-02  7.964372E-04  0.000000E+00
        34 -5.239916E-02  1.167200E-03  0.000000E+00
        35 -1.050000E-01 -1.050000E-01  0.000000E+00
        36 -1.050000E-01 -1.050000E-01  0.000000E+00
        37  0.000000E+00  0.000000E+00  9.584171E-14
        38 -7.986809E-14  0.000000E+00  9.584171E-14
        39 -4.193075E-06  0.000000E+00 -6.335667E-12
        40 -4.193079E-06  0.000000E+00 -6.335039E-12
        41 -8.417591E-06  0.000000E+00  5.930929E-10
        42 -8.417165E-06  0.000000E+00  6.004124E-10
        43  0.000000E+00 -7.986809E-14  9.584171E-14
        44 -7.986809E-14 -7.986809E-14  9.584171E-14
        45 -4.193075E-06  1.523387E-11 -6.335667E-12
        46 -4.193079E-06  1.523224E-11 -6.335039E-12
        47 -8.417582E-06 -1.411250E-09  5.930931E-10
        48 -8.417155E-06 -1.430280E-09  6.004126E-10
        49  0.000000E+00 -4.193075E-06 -6.335667E-12
        50  1.523387E-11 -4.193075E-06 -6.335667E-12
        51  5.585364E-04  5.585364E-04 -9.107512E-12
        52  5.585364E-04  5.585364E-04 -1.278987E-11
        53  7.964369E-04 -5.202840E-02  5.953633E-10
        54  7.964372E-04 -5.239916E-02  5.953832E-10
        55  0.000000E+00 -4.193079E-06 -6.335039E-12
        56  1.523224E-11 -4.193079E-06 -6.335039E-12
        57  5.585364E-04  5.585364E-04 -1.278987E-11
        58  5.585364E-04  5.585364E-04 -1.647223E-11
        59  1.167199E-03 -5.202840E-02  5.917015E-10
        60  1.167200E-03 -5.239916E-02  5.917213E-10
        61  0.000000E+00 -8.417591E-06  5.930929E-10
        62 -1.411250E-09 -8.417582E-06  5.930931E-10
        63 -5.202840E-02  7.964369E-04  5.953633E-10
        64 -5.202840E-02  1.167199E-03  5.917015E-10
        65 -1.050000E-01 -1.050000E-01 -3.931574E-18
        66 -1.050000E-01 -1.050000E-01  1.365720E-18
        67  0.000000E+00 -8.417165E-06  6.004124E-10
        68 -1.430280E-09 -8.417155E-06  6.004126E-10
        69 -5.239916E-02  7.964372E-04  5.953832E-10
        70 -5.239916E-02  1.167200E-03  5.917213E-10
        71 -1.050000E-01 -1.050000E-01  6.120224E-18
        72 -1.050000E-01 -1.050000E-01 -2.013761E-18

 stresses (elem, integ.pnt.,sxx,syy,szz,sxy,sxz,syz) for set EALL and time  0.3500000E-02

         1   1 -4.792085E-11 -4.792085E-11 -2.652212E-22  2.484519E-22 -3.417880E-23 -3.419367E-23
         1   2 -4.792085E-11 -4.792085E-11  2.173417E-22  5.875495E-22 -1.167738E-22 -3.419653E-23
         1   3 -4.792085E-11 -4.792085E-11  2.171608E-22  5.881379E-22 -3.417774E-23 -1.171020E-22
         1   4 -4.792085E-11 -4.792085E-11  6.997496E-22  9.272355E-22 -1.167749E-22 -1.171210E-22
         1   5 -4.792085E-11 -4.792085E-11 -6.127728E-22  2.484424E-22 -4.496206E-23 -4.470328E-23
         1   6 -4.792085E-11 -4.792085E-11 -1.302422E-22  5.875351E-22 -1.275571E-22 -4.469880E-23
         1   7 -4.792085E-11 -4.792085E-11 -1.304167E-22  5.881070E-22 -4.495341E-23 -1.276126E-22
         1   8 -4.792085E-11 -4.792085E-11  3.521463E-22  9.271997E-22 -1.275518E-22 -1.276233E-22
         2   1 -4.801767E-11  6.383689E-09  4.095001E-14  2.557270E-13 -2.930075E-14  8.322815E-19
         2   2 -4.818326E-11  6.383219E-09 -4.095536E-14  2.557502E-13 -2.931486E-14  8.284986E-19
         2   3 -4.801760E-11  6.383689E-09  4.095646E-14  1.034989E-13 -2.930072E-14  1.445647E-17
         2   4 -4.818319E-11  6.383219E-09 -4.094898E-14  1.035221E-13 -2.931489E-14  1.447117E-17
         2   5 -4.801771E-11  6.383689E-09  4.094901E-14  2.557270E-13  2.927399E-14 -1.051807E-17
         2   6 -4.818330E-11  6.383219E-09 -4.095632E-14  2.557502E-13  2.925986E-14 -1.055067E-17
         2   7 -4.801765E-11  6.383689E-09  4.095544E-14  1.034989E-13  2.927391E-14  3.106117E-18
         2   8 -4.818323E-11  6.383219E-09 -4.094997E-14  1.035221E-13  2.925983E-14  3.091999E-18
         3   1  9.413474E-10 -5.939881E-07  4.778896E-10  8.633367E-10 -3.413246E-10  3.909865E-15
         3   2 -9.895700E-10 -5.994688E-07 -4.778170E-10  8.632668E-10 -3.413229E-10  3.909948E-15
         3   3  9.411190E-10 -5.939882E-07  4.778232E-10 -9.115469E-10 -3.413246E-10 -8.161056E-16
         3   4 -9.897984E-10 -5.994689E-07 -4.778834E-10 -9.116168E-10 -3.413229E-10 -8.159571E-16
         3   5  9.413460E-10 -5.939881E-07  4.778834E-10  8.633367E-10  3.413229E-10  1.931779E-14
         3   6 -9.895713E-10 -5.994688E-07 -4.778232E-10  8.632668E-10  3.413247E-10  1.931803E-14
         3   7  9.411177E-10 -5.939882E-07  4.778170E-10 -9.115469E-10  3.413229E-10  1.459182E-14
         3   8 -9.897997E-10 -5.994689E-07 -4.778896E-10 -9.116168E-10  3.413247E-10  1.459212E-14
         4   1  6.383689E-09 -4.801767E-11  4.095017E-14  2.557270E-13  7.854031E-19 -2.930074E-14
         4   2  6.383689E-09 -4.801760E-11  4.095664E-14  1.034987E-13  1.422300E-17 -2.930086E-14
         4   3  6.383219E-09 -4.818326E-11 -4.095538E-14  2.557503E-13  8.399471E-19 -2.931486E-14
         4   4  6.383219E-09 -4.818319E-11 -4.094903E-14  1.035219E-13  1.447846E-17 -2.931488E-14
         4   5  6.383689E-09 -4.801771E-11  4.094887E-14  2.557271E-13 -1.050643E-17  2.927398E-14
         4   6  6.383689E-09 -4.801765E-11  4.095524E-14  1.034991E-13  2.931164E-18  2.927397E-14
         4   7  6.383219E-09 -4.818330E-11 -4.095625E-14  2.557502E-13 -1.050379E-17  2.925987E-14
         4   8  6.383219E-09 -4.818323E-11 -4.095001E-14  1.035221E-13  3.134725E-18  2.925975E-14
         5   1  4.530587E-09  4.530587E-09 -4.808060E-10  1.496731E-10  1.717164E-10  1.717164E-10
         5   2  5.502011E-09  7.287862E-09  8.339688E-18  1.042598E-09  1.717164E-10  1.717164E-10
         5   3  7.287862E-09  5.502011E-09 -1.611801E-18  1.042598E-09  1.717164E-10  1.717164E-10
         5   4  8.259286E-09  8.259286E-09  4.808060E-10  1.935524E-09  1.717163E-10  1.717164E-10
         5   5  4.530587E-09  4.530587E-09 -4.808060E-10  1.496731E-10 -1.717164E-10 -1.717164E-10
         5   6  5.502011E-09  7.287862E-09 -6.091423E-18  1.042598E-09 -1.717164E-10 -1.717164E-10
         5   7  7.287862E-09  5.502011E-09 -4.330169E-17  1.042598E-09 -1.717164E-10 -1.717164E-10
         5   8  8.259286E-09  8.259286E-09  4.808060E-10  1.935524E-09 -1.717164E-10 -1.717164E-10
         6   1  1.829181E-09 -5.972154E-07 -2.377636E-10  1.659645E-09 -9.270907E-13  1.707569E-10
         6   2  1.823937E-09 -5.972303E-07 -2.403594E-10  2.547587E-09 -9.271163E-13  1.707578E-10
         6   3  4.571068E-09 -5.962494E-07  2.403586E-10  1.654822E-09 -9.273365E-13  1.707575E-10
         6   4  4.565824E-09 -5.962643E-07  2.377631E-10  2.542764E-09 -9.272425E-13  1.707589E-10
         6   5  1.829182E-09 -5.972154E-07 -2.377629E-10  1.659646E-09  9.272408E-13 -1.707578E-10
         6   6  1.823938E-09 -5.972303E-07 -2.403586E-10  2.547589E-09  9.272055E-13 -1.707582E-10
         6   7  4.571069E-09 -5.962494E-07  2.403596E-10  1.654823E-09  9.271848E-13 -1.707589E-10
         6   8  4.565826E-09 -5.962643E-07  2.377651E-10  2.542765E-09  9.272490E-13 -1.707573E-10
         7   1 -5.939881E-07  9.413474E-10  4.778896E-10  8.633367E-10  3.909913E-15 -3.413246E-10
         7   2 -5.939882E-07  9.411190E-10  4.778232E-10 -9.115469E-10 -8.158535E-16 -3.413246E-10
         7   3 -5.994688E-07 -9.895700E-10 -4.778170E-10  8.632668E-10  3.909930E-15 -3.413229E-10
         7   4 -5.994689E-07 -9.897984E-10 -4.778834E-10 -9.116168E-10 -8.159735E-16 -3.413229E-10
         7   5 -5.939881E-07  9.413460E-10  4.778834E-10  8.633367E-10  1.931776E-14  3.413229E-10
         7   6 -5.939882E-07  9.411177E-10  4.778170E-10 -9.115469E-10  1.459200E-14  3.413229E-10
         7   7 -5.994688E-07 -9.895713E-10 -4.778232E-10  8.632668E-10  1.931796E-14  3.413247E-10
         7   8 -5.994689E-07 -9.897997E-10 -4.778896E-10 -9.116168E-10  1.459206E-14  3.413247E-10
         8   1 -5.972154E-07  1.829181E-09 -2.377636E-10  1.659646E-09  1.707576E-10 -9.272405E-13
         8   2 -5.962494E-07  4.571068E-09  2.403591E-10  1.654823E-09  1.707596E-10 -9.271360E-13
         8   3 -5.972303E-07  1.823934E-09 -2.403622E-10  2.547588E-09  1.707575E-10 -9.271892E-13
         8   4 -5.962643E-07  4.565822E-09  2.377602E-10  2.542766E-09  1.707586E-10 -9.271264E-13
         8   5 -5.972154E-07  1.829182E-09 -2.377633E-10  1.659646E-09 -1.707585E-10  9.271736E-13
         8   6 -5.962494E-07  4.571069E-09  2.403594E-10  1.654822E-09 -1.707570E-10  9.271229E-13
         8   7 -5.972303E-07  1.823939E-09 -2.403580E-10  2.547588E-09 -1.707582E-10  9.272100E-13
         8   8 -5.962643E-07  4.565826E-09  2.377644E-10  2.542765E-09 -1.707570E-10  9.271624E-13
         9   1 -1.043850E-15 -2.138477E-15 -1.341022E-15 -5.473136E-16  9.049112E-16  1.067216E-15
         9   2 -1.824105E-16 -4.560673E-16 -1.519678E-16 -1.368284E-16  1.315396E-15  1.212983E-15
         9   3 -3.230397E-16 -1.417667E-15  3.408679E-16 -5.473136E-16 -1.807771E-16  2.462457E-16
         9   4  1.815944E-15  4.278855E-15  1.774291E-15  1.231456E-15  9.138501E-16  1.076155E-15
         9   5 -2.228791E-16 -2.228791E-16 -5.200513E-16  1.161925E-34 -2.149640E-15 -1.543910E-15
         9   6  3.306714E-15  7.685222E-15  3.337156E-15  2.189254E-15  9.974132E-16  6.152029E-16
         9   7 -2.785951E-15 -7.164460E-15 -2.122043E-15 -2.189254E-15 -6.746695E-16  9.190015E-16
         9   8 -1.673180E-15 -3.862435E-15 -1.714833E-15 -1.094627E-15 -6.746695E-16 -6.893914E-17

 strains (elem, integ.pnt.,exx,eyy,ezz,exy,exz,eyz) forset EALL and time  0.3500000E-02

         1   1 -1.597362E-16 -1.597362E-16  1.369167E-16  1.538035E-27 -2.115830E-28 -2.116751E-28
         1   2 -1.597362E-16 -1.597362E-16  1.369167E-16  3.637211E-27 -7.228855E-28 -2.116928E-28
         1   3 -1.597362E-16 -1.597362E-16  1.369167E-16  3.640853E-27 -2.115765E-28 -7.249169E-28
         1   4 -1.597362E-16 -1.597362E-16  1.369167E-16  5.740029E-27 -7.228924E-28 -7.250348E-28
         1   5 -1.597362E-16 -1.597362E-16  1.369167E-16  1.537977E-27 -2.783366E-28 -2.767346E-28
         1   6 -1.597362E-16 -1.597362E-16  1.369167E-16  3.637122E-27 -7.896390E-28 -2.767068E-28
         1   7 -1.597362E-16 -1.597362E-16  1.369167E-16  3.640662E-27 -2.782830E-28 -7.899826E-28
         1   8 -1.597362E-16 -1.597362E-16  1.369167E-16  5.739807E-27 -7.896066E-28 -7.900488E-28
         2   1 -9.348269E-15  3.046706E-14 -9.050764E-15  1.583072E-18 -1.813856E-19  5.152219E-24
         2   2 -9.348269E-15  3.046517E-14 -9.050246E-15  1.583215E-18 -1.814730E-19  5.128801E-24
         2   3 -9.348269E-15  3.046706E-14 -9.050764E-15  6.407074E-19 -1.813854E-19  8.949241E-23
         2   4 -9.348269E-15  3.046517E-14 -9.050246E-15  6.408509E-19 -1.814731E-19  8.958345E-23
         2   5 -9.348270E-15  3.046706E-14 -9.050764E-15  1.583072E-18  1.812199E-19 -6.511185E-23
         2   6 -9.348270E-15  3.046517E-14 -9.050246E-15  1.583216E-18  1.811324E-19 -6.531370E-23
         2   7 -9.348269E-15  3.046706E-14 -9.050764E-15  6.407074E-19  1.812195E-19  1.922834E-23
         2   8 -9.348269E-15  3.046517E-14 -9.050246E-15  6.408514E-19  1.811323E-19  1.914095E-23
         3   1  8.523544E-13 -2.830542E-12  8.494853E-13  5.344466E-15 -2.112962E-15  2.420393E-20
         3   2  8.523544E-13 -2.852517E-12  8.555223E-13  5.344032E-15 -2.112951E-15  2.420444E-20
         3   3  8.523535E-13 -2.830542E-12  8.494855E-13 -5.642909E-15 -2.112962E-15 -5.052082E-21
         3   4  8.523535E-13 -2.852517E-12  8.555225E-13 -5.643342E-15 -2.112951E-15 -5.051163E-21
         3   5  8.523544E-13 -2.830542E-12  8.494853E-13  5.344466E-15  2.112951E-15  1.195863E-19
         3   6  8.523544E-13 -2.852517E-12  8.555223E-13  5.344032E-15  2.112962E-15  1.195878E-19
         3   7  8.523535E-13 -2.830542E-12  8.494855E-13 -5.642909E-15  2.112951E-15  9.033029E-20
         3   8  8.523535E-13 -2.852517E-12  8.555225E-13 -5.643342E-15  2.112962E-15  9.033219E-20
         4   1  3.046706E-14 -9.348269E-15 -9.050764E-15  1.583072E-18  4.862019E-24 -1.813856E-19
         4   2  3.046706E-14 -9.348269E-15 -9.050764E-15  6.407062E-19  8.804715E-23 -1.813863E-19
         4   3  3.046517E-14 -9.348269E-15 -9.050246E-15  1.583216E-18  5.199673E-24 -1.814729E-19
         4   4  3.046517E-14 -9.348269E-15 -9.050246E-15  6.408500E-19  8.962859E-23 -1.814730E-19
         4   5  3.046706E-14 -9.348270E-15 -9.050764E-15  1.583073E-18 -6.503983E-23  1.812199E-19
         4   6  3.046706E-14 -9.348269E-15 -9.050764E-15  6.407084E-19  1.814530E-23  1.812198E-19
         4   7  3.046517E-14 -9.348270E-15 -9.050246E-15  1.583216E-18 -6.502347E-23  1.811325E-19
         4   8  3.046517E-14 -9.348269E-15 -9.050246E-15  6.408513E-19  1.940544E-23  1.811318E-19
         5   1  1.578882E-14  1.578882E-14 -1.523409E-14  9.265478E-16  1.063006E-15  1.063006E-15
         5   2  1.578882E-14  2.684409E-14 -1.827125E-14  6.454180E-15  1.063006E-15  1.063006E-15
         5   3  2.684409E-14  1.578882E-14 -1.827125E-14  6.454180E-15  1.063006E-15  1.063006E-15
         5   4  2.684409E-14  2.684409E-14 -2.130841E-14  1.198181E-14  1.063006E-15  1.063006E-15
         5   5  1.578882E-14  1.578882E-14 -1.523409E-14  9.265477E-16 -1.063006E-15 -1.063006E-15
         5   6  1.578882E-14  2.684409E-14 -1.827125E-14  6.454180E-15 -1.063006E-15 -1.063006E-15
         5   7  2.684409E-14  1.578882E-14 -1.827125E-14  6.454180E-15 -1.063006E-15 -1.063006E-15
         5   8  2.684409E-14  2.684409E-14 -2.130841E-14  1.198181E-14 -1.063006E-15 -1.063006E-15
         6   1  8.622149E-13 -2.846156E-12  8.494195E-13  1.027674E-14 -5.739917E-18  1.057067E-15
         6   2  8.622149E-13 -2.846216E-12  8.494359E-13  1.577353E-14 -5.740075E-18  1.057072E-15
         6   3  8.732084E-13 -2.846156E-12  8.463993E-13  1.024689E-14 -5.741439E-18  1.057070E-15
         6   4  8.732084E-13 -2.846216E-12  8.464157E-13  1.574368E-14 -5.740856E-18  1.057079E-15
         6   5  8.622148E-13 -2.846156E-12  8.494195E-13  1.027675E-14  5.740846E-18 -1.057072E-15
         6   6  8.622148E-13 -2.846216E-12  8.494359E-13  1.577354E-14  5.740627E-18 -1.057075E-15
         6   7  8.732084E-13 -2.846156E-12  8.463993E-13  1.024690E-14  5.740499E-18 -1.057079E-15
         6   8  8.732084E-13 -2.846216E-12  8.464157E-13  1.574368E-14  5.740896E-18 -1.057069E-15
         7   1 -2.830542E-12  8.523544E-13  8.494853E-13  5.344466E-15  2.420423E-20 -2.112962E-15
         7   2 -2.830542E-12  8.523535E-13  8.494855E-13 -5.642909E-15 -5.050522E-21 -2.112962E-15
         7   3 -2.852517E-12  8.523544E-13  8.555223E-13  5.344032E-15  2.420433E-20 -2.112951E-15
         7   4 -2.852517E-12  8.523535E-13  8.555225E-13 -5.643342E-15 -5.051265E-21 -2.112951E-15
         7   5 -2.830542E-12  8.523544E-13  8.494853E-13  5.344466E-15  1.195861E-19  2.112951E-15
         7   6 -2.830542E-12  8.523535E-13  8.494855E-13 -5.642909E-15  9.033140E-20  2.112951E-15
         7   7 -2.852517E-12  8.523544E-13  8.555223E-13  5.344032E-15  1.195874E-19  2.112962E-15
         7   8 -2.852517E-12  8.523535E-13  8.555225E-13 -5.643342E-15  9.033178E-20  2.112962E-15
         8   1 -2.846156E-12  8.622149E-13  8.494195E-13  1.027675E-14  1.057071E-15 -5.740844E-18
         8   2 -2.846156E-12  8.732084E-13  8.463993E-13  1.024690E-14  1.057083E-15 -5.740197E-18
         8   3 -2.846216E-12  8.622149E-13  8.494359E-13  1.577353E-14  1.057070E-15 -5.740526E-18
         8   4 -2.846216E-12  8.732084E-13  8.464157E-13  1.574369E-14  1.057077E-15 -5.740138E-18
         8   5 -2.846156E-12  8.622149E-13  8.494195E-13  1.027675E-14 -1.057076E-15  5.740430E-18
         8   6 -2.846156E-12  8.732084E-13  8.463993E-13  1.024690E-14 -1.057067E-15  5.740116E-18
         8   7 -2.846216E-12  8.622149E-13  8.494359E-13  1.577353E-14 -1.057075E-15  5.740655E-18
         8   8 -2.846216E-12  8.732084E-13  8.464157E-13  1.574368E-14 -1.057067E-15  5.740361E-18
         9   1  5.400375E-43 -6.776264E-21 -1.839637E-21 -3.388132E-21  5.601831E-21  6.606576E-21
         9   2  5.400375E-43 -1.694066E-21  1.884552E-22 -8.470329E-22  8.142930E-21  7.508945E-21
         9   3  2.504754E-42 -6.776264E-21  4.109904E-21 -3.388132E-21 -1.119097E-21  1.524378E-21
         9   4  2.504754E-42  1.524659E-20 -2.578512E-22  7.623297E-21  5.657167E-21  6.661912E-21
         9   5  7.521752E-42  6.473074E-41 -1.839637E-21  2.206555E-41 -1.330730E-20 -9.557536E-21
         9   6  7.521752E-42  2.710505E-20  1.884552E-22  1.355253E-20  6.174463E-21  3.808399E-21
         9   7  3.488673E-41 -2.710505E-20  4.109904E-21 -1.355253E-20 -4.176525E-21  5.689057E-21
         9   8  3.488673E-41 -1.355253E-20 -2.578512E-22 -6.776264E-21 -4.176525E-21 -4.267661E-22

 displacements (vx,vy,vz) for set NALL and time  0.5750000E-02

         1  0.000000E+00  0.000000E+00  0.000000E+00
         2 -3.592240E-13  0.000000E+00  0.000000E+00
         3 -1.885926E-05  0.000000E+00  0.000000E+00
         4 -1.885927E-05  0.000000E+00  0.000000E+00
         5 -3.795250E-05  0.000000E+00  0.000000E+00
         6 -3.795181E-05  0.000000E+00  0.000000E+00
         7  0.000000E+00 -3.592240E-13  0.000000E+00
         8 -3.592240E-13 -3.592240E-13  0.000000E+00
         9 -1.885926E-05  4.153172E-11  0.000000E+00
        10 -1.885927E-05  4.151957E-11  0.000000E+00
        11 -3.795248E-05 -2.299686E-09  0.000000E+00
        12 -3.795178E-05 -2.350943E-09  0.000000E+00
        13  0.000000E+00 -1.885926E-05  0.000000E+00
        14  4.153172E-11 -1.885926E-05  0.000000E+00
        15  1.520256E-03  1.520256E-03  0.000000E+00
        16  1.520256E-03  1.520256E-03  0.000000E+00
        17  2.177172E-03 -8.495529E-02  0.000000E+00
        18  2.177172E-03 -8.596161E-02  0.000000E+00
        19  0.000000E+00 -1.885927E-05  0.000000E+00
        20  4.151957E-11 -1.885927E-05  0.000000E+00
        21  1.520256E-03  1.520256E-03  0.000000E+00
        22  1.520256E-03  1.520256E-03  0.000000E+00
        23  3.183496E-03 -8.495529E-02  0.000000E+00
        24  3.183495E-03 -8.596162E-02  0.000000E+00
        25  0.000000E+00 -3.795250E-05  0.000000E+00
        26 -2.299686E-09 -3.795248E-05  0.000000E+00
        27 -8.495529E-02  2.177172E-03  0.000000E+00
        28 -8.495529E-02  3.183496E-03  0.000000E+00
        29 -1.725000E-01 -1.725000E-01  0.000000E+00
        30 -1.725000E-01 -1.725000E-01  0.000000E+00
        31  0.000000E+00 -3.795181E-05  0.000000E+00
        32 -2.350943E-09 -3.795178E-05  0.000000E+00
        33 -8.596161E-02  2.177172E-03  0.000000E+00
        34 -8.596162E-02  3.183495E-03  0.000000E+00
        35 -1.725000E-01 -1.725000E-01  0.000000E+00
        36 -1.725000E-01 -1.725000E-01  0.000000E+00
        37  0.000000E+00  0.000000E+00  4.310688E-13
        38 -3.592240E-13  0.000000E+00  4.310688E-13
        39 -1.885926E-05  0.000000E+00 -1.716117E-11
        40 -1.885927E-05  0.000000E+00 -1.715650E-11
        41 -3.795252E-05  0.000000E+00  9.669171E-10
        42 -3.795182E-05  0.000000E+00  9.866314E-10
        43  0.000000E+00 -3.592240E-13  4.310688E-13
        44 -3.592240E-13 -3.592240E-13  4.310688E-13
        45 -1.885926E-05  4.153172E-11 -1.716118E-11
        46 -1.885927E-05  4.151957E-11 -1.715650E-11
        47 -3.795249E-05 -2.299686E-09  9.669184E-10
        48 -3.795180E-05 -2.350944E-09  9.866326E-10
        49  0.000000E+00 -1.885926E-05 -1.716117E-11
        50  4.153172E-11 -1.885926E-05 -1.716118E-11
        51  1.520256E-03  1.520256E-03 -2.489579E-11
        52  1.520256E-03  1.520256E-03 -3.485595E-11
        53  2.177172E-03 -8.495529E-02  9.728894E-10
        54  2.177172E-03 -8.596161E-02  9.729794E-10
        55  0.000000E+00 -1.885927E-05 -1.715650E-11
        56  4.151957E-11 -1.885927E-05 -1.715650E-11
        57  1.520256E-03  1.520256E-03 -3.485595E-11
        58  1.520256E-03  1.520256E-03 -4.481612E-11
        59  3.183496E-03 -8.495529E-02  9.630242E-10
        60  3.183495E-03 -8.596162E-02  9.631142E-10
        61  0.000000E+00 -3.795252E-05  9.669171E-10
        62 -2.299686E-09 -3.795249E-05  9.669184E-10
        63 -8.495529E-02  2.177172E-03  9.728894E-10
        64 -8.495529E-02  3.183496E-03  9.630242E-10
        65 -1.725000E-01 -1.725000E-01 -2.600947E-18
        66 -1.725000E-01 -1.725000E-01  7.090943E-18
        67  0.000000E+00 -3.795182E-05  9.866314E-10
        68 -2.350944E-09 -3.795180E-05  9.866326E-10
        69 -8.596161E-02  2.177172E-03  9.729794E-10
        70 -8.596162E-02  3.183495E-03  9.631142E-10
        71 -1.725000E-01 -1.725000E-01  5.732513E-18
        72 -1.725000E-01 -1.725000E-01  3.708096E-18

 stresses (elem, integ.pnt.,sxx,syy,szz,sxy,sxz,syz) for set EALL and time  0.5750000E-02

         1   1 -2.155344E-10 -2.155344E-10 -1.149859E-21  1.246335E-21 -1.545183E-22 -1.545315E-22
         1   2 -2.155344E-10 -2.155344E-10  1.493785E-21  2.948806E-21 -6.126025E-22 -1.545262E-22
         1   3 -2.155344E-10 -2.155344E-10  1.493862E-21  2.948919E-21 -1.545265E-22 -6.127359E-22
         1   4 -2.155344E-10 -2.155344E-10  4.137635E-21  4.651391E-21 -6.126542E-22 -6.127443E-22
         1   5 -2.155344E-10 -2.155344E-10 -3.074087E-21  1.246303E-21 -1.185806E-22 -1.185102E-22
         1   6 -2.155344E-10 -2.155344E-10 -4.304183E-22  2.948700E-21 -5.766648E-22 -1.184915E-22
         1   7 -2.155344E-10 -2.155344E-10 -4.304700E-22  2.948864E-21 -1.185709E-22 -5.767146E-22
         1   8 -2.155344E-10 -2.155344E-10  2.213277E-21  4.651261E-21 -5.767026E-22 -5.767096E-22
         2   1 -2.162551E-10  1.737746E-08  3.049568E-13  1.903518E-12 -2.179623E-13  2.154093E-18
         2   2 -2.174877E-10  1.737396E-08 -3.049696E-13  1.903580E-12 -2.180003E-13  2.267127E-18
         2   3 -2.162549E-10  1.737746E-08  3.049739E-13  7.704788E-13 -2.179625E-13  3.842120E-17
         2   4 -2.174875E-10  1.737396E-08 -3.049527E-13  7.705412E-13 -2.180011E-13  3.890585E-17
         2   5 -2.162552E-10  1.737746E-08  3.049524E-13  1.903518E-12  2.178904E-13 -2.822792E-17
         2   6 -2.174878E-10  1.737396E-08 -3.049732E-13  1.903580E-12  2.178521E-13 -2.817769E-17
         2   7 -2.162550E-10  1.737746E-08  3.049695E-13  7.704794E-13  2.178899E-13  8.039186E-18
         2   8 -2.174876E-10  1.737396E-08 -3.049563E-13  7.705414E-13  2.178514E-13  8.461033E-18
         3   1  2.491470E-09 -9.692839E-07  1.287319E-09  2.281387E-09 -9.193251E-10  2.939892E-14
         3   2 -2.709247E-09 -9.840455E-07 -1.286773E-09  2.280861E-09 -9.193118E-10  2.939918E-14
         3   3  2.489752E-09 -9.692846E-07  1.286820E-09 -2.499069E-09 -9.193251E-10 -6.205502E-15
         3   4 -2.710964E-09 -9.840462E-07 -1.287272E-09 -2.499596E-09 -9.193118E-10 -6.205170E-15
         3   5  2.491460E-09 -9.692841E-07  1.287272E-09  2.281387E-09  9.193119E-10  1.453227E-13
         3   6 -2.709256E-09 -9.840457E-07 -1.286820E-09  2.280861E-09  9.193252E-10  1.453236E-13
         3   7  2.489742E-09 -9.692847E-07  1.286773E-09 -2.499069E-09  9.193119E-10  1.097183E-13
         3   8 -2.710974E-09 -9.840463E-07 -1.287319E-09 -2.499596E-09  9.193252E-10  1.097192E-13
         4   1  1.737746E-08 -2.162551E-10  3.049560E-13  1.903517E-12  2.185105E-18 -2.179623E-13
         4   2  1.737746E-08 -2.162549E-10  3.049737E-13  7.704787E-13  3.849867E-17 -2.179619E-13
         4   3  1.737396E-08 -2.174877E-10 -3.049707E-13  1.903579E-12  2.211394E-18 -2.179998E-13
         4   4  1.737396E-08 -2.174875E-10 -3.049528E-13  7.705409E-13  3.852421E-17 -2.180005E-13
         4   5  1.737746E-08 -2.162552E-10  3.049535E-13  1.903517E-12 -2.815864E-17  2.178904E-13
         4   6  1.737746E-08 -2.162550E-10  3.049700E-13  7.704784E-13  8.154924E-18  2.178903E-13
         4   7  1.737396E-08 -2.174878E-10 -3.049732E-13  1.903579E-12 -2.805979E-17  2.178521E-13
         4   8  1.737396E-08 -2.174876E-10 -3.049561E-13  7.705404E-13  8.253035E-18  2.178520E-13
         5   1  1.238523E-08  1.238523E-08 -1.300499E-09  3.853343E-10  4.644638E-10  4.644637E-10
         5   2  1.501277E-08  1.984319E-08  1.534410E-17  2.800546E-09  4.644637E-10  4.644638E-10
         5   3  1.984319E-08  1.501277E-08 -7.733905E-17  2.800546E-09  4.644637E-10  4.644637E-10
         5   4  2.247073E-08  2.247073E-08  1.300499E-09  5.215758E-09  4.644637E-10  4.644637E-10
         5   5  1.238523E-08  1.238523E-08 -1.300499E-09  3.853343E-10 -4.644638E-10 -4.644638E-10
         5   6  1.501277E-08  1.984319E-08 -3.596648E-17  2.800546E-09 -4.644639E-10 -4.644638E-10
         5   7  1.984319E-08  1.501277E-08  3.810998E-17  2.800546E-09 -4.644639E-10 -4.644638E-10
         5   8  2.247073E-08  2.247073E-08  1.300499E-09  5.215758E-09 -4.644639E-10 -4.644638E-10
         6   1  5.032695E-09 -9.779836E-07 -6.381757E-10  4.486582E-09 -4.196745E-12  4.600346E-10
         6   2  5.008961E-09 -9.780510E-07 -6.499252E-10  6.878768E-09 -4.196764E-12  4.600351E-10
         6   3  1.241955E-08 -9.753811E-07  6.499249E-10  4.464746E-09 -4.197054E-12  4.600359E-10
         6   4  1.239582E-08 -9.754485E-07  6.381754E-10  6.856932E-09 -4.197011E-12  4.600363E-10
         6   5  5.032697E-09 -9.779836E-07 -6.381736E-10  4.486583E-09  4.196915E-12 -4.600356E-10
         6   6  5.008959E-09 -9.780510E-07 -6.499278E-10  6.878769E-09  4.196872E-12 -4.600355E-10
         6   7  1.241956E-08 -9.753811E-07  6.499271E-10  4.464746E-09  4.196863E-12 -4.600364E-10
         6   8  1.239582E-08 -9.754485E-07  6.381766E-10  6.856932E-09  4.197009E-12 -4.600346E-10
         7   1 -9.692839E-07  2.491470E-09  1.287319E-09  2.281387E-09  2.939889E-14 -9.193251E-10
         7   2 -9.692846E-07  2.489752E-09  1.286820E-09 -2.499069E-09 -6.205402E-15 -9.193251E-10
         7   3 -9.840455E-07 -2.709247E-09 -1.286773E-09  2.280861E-09  2.939922E-14 -9.193118E-10
         7   4 -9.840462E-07 -2.710964E-09 -1.287272E-09 -2.499596E-09 -6.205161E-15 -9.193118E-10
         7   5 -9.692841E-07  2.491460E-09  1.287272E-09  2.281387E-09  1.453224E-13  9.193119E-10
         7   6 -9.692847E-07  2.489742E-09  1.286773E-09 -2.499069E-09  1.097181E-13  9.193119E-10
         7   7 -9.840457E-07 -2.709256E-09 -1.286820E-09  2.280861E-09  1.453238E-13  9.193252E-10
         7   8 -9.840463E-07 -2.710974E-09 -1.287319E-09 -2.499596E-09  1.097194E-13  9.193252E-10
         8   1 -9.779836E-07  5.032699E-09 -6.381712E-10  4.486582E-09  4.600345E-10 -4.197016E-12
         8   2 -9.753811E-07  1.241956E-08  6.499296E-10  4.464745E-09  4.600364E-10 -4.196547E-12
         8   3 -9.780510E-07  5.008962E-09 -6.499235E-10  6.878768E-09  4.600391E-10 -4.196931E-12
         8   4 -9.754485E-07  1.239582E-08  6.381768E-10  6.856931E-09  4.600369E-10 -4.196928E-12
         8   5 -9.779836E-07  5.032701E-09 -6.381692E-10  4.486582E-09 -4.600358E-10  4.196890E-12
         8   6 -9.753811E-07  1.241956E-08  6.499307E-10  4.464746E-09 -4.600345E-10  4.197099E-12
         8   7 -9.780510E-07  5.008961E-09 -6.499253E-10  6.878768E-09 -4.600347E-10  4.196915E-12
         8   8 -9.754485E-07  1.239582E-08  6.381742E-10  6.856932E-09 -4.600364E-10  4.196744E-12
         9   1  9.395330E-16  2.034160E-15  1.097616E-15  5.473136E-16  2.463313E-16  1.999585E-16
         9   2  3.713019E-15  7.544215E-15  4.832517E-15  1.915598E-15  1.477787E-15  1.200497E-15
         9   3  1.524851E-15  2.619478E-15  2.463358E-15  5.473136E-16  1.541391E-17  1.999585E-16
         9   4 -4.824555E-16 -2.124396E-15  5.162112E-16 -8.209704E-16 -5.318997E-16 -5.782725E-16
         9   5 -3.165319E-15 -7.543828E-15 -3.007236E-15 -2.189254E-15 -1.753062E-16 -3.483720E-16
         9   6 -6.549111E-15 -1.640076E-14 -5.429613E-15 -4.925822E-15  7.824926E-16 -2.523687E-16
         9   7 -2.580001E-15 -6.958510E-15 -1.641494E-15 -2.189254E-15 -2.131729E-15 -1.442999E-15
         9   8 -8.929407E-16 -3.082195E-15  1.057260E-16 -1.094627E-15  1.152153E-15  9.790869E-16

 strains (elem, integ.pnt.,exx,eyy,ezz,exy,exz,eyz) forset EALL and time  0.5750000E-02

         1   1 -7.184480E-16 -7.184480E-16  6.158125E-16  7.715405E-27 -9.565416E-28 -9.566233E-28
         1   2 -7.184480E-16 -7.184480E-16  6.158125E-16  1.825452E-26 -3.792301E-27 -9.565909E-28
         1   3 -7.184480E-16 -7.184480E-16  6.158125E-16  1.825521E-26 -9.565925E-28 -3.793127E-27
         1   4 -7.184480E-16 -7.184480E-16  6.158125E-16  2.879432E-26 -3.792621E-27 -3.793179E-27
         1   5 -7.184480E-16 -7.184480E-16  6.158125E-16  7.715208E-27 -7.340705E-28 -7.336345E-28
         1   6 -7.184480E-16 -7.184480E-16  6.158125E-16  1.825386E-26 -3.569830E-27 -7.335189E-28
         1   7 -7.184480E-16 -7.184480E-16  6.158125E-16  1.825487E-26 -7.340104E-28 -3.570138E-27
         1   8 -7.184480E-16 -7.184480E-16  6.158125E-16  2.879352E-26 -3.570064E-27 -3.570107E-27
         2   1 -2.585516E-14  8.305830E-14 -2.451455E-14  1.178368E-17 -1.349290E-18  1.333486E-23
         2   2 -2.585516E-14  8.304428E-14 -2.451070E-14  1.178407E-17 -1.349525E-18  1.403459E-23
         2   3 -2.585516E-14  8.305830E-14 -2.451455E-14  4.769631E-18 -1.349292E-18  2.378455E-22
         2   4 -2.585516E-14  8.304428E-14 -2.451070E-14  4.770017E-18 -1.349530E-18  2.408457E-22
         2   5 -2.585516E-14  8.305831E-14 -2.451455E-14  1.178368E-17  1.348845E-18 -1.747443E-22
         2   6 -2.585516E-14  8.304428E-14 -2.451070E-14  1.178407E-17  1.348608E-18 -1.744333E-22
         2   7 -2.585516E-14  8.305831E-14 -2.451455E-14  4.769634E-18  1.348842E-18  4.976639E-23
         2   8 -2.585516E-14  8.304428E-14 -2.451070E-14  4.770018E-18  1.348604E-18  5.237782E-23
         3   1  1.394716E-12 -4.621036E-12  1.387262E-12  1.412287E-14 -5.691060E-15  1.819933E-19
         3   2  1.394716E-12 -4.680223E-12  1.403522E-12  1.411961E-14 -5.690978E-15  1.819949E-19
         3   3  1.394710E-12 -4.621036E-12  1.387263E-12 -1.547043E-14 -5.691060E-15 -3.841501E-20
         3   4  1.394710E-12 -4.680223E-12  1.403523E-12 -1.547369E-14 -5.690978E-15 -3.841296E-20
         3   5  1.394717E-12 -4.621037E-12  1.387262E-12  1.412287E-14  5.690979E-15  8.996166E-19
         3   6  1.394717E-12 -4.680223E-12  1.403522E-12  1.411961E-14  5.691061E-15  8.996221E-19
         3   7  1.394710E-12 -4.621037E-12  1.387263E-12 -1.547043E-14  5.690979E-15  6.792083E-19
         3   8  1.394710E-12 -4.680223E-12  1.403523E-12 -1.547369E-14  5.691061E-15  6.792142E-19
         4   1  8.305830E-14 -2.585516E-14 -2.451455E-14  1.178368E-17  1.352684E-23 -1.349290E-18
         4   2  8.305830E-14 -2.585516E-14 -2.451455E-14  4.769630E-18  2.383251E-22 -1.349288E-18
         4   3  8.304428E-14 -2.585516E-14 -2.451070E-14  1.178406E-17  1.368958E-23 -1.349522E-18
         4   4  8.304428E-14 -2.585516E-14 -2.451070E-14  4.770015E-18  2.384832E-22 -1.349527E-18
         4   5  8.305831E-14 -2.585516E-14 -2.451455E-14  1.178368E-17 -1.743154E-22  1.348845E-18
         4   6  8.305831E-14 -2.585516E-14 -2.451455E-14  4.769628E-18  5.048286E-23  1.348845E-18
         4   7  8.304428E-14 -2.585516E-14 -2.451070E-14  1.178406E-17 -1.737034E-22  1.348608E-18
         4   8  8.304428E-14 -2.585516E-14 -2.451070E-14  4.770012E-18  5.109022E-23  1.348608E-18
         5   1  4.314195E-14  4.314195E-14 -4.157922E-14  2.385403E-15  2.875252E-15  2.875252E-15
         5   2  4.314195E-14  7.304457E-14 -4.979422E-14  1.733671E-14  2.875252E-15  2.875252E-15
         5   3  7.304457E-14  4.314195E-14 -4.979422E-14  1.733671E-14  2.875252E-15  2.875252E-15
         5   4  7.304457E-14  7.304457E-14 -5.800923E-14  3.228803E-14  2.875251E-15  2.875252E-15
         5   5  4.314195E-14  4.314195E-14 -4.157922E-14  2.385403E-15 -2.875252E-15 -2.875252E-15
         5   6  4.314195E-14  7.304457E-14 -4.979422E-14  1.733671E-14 -2.875252E-15 -2.875252E-15
         5   7  7.304457E-14  4.314195E-14 -4.979422E-14  1.733671E-14 -2.875252E-15 -2.875252E-15
         5   8  7.304457E-14  7.304457E-14 -5.800923E-14  3.228803E-14 -2.875252E-15 -2.875252E-15
         6   1  1.421996E-12 -4.663343E-12  1.386891E-12  2.778633E-14 -2.598558E-17  2.847833E-15
         6   2  1.421996E-12 -4.663613E-12  1.386965E-12  4.259510E-14 -2.598570E-17  2.847836E-15
         6   3  1.451614E-12 -4.663343E-12  1.378754E-12  2.765121E-14 -2.598749E-17  2.847842E-15
         6   4  1.451614E-12 -4.663613E-12  1.378829E-12  4.245998E-14 -2.598723E-17  2.847844E-15
         6   5  1.421996E-12 -4.663343E-12  1.386891E-12  2.778633E-14  2.598663E-17 -2.847839E-15
         6   6  1.421996E-12 -4.663613E-12  1.386965E-12  4.259510E-14  2.598637E-17 -2.847839E-15
         6   7  1.451614E-12 -4.663343E-12  1.378754E-12  2.765121E-14  2.598631E-17 -2.847844E-15
         6   8  1.451614E-12 -4.663613E-12  1.378829E-12  4.245998E-14  2.598721E-17 -2.847833E-15
         7   1 -4.621036E-12  1.394716E-12  1.387262E-12  1.412287E-14  1.819931E-19 -5.691060E-15
         7   2 -4.621036E-12  1.394710E-12  1.387263E-12 -1.547043E-14 -3.841439E-20 -5.691060E-15
         7   3 -4.680223E-12  1.394716E-12  1.403522E-12  1.411961E-14  1.819952E-19 -5.690978E-15
         7   4 -4.680223E-12  1.394710E-12  1.403523E-12 -1.547369E-14 -3.841290E-20 -5.690978E-15
         7   5 -4.621037E-12  1.394717E-12  1.387262E-12  1.412287E-14  8.996151E-19  5.690979E-15
         7   6 -4.621037E-12  1.394710E-12  1.387263E-12 -1.547043E-14  6.792076E-19  5.690979E-15
         7   7 -4.680223E-12  1.394717E-12  1.403522E-12  1.411961E-14  8.996234E-19  5.691061E-15
         7   8 -4.680223E-12  1.394710E-12  1.403523E-12 -1.547369E-14  6.792153E-19  5.691061E-15
         8   1 -4.663343E-12  1.421996E-12  1.386891E-12  2.778632E-14  2.847833E-15 -2.598726E-17
         8   2 -4.663343E-12  1.451614E-12  1.378754E-12  2.765120E-14  2.847844E-15 -2.598436E-17
         8   3 -4.663613E-12  1.421996E-12  1.386965E-12  4.259510E-14  2.847861E-15 -2.598673E-17
         8   4 -4.663613E-12  1.451614E-12  1.378829E-12  4.245997E-14  2.847847E-15 -2.598671E-17
         8   5 -4.663343E-12  1.421996E-12  1.386891E-12  2.778633E-14 -2.847840E-15  2.598648E-17
         8   6 -4.663343E-12  1.451614E-12  1.378754E-12  2.765121E-14 -2.847832E-15  2.598777E-17
         8   7 -4.663613E-12  1.421996E-12  1.386965E-12  4.259510E-14 -2.847834E-15  2.598664E-17
         8   8 -4.663613E-12  1.451614E-12  1.378829E-12  4.245998E-14 -2.847844E-15  2.598558E-17
         9   1  4.650690E-42  6.776264E-21  9.786117E-22  3.388132E-21  1.524908E-21  1.237838E-21
         9   2  4.650690E-42  2.371692E-20  6.930221E-21  1.185846E-20  9.148205E-21  7.431646E-21
         9   3  1.820974E-44  6.776264E-21  5.809807E-21  3.388132E-21  9.541945E-23  1.237838E-21
         9   4  1.820974E-44 -1.016440E-20  6.182223E-21 -5.082198E-21 -3.292712E-21 -3.579782E-21
         9   5  6.477576E-41 -2.710505E-20  9.786117E-22 -1.355253E-20 -1.085229E-21 -2.156588E-21
         9   6  6.477576E-41 -6.098637E-20  6.930221E-21 -3.049319E-20  4.844002E-21 -1.562282E-21
         9   7  2.536290E-43 -2.710505E-20  5.809807E-21 -1.355253E-20 -1.319642E-20 -8.932852E-21
         9   8  2.536290E-43 -1.355253E-20  6.182223E-21 -6.776264E-21  7.132374E-21  6.061014E-21

 displacements (vx,vy,vz) for set NALL and time  0.9125000E-02

         1  0.000000E+00  0.000000E+00  0.000000E+00
         2 -1.466227E-12  0.000000E+00  0.000000E+00
         3 -7.697693E-05  0.000000E+00  0.000000E+00
         4 -7.697696E-05  0.000000E+00  0.000000E+00
         5 -1.554868E-04  0.000000E+00  0.000000E+00
         6 -1.554858E-04  0.000000E+00  0.000000E+00
         7  0.000000E+00 -1.466227E-12  0.000000E+00
         8 -1.466227E-12 -1.466227E-12  0.000000E+00
         9 -7.697693E-05  1.062021E-10  0.000000E+00
        10 -7.697696E-05  1.061225E-10  0.000000E+00
        11 -1.554868E-04 -3.603543E-09  0.000000E+00
        12 -1.554857E-04 -3.732153E-09  0.000000E+00
        13  0.000000E+00 -7.697693E-05  0.000000E+00
        14  1.062021E-10 -7.697693E-05  0.000000E+00
        15  3.877359E-03  3.877359E-03  0.000000E+00
        16  3.877359E-03  3.877359E-03  0.000000E+00
        17  5.589941E-03 -1.335293E-01  0.000000E+00
        18  5.589936E-03 -1.360849E-01  0.000000E+00
        19  0.000000E+00 -7.697696E-05  0.000000E+00
        20  1.061225E-10 -7.697696E-05  0.000000E+00
        21  3.877359E-03  3.877359E-03  0.000000E+00
        22  3.877359E-03  3.877359E-03  0.000000E+00
        23  8.145526E-03 -1.335293E-01  0.000000E+00
        24  8.145521E-03 -1.360849E-01  0.000000E+00
        25  0.000000E+00 -1.554868E-04  0.000000E+00
        26 -3.603543E-09 -1.554868E-04  0.000000E+00
        27 -1.335293E-01  5.589941E-03  0.000000E+00
        28 -1.335293E-01  8.145526E-03  0.000000E+00
        29 -2.737500E-01 -2.737500E-01  0.000000E+00
        30 -2.737500E-01 -2.737500E-01  0.000000E+00
        31  0.000000E+00 -1.554858E-04  0.000000E+00
        32 -3.732153E-09 -1.554857E-04  0.000000E+00
        33 -1.360849E-01  5.589936E-03  0.000000E+00
        34 -1.360849E-01  8.145521E-03  0.000000E+00
        35 -2.737500E-01 -2.737500E-01  0.000000E+00
        36 -2.737500E-01 -2.737500E-01  0.000000E+00
        37  0.000000E+00  0.000000E+00  1.759473E-12
        38 -1.466227E-12  0.000000E+00  1.759473E-12
        39 -7.697693E-05  0.000000E+00 -4.344841E-11
        40 -7.697696E-05  0.000000E+00 -4.341779E-11
        41 -1.554869E-04  0.000000E+00  1.516349E-09
        42 -1.554858E-04  0.000000E+00  1.565814E-09
        43  0.000000E+00 -1.466227E-12  1.759473E-12
        44 -1.466227E-12 -1.466227E-12  1.759473E-12
        45 -7.697693E-05  1.062021E-10 -4.344841E-11
        46 -7.697696E-05  1.061225E-10 -4.341780E-11
        47 -1.554868E-04 -3.603547E-09  1.516357E-09
        48 -1.554857E-04 -3.732157E-09  1.565823E-09
        49  0.000000E+00 -7.697693E-05 -4.344841E-11
        50  1.062021E-10 -7.697693E-05 -4.344841E-11
        51  3.877359E-03  3.877359E-03 -6.391629E-11
        52  3.877359E-03  3.877359E-03 -8.907776E-11
        53  5.589941E-03 -1.335293E-01  1.530763E-09
        54  5.589936E-03 -1.360849E-01  1.531135E-09
        55  0.000000E+00 -7.697696E-05 -4.341779E-11
        56  1.061225E-10 -7.697696E-05 -4.341780E-11
        57  3.877359E-03  3.877359E-03 -8.907776E-11
        58  3.877359E-03  3.877359E-03 -1.142392E-10
        59  8.145526E-03 -1.335293E-01  1.506006E-09
        60  8.145521E-03 -1.360849E-01  1.506377E-09
        61  0.000000E+00 -1.554869E-04  1.516349E-09
        62 -3.603547E-09 -1.554868E-04  1.516357E-09
        63 -1.335293E-01  5.589941E-03  1.530763E-09
        64 -1.335293E-01  8.145526E-03  1.506006E-09
        65 -2.737500E-01 -2.737500E-01  3.001557E-18
        66 -2.737500E-01 -2.737500E-01 -6.739049E-18
        67  0.000000E+00 -1.554858E-04  1.565814E-09
        68 -3.732157E-09 -1.554857E-04  1.565823E-09
        69 -1.360849E-01  5.589936E-03  1.531135E-09
        70 -1.360849E-01  8.145521E-03  1.506377E-09
        71 -2.737500E-01 -2.737500E-01  1.411529E-18
        72 -2.737500E-01 -2.737500E-01  7.701341E-18

 stresses (elem, integ.pnt.,sxx,syy,szz,sxy,sxz,syz) for set EALL and time  0.9125000E-02

         1   1 -8.797363E-10 -8.797363E-10 -8.315729E-20  7.430459E-20 -4.508515E-20  7.897277E-21
         1   2 -8.797363E-10 -8.797363E-10  2.121862E-19  1.755388E-19 -2.253356E-19 -2.255852E-20
         1   3 -8.797363E-10 -8.797363E-10 -3.456467E-20  1.760743E-19  2.360399E-21  7.077653E-20
         1   4 -8.797363E-10 -8.797363E-10  1.688207E-19  2.773085E-19 -1.148321E-20 -6.102963E-21
         1   5 -8.797363E-10 -8.797363E-10 -3.296371E-19  1.357882E-19  1.199036E-20 -3.340616E-20
         1   6 -8.797363E-10 -8.797363E-10 -1.317831E-19  4.699919E-19 -1.682601E-19 -1.006452E-19
         1   7 -8.797363E-10 -8.797363E-10  6.841001E-20  1.725648E-19  2.265272E-20  2.947308E-20
         1   8 -8.797363E-10 -8.797363E-10  1.743058E-19  5.067686E-19  8.809108E-21 -8.418960E-20
         2   1 -8.844583E-10  4.433306E-08  1.998336E-12  1.247145E-11 -1.427725E-12  5.748227E-18
         2   2 -8.925339E-10  4.431014E-08 -1.998369E-12  1.247160E-11 -1.427820E-12  5.771069E-18
         2   3 -8.844578E-10  4.433306E-08  1.998375E-12  5.048199E-12 -1.427725E-12  9.757813E-17
         2   4 -8.925335E-10  4.431014E-08 -1.998330E-12  5.048354E-12 -1.427819E-12  9.750449E-17
         2   5 -8.844585E-10  4.433306E-08  1.998330E-12  1.247145E-11  1.427543E-12 -7.037723E-17
         2   6 -8.925342E-10  4.431014E-08 -1.998375E-12  1.247160E-11  1.427446E-12 -7.019550E-17
         2   7 -8.844581E-10  4.433306E-08  1.998369E-12  5.048199E-12  1.427543E-12  2.145267E-17
         2   8 -8.925337E-10  4.431014E-08 -1.998336E-12  5.048354E-12  1.427447E-12  2.153792E-17
         3   1  6.077407E-09 -1.522111E-06  3.231165E-09  5.550481E-09 -2.306720E-09  1.955751E-13
         3   2 -6.971790E-09 -1.559149E-06 -3.227529E-09  5.546979E-09 -2.306632E-09  1.955766E-13
         3   3  6.065977E-09 -1.522115E-06  3.227841E-09 -6.444235E-09 -2.306720E-09 -4.144276E-14
         3   4 -6.983219E-09 -1.559154E-06 -3.230853E-09 -6.447737E-09 -2.306632E-09 -4.144031E-14
         3   5  6.077343E-09 -1.522112E-06  3.230853E-09  5.550481E-09  2.306632E-09  9.669140E-13
         3   6 -6.971854E-09 -1.559150E-06 -3.227841E-09  5.546979E-09  2.306721E-09  9.669185E-13
         3   7  6.065914E-09 -1.522116E-06  3.227529E-09 -6.444235E-09  2.306632E-09  7.298962E-13
         3   8 -6.983283E-09 -1.559155E-06 -3.231165E-09 -6.447737E-09  2.306721E-09  7.299016E-13
         4   1  4.433306E-08 -8.844583E-10  1.998337E-12  1.247145E-11  5.817047E-18 -1.427724E-12
         4   2  4.433306E-08 -8.844578E-10  1.998374E-12  5.048202E-12  9.779542E-17 -1.427726E-12
         4   3  4.431014E-08 -8.925339E-10 -1.998368E-12  1.247161E-11  5.744773E-18 -1.427821E-12
         4   4  4.431014E-08 -8.925335E-10 -1.998330E-12  5.048355E-12  9.741191E-17 -1.427819E-12
         4   5  4.433306E-08 -8.844585E-10  1.998325E-12  1.247145E-11 -7.026886E-17  1.427543E-12
         4   6  4.433306E-08 -8.844581E-10  1.998370E-12  5.048200E-12  2.170952E-17  1.427543E-12
         4   7  4.431014E-08 -8.925342E-10 -1.998380E-12  1.247161E-11 -7.022735E-17  1.427447E-12
         4   8  4.431014E-08 -8.925337E-10 -1.998335E-12  5.048356E-12  2.143979E-17  1.427448E-12
         5   1  3.179983E-08  3.179983E-08 -3.285334E-09  8.989587E-10  1.173333E-09  1.173333E-09
         5   2  3.843755E-08  5.064021E-08  5.200776E-17  7.000292E-09  1.173333E-09  1.173333E-09
         5   3  5.064021E-08  3.843755E-08  1.874566E-16  7.000292E-09  1.173333E-09  1.173333E-09
         5   4  5.727793E-08  5.727793E-08  3.285334E-09  1.310162E-08  1.173333E-09  1.173333E-09
         5   5  3.179983E-08  3.179983E-08 -3.285334E-09  8.989588E-10 -1.173333E-09 -1.173333E-09
         5   6  3.843755E-08  5.064021E-08  6.483585E-17  7.000292E-09 -1.173333E-09 -1.173333E-09
         5   7  5.064021E-08  3.843755E-08  5.918039E-17  7.000292E-09 -1.173333E-09 -1.173333E-09
         5   8  5.727793E-08  5.727793E-08  3.285334E-09  1.310162E-08 -1.173333E-09 -1.173333E-09
         6   1  1.305130E-08 -1.543968E-06 -1.591980E-09  1.132397E-08 -1.730812E-11  1.154512E-09
         6   2  1.295342E-08 -1.544246E-06 -1.640459E-09  1.732744E-08 -1.730811E-11  1.154513E-09
         6   3  3.158950E-08 -1.537437E-06  1.640661E-09  1.123387E-08 -1.730812E-11  1.154515E-09
         6   4  3.149162E-08 -1.537715E-06  1.592180E-09  1.723735E-08 -1.730771E-11  1.154514E-09
         6   5  1.305131E-08 -1.543968E-06 -1.591977E-09  1.132397E-08  1.730829E-11 -1.154517E-09
         6   6  1.295342E-08 -1.544246E-06 -1.640458E-09  1.732744E-08  1.730833E-11 -1.154515E-09
         6   7  3.158951E-08 -1.537437E-06  1.640665E-09  1.123387E-08  1.730784E-11 -1.154515E-09
         6   8  3.149162E-08 -1.537715E-06  1.592182E-09  1.723735E-08  1.730811E-11 -1.154515E-09
         7   1 -1.522111E-06  6.077407E-09  3.231165E-09  5.550481E-09  1.955749E-13 -2.306720E-09
         7   2 -1.522115E-06  6.065977E-09  3.227841E-09 -6.444235E-09 -4.144203E-14 -2.306720E-09
         7   3 -1.559149E-06 -6.971790E-09 -3.227529E-09  5.546979E-09  1.955768E-13 -2.306632E-09
         7   4 -1.559154E-06 -6.983219E-09 -3.230853E-09 -6.447737E-09 -4.144013E-14 -2.306632E-09
         7   5 -1.522112E-06  6.077343E-09  3.230853E-09  5.550481E-09  9.669123E-13  2.306632E-09
         7   6 -1.522116E-06  6.065914E-09  3.227529E-09 -6.444235E-09  7.298954E-13  2.306632E-09
         7   7 -1.559150E-06 -6.971854E-09 -3.227841E-09  5.546979E-09  9.669194E-13  2.306721E-09
         7   8 -1.559155E-06 -6.983283E-09 -3.231165E-09 -6.447737E-09  7.299025E-13  2.306721E-09
         8   1 -1.543968E-06  1.305131E-08 -1.591974E-09  1.132397E-08  1.154517E-09 -1.730895E-11
         8   2 -1.537437E-06  3.158951E-08  1.640668E-09  1.123388E-08  1.154518E-09 -1.730685E-11
         8   3 -1.544246E-06  1.295342E-08 -1.640454E-09  1.732744E-08  1.154518E-09 -1.730893E-11
         8   4 -1.537715E-06  3.149162E-08  1.592184E-09  1.723735E-08  1.154515E-09 -1.730741E-11
         8   5 -1.543968E-06  1.305130E-08 -1.591980E-09  1.132397E-08 -1.154512E-09  1.730823E-11
         8   6 -1.537437E-06  3.158950E-08  1.640662E-09  1.123388E-08 -1.154511E-09  1.730846E-11
         8   7 -1.544246E-06  1.295342E-08 -1.640454E-09  1.732744E-08 -1.154514E-09  1.730823E-11
         8   8 -1.537715E-06  3.149162E-08  1.592183E-09  1.723735E-08 -1.154514E-09  1.730809E-11
         9   1  2.289811E-16  2.289811E-16  5.342892E-16 -1.647696E-37 -2.168723E-16  6.136477E-17
         9   2  5.340946E-15  1.300334E-14  4.799817E-15  3.831195E-15  2.519696E-15  3.113877E-15
         9   3  4.086079E-16  4.086079E-16  9.534183E-16  1.144063E-34 -2.090182E-15 -2.127890E-15
         9   4  4.392978E-15  9.318801E-15  5.324461E-15  2.462911E-15  3.382954E-15  3.661191E-15
         9   5 -6.338782E-15 -1.509580E-14 -6.033474E-15 -4.378509E-15 -1.904006E-15 -8.656108E-16
         9   6 -4.058469E-16 -4.058469E-16 -9.469761E-16 -3.507455E-36 -1.630349E-15  5.871669E-16
         9   7 -6.159155E-15 -1.491617E-14 -5.614345E-15 -4.378509E-15  2.558997E-15  2.418271E-15
         9   8 -2.585270E-15 -6.963779E-15 -1.653788E-15 -2.189254E-15 -4.008766E-15 -2.970372E-15

 strains (elem, integ.pnt.,exx,eyy,ezz,exy,exz,eyz) forset EALL and time  0.9125000E-02

         1   1 -2.932454E-15 -2.932454E-15  2.513532E-15  4.599808E-25 -2.790986E-25  4.888790E-26
         1   2 -2.932454E-15 -2.932454E-15  2.513532E-15  1.086669E-24 -1.394935E-24 -1.396480E-25
         1   3 -2.932454E-15 -2.932454E-15  2.513532E-15  1.089984E-24  1.461200E-26  4.381404E-25
         1   4 -2.932454E-15 -2.932454E-15  2.513532E-15  1.716671E-24 -7.108652E-26 -3.778025E-26
         1   5 -2.932454E-15 -2.932454E-15  2.513532E-15  8.405937E-25  7.422601E-26 -2.068000E-25
         1   6 -2.932454E-15 -2.932454E-15  2.513532E-15  2.909474E-24 -1.041610E-24 -6.230415E-25
         1   7 -2.932454E-15 -2.932454E-15  2.513532E-15  1.068258E-24  1.402311E-25  1.824524E-25
         1   8 -2.932454E-15 -2.932454E-15  2.513532E-15  3.137139E-24  5.453257E-26 -5.211737E-25
         2   1 -6.754750E-14  2.123705E-13 -6.205991E-14  7.720421E-17 -8.838300E-18  3.558426E-23
         2   2 -6.754750E-14  2.122786E-13 -6.203466E-14  7.720517E-17 -8.838888E-18  3.572566E-23
         2   3 -6.754750E-14  2.123705E-13 -6.205992E-14  3.125076E-17 -8.838299E-18  6.040551E-22
         2   4 -6.754750E-14  2.122786E-13 -6.203466E-14  3.125172E-17 -8.838878E-18  6.035992E-22
         2   5 -6.754750E-14  2.123705E-13 -6.205991E-14  7.720421E-17  8.837168E-18 -4.356686E-22
         2   6 -6.754750E-14  2.122786E-13 -6.203466E-14  7.720517E-17  8.836572E-18 -4.345435E-22
         2   7 -6.754750E-14  2.123705E-13 -6.205992E-14  3.125076E-17  8.837170E-18  1.328023E-22
         2   8 -6.754750E-14  2.122786E-13 -6.203466E-14  3.125172E-17  8.836579E-18  1.333300E-22
         3   1  2.198768E-12 -7.261445E-12  2.181149E-12  3.436012E-14 -1.427970E-14  1.210703E-18
         3   2  2.198768E-12 -7.409951E-12  2.221947E-12  3.433844E-14 -1.427915E-14  1.210712E-18
         3   3  2.198725E-12 -7.261445E-12  2.181155E-12 -3.989288E-14 -1.427970E-14 -2.565504E-19
         3   4  2.198725E-12 -7.409951E-12  2.221954E-12 -3.991456E-14 -1.427915E-14 -2.565353E-19
         3   5  2.198770E-12 -7.261449E-12  2.181149E-12  3.436012E-14  1.427915E-14  5.985658E-18
         3   6  2.198770E-12 -7.409955E-12  2.221947E-12  3.433844E-14  1.427970E-14  5.985686E-18
         3   7  2.198726E-12 -7.261449E-12  2.181155E-12 -3.989288E-14  1.427915E-14  4.518405E-18
         3   8  2.198726E-12 -7.409955E-12  2.221954E-12 -3.991456E-14  1.427970E-14  4.518439E-18
         4   1  2.123705E-13 -6.754750E-14 -6.205991E-14  7.720422E-17  3.601029E-23 -8.838292E-18
         4   2  2.123705E-13 -6.754750E-14 -6.205992E-14  3.125077E-17  6.054002E-22 -8.838301E-18
         4   3  2.122786E-13 -6.754750E-14 -6.203466E-14  7.720517E-17  3.556288E-23 -8.838894E-18
         4   4  2.122786E-13 -6.754750E-14 -6.203466E-14  3.125172E-17  6.030261E-22 -8.838879E-18
         4   5  2.123705E-13 -6.754750E-14 -6.205991E-14  7.720422E-17 -4.349977E-22  8.837174E-18
         4   6  2.123705E-13 -6.754750E-14 -6.205992E-14  3.125076E-17  1.343922E-22  8.837173E-18
         4   7  2.122786E-13 -6.754750E-14 -6.203466E-14  7.720518E-17 -4.347407E-22  8.836577E-18
         4   8  2.122786E-13 -6.754750E-14 -6.203466E-14  3.125173E-17  1.327225E-22  8.836586E-18
         5   1  1.106928E-13  1.106928E-13 -1.065011E-13  5.564982E-15  7.263490E-15  7.263490E-15
         5   2  1.106928E-13  1.862331E-13 -1.272539E-13  4.333514E-14  7.263490E-15  7.263490E-15
         5   3  1.862331E-13  1.106928E-13 -1.272539E-13  4.333514E-14  7.263490E-15  7.263490E-15
         5   4  1.862331E-13  1.862331E-13 -1.480068E-13  8.110530E-14  7.263490E-15  7.263490E-15
         5   5  1.106928E-13  1.106928E-13 -1.065011E-13  5.564983E-15 -7.263492E-15 -7.263492E-15
         5   6  1.106928E-13  1.862331E-13 -1.272539E-13  4.333514E-14 -7.263492E-15 -7.263493E-15
         5   7  1.862331E-13  1.106928E-13 -1.272539E-13  4.333514E-14 -7.263492E-15 -7.263493E-15
         5   8  1.862331E-13  1.862331E-13 -1.480068E-13  8.110530E-14 -7.263492E-15 -7.263493E-15
         6   1  2.270091E-12 -7.368598E-12  2.179443E-12  7.015002E-14 -1.071820E-16  7.146981E-15
         6   2  2.270091E-12 -7.369712E-12  2.179749E-12  1.073144E-13 -1.071820E-16  7.146983E-15
         6   3  2.344420E-12 -7.368598E-12  2.159023E-12  6.959267E-14 -1.071821E-16  7.146998E-15
         6   4  2.344420E-12 -7.369712E-12  2.159329E-12  1.067570E-13 -1.071795E-16  7.146990E-15
         6   5  2.270091E-12 -7.368598E-12  2.179443E-12  7.015003E-14  1.071831E-16 -7.147012E-15
         6   6  2.270091E-12 -7.369712E-12  2.179749E-12  1.073144E-13  1.071833E-16 -7.146999E-15
         6   7  2.344420E-12 -7.368598E-12  2.159023E-12  6.959267E-14  1.071803E-16 -7.146999E-15
         6   8  2.344420E-12 -7.369712E-12  2.159329E-12  1.067570E-13  1.071820E-16 -7.146998E-15
         7   1 -7.261445E-12  2.198768E-12  2.181149E-12  3.436012E-14  1.210702E-18 -1.427970E-14
         7   2 -7.261445E-12  2.198725E-12  2.181155E-12 -3.989288E-14 -2.565459E-19 -1.427970E-14
         7   3 -7.409951E-12  2.198768E-12  2.221947E-12  3.433844E-14  1.210713E-18 -1.427915E-14
         7   4 -7.409951E-12  2.198725E-12  2.221954E-12 -3.991456E-14 -2.565341E-19 -1.427915E-14
         7   5 -7.261449E-12  2.198770E-12  2.181149E-12  3.436012E-14  5.985648E-18  1.427915E-14
         7   6 -7.261449E-12  2.198726E-12  2.181155E-12 -3.989288E-14  4.518400E-18  1.427915E-14
         7   7 -7.409955E-12  2.198770E-12  2.221947E-12  3.433844E-14  5.985691E-18  1.427970E-14
         7   8 -7.409955E-12  2.198726E-12  2.221954E-12 -3.991456E-14  4.518444E-18  1.427970E-14
         8   1 -7.368598E-12  2.270091E-12  2.179443E-12  7.015003E-14  7.147008E-15 -1.071872E-16
         8   2 -7.368598E-12  2.344420E-12  2.159023E-12  6.959269E-14  7.147019E-15 -1.071742E-16
         8   3 -7.369712E-12  2.270091E-12  2.179749E-12  1.073144E-13  7.147015E-15 -1.071871E-16
         8   4 -7.369712E-12  2.344420E-12  2.159329E-12  1.067571E-13  7.146998E-15 -1.071776E-16
         8   5 -7.368598E-12  2.270091E-12  2.179443E-12  7.015002E-14 -7.146977E-15  1.071827E-16
         8   6 -7.368598E-12  2.344420E-12  2.159023E-12  6.959269E-14 -7.146970E-15  1.071841E-16
         8   7 -7.369712E-12  2.270091E-12  2.179749E-12  1.073144E-13 -7.146991E-15  1.071827E-16
         8   8 -7.369712E-12  2.344420E-12  2.159329E-12  1.067571E-13 -7.146991E-15  1.071819E-16
         9   1  3.604842E-42  2.886133E-43  1.890002E-21 -1.020003E-42 -1.342543E-21  3.798771E-22
         9   2  3.604842E-42  4.743385E-20 -3.349847E-21  2.371692E-20  1.559812E-20  1.927638E-20
         9   3  7.522836E-43  2.886133E-43  3.372636E-21  4.659603E-43 -1.293922E-20 -1.317265E-20
         9   4  7.522836E-43  3.049319E-20  5.766319E-21  1.524659E-20  2.094209E-20  2.266451E-20
         9   5  5.020897E-41 -5.421011E-20  1.890002E-21 -2.710505E-20 -1.178670E-20 -5.358543E-21
         9   6  5.020897E-41  1.519736E-40 -3.349847E-21 -8.735237E-41 -1.009264E-20  3.634843E-21
         9   7  1.047796E-41 -5.421011E-20  3.372636E-21 -2.710505E-20  1.584141E-20  1.497025E-20
         9   8  1.047796E-41 -2.710505E-20  5.766319E-21 -1.355253E-20 -2.481617E-20 -1.838801E-20

 displacements (vx,vy,vz) for set NALL and time  0.1418750E-01

         1  0.000000E+00  0.000000E+00  0.000000E+00
         2 -5.682011E-12  0.000000E+00  0.000000E+00
         3 -2.983056E-04  0.000000E+00  0.000000E+00
         4 -2.983057E-04  0.000000E+00  0.000000E+00
         5 -6.060148E-04  0.000000E+00  0.000000E+00
         6 -6.060131E-04  0.000000E+00  0.000000E+00
         7  0.000000E+00 -5.682011E-12  0.000000E+00
         8 -5.682011E-12 -5.682011E-12  0.000000E+00
         9 -2.983056E-04  2.627505E-10  0.000000E+00
        10 -2.983057E-04  2.622623E-10  0.000000E+00
        11 -6.060147E-04 -5.491100E-09  0.000000E+00
        12 -6.060130E-04 -5.799839E-09  0.000000E+00
        13  0.000000E+00 -2.983056E-04  0.000000E+00
        14  2.627505E-10 -2.983056E-04  0.000000E+00
        15  9.551367E-03  9.551367E-03  0.000000E+00
        16  9.551367E-03  9.551367E-03  0.000000E+00
        17  1.391426E-02 -2.044022E-01  0.000000E+00
        18  1.391422E-02 -2.106563E-01  0.000000E+00
        19  0.000000E+00 -2.983057E-04  0.000000E+00
        20  2.622623E-10 -2.983057E-04  0.000000E+00
        21  9.551367E-03  9.551367E-03  0.000000E+00
        22  9.551367E-03  9.551367E-03  0.000000E+00
        23  2.016841E-02 -2.044022E-01  0.000000E+00
        24  2.016837E-02 -2.106564E-01  0.000000E+00
        25  0.000000E+00 -6.060148E-04  0.000000E+00
        26 -5.491100E-09 -6.060147E-04  0.000000E+00
        27 -2.044022E-01  1.391426E-02  0.000000E+00
        28 -2.044022E-01  2.016841E-02  0.000000E+00
        29 -4.256250E-01 -4.256250E-01  0.000000E+00
        30 -4.256250E-01 -4.256250E-01  0.000000E+00
        31  0.000000E+00 -6.060131E-04  0.000000E+00
        32 -5.799839E-09 -6.060130E-04  0.000000E+00
        33 -2.106563E-01  1.391422E-02  0.000000E+00
        34 -2.106564E-01  2.016837E-02  0.000000E+00
        35 -4.256250E-01 -4.256250E-01  0.000000E+00
        36 -4.256250E-01 -4.256250E-01  0.000000E+00
        37  0.000000E+00  0.000000E+00  6.818413E-12
        38 -5.682011E-12  0.000000E+00  6.818413E-12
        39 -2.983056E-04  0.000000E+00 -1.058448E-10
        40 -2.983057E-04  0.000000E+00 -1.056570E-10
        41 -6.060149E-04  0.000000E+00  2.314024E-09
        42 -6.060132E-04  0.000000E+00  2.432770E-09
        43  0.000000E+00 -5.682011E-12  6.818413E-12
        44 -5.682011E-12 -5.682011E-12  6.818413E-12
        45 -2.983056E-04  2.627505E-10 -1.058448E-10
        46 -2.983057E-04  2.622623E-10 -1.056570E-10
        47 -6.060148E-04 -5.491122E-09  2.314076E-09
        48 -6.060131E-04 -5.799861E-09  2.432822E-09
        49  0.000000E+00 -2.983056E-04 -1.058448E-10
        50  2.627505E-10 -2.983056E-04 -1.058448E-10
        51  9.551367E-03  9.551367E-03 -1.590764E-10
        52  9.551367E-03  9.551367E-03 -2.201602E-10
        53  1.391426E-02 -2.044022E-01  2.346377E-09
        54  1.391422E-02 -2.106563E-01  2.347841E-09
        55  0.000000E+00 -2.983057E-04 -1.056570E-10
        56  2.622623E-10 -2.983057E-04 -1.056570E-10
        57  9.551367E-03  9.551367E-03 -2.201602E-10
        58  9.551367E-03  9.551367E-03 -2.812439E-10
        59  2.016841E-02 -2.044022E-01  2.286955E-09
        60  2.016837E-02 -2.106564E-01  2.288419E-09
        61  0.000000E+00 -6.060149E-04  2.314024E-09
        62 -5.491122E-09 -6.060148E-04  2.314076E-09
        63 -2.044022E-01  1.391426E-02  2.346377E-09
        64 -2.044022E-01  2.016841E-02  2.286955E-09
        65 -4.256250E-01 -4.256250E-01 -1.457677E-17
        66 -4.256250E-01 -4.256250E-01  7.455106E-18
        67  0.000000E+00 -6.060132E-04  2.432770E-09
        68 -5.799861E-09 -6.060131E-04  2.432822E-09
        69 -2.106563E-01  1.391422E-02  2.347841E-09
        70 -2.106564E-01  2.016837E-02  2.288419E-09
        71 -4.256250E-01 -4.256250E-01  1.723580E-17
        72 -4.256250E-01 -4.256250E-01  1.166366E-17

 stresses (elem, integ.pnt.,sxx,syy,szz,sxy,sxz,syz) for set EALL and time  0.1418750E-01

         1   1 -3.409206E-09 -3.409206E-09 -8.806574E-19  7.896481E-19 -1.201897E-19 -9.527104E-20
         1   2 -3.409206E-09 -3.409206E-09  6.780184E-19  1.719612E-18 -3.355878E-19 -1.427165E-19
         1   3 -3.409206E-09 -3.409206E-09  4.778238E-19  2.017043E-18 -8.973396E-20 -3.409711E-19
         1   4 -3.409206E-09 -3.409206E-09  2.128459E-18  2.947007E-18 -2.587086E-19 -5.548231E-19
         1   5 -3.409206E-09 -3.409206E-09 -1.848964E-18  7.281644E-19 -2.331560E-19 -1.098563E-19
         1   6 -3.409206E-09 -3.409206E-09 -6.397411E-19  1.723121E-18 -4.485541E-19 -1.205188E-19
         1   7 -3.409206E-09 -3.409206E-09 -3.929931E-19  1.722590E-18 -1.659170E-19 -3.555562E-19
         1   8 -3.409206E-09 -3.409206E-09  9.081877E-19  2.717547E-18 -3.348917E-19 -5.326253E-19
         2   1 -3.438172E-09  1.092841E-07  1.225899E-11  7.650262E-11 -8.757243E-12  1.467686E-17
         2   2 -3.487710E-09  1.091435E-07 -1.225905E-11  7.650298E-11 -8.757460E-12  1.454663E-17
         2   3 -3.438171E-09  1.092841E-07  1.225907E-11  3.096720E-11 -8.757231E-12  2.364202E-16
         2   4 -3.487709E-09  1.091435E-07 -1.225897E-11  3.096756E-11 -8.757461E-12  2.354168E-16
         2   5 -3.438173E-09  1.092841E-07  1.225898E-11  7.650263E-11  8.756792E-12 -1.669685E-16
         2   6 -3.487711E-09  1.091435E-07 -1.225907E-11  7.650299E-11  8.756571E-12 -1.665814E-16
         2   7 -3.438172E-09  1.092841E-07  1.225906E-11  3.096721E-11  8.756800E-12  5.477480E-17
         2   8 -3.487710E-09  1.091435E-07 -1.225898E-11  3.096756E-11  8.756572E-12  5.428876E-17
         3   1  1.391352E-08 -2.327163E-06  7.763728E-09  1.264981E-08 -5.537647E-09  1.227579E-12
         3   2 -1.741217E-08 -2.416078E-06 -7.740907E-09  1.262783E-08 -5.537091E-09  1.227585E-12
         3   3  1.384178E-08 -2.327191E-06  7.742863E-09 -1.614451E-08 -5.537647E-09 -2.605004E-13
         3   4 -1.748391E-08 -2.416105E-06 -7.761772E-09 -1.616649E-08 -5.537091E-09 -2.604917E-13
         3   5  1.391312E-08 -2.327169E-06  7.761772E-09  1.264981E-08  5.537091E-09  6.069469E-12
         3   6 -1.741257E-08 -2.416084E-06 -7.742863E-09  1.262783E-08  5.537648E-09  6.069487E-12
         3   7  1.384138E-08 -2.327197E-06  7.740907E-09 -1.614451E-08  5.537091E-09  4.581389E-12
         3   8 -1.748431E-08 -2.416111E-06 -7.763728E-09 -1.616649E-08  5.537648E-09  4.581410E-12
         4   1  1.092841E-07 -3.438172E-09  1.225899E-11  7.650263E-11  1.474691E-17 -8.757237E-12
         4   2  1.092841E-07 -3.438171E-09  1.225907E-11  3.096721E-11  2.361606E-16 -8.757233E-12
         4   3  1.091435E-07 -3.487710E-09 -1.225906E-11  7.650298E-11  1.443142E-17 -8.757453E-12
         4   4  1.091435E-07 -3.487709E-09 -1.225897E-11  3.096756E-11  2.359969E-16 -8.757460E-12
         4   5  1.092841E-07 -3.438173E-09  1.225897E-11  7.650263E-11 -1.663775E-16  8.756804E-12
         4   6  1.092841E-07 -3.438172E-09  1.225905E-11  3.096721E-11  5.503623E-17  8.756807E-12
         4   7  1.091435E-07 -3.487711E-09 -1.225907E-11  7.650298E-11 -1.677067E-16  8.756574E-12
         4   8  1.091435E-07 -3.487710E-09 -1.225900E-11  3.096756E-11  5.385878E-17  8.756570E-12
         5   1  7.915387E-08  7.915387E-08 -7.975708E-09  1.908527E-09  2.848467E-09  2.848466E-09
         5   2  9.526805E-08  1.248921E-07  1.618353E-16  1.672056E-08  2.848466E-09  2.848466E-09
         5   3  1.248921E-07  9.526805E-08  3.580711E-16  1.672056E-08  2.848466E-09  2.848466E-09
         5   4  1.410063E-07  1.410063E-07  7.975709E-09  3.153258E-08  2.848467E-09  2.848466E-09
         5   5  7.915387E-08  7.915387E-08 -7.975708E-09  1.908527E-09 -2.848467E-09 -2.848467E-09
         5   6  9.526805E-08  1.248921E-07  1.105271E-16  1.672056E-08 -2.848467E-09 -2.848467E-09
         5   7  1.248921E-07  9.526805E-08  4.606949E-16  1.672056E-08 -2.848467E-09 -2.848468E-09
         5   8  1.410063E-07  1.410063E-07  7.975709E-09  3.153258E-08 -2.848467E-09 -2.848467E-09
         6   1  3.302186E-08 -2.379716E-06 -3.769568E-09  2.744963E-08 -6.825401E-11  2.770978E-09
         6   2  3.263590E-08 -2.380813E-06 -3.960778E-09  4.185871E-08 -6.825401E-11  2.770979E-09
         6   3  7.751588E-08 -2.364040E-06  3.989176E-09  2.709416E-08 -6.825518E-11  2.770988E-09
         6   4  7.712992E-08 -2.365137E-06  3.797972E-09  4.150325E-08 -6.825504E-11  2.770982E-09
         6   5  3.302189E-08 -2.379716E-06 -3.769546E-09  2.744963E-08  6.825534E-11 -2.770985E-09
         6   6  3.263591E-08 -2.380813E-06 -3.960772E-09  4.185872E-08  6.825519E-11 -2.770986E-09
         6   7  7.751590E-08 -2.364040E-06  3.989198E-09  2.709416E-08  6.825502E-11 -2.770978E-09
         6   8  7.712992E-08 -2.365137E-06  3.797971E-09  4.150325E-08  6.825522E-11 -2.770979E-09
         7   1 -2.327163E-06  1.391352E-08  7.763728E-09  1.264981E-08  1.227579E-12 -5.537647E-09
         7   2 -2.327191E-06  1.384178E-08  7.742863E-09 -1.614451E-08 -2.605009E-13 -5.537647E-09
         7   3 -2.416078E-06 -1.741217E-08 -7.740907E-09  1.262783E-08  1.227585E-12 -5.537091E-09
         7   4 -2.416105E-06 -1.748391E-08 -7.761772E-09 -1.616649E-08 -2.604920E-13 -5.537091E-09
         7   5 -2.327169E-06  1.391312E-08  7.761772E-09  1.264981E-08  6.069468E-12  5.537091E-09
         7   6 -2.327197E-06  1.384138E-08  7.740907E-09 -1.614451E-08  4.581388E-12  5.537091E-09
         7   7 -2.416084E-06 -1.741257E-08 -7.742863E-09  1.262783E-08  6.069486E-12  5.537648E-09
         7   8 -2.416111E-06 -1.748431E-08 -7.763728E-09 -1.616649E-08  4.581409E-12  5.537648E-09
         8   1 -2.379716E-06  3.302187E-08 -3.769561E-09  2.744962E-08  2.770977E-09 -6.825513E-11
         8   2 -2.364040E-06  7.751589E-08  3.989186E-09  2.709416E-08  2.770982E-09 -6.825448E-11
         8   3 -2.380813E-06  3.263590E-08 -3.960774E-09  4.185871E-08  2.770977E-09 -6.825517E-11
         8   4 -2.365137E-06  7.712992E-08  3.797972E-09  4.150324E-08  2.770980E-09 -6.825431E-11
         8   5 -2.379716E-06  3.302188E-08 -3.769552E-09  2.744962E-08 -2.770988E-09  6.825507E-11
         8   6 -2.364040E-06  7.751590E-08  3.989194E-09  2.709417E-08 -2.770981E-09  6.825505E-11
         8   7 -2.380813E-06  3.263592E-08 -3.960756E-09  4.185871E-08 -2.770985E-09  6.825520E-11
         8   8 -2.365137E-06  7.712994E-08  3.797988E-09  4.150325E-08 -2.770981E-09  6.825518E-11
         9   1 -7.668767E-16 -7.668767E-16 -1.789379E-15  3.316406E-34  3.836850E-15  4.170734E-15
         9   2  2.493711E-15  4.682966E-15  3.629405E-15  1.094627E-15  7.668045E-15  7.457880E-15
         9   3  1.829116E-15  1.829116E-15  4.267938E-15  9.793198E-38  8.919058E-18  8.868527E-16
         9   4 -3.891569E-15 -1.155396E-14 -1.417937E-15 -3.831195E-15 -1.085708E-15 -7.518237E-16
         9   5 -7.668767E-16 -7.668767E-16 -1.789379E-15  1.028623E-33 -5.598685E-15 -4.352611E-15
         9   6  8.517705E-16  8.517705E-16  1.987464E-15  2.375706E-34 -1.767490E-15 -2.551835E-15
         9   7 -1.130641E-14 -2.882045E-14 -8.867589E-15 -8.757018E-15  4.411795E-15  7.688288E-15
         9   8 -4.712539E-15 -1.346956E-14 -2.238907E-15 -4.378509E-15 -1.061341E-15  1.847330E-16

 strains (elem, integ.pnt.,exx,eyy,ezz,exy,exz,eyz) forset EALL and time  0.1418750E-01

         1   1 -1.136402E-14 -1.136402E-14  9.740590E-15  4.888298E-24 -7.440315E-25 -5.897731E-25
         1   2 -1.136402E-14 -1.136402E-14  9.740590E-15  1.064522E-23 -2.077449E-24 -8.834831E-25
         1   3 -1.136402E-14 -1.136402E-14  9.740590E-15  1.248645E-23 -5.554959E-25 -2.110773E-24
         1   4 -1.136402E-14 -1.136402E-14  9.740590E-15  1.824338E-23 -1.601530E-24 -3.434619E-24
         1   5 -1.136402E-14 -1.136402E-14  9.740590E-15  4.507685E-24 -1.443346E-24 -6.800630E-25
         1   6 -1.136402E-14 -1.136402E-14  9.740590E-15  1.066694E-23 -2.776764E-24 -7.460685E-25
         1   7 -1.136402E-14 -1.136402E-14  9.740590E-15  1.066365E-23 -1.027105E-24 -2.201062E-24
         1   8 -1.136402E-14 -1.136402E-14  9.740590E-15  1.682291E-23 -2.073139E-24 -3.297204E-24
         2   1 -1.725099E-13  5.252947E-13 -1.511501E-13  4.735876E-16 -5.421150E-17  9.085677E-23
         2   2 -1.725099E-13  5.247309E-13 -1.509952E-13  4.735899E-16 -5.421285E-17  9.005056E-23
         2   3 -1.725099E-13  5.252947E-13 -1.511501E-13  1.917017E-16 -5.421143E-17  1.463553E-21
         2   4 -1.725099E-13  5.247309E-13 -1.509952E-13  1.917040E-16 -5.421285E-17  1.457342E-21
         2   5 -1.725099E-13  5.252947E-13 -1.511501E-13  4.735877E-16  5.420871E-17 -1.033615E-21
         2   6 -1.725099E-13  5.247309E-13 -1.509952E-13  4.735899E-16  5.420734E-17 -1.031218E-21
         2   7 -1.725099E-13  5.252947E-13 -1.511501E-13  1.917018E-16  5.420876E-17  3.390821E-22
         2   8 -1.725099E-13  5.247309E-13 -1.509952E-13  1.917039E-16  5.420735E-17  3.360733E-22
         3   1  3.379683E-12 -1.111270E-11  3.341613E-12  7.830836E-14 -3.428067E-14  7.599301E-18
         3   2  3.379683E-12 -1.146920E-11  3.439552E-12  7.817229E-14 -3.427723E-14  7.599336E-18
         3   3  3.379411E-12 -1.111270E-11  3.341655E-12 -9.994220E-14 -3.428067E-14 -1.612622E-18
         3   4  3.379411E-12 -1.146920E-11  3.439595E-12 -1.000783E-13 -3.427723E-14 -1.612567E-18
         3   5  3.379692E-12 -1.111272E-11  3.341613E-12  7.830836E-14  3.427723E-14  3.757290E-17
         3   6  3.379692E-12 -1.146922E-11  3.439552E-12  7.817229E-14  3.428068E-14  3.757301E-17
         3   7  3.379420E-12 -1.111272E-11  3.341655E-12 -9.994220E-14  3.427723E-14  2.836098E-17
         3   8  3.379420E-12 -1.146922E-11  3.439595E-12 -1.000783E-13  3.428068E-14  2.836111E-17
         4   1  5.252947E-13 -1.725099E-13 -1.511501E-13  4.735877E-16  9.129040E-23 -5.421147E-17
         4   2  5.252947E-13 -1.725099E-13 -1.511501E-13  1.917018E-16  1.461947E-21 -5.421145E-17
         4   3  5.247309E-13 -1.725099E-13 -1.509952E-13  4.735899E-16  8.933735E-23 -5.421281E-17
         4   4  5.247309E-13 -1.725099E-13 -1.509952E-13  1.917039E-16  1.460933E-21 -5.421285E-17
         4   5  5.252947E-13 -1.725099E-13 -1.511501E-13  4.735877E-16 -1.029956E-21  5.420878E-17
         4   6  5.252947E-13 -1.725099E-13 -1.511501E-13  1.917018E-16  3.407005E-22  5.420881E-17
         4   7  5.247309E-13 -1.725099E-13 -1.509952E-13  4.735899E-16 -1.038184E-21  5.420736E-17
         4   8  5.247309E-13 -1.725099E-13 -1.509952E-13  1.917039E-16  3.334115E-22  5.420734E-17
         5   1  2.752401E-13  2.752401E-13 -2.641335E-13  1.181469E-14  1.763336E-14  1.763336E-14
         5   2  2.752401E-13  4.586271E-13 -3.145145E-13  1.035082E-13  1.763336E-14  1.763336E-14
         5   3  4.586271E-13  2.752401E-13 -3.145145E-13  1.035082E-13  1.763336E-14  1.763336E-14
         5   4  4.586271E-13  4.586271E-13 -3.648956E-13  1.952017E-13  1.763336E-14  1.763336E-14
         5   5  2.752401E-13  2.752401E-13 -2.641335E-13  1.181469E-14 -1.763337E-14 -1.763337E-14
         5   6  2.752401E-13  4.586271E-13 -3.145145E-13  1.035082E-13 -1.763337E-14 -1.763337E-14
         5   7  4.586271E-13  2.752401E-13 -3.145145E-13  1.035082E-13 -1.763337E-14 -1.763337E-14
         5   8  4.586271E-13  4.586271E-13 -3.648956E-13  1.952017E-13 -1.763337E-14 -1.763337E-14
         6   1  3.562222E-12 -1.137377E-11  3.334470E-12  1.701131E-13 -4.227394E-16  1.715367E-14
         6   2  3.562222E-12 -1.137816E-11  3.335678E-12  2.593122E-13 -4.227394E-16  1.715367E-14
         6   3  3.740621E-12 -1.137377E-11  3.285459E-12  1.679148E-13 -4.227466E-16  1.715373E-14
         6   4  3.740621E-12 -1.137816E-11  3.286667E-12  2.571140E-13 -4.227458E-16  1.715369E-14
         6   5  3.562222E-12 -1.137377E-11  3.334470E-12  1.701131E-13  4.227476E-16 -1.715371E-14
         6   6  3.562222E-12 -1.137816E-11  3.335678E-12  2.593123E-13  4.227467E-16 -1.715372E-14
         6   7  3.740621E-12 -1.137377E-11  3.285459E-12  1.679148E-13  4.227456E-16 -1.715367E-14
         6   8  3.740621E-12 -1.137816E-11  3.286667E-12  2.571140E-13  4.227469E-16 -1.715368E-14
         7   1 -1.111270E-11  3.379683E-12  3.341613E-12  7.830836E-14  7.599300E-18 -3.428067E-14
         7   2 -1.111270E-11  3.379411E-12  3.341655E-12 -9.994220E-14 -1.612625E-18 -3.428067E-14
         7   3 -1.146920E-11  3.379683E-12  3.439552E-12  7.817229E-14  7.599335E-18 -3.427723E-14
         7   4 -1.146920E-11  3.379411E-12  3.439595E-12 -1.000783E-13 -1.612570E-18 -3.427723E-14
         7   5 -1.111272E-11  3.379692E-12  3.341613E-12  7.830836E-14  3.757290E-17  3.427723E-14
         7   6 -1.111272E-11  3.379420E-12  3.341655E-12 -9.994220E-14  2.836097E-17  3.427723E-14
         7   7 -1.146922E-11  3.379692E-12  3.439552E-12  7.817229E-14  3.757301E-17  3.428068E-14
         7   8 -1.146922E-11  3.379420E-12  3.439595E-12 -1.000783E-13  2.836110E-17  3.428068E-14
         8   1 -1.137377E-11  3.562222E-12  3.334470E-12  1.701131E-13  1.715366E-14 -4.227463E-16
         8   2 -1.137377E-11  3.740621E-12  3.285459E-12  1.679148E-13  1.715369E-14 -4.227423E-16
         8   3 -1.137816E-11  3.562222E-12  3.335678E-12  2.593122E-13  1.715366E-14 -4.227465E-16
         8   4 -1.137816E-11  3.740621E-12  3.286667E-12  2.571140E-13  1.715368E-14 -4.227412E-16
         8   5 -1.137377E-11  3.562222E-12  3.334470E-12  1.701131E-13 -1.715373E-14  4.227459E-16
         8   6 -1.137377E-11  3.740621E-12  3.285459E-12  1.679148E-13 -1.715368E-14  4.227458E-16
         8   7 -1.137816E-11  3.562222E-12  3.335678E-12  2.593122E-13 -1.715371E-14  4.227468E-16
         8   8 -1.137816E-11  3.740621E-12  3.286667E-12  2.571140E-13 -1.715369E-14  4.227467E-16
         9   1  2.343573E-41  6.028109E-41 -6.329776E-21  3.758632E-41  2.375193E-20  2.581883E-20
         9   2  2.343573E-41  1.355253E-20  7.030487E-21  6.776264E-21  4.746885E-20  4.616783E-20
         9   3  6.096998E-45  6.028109E-41  1.509747E-20  6.062456E-43  5.521322E-23  5.490041E-21
         9   4  6.096998E-45 -4.743385E-20  1.531296E-20 -2.371692E-20 -6.721050E-21 -4.654147E-21
         9   5  3.264176E-40  8.396073E-40 -6.329776E-21  5.235099E-40 -3.465852E-20 -2.694473E-20
         9   6  3.264176E-40  1.254480E-40  7.030487E-21  2.023572E-40 -1.094160E-20 -1.579707E-20
         9   7  8.492023E-44 -1.084202E-19  1.509747E-20 -5.421011E-20  2.731111E-20  4.759416E-20
         9   8  8.492023E-44 -5.421011E-20  1.531296E-20 -2.710505E-20 -6.570205E-21  1.143585E-21

 displacements (vx,vy,vz) for set NALL and time  0.2178125E-01

         1  0.000000E+00  0.000000E+00  0.000000E+00
         2 -2.145803E-11  0.000000E+00  0.000000E+00
         3 -1.126547E-03  0.000000E+00  0.000000E+00
         4 -1.126547E-03  0.000000E+00  0.000000E+00
         5 -2.309211E-03  0.000000E+00  0.000000E+00
         6 -2.309208E-03  0.000000E+00  0.000000E+00
         7  0.000000E+00 -2.145803E-11  0.000000E+00
         8 -2.145803E-11 -2.145803E-11  0.000000E+00
         9 -1.126547E-03  6.414722E-10  0.000000E+00
        10 -1.126547E-03  6.385586E-10  0.000000E+00
        11 -2.309210E-03 -8.156166E-09  0.000000E+00
        12 -2.309208E-03 -8.873840E-09  0.000000E+00
        13  0.000000E+00 -1.126547E-03  0.000000E+00
        14  6.414722E-10 -1.126547E-03  0.000000E+00
        15  2.314486E-02  2.314486E-02  0.000000E+00
        16  2.314486E-02  2.314486E-02  0.000000E+00
        17  3.427870E-02 -3.056793E-01  0.000000E+00
        18  3.427848E-02 -3.206848E-01  0.000000E+00
        19  0.000000E+00 -1.126547E-03  0.000000E+00
        20  6.385586E-10 -1.126547E-03  0.000000E+00
        21  2.314486E-02  2.314486E-02  0.000000E+00
        22  2.314487E-02  2.314487E-02  0.000000E+00
        23  4.928422E-02 -3.056795E-01  0.000000E+00
        24  4.928400E-02 -3.206850E-01  0.000000E+00
        25  0.000000E+00 -2.309211E-03  0.000000E+00
        26 -8.156166E-09 -2.309210E-03  0.000000E+00
        27 -3.056793E-01  3.427870E-02  0.000000E+00
        28 -3.056795E-01  4.928422E-02  0.000000E+00
        29 -6.534375E-01 -6.534375E-01  0.000000E+00
        30 -6.534375E-01 -6.534375E-01  0.000000E+00
        31  0.000000E+00 -2.309208E-03  0.000000E+00
        32 -8.873840E-09 -2.309208E-03  0.000000E+00
        33 -3.206848E-01  3.427848E-02  0.000000E+00
        34 -3.206850E-01  4.928400E-02  0.000000E+00
        35 -6.534375E-01 -6.534375E-01  0.000000E+00
        36 -6.534375E-01 -6.534375E-01  0.000000E+00
        37  0.000000E+00  0.000000E+00  2.574964E-11
        38 -2.145803E-11  0.000000E+00  2.574964E-11
        39 -1.126547E-03  0.000000E+00 -2.522126E-10
        40 -1.126547E-03  0.000000E+00 -2.510920E-10
        41 -2.309211E-03  0.000000E+00  3.447159E-09
        42 -2.309208E-03  0.000000E+00  3.723187E-09
        43  0.000000E+00 -2.145803E-11  2.574964E-11
        44 -2.145803E-11 -2.145803E-11  2.574964E-11
        45 -1.126547E-03  6.414722E-10 -2.522126E-10
        46 -1.126547E-03  6.385586E-10 -2.510920E-10
        47 -2.309211E-03 -8.156304E-09  3.447479E-09
        48 -2.309208E-03 -8.873978E-09  3.723508E-09
        49  0.000000E+00 -1.126547E-03 -2.522126E-10
        50  6.414722E-10 -1.126547E-03 -2.522126E-10
        51  2.314486E-02  2.314486E-02 -3.917760E-10
        52  2.314487E-02  2.314486E-02 -5.365396E-10
        53  3.427870E-02 -3.056793E-01  3.513386E-09
        54  3.427848E-02 -3.206848E-01  3.519094E-09
        55  0.000000E+00 -1.126547E-03 -2.510920E-10
        56  6.385586E-10 -1.126547E-03 -2.510920E-10
        57  2.314486E-02  2.314487E-02 -5.365396E-10
        58  2.314487E-02  2.314487E-02 -6.813033E-10
        59  4.928422E-02 -3.056795E-01  3.375500E-09
        60  4.928400E-02 -3.206850E-01  3.381209E-09
        61  0.000000E+00 -2.309211E-03  3.447159E-09
        62 -8.156304E-09 -2.309211E-03  3.447479E-09
        63 -3.056793E-01  3.427870E-02  3.513386E-09
        64 -3.056795E-01  4.928422E-02  3.375500E-09
        65 -6.534375E-01 -6.534375E-01  9.914921E-18
        66 -6.534375E-01 -6.534375E-01  2.902584E-17
        67  0.000000E+00 -2.309208E-03  3.723187E-09
        68 -8.873978E-09 -2.309208E-03  3.723508E-09
        69 -3.206848E-01  3.427848E-02  3.519094E-09
        70 -3.206850E-01  4.928400E-02  3.381209E-09
        71 -6.534375E-01 -6.534375E-01  3.282945E-17
        72 -6.534375E-01 -6.534375E-01 -1.395122E-17

 stresses (elem, integ.pnt.,sxx,syy,szz,sxy,sxz,syz) for set EALL and time  0.2178125E-01

         1   1 -1.287482E-08 -1.287482E-08 -5.078283E-18  4.623522E-18 -6.604483E-19 -6.604474E-19
         1   2 -1.287482E-08 -1.287482E-08  3.736616E-18  1.093937E-17 -2.201277E-18 -6.604484E-19
         1   3 -1.287482E-08 -1.287482E-08  3.736611E-18  1.093937E-17 -6.604478E-19 -2.201274E-18
         1   4 -1.287482E-08 -1.287482E-08  1.255151E-17  1.725522E-17 -2.201274E-18 -2.201276E-18
         1   5 -1.287482E-08 -1.287482E-08 -1.154976E-17  4.623522E-18 -9.239979E-19 -9.239966E-19
         1   6 -1.287482E-08 -1.287482E-08 -2.734864E-18  1.093937E-17 -2.464827E-18 -9.239990E-19
         1   7 -1.287482E-08 -1.287482E-08 -2.734859E-18  1.093937E-17 -9.239980E-19 -2.464823E-18
         1   8 -1.287482E-08 -1.287482E-08  6.080036E-18  1.725522E-17 -2.464824E-18 -2.464827E-18
         2   1 -1.304768E-08  2.652674E-07  7.315867E-11  4.565382E-10 -5.225808E-11  3.734892E-17
         2   2 -1.334330E-08  2.644283E-07 -7.315882E-11  4.565390E-10 -5.225861E-11  3.637686E-17
         2   3 -1.304767E-08  2.652674E-07  7.315881E-11  1.848014E-10 -5.225806E-11  5.580756E-16
         2   4 -1.334330E-08  2.644283E-07 -7.315868E-11  1.848022E-10 -5.225861E-11  5.548589E-16
         2   5 -1.304768E-08  2.652674E-07  7.315866E-11  4.565382E-10  5.225705E-11 -3.813387E-16
         2   6 -1.334330E-08  2.644283E-07 -7.315884E-11  4.565391E-10  5.225654E-11 -3.827218E-16
         2   7 -1.304767E-08  2.652674E-07  7.315880E-11  1.848014E-10  5.225707E-11  1.393881E-16
         2   8 -1.334330E-08  2.644283E-07 -7.315869E-11  1.848022E-10  5.225655E-11  1.357603E-16
         3   1  2.970637E-08 -3.474961E-06  1.809099E-08  2.677645E-08 -1.287350E-08  7.583868E-12
         3   2 -4.311115E-08 -3.681645E-06 -1.795001E-08  2.664066E-08 -1.287006E-08  7.583886E-12
         3   3  2.926316E-08 -3.475133E-06  1.796209E-08 -4.015682E-08 -1.287350E-08 -1.610236E-12
         3   4 -4.355436E-08 -3.681817E-06 -1.807891E-08 -4.029261E-08 -1.287006E-08 -1.610204E-12
         3   5  2.970392E-08 -3.474999E-06  1.807891E-08  2.677645E-08  1.287007E-08  3.749748E-11
         3   6 -4.311361E-08 -3.681683E-06 -1.796209E-08  2.664066E-08  1.287350E-08  3.749754E-11
         3   7  2.926070E-08 -3.475171E-06  1.795001E-08 -4.015682E-08  1.287007E-08  2.830338E-11
         3   8 -4.355682E-08 -3.681855E-06 -1.809099E-08 -4.029261E-08  1.287350E-08  2.830345E-11
         4   1  2.652674E-07 -1.304768E-08  7.315866E-11  4.565382E-10  3.653250E-17 -5.225808E-11
         4   2  2.652674E-07 -1.304767E-08  7.315883E-11  1.848014E-10  5.591097E-16 -5.225806E-11
         4   3  2.644283E-07 -1.334330E-08 -7.315884E-11  4.565391E-10  3.676994E-17 -5.225857E-11
         4   4  2.644283E-07 -1.334330E-08 -7.315865E-11  1.848022E-10  5.521250E-16 -5.225859E-11
         4   5  2.652674E-07 -1.304768E-08  7.315868E-11  4.565383E-10 -3.862361E-16  5.225707E-11
         4   6  2.652674E-07 -1.304767E-08  7.315881E-11  1.848014E-10  1.363411E-16  5.225708E-11
         4   7  2.644283E-07 -1.334330E-08 -7.315884E-11  4.565391E-10 -3.781278E-16  5.225653E-11
         4   8  2.644283E-07 -1.334330E-08 -7.315869E-11  1.848022E-10  1.372273E-16  5.225654E-11
         5   1  1.949772E-07  1.949772E-07 -1.890179E-08  3.540679E-09  6.750635E-09  6.750636E-09
         5   2  2.331665E-07  3.033731E-07  2.810524E-16  3.864399E-08  6.750635E-09  6.750636E-09
         5   3  3.033731E-07  2.331665E-07  1.032986E-15  3.864399E-08  6.750636E-09  6.750636E-09
         5   4  3.415625E-07  3.415625E-07  1.890179E-08  7.374731E-08  6.750636E-09  6.750636E-09
         5   5  1.949772E-07  1.949772E-07 -1.890179E-08  3.540681E-09 -6.750638E-09 -6.750638E-09
         5   6  2.331665E-07  3.033731E-07 -3.859723E-16  3.864399E-08 -6.750639E-09 -6.750637E-09
         5   7  3.033731E-07  2.331665E-07  2.120289E-16  3.864399E-08 -6.750637E-09 -6.750638E-09
         5   8  3.415625E-07  3.415625E-07  1.890179E-08  7.374731E-08 -6.750638E-09 -6.750637E-09
         6   1  8.334357E-08 -3.597561E-06 -8.629136E-09  6.487648E-08 -2.660076E-10  6.429909E-09
         6   2  8.183962E-08 -3.601837E-06 -9.374517E-09  9.831190E-08 -2.660071E-10  6.429903E-09
         6   3  1.865894E-07 -3.561186E-06  9.374596E-09  6.349022E-08 -2.660077E-10  6.429907E-09
         6   4  1.850854E-07 -3.565462E-06  8.629233E-09  9.692564E-08 -2.660076E-10  6.429908E-09
         6   5  8.334355E-08 -3.597561E-06 -8.629152E-09  6.487648E-08  2.660105E-10 -6.429914E-09
         6   6  8.183962E-08 -3.601837E-06 -9.374519E-09  9.831190E-08  2.660096E-10 -6.429910E-09
         6   7  1.865894E-07 -3.561186E-06  9.374582E-09  6.349022E-08  2.660093E-10 -6.429914E-09
         6   8  1.850854E-07 -3.565462E-06  8.629210E-09  9.692564E-08  2.660117E-10 -6.429921E-09
         7   1 -3.474961E-06  2.970637E-08  1.809099E-08  2.677645E-08  7.583867E-12 -1.287350E-08
         7   2 -3.475133E-06  2.926316E-08  1.796209E-08 -4.015682E-08 -1.610235E-12 -1.287350E-08
         7   3 -3.681645E-06 -4.311115E-08 -1.795001E-08  2.664066E-08  7.583887E-12 -1.287006E-08
         7   4 -3.681817E-06 -4.355436E-08 -1.807891E-08 -4.029261E-08 -1.610205E-12 -1.287006E-08
         7   5 -3.474999E-06  2.970392E-08  1.807891E-08  2.677645E-08  3.749748E-11  1.287006E-08
         7   6 -3.475171E-06  2.926070E-08  1.795000E-08 -4.015682E-08  2.830338E-11  1.287007E-08
         7   7 -3.681683E-06 -4.311361E-08 -1.796209E-08  2.664066E-08  3.749754E-11  1.287350E-08
         7   8 -3.681855E-06 -4.355682E-08 -1.809099E-08 -4.029261E-08  2.830345E-11  1.287350E-08
         8   1 -3.597561E-06  8.334357E-08 -8.629139E-09  6.487649E-08  6.429912E-09 -2.660071E-10
         8   2 -3.561186E-06  1.865894E-07  9.374597E-09  6.349023E-08  6.429912E-09 -2.660087E-10
         8   3 -3.601837E-06  8.183962E-08 -9.374514E-09  9.831191E-08  6.429912E-09 -2.660094E-10
         8   4 -3.565462E-06  1.850854E-07  8.629222E-09  9.692565E-08  6.429910E-09 -2.660098E-10
         8   5 -3.597561E-06  8.334355E-08 -8.629151E-09  6.487648E-08 -6.429915E-09  2.660104E-10
         8   6 -3.561186E-06  1.865894E-07  9.374586E-09  6.349022E-08 -6.429915E-09  2.660089E-10
         8   7 -3.601837E-06  8.183962E-08 -9.374516E-09  9.831190E-08 -6.429913E-09  2.660089E-10
         8   8 -3.565462E-06  1.850854E-07  8.629221E-09  9.692565E-08 -6.429913E-09  2.660084E-10
         9   1 -1.367556E-14 -3.556810E-14 -1.001710E-14 -1.094627E-14  6.744811E-15  6.874655E-15
         9   2 -4.126630E-15 -1.397828E-14  2.228406E-16 -4.925822E-15  7.839439E-15  6.670621E-15
         9   3 -1.277723E-14 -3.466977E-14 -7.920983E-15 -1.094627E-14  7.635405E-15  9.063910E-15
         9   4  1.595744E-14  3.675535E-14  1.643610E-14  1.039896E-14  5.446150E-15  5.575994E-15
         9   5 -1.039168E-14 -2.790571E-14 -6.733215E-15 -8.757018E-15 -8.096264E-15 -7.611680E-15
         9   6 -1.315730E-14 -3.504985E-14 -8.807834E-15 -1.094627E-14  2.850008E-15 -1.512078E-15
         9   7 -9.493344E-15 -2.700738E-14 -4.637101E-15 -8.757018E-15 -4.185917E-15  1.145338E-15
         9   8  6.926763E-15  1.568378E-14  7.405429E-15  4.378509E-15 -6.375171E-15 -5.890587E-15

 strains (elem, integ.pnt.,exx,eyy,ezz,exy,exz,eyz) forset EALL and time  0.2178125E-01

         1   1 -4.291606E-14 -4.291606E-14  3.678520E-14  2.862180E-23 -4.088490E-24 -4.088484E-24
         1   2 -4.291606E-14 -4.291606E-14  3.678520E-14  6.771990E-23 -1.362695E-23 -4.088490E-24
         1   3 -4.291606E-14 -4.291606E-14  3.678520E-14  6.771992E-23 -4.088487E-24 -1.362693E-23
         1   4 -4.291606E-14 -4.291606E-14  3.678520E-14  1.068180E-22 -1.362693E-23 -1.362695E-23
         1   5 -4.291606E-14 -4.291606E-14  3.678520E-14  2.862180E-23 -5.719987E-24 -5.719979E-24
         1   6 -4.291606E-14 -4.291606E-14  3.678520E-14  6.771992E-23 -1.525845E-23 -5.719994E-24
         1   7 -4.291606E-14 -4.291606E-14  3.678520E-14  6.771990E-23 -5.719988E-24 -1.525843E-23
         1   8 -4.291606E-14 -4.291606E-14  3.678520E-14  1.068180E-22 -1.525844E-23 -1.525845E-23
         2   1 -4.411897E-13  1.281713E-12 -3.599655E-13  2.826189E-15 -3.235024E-16  2.312076E-22
         2   2 -4.411897E-13  1.278349E-12 -3.590412E-13  2.826194E-15 -3.235057E-16  2.251901E-22
         2   3 -4.411897E-13  1.281713E-12 -3.599655E-13  1.144008E-15 -3.235023E-16  3.454754E-21
         2   4 -4.411897E-13  1.278349E-12 -3.590412E-13  1.144013E-15 -3.235057E-16  3.434841E-21
         2   5 -4.411897E-13  1.281713E-12 -3.599655E-13  2.826189E-15  3.234961E-16 -2.360668E-21
         2   6 -4.411897E-13  1.278349E-12 -3.590412E-13  2.826194E-15  3.234929E-16 -2.369230E-21
         2   7 -4.411897E-13  1.281713E-12 -3.599655E-13  1.144008E-15  3.234962E-16  8.628784E-22
         2   8 -4.411897E-13  1.278349E-12 -3.590412E-13  1.144013E-15  3.234929E-16  8.404210E-22
         3   1  5.079845E-12 -1.661572E-11  5.007940E-12  1.657590E-13 -7.969311E-14  4.694775E-17
         3   2  5.079845E-12 -1.744441E-11  5.235604E-12  1.649184E-13 -7.967182E-14  4.694787E-17
         3   3  5.078164E-12 -1.661572E-11  5.008205E-12 -2.485899E-13 -7.969311E-14 -9.968126E-18
         3   4  5.078164E-12 -1.744441E-11  5.235869E-12 -2.494305E-13 -7.967182E-14 -9.967932E-18
         3   5  5.079904E-12 -1.661587E-11  5.007940E-12  1.657590E-13  7.967183E-14  2.321273E-16
         3   6  5.079904E-12 -1.744457E-11  5.235604E-12  1.649184E-13  7.969312E-14  2.321276E-16
         3   7  5.078223E-12 -1.661587E-11  5.008205E-12 -2.485899E-13  7.967183E-14  1.752114E-16
         3   8  5.078223E-12 -1.744457E-11  5.235869E-12 -2.494305E-13  7.969312E-14  1.752118E-16
         4   1  1.281713E-12 -4.411897E-13 -3.599655E-13  2.826189E-15  2.261536E-22 -3.235024E-16
         4   2  1.281713E-12 -4.411897E-13 -3.599655E-13  1.144008E-15  3.461155E-21 -3.235023E-16
         4   3  1.278349E-12 -4.411897E-13 -3.590412E-13  2.826194E-15  2.276234E-22 -3.235055E-16
         4   4  1.278349E-12 -4.411897E-13 -3.590412E-13  1.144013E-15  3.417917E-21 -3.235056E-16
         4   5  1.281713E-12 -4.411897E-13 -3.599655E-13  2.826189E-15 -2.390985E-21  3.234961E-16
         4   6  1.281713E-12 -4.411897E-13 -3.599655E-13  1.144009E-15  8.440166E-22  3.234962E-16
         4   7  1.278349E-12 -4.411897E-13 -3.590412E-13  2.826194E-15 -2.340791E-21  3.234928E-16
         4   8  1.278349E-12 -4.411897E-13 -3.590412E-13  1.144013E-15  8.495021E-22  3.234929E-16
         5   1  6.769265E-13  6.769265E-13 -6.470862E-13  2.191849E-14  4.178965E-14  4.178965E-14
         5   2  6.769265E-13  1.111539E-12 -7.664852E-13  2.392247E-13  4.178964E-14  4.178965E-14
         5   3  1.111539E-12  6.769265E-13 -7.664852E-13  2.392247E-13  4.178965E-14  4.178965E-14
         5   4  1.111539E-12  1.111539E-12 -8.858842E-13  4.565309E-13  4.178965E-14  4.178965E-14
         5   5  6.769265E-13  6.769265E-13 -6.470862E-13  2.191850E-14 -4.178966E-14 -4.178966E-14
         5   6  6.769265E-13  1.111539E-12 -7.664852E-13  2.392247E-13 -4.178967E-14 -4.178966E-14
         5   7  1.111539E-12  6.769265E-13 -7.664852E-13  2.392247E-13 -4.178966E-14 -4.178966E-14
         5   8  1.111539E-12  1.111539E-12 -8.858842E-13  4.565310E-13 -4.178966E-14 -4.178966E-14
         6   1  5.548550E-12 -1.723795E-11  4.979219E-12  4.023002E-13 -1.647908E-15  3.980415E-14
         6   2  5.548550E-12 -1.725509E-11  4.983928E-12  6.092819E-13 -1.647905E-15  3.980411E-14
         6   3  5.962513E-12 -1.723795E-11  4.865493E-12  3.937310E-13 -1.647909E-15  3.980414E-14
         6   4  5.962513E-12 -1.725509E-11  4.870201E-12  6.007127E-13 -1.647908E-15  3.980414E-14
         6   5  5.548550E-12 -1.723795E-11  4.979219E-12  4.023002E-13  1.647926E-15 -3.980418E-14
         6   6  5.548550E-12 -1.725509E-11  4.983928E-12  6.092819E-13  1.647921E-15 -3.980415E-14
         6   7  5.962513E-12 -1.723795E-11  4.865493E-12  3.937310E-13  1.647919E-15 -3.980418E-14
         6   8  5.962513E-12 -1.725509E-11  4.870201E-12  6.007127E-13  1.647933E-15 -3.980422E-14
         7   1 -1.661572E-11  5.079845E-12  5.007940E-12  1.657590E-13  4.694775E-17 -7.969311E-14
         7   2 -1.661572E-11  5.078164E-12  5.008205E-12 -2.485899E-13 -9.968120E-18 -7.969311E-14
         7   3 -1.744441E-11  5.079845E-12  5.235604E-12  1.649184E-13  4.694787E-17 -7.967182E-14
         7   4 -1.744441E-11  5.078164E-12  5.235869E-12 -2.494305E-13 -9.967935E-18 -7.967182E-14
         7   5 -1.661587E-11  5.079904E-12  5.007940E-12  1.657590E-13  2.321273E-16  7.967183E-14
         7   6 -1.661587E-11  5.078223E-12  5.008205E-12 -2.485899E-13  1.752114E-16  7.967183E-14
         7   7 -1.744457E-11  5.079904E-12  5.235604E-12  1.649184E-13  2.321276E-16  7.969312E-14
         7   8 -1.744457E-11  5.078223E-12  5.235869E-12 -2.494305E-13  1.752118E-16  7.969312E-14
         8   1 -1.723795E-11  5.548550E-12  4.979219E-12  4.023002E-13  3.980417E-14 -1.647905E-15
         8   2 -1.723795E-11  5.962513E-12  4.865493E-12  3.937310E-13  3.980417E-14 -1.647915E-15
         8   3 -1.725509E-11  5.548550E-12  4.983928E-12  6.092819E-13  3.980417E-14 -1.647920E-15
         8   4 -1.725509E-11  5.962513E-12  4.870201E-12  6.007127E-13  3.980415E-14 -1.647922E-15
         8   5 -1.723795E-11  5.548550E-12  4.979219E-12  4.023002E-13 -3.980419E-14  1.647926E-15
         8   6 -1.723795E-11  5.962513E-12  4.865493E-12  3.937310E-13 -3.980418E-14  1.647916E-15
         8   7 -1.725509E-11  5.548550E-12  4.983928E-12  6.092819E-13 -3.980417E-14  1.647916E-15
         8   8 -1.725509E-11  5.962513E-12  4.870201E-12  6.007127E-13 -3.980417E-14  1.647913E-15
         9   1  2.402490E-42 -1.355253E-19  2.264763E-20 -6.776264E-20  4.175359E-20  4.255739E-20
         9   2  2.402490E-42 -6.098637E-20  2.692530E-20 -3.049319E-20  4.852986E-20  4.129432E-20
         9   3  9.641934E-41 -1.355253E-19  3.006246E-20 -6.776264E-20  4.726679E-20  5.610992E-20
         9   4  9.641934E-41  1.287490E-19  2.963172E-21  6.437450E-20  3.371426E-20  3.451806E-20
         9   5  3.346237E-41 -1.084202E-19  2.264763E-20 -5.421011E-20 -5.011973E-20 -4.711992E-20
         9   6  3.346237E-41 -1.355253E-19  2.692530E-20 -6.776264E-20  1.764290E-20 -9.360482E-21
         9   7  1.342948E-39 -1.084202E-19  3.006246E-20 -5.421011E-20 -2.591282E-20  7.090185E-21
         9   8  1.342948E-39  5.421011E-20  2.963172E-21  2.710505E-20 -3.946534E-20 -3.646554E-20

 displacements (vx,vy,vz) for set NALL and time  0.3078125E-01

         1  0.000000E+00  0.000000E+00  0.000000E+00
         2 -6.323809E-11  0.000000E+00  0.000000E+00
         3 -3.320000E-03  0.000000E+00  0.000000E+00
         4 -3.320000E-03  0.000000E+00  0.000000E+00
         5 -6.882712E-03  0.000000E+00  0.000000E+00
         6 -6.882709E-03  0.000000E+00  0.000000E+00
         7  0.000000E+00 -6.323809E-11  0.000000E+00
         8 -6.323808E-11 -6.323808E-11  0.000000E+00
         9 -3.320000E-03  1.335438E-09  0.000000E+00
        10 -3.320000E-03  1.322837E-09  0.000000E+00
        11 -6.882712E-03 -1.102558E-08  0.000000E+00
        12 -6.882708E-03 -1.242772E-08  0.000000E+00
        13  0.000000E+00 -3.320000E-03  0.000000E+00
        14  1.335438E-09 -3.320000E-03  0.000000E+00
        15  4.768456E-02  4.768456E-02  0.000000E+00
        16  4.768456E-02  4.768456E-02  0.000000E+00
        17  7.210948E-02 -4.165756E-01  0.000000E+00
        18  7.210855E-02 -4.471462E-01  0.000000E+00
        19  0.000000E+00 -3.320000E-03  0.000000E+00
        20  1.322837E-09 -3.320000E-03  0.000000E+00
        21  4.768456E-02  4.768456E-02  0.000000E+00
        22  4.768456E-02  4.768456E-02  0.000000E+00
        23  1.026800E-01 -4.165766E-01  0.000000E+00
        24  1.026791E-01 -4.471471E-01  0.000000E+00
        25  0.000000E+00 -6.882712E-03  0.000000E+00
        26 -1.102558E-08 -6.882712E-03  0.000000E+00
        27 -4.165756E-01  7.210948E-02  0.000000E+00
        28 -4.165766E-01  1.026800E-01  0.000000E+00
        29 -9.234375E-01 -9.234375E-01  0.000000E+00
        30 -9.234375E-01 -9.234375E-01  0.000000E+00
        31  0.000000E+00 -6.882709E-03  0.000000E+00
        32 -1.242772E-08 -6.882708E-03  0.000000E+00
        33 -4.471462E-01  7.210855E-02  0.000000E+00
        34 -4.471471E-01  1.026791E-01  0.000000E+00
        35 -9.234375E-01 -9.234375E-01  0.000000E+00
        36 -9.234375E-01 -9.234375E-01  0.000000E+00
        37  0.000000E+00  0.000000E+00  7.588570E-11
        38 -6.323809E-11  0.000000E+00  7.588570E-11
        39 -3.320000E-03  0.000000E+00 -5.095325E-10
        40 -3.320000E-03  0.000000E+00 -5.046857E-10
        41 -6.882713E-03  0.000000E+00  4.682405E-09
        42 -6.882709E-03  0.000000E+00  5.221689E-09
        43  0.000000E+00 -6.323809E-11  7.588570E-11
        44 -6.323809E-11 -6.323809E-11  7.588570E-11
        45 -3.320000E-03  1.335439E-09 -5.095325E-10
        46 -3.320000E-03  1.322837E-09 -5.046857E-10
        47 -6.882712E-03 -1.102621E-08  4.683851E-09
        48 -6.882709E-03 -1.242834E-08  5.223135E-09
        49  0.000000E+00 -3.320000E-03 -5.095325E-10
        50  1.335439E-09 -3.320000E-03 -5.095325E-10
        51  4.768456E-02  4.768456E-02 -8.236725E-10
        52  4.768456E-02  4.768456E-02 -1.114247E-09
        53  7.210948E-02 -4.165756E-01  4.787160E-09
        54  7.210855E-02 -4.471462E-01  4.804811E-09
        55  0.000000E+00 -3.320000E-03 -5.046857E-10
        56  1.322837E-09 -3.320000E-03 -5.046857E-10
        57  4.768456E-02  4.768456E-02 -1.114247E-09
        58  4.768457E-02  4.768457E-02 -1.404821E-09
        59  1.026800E-01 -4.165766E-01  4.519251E-09
        60  1.026791E-01 -4.471471E-01  4.536902E-09
        61  0.000000E+00 -6.882713E-03  4.682405E-09
        62 -1.102621E-08 -6.882712E-03  4.683851E-09
        63 -4.165756E-01  7.210948E-02  4.787160E-09
        64 -4.165766E-01  1.026800E-01  4.519251E-09
        65 -9.234375E-01 -9.234375E-01 -5.952961E-17
        66 -9.234375E-01 -9.234375E-01  3.935436E-19
        67  0.000000E+00 -6.882709E-03  5.221689E-09
        68 -1.242834E-08 -6.882709E-03  5.223135E-09
        69 -4.471462E-01  7.210855E-02  4.804811E-09
        70 -4.471471E-01  1.026791E-01  4.536902E-09
        71 -9.234375E-01 -9.234375E-01 -1.264738E-17
        72 -9.234375E-01 -9.234375E-01  4.920607E-17

 stresses (elem, integ.pnt.,sxx,syy,szz,sxy,sxz,syz) for set EALL and time  0.3078125E-01

         1   1 -3.794285E-08 -3.794285E-08 -2.152078E-17  1.998300E-17 -2.777617E-18 -2.777615E-18
         1   2 -3.794285E-08 -3.794285E-08  1.706282E-17  4.728028E-17 -9.421280E-18 -2.777617E-18
         1   3 -3.794285E-08 -3.794285E-08  1.706282E-17  4.728028E-17 -2.777616E-18 -9.421280E-18
         1   4 -3.794285E-08 -3.794285E-08  5.564644E-17  7.457757E-17 -9.421276E-18 -9.421285E-18
         1   5 -3.794285E-08 -3.794285E-08 -4.942417E-17  1.998300E-17 -3.722542E-18 -3.722537E-18
         1   6 -3.794285E-08 -3.794285E-08 -1.084057E-17  4.728028E-17 -1.036621E-17 -3.722539E-18
         1   7 -3.794285E-08 -3.794285E-08 -1.084056E-17  4.728028E-17 -3.722542E-18 -1.036620E-17
         1   8 -3.794285E-08 -3.794285E-08  2.774305E-17  7.457757E-17 -1.036620E-17 -1.036621E-17
         2   1 -3.869048E-08  5.482535E-07  3.164216E-10  1.974576E-09 -2.260189E-10  7.979915E-17
         2   2 -3.996909E-08  5.446243E-07 -3.164217E-10  1.974577E-09 -2.260200E-10  7.775729E-17
         2   3 -3.869047E-08  5.482535E-07  3.164218E-10  7.992867E-10 -2.260189E-10  1.109061E-15
         2   4 -3.996908E-08  5.446243E-07 -3.164215E-10  7.992882E-10 -2.260200E-10  1.102924E-15
         2   5 -3.869048E-08  5.482535E-07  3.164215E-10  1.974576E-09  2.260170E-10 -7.314469E-16
         2   6 -3.996909E-08  5.446243E-07 -3.164218E-10  1.974577E-09  2.260160E-10 -7.349728E-16
         2   7 -3.869048E-08  5.482535E-07  3.164216E-10  7.992867E-10  2.260170E-10  2.978145E-16
         2   8 -3.996909E-08  5.446243E-07 -3.164217E-10  7.992881E-10  2.260160E-10  2.901942E-16
         3   1  5.102549E-08 -4.729284E-06  3.552491E-08  4.533240E-08 -2.515571E-08  3.418576E-11
         3   2 -9.124012E-08 -5.133088E-06 -3.488938E-08  4.472029E-08 -2.514021E-08  3.418580E-11
         3   3  4.902760E-08 -4.730058E-06  3.494387E-08 -8.543701E-08 -2.515571E-08 -7.259817E-12
         3   4 -9.323801E-08 -5.133862E-06 -3.547043E-08 -8.604911E-08 -2.514021E-08 -7.259736E-12
         3   5  5.101442E-08 -4.729455E-06  3.547043E-08  4.533239E-08  2.514021E-08  1.690286E-10
         3   6 -9.125120E-08 -5.133259E-06 -3.494387E-08  4.472029E-08  2.515571E-08  1.690287E-10
         3   7  4.901653E-08 -4.730228E-06  3.488938E-08 -8.543701E-08  2.514021E-08  1.275830E-10
         3   8 -9.324909E-08 -5.134033E-06 -3.552491E-08 -8.604911E-08  2.515571E-08  1.275831E-10
         4   1  5.482535E-07 -3.869048E-08  3.164217E-10  1.974576E-09  8.160044E-17 -2.260190E-10
         4   2  5.482535E-07 -3.869047E-08  3.164217E-10  7.992868E-10  1.117486E-15 -2.260189E-10
         4   3  5.446243E-07 -3.996909E-08 -3.164216E-10  1.974577E-09  7.629457E-17 -2.260200E-10
         4   4  5.446243E-07 -3.996908E-08 -3.164215E-10  7.992882E-10  1.107822E-15 -2.260201E-10
         4   5  5.482535E-07 -3.869048E-08  3.164216E-10  1.974576E-09 -7.313482E-16  2.260169E-10
         4   6  5.482535E-07 -3.869048E-08  3.164217E-10  7.992867E-10  3.045370E-16  2.260170E-10
         4   7  5.446243E-07 -3.996909E-08 -3.164217E-10  1.974577E-09 -7.467922E-16  2.260160E-10
         4   8  5.446243E-07 -3.996909E-08 -3.164216E-10  7.992882E-10  2.847352E-16  2.260160E-10
         5   1  4.100080E-07  4.100080E-07 -3.794028E-08  4.777818E-09  1.355010E-08  1.355010E-08
         5   2  4.866628E-07  6.275839E-07  3.408175E-15  7.523833E-08  1.355010E-08  1.355010E-08
         5   3  6.275839E-07  4.866628E-07  1.198847E-16  7.523833E-08  1.355010E-08  1.355010E-08
         5   4  7.042387E-07  7.042387E-07  3.794029E-08  1.456988E-07  1.355010E-08  1.355010E-08
         5   5  4.100080E-07  4.100080E-07 -3.794028E-08  4.777817E-09 -1.355010E-08 -1.355010E-08
         5   6  4.866628E-07  6.275839E-07  1.561047E-15  7.523833E-08 -1.355010E-08 -1.355010E-08
         5   7  6.275839E-07  4.866628E-07  1.351395E-15  7.523833E-08 -1.355010E-08 -1.355010E-08
         5   8  7.042387E-07  7.042387E-07  3.794028E-08  1.456988E-07 -1.355010E-08 -1.355010E-08
         6   1  1.809663E-07 -4.969682E-06 -1.633234E-08  1.296832E-07 -8.223504E-10  1.249324E-08
         6   2  1.763178E-07 -4.982907E-06 -1.863707E-08  1.946473E-07 -8.223511E-10  1.249325E-08
         6   3  3.815709E-07 -4.899005E-06  1.864863E-08  1.253951E-07 -8.223565E-10  1.249324E-08
         6   4  3.769223E-07 -4.912230E-06  1.634390E-08  1.903592E-07 -8.223570E-10  1.249326E-08
         6   5  1.809664E-07 -4.969682E-06 -1.633232E-08  1.296832E-07  8.223564E-10 -1.249325E-08
         6   6  1.763178E-07 -4.982907E-06 -1.863706E-08  1.946473E-07  8.223579E-10 -1.249325E-08
         6   7  3.815709E-07 -4.899005E-06  1.864863E-08  1.253951E-07  8.223544E-10 -1.249325E-08
         6   8  3.769223E-07 -4.912230E-06  1.634390E-08  1.903592E-07  8.223550E-10 -1.249324E-08
         7   1 -4.729284E-06  5.102549E-08  3.552491E-08  4.533239E-08  3.418575E-11 -2.515571E-08
         7   2 -4.730058E-06  4.902760E-08  3.494387E-08 -8.543701E-08 -7.259800E-12 -2.515571E-08
         7   3 -5.133088E-06 -9.124012E-08 -3.488938E-08  4.472029E-08  3.418581E-11 -2.514021E-08
         7   4 -5.133862E-06 -9.323801E-08 -3.547043E-08 -8.604911E-08 -7.259734E-12 -2.514021E-08
         7   5 -4.729455E-06  5.101442E-08  3.547043E-08  4.533239E-08  1.690285E-10  2.514021E-08
         7   6 -4.730228E-06  4.901653E-08  3.488938E-08 -8.543701E-08  1.275830E-10  2.514021E-08
         7   7 -5.133259E-06 -9.125120E-08 -3.494387E-08  4.472029E-08  1.690287E-10  2.515571E-08
         7   8 -5.134033E-06 -9.324909E-08 -3.552491E-08 -8.604911E-08  1.275832E-10  2.515571E-08
         8   1 -4.969682E-06  1.809664E-07 -1.633232E-08  1.296832E-07  1.249324E-08 -8.223528E-10
         8   2 -4.899005E-06  3.815709E-07  1.864864E-08  1.253951E-07  1.249325E-08 -8.223557E-10
         8   3 -4.982907E-06  1.763178E-07 -1.863708E-08  1.946473E-07  1.249325E-08 -8.223569E-10
         8   4 -4.912230E-06  3.769223E-07  1.634388E-08  1.903592E-07  1.249324E-08 -8.223574E-10
         8   5 -4.969682E-06  1.809663E-07 -1.633233E-08  1.296832E-07 -1.249324E-08  8.223566E-10
         8   6 -4.899005E-06  3.815709E-07  1.864863E-08  1.253951E-07 -1.249325E-08  8.223554E-10
         8   7 -4.982907E-06  1.763178E-07 -1.863707E-08  1.946473E-07 -1.249325E-08  8.223571E-10
         8   8 -4.912230E-06  3.769223E-07  1.634389E-08  1.903592E-07 -1.249325E-08  8.223535E-10
         9   1 -6.381826E-15 -6.381826E-15 -1.489093E-14  8.757996E-33 -1.764376E-14 -1.808894E-14
         9   2 -3.531829E-16 -3.531829E-16 -8.240934E-16  4.213422E-35  2.059528E-15  1.652393E-15
         9   3 -1.656310E-15 -1.656310E-15 -3.864724E-15  6.832532E-33 -1.541646E-14 -1.589969E-14
         9   4  2.254505E-14  4.662684E-14  2.852331E-14  1.204090E-14 -1.103795E-14 -1.148313E-14
         9   5 -6.381826E-15 -6.381826E-15 -1.489093E-14  5.265402E-34  1.118498E-15 -5.429333E-16
         9   6 -2.005647E-14 -4.632753E-14 -2.052738E-14 -1.313553E-14  9.875516E-15  8.356068E-15
         9   7 -1.656310E-15 -1.656310E-15 -3.864724E-15  9.808554E-34 -9.287726E-16 -2.732188E-15
         9   8 -2.084067E-15 -1.084108E-14  3.894195E-15 -4.378509E-15 -5.307281E-15 -6.968713E-15

 strains (elem, integ.pnt.,exx,eyy,ezz,exy,exz,eyz) forset EALL and time  0.3078125E-01

         1   1 -1.264762E-13 -1.264762E-13  1.084081E-13  1.237043E-22 -1.719477E-23 -1.719476E-23
         1   2 -1.264762E-13 -1.264762E-13  1.084081E-13  2.926874E-22 -5.832221E-23 -1.719477E-23
         1   3 -1.264762E-13 -1.264762E-13  1.084081E-13  2.926875E-22 -1.719476E-23 -5.832221E-23
         1   4 -1.264762E-13 -1.264762E-13  1.084081E-13  4.616706E-22 -5.832219E-23 -5.832224E-23
         1   5 -1.264762E-13 -1.264762E-13  1.084081E-13  1.237043E-22 -2.304431E-23 -2.304428E-23
         1   6 -1.264762E-13 -1.264762E-13  1.084081E-13  2.926875E-22 -6.417175E-23 -2.304429E-23
         1   7 -1.264762E-13 -1.264762E-13  1.084081E-13  2.926875E-22 -2.304431E-23 -6.417174E-23
         1   8 -1.264762E-13 -1.264762E-13  1.084081E-13  4.616706E-22 -6.417173E-23 -6.417176E-23
         2   1 -9.679116E-13  2.665551E-12 -7.264404E-13  1.222356E-14 -1.399165E-15  4.939947E-22
         2   2 -9.679116E-13  2.651000E-12 -7.224428E-13  1.222357E-14 -1.399172E-15  4.813546E-22
         2   3 -9.679116E-13  2.665551E-12 -7.264404E-13  4.947966E-15 -1.399164E-15  6.865613E-21
         2   4 -9.679116E-13  2.651000E-12 -7.224428E-13  4.947974E-15 -1.399171E-15  6.827626E-21
         2   5 -9.679117E-13  2.665551E-12 -7.264404E-13  1.222356E-14  1.399153E-15 -4.528005E-21
         2   6 -9.679117E-13  2.651000E-12 -7.224428E-13  1.222357E-14  1.399146E-15 -4.549832E-21
         2   7 -9.679116E-13  2.665551E-12 -7.264404E-13  4.947965E-15  1.399153E-15  1.843614E-21
         2   8 -9.679116E-13  2.651000E-12 -7.224428E-13  4.947974E-15  1.399147E-15  1.796440E-21
         3   1  6.948349E-12 -2.264404E-11  6.852393E-12  2.806291E-13 -1.557258E-13  2.116261E-16
         3   2  6.948349E-12 -2.426309E-11  7.297187E-12  2.768399E-13 -1.556299E-13  2.116264E-16
         3   3  6.940770E-12 -2.264404E-11  6.853585E-12 -5.288958E-13 -1.557258E-13 -4.494172E-17
         3   4  6.940770E-12 -2.426309E-11  7.298379E-12 -5.326850E-13 -1.556299E-13 -4.494122E-17
         3   5  6.948617E-12 -2.264476E-11  6.852393E-12  2.806291E-13  1.556299E-13  1.046367E-15
         3   6  6.948617E-12 -2.426381E-11  7.297187E-12  2.768399E-13  1.557258E-13  1.046368E-15
         3   7  6.941039E-12 -2.264476E-11  6.853585E-12 -5.288958E-13  1.556299E-13  7.897994E-16
         3   8  6.941039E-12 -2.426381E-11  7.298379E-12 -5.326850E-13  1.557258E-13  7.898004E-16
         4   1  2.665551E-12 -9.679116E-13 -7.264404E-13  1.222356E-14  5.051456E-22 -1.399165E-15
         4   2  2.665551E-12 -9.679116E-13 -7.264404E-13  4.947966E-15  6.917768E-21 -1.399165E-15
         4   3  2.651000E-12 -9.679116E-13 -7.224428E-13  1.222357E-14  4.722997E-22 -1.399172E-15
         4   4  2.651000E-12 -9.679116E-13 -7.224428E-13  4.947975E-15  6.857946E-21 -1.399172E-15
         4   5  2.665551E-12 -9.679117E-13 -7.264404E-13  1.222356E-14 -4.527394E-21  1.399152E-15
         4   6  2.665551E-12 -9.679116E-13 -7.264404E-13  4.947966E-15  1.885229E-21  1.399153E-15
         4   7  2.651000E-12 -9.679117E-13 -7.224428E-13  1.222357E-14 -4.622999E-21  1.399147E-15
         4   8  2.651000E-12 -9.679116E-13 -7.224428E-13  4.947975E-15  1.762647E-21  1.399146E-15
         5   1  1.420894E-12  1.420894E-12 -1.352119E-12  2.957697E-14  8.388155E-14  8.388154E-14
         5   2  1.420894E-12  2.293262E-12 -1.591781E-12  4.657611E-13  8.388155E-14  8.388155E-14
         5   3  2.293262E-12  1.420894E-12 -1.591781E-12  4.657611E-13  8.388155E-14  8.388154E-14
         5   4  2.293262E-12  2.293262E-12 -1.831443E-12  9.019452E-13  8.388155E-14  8.388155E-14
         5   5  1.420894E-12  1.420894E-12 -1.352119E-12  2.957696E-14 -8.388156E-14 -8.388156E-14
         5   6  1.420894E-12  2.293262E-12 -1.591781E-12  4.657611E-13 -8.388157E-14 -8.388157E-14
         5   7  2.293262E-12  1.420894E-12 -1.591781E-12  4.657611E-13 -8.388157E-14 -8.388157E-14
         5   8  2.293262E-12  2.293262E-12 -1.831443E-12  9.019452E-13 -8.388156E-14 -8.388157E-14
         6   1  7.984523E-12 -2.390024E-11  6.763249E-12  8.047505E-13 -5.095469E-15  7.733878E-14
         6   2  7.984523E-12 -2.395324E-11  6.777808E-12  1.206912E-12 -5.095473E-15  7.733883E-14
         6   3  8.788847E-12 -2.390024E-11  6.542281E-12  7.782538E-13 -5.095507E-15  7.733880E-14
         6   4  8.788847E-12 -2.395324E-11  6.556840E-12  1.180416E-12 -5.095510E-15  7.733889E-14
         6   5  7.984524E-12 -2.390024E-11  6.763249E-12  8.047505E-13  5.095506E-15 -7.733885E-14
         6   6  7.984524E-12 -2.395324E-11  6.777808E-12  1.206912E-12  5.095516E-15 -7.733885E-14
         6   7  8.788847E-12 -2.390024E-11  6.542281E-12  7.782538E-13  5.095494E-15 -7.733888E-14
         6   8  8.788847E-12 -2.395324E-11  6.556840E-12  1.180416E-12  5.095498E-15 -7.733877E-14
         7   1 -2.264404E-11  6.948349E-12  6.852393E-12  2.806291E-13  2.116261E-16 -1.557258E-13
         7   2 -2.264404E-11  6.940770E-12  6.853585E-12 -5.288958E-13 -4.494162E-17 -1.557258E-13
         7   3 -2.426309E-11  6.948349E-12  7.297187E-12  2.768399E-13  2.116264E-16 -1.556299E-13
         7   4 -2.426309E-11  6.940770E-12  7.298379E-12 -5.326850E-13 -4.494121E-17 -1.556299E-13
         7   5 -2.264476E-11  6.948617E-12  6.852393E-12  2.806291E-13  1.046367E-15  1.556299E-13
         7   6 -2.264476E-11  6.941039E-12  6.853585E-12 -5.288958E-13  7.897993E-16  1.556299E-13
         7   7 -2.426381E-11  6.948617E-12  7.297187E-12  2.768399E-13  1.046368E-15  1.557258E-13
         7   8 -2.426381E-11  6.941039E-12  7.298379E-12 -5.326850E-13  7.898006E-16  1.557258E-13
         8   1 -2.390024E-11  7.984523E-12  6.763249E-12  8.047504E-13  7.733878E-14 -5.095484E-15
         8   2 -2.390024E-11  8.788847E-12  6.542281E-12  7.782537E-13  7.733883E-14 -5.095502E-15
         8   3 -2.395324E-11  7.984523E-12  6.777808E-12  1.206912E-12  7.733888E-14 -5.095509E-15
         8   4 -2.395324E-11  8.788847E-12  6.556840E-12  1.180416E-12  7.733880E-14 -5.095512E-15
         8   5 -2.390024E-11  7.984523E-12  6.763249E-12  8.047504E-13 -7.733882E-14  5.095508E-15
         8   6 -2.390024E-11  8.788847E-12  6.542281E-12  7.782538E-13 -7.733884E-14  5.095500E-15
         8   7 -2.395324E-11  7.984523E-12  6.777808E-12  1.206912E-12 -7.733885E-14  5.095511E-15
         8   8 -2.395324E-11  8.788847E-12  6.556840E-12  1.180416E-12 -7.733883E-14  5.095488E-15
         9   1  3.250973E-40  1.997435E-40 -5.267539E-20  2.548255E-40 -1.092233E-19 -1.119792E-19
         9   2  3.250973E-40  2.092689E-40 -2.915160E-21  2.608309E-40  1.274946E-20  1.022910E-20
         9   3  3.372188E-40  1.997435E-40 -1.367113E-20  2.595328E-40 -9.543525E-20 -9.842663E-20
         9   4  3.372188E-40  1.490778E-19  3.700829E-20  7.453890E-20 -6.833019E-20 -7.108607E-20
         9   5  4.528021E-39  2.782068E-39 -5.267539E-20  3.549262E-39  6.924038E-21 -3.361016E-21
         9   6  4.528021E-39 -1.626303E-19 -2.915160E-21 -8.131516E-20  6.113415E-20  5.172804E-20
         9   7  4.696852E-39  2.782068E-39 -1.367113E-20  3.614825E-39 -5.749545E-21 -1.691354E-20
         9   8  4.696852E-39 -5.421011E-20  3.700829E-20 -2.710505E-20 -3.285460E-20 -4.313965E-20

 displacements (vx,vy,vz) for set NALL and time  0.3978125E-01

         1  0.000000E+00  0.000000E+00  0.000000E+00
         2 -1.407895E-10  0.000000E+00  0.000000E+00
         3 -7.391450E-03  0.000000E+00  0.000000E+00
         4 -7.391451E-03  0.000000E+00  0.000000E+00
         5 -1.551138E-02  0.000000E+00  0.000000E+00
         6 -1.551137E-02  0.000000E+00  0.000000E+00
         7  0.000000E+00 -1.407895E-10  0.000000E+00
         8 -1.407895E-10 -1.407895E-10  0.000000E+00
         9 -7.391450E-03  2.320898E-09  0.000000E+00
        10 -7.391451E-03  2.283075E-09  0.000000E+00
        11 -1.551138E-02 -1.353394E-08  0.000000E+00
        12 -1.551137E-02 -1.581168E-08  0.000000E+00
        13  0.000000E+00 -7.391450E-03  0.000000E+00
        14  2.320898E-09 -7.391450E-03  0.000000E+00
        15  8.187931E-02  8.187931E-02  0.000000E+00
        16  8.187931E-02  8.187931E-02  0.000000E+00
        17  1.265517E-01 -5.156682E-01  0.000000E+00
        18  1.265490E-01 -5.676706E-01  0.000000E+00
        19  0.000000E+00 -7.391451E-03  0.000000E+00
        20  2.283075E-09 -7.391451E-03  0.000000E+00
        21  8.187931E-02  8.187931E-02  0.000000E+00
        22  8.187931E-02  8.187931E-02  0.000000E+00
        23  1.785540E-01 -5.156710E-01  0.000000E+00
        24  1.785514E-01 -5.676733E-01  0.000000E+00
        25  0.000000E+00 -1.551138E-02  0.000000E+00
        26 -1.353394E-08 -1.551138E-02  0.000000E+00
        27 -5.156682E-01  1.265517E-01  0.000000E+00
        28 -5.156710E-01  1.785540E-01  0.000000E+00
        29 -1.193438E+00 -1.193438E+00  0.000000E+00
        30 -1.193438E+00 -1.193438E+00  0.000000E+00
        31  0.000000E+00 -1.551137E-02  0.000000E+00
        32 -1.581168E-08 -1.551137E-02  0.000000E+00
        33 -5.676706E-01  1.265490E-01  0.000000E+00
        34 -5.676733E-01  1.785514E-01  0.000000E+00
        35 -1.193438E+00 -1.193438E+00  0.000000E+00
        36 -1.193438E+00 -1.193438E+00  0.000000E+00
        37  0.000000E+00  0.000000E+00  1.689474E-10
        38 -1.407895E-10  0.000000E+00  1.689474E-10
        39 -7.391450E-03  0.000000E+00 -8.588806E-10
        40 -7.391451E-03  0.000000E+00 -8.443334E-10
        41 -1.551138E-02  0.000000E+00  5.786087E-09
        42 -1.551138E-02  0.000000E+00  6.662140E-09
        43  0.000000E+00 -1.407895E-10  1.689474E-10
        44 -1.407895E-10 -1.407895E-10  1.689474E-10
        45 -7.391450E-03  2.320898E-09 -8.588806E-10
        46 -7.391451E-03  2.283075E-09 -8.443334E-10
        47 -1.551138E-02 -1.353589E-08  5.790612E-09
        48 -1.551137E-02 -1.581363E-08  6.666666E-09
        49  0.000000E+00 -7.391450E-03 -8.588806E-10
        50  2.320898E-09 -7.391450E-03 -8.588806E-10
        51  8.187931E-02  8.187931E-02 -1.444194E-09
        52  8.187931E-02  8.187931E-02 -1.931182E-09
        53  1.265517E-01 -5.156682E-01  5.909048E-09
        54  1.265490E-01 -5.676706E-01  5.950903E-09
        55  0.000000E+00 -7.391451E-03 -8.443334E-10
        56  2.283075E-09 -7.391451E-03 -8.443334E-10
        57  8.187931E-02  8.187931E-02 -1.931182E-09
        58  8.187931E-02  8.187931E-02 -2.418171E-09
        59  1.785540E-01 -5.156710E-01  5.478818E-09
        60  1.785514E-01 -5.676733E-01  5.520673E-09
        61  0.000000E+00 -1.551138E-02  5.786087E-09
        62 -1.353589E-08 -1.551138E-02  5.790612E-09
        63 -5.156682E-01  1.265517E-01  5.909048E-09
        64 -5.156710E-01  1.785540E-01  5.478818E-09
        65 -1.193438E+00 -1.193438E+00  4.722044E-17
        66 -1.193438E+00 -1.193438E+00 -3.402162E-17
        67  0.000000E+00 -1.551138E-02  6.662140E-09
        68 -1.581363E-08 -1.551137E-02  6.666666E-09
        69 -5.676706E-01  1.265490E-01  5.950903E-09
        70 -5.676733E-01  1.785514E-01  5.520673E-09
        71 -1.193438E+00 -1.193438E+00 -1.772046E-17
        72 -1.193438E+00 -1.193438E+00  6.341436E-17

 stresses (elem, integ.pnt.,sxx,syy,szz,sxy,sxz,syz) for set EALL and time  0.3978125E-01

         1   1 -8.447372E-08 -8.447372E-08 -6.231783E-17  5.934881E-17 -8.077077E-18 -8.052155E-18
         1   2 -8.447371E-08 -8.447371E-08  5.428768E-17  1.402721E-16 -2.805384E-17 -8.099602E-18
         1   3 -8.447371E-08 -8.447371E-08  5.408747E-17  1.405695E-16 -8.046617E-18 -2.805921E-17
         1   4 -8.447371E-08 -8.447371E-08  1.707849E-16  2.214928E-16 -2.797694E-17 -2.827307E-17
         1   5 -8.447372E-08 -8.447372E-08 -1.462838E-16  5.928733E-17 -1.016730E-17 -1.004400E-17
         1   6 -8.447372E-08 -8.447371E-08 -3.002778E-17  1.402756E-16 -3.014406E-17 -1.005466E-17
         1   7 -8.447371E-08 -8.447372E-08 -2.978103E-17  1.402751E-16 -1.010006E-17 -3.005105E-17
         1   8 -8.447371E-08 -8.447371E-08  8.656695E-17  2.212633E-16 -3.003038E-17 -3.022812E-17
         2   1 -8.671764E-08  9.456898E-07  9.497093E-10  5.926482E-09 -6.783691E-10  1.498924E-16
         2   2 -9.055525E-08  9.347971E-07 -9.497090E-10  5.926484E-09 -6.783709E-10  1.345414E-16
         2   3 -8.671763E-08  9.456898E-07  9.497093E-10  2.398977E-09 -6.783692E-10  1.861400E-15
         2   4 -9.055524E-08  9.347971E-07 -9.497091E-10  2.398979E-09 -6.783709E-10  1.838593E-15
         2   5 -8.671764E-08  9.456898E-07  9.497095E-10  5.926482E-09  6.783664E-10 -1.152101E-15
         2   6 -9.055525E-08  9.347972E-07 -9.497088E-10  5.926484E-09  6.783646E-10 -1.201936E-15
         2   7 -8.671764E-08  9.456898E-07  9.497093E-10  2.398977E-09  6.783663E-10  5.594061E-16
         2   8 -9.055525E-08  9.347972E-07 -9.497091E-10  2.398979E-09  6.783647E-10  5.021154E-16
         3   1  6.993969E-08 -5.848155E-06  5.818774E-08  6.077420E-08 -4.087652E-08  1.069976E-10
         3   2 -1.611674E-07 -6.504126E-06 -5.619860E-08  5.885838E-08 -4.082800E-08  1.069976E-10
         3   3  6.368651E-08 -5.850577E-06  5.636912E-08 -1.516576E-07 -4.087652E-08 -2.272397E-11
         3   4 -1.674206E-07 -6.506548E-06 -5.801722E-08 -1.535734E-07 -4.082800E-08 -2.272380E-11
         3   5  6.990503E-08 -5.848689E-06  5.801722E-08  6.077420E-08  4.082800E-08  5.290419E-10
         3   6 -1.612021E-07 -6.504660E-06 -5.636912E-08  5.885838E-08  4.087652E-08  5.290421E-10
         3   7  6.365185E-08 -5.851111E-06  5.619860E-08 -1.516576E-07  4.082800E-08  3.993203E-10
         3   8 -1.674552E-07 -6.507081E-06 -5.818774E-08 -1.535734E-07  4.087652E-08  3.993207E-10
         4   1  9.456898E-07 -8.671764E-08  9.497090E-10  5.926482E-09  1.484762E-16 -6.783692E-10
         4   2  9.456898E-07 -8.671763E-08  9.497093E-10  2.398977E-09  1.873370E-15 -6.783693E-10
         4   3  9.347971E-07 -9.055525E-08 -9.497093E-10  5.926484E-09  1.367603E-16 -6.783708E-10
         4   4  9.347971E-07 -9.055524E-08 -9.497091E-10  2.398979E-09  1.844709E-15 -6.783708E-10
         4   5  9.456898E-07 -8.671764E-08  9.497093E-10  5.926482E-09 -1.170773E-15  6.783661E-10
         4   6  9.456898E-07 -8.671764E-08  9.497094E-10  2.398977E-09  5.541210E-16  6.783662E-10
         4   7  9.347972E-07 -9.055525E-08 -9.497091E-10  5.926484E-09 -1.197553E-15  6.783648E-10
         4   8  9.347972E-07 -9.055525E-08 -9.497091E-10  2.398979E-09  5.103965E-16  6.783646E-10
         5   1  7.190327E-07  7.190327E-07 -6.358613E-08  4.242970E-09  2.270932E-08  2.270932E-08
         5   2  8.475026E-07  1.083680E-06  1.627121E-15  1.223315E-07  2.270932E-08  2.270932E-08
         5   3  1.083680E-06  8.475026E-07 -9.209832E-16  1.223315E-07  2.270932E-08  2.270932E-08
         5   4  1.212150E-06  1.212150E-06  6.358613E-08  2.404200E-07  2.270932E-08  2.270932E-08
         5   5  7.190327E-07  7.190327E-07 -6.358613E-08  4.242972E-09 -2.270933E-08 -2.270933E-08
         5   6  8.475026E-07  1.083680E-06  8.795654E-17  1.223315E-07 -2.270933E-08 -2.270933E-08
         5   7  1.083680E-06  8.475027E-07  3.594509E-15  1.223315E-07 -2.270933E-08 -2.270933E-08
         5   8  1.212150E-06  1.212150E-06  6.358613E-08  2.404200E-07 -2.270933E-08 -2.270933E-08
         6   1  3.284737E-07 -6.239833E-06 -2.531543E-08  2.161901E-07 -1.949720E-09  2.006276E-08
         6   2  3.174537E-07 -6.271195E-06 -3.078051E-08  3.205134E-07 -1.949717E-09  2.006275E-08
         6   3  6.506190E-07 -6.126334E-06  3.085976E-08  2.060190E-07 -1.949724E-09  2.006278E-08
         6   4  6.395990E-07 -6.157696E-06  2.539469E-08  3.103422E-07 -1.949724E-09  2.006277E-08
         6   5  3.284737E-07 -6.239833E-06 -2.531543E-08  2.161901E-07  1.949724E-09 -2.006278E-08
         6   6  3.174537E-07 -6.271195E-06 -3.078050E-08  3.205133E-07  1.949724E-09 -2.006278E-08
         6   7  6.506190E-07 -6.126334E-06  3.085975E-08  2.060190E-07  1.949726E-09 -2.006275E-08
         6   8  6.395990E-07 -6.157696E-06  2.539470E-08  3.103422E-07  1.949725E-09 -2.006275E-08
         7   1 -5.848155E-06  6.993969E-08  5.818774E-08  6.077420E-08  1.069976E-10 -4.087652E-08
         7   2 -5.850577E-06  6.368651E-08  5.636912E-08 -1.516576E-07 -2.272395E-11 -4.087652E-08
         7   3 -6.504126E-06 -1.611674E-07 -5.619860E-08  5.885838E-08  1.069976E-10 -4.082800E-08
         7   4 -6.506548E-06 -1.674206E-07 -5.801722E-08 -1.535734E-07 -2.272379E-11 -4.082800E-08
         7   5 -5.848689E-06  6.990503E-08  5.801722E-08  6.077420E-08  5.290419E-10  4.082800E-08
         7   6 -5.851111E-06  6.365185E-08  5.619860E-08 -1.516576E-07  3.993203E-10  4.082800E-08
         7   7 -6.504660E-06 -1.612021E-07 -5.636912E-08  5.885838E-08  5.290421E-10  4.087652E-08
         7   8 -6.507081E-06 -1.674552E-07 -5.818774E-08 -1.535734E-07  3.993207E-10  4.087652E-08
         8   1 -6.239833E-06  3.284737E-07 -2.531544E-08  2.161902E-07  2.006275E-08 -1.949719E-09
         8   2 -6.126334E-06  6.506190E-07  3.085976E-08  2.060190E-07  2.006275E-08 -1.949716E-09
         8   3 -6.271195E-06  3.174537E-07 -3.078051E-08  3.205134E-07  2.006276E-08 -1.949726E-09
         8   4 -6.157696E-06  6.395990E-07  2.539467E-08  3.103422E-07  2.006276E-08 -1.949718E-09
         8   5 -6.239833E-06  3.284736E-07 -2.531545E-08  2.161901E-07 -2.006277E-08  1.949731E-09
         8   6 -6.126334E-06  6.506190E-07  3.085976E-08  2.060190E-07 -2.006277E-08  1.949728E-09
         8   7 -6.271195E-06  3.174537E-07 -3.078050E-08  3.205133E-07 -2.006278E-08  1.949724E-09
         8   8 -6.157696E-06  6.395990E-07  2.539470E-08  3.103423E-07 -2.006278E-08  1.949726E-09
         9   1  4.081120E-15  4.081120E-15  9.522614E-15  1.117111E-32  2.029057E-14  2.084704E-14
         9   2 -1.538565E-14 -3.508894E-14 -1.619657E-14 -9.851645E-15  2.029057E-14  2.404734E-14
         9   3  1.020723E-15  1.020723E-15  2.381687E-15  7.694685E-33  1.911235E-14  1.646853E-14
         9   4 -2.510390E-15 -1.345666E-14  5.088696E-15 -5.473136E-15  1.598318E-15  2.154792E-15
         9   5 -2.218993E-14 -5.721800E-14 -1.674844E-14 -1.751404E-14 -5.978664E-15 -3.901875E-15
         9   6  1.252734E-14  3.004138E-14  1.171642E-14  8.757018E-15 -1.254643E-14  1.474029E-15
         9   7 -2.525033E-14 -6.027840E-14 -2.388937E-14 -1.751404E-14  2.347904E-14  1.361216E-14
         9   8 -2.057174E-14 -5.559981E-14 -1.297265E-14 -1.751404E-14 -1.592754E-14 -1.385075E-14

 strains (elem, integ.pnt.,exx,eyy,ezz,exy,exz,eyz) forset EALL and time  0.3978125E-01

         1   1 -2.815790E-13 -2.815790E-13  2.413535E-13  3.673974E-22 -5.000095E-23 -4.984667E-23
         1   2 -2.815790E-13 -2.815790E-13  2.413535E-13  8.683510E-22 -1.736666E-22 -5.014039E-23
         1   3 -2.815790E-13 -2.815790E-13  2.413535E-13  8.701922E-22 -4.981239E-23 -1.736999E-22
         1   4 -2.815790E-13 -2.815790E-13  2.413535E-13  1.371146E-21 -1.731906E-22 -1.750237E-22
         1   5 -2.815791E-13 -2.815791E-13  2.413535E-13  3.670168E-22 -6.294042E-23 -6.217711E-23
         1   6 -2.815791E-13 -2.815790E-13  2.413535E-13  8.683728E-22 -1.866061E-22 -6.224313E-23
         1   7 -2.815790E-13 -2.815791E-13  2.413535E-13  8.683694E-22 -6.252415E-23 -1.860303E-22
         1   8 -2.815790E-13 -2.815790E-13  2.413535E-13  1.369725E-21 -1.859024E-22 -1.871265E-22
         2   1 -1.765283E-12  4.625810E-12 -1.222581E-12  3.668774E-14 -4.199428E-15  9.279049E-22
         2   2 -1.765283E-12  4.582136E-12 -1.210582E-12  3.668776E-14 -4.199439E-15  8.328749E-22
         2   3 -1.765283E-12  4.625810E-12 -1.222581E-12  1.485081E-14 -4.199428E-15  1.152295E-20
         2   4 -1.765283E-12  4.582136E-12 -1.210582E-12  1.485083E-14 -4.199439E-15  1.138177E-20
         2   5 -1.765283E-12  4.625810E-12 -1.222581E-12  3.668774E-14  4.199411E-15 -7.132055E-21
         2   6 -1.765283E-12  4.582136E-12 -1.210582E-12  3.668776E-14  4.199400E-15 -7.440559E-21
         2   7 -1.765283E-12  4.625810E-12 -1.222581E-12  1.485081E-14  4.199411E-15  3.462990E-21
         2   8 -1.765283E-12  4.582136E-12 -1.210582E-12  1.485083E-14  4.199400E-15  3.108333E-21
         3   1  8.604429E-12 -2.803140E-11  8.531678E-12  3.762213E-13 -2.530451E-13  6.623658E-16
         3   2  8.604429E-12 -3.066151E-11  9.254235E-12  3.643614E-13 -2.527448E-13  6.623664E-16
         3   3  8.580709E-12 -2.803140E-11  8.535411E-12 -9.388325E-13 -2.530451E-13 -1.406722E-16
         3   4  8.580709E-12 -3.066151E-11  9.257968E-12 -9.506924E-13 -2.527448E-13 -1.406712E-16
         3   5  8.605270E-12 -2.803365E-11  8.531678E-12  3.762213E-13  2.527448E-13  3.275021E-15
         3   6  8.605270E-12 -3.066375E-11  9.254235E-12  3.643614E-13  2.530451E-13  3.275023E-15
         3   7  8.581550E-12 -2.803365E-11  8.535411E-12 -9.388325E-13  2.527448E-13  2.471983E-15
         3   8  8.581550E-12 -3.066375E-11  9.257968E-12 -9.506924E-13  2.530451E-13  2.471985E-15
         4   1  4.625810E-12 -1.765283E-12 -1.222581E-12  3.668774E-14  9.191383E-22 -4.199428E-15
         4   2  4.625810E-12 -1.765283E-12 -1.222581E-12  1.485081E-14  1.159705E-20 -4.199429E-15
         4   3  4.582136E-12 -1.765283E-12 -1.210582E-12  3.668776E-14  8.466110E-22 -4.199438E-15
         4   4  4.582136E-12 -1.765283E-12 -1.210582E-12  1.485082E-14  1.141963E-20 -4.199438E-15
         4   5  4.625810E-12 -1.765283E-12 -1.222581E-12  3.668774E-14 -7.247643E-21  4.199409E-15
         4   6  4.625810E-12 -1.765283E-12 -1.222581E-12  1.485081E-14  3.430273E-21  4.199410E-15
         4   7  4.582136E-12 -1.765283E-12 -1.210582E-12  3.668776E-14 -7.413422E-21  4.199401E-15
         4   8  4.582136E-12 -1.765283E-12 -1.210582E-12  1.485082E-14  3.159597E-21  4.199400E-15
         5   1  2.487613E-12  2.487613E-12 -2.357170E-12  2.626601E-14  1.405815E-13  1.405815E-13
         5   2  2.487613E-12  3.949661E-12 -2.758832E-12  7.572901E-13  1.405815E-13  1.405815E-13
         5   3  3.949661E-12  2.487613E-12 -2.758832E-12  7.572901E-13  1.405815E-13  1.405815E-13
         5   4  3.949661E-12  3.949661E-12 -3.160493E-12  1.488314E-12  1.405815E-13  1.405815E-13
         5   5  2.487613E-12  2.487613E-12 -2.357170E-12  2.626602E-14 -1.405816E-13 -1.405816E-13
         5   6  2.487613E-12  3.949661E-12 -2.758832E-12  7.572901E-13 -1.405816E-13 -1.405816E-13
         5   7  3.949661E-12  2.487613E-12 -2.758832E-12  7.572901E-13 -1.405816E-13 -1.405816E-13
         5   8  3.949661E-12  3.949661E-12 -3.160493E-12  1.488314E-12 -1.405816E-13 -1.405815E-13
         6   1  1.051409E-11 -3.014630E-11  8.324250E-12  1.342549E-12 -1.208261E-14  1.241968E-13
         6   2  1.051409E-11 -3.027195E-11  8.358771E-12  1.988372E-12 -1.208259E-14  1.241967E-13
         6   3  1.180574E-11 -3.014630E-11  7.969402E-12  1.279719E-12 -1.208264E-14  1.241969E-13
         6   4  1.180574E-11 -3.027195E-11  8.003923E-12  1.925543E-12 -1.208264E-14  1.241968E-13
         6   5  1.051409E-11 -3.014630E-11  8.324250E-12  1.342549E-12  1.208263E-14 -1.241969E-13
         6   6  1.051409E-11 -3.027195E-11  8.358771E-12  1.988372E-12  1.208264E-14 -1.241969E-13
         6   7  1.180574E-11 -3.014630E-11  7.969402E-12  1.279719E-12  1.208265E-14 -1.241967E-13
         6   8  1.180574E-11 -3.027195E-11  8.003923E-12  1.925543E-12  1.208264E-14 -1.241968E-13
         7   1 -2.803140E-11  8.604429E-12  8.531678E-12  3.762213E-13  6.623659E-16 -2.530451E-13
         7   2 -2.803140E-11  8.580709E-12  8.535411E-12 -9.388325E-13 -1.406721E-16 -2.530451E-13
         7   3 -3.066151E-11  8.604429E-12  9.254235E-12  3.643614E-13  6.623664E-16 -2.527448E-13
         7   4 -3.066151E-11  8.580709E-12  9.257968E-12 -9.506924E-13 -1.406711E-16 -2.527448E-13
         7   5 -2.803365E-11  8.605270E-12  8.531678E-12  3.762213E-13  3.275021E-15  2.527448E-13
         7   6 -2.803365E-11  8.581550E-12  8.535411E-12 -9.388325E-13  2.471983E-15  2.527448E-13
         7   7 -3.066375E-11  8.605270E-12  9.254235E-12  3.643614E-13  3.275022E-15  2.530451E-13
         7   8 -3.066375E-11  8.581550E-12  9.257968E-12 -9.506924E-13  2.471985E-15  2.530451E-13
         8   1 -3.014630E-11  1.051409E-11  8.324249E-12  1.342549E-12  1.241967E-13 -1.208261E-14
         8   2 -3.014630E-11  1.180574E-11  7.969402E-12  1.279719E-12  1.241967E-13 -1.208259E-14
         8   3 -3.027195E-11  1.051409E-11  8.358771E-12  1.988372E-12  1.241968E-13 -1.208265E-14
         8   4 -3.027195E-11  1.180574E-11  8.003923E-12  1.925543E-12  1.241968E-13 -1.208260E-14
         8   5 -3.014630E-11  1.051409E-11  8.324249E-12  1.342549E-12 -1.241968E-13  1.208268E-14
         8   6 -3.014630E-11  1.180574E-11  7.969402E-12  1.279719E-12 -1.241969E-13  1.208266E-14
         8   7 -3.027195E-11  1.051409E-11  8.358771E-12  1.988372E-12 -1.241969E-13  1.208264E-14
         8   8 -3.027195E-11  1.180574E-11  8.003923E-12  1.925543E-12 -1.241969E-13  1.208265E-14
         9   1  1.966941E-40  8.377794E-41  3.368544E-20  1.283691E-40  1.256083E-19  1.290531E-19
         9   2  1.966941E-40 -1.219727E-19 -5.019951E-21 -6.098637E-20  1.256083E-19  1.488645E-19
         9   3  1.957962E-40  8.377794E-41  8.425017E-21 -1.280758E-40  1.183146E-19  1.019480E-19
         9   4  1.957962E-40 -6.776264E-20  4.704196E-20 -3.388132E-20  9.894347E-21  1.333919E-20
         9   5  2.739596E-39 -2.168404E-19  3.368544E-20 -1.084202E-19 -3.701078E-20 -2.415446E-20
         9   6  2.739596E-39  1.084202E-19 -5.019951E-21  5.421011E-20 -7.766836E-20  9.124942E-21
         9   7  2.727089E-39 -2.168404E-19  8.425017E-21 -1.084202E-19  1.453464E-19  8.426575E-20
         9   8  2.727089E-39 -2.168404E-19  4.704196E-20 -1.084202E-19 -9.859907E-20 -8.574275E-20

 displacements (vx,vy,vz) for set NALL and time  0.4878125E-01

         1  0.000000E+00  0.000000E+00  0.000000E+00
         2 -2.628872E-10  0.000000E+00  0.000000E+00
         3 -1.380158E-02  0.000000E+00  0.000000E+00
         4 -1.380158E-02  0.000000E+00  0.000000E+00
         5 -2.935163E-02  0.000000E+00  0.000000E+00
         6 -2.935162E-02  0.000000E+00  0.000000E+00
         7  0.000000E+00 -2.628872E-10  0.000000E+00
         8 -2.628872E-10 -2.628872E-10  0.000000E+00
         9 -1.380158E-02  3.615227E-09  0.000000E+00
        10 -1.380158E-02  3.524446E-09  0.000000E+00
        11 -2.935162E-02 -1.562047E-08  0.000000E+00
        12 -2.935162E-02 -1.893656E-08  0.000000E+00
        13  0.000000E+00 -1.380158E-02  0.000000E+00
        14  3.615227E-09 -1.380158E-02  0.000000E+00
        15  1.258380E-01  1.258380E-01  0.000000E+00
        16  1.258380E-01  1.258380E-01  0.000000E+00
        17  1.988631E-01 -6.007995E-01  0.000000E+00
        18  1.988568E-01 -6.802688E-01  0.000000E+00
        19  0.000000E+00 -1.380158E-02  0.000000E+00
        20  3.524446E-09 -1.380158E-02  0.000000E+00
        21  1.258380E-01  1.258380E-01  0.000000E+00
        22  1.258380E-01  1.258380E-01  0.000000E+00
        23  2.783325E-01 -6.008058E-01  0.000000E+00
        24  2.783262E-01 -6.802751E-01  0.000000E+00
        25  0.000000E+00 -2.935163E-02  0.000000E+00
        26 -1.562047E-08 -2.935162E-02  0.000000E+00
        27 -6.007995E-01  1.988631E-01  0.000000E+00
        28 -6.008058E-01  2.783325E-01  0.000000E+00
        29 -1.463438E+00 -1.463438E+00  0.000000E+00
        30 -1.463438E+00 -1.463438E+00  0.000000E+00
        31  0.000000E+00 -2.935162E-02  0.000000E+00
        32 -1.893656E-08 -2.935162E-02  0.000000E+00
        33 -6.802688E-01  1.988568E-01  0.000000E+00
        34 -6.802751E-01  2.783262E-01  0.000000E+00
        35 -1.463438E+00 -1.463438E+00  0.000000E+00
        36 -1.463438E+00 -1.463438E+00  0.000000E+00
        37  0.000000E+00  0.000000E+00  3.154646E-10
        38 -2.628872E-10  0.000000E+00  3.154646E-10
        39 -1.380158E-02  0.000000E+00 -1.298749E-09
        40 -1.380158E-02  0.000000E+00 -1.263833E-09
        41 -2.935163E-02  0.000000E+00  6.737818E-09
        42 -2.935162E-02  0.000000E+00  8.013236E-09
        43  0.000000E+00 -2.628872E-10  3.154646E-10
        44 -2.628872E-10 -2.628872E-10  3.154646E-10
        45 -1.380158E-02  3.615227E-09 -1.298749E-09
        46 -1.380158E-02  3.524446E-09 -1.263833E-09
        47 -2.935163E-02 -1.562535E-08  6.749157E-09
        48 -2.935162E-02 -1.894144E-08  8.024575E-09
        49  0.000000E+00 -1.380158E-02 -1.298749E-09
        50  3.615227E-09 -1.380158E-02 -1.298749E-09
        51  1.258380E-01  1.258380E-01 -2.266071E-09
        52  1.258380E-01  1.258380E-01 -2.999582E-09
        53  1.988631E-01 -6.007995E-01  6.838698E-09
        54  1.988568E-01 -6.802688E-01  6.923593E-09
        55  0.000000E+00 -1.380158E-02 -1.263833E-09
        56  3.524446E-09 -1.380158E-02 -1.263833E-09
        57  1.258380E-01  1.258380E-01 -2.999582E-09
        58  1.258380E-01  1.258380E-01 -3.733092E-09
        59  2.783325E-01 -6.008058E-01  6.225498E-09
        60  2.783262E-01 -6.802751E-01  6.310393E-09
        61  0.000000E+00 -2.935163E-02  6.737818E-09
        62 -1.562535E-08 -2.935163E-02  6.749157E-09
        63 -6.007995E-01  1.988631E-01  6.838698E-09
        64 -6.008058E-01  2.783325E-01  6.225498E-09
        65 -1.463438E+00 -1.463438E+00  3.350599E-18
        66 -1.463438E+00 -1.463438E+00  3.099737E-17
        67  0.000000E+00 -2.935162E-02  8.013236E-09
        68 -1.894144E-08 -2.935162E-02  8.024575E-09
        69 -6.802688E-01  1.988568E-01  6.923593E-09
        70 -6.802751E-01  2.783262E-01  6.310393E-09
        71 -1.463438E+00 -1.463438E+00  4.621179E-17
        72 -1.463438E+00 -1.463438E+00 -6.931884E-17

 stresses (elem, integ.pnt.,sxx,syy,szz,sxy,sxz,syz) for set EALL and time  0.4878125E-01

         1   1 -1.577323E-07 -1.577323E-07 -1.439092E-16  1.408092E-16 -1.877810E-17 -1.879195E-17
         1   2 -1.577323E-07 -1.577323E-07  1.373473E-16  3.332904E-16 -6.725339E-17 -1.879196E-17
         1   3 -1.577323E-07 -1.577323E-07  1.375916E-16  3.330258E-16 -1.877809E-17 -6.724412E-17
         1   4 -1.577323E-07 -1.577323E-07  4.188481E-16  5.255070E-16 -6.725334E-17 -6.724416E-17
         1   5 -1.577323E-07 -1.577323E-07 -3.474568E-16  1.408092E-16 -2.160552E-17 -2.168034E-17
         1   6 -1.577323E-07 -1.577323E-07 -6.620047E-17  3.332904E-16 -7.008082E-17 -2.168036E-17
         1   7 -1.577323E-07 -1.577323E-07 -6.595599E-17  3.330258E-16 -2.160552E-17 -7.013251E-17
         1   8 -1.577323E-07 -1.577323E-07  2.153003E-16  5.255070E-16 -7.008078E-17 -7.013256E-17
         2   1 -1.631181E-07  1.462086E-06  2.279467E-09  1.422457E-08 -1.628199E-09  2.487638E-16
         2   2 -1.723290E-07  1.435942E-06 -2.279467E-09  1.422457E-08 -1.628201E-09  2.024394E-16
         2   3 -1.631181E-07  1.462086E-06  2.279467E-09  5.757957E-09 -1.628198E-09  2.798688E-15
         2   4 -1.723290E-07  1.435942E-06 -2.279467E-09  5.757960E-09 -1.628201E-09  2.715603E-15
         2   5 -1.631181E-07  1.462086E-06  2.279467E-09  1.422457E-08  1.628194E-09 -1.621523E-15
         2   6 -1.723290E-07  1.435942E-06 -2.279467E-09  1.422457E-08  1.628192E-09 -1.757648E-15
         2   7 -1.631181E-07  1.462086E-06  2.279466E-09  5.757957E-09  1.628195E-09  9.283999E-16
         2   8 -1.723290E-07  1.435942E-06 -2.279468E-09  5.757960E-09  1.628192E-09  7.555151E-16
         3   1  8.134201E-08 -6.805225E-06  8.575772E-08  6.817902E-08 -5.953627E-08  2.680980E-10
         3   2 -2.551193E-07 -7.760231E-06 -8.077364E-08  6.337865E-08 -5.941469E-08  2.680981E-10
         3   3  6.567375E-08 -6.811292E-06  8.120091E-08 -2.410935E-07 -5.953627E-08 -5.694002E-11
         3   4 -2.707876E-07 -7.766298E-06 -8.533045E-08 -2.458939E-07 -5.941469E-08 -5.693967E-11
         3   5  8.125516E-08 -6.806562E-06  8.533045E-08  6.817902E-08  5.941469E-08  1.325593E-09
         3   6 -2.552061E-07 -7.761568E-06 -8.120091E-08  6.337865E-08  5.953627E-08  1.325594E-09
         3   7  6.558690E-08 -6.812629E-06  8.077364E-08 -2.410935E-07  5.941470E-08  1.000555E-09
         3   8 -2.708744E-07 -7.767636E-06 -8.575772E-08 -2.458939E-07  5.953627E-08  1.000556E-09
         4   1  1.462086E-06 -1.631181E-07  2.279467E-09  1.422457E-08  2.502605E-16 -1.628198E-09
         4   2  1.462086E-06 -1.631181E-07  2.279467E-09  5.757957E-09  2.816087E-15 -1.628199E-09
         4   3  1.435942E-06 -1.723290E-07 -2.279467E-09  1.422457E-08  1.922595E-16 -1.628201E-09
         4   4  1.435942E-06 -1.723290E-07 -2.279468E-09  5.757959E-09  2.739847E-15 -1.628201E-09
         4   5  1.462086E-06 -1.631181E-07  2.279467E-09  1.422457E-08 -1.631840E-15  1.628195E-09
         4   6  1.462086E-06 -1.631181E-07  2.279467E-09  5.757956E-09  9.339855E-16  1.628194E-09
         4   7  1.435942E-06 -1.723290E-07 -2.279467E-09  1.422457E-08 -1.830064E-15  1.628192E-09
         4   8  1.435942E-06 -1.723290E-07 -2.279467E-09  5.757960E-09  7.175228E-16  1.628192E-09
         5   1  1.128420E-06  1.128420E-06 -9.577449E-08  1.235987E-09  3.420516E-08  3.420516E-08
         5   2  1.321924E-06  1.677658E-06  9.324175E-15  1.791029E-07  3.420516E-08  3.420516E-08
         5   3  1.677658E-06  1.321924E-06 -1.469119E-15  1.791029E-07  3.420516E-08  3.420516E-08
         5   4  1.871161E-06  1.871161E-06  9.577450E-08  3.569698E-07  3.420517E-08  3.420516E-08
         5   5  1.128420E-06  1.128420E-06 -9.577449E-08  1.235991E-09 -3.420517E-08 -3.420517E-08
         5   6  1.321924E-06  1.677658E-06  8.708799E-15  1.791029E-07 -3.420517E-08 -3.420517E-08
         5   7  1.677658E-06  1.321924E-06 -6.477976E-16  1.791029E-07 -3.420517E-08 -3.420517E-08
         5   8  1.871161E-06  1.871161E-06  9.577450E-08  3.569698E-07 -3.420517E-08 -3.420518E-08
         6   1  5.344607E-07 -7.376228E-06 -3.441409E-08  3.235257E-07 -3.954322E-09  2.859545E-08
         6   2  5.121121E-07 -7.439844E-06 -4.549894E-08  4.722123E-07 -3.954324E-09  2.859544E-08
         6   3  9.936054E-07 -7.214457E-06  4.565144E-08  3.028924E-07 -3.954326E-09  2.859547E-08
         6   4  9.712568E-07 -7.278072E-06  3.456663E-08  4.515789E-07 -3.954326E-09  2.859546E-08
         6   5  5.344607E-07 -7.376228E-06 -3.441409E-08  3.235257E-07  3.954328E-09 -2.859546E-08
         6   6  5.121121E-07 -7.439844E-06 -4.549896E-08  4.722123E-07  3.954326E-09 -2.859546E-08
         6   7  9.936054E-07 -7.214457E-06  4.565145E-08  3.028923E-07  3.954330E-09 -2.859545E-08
         6   8  9.712568E-07 -7.278072E-06  3.456659E-08  4.515789E-07  3.954331E-09 -2.859545E-08
         7   1 -6.805225E-06  8.134200E-08  8.575772E-08  6.817902E-08  2.680980E-10 -5.953627E-08
         7   2 -6.811292E-06  6.567375E-08  8.120091E-08 -2.410935E-07 -5.693992E-11 -5.953627E-08
         7   3 -7.760231E-06 -2.551193E-07 -8.077364E-08  6.337865E-08  2.680981E-10 -5.941469E-08
         7   4 -7.766298E-06 -2.707876E-07 -8.533045E-08 -2.458939E-07 -5.693967E-11 -5.941469E-08
         7   5 -6.806562E-06  8.125515E-08  8.533045E-08  6.817902E-08  1.325593E-09  5.941469E-08
         7   6 -6.812629E-06  6.558690E-08  8.077364E-08 -2.410935E-07  1.000555E-09  5.941469E-08
         7   7 -7.761568E-06 -2.552062E-07 -8.120091E-08  6.337865E-08  1.325594E-09  5.953627E-08
         7   8 -7.767636E-06 -2.708744E-07 -8.575772E-08 -2.458939E-07  1.000556E-09  5.953627E-08
         8   1 -7.376228E-06  5.344607E-07 -3.441410E-08  3.235257E-07  2.859544E-08 -3.954329E-09
         8   2 -7.214457E-06  9.936054E-07  4.565145E-08  3.028923E-07  2.859544E-08 -3.954327E-09
         8   3 -7.439844E-06  5.121121E-07 -4.549895E-08  4.722123E-07  2.859544E-08 -3.954335E-09
         8   4 -7.278072E-06  9.712567E-07  3.456658E-08  4.515789E-07  2.859543E-08 -3.954324E-09
         8   5 -7.376228E-06  5.344607E-07 -3.441409E-08  3.235257E-07 -2.859546E-08  3.954327E-09
         8   6 -7.214457E-06  9.936055E-07  4.565147E-08  3.028923E-07 -2.859545E-08  3.954329E-09
         8   7 -7.439844E-06  5.121121E-07 -4.549893E-08  4.722123E-07 -2.859547E-08  3.954327E-09
         8   8 -7.278072E-06  9.712568E-07  3.456661E-08  4.515789E-07 -2.859546E-08  3.954333E-09
         9   1  8.619874E-15  1.737689E-14  1.135602E-14  4.378509E-15 -4.467612E-15 -3.948237E-15
         9   2  1.164293E-14  2.477846E-14  1.403131E-14  6.567763E-15  2.070881E-14  1.840630E-14
         9   3  9.879365E-15  1.863638E-14  1.429483E-14  4.378509E-15 -2.910996E-15  4.302722E-16
         9   4 -2.162886E-14 -4.352141E-14 -2.857481E-14 -1.094627E-14 -7.289504E-15 -6.770129E-15
         9   5 -2.421894E-14 -5.924701E-14 -2.148279E-14 -1.751404E-14 -3.325394E-16  1.605798E-15
         9   6 -4.776477E-15 -1.353349E-14 -2.388094E-15 -4.378509E-15 -6.900303E-15 -1.549341E-14
         9   7 -2.295945E-14 -5.798752E-14 -1.854398E-14 -1.751404E-14  6.650051E-15  1.911983E-14
         9   8 -1.834498E-14 -3.585902E-14 -2.529092E-14 -8.757018E-15  1.978558E-14  2.172391E-14

 strains (elem, integ.pnt.,exx,eyy,ezz,exy,exz,eyz) forset EALL and time  0.4878125E-01

         1   1 -5.257744E-13 -5.257744E-13  4.506637E-13  8.716759E-22 -1.162454E-22 -1.163311E-22
         1   2 -5.257744E-13 -5.257743E-13  4.506637E-13  2.063226E-21 -4.163305E-22 -1.163312E-22
         1   3 -5.257743E-13 -5.257744E-13  4.506637E-13  2.061589E-21 -1.162453E-22 -4.162731E-22
         1   4 -5.257743E-13 -5.257743E-13  4.506637E-13  3.253139E-21 -4.163302E-22 -4.162734E-22
         1   5 -5.257744E-13 -5.257744E-13  4.506637E-13  8.716759E-22 -1.337485E-22 -1.342116E-22
         1   6 -5.257744E-13 -5.257743E-13  4.506637E-13  2.063226E-21 -4.338336E-22 -1.342118E-22
         1   7 -5.257743E-13 -5.257744E-13  4.506637E-13  2.061588E-21 -1.337485E-22 -4.341536E-22
         1   8 -5.257743E-13 -5.257743E-13  4.506637E-13  3.253139E-21 -4.338334E-22 -4.341539E-22
         2   1 -2.868704E-12  7.192086E-12 -1.844814E-12  8.805685E-14 -1.007933E-14  1.539965E-21
         2   2 -2.868704E-12  7.087261E-12 -1.816016E-12  8.805687E-14 -1.007934E-14  1.253195E-21
         2   3 -2.868704E-12  7.192086E-12 -1.844814E-12  3.564449E-14 -1.007932E-14  1.732521E-20
         2   4 -2.868704E-12  7.087261E-12 -1.816016E-12  3.564451E-14 -1.007934E-14  1.681088E-20
         2   5 -2.868704E-12  7.192086E-12 -1.844814E-12  8.805685E-14  1.007930E-14 -1.003801E-20
         2   6 -2.868704E-12  7.087261E-12 -1.816016E-12  8.805687E-14  1.007928E-14 -1.088068E-20
         2   7 -2.868704E-12  7.192086E-12 -1.844814E-12  3.564449E-14  1.007930E-14  5.747237E-21
         2   8 -2.868704E-12  7.087261E-12 -1.816016E-12  3.564451E-14  1.007929E-14  4.676998E-21
         3   1  9.986581E-12 -3.264455E-11  1.001392E-11  4.220606E-13 -3.685578E-13  1.659654E-15
         3   2  9.986581E-12 -3.647363E-11  1.106586E-11  3.923440E-13 -3.678052E-13  1.659655E-15
         3   3  9.927148E-12 -3.264455E-11  1.002327E-11 -1.492483E-12 -3.685578E-13 -3.524858E-16
         3   4  9.927148E-12 -3.647363E-11  1.107522E-11 -1.522200E-12 -3.678052E-13 -3.524837E-16
         3   5  9.988689E-12 -3.265018E-11  1.001392E-11  4.220606E-13  3.678053E-13  8.206053E-15
         3   6  9.988689E-12 -3.647927E-11  1.106586E-11  3.923440E-13  3.685579E-13  8.206056E-15
         3   7  9.929255E-12 -3.265018E-11  1.002327E-11 -1.492483E-12  3.678053E-13  6.193913E-15
         3   8  9.929255E-12 -3.647927E-11  1.107522E-11 -1.522200E-12  3.685579E-13  6.193917E-15
         4   1  7.192086E-12 -2.868704E-12 -1.844814E-12  8.805685E-14  1.549230E-21 -1.007932E-14
         4   2  7.192086E-12 -2.868704E-12 -1.844814E-12  3.564449E-14  1.743292E-20 -1.007933E-14
         4   3  7.087261E-12 -2.868704E-12 -1.816016E-12  8.805686E-14  1.190176E-21 -1.007934E-14
         4   4  7.087261E-12 -2.868704E-12 -1.816016E-12  3.564451E-14  1.696096E-20 -1.007934E-14
         4   5  7.192086E-12 -2.868704E-12 -1.844814E-12  8.805684E-14 -1.010187E-20  1.007930E-14
         4   6  7.192086E-12 -2.868704E-12 -1.844814E-12  3.564449E-14  5.781814E-21  1.007930E-14
         4   7  7.087261E-12 -2.868704E-12 -1.816016E-12  8.805687E-14 -1.132897E-20  1.007928E-14
         4   8  7.087261E-12 -2.868704E-12 -1.816016E-12  3.564451E-14  4.441807E-21  1.007928E-14
         5   1  3.898222E-12  3.898222E-12 -3.680128E-12  7.651351E-15  2.117463E-13  2.117463E-13
         5   2  3.898222E-12  6.100384E-12 -4.285117E-12  1.108732E-12  2.117462E-13  2.117462E-13
         5   3  6.100384E-12  3.898222E-12 -4.285117E-12  1.108732E-12  2.117462E-13  2.117462E-13
         5   4  6.100384E-12  6.100384E-12 -4.890106E-12  2.209813E-12  2.117463E-13  2.117462E-13
         5   5  3.898222E-12  3.898222E-12 -3.680128E-12  7.651374E-15 -2.117463E-13 -2.117463E-13
         5   6  3.898222E-12  6.100384E-12 -4.285117E-12  1.108732E-12 -2.117463E-13 -2.117463E-13
         5   7  6.100384E-12  3.898222E-12 -4.285117E-12  1.108732E-12 -2.117463E-13 -2.117463E-13
         5   8  6.100384E-12  6.100384E-12 -4.890106E-12  2.209813E-12 -2.117463E-13 -2.117463E-13
         6   1  1.313105E-11 -3.583861E-11  9.610077E-12  2.010562E-12 -2.450727E-14  1.770155E-13
         6   2  1.313105E-11 -3.609349E-11  9.680098E-12  2.931043E-12 -2.450729E-14  1.770155E-13
         6   3  1.497201E-11 -3.583861E-11  9.104318E-12  1.883124E-12 -2.450730E-14  1.770157E-13
         6   4  1.497201E-11 -3.609349E-11  9.174339E-12  2.803605E-12 -2.450730E-14  1.770156E-13
         6   5  1.313104E-11 -3.583861E-11  9.610077E-12  2.010562E-12  2.450731E-14 -1.770156E-13
         6   6  1.313104E-11 -3.609349E-11  9.680098E-12  2.931043E-12  2.450730E-14 -1.770156E-13
         6   7  1.497201E-11 -3.583861E-11  9.104318E-12  1.883124E-12  2.450732E-14 -1.770156E-13
         6   8  1.497201E-11 -3.609349E-11  9.174339E-12  2.803605E-12  2.450733E-14 -1.770156E-13
         7   1 -3.264455E-11  9.986581E-12  1.001392E-11  4.220606E-13  1.659654E-15 -3.685578E-13
         7   2 -3.264455E-11  9.927148E-12  1.002327E-11 -1.492483E-12 -3.524853E-16 -3.685578E-13
         7   3 -3.647363E-11  9.986581E-12  1.106586E-11  3.923440E-13  1.659655E-15 -3.678052E-13
         7   4 -3.647363E-11  9.927148E-12  1.107522E-11 -1.522200E-12 -3.524837E-16 -3.678052E-13
         7   5 -3.265018E-11  9.988689E-12  1.001392E-11  4.220606E-13  8.206052E-15  3.678053E-13
         7   6 -3.265018E-11  9.929255E-12  1.002327E-11 -1.492483E-12  6.193913E-15  3.678053E-13
         7   7 -3.647927E-11  9.988689E-12  1.106586E-11  3.923440E-13  8.206056E-15  3.685579E-13
         7   8 -3.647927E-11  9.929255E-12  1.107522E-11 -1.522200E-12  6.193917E-15  3.685579E-13
         8   1 -3.583861E-11  1.313104E-11  9.610077E-12  2.010562E-12  1.770155E-13 -2.450731E-14
         8   2 -3.583861E-11  1.497201E-11  9.104318E-12  1.883124E-12  1.770155E-13 -2.450730E-14
         8   3 -3.609349E-11  1.313104E-11  9.680098E-12  2.931043E-12  1.770155E-13 -2.450735E-14
         8   4 -3.609349E-11  1.497201E-11  9.174339E-12  2.803605E-12  1.770154E-13 -2.450728E-14
         8   5 -3.583861E-11  1.313105E-11  9.610077E-12  2.010562E-12 -1.770156E-13  2.450730E-14
         8   6 -3.583861E-11  1.497201E-11  9.104318E-12  1.883124E-12 -1.770156E-13  2.450732E-14
         8   7 -3.609349E-11  1.313105E-11  9.680098E-12  2.931043E-12 -1.770157E-13  2.450730E-14
         8   8 -3.609349E-11  1.497201E-11  9.174339E-12  2.803605E-12 -1.770156E-13  2.450734E-14
         9   1  6.085121E-43  5.421011E-20  1.693806E-20  2.710505E-20 -2.765665E-20 -2.444146E-20
         9   2  6.085121E-43  8.131516E-20  1.478522E-20  4.065758E-20  1.281974E-19  1.139437E-19
         9   3  6.494732E-40  5.421011E-20  2.733386E-20  2.710505E-20 -1.802045E-20  2.663590E-21
         9   4  6.494732E-40 -1.355253E-19 -4.299869E-20 -6.776264E-20 -4.512550E-20 -4.191032E-20
         9   5  8.475481E-42 -2.168404E-19  1.693806E-20 -1.084202E-19 -2.058577E-21  9.940652E-21
         9   6  8.475481E-42 -5.421011E-20  1.478522E-20 -2.710505E-20 -4.271616E-20 -9.591158E-20
         9   7  9.045995E-39 -2.168404E-19  2.733386E-20 -1.084202E-19  4.116698E-20  1.183609E-19
         9   8  9.045995E-39 -1.084202E-19 -4.299869E-20 -5.421011E-20  1.224821E-19  1.344814E-19

 displacements (vx,vy,vz) for set NALL and time  0.5778125E-01

         1  0.000000E+00  0.000000E+00  0.000000E+00
         2 -4.313901E-10  0.000000E+00  0.000000E+00
         3 -2.264798E-02  0.000000E+00  0.000000E+00
         4 -2.264798E-02  0.000000E+00  0.000000E+00
         5 -4.887656E-02  0.000000E+00  0.000000E+00
         6 -4.887655E-02  0.000000E+00  0.000000E+00
         7  0.000000E+00 -4.313901E-10  0.000000E+00
         8 -4.313901E-10 -4.313901E-10  0.000000E+00
         9 -2.264798E-02  5.213413E-09  0.000000E+00
        10 -2.264798E-02  5.027508E-09  0.000000E+00
        11 -4.887656E-02 -1.721455E-08  0.000000E+00
        12 -4.887655E-02 -2.171225E-08  0.000000E+00
        13  0.000000E+00 -2.264798E-02  0.000000E+00
        14  5.213413E-09 -2.264798E-02  0.000000E+00
        15  1.788860E-01  1.788860E-01  0.000000E+00
        16  1.788860E-01  1.788860E-01  0.000000E+00
        17  2.889045E-01 -6.698575E-01  0.000000E+00
        18  2.888918E-01 -7.828742E-01  0.000000E+00
        19  0.000000E+00 -2.264798E-02  0.000000E+00
        20  5.027508E-09 -2.264798E-02  0.000000E+00
        21  1.788860E-01  1.788860E-01  0.000000E+00
        22  1.788860E-01  1.788860E-01  0.000000E+00
        23  4.019212E-01 -6.698703E-01  0.000000E+00
        24  4.019085E-01 -7.828870E-01  0.000000E+00
        25  0.000000E+00 -4.887656E-02  0.000000E+00
        26 -1.721455E-08 -4.887656E-02  0.000000E+00
        27 -6.698575E-01  2.889045E-01  0.000000E+00
        28 -6.698703E-01  4.019212E-01  0.000000E+00
        29 -1.733438E+00 -1.733438E+00  0.000000E+00
        30 -1.733438E+00 -1.733438E+00  0.000000E+00
        31  0.000000E+00 -4.887655E-02  0.000000E+00
        32 -2.171225E-08 -4.887655E-02  0.000000E+00
        33 -7.828742E-01  2.888918E-01  0.000000E+00
        34 -7.828870E-01  4.019085E-01  0.000000E+00
        35 -1.733438E+00 -1.733438E+00  0.000000E+00
        36 -1.733438E+00 -1.733438E+00  0.000000E+00
        37  0.000000E+00  0.000000E+00  5.176681E-10
        38 -4.313901E-10  0.000000E+00  5.176681E-10
        39 -2.264798E-02  0.000000E+00 -1.823262E-09
        40 -2.264798E-02  0.000000E+00 -1.751759E-09
        41 -4.887656E-02  0.000000E+00  7.511031E-09
        42 -4.887655E-02  0.000000E+00  9.240914E-09
        43  0.000000E+00 -4.313901E-10  5.176681E-10
        44 -4.313901E-10 -4.313901E-10  5.176681E-10
        45 -2.264798E-02  5.213413E-09 -1.823262E-09
        46 -2.264798E-02  5.027508E-09 -1.751760E-09
        47 -4.887656E-02 -1.722500E-08  7.535315E-09
        48 -4.887655E-02 -2.172270E-08  9.265198E-09
        49  0.000000E+00 -2.264798E-02 -1.823262E-09
        50  5.213413E-09 -2.264798E-02 -1.823262E-09
        51  1.788860E-01  1.788860E-01 -3.284643E-09
        52  1.788860E-01  1.788860E-01 -4.313719E-09
        53  2.889045E-01 -6.698575E-01  7.534875E-09
        54  2.888918E-01 -7.828742E-01  7.689992E-09
        55  0.000000E+00 -2.264798E-02 -1.751759E-09
        56  5.027508E-09 -2.264798E-02 -1.751760E-09
        57  1.788860E-01  1.788860E-01 -4.313719E-09
        58  1.788860E-01  1.788860E-01 -5.342794E-09
        59  4.019212E-01 -6.698703E-01  6.732708E-09
        60  4.019085E-01 -7.828870E-01  6.887825E-09
        61  0.000000E+00 -4.887656E-02  7.511031E-09
        62 -1.722500E-08 -4.887656E-02  7.535315E-09
        63 -6.698575E-01  2.889045E-01  7.534875E-09
        64 -6.698703E-01  4.019212E-01  6.732708E-09
        65 -1.733438E+00 -1.733438E+00  6.356816E-17
        66 -1.733438E+00 -1.733438E+00 -1.974669E-17
        67  0.000000E+00 -4.887655E-02  9.240914E-09
        68 -2.172270E-08 -4.887655E-02  9.265198E-09
        69 -7.828742E-01  2.888918E-01  7.689992E-09
        70 -7.828870E-01  4.019085E-01  6.887825E-09
        71 -1.733438E+00 -1.733438E+00  1.285562E-17
        72 -1.733438E+00 -1.733438E+00 -1.492752E-17

 stresses (elem, integ.pnt.,sxx,syy,szz,sxy,sxz,syz) for set EALL and time  0.5778125E-01

         1   1 -2.588340E-07 -2.588340E-07 -2.846473E-16  2.856267E-16 -3.740755E-17 -3.740755E-17
         1   2 -2.588340E-07 -2.588340E-07  2.950506E-16  6.757999E-16 -1.373821E-16 -3.742454E-17
         1   3 -2.588340E-07 -2.588340E-07  2.950505E-16  6.757999E-16 -3.742454E-17 -1.373821E-16
         1   4 -2.588340E-07 -2.588340E-07  8.749323E-16  1.065973E-15 -1.375191E-16 -1.375190E-16
         1   5 -2.588340E-07 -2.588340E-07 -7.045403E-16  2.855037E-16 -3.963236E-17 -3.963238E-17
         1   6 -2.588340E-07 -2.588340E-07 -1.250944E-16  6.755090E-16 -1.396069E-16 -3.957580E-17
         1   7 -2.588340E-07 -2.588340E-07 -1.250944E-16  6.755090E-16 -3.957579E-17 -1.396069E-16
         1   8 -2.588340E-07 -2.588340E-07  4.545353E-16  1.065514E-15 -1.396703E-16 -1.396703E-16
         2   1 -2.698633E-07  2.093575E-06  4.667999E-09  2.912972E-08 -3.334295E-09  3.636258E-16
         2   2 -2.887259E-07  2.040036E-06 -4.668000E-09  2.912972E-08 -3.334299E-09  2.756708E-16
         2   3 -2.698633E-07  2.093575E-06  4.667998E-09  1.179141E-08 -3.334295E-09  3.895196E-15
         2   4 -2.887259E-07  2.040036E-06 -4.668001E-09  1.179141E-08 -3.334299E-09  3.836040E-15
         2   5 -2.698633E-07  2.093575E-06  4.667999E-09  2.912972E-08  3.334290E-09 -2.174494E-15
         2   6 -2.887259E-07  2.040036E-06 -4.668000E-09  2.912972E-08  3.334286E-09 -2.531545E-15
         2   7 -2.698633E-07  2.093575E-06  4.667998E-09  1.179141E-08  3.334290E-09  1.357073E-15
         2   8 -2.887259E-07  2.040036E-06 -4.668001E-09  1.179141E-08  3.334287E-09  1.028821E-15
         3   1  8.251462E-08 -7.570002E-06  1.182727E-07  6.500015E-08 -8.079835E-08  5.741877E-10
         3   2 -3.738367E-07 -8.865303E-06 -1.075982E-07  5.471915E-08 -8.053797E-08  5.741879E-10
         3   3  4.895777E-08 -7.582997E-06  1.085133E-07 -3.544743E-07 -8.079835E-08 -1.219508E-10
         3   4 -4.073936E-07 -8.878298E-06 -1.173576E-07 -3.647553E-07 -8.053797E-08 -1.219503E-10
         3   5  8.232862E-08 -7.572867E-06  1.173576E-07  6.500015E-08  8.053798E-08  2.839036E-09
         3   6 -3.740227E-07 -8.868167E-06 -1.085133E-07  5.471915E-08  8.079836E-08  2.839037E-09
         3   7  4.877177E-08 -7.585861E-06  1.075982E-07 -3.544743E-07  8.053798E-08  2.142898E-09
         3   8 -4.075796E-07 -8.881162E-06 -1.182727E-07 -3.647553E-07  8.079836E-08  2.142898E-09
         4   1  2.093575E-06 -2.698633E-07  4.667999E-09  2.912972E-08  3.538916E-16 -3.334295E-09
         4   2  2.093575E-06 -2.698633E-07  4.667999E-09  1.179141E-08  3.941581E-15 -3.334295E-09
         4   3  2.040036E-06 -2.887259E-07 -4.668000E-09  2.912972E-08  3.042161E-16 -3.334298E-09
         4   4  2.040036E-06 -2.887259E-07 -4.668001E-09  1.179141E-08  3.842137E-15 -3.334299E-09
         4   5  2.093575E-06 -2.698633E-07  4.668000E-09  2.912972E-08 -2.266942E-15  3.334290E-09
         4   6  2.093575E-06 -2.698633E-07  4.667999E-09  1.179141E-08  1.320745E-15  3.334290E-09
         4   7  2.040036E-06 -2.887259E-07 -4.668000E-09  2.912972E-08 -2.402566E-15  3.334287E-09
         4   8  2.040036E-06 -2.887259E-07 -4.668001E-09  1.179141E-08  1.135353E-15  3.334287E-09
         5   1  1.635847E-06  1.635847E-06 -1.343664E-07 -4.196792E-09  4.798798E-08  4.798798E-08
         5   2  1.907322E-06  2.406397E-06  8.698270E-15  2.453408E-07  4.798798E-08  4.798799E-08
         5   3  2.406397E-06  1.907322E-06  8.939756E-15  2.453408E-07  4.798798E-08  4.798799E-08
         5   4  2.677872E-06  2.677872E-06  1.343664E-07  4.948783E-07  4.798798E-08  4.798798E-08
         5   5  1.635847E-06  1.635847E-06 -1.343664E-07 -4.196787E-09 -4.798799E-08 -4.798799E-08
         5   6  1.907322E-06  2.406397E-06  4.892580E-16  2.453408E-07 -4.798800E-08 -4.798799E-08
         5   7  2.406397E-06  1.907322E-06  8.940447E-15  2.453408E-07 -4.798799E-08 -4.798799E-08
         5   8  2.677872E-06  2.677872E-06  1.343664E-07  4.948783E-07 -4.798800E-08 -4.798799E-08
         6   1  8.041870E-07 -8.342854E-06 -4.215893E-08  4.505844E-07 -7.224968E-09  3.740841E-08
         6   2  7.633543E-07 -8.459090E-06 -6.241257E-08  6.450827E-07 -7.224967E-09  3.740842E-08
         6   3  1.404816E-06 -8.131222E-06  6.258010E-08  4.128826E-07 -7.224976E-09  3.740842E-08
         6   4  1.363984E-06 -8.247458E-06  4.232648E-08  6.073809E-07 -7.224975E-09  3.740842E-08
         6   5  8.041870E-07 -8.342854E-06 -4.215895E-08  4.505844E-07  7.224979E-09 -3.740843E-08
         6   6  7.633543E-07 -8.459090E-06 -6.241258E-08  6.450827E-07  7.224982E-09 -3.740842E-08
         6   7  1.404816E-06 -8.131222E-06  6.258004E-08  4.128826E-07  7.224985E-09 -3.740842E-08
         6   8  1.363983E-06 -8.247458E-06  4.232647E-08  6.073809E-07  7.224981E-09 -3.740841E-08
         7   1 -7.570002E-06  8.251462E-08  1.182727E-07  6.500015E-08  5.741877E-10 -8.079835E-08
         7   2 -7.582997E-06  4.895777E-08  1.085133E-07 -3.544743E-07 -1.219506E-10 -8.079835E-08
         7   3 -8.865303E-06 -3.738367E-07 -1.075982E-07  5.471915E-08  5.741879E-10 -8.053797E-08
         7   4 -8.878298E-06 -4.073936E-07 -1.173576E-07 -3.647553E-07 -1.219503E-10 -8.053797E-08
         7   5 -7.572867E-06  8.232862E-08  1.173576E-07  6.500015E-08  2.839036E-09  8.053797E-08
         7   6 -7.585861E-06  4.877177E-08  1.075982E-07 -3.544743E-07  2.142897E-09  8.053798E-08
         7   7 -8.868167E-06 -3.740227E-07 -1.085133E-07  5.471915E-08  2.839037E-09  8.079836E-08
         7   8 -8.881162E-06 -4.075796E-07 -1.182727E-07 -3.647553E-07  2.142899E-09  8.079836E-08
         8   1 -8.342854E-06  8.041869E-07 -4.215896E-08  4.505844E-07  3.740843E-08 -7.224974E-09
         8   2 -8.131222E-06  1.404816E-06  6.258009E-08  4.128826E-07  3.740841E-08 -7.224964E-09
         8   3 -8.459090E-06  7.633543E-07 -6.241257E-08  6.450827E-07  3.740841E-08 -7.224978E-09
         8   4 -8.247458E-06  1.363983E-06  4.232647E-08  6.073809E-07  3.740840E-08 -7.224972E-09
         8   5 -8.342854E-06  8.041869E-07 -4.215895E-08  4.505844E-07 -3.740844E-08  7.224977E-09
         8   6 -8.131222E-06  1.404816E-06  6.258008E-08  4.128826E-07 -3.740842E-08  7.224984E-09
         8   7 -8.459090E-06  7.633543E-07 -6.241256E-08  6.450827E-07 -3.740842E-08  7.224976E-09
         8   8 -8.247458E-06  1.363983E-06  4.232646E-08  6.073809E-07 -3.740841E-08  7.224984E-09
         9   1  6.529290E-15  6.529290E-15  1.523501E-14  2.348317E-33 -1.120054E-14 -1.008759E-14
         9   2 -3.907258E-15 -8.285766E-15 -4.738425E-15 -2.189254E-15  4.124243E-15  6.331669E-15
         9   3  2.634443E-15  2.634443E-15  6.147034E-15  8.198774E-33 -1.886308E-14 -1.884461E-14
         9   4  2.824046E-14  6.764704E-14  2.648784E-14  1.970329E-14 -2.762009E-14 -2.650715E-14
         9   5 -4.601282E-14 -1.160690E-13 -3.730710E-14 -3.502807E-14  1.277320E-14  1.692678E-14
         9   6 -6.233759E-16 -6.233759E-16 -1.454544E-15  4.674492E-32  3.685500E-14  4.509323E-14
         9   7 -4.990766E-14 -1.199638E-13 -4.639507E-14 -3.502807E-14 -4.006276E-14 -3.999383E-14
         9   8 -2.758552E-14 -6.261359E-14 -2.933815E-14 -1.751404E-14  8.100832E-15  1.225441E-14

 strains (elem, integ.pnt.,exx,eyy,ezz,exy,exz,eyz) forset EALL and time  0.5778125E-01

         1   1 -8.627801E-13 -8.627801E-13  7.395258E-13  1.768165E-21 -2.315706E-22 -2.315706E-22
         1   2 -8.627801E-13 -8.627801E-13  7.395258E-13  4.183523E-21 -8.504605E-22 -2.316757E-22
         1   3 -8.627801E-13 -8.627801E-13  7.395258E-13  4.183523E-21 -2.316758E-22 -8.504605E-22
         1   4 -8.627801E-13 -8.627801E-13  7.395258E-13  6.598882E-21 -8.513084E-22 -8.513083E-22
         1   5 -8.627801E-13 -8.627801E-13  7.395258E-13  1.767404E-21 -2.453432E-22 -2.453433E-22
         1   6 -8.627801E-13 -8.627801E-13  7.395258E-13  4.181722E-21 -8.642331E-22 -2.449931E-22
         1   7 -8.627801E-13 -8.627801E-13  7.395258E-13  4.181722E-21 -2.449930E-22 -8.642332E-22
         1   8 -8.627801E-13 -8.627801E-13  7.395258E-13  6.596041E-21 -8.646257E-22 -8.646256E-22
         2   1 -4.282553E-12  1.034825E-11 -2.583073E-12  1.803268E-13 -2.064088E-14  2.251010E-21
         2   2 -4.282553E-12  1.013359E-11 -2.524099E-12  1.803268E-13 -2.064090E-14  1.706527E-21
         2   3 -4.282553E-12  1.034825E-11 -2.583073E-12  7.299443E-14 -2.064088E-14  2.411311E-20
         2   4 -4.282553E-12  1.013359E-11 -2.524100E-12  7.299445E-14 -2.064090E-14  2.374690E-20
         2   5 -4.282553E-12  1.034825E-11 -2.583073E-12  1.803268E-13  2.064084E-14 -1.346117E-20
         2   6 -4.282553E-12  1.013359E-11 -2.524099E-12  1.803268E-13  2.064082E-14 -1.567149E-20
         2   7 -4.282553E-12  1.034825E-11 -2.583073E-12  7.299443E-14  2.064084E-14  8.400925E-21
         2   8 -4.282553E-12  1.013359E-11 -2.524100E-12  7.299445E-14  2.064082E-14  6.368887E-21
         3   1  1.103825E-11 -3.633447E-11  1.125961E-11  4.023819E-13 -5.001803E-13  3.554495E-15
         3   2  1.103825E-11 -4.152796E-11  1.268640E-11  3.387376E-13 -4.985684E-13  3.554497E-15
         3   3  1.091097E-11 -3.633447E-11  1.127964E-11 -2.194365E-12 -5.001803E-13 -7.549334E-16
         3   4  1.091097E-11 -4.152796E-11  1.270643E-11 -2.258009E-12 -4.985684E-13 -7.549304E-16
         3   5  1.104277E-11 -3.634654E-11  1.125961E-11  4.023819E-13  4.985684E-13  1.757499E-14
         3   6  1.104277E-11 -4.154003E-11  1.268640E-11  3.387376E-13  5.001803E-13  1.757499E-14
         3   7  1.091548E-11 -3.634654E-11  1.127964E-11 -2.194365E-12  4.985684E-13  1.326556E-14
         3   8  1.091548E-11 -4.154003E-11  1.270643E-11 -2.258009E-12  5.001803E-13  1.326556E-14
         4   1  1.034825E-11 -4.282553E-12 -2.583073E-12  1.803268E-13  2.190750E-21 -2.064088E-14
         4   2  1.034825E-11 -4.282553E-12 -2.583073E-12  7.299443E-14  2.440025E-20 -2.064087E-14
         4   3  1.013359E-11 -4.282553E-12 -2.524099E-12  1.803268E-13  1.883235E-21 -2.064090E-14
         4   4  1.013359E-11 -4.282553E-12 -2.524100E-12  7.299445E-14  2.378465E-20 -2.064090E-14
         4   5  1.034825E-11 -4.282553E-12 -2.583073E-12  1.803268E-13 -1.403347E-20  2.064084E-14
         4   6  1.034825E-11 -4.282553E-12 -2.583073E-12  7.299443E-14  8.176035E-21  2.064084E-14
         4   7  1.013359E-11 -4.282553E-12 -2.524099E-12  1.803268E-13 -1.487304E-20  2.064082E-14
         4   8  1.013359E-11 -4.282553E-12 -2.524100E-12  7.299445E-14  7.028373E-21  2.064082E-14
         5   1  5.644775E-12  5.644775E-12 -5.313688E-12 -2.598014E-14  2.970685E-13  2.970685E-13
         5   2  5.644775E-12  8.734288E-12 -6.162455E-12  1.518776E-12  2.970684E-13  2.970685E-13
         5   3  8.734288E-12  5.644775E-12 -6.162455E-12  1.518776E-12  2.970685E-13  2.970685E-13
         5   4  8.734288E-12  8.734288E-12 -7.011222E-12  3.063533E-12  2.970685E-13  2.970685E-13
         5   5  5.644775E-12  5.644775E-12 -5.313688E-12 -2.598011E-14 -2.970685E-13 -2.970685E-13
         5   6  5.644775E-12  8.734288E-12 -6.162455E-12  1.518776E-12 -2.970686E-13 -2.970685E-13
         5   7  8.734288E-12  5.644775E-12 -6.162455E-12  1.518776E-12 -2.970685E-13 -2.970685E-13
         5   8  8.734288E-12  8.734288E-12 -7.011222E-12  3.063533E-12 -2.970685E-13 -2.970685E-13
         6   1  1.580679E-11 -4.081522E-11  1.056877E-11  2.802131E-12 -4.477834E-14  2.315658E-13
         6   2  1.580679E-11 -4.128092E-11  1.069671E-11  4.006273E-12 -4.477833E-14  2.315658E-13
         6   3  1.821507E-11 -4.081522E-11  9.907151E-12  2.569283E-12 -4.477839E-14  2.315658E-13
         6   4  1.821507E-11 -4.128092E-11  1.003509E-11  3.773425E-12 -4.477838E-14  2.315658E-13
         6   5  1.580679E-11 -4.081522E-11  1.056877E-11  2.802131E-12  4.477840E-14 -2.315659E-13
         6   6  1.580679E-11 -4.128092E-11  1.069671E-11  4.006273E-12  4.477842E-14 -2.315658E-13
         6   7  1.821507E-11 -4.081522E-11  9.907151E-12  2.569283E-12  4.477844E-14 -2.315658E-13
         6   8  1.821507E-11 -4.128092E-11  1.003509E-11  3.773425E-12  4.477842E-14 -2.315658E-13
         7   1 -3.633447E-11  1.103825E-11  1.125961E-11  4.023819E-13  3.554495E-15 -5.001803E-13
         7   2 -3.633447E-11  1.091097E-11  1.127964E-11 -2.194365E-12 -7.549323E-16 -5.001803E-13
         7   3 -4.152796E-11  1.103825E-11  1.268640E-11  3.387376E-13  3.554497E-15 -4.985684E-13
         7   4 -4.152796E-11  1.091097E-11  1.270643E-11 -2.258009E-12 -7.549306E-16 -4.985684E-13
         7   5 -3.634654E-11  1.104277E-11  1.125961E-11  4.023819E-13  1.757498E-14  4.985684E-13
         7   6 -3.634654E-11  1.091548E-11  1.127964E-11 -2.194365E-12  1.326556E-14  4.985684E-13
         7   7 -4.154003E-11  1.104277E-11  1.268640E-11  3.387376E-13  1.757499E-14  5.001803E-13
         7   8 -4.154003E-11  1.091548E-11  1.270643E-11 -2.258009E-12  1.326556E-14  5.001803E-13
         8   1 -4.081522E-11  1.580679E-11  1.056877E-11  2.802131E-12  2.315659E-13 -4.477837E-14
         8   2 -4.081522E-11  1.821507E-11  9.907151E-12  2.569283E-12  2.315658E-13 -4.477831E-14
         8   3 -4.128092E-11  1.580679E-11  1.069671E-11  4.006273E-12  2.315658E-13 -4.477839E-14
         8   4 -4.128092E-11  1.821507E-11  1.003509E-11  3.773426E-12  2.315657E-13 -4.477836E-14
         8   5 -4.081522E-11  1.580679E-11  1.056877E-11  2.802131E-12 -2.315659E-13  4.477839E-14
         8   6 -4.081522E-11  1.821507E-11  9.907151E-12  2.569283E-12 -2.315658E-13  4.477844E-14
         8   7 -4.128092E-11  1.580679E-11  1.069671E-11  4.006273E-12 -2.315658E-13  4.477839E-14
         8   8 -4.128092E-11  1.821507E-11  1.003509E-11  3.773425E-12 -2.315658E-13  4.477843E-14
         9   1  4.576253E-40  1.356922E-40  5.389255E-20  2.491911E-40 -6.933666E-20 -6.244698E-20
         9   2  4.576253E-40 -2.710505E-20 -5.145325E-21 -1.355253E-20  2.553103E-20  3.919605E-20
         9   3  1.394856E-40  1.356922E-40  2.174461E-20  1.375758E-40 -1.167714E-19 -1.166571E-19
         9   4  1.394856E-40  2.439455E-19 -1.084959E-20  1.219727E-19 -1.709815E-19 -1.640919E-19
         9   5  6.373898E-39 -4.336809E-19  5.389255E-20 -2.168404E-19  7.907220E-20  1.047848E-19
         9   6  6.373898E-39  5.950364E-41 -5.145325E-21  6.158491E-40  2.281500E-19  2.791485E-19
         9   7  1.942783E-39 -4.336809E-19  2.174461E-20 -2.168404E-19 -2.480076E-19 -2.475809E-19
         9   8  1.942783E-39 -2.168404E-19 -1.084959E-20 -1.084202E-19  5.014801E-20  7.586064E-20

 displacements (vx,vy,vz) for set NALL and time  0.6678125E-01

         1  0.000000E+00  0.000000E+00  0.000000E+00
         2 -6.367813E-10  0.000000E+00  0.000000E+00
         3 -3.343102E-02  0.000000E+00  0.000000E+00
         4 -3.343102E-02  0.000000E+00  0.000000E+00
         5 -7.332961E-02  0.000000E+00  0.000000E+00
         6 -7.332960E-02  0.000000E+00  0.000000E+00
         7  0.000000E+00 -6.367813E-10  0.000000E+00
         8 -6.367813E-10 -6.367813E-10  0.000000E+00
         9 -3.343102E-02  7.074804E-09  0.000000E+00
        10 -3.343102E-02  6.739007E-09  0.000000E+00
        11 -7.332960E-02 -1.824421E-08  0.000000E+00
        12 -7.332960E-02 -2.406906E-08  0.000000E+00
        13  0.000000E+00 -3.343102E-02  0.000000E+00
        14  7.074804E-09 -3.343102E-02  0.000000E+00
        15  2.392843E-01  2.392843E-01  0.000000E+00
        16  2.392843E-01  2.392843E-01  0.000000E+00
        17  3.943180E-01 -7.211165E-01  0.000000E+00
        18  3.942948E-01 -8.736288E-01  0.000000E+00
        19  0.000000E+00 -3.343102E-02  0.000000E+00
        20  6.739007E-09 -3.343102E-02  0.000000E+00
        21  2.392843E-01  2.392843E-01  0.000000E+00
        22  2.392843E-01  2.392843E-01  0.000000E+00
        23  5.468304E-01 -7.211397E-01  0.000000E+00
        24  5.468071E-01 -8.736521E-01  0.000000E+00
        25  0.000000E+00 -7.332961E-02  0.000000E+00
        26 -1.824421E-08 -7.332960E-02  0.000000E+00
        27 -7.211165E-01  3.943180E-01  0.000000E+00
        28 -7.211397E-01  5.468304E-01  0.000000E+00
        29 -2.003437E+00 -2.003437E+00  0.000000E+00
        30 -2.003437E+00 -2.003437E+00  0.000000E+00
        31  0.000000E+00 -7.332960E-02  0.000000E+00
        32 -2.406906E-08 -7.332960E-02  0.000000E+00
        33 -8.736288E-01  3.942948E-01  0.000000E+00
        34 -8.736521E-01  5.468071E-01  0.000000E+00
        35 -2.003437E+00 -2.003437E+00  0.000000E+00
        36 -2.003437E+00 -2.003437E+00  0.000000E+00
        37  0.000000E+00  0.000000E+00  7.641375E-10
        38 -6.367813E-10  0.000000E+00  7.641375E-10
        39 -3.343102E-02  0.000000E+00 -2.420742E-09
        40 -3.343102E-02  0.000000E+00 -2.291590E-09
        41 -7.332961E-02  0.000000E+00  8.074329E-09
        42 -7.332960E-02  0.000000E+00  1.031466E-08
        43  0.000000E+00 -6.367813E-10  7.641375E-10
        44 -6.367813E-10 -6.367813E-10  7.641375E-10
        45 -3.343102E-02  7.074804E-09 -2.420743E-09
        46 -3.343102E-02  6.739007E-09 -2.291590E-09
        47 -7.332961E-02 -1.826400E-08  8.120317E-09
        48 -7.332960E-02 -2.408885E-08  1.036064E-08
        49  0.000000E+00 -3.343102E-02 -2.420742E-09
        50  7.074804E-09 -3.343102E-02 -2.420743E-09
        51  2.392843E-01  2.392843E-01 -4.467926E-09
        52  2.392843E-01  2.392843E-01 -5.839882E-09
        53  3.943180E-01 -7.211165E-01  7.964273E-09
        54  3.942948E-01 -8.736288E-01  8.226732E-09
        55  0.000000E+00 -3.343102E-02 -2.291590E-09
        56  6.739007E-09 -3.343102E-02 -2.291590E-09
        57  2.392843E-01  2.392843E-01 -5.839882E-09
        58  2.392843E-01  2.392843E-01 -7.211837E-09
        59  5.468304E-01 -7.211397E-01  6.982996E-09
        60  5.468071E-01 -8.736521E-01  7.245455E-09
        61  0.000000E+00 -7.332961E-02  8.074329E-09
        62 -1.826400E-08 -7.332961E-02  8.120317E-09
        63 -7.211165E-01  3.943180E-01  7.964273E-09
        64 -7.211397E-01  5.468304E-01  6.982996E-09
        65 -2.003437E+00 -2.003437E+00 -9.284476E-18
        66 -2.003437E+00 -2.003437E+00  3.842797E-18
        67  0.000000E+00 -7.332960E-02  1.031466E-08
        68 -2.408885E-08 -7.332960E-02  1.036064E-08
        69 -8.736288E-01  3.942948E-01  8.226732E-09
        70 -8.736521E-01  5.468071E-01  7.245455E-09
        71 -2.003437E+00 -2.003437E+00  8.860881E-17
        72 -2.003437E+00 -2.003437E+00 -7.717402E-17

 stresses (elem, integ.pnt.,sxx,syy,szz,sxy,sxz,syz) for set EALL and time  0.6678125E-01

         1   1 -3.820688E-07 -3.820688E-07 -4.990871E-16  5.116471E-16 -6.608630E-17 -6.600837E-17
         1   2 -3.820688E-07 -3.820688E-07  5.530761E-16  1.210421E-15 -2.480596E-16 -6.608629E-17
         1   3 -3.820688E-07 -3.820688E-07  5.526290E-16  1.210719E-15 -6.600837E-17 -2.477688E-16
         1   4 -3.820688E-07 -3.820688E-07  1.604792E-15  1.909493E-15 -2.477688E-16 -2.480596E-16
         1   5 -3.820688E-07 -3.820688E-07 -1.262928E-15  5.116470E-16 -6.466414E-17 -6.458619E-17
         1   6 -3.820688E-07 -3.820688E-07 -2.112117E-16  1.210719E-15 -2.466374E-16 -6.466408E-17
         1   7 -3.820688E-07 -3.820688E-07 -2.107646E-16  1.210421E-15 -6.458620E-17 -2.463466E-16
         1   8 -3.820688E-07 -3.820688E-07  8.409516E-16  1.909493E-15 -2.463466E-16 -2.466374E-16
         2   1 -4.019908E-07  2.823546E-06  8.431726E-09  5.261648E-08 -6.022673E-09  4.984049E-16
         2   2 -4.360618E-07  2.726839E-06 -8.431726E-09  5.261648E-08 -6.022677E-09  3.666618E-16
         2   3 -4.019907E-07  2.823546E-06  8.431725E-09  2.129861E-08 -6.022673E-09  5.170187E-15
         2   4 -4.360618E-07  2.726839E-06 -8.431727E-09  2.129861E-08 -6.022678E-09  5.058071E-15
         2   5 -4.019908E-07  2.823546E-06  8.431726E-09  5.261648E-08  6.022668E-09 -2.811691E-15
         2   6 -4.360619E-07  2.726839E-06 -8.431725E-09  5.261648E-08  6.022663E-09 -3.322990E-15
         2   7 -4.019908E-07  2.823546E-06  8.431724E-09  2.129861E-08  6.022668E-09  1.860082E-15
         2   8 -4.360618E-07  2.726839E-06 -8.431728E-09  2.129861E-08  6.022662E-09  1.368410E-15
         3   1  7.549731E-08 -8.111759E-06  1.563669E-07  5.336789E-08 -1.047178E-07  1.087343E-09
         3   2 -5.155114E-07 -9.789268E-06 -1.361526E-07  3.389870E-08 -1.042247E-07  1.087343E-09
         3   3  1.195046E-08 -8.136367E-06  1.378855E-07 -4.898825E-07 -1.047178E-07 -2.309408E-10
         3   4 -5.790583E-07 -9.813877E-06 -1.546340E-07 -5.093517E-07 -1.042247E-07 -2.309403E-10
         3   5  7.514508E-08 -8.117183E-06  1.546340E-07  5.336788E-08  1.042247E-07  5.376302E-09
         3   6 -5.158636E-07 -9.794693E-06 -1.378855E-07  3.389870E-08  1.047178E-07  5.376304E-09
         3   7  1.159824E-08 -8.141791E-06  1.361526E-07 -4.898825E-07  1.042247E-07  4.058019E-09
         3   8 -5.794105E-07 -9.819301E-06 -1.563669E-07 -5.093517E-07  1.047178E-07  4.058020E-09
         4   1  2.823546E-06 -4.019908E-07  8.431727E-09  5.261648E-08  4.782366E-16 -6.022674E-09
         4   2  2.823546E-06 -4.019907E-07  8.431725E-09  2.129861E-08  5.274067E-15 -6.022673E-09
         4   3  2.726839E-06 -4.360618E-07 -8.431725E-09  5.261648E-08  3.932877E-16 -6.022677E-09
         4   4  2.726839E-06 -4.360618E-07 -8.431728E-09  2.129861E-08  5.087608E-15 -6.022678E-09
         4   5  2.823546E-06 -4.019908E-07  8.431726E-09  5.261648E-08 -3.011007E-15  6.022668E-09
         4   6  2.823546E-06 -4.019908E-07  8.431726E-09  2.129861E-08  1.784813E-15  6.022667E-09
         4   7  2.726839E-06 -4.360619E-07 -8.431727E-09  5.261648E-08 -3.226531E-15  6.022663E-09
         4   8  2.726839E-06 -4.360618E-07 -8.431727E-09  2.129861E-08  1.467779E-15  6.022663E-09
         5   1  2.225331E-06  2.225331E-06 -1.791363E-07 -1.092460E-08  6.397721E-08  6.397721E-08
         5   2  2.587259E-06  3.252622E-06 -4.458931E-15  3.217570E-07  6.397720E-08  6.397721E-08
         5   3  3.252622E-06  2.587259E-06  1.020084E-14  3.217570E-07  6.397721E-08  6.397721E-08
         5   4  3.614551E-06  3.614551E-06  1.791363E-07  6.544385E-07  6.397721E-08  6.397721E-08
         5   5  2.225331E-06  2.225331E-06 -1.791363E-07 -1.092460E-08 -6.397723E-08 -6.397723E-08
         5   6  2.587259E-06  3.252622E-06  7.446369E-15  3.217570E-07 -6.397723E-08 -6.397723E-08
         5   7  3.252622E-06  2.587259E-06 -1.291519E-15  3.217570E-07 -6.397722E-08 -6.397723E-08
         5   8  3.614551E-06  3.614551E-06  1.791363E-07  6.544385E-07 -6.397722E-08 -6.397722E-08
         6   1  1.135950E-06 -9.104549E-06 -4.686889E-08  5.962622E-07 -1.222504E-08  4.576279E-08
         6   2  1.066857E-06 -9.301218E-06 -8.113816E-08  8.341706E-07 -1.222505E-08  4.576280E-08
         6   3  1.870671E-06 -8.845644E-06  8.125655E-08  5.324742E-07 -1.222506E-08  4.576282E-08
         6   4  1.801579E-06 -9.042313E-06  4.698731E-08  7.703825E-07 -1.222504E-08  4.576279E-08
         6   5  1.135950E-06 -9.104549E-06 -4.686891E-08  5.962623E-07  1.222507E-08 -4.576282E-08
         6   6  1.066857E-06 -9.301218E-06 -8.113819E-08  8.341706E-07  1.222507E-08 -4.576282E-08
         6   7  1.870671E-06 -8.845644E-06  8.125654E-08  5.324742E-07  1.222506E-08 -4.576280E-08
         6   8  1.801579E-06 -9.042313E-06  4.698727E-08  7.703825E-07  1.222507E-08 -4.576282E-08
         7   1 -8.111759E-06  7.549730E-08  1.563669E-07  5.336789E-08  1.087343E-09 -1.047178E-07
         7   2 -8.136367E-06  1.195046E-08  1.378855E-07 -4.898825E-07 -2.309407E-10 -1.047178E-07
         7   3 -9.789268E-06 -5.155114E-07 -1.361526E-07  3.389870E-08  1.087343E-09 -1.042247E-07
         7   4 -9.813877E-06 -5.790583E-07 -1.546340E-07 -5.093517E-07 -2.309402E-10 -1.042247E-07
         7   5 -8.117183E-06  7.514508E-08  1.546340E-07  5.336789E-08  5.376302E-09  1.042247E-07
         7   6 -8.141791E-06  1.159824E-08  1.361526E-07 -4.898825E-07  4.058019E-09  1.042247E-07
         7   7 -9.794693E-06 -5.158636E-07 -1.378855E-07  3.389870E-08  5.376304E-09  1.047178E-07
         7   8 -9.819301E-06 -5.794105E-07 -1.563669E-07 -5.093517E-07  4.058020E-09  1.047178E-07
         8   1 -9.104549E-06  1.135950E-06 -4.686887E-08  5.962622E-07  4.576278E-08 -1.222506E-08
         8   2 -8.845644E-06  1.870671E-06  8.125657E-08  5.324742E-07  4.576279E-08 -1.222504E-08
         8   3 -9.301218E-06  1.066857E-06 -8.113812E-08  8.341706E-07  4.576281E-08 -1.222507E-08
         8   4 -9.042313E-06  1.801579E-06  4.698731E-08  7.703825E-07  4.576279E-08 -1.222506E-08
         8   5 -9.104549E-06  1.135950E-06 -4.686885E-08  5.962623E-07 -4.576282E-08  1.222507E-08
         8   6 -8.845644E-06  1.870671E-06  8.125656E-08  5.324742E-07 -4.576282E-08  1.222507E-08
         8   7 -9.301218E-06  1.066857E-06 -8.113812E-08  8.341706E-07 -4.576282E-08  1.222506E-08
         8   8 -9.042313E-06  1.801578E-06  4.698727E-08  7.703825E-07 -4.576281E-08  1.222505E-08
         9   1 -1.206468E-14 -2.957871E-14 -1.063688E-14 -8.757018E-15 -3.149209E-14 -2.859843E-14
         9   2  2.159176E-14  5.224132E-14  1.973121E-14  1.532478E-14  2.761777E-14  2.698529E-14
         9   3 -6.060610E-15 -2.357465E-14  3.372612E-15 -8.757018E-15  1.314535E-14  1.956517E-14
         9   4  1.399021E-14  4.026126E-14  6.372763E-15  1.313553E-14  2.190237E-14  2.479603E-14
         9   5  1.070849E-15  1.070849E-15  2.498647E-15 -6.780792E-35 -7.522887E-15  3.276419E-15
         9   6 -1.453094E-14 -3.204497E-14 -1.639149E-14 -8.757018E-15  1.218040E-14  9.819938E-15
         9   7 -9.800929E-14 -2.381216E-13 -8.857607E-14 -7.005614E-14  1.209886E-15  2.516896E-14
         9   8  7.422444E-15  2.493648E-14 -1.950001E-16  8.757018E-15 -2.068266E-14 -9.883352E-15

 strains (elem, integ.pnt.,exx,eyy,ezz,exy,exz,eyz) forset EALL and time  0.6678125E-01

         1   1 -1.273563E-12 -1.273563E-12  1.091625E-12  3.167339E-21 -4.091057E-22 -4.086232E-22
         1   2 -1.273563E-12 -1.273563E-12  1.091625E-12  7.493082E-21 -1.535607E-21 -4.091056E-22
         1   3 -1.273563E-12 -1.273563E-12  1.091625E-12  7.494927E-21 -4.086233E-22 -1.533807E-21
         1   4 -1.273563E-12 -1.273563E-12  1.091625E-12  1.182067E-20 -1.533807E-21 -1.535607E-21
         1   5 -1.273563E-12 -1.273563E-12  1.091625E-12  3.167339E-21 -4.003018E-22 -3.998193E-22
         1   6 -1.273563E-12 -1.273563E-12  1.091625E-12  7.494927E-21 -1.526803E-21 -4.003015E-22
         1   7 -1.273563E-12 -1.273563E-12  1.091625E-12  7.493082E-21 -3.998193E-22 -1.525003E-21
         1   8 -1.273563E-12 -1.273563E-12  1.091625E-12  1.182067E-20 -1.525003E-21 -1.526803E-21
         2   1 -5.959924E-12  1.400768E-11 -3.419213E-12  3.257210E-13 -3.728321E-14  3.085341E-21
         2   2 -5.959924E-12  1.361994E-11 -3.312690E-12  3.257211E-13 -3.728324E-14  2.269788E-21
         2   3 -5.959924E-12  1.400768E-11 -3.419213E-12  1.318485E-13 -3.728321E-14  3.200589E-20
         2   4 -5.959924E-12  1.361994E-11 -3.312690E-12  1.318485E-13 -3.728324E-14  3.131184E-20
         2   5 -5.959924E-12  1.400768E-11 -3.419213E-12  3.257210E-13  3.728318E-14 -1.740577E-20
         2   6 -5.959924E-12  1.361994E-11 -3.312690E-12  3.257211E-13  3.728315E-14 -2.057095E-20
         2   7 -5.959924E-12  1.400768E-11 -3.419213E-12  1.318485E-13  3.728318E-14  1.151479E-20
         2   8 -5.959924E-12  1.361994E-11 -3.312690E-12  1.318485E-13  3.728315E-14  8.471104E-21
         3   1  1.172436E-11 -3.895866E-11  1.222498E-11  3.303726E-13 -6.482529E-13  6.731170E-15
         3   2  1.172436E-11 -4.568462E-11  1.407277E-11  2.098491E-13 -6.452004E-13  6.731172E-15
         3   3  1.148331E-11 -3.895866E-11  1.226291E-11 -3.032606E-12 -6.482529E-13 -1.429634E-15
         3   4  1.148331E-11 -4.568462E-11  1.411070E-11 -3.153130E-12 -6.452004E-13 -1.429631E-15
         3   5  1.173290E-11 -3.898151E-11  1.222498E-11  3.303726E-13  6.452005E-13  3.328187E-14
         3   6  1.173290E-11 -4.570747E-11  1.407277E-11  2.098491E-13  6.482530E-13  3.328188E-14
         3   7  1.149186E-11 -3.898151E-11  1.226291E-11 -3.032606E-12  6.452005E-13  2.512107E-14
         3   8  1.149186E-11 -4.570747E-11  1.411070E-11 -3.153130E-12  6.482530E-13  2.512108E-14
         4   1  1.400768E-11 -5.959924E-12 -3.419213E-12  3.257210E-13  2.960489E-21 -3.728322E-14
         4   2  1.400768E-11 -5.959924E-12 -3.419213E-12  1.318485E-13  3.264896E-20 -3.728322E-14
         4   3  1.361994E-11 -5.959924E-12 -3.312690E-12  3.257211E-13  2.434615E-21 -3.728324E-14
         4   4  1.361994E-11 -5.959924E-12 -3.312690E-12  1.318485E-13  3.149469E-20 -3.728324E-14
         4   5  1.400768E-11 -5.959924E-12 -3.419213E-12  3.257210E-13 -1.863963E-20  3.728318E-14
         4   6  1.400768E-11 -5.959924E-12 -3.419213E-12  1.318485E-13  1.104884E-20  3.728318E-14
         4   7  1.361994E-11 -5.959924E-12 -3.312690E-12  3.257211E-13 -1.997383E-20  3.728315E-14
         4   8  1.361994E-11 -5.959924E-12 -3.312690E-12  1.318485E-13  9.086247E-21  3.728315E-14
         5   1  7.673679E-12  7.673679E-12 -7.211118E-12 -6.762848E-14  3.960494E-13  3.960494E-13
         5   2  7.673679E-12  1.179259E-11 -8.342688E-12  1.991829E-12  3.960494E-13  3.960494E-13
         5   3  1.179259E-11  7.673679E-12 -8.342688E-12  1.991829E-12  3.960494E-13  3.960494E-13
         5   4  1.179259E-11  1.179259E-11 -9.474258E-12  4.051286E-12  3.960494E-13  3.960494E-13
         5   5  7.673679E-12  7.673679E-12 -7.211118E-12 -6.762851E-14 -3.960495E-13 -3.960495E-13
         5   6  7.673679E-12  1.179259E-11 -8.342688E-12  1.991829E-12 -3.960495E-13 -3.960495E-13
         5   7  1.179259E-11  7.673679E-12 -8.342688E-12  1.991829E-12 -3.960495E-13 -3.960495E-13
         5   8  1.179259E-11  1.179259E-11 -9.474258E-12  4.051286E-12 -3.960495E-13 -3.960495E-13
         6   1  1.848048E-11 -4.490857E-11  1.116053E-11  3.710483E-12 -7.576525E-14  2.832703E-13
         6   2  1.848048E-11 -4.569653E-11  1.137700E-11  5.183490E-12 -7.576532E-14  2.832704E-13
         6   3  2.142650E-11 -4.490857E-11  1.035118E-11  3.316503E-12 -7.576534E-14  2.832705E-13
         6   4  2.142650E-11 -4.569653E-11  1.056766E-11  4.789510E-12 -7.576525E-14  2.832704E-13
         6   5  1.848048E-11 -4.490857E-11  1.116053E-11  3.710483E-12  7.576543E-14 -2.832705E-13
         6   6  1.848048E-11 -4.569653E-11  1.137700E-11  5.183490E-12  7.576541E-14 -2.832705E-13
         6   7  2.142650E-11 -4.490857E-11  1.035118E-11  3.316503E-12  7.576535E-14 -2.832704E-13
         6   8  2.142650E-11 -4.569653E-11  1.056766E-11  4.789510E-12  7.576543E-14 -2.832706E-13
         7   1 -3.895866E-11  1.172436E-11  1.222498E-11  3.303726E-13  6.731170E-15 -6.482529E-13
         7   2 -3.895866E-11  1.148331E-11  1.226291E-11 -3.032606E-12 -1.429633E-15 -6.482529E-13
         7   3 -4.568462E-11  1.172436E-11  1.407277E-11  2.098491E-13  6.731172E-15 -6.452004E-13
         7   4 -4.568462E-11  1.148331E-11  1.411070E-11 -3.153130E-12 -1.429630E-15 -6.452004E-13
         7   5 -3.898151E-11  1.173290E-11  1.222498E-11  3.303726E-13  3.328187E-14  6.452005E-13
         7   6 -3.898151E-11  1.149186E-11  1.226291E-11 -3.032606E-12  2.512107E-14  6.452005E-13
         7   7 -4.570747E-11  1.173290E-11  1.407277E-11  2.098491E-13  3.328188E-14  6.482530E-13
         7   8 -4.570747E-11  1.149186E-11  1.411070E-11 -3.153130E-12  2.512108E-14  6.482530E-13
         8   1 -4.490857E-11  1.848048E-11  1.116053E-11  3.710483E-12  2.832703E-13 -7.576533E-14
         8   2 -4.490857E-11  2.142650E-11  1.035118E-11  3.316503E-12  2.832704E-13 -7.576524E-14
         8   3 -4.569653E-11  1.848048E-11  1.137700E-11  5.183490E-12  2.832705E-13 -7.576538E-14
         8   4 -4.569653E-11  2.142650E-11  1.056766E-11  4.789510E-12  2.832704E-13 -7.576533E-14
         8   5 -4.490857E-11  1.848048E-11  1.116053E-11  3.710483E-12 -2.832705E-13  7.576543E-14
         8   6 -4.490857E-11  2.142650E-11  1.035118E-11  3.316503E-12 -2.832705E-13  7.576543E-14
         8   7 -4.569653E-11  1.848048E-11  1.137700E-11  5.183490E-12 -2.832706E-13  7.576534E-14
         8   8 -4.569653E-11  2.142650E-11  1.056766E-11  4.789510E-12 -2.832705E-13  7.576532E-14
         9   1  5.440672E-41 -1.084202E-19  8.838751E-21 -5.421011E-20 -1.949511E-19 -1.770379E-19
         9   2  5.440672E-41  1.897354E-19 -1.151770E-20  9.486769E-20  1.709672E-19  1.670518E-19
         9   3  1.462781E-39 -1.084202E-19  5.839613E-20 -5.421011E-20  8.137599E-20  1.211177E-19
         9   4  1.462781E-39  1.626303E-19 -4.715560E-20  8.131516E-20  1.355861E-19  1.534993E-19
         9   5  7.577878E-40  4.491179E-39  8.838751E-21 -1.844820E-39 -4.657025E-20  2.028260E-20
         9   6  7.577878E-40 -1.084202E-19 -1.151770E-20 -5.421011E-20  7.540249E-20  6.079009E-20
         9   7  2.037391E-38 -8.673617E-19  5.839613E-20 -4.336809E-19  7.489769E-21  1.558079E-19
         9   8  2.037391E-38  1.084202E-19 -4.715560E-20  5.421011E-20 -1.280355E-19 -6.118265E-20

 displacements (vx,vy,vz) for set NALL and time  0.7578125E-01

         1  0.000000E+00  0.000000E+00  0.000000E+00
         2 -8.570674E-10  0.000000E+00  0.000000E+00
         3 -4.499604E-02  0.000000E+00  0.000000E+00
         4 -4.499605E-02  0.000000E+00  0.000000E+00
         5 -1.005003E-01  0.000000E+00  0.000000E+00
         6 -1.005003E-01  0.000000E+00  0.000000E+00
         7  0.000000E+00 -8.570674E-10  0.000000E+00
         8 -8.570674E-10 -8.570674E-10  0.000000E+00
         9 -4.499604E-02  9.118786E-09  0.000000E+00
        10 -4.499604E-02  8.573198E-09  0.000000E+00
        11 -1.005003E-01 -1.865302E-08  0.000000E+00
        12 -1.005003E-01 -2.598052E-08  0.000000E+00
        13  0.000000E+00 -4.499604E-02  0.000000E+00
        14  9.118786E-09 -4.499604E-02  0.000000E+00
        15  3.042755E-01  3.042755E-01  0.000000E+00
        16  3.042755E-01  3.042755E-01  0.000000E+00
        17  5.102745E-01 -7.535903E-01  0.000000E+00
        18  5.102354E-01 -9.511787E-01  0.000000E+00
        19  0.000000E+00 -4.499605E-02  0.000000E+00
        20  8.573198E-09 -4.499604E-02  0.000000E+00
        21  3.042755E-01  3.042755E-01  0.000000E+00
        22  3.042755E-01  3.042755E-01  0.000000E+00
        23  7.078628E-01 -7.536294E-01  0.000000E+00
        24  7.078238E-01 -9.512177E-01  0.000000E+00
        25  0.000000E+00 -1.005003E-01  0.000000E+00
        26 -1.865302E-08 -1.005003E-01  0.000000E+00
        27 -7.535903E-01  5.102745E-01  0.000000E+00
        28 -7.536294E-01  7.078628E-01  0.000000E+00
        29 -2.273438E+00 -2.273438E+00  0.000000E+00
        30 -2.273438E+00 -2.273438E+00  0.000000E+00
        31  0.000000E+00 -1.005003E-01  0.000000E+00
        32 -2.598052E-08 -1.005003E-01  0.000000E+00
        33 -9.511787E-01  5.102354E-01  0.000000E+00
        34 -9.512177E-01  7.078238E-01  0.000000E+00
        35 -2.273438E+00 -2.273438E+00  0.000000E+00
        36 -2.273438E+00 -2.273438E+00  0.000000E+00
        37  0.000000E+00  0.000000E+00  1.028481E-09
        38 -8.570674E-10  0.000000E+00  1.028481E-09
        39 -4.499604E-02  0.000000E+00 -3.073664E-09
        40 -4.499605E-02  0.000000E+00 -2.863822E-09
        41 -1.005003E-01  0.000000E+00  8.397259E-09
        42 -1.005003E-01  0.000000E+00  1.121553E-08
        43  0.000000E+00 -8.570674E-10  1.028481E-09
        44 -8.570674E-10 -8.570674E-10  1.028481E-09
        45 -4.499604E-02  9.118786E-09 -3.073664E-09
        46 -4.499605E-02  8.573198E-09 -2.863822E-09
        47 -1.005003E-01 -1.868681E-08  8.475793E-09
        48 -1.005003E-01 -2.601431E-08  1.129406E-08
        49  0.000000E+00 -4.499604E-02 -3.073664E-09
        50  9.118786E-09 -4.499604E-02 -3.073664E-09
        51  3.042755E-01  3.042755E-01 -5.753793E-09
        52  3.042755E-01  3.042755E-01 -7.513304E-09
        53  5.102745E-01 -7.535903E-01  8.111861E-09
        54  5.102354E-01 -9.511787E-01  8.529635E-09
        55  0.000000E+00 -4.499605E-02 -2.863822E-09
        56  8.573198E-09 -4.499605E-02 -2.863822E-09
        57  3.042755E-01  3.042755E-01 -7.513304E-09
        58  3.042755E-01  3.042755E-01 -9.272815E-09
        59  7.078628E-01 -7.536294E-01  6.975272E-09
        60  7.078238E-01 -9.512177E-01  7.393045E-09
        61  0.000000E+00 -1.005003E-01  8.397259E-09
        62 -1.868681E-08 -1.005003E-01  8.475793E-09
        63 -7.535903E-01  5.102745E-01  8.111861E-09
        64 -7.536294E-01  7.078628E-01  6.975272E-09
        65 -2.273438E+00 -2.273438E+00  6.995032E-17
        66 -2.273438E+00 -2.273438E+00 -8.351911E-17
        67  0.000000E+00 -1.005003E-01  1.121553E-08
        68 -2.601431E-08 -1.005003E-01  1.129406E-08
        69 -9.511787E-01  5.102354E-01  8.529635E-09
        70 -9.512177E-01  7.078238E-01  7.393045E-09
        71 -2.273438E+00 -2.273438E+00 -1.831448E-17
        72 -2.273438E+00 -2.273438E+00 -6.665063E-17

 stresses (elem, integ.pnt.,sxx,syy,szz,sxy,sxz,syz) for set EALL and time  0.7578125E-01

         1   1 -5.142405E-07 -5.142405E-07 -7.944747E-16  8.266475E-16 -1.056261E-16 -1.056123E-16
         1   2 -5.142405E-07 -5.142405E-07  9.199570E-16  1.955737E-15 -4.023624E-16 -1.056123E-16
         1   3 -5.142405E-07 -5.142405E-07  9.197126E-16  1.956001E-15 -1.056261E-16 -4.023717E-16
         1   4 -5.142405E-07 -5.142405E-07  2.634145E-15  3.085091E-15 -4.023624E-16 -4.023717E-16
         1   5 -5.142405E-07 -5.142405E-07 -2.040816E-15  8.266475E-16 -9.746569E-17 -9.739083E-17
         1   6 -5.142405E-07 -5.142405E-07 -3.263840E-16  1.955737E-15 -3.942020E-16 -9.739084E-17
         1   7 -5.142405E-07 -5.142405E-07 -3.266286E-16  1.956001E-15 -9.746572E-17 -3.941503E-16
         1   8 -5.142405E-07 -5.142405E-07  1.387803E-15  3.085091E-15 -3.942021E-16 -3.941503E-16
         2   1 -5.466088E-07  3.621593E-06  1.369948E-08  8.548882E-08 -9.785358E-09  6.884446E-16
         2   2 -6.019659E-07  3.464468E-06 -1.369948E-08  8.548882E-08 -9.785364E-09  4.302004E-16
         2   3 -5.466088E-07  3.621593E-06  1.369948E-08  3.460499E-08 -9.785358E-09  6.745311E-15
         2   4 -6.019659E-07  3.464468E-06 -1.369949E-08  3.460500E-08 -9.785364E-09  6.602090E-15
         2   5 -5.466088E-07  3.621593E-06  1.369948E-08  8.548882E-08  9.785352E-09 -3.487506E-15
         2   6 -6.019659E-07  3.464468E-06 -1.369948E-08  8.548882E-08  9.785346E-09 -4.566310E-15
         2   7 -5.466088E-07  3.621593E-06  1.369948E-08  3.460499E-08  9.785351E-09  2.569336E-15
         2   8 -6.019659E-07  3.464468E-06 -1.369949E-08  3.460500E-08  9.785345E-09  1.605556E-15
         3   1  6.820517E-08 -8.406793E-06  2.012511E-07  4.115397E-08 -1.318429E-07  1.856907E-09
         3   2 -6.752672E-07 -1.051705E-05 -1.667302E-07  7.905506E-09 -1.310008E-07  1.856908E-09
         3   3 -4.031682E-08 -8.448818E-06  1.696895E-07 -6.422398E-07 -1.318429E-07 -3.943909E-10
         3   4 -7.837892E-07 -1.055908E-05 -1.982917E-07 -6.754883E-07 -1.310008E-07 -3.943900E-10
         3   5  6.760367E-08 -8.416056E-06  1.982917E-07  4.115397E-08  1.310008E-07  9.181371E-09
         3   6 -6.758687E-07 -1.052632E-05 -1.696895E-07  7.905503E-09  1.318429E-07  9.181372E-09
         3   7 -4.091834E-08 -8.458081E-06  1.667302E-07 -6.422398E-07  1.310008E-07  6.930073E-09
         3   8 -7.843907E-07 -1.056834E-05 -2.012511E-07 -6.754883E-07  1.318429E-07  6.930074E-09
         4   1  3.621593E-06 -5.466088E-07  1.369948E-08  8.548882E-08  6.665347E-16 -9.785358E-09
         4   2  3.621593E-06 -5.466088E-07  1.369948E-08  3.460499E-08  6.947622E-15 -9.785357E-09
         4   3  3.464468E-06 -6.019659E-07 -1.369948E-08  8.548882E-08  4.524614E-16 -9.785363E-09
         4   4  3.464468E-06 -6.019659E-07 -1.369948E-08  3.460500E-08  6.373469E-15 -9.785364E-09
         4   5  3.621593E-06 -5.466088E-07  1.369948E-08  8.548882E-08 -3.793495E-15  9.785351E-09
         4   6  3.621593E-06 -5.466088E-07  1.369948E-08  3.460499E-08  2.487567E-15  9.785352E-09
         4   7  3.464468E-06 -6.019659E-07 -1.369948E-08  8.548882E-08 -4.232347E-15  9.785345E-09
         4   8  3.464468E-06 -6.019659E-07 -1.369948E-08  3.460500E-08  1.688635E-15  9.785346E-09
         5   1  2.865826E-06  2.865826E-06 -2.297394E-07 -1.669558E-08  8.204977E-08  8.204978E-08
         5   2  3.329993E-06  4.183311E-06  1.933196E-14  4.099633E-07  8.204977E-08  8.204977E-08
         5   3  4.183311E-06  3.329993E-06  1.609041E-15  4.099633E-07  8.204976E-08  8.204977E-08
         5   4  4.647478E-06  4.647478E-06  2.297395E-07  8.366222E-07  8.204977E-08  8.204976E-08
         5   5  2.865826E-06  2.865826E-06 -2.297394E-07 -1.669560E-08 -8.204979E-08 -8.204979E-08
         5   6  3.329993E-06  4.183311E-06  1.687107E-14  4.099633E-07 -8.204979E-08 -8.204979E-08
         5   7  4.183311E-06  3.329993E-06  1.146271E-14  4.099633E-07 -8.204979E-08 -8.204979E-08
         5   8  4.647478E-06  4.647478E-06  2.297395E-07  8.366222E-07 -8.204978E-08 -8.204979E-08
         6   1  1.518580E-06 -9.634870E-06 -4.689957E-08  7.595621E-07 -1.946071E-08  5.300928E-08
         6   2  1.408588E-06 -9.947908E-06 -1.014483E-07  1.035090E-06 -1.946072E-08  5.300927E-08
         6   3  2.369555E-06 -9.334952E-06  1.015049E-07  6.580396E-07 -1.946074E-08  5.300933E-08
         6   4  2.259562E-06 -9.647990E-06  4.695619E-08  9.335678E-07 -1.946072E-08  5.300931E-08
         6   5  1.518580E-06 -9.634870E-06 -4.689959E-08  7.595621E-07  1.946073E-08 -5.300931E-08
         6   6  1.408588E-06 -9.947908E-06 -1.014483E-07  1.035090E-06  1.946073E-08 -5.300932E-08
         6   7  2.369555E-06 -9.334952E-06  1.015049E-07  6.580396E-07  1.946073E-08 -5.300927E-08
         6   8  2.259562E-06 -9.647990E-06  4.695621E-08  9.335678E-07  1.946073E-08 -5.300929E-08
         7   1 -8.406793E-06  6.820517E-08  2.012511E-07  4.115397E-08  1.856907E-09 -1.318429E-07
         7   2 -8.448818E-06 -4.031682E-08  1.696895E-07 -6.422398E-07 -3.943906E-10 -1.318429E-07
         7   3 -1.051705E-05 -6.752672E-07 -1.667302E-07  7.905504E-09  1.856908E-09 -1.310008E-07
         7   4 -1.055908E-05 -7.837892E-07 -1.982917E-07 -6.754883E-07 -3.943901E-10 -1.310008E-07
         7   5 -8.416056E-06  6.760366E-08  1.982917E-07  4.115397E-08  9.181370E-09  1.310008E-07
         7   6 -8.458081E-06 -4.091833E-08  1.667302E-07 -6.422398E-07  6.930072E-09  1.310008E-07
         7   7 -1.052632E-05 -6.758687E-07 -1.696895E-07  7.905502E-09  9.181372E-09  1.318429E-07
         7   8 -1.056834E-05 -7.843907E-07 -2.012511E-07 -6.754883E-07  6.930074E-09  1.318429E-07
         8   1 -9.634870E-06  1.518580E-06 -4.689961E-08  7.595621E-07  5.300929E-08 -1.946072E-08
         8   2 -9.334952E-06  2.369555E-06  1.015049E-07  6.580396E-07  5.300931E-08 -1.946072E-08
         8   3 -9.947908E-06  1.408588E-06 -1.014483E-07  1.035090E-06  5.300928E-08 -1.946072E-08
         8   4 -9.647990E-06  2.259562E-06  4.695624E-08  9.335678E-07  5.300928E-08 -1.946072E-08
         8   5 -9.634870E-06  1.518580E-06 -4.689959E-08  7.595620E-07 -5.300930E-08  1.946074E-08
         8   6 -9.334952E-06  2.369555E-06  1.015049E-07  6.580395E-07 -5.300927E-08  1.946074E-08
         8   7 -9.947908E-06  1.408588E-06 -1.014483E-07  1.035090E-06 -5.300932E-08  1.946072E-08
         8   8 -9.647990E-06  2.259562E-06  4.695620E-08  9.335677E-07 -5.300931E-08  1.946074E-08
         9   1  4.077853E-15  4.077853E-15  9.514991E-15  9.181049E-33 -2.199460E-14 -1.976871E-14
         9   2  1.066564E-14  3.693669E-14 -1.384562E-15  1.313553E-14 -1.104833E-14 -6.750356E-15
         9   3 -2.522012E-15 -2.522012E-15 -5.884696E-15  6.723289E-35 -2.408489E-15 -2.254671E-15
         9   4  3.640221E-14  9.770133E-14  2.363936E-14  3.064956E-14  2.386256E-14  2.608846E-14
         9   5 -4.846425E-14 -1.185204E-13 -4.302711E-14 -3.502807E-14  3.582040E-14  4.412756E-14
         9   6  1.723340E-14  5.226147E-14  5.183202E-15  1.751404E-14 -3.642499E-14 -2.038473E-14
         9   7 -5.506412E-14 -1.251203E-13 -5.842680E-14 -3.502807E-14 -8.988603E-15 -8.414545E-15
         9   8 -9.572135E-15 -9.572135E-15 -2.233498E-14  5.574481E-33  8.525432E-15  1.683259E-14

 strains (elem, integ.pnt.,exx,eyy,ezz,exy,exz,eyz) forset EALL and time  0.7578125E-01

         1   1 -1.714135E-12 -1.714135E-12  1.469258E-12  5.117342E-21 -6.538759E-22 -6.537901E-22
         1   2 -1.714135E-12 -1.714135E-12  1.469258E-12  1.210694E-20 -2.490815E-21 -6.537901E-22
         1   3 -1.714135E-12 -1.714135E-12  1.469258E-12  1.210858E-20 -6.538760E-22 -2.490872E-21
         1   4 -1.714135E-12 -1.714135E-12  1.469258E-12  1.909818E-20 -2.490815E-21 -2.490872E-21
         1   5 -1.714135E-12 -1.714135E-12  1.469258E-12  5.117342E-21 -6.033590E-22 -6.028956E-22
         1   6 -1.714135E-12 -1.714135E-12  1.469258E-12  1.210694E-20 -2.440298E-21 -6.028957E-22
         1   7 -1.714135E-12 -1.714135E-12  1.469258E-12  1.210858E-20 -6.033592E-22 -2.439978E-21
         1   8 -1.714135E-12 -1.714135E-12  1.469258E-12  1.909818E-20 -2.440298E-21 -2.439978E-21
         2   1 -7.796174E-12  1.800698E-11 -4.327599E-12  5.292165E-13 -6.057602E-14  4.261739E-21
         2   2 -7.796174E-12  1.737699E-11 -4.154524E-12  5.292165E-13 -6.057606E-14  2.663084E-21
         2   3 -7.796174E-12  1.800698E-11 -4.327599E-12  2.142214E-13 -6.057602E-14  4.175662E-20
         2   4 -7.796174E-12  1.737699E-11 -4.154524E-12  2.142214E-13 -6.057606E-14  4.087001E-20
         2   5 -7.796174E-12  1.800698E-11 -4.327599E-12  5.292165E-13  6.057599E-14 -2.158948E-20
         2   6 -7.796174E-12  1.737699E-11 -4.154524E-12  5.292165E-13  6.057595E-14 -2.826779E-20
         2   7 -7.796174E-12  1.800698E-11 -4.327599E-12  2.142214E-13  6.057598E-14  1.590539E-20
         2   8 -7.796174E-12  1.737699E-11 -4.154524E-12  2.142214E-13  6.057595E-14  9.939136E-21
         3   1  1.204699E-11 -4.041729E-11  1.287061E-11  2.547627E-13 -8.161704E-13  1.149514E-14
         3   2  1.204699E-11 -4.887835E-11  1.519508E-11  4.893884E-14 -8.109575E-13  1.149514E-14
         3   3  1.163534E-11 -4.041729E-11  1.293538E-11 -3.975770E-12 -8.161704E-13 -2.441468E-15
         3   4  1.163534E-11 -4.887835E-11  1.525985E-11 -4.181594E-12 -8.109575E-13 -2.441462E-15
         3   5  1.206159E-11 -4.045631E-11  1.287061E-11  2.547627E-13  8.109576E-13  5.683706E-14
         3   6  1.206159E-11 -4.891738E-11  1.519508E-11  4.893883E-14  8.161705E-13  5.683706E-14
         3   7  1.164994E-11 -4.045631E-11  1.293538E-11 -3.975770E-12  8.109576E-13  4.290045E-14
         3   8  1.164994E-11 -4.891738E-11  1.525985E-11 -4.181594E-12  8.161705E-13  4.290046E-14
         4   1  1.800698E-11 -7.796174E-12 -4.327599E-12  5.292165E-13  4.126106E-21 -6.057603E-14
         4   2  1.800698E-11 -7.796174E-12 -4.327599E-12  2.142214E-13  4.300901E-20 -6.057602E-14
         4   3  1.737699E-11 -7.796174E-12 -4.154524E-12  5.292165E-13  2.800891E-21 -6.057606E-14
         4   4  1.737699E-11 -7.796174E-12 -4.154524E-12  2.142214E-13  3.945474E-20 -6.057606E-14
         4   5  1.800698E-11 -7.796174E-12 -4.327599E-12  5.292165E-13 -2.348370E-20  6.057598E-14
         4   6  1.800698E-11 -7.796174E-12 -4.327599E-12  2.142214E-13  1.539921E-20  6.057599E-14
         4   7  1.737699E-11 -7.796174E-12 -4.154524E-12  5.292165E-13 -2.620041E-20  6.057594E-14
         4   8  1.737699E-11 -7.796174E-12 -4.154524E-12  2.142214E-13  1.045344E-20  6.057595E-14
         5   1  9.880952E-12  9.880952E-12 -9.282071E-12 -1.033536E-13  5.079272E-13  5.079272E-13
         5   2  9.880952E-12  1.516340E-11 -1.073329E-11  2.537868E-12  5.079271E-13  5.079271E-13
         5   3  1.516340E-11  9.880952E-12 -1.073329E-11  2.537868E-12  5.079271E-13  5.079271E-13
         5   4  1.516340E-11  1.516340E-11 -1.218451E-11  5.179090E-12  5.079272E-13  5.079271E-13
         5   5  9.880952E-12  9.880952E-12 -9.282071E-12 -1.033537E-13 -5.079272E-13 -5.079272E-13
         5   6  9.880952E-12  1.516340E-11 -1.073329E-11  2.537868E-12 -5.079273E-13 -5.079273E-13
         5   7  1.516340E-11  9.880952E-12 -1.073329E-11  2.537868E-12 -5.079273E-13 -5.079273E-13
         5   8  1.516340E-11  1.516340E-11 -1.218451E-11  5.179090E-12 -5.079272E-13 -5.079273E-13
         6   1  2.105871E-11 -4.797901E-11  1.137137E-11  4.729335E-12 -1.206007E-13  3.281051E-13
         6   2  2.105871E-11 -4.923326E-11  1.171594E-11  6.435481E-12 -1.206008E-13  3.281050E-13
         6   3  2.447100E-11 -4.797901E-11  1.043392E-11  4.102210E-12 -1.206009E-13  3.281053E-13
         6   4  2.447100E-11 -4.923326E-11  1.077850E-11  5.808357E-12 -1.206008E-13  3.281052E-13
         6   5  2.105871E-11 -4.797901E-11  1.137137E-11  4.729335E-12  1.206009E-13 -3.281053E-13
         6   6  2.105871E-11 -4.923326E-11  1.171594E-11  6.435481E-12  1.206009E-13 -3.281053E-13
         6   7  2.447100E-11 -4.797901E-11  1.043392E-11  4.102210E-12  1.206009E-13 -3.281050E-13
         6   8  2.447100E-11 -4.923326E-11  1.077850E-11  5.808357E-12  1.206009E-13 -3.281051E-13
         7   1 -4.041729E-11  1.204699E-11  1.287061E-11  2.547627E-13  1.149514E-14 -8.161704E-13
         7   2 -4.041729E-11  1.163534E-11  1.293538E-11 -3.975770E-12 -2.441465E-15 -8.161704E-13
         7   3 -4.887835E-11  1.204699E-11  1.519508E-11  4.893883E-14  1.149514E-14 -8.109575E-13
         7   4 -4.887835E-11  1.163534E-11  1.525985E-11 -4.181594E-12 -2.441463E-15 -8.109575E-13
         7   5 -4.045631E-11  1.206159E-11  1.287061E-11  2.547627E-13  5.683705E-14  8.109576E-13
         7   6 -4.045631E-11  1.164994E-11  1.293538E-11 -3.975770E-12  4.290045E-14  8.109576E-13
         7   7 -4.891738E-11  1.206159E-11  1.519508E-11  4.893882E-14  5.683707E-14  8.161705E-13
         7   8 -4.891738E-11  1.164994E-11  1.525985E-11 -4.181594E-12  4.290046E-14  8.161705E-13
         8   1 -4.797901E-11  2.105871E-11  1.137137E-11  4.729335E-12  3.281051E-13 -1.206008E-13
         8   2 -4.797901E-11  2.447100E-11  1.043392E-11  4.102210E-12  3.281052E-13 -1.206008E-13
         8   3 -4.923326E-11  2.105871E-11  1.171594E-11  6.435482E-12  3.281051E-13 -1.206008E-13
         8   4 -4.923326E-11  2.447100E-11  1.077850E-11  5.808357E-12  3.281051E-13 -1.206008E-13
         8   5 -4.797901E-11  2.105871E-11  1.137137E-11  4.729334E-12 -3.281051E-13  1.206009E-13
         8   6 -4.797901E-11  2.447100E-11  1.043392E-11  4.102210E-12 -3.281050E-13  1.206009E-13
         8   7 -4.923326E-11  2.105871E-11  1.171594E-11  6.435481E-12 -3.281053E-13  1.206008E-13
         8   8 -4.923326E-11  2.447100E-11  1.077850E-11  5.808357E-12 -3.281052E-13  1.206009E-13
         9   1  1.538665E-39  3.896227E-40  3.365847E-20  7.742731E-40 -1.361571E-19 -1.223777E-19
         9   2  1.538665E-39  1.626303E-19 -7.459648E-20  8.131516E-20 -6.839442E-20 -4.178792E-20
         9   3  4.445979E-40  3.896227E-40 -2.081661E-20  4.162036E-40 -1.490969E-20 -1.395748E-20
         9   4  4.445979E-40  3.794708E-19 -7.900809E-20  1.897354E-19  1.477206E-19  1.615000E-19
         9   5  2.143084E-38 -4.336809E-19  3.365847E-20 -2.168404E-19  2.217453E-19  2.731706E-19
         9   6  2.143084E-38  2.168404E-19 -7.459648E-20  1.084202E-19 -2.254881E-19 -1.261912E-19
         9   7  6.192450E-39 -4.336809E-19 -2.081661E-20 -2.168404E-19 -5.564373E-20 -5.209004E-20
         9   8  6.192450E-39  3.559088E-41 -7.900809E-20  4.694622E-40  5.277649E-20  1.042018E-19

 displacements (vx,vy,vz) for set NALL and time  0.8478125E-01

         1  0.000000E+00  0.000000E+00  0.000000E+00
         2 -1.062745E-09  0.000000E+00  0.000000E+00
         3 -5.579412E-02  0.000000E+00  0.000000E+00
         4 -5.579413E-02  0.000000E+00  0.000000E+00
         5 -1.271718E-01  0.000000E+00  0.000000E+00
         6 -1.271718E-01  0.000000E+00  0.000000E+00
         7  0.000000E+00 -1.062745E-09  0.000000E+00
         8 -1.062745E-09 -1.062745E-09  0.000000E+00
         9 -5.579412E-02  1.123730E-08  0.000000E+00
        10 -5.579412E-02  1.042820E-08  0.000000E+00
        11 -1.271718E-01 -1.841921E-08  0.000000E+00
        12 -1.271718E-01 -2.747202E-08  0.000000E+00
        13  0.000000E+00 -5.579412E-02  0.000000E+00
        14  1.123730E-08 -5.579412E-02  0.000000E+00
        15  3.705866E-01  3.705866E-01  0.000000E+00
        16  3.705866E-01  3.705866E-01  0.000000E+00
        17  6.302639E-01 -7.672181E-01  0.000000E+00
        18  6.302027E-01 -1.014811E+00  0.000000E+00
        19  0.000000E+00 -5.579413E-02  0.000000E+00
        20  1.042820E-08 -5.579412E-02  0.000000E+00
        21  3.705866E-01  3.705866E-01  0.000000E+00
        22  3.705866E-01  3.705866E-01  0.000000E+00
        23  8.778571E-01 -7.672795E-01  0.000000E+00
        24  8.777958E-01 -1.014873E+00  0.000000E+00
        25  0.000000E+00 -1.271718E-01  0.000000E+00
        26 -1.841921E-08 -1.271718E-01  0.000000E+00
        27 -7.672181E-01  6.302639E-01  0.000000E+00
        28 -7.672795E-01  8.778571E-01  0.000000E+00
        29 -2.543437E+00 -2.543437E+00  0.000000E+00
        30 -2.543437E+00 -2.543437E+00  0.000000E+00
        31  0.000000E+00 -1.271718E-01  0.000000E+00
        32 -2.747202E-08 -1.271718E-01  0.000000E+00
        33 -1.014811E+00  6.302027E-01  0.000000E+00
        34 -1.014873E+00  8.777958E-01  0.000000E+00
        35 -2.543437E+00 -2.543437E+00  0.000000E+00
        36 -2.543437E+00 -2.543437E+00  0.000000E+00
        37  0.000000E+00  0.000000E+00  1.275294E-09
        38 -1.062745E-09  0.000000E+00  1.275294E-09
        39 -5.579412E-02  0.000000E+00 -3.760648E-09
        40 -5.579413E-02  0.000000E+00 -3.449456E-09
        41 -1.271718E-01  0.000000E+00  8.459309E-09
        42 -1.271718E-01  0.000000E+00  1.194116E-08
        43  0.000000E+00 -1.062745E-09  1.275294E-09
        44 -1.062745E-09 -1.062745E-09  1.275294E-09
        45 -5.579412E-02  1.123730E-08 -3.760648E-09
        46 -5.579412E-02  1.042820E-08 -3.449456E-09
        47 -1.271718E-01 -1.847198E-08  8.581943E-09
        48 -1.271718E-01 -2.752479E-08  1.206380E-08
        49  0.000000E+00 -5.579412E-02 -3.760648E-09
        50  1.123730E-08 -5.579412E-02 -3.760648E-09
        51  3.705866E-01  3.705866E-01 -7.060176E-09
        52  3.705866E-01  3.705866E-01 -9.247946E-09
        53  6.302639E-01 -7.672181E-01  7.986670E-09
        54  6.302027E-01 -1.014811E+00  8.618314E-09
        55  0.000000E+00 -5.579413E-02 -3.449456E-09
        56  1.042820E-08 -5.579412E-02 -3.449456E-09
        57  3.705866E-01  3.705866E-01 -9.247946E-09
        58  3.705866E-01  3.705866E-01 -1.143571E-08
        59  8.778571E-01 -7.672795E-01  6.727237E-09
        60  8.777958E-01 -1.014873E+00  7.358880E-09
        61  0.000000E+00 -1.271718E-01  8.459309E-09
        62 -1.847198E-08 -1.271718E-01  8.581943E-09
        63 -7.672181E-01  6.302639E-01  7.986670E-09
        64 -7.672795E-01  8.778571E-01  6.727237E-09
        65 -2.543437E+00 -2.543437E+00 -3.661576E-17
        66 -2.543437E+00 -2.543437E+00  3.166175E-17
        67  0.000000E+00 -1.271718E-01  1.194116E-08
        68 -2.752479E-08 -1.271718E-01  1.206380E-08
        69 -1.014811E+00  6.302027E-01  8.618314E-09
        70 -1.014873E+00  8.777958E-01  7.358880E-09
        71 -2.543437E+00 -2.543437E+00  5.557011E-17
        72 -2.543437E+00 -2.543437E+00  9.718868E-17

 stresses (elem, integ.pnt.,sxx,syy,szz,sxy,sxz,syz) for set EALL and time  0.8478125E-01

         1   1 -6.376471E-07 -6.376471E-07 -1.167183E-15  1.222631E-15 -1.555758E-16 -1.554979E-16
         1   2 -6.376471E-07 -6.376471E-07  1.378352E-15  2.892628E-15 -5.966542E-16 -1.555758E-16
         1   3 -6.376471E-07 -6.376471E-07  1.377905E-15  2.892926E-15 -1.554979E-16 -5.963633E-16
         1   4 -6.376471E-07 -6.376471E-07  3.923440E-15  4.562923E-15 -5.963633E-16 -5.966541E-16
         1   5 -6.376471E-07 -6.376471E-07 -3.019265E-15  1.222632E-15 -1.395385E-16 -1.394606E-16
         1   6 -6.376471E-07 -6.376471E-07 -4.741770E-16  2.892926E-15 -5.806169E-16 -1.395386E-16
         1   7 -6.376471E-07 -6.376471E-07 -4.737299E-16  2.892628E-15 -1.394606E-16 -5.803260E-16
         1   8 -6.376471E-07 -6.376471E-07  2.071359E-15  4.562923E-15 -5.803260E-16 -5.806168E-16
         2   1 -6.856488E-07  4.448254E-06  2.031613E-08  1.267786E-07 -1.451154E-08  8.227145E-16
         2   2 -7.677426E-07  4.215241E-06 -2.031613E-08  1.267786E-07 -1.451154E-08  4.782698E-16
         2   3 -6.856488E-07  4.448254E-06  2.031612E-08  5.131869E-08 -1.451154E-08  8.454497E-15
         2   4 -7.677426E-07  4.215241E-06 -2.031613E-08  5.131869E-08 -1.451154E-08  8.056632E-15
         2   5 -6.856489E-07  4.448254E-06  2.031613E-08  1.267786E-07  1.451153E-08 -4.561258E-15
         2   6 -7.677426E-07  4.215241E-06 -2.031613E-08  1.267786E-07  1.451152E-08 -5.793324E-15
         2   7 -6.856488E-07  4.448254E-06  2.031613E-08  5.131869E-08  1.451153E-08  3.070470E-15
         2   8 -7.677426E-07  4.215241E-06 -2.031613E-08  5.131869E-08  1.451152E-08  1.784984E-15
         3   1  7.268550E-08 -8.446161E-06  2.542654E-07  4.023921E-08 -1.630237E-07  2.899616E-09
         3   2 -8.458434E-07 -1.105330E-05 -2.003600E-07 -1.167927E-08 -1.617087E-07  2.899617E-09
         3   3 -9.677485E-08 -8.511784E-06  2.049811E-07 -8.040651E-07 -1.630237E-07 -6.158547E-10
         3   4 -1.015304E-06 -1.111892E-05 -2.496443E-07 -8.559836E-07 -1.617087E-07 -6.158539E-10
         3   5  7.174623E-08 -8.460625E-06  2.496443E-07  4.023920E-08  1.617088E-07  1.433699E-08
         3   6 -8.467827E-07 -1.106776E-05 -2.049811E-07 -1.167927E-08  1.630237E-07  1.433699E-08
         3   7 -9.771411E-08 -8.526249E-06  2.003600E-07 -8.040651E-07  1.617088E-07  1.082151E-08
         3   8 -1.016243E-06 -1.113339E-05 -2.542654E-07 -8.559836E-07  1.630237E-07  1.082152E-08
         4   1  4.448254E-06 -6.856488E-07  2.031613E-08  1.267786E-07  8.475561E-16 -1.451154E-08
         4   2  4.448254E-06 -6.856488E-07  2.031612E-08  5.131869E-08  8.574134E-15 -1.451154E-08
         4   3  4.215241E-06 -7.677426E-07 -2.031613E-08  1.267786E-07  4.946122E-16 -1.451154E-08
         4   4  4.215241E-06 -7.677426E-07 -2.031613E-08  5.131869E-08  8.118112E-15 -1.451154E-08
         4   5  4.448254E-06 -6.856489E-07  2.031613E-08  1.267786E-07 -4.563344E-15  1.451153E-08
         4   6  4.448254E-06 -6.856488E-07  2.031613E-08  5.131869E-08  3.163180E-15  1.451153E-08
         4   7  4.215241E-06 -7.677426E-07 -2.031613E-08  1.267786E-07 -5.777470E-15  1.451152E-08
         4   8  4.215241E-06 -7.677426E-07 -2.031613E-08  5.131870E-08  1.845975E-15  1.451152E-08
         5   1  3.516323E-06  3.516323E-06 -2.856571E-07 -1.859526E-08  1.020203E-07  1.020203E-07
         5   2  4.093467E-06  5.154479E-06  1.105921E-14  5.119106E-07  1.020203E-07  1.020203E-07
         5   3  5.154479E-06  4.093467E-06  1.673812E-14  5.119106E-07  1.020203E-07  1.020203E-07
         5   4  5.731622E-06  5.731622E-06  2.856571E-07  1.042417E-06  1.020203E-07  1.020203E-07
         5   5  3.516323E-06  3.516323E-06 -2.856571E-07 -1.859526E-08 -1.020204E-07 -1.020204E-07
         5   6  4.093467E-06  5.154479E-06  8.599428E-15  5.119106E-07 -1.020204E-07 -1.020204E-07
         5   7  5.154479E-06  4.093467E-06  2.002513E-14  5.119106E-07 -1.020204E-07 -1.020204E-07
         5   8  5.731622E-06  5.731622E-06  2.856571E-07  1.042417E-06 -1.020204E-07 -1.020204E-07
         6   1  1.932415E-06 -9.923005E-06 -4.097623E-08  9.392785E-07 -2.942579E-08  5.874462E-08
         6   2  1.766087E-06 -1.039627E-05 -1.234499E-07  1.244523E-06 -2.942580E-08  5.874463E-08
         6   3  2.875301E-06 -9.590609E-06  1.234681E-07  7.858107E-07 -2.942577E-08  5.874465E-08
         6   4  2.708973E-06 -1.006387E-05  4.099441E-08  1.091055E-06 -2.942580E-08  5.874464E-08
         6   5  1.932415E-06 -9.923005E-06 -4.097624E-08  9.392785E-07  2.942579E-08 -5.874468E-08
         6   6  1.766087E-06 -1.039627E-05 -1.234500E-07  1.244523E-06  2.942578E-08 -5.874467E-08
         6   7  2.875301E-06 -9.590609E-06  1.234680E-07  7.858108E-07  2.942582E-08 -5.874466E-08
         6   8  2.708972E-06 -1.006387E-05  4.099431E-08  1.091055E-06  2.942579E-08 -5.874464E-08
         7   1 -8.446161E-06  7.268548E-08  2.542654E-07  4.023921E-08  2.899616E-09 -1.630237E-07
         7   2 -8.511784E-06 -9.677486E-08  2.049811E-07 -8.040651E-07 -6.158545E-10 -1.630237E-07
         7   3 -1.105330E-05 -8.458434E-07 -2.003600E-07 -1.167927E-08  2.899617E-09 -1.617087E-07
         7   4 -1.111892E-05 -1.015304E-06 -2.496443E-07 -8.559836E-07 -6.158539E-10 -1.617087E-07
         7   5 -8.460625E-06  7.174624E-08  2.496443E-07  4.023920E-08  1.433698E-08  1.617087E-07
         7   6 -8.526249E-06 -9.771411E-08  2.003600E-07 -8.040651E-07  1.082151E-08  1.617087E-07
         7   7 -1.106776E-05 -8.467827E-07 -2.049811E-07 -1.167927E-08  1.433699E-08  1.630237E-07
         7   8 -1.113339E-05 -1.016243E-06 -2.542654E-07 -8.559836E-07  1.082152E-08  1.630237E-07
         8   1 -9.923005E-06  1.932415E-06 -4.097631E-08  9.392785E-07  5.874462E-08 -2.942579E-08
         8   2 -9.590609E-06  2.875301E-06  1.234680E-07  7.858107E-07  5.874462E-08 -2.942577E-08
         8   3 -1.039627E-05  1.766087E-06 -1.234500E-07  1.244523E-06  5.874465E-08 -2.942580E-08
         8   4 -1.006387E-05  2.708972E-06  4.099427E-08  1.091055E-06  5.874464E-08 -2.942578E-08
         8   5 -9.923005E-06  1.932415E-06 -4.097630E-08  9.392785E-07 -5.874468E-08  2.942581E-08
         8   6 -9.590609E-06  2.875301E-06  1.234680E-07  7.858108E-07 -5.874465E-08  2.942581E-08
         8   7 -1.039627E-05  1.766087E-06 -1.234499E-07  1.244523E-06 -5.874466E-08  2.942580E-08
         8   8 -1.006387E-05  2.708972E-06  4.099429E-08  1.091055E-06 -5.874466E-08  2.942582E-08
         9   1 -1.380990E-14 -3.132394E-14 -1.470907E-14 -8.757018E-15 -2.413257E-14 -2.331641E-14
         9   2  2.301488E-15 -2.077021E-15  9.748648E-15 -2.189254E-15  1.527400E-14  1.556474E-14
         9   3 -5.161089E-15 -2.267512E-14  5.471493E-15 -8.757018E-15  1.613055E-15  2.954640E-15
         9   4  9.412286E-15  5.033777E-15  2.634051E-14 -2.189254E-15  2.788411E-14  2.870027E-14
         9   5 -5.321648E-14 -1.232726E-13 -5.411565E-14 -3.502807E-14 -7.761096E-16  2.269849E-15
         9   6 -2.068568E-14 -5.571375E-14 -1.323852E-14 -1.751404E-14 -7.761096E-16  3.089441E-16
         9   7 -4.456767E-14 -1.146238E-13 -3.393509E-14 -3.502807E-14  6.020003E-15  1.102687E-14
         9   8 -3.984594E-14 -1.099021E-13 -2.291771E-14 -3.502807E-14 -1.149403E-14 -8.448073E-15

 strains (elem, integ.pnt.,exx,eyy,ezz,exy,exz,eyz) forset EALL and time  0.8478125E-01

         1   1 -2.125490E-12 -2.125490E-12  1.821849E-12  7.568671E-21 -9.630885E-22 -9.626059E-22
         1   2 -2.125490E-12 -2.125490E-12  1.821849E-12  1.790675E-20 -3.693574E-21 -9.630883E-22
         1   3 -2.125490E-12 -2.125490E-12  1.821849E-12  1.790859E-20 -9.626060E-22 -3.691773E-21
         1   4 -2.125490E-12 -2.125490E-12  1.821849E-12  2.824667E-20 -3.691773E-21 -3.693573E-21
         1   5 -2.125490E-12 -2.125490E-12  1.821849E-12  7.568672E-21 -8.638099E-22 -8.633274E-22
         1   6 -2.125490E-12 -2.125490E-12  1.821849E-12  1.790859E-20 -3.594295E-21 -8.638102E-22
         1   7 -2.125490E-12 -2.125490E-12  1.821849E-12  1.790675E-20 -8.633276E-22 -3.592494E-21
         1   8 -2.125490E-12 -2.125490E-12  1.821849E-12  2.824667E-20 -3.592494E-21 -3.594295E-21
         2   1 -9.648667E-12  2.213264E-11 -5.278407E-12  7.848201E-13 -8.983333E-14  5.092861E-21
         2   2 -9.648667E-12  2.119837E-11 -5.021741E-12  7.848202E-13 -8.983336E-14  2.960584E-21
         2   3 -9.648666E-12  2.213264E-11 -5.278407E-12  3.176871E-13 -8.983332E-14  5.233720E-20
         2   4 -9.648666E-12  2.119837E-11 -5.021741E-12  3.176872E-13 -8.983337E-14  4.987423E-20
         2   5 -9.648667E-12  2.213264E-11 -5.278407E-12  7.848201E-13  8.983327E-14 -2.823672E-20
         2   6 -9.648667E-12  2.119837E-11 -5.021741E-12  7.848202E-13  8.983323E-14 -3.586379E-20
         2   7 -9.648667E-12  2.213264E-11 -5.278407E-12  3.176871E-13  8.983328E-14  1.900763E-20
         2   8 -9.648667E-12  2.119837E-11 -5.021741E-12  3.176872E-13  8.983323E-14  1.104986E-20
         3   1  1.204883E-11 -4.068689E-11  1.317290E-11  2.490998E-13 -1.009194E-12  1.795000E-14
         3   2  1.204883E-11 -5.114018E-11  1.604468E-11 -7.230025E-14 -1.001054E-12  1.795001E-14
         3   3  1.140603E-11 -4.068689E-11  1.327404E-11 -4.977546E-12 -1.009194E-12 -3.812434E-15
         3   4  1.140603E-11 -5.114018E-11  1.614583E-11 -5.298946E-12 -1.001054E-12 -3.812429E-15
         3   5  1.207162E-11 -4.074782E-11  1.317290E-11  2.490998E-13  1.001054E-12  8.875277E-14
         3   6  1.207162E-11 -5.120111E-11  1.604468E-11 -7.230024E-14  1.009194E-12  8.875278E-14
         3   7  1.142882E-11 -4.074782E-11  1.327404E-11 -4.977546E-12  1.001054E-12  6.699033E-14
         3   8  1.142882E-11 -5.120111E-11  1.614583E-11 -5.298946E-12  1.009194E-12  6.699034E-14
         4   1  2.213264E-11 -9.648667E-12 -5.278407E-12  7.848201E-13  5.246642E-21 -8.983333E-14
         4   2  2.213264E-11 -9.648666E-12 -5.278407E-12  3.176871E-13  5.307782E-20 -8.983333E-14
         4   3  2.119837E-11 -9.648667E-12 -5.021741E-12  7.848202E-13  3.061751E-21 -8.983336E-14
         4   4  2.119837E-11 -9.648666E-12 -5.021741E-12  3.176872E-13  5.025482E-20 -8.983336E-14
         4   5  2.213264E-11 -9.648667E-12 -5.278407E-12  7.848201E-13 -2.824963E-20  8.983327E-14
         4   6  2.213264E-11 -9.648667E-12 -5.278407E-12  3.176871E-13  1.958155E-20  8.983327E-14
         4   7  2.119837E-11 -9.648667E-12 -5.021741E-12  7.848202E-13 -3.576565E-20  8.983323E-14
         4   8  2.119837E-11 -9.648667E-12 -5.021741E-12  3.176872E-13  1.142742E-20  8.983323E-14
         5   1  1.212916E-11  1.212916E-11 -1.140691E-11 -1.151135E-13  6.315545E-13  6.315545E-13
         5   2  1.212916E-11  1.869733E-11 -1.321135E-11  3.168971E-12  6.315545E-13  6.315544E-13
         5   3  1.869733E-11  1.212916E-11 -1.321135E-11  3.168971E-12  6.315545E-13  6.315544E-13
         5   4  1.869733E-11  1.869733E-11 -1.501579E-11  6.453055E-12  6.315545E-13  6.315545E-13
         5   5  1.212916E-11  1.212916E-11 -1.140691E-11 -1.151135E-13 -6.315547E-13 -6.315546E-13
         5   6  1.212916E-11  1.869733E-11 -1.321135E-11  3.168970E-12 -6.315547E-13 -6.315546E-13
         5   7  1.869733E-11  1.212916E-11 -1.321135E-11  3.168971E-12 -6.315547E-13 -6.315547E-13
         5   8  1.869733E-11  1.869733E-11 -1.501579E-11  6.453055E-12 -6.315546E-13 -6.315546E-13
         6   1  2.343046E-11 -4.994869E-11  1.122000E-11  5.850920E-12 -1.823397E-13  3.635669E-13
         6   2  2.343046E-11 -5.184502E-11  1.174097E-11  7.741470E-12 -1.823398E-13  3.635670E-13
         6   3  2.721156E-11 -4.994869E-11  1.018124E-11  4.902754E-12 -1.823396E-13  3.635671E-13
         6   4  2.721156E-11 -5.184502E-11  1.070221E-11  6.793303E-12 -1.823398E-13  3.635671E-13
         6   5  2.343046E-11 -4.994869E-11  1.122000E-11  5.850921E-12  1.823397E-13 -3.635673E-13
         6   6  2.343046E-11 -5.184502E-11  1.174097E-11  7.741470E-12  1.823396E-13 -3.635673E-13
         6   7  2.721156E-11 -4.994869E-11  1.018124E-11  4.902754E-12  1.823399E-13 -3.635672E-13
         6   8  2.721156E-11 -5.184502E-11  1.070221E-11  6.793303E-12  1.823397E-13 -3.635670E-13
         7   1 -4.068689E-11  1.204883E-11  1.317290E-11  2.490998E-13  1.795000E-14 -1.009194E-12
         7   2 -4.068689E-11  1.140603E-11  1.327404E-11 -4.977546E-12 -3.812433E-15 -1.009194E-12
         7   3 -5.114018E-11  1.204883E-11  1.604468E-11 -7.230026E-14  1.795001E-14 -1.001054E-12
         7   4 -5.114018E-11  1.140603E-11  1.614583E-11 -5.298946E-12 -3.812429E-15 -1.001054E-12
         7   5 -4.074782E-11  1.207162E-11  1.317290E-11  2.490998E-13  8.875276E-14  1.001054E-12
         7   6 -4.074782E-11  1.142882E-11  1.327404E-11 -4.977546E-12  6.699033E-14  1.001054E-12
         7   7 -5.120111E-11  1.207162E-11  1.604468E-11 -7.230025E-14  8.875278E-14  1.009194E-12
         7   8 -5.120111E-11  1.142882E-11  1.614583E-11 -5.298946E-12  6.699034E-14  1.009194E-12
         8   1 -4.994869E-11  2.343046E-11  1.122000E-11  5.850920E-12  3.635669E-13 -1.823397E-13
         8   2 -4.994869E-11  2.721156E-11  1.018124E-11  4.902753E-12  3.635669E-13 -1.823396E-13
         8   3 -5.184502E-11  2.343046E-11  1.174097E-11  7.741469E-12  3.635671E-13 -1.823398E-13
         8   4 -5.184502E-11  2.721156E-11  1.070221E-11  6.793303E-12  3.635670E-13 -1.823396E-13
         8   5 -4.994869E-11  2.343046E-11  1.122000E-11  5.850921E-12 -3.635673E-13  1.823398E-13
         8   6 -4.994869E-11  2.721156E-11  1.018124E-11  4.902754E-12 -3.635671E-13  1.823398E-13
         8   7 -5.184502E-11  2.343046E-11  1.174097E-11  7.741470E-12 -3.635672E-13  1.823397E-13
         8   8 -5.184502E-11  2.721156E-11  1.070221E-11  6.793303E-12 -3.635672E-13  1.823399E-13
         9   1  3.504997E-40 -1.084202E-19 -5.566284E-21 -5.421011E-20 -1.493921E-19 -1.443397E-19
         9   2  3.504997E-40 -2.710505E-20  4.610146E-20 -1.355253E-20  9.455336E-20  9.635317E-20
         9   3  1.994236E-40 -1.084202E-19  6.582075E-20 -5.421011E-20  9.985579E-21  1.829063E-20
         9   4  1.994236E-40 -2.710505E-20  1.047938E-19 -1.355253E-20  1.726159E-19  1.776683E-19
         9   5  4.881831E-39 -4.336809E-19 -5.566284E-21 -2.168404E-19 -4.804488E-21  1.405144E-20
         9   6  4.881831E-39 -2.168404E-19  4.610146E-20 -1.084202E-19 -4.804488E-21  1.912511E-21
         9   7  2.777612E-39 -4.336809E-19  6.582075E-20 -2.168404E-19  3.726669E-20  6.826155E-20
         9   8  2.777612E-39 -4.336809E-19  1.047938E-19 -2.168404E-19 -7.115353E-20 -5.229760E-20

 displacements (vx,vy,vz) for set NALL and time  0.9378125E-01

         1  0.000000E+00  0.000000E+00  0.000000E+00
         2 -1.225814E-09  0.000000E+00  0.000000E+00
         3 -6.435522E-02  0.000000E+00  0.000000E+00
         4 -6.435522E-02  0.000000E+00  0.000000E+00
         5 -1.500867E-01  0.000000E+00  0.000000E+00
         6 -1.500867E-01  0.000000E+00  0.000000E+00
         7  0.000000E+00 -1.225814E-09  0.000000E+00
         8 -1.225814E-09 -1.225814E-09  0.000000E+00
         9 -6.435522E-02  1.331933E-08  0.000000E+00
        10 -6.435522E-02  1.220947E-08  0.000000E+00
        11 -1.500867E-01 -1.756574E-08  0.000000E+00
        12 -1.500867E-01 -2.860702E-08  0.000000E+00
        13  0.000000E+00 -6.435522E-02  0.000000E+00
        14  1.331933E-08 -6.435522E-02  0.000000E+00
        15  4.351420E-01  4.351420E-01  0.000000E+00
        16  4.351421E-01  4.351420E-01  0.000000E+00
        17  7.476055E-01 -7.628037E-01  0.000000E+00
        18  7.475145E-01 -1.064378E+00  0.000000E+00
        19  0.000000E+00 -6.435522E-02  0.000000E+00
        20  1.220947E-08 -6.435522E-02  0.000000E+00
        21  4.351420E-01  4.351421E-01  0.000000E+00
        22  4.351421E-01  4.351421E-01  0.000000E+00
        23  1.049180E+00 -7.628947E-01  0.000000E+00
        24  1.049089E+00 -1.064469E+00  0.000000E+00
        25  0.000000E+00 -1.500867E-01  0.000000E+00
        26 -1.756574E-08 -1.500867E-01  0.000000E+00
        27 -7.628037E-01  7.476055E-01  0.000000E+00
        28 -7.628947E-01  1.049180E+00  0.000000E+00
        29 -2.813437E+00 -2.813437E+00  0.000000E+00
        30 -2.813437E+00 -2.813437E+00  0.000000E+00
        31  0.000000E+00 -1.500867E-01  0.000000E+00
        32 -2.860702E-08 -1.500867E-01  0.000000E+00
        33 -1.064378E+00  7.475145E-01  0.000000E+00
        34 -1.064469E+00  1.049089E+00  0.000000E+00
        35 -2.813437E+00 -2.813437E+00  0.000000E+00
        36 -2.813437E+00 -2.813437E+00  0.000000E+00
        37  0.000000E+00  0.000000E+00  1.470976E-09
        38 -1.225814E-09  0.000000E+00  1.470976E-09
        39 -6.435522E-02  0.000000E+00 -4.459551E-09
        40 -6.435522E-02  0.000000E+00 -4.032682E-09
        41 -1.500867E-01  0.000000E+00  8.257271E-09
        42 -1.500867E-01  0.000000E+00  1.250392E-08
        43  0.000000E+00 -1.225814E-09  1.470976E-09
        44 -1.225814E-09 -1.225814E-09  1.470976E-09
        45 -6.435522E-02  1.331933E-08 -4.459551E-09
        46 -6.435522E-02  1.220947E-08 -4.032682E-09
        47 -1.500867E-01 -1.764198E-08  8.434444E-09
        48 -1.500867E-01 -2.868326E-08  1.268109E-08
        49  0.000000E+00 -6.435522E-02 -4.459551E-09
        50  1.331933E-08 -6.435522E-02 -4.459551E-09
        51  4.351420E-01  4.351420E-01 -8.304354E-09
        52  4.351421E-01  4.351420E-01 -1.095531E-08
        53  7.476055E-01 -7.628037E-01  7.618916E-09
        54  7.475145E-01 -1.064378E+00  8.531820E-09
        55  0.000000E+00 -6.435522E-02 -4.032682E-09
        56  1.220947E-08 -6.435522E-02 -4.032682E-09
        57  4.351420E-01  4.351421E-01 -1.095531E-08
        58  4.351421E-01  4.351421E-01 -1.360628E-08
        59  1.049180E+00 -7.628947E-01  6.270508E-09
        60  1.049089E+00 -1.064469E+00  7.183413E-09
        61  0.000000E+00 -1.500867E-01  8.257271E-09
        62 -1.764198E-08 -1.500867E-01  8.434444E-09
        63 -7.628037E-01  7.476055E-01  7.618916E-09
        64 -7.628947E-01  1.049180E+00  6.270509E-09
        65 -2.813437E+00 -2.813437E+00 -1.450458E-16
        66 -2.813437E+00 -2.813437E+00  5.915663E-17
        67  0.000000E+00 -1.500867E-01  1.250392E-08
        68 -2.868326E-08 -1.500867E-01  1.268109E-08
        69 -1.064378E+00  7.475145E-01  8.531820E-09
        70 -1.064469E+00  1.049089E+00  7.183413E-09
        71 -2.813437E+00 -2.813437E+00  5.480966E-17
        72 -2.813437E+00 -2.813437E+00  2.402345E-17

 stresses (elem, integ.pnt.,sxx,syy,szz,sxy,sxz,syz) for set EALL and time  0.9378125E-01

         1   1 -7.354882E-07 -7.354882E-07 -1.605048E-15  1.677860E-15 -2.137561E-16 -2.138091E-16
         1   2 -7.354882E-07 -7.354882E-07  1.883844E-15  3.969861E-15 -8.181054E-16 -2.137617E-16
         1   3 -7.354882E-07 -7.354882E-07  1.884090E-15  3.969860E-15 -2.137866E-16 -8.184016E-16
         1   4 -7.354882E-07 -7.354882E-07  5.372890E-15  6.261860E-15 -8.181823E-16 -8.181878E-16
         1   5 -7.354882E-07 -7.354882E-07 -4.143825E-15  1.677922E-15 -1.933994E-16 -1.933540E-16
         1   6 -7.354882E-07 -7.354882E-07 -6.545845E-16  3.969857E-15 -7.977487E-16 -1.933434E-16
         1   7 -7.354882E-07 -7.354882E-07 -6.547848E-16  3.970154E-15 -1.934667E-16 -7.979465E-16
         1   8 -7.354882E-07 -7.354882E-07  2.834364E-15  6.262090E-15 -7.978624E-16 -7.977695E-16
         2   1 -8.013334E-07  5.263570E-06  2.786815E-08  1.739055E-07 -1.990584E-08  9.592011E-16
         2   2 -9.139435E-07  4.943940E-06 -2.786815E-08  1.739055E-07 -1.990585E-08  4.973310E-16
         2   3 -8.013334E-07  5.263570E-06  2.786815E-08  7.039514E-08 -1.990584E-08  1.042721E-14
         2   4 -9.139435E-07  4.943940E-06 -2.786816E-08  7.039515E-08 -1.990585E-08  9.674199E-15
         2   5 -8.013334E-07  5.263570E-06  2.786815E-08  1.739055E-07  1.990583E-08 -5.888016E-15
         2   6 -9.139436E-07  4.943940E-06 -2.786815E-08  1.739055E-07  1.990582E-08 -7.320594E-15
         2   7 -8.013334E-07  5.263570E-06  2.786814E-08  7.039515E-08  1.990583E-08  3.579895E-15
         2   8 -9.139435E-07  4.943940E-06 -2.786816E-08  7.039515E-08  1.990582E-08  1.856172E-15
         3   1  1.010110E-07 -8.239206E-06  3.161816E-07  6.248810E-08 -1.989800E-07  4.189167E-09
         3   2 -1.019274E-06 -1.141900E-05 -2.383028E-07 -1.252017E-08 -1.970803E-07  4.189168E-09
         3   3 -1.438137E-07 -8.334014E-06  2.449791E-07 -9.672686E-07 -1.989800E-07 -8.897464E-10
         3   4 -1.264099E-06 -1.151381E-05 -3.095054E-07 -1.042277E-06 -1.970803E-07 -8.897457E-10
         3   5  9.965404E-08 -8.260103E-06  3.095054E-07  6.248810E-08  1.970803E-07  2.071310E-08
         3   6 -1.020631E-06 -1.143990E-05 -2.449791E-07 -1.252017E-08  1.989800E-07  2.071310E-08
         3   7 -1.451707E-07 -8.354911E-06  2.383028E-07 -9.672686E-07  1.970803E-07  1.563419E-08
         3   8 -1.265455E-06 -1.153471E-05 -3.161816E-07 -1.042277E-06  1.989800E-07  1.563419E-08
         4   1  5.263570E-06 -8.013334E-07  2.786815E-08  1.739055E-07  9.110355E-16 -1.990584E-08
         4   2  5.263570E-06 -8.013334E-07  2.786814E-08  7.039515E-08  1.054613E-14 -1.990584E-08
         4   3  4.943940E-06 -9.139435E-07 -2.786815E-08  1.739055E-07  5.804242E-16 -1.990585E-08
         4   4  4.943940E-06 -9.139435E-07 -2.786816E-08  7.039515E-08  9.789045E-15 -1.990585E-08
         4   5  5.263570E-06 -8.013334E-07  2.786815E-08  1.739055E-07 -6.234857E-15  1.990583E-08
         4   6  5.263570E-06 -8.013334E-07  2.786815E-08  7.039515E-08  3.400138E-15  1.990583E-08
         4   7  4.943940E-06 -9.139436E-07 -2.786815E-08  1.739055E-07 -7.042238E-15  1.990582E-08
         4   8  4.943940E-06 -9.139435E-07 -2.786815E-08  7.039515E-08  2.166280E-15  1.990582E-08
         5   1  4.135498E-06  4.135498E-06 -3.461360E-07 -1.384301E-08  1.236199E-07  1.236199E-07
         5   2  4.834833E-06  6.120481E-06  1.975828E-14  6.289809E-07  1.236199E-07  1.236200E-07
         5   3  6.120481E-06  4.834833E-06  2.025291E-14  6.289809E-07  1.236199E-07  1.236199E-07
         5   4  6.819817E-06  6.819817E-06  3.461360E-07  1.271805E-06  1.236199E-07  1.236199E-07
         5   5  4.135498E-06  4.135498E-06 -3.461360E-07 -1.384302E-08 -1.236200E-07 -1.236200E-07
         5   6  4.834833E-06  6.120481E-06  1.812093E-14  6.289809E-07 -1.236200E-07 -1.236200E-07
         5   7  6.120481E-06  4.834833E-06  1.697362E-14  6.289809E-07 -1.236200E-07 -1.236200E-07
         5   8  6.819817E-06  6.819817E-06  3.461360E-07  1.271805E-06 -1.236200E-07 -1.236200E-07
         6   1  2.353787E-06 -9.975437E-06 -2.843011E-08  1.133286E-06 -4.253272E-08  6.290476E-08
         6   2  2.113353E-06 -1.065939E-05 -1.476280E-07  1.459990E-06 -4.253273E-08  6.290473E-08
         6   3  3.363179E-06 -9.619454E-06  1.476315E-07  9.115241E-07 -4.253273E-08  6.290478E-08
         6   4  3.122745E-06 -1.030341E-05  2.843355E-08  1.238228E-06 -4.253276E-08  6.290475E-08
         6   5  2.353787E-06 -9.975437E-06 -2.843014E-08  1.133286E-06  4.253274E-08 -6.290479E-08
         6   6  2.113353E-06 -1.065939E-05 -1.476281E-07  1.459990E-06  4.253272E-08 -6.290478E-08
         6   7  3.363178E-06 -9.619454E-06  1.476314E-07  9.115241E-07  4.253276E-08 -6.290477E-08
         6   8  3.122744E-06 -1.030341E-05  2.843349E-08  1.238228E-06  4.253275E-08 -6.290475E-08
         7   1 -8.239206E-06  1.010110E-07  3.161816E-07  6.248810E-08  4.189167E-09 -1.989800E-07
         7   2 -8.334014E-06 -1.438137E-07  2.449791E-07 -9.672686E-07 -8.897464E-10 -1.989800E-07
         7   3 -1.141900E-05 -1.019274E-06 -2.383028E-07 -1.252017E-08  4.189168E-09 -1.970802E-07
         7   4 -1.151381E-05 -1.264099E-06 -3.095054E-07 -1.042277E-06 -8.897458E-10 -1.970803E-07
         7   5 -8.260103E-06  9.965404E-08  3.095054E-07  6.248810E-08  2.071310E-08  1.970803E-07
         7   6 -8.354911E-06 -1.451707E-07  2.383028E-07 -9.672686E-07  1.563419E-08  1.970803E-07
         7   7 -1.143990E-05 -1.020631E-06 -2.449791E-07 -1.252018E-08  2.071310E-08  1.989800E-07
         7   8 -1.153471E-05 -1.265455E-06 -3.161816E-07 -1.042277E-06  1.563419E-08  1.989800E-07
         8   1 -9.975437E-06  2.353787E-06 -2.843012E-08  1.133286E-06  6.290476E-08 -4.253272E-08
         8   2 -9.619454E-06  3.363179E-06  1.476315E-07  9.115241E-07  6.290474E-08 -4.253271E-08
         8   3 -1.065939E-05  2.113353E-06 -1.476280E-07  1.459990E-06  6.290475E-08 -4.253274E-08
         8   4 -1.030341E-05  3.122745E-06  2.843358E-08  1.238228E-06  6.290474E-08 -4.253271E-08
         8   5 -9.975437E-06  2.353787E-06 -2.843013E-08  1.133286E-06 -6.290480E-08  4.253275E-08
         8   6 -9.619454E-06  3.363179E-06  1.476314E-07  9.115241E-07 -6.290478E-08  4.253276E-08
         8   7 -1.065939E-05  2.113353E-06 -1.476280E-07  1.459990E-06 -6.290477E-08  4.253272E-08
         8   8 -1.030341E-05  3.122744E-06  2.843355E-08  1.238228E-06 -6.290482E-08  4.253275E-08
         9   1 -1.214178E-14 -1.214178E-14 -2.833082E-14  1.105889E-33 -3.481352E-15 -3.629745E-15
         9   2 -3.266626E-15 -1.202364E-14  1.134889E-15 -4.378509E-15 -5.164495E-14 -5.642475E-14
         9   3  2.866761E-15  2.866761E-15  6.689109E-15  2.791990E-32 -3.438381E-14 -2.990080E-14
         9   4 -1.495065E-14 -4.122170E-14 -8.613800E-15 -1.313553E-14 -8.112757E-15 -8.261150E-15
         9   5 -1.214178E-14 -1.214178E-14 -2.833082E-14  4.664583E-33  1.968905E-14  1.913524E-14
         9   6  3.301137E-15  3.301137E-15  7.702652E-15  1.466127E-35  1.093204E-14 -6.906415E-15
         9   7  2.866761E-15  2.866761E-15  6.689109E-15  2.161031E-32 -3.262366E-14 -1.589283E-14
         9   8 -6.092499E-14 -1.484952E-13 -5.458814E-14 -4.378509E-14  5.494652E-14  5.439271E-14

 strains (elem, integ.pnt.,exx,eyy,ezz,exy,exz,eyz) forset EALL and time  0.9378125E-01

         1   1 -2.451627E-12 -2.451627E-12  2.101395E-12  1.038676E-20 -1.323252E-21 -1.323580E-21
         1   2 -2.451627E-12 -2.451627E-12  2.101395E-12  2.457533E-20 -5.064462E-21 -1.323287E-21
         1   3 -2.451627E-12 -2.451627E-12  2.101395E-12  2.457532E-20 -1.323441E-21 -5.066296E-21
         1   4 -2.451627E-12 -2.451627E-12  2.101395E-12  3.876390E-20 -5.064938E-21 -5.064972E-21
         1   5 -2.451627E-12 -2.451627E-12  2.101395E-12  1.038714E-20 -1.197235E-21 -1.196954E-21
         1   6 -2.451627E-12 -2.451627E-12  2.101395E-12  2.457531E-20 -4.938444E-21 -1.196888E-21
         1   7 -2.451627E-12 -2.451627E-12  2.101395E-12  2.457715E-20 -1.197651E-21 -4.939669E-21
         1   8 -2.451627E-12 -2.451627E-12  2.101395E-12  3.876532E-20 -4.939148E-21 -4.938573E-21
         2   1 -1.137507E-11  2.616957E-11 -6.241919E-12  1.076558E-12 -1.232266E-13  5.937659E-21
         2   2 -1.137507E-11  2.488801E-11 -5.889843E-12  1.076558E-12 -1.232267E-13  3.078463E-21
         2   3 -1.137507E-11  2.616957E-11 -6.241919E-12  4.357795E-13 -1.232266E-13  6.454913E-20
         2   4 -1.137507E-11  2.488801E-11 -5.889843E-12  4.357795E-13 -1.232267E-13  5.988761E-20
         2   5 -1.137507E-11  2.616957E-11 -6.241919E-12  1.076558E-12  1.232266E-13 -3.645029E-20
         2   6 -1.137507E-11  2.488801E-11 -5.889843E-12  1.076558E-12  1.232265E-13 -4.531863E-20
         2   7 -1.137507E-11  2.616957E-11 -6.241919E-12  4.357795E-13  1.232266E-13  2.216118E-20
         2   8 -1.137507E-11  2.488801E-11 -5.889843E-12  4.357795E-13  1.232265E-13  1.149051E-20
         3   1  1.179961E-11 -3.983030E-11  1.313162E-11  3.868311E-13 -1.231781E-12  2.593294E-14
         3   2  1.179961E-11 -5.257967E-11  1.663419E-11 -7.750581E-14 -1.220021E-12  2.593295E-14
         3   3  1.087094E-11 -3.983030E-11  1.327775E-11 -5.987853E-12 -1.231781E-12 -5.507954E-15
         3   4  1.087094E-11 -5.257967E-11  1.678032E-11 -6.452190E-12 -1.220021E-12 -5.507949E-15
         3   5  1.183254E-11 -3.991834E-11  1.313162E-11  3.868311E-13  1.220021E-12  1.282239E-13
         3   6  1.183254E-11 -5.266771E-11  1.663419E-11 -7.750581E-14  1.231781E-12  1.282240E-13
         3   7  1.090387E-11 -3.991834E-11  1.327775E-11 -5.987853E-12  1.220021E-12  9.678305E-14
         3   8  1.090387E-11 -5.266771E-11  1.678032E-11 -6.452190E-12  1.231781E-12  9.678307E-14
         4   1  2.616957E-11 -1.137507E-11 -6.241919E-12  1.076558E-12  5.639491E-21 -1.232266E-13
         4   2  2.616957E-11 -1.137507E-11 -6.241919E-12  4.357795E-13  6.528529E-20 -1.232266E-13
         4   3  2.488801E-11 -1.137507E-11 -5.889843E-12  1.076558E-12  3.592850E-21 -1.232267E-13
         4   4  2.488801E-11 -1.137507E-11 -5.889843E-12  4.357795E-13  6.059855E-20 -1.232267E-13
         4   5  2.616957E-11 -1.137507E-11 -6.241919E-12  1.076558E-12 -3.859740E-20  1.232266E-13
         4   6  2.616957E-11 -1.137507E-11 -6.241919E-12  4.357795E-13  2.104840E-20  1.232266E-13
         4   7  2.488801E-11 -1.137507E-11 -5.889843E-12  1.076558E-12 -4.359547E-20  1.232265E-13
         4   8  2.488801E-11 -1.137507E-11 -5.889843E-12  4.357795E-13  1.341023E-20  1.232265E-13
         5   1  1.427947E-11  1.427947E-11 -1.346397E-11 -8.569483E-14  7.652663E-13  7.652663E-13
         5   2  1.427947E-11  2.223824E-11 -1.565045E-11  3.893691E-12  7.652663E-13  7.652664E-13
         5   3  2.223824E-11  1.427947E-11 -1.565045E-11  3.893691E-12  7.652663E-13  7.652663E-13
         5   4  2.223824E-11  2.223824E-11 -1.783693E-11  7.873077E-12  7.652663E-13  7.652663E-13
         5   5  1.427947E-11  1.427947E-11 -1.346397E-11 -8.569489E-14 -7.652665E-13 -7.652665E-13
         5   6  1.427947E-11  2.223824E-11 -1.565045E-11  3.893691E-12 -7.652666E-13 -7.652665E-13
         5   7  2.223824E-11  1.427947E-11 -1.565045E-11  3.893691E-12 -7.652666E-13 -7.652666E-13
         5   8  2.223824E-11  2.223824E-11 -1.783693E-11  7.873077E-12 -7.652666E-13 -7.652665E-13
         6   1  2.549126E-11 -5.081553E-11  1.075269E-11  7.061609E-12 -2.635326E-13  3.892515E-13
         6   2  2.549126E-11 -5.355627E-11  1.150564E-11  9.085717E-12 -2.635327E-13  3.892513E-13
         6   3  2.953947E-11 -5.081553E-11  9.640542E-12  5.691238E-12 -2.635327E-13  3.892517E-13
         6   4  2.953947E-11 -5.355627E-11  1.039349E-11  7.715347E-12 -2.635329E-13  3.892515E-13
         6   5  2.549126E-11 -5.081553E-11  1.075269E-11  7.061609E-12  2.635327E-13 -3.892518E-13
         6   6  2.549126E-11 -5.355627E-11  1.150564E-11  9.085717E-12  2.635326E-13 -3.892517E-13
         6   7  2.953947E-11 -5.081553E-11  9.640542E-12  5.691239E-12  2.635328E-13 -3.892516E-13
         6   8  2.953947E-11 -5.355627E-11  1.039349E-11  7.715347E-12  2.635328E-13 -3.892515E-13
         7   1 -3.983030E-11  1.179961E-11  1.313162E-11  3.868311E-13  2.593294E-14 -1.231781E-12
         7   2 -3.983030E-11  1.087094E-11  1.327775E-11 -5.987853E-12 -5.507954E-15 -1.231781E-12
         7   3 -5.257967E-11  1.179961E-11  1.663419E-11 -7.750583E-14  2.593294E-14 -1.220021E-12
         7   4 -5.257967E-11  1.087094E-11  1.678032E-11 -6.452190E-12 -5.507950E-15 -1.220021E-12
         7   5 -3.991834E-11  1.183254E-11  1.313162E-11  3.868311E-13  1.282239E-13  1.220021E-12
         7   6 -3.991834E-11  1.090387E-11  1.327775E-11 -5.987853E-12  9.678305E-14  1.220021E-12
         7   7 -5.266771E-11  1.183254E-11  1.663419E-11 -7.750585E-14  1.282240E-13  1.231781E-12
         7   8 -5.266771E-11  1.090387E-11  1.678032E-11 -6.452190E-12  9.678307E-14  1.231781E-12
         8   1 -5.081553E-11  2.549126E-11  1.075269E-11  7.061609E-12  3.892516E-13 -2.635326E-13
         8   2 -5.081553E-11  2.953947E-11  9.640543E-12  5.691238E-12  3.892514E-13 -2.635326E-13
         8   3 -5.355627E-11  2.549126E-11  1.150564E-11  9.085717E-12  3.892515E-13 -2.635327E-13
         8   4 -5.355627E-11  2.953947E-11  1.039349E-11  7.715347E-12  3.892514E-13 -2.635325E-13
         8   5 -5.081553E-11  2.549126E-11  1.075269E-11  7.061609E-12 -3.892518E-13  2.635328E-13
         8   6 -5.081553E-11  2.953947E-11  9.640543E-12  5.691238E-12 -3.892516E-13  2.635329E-13
         8   7 -5.355627E-11  2.549126E-11  1.150564E-11  9.085717E-12 -3.892516E-13  2.635326E-13
         8   8 -5.355627E-11  2.953947E-11  1.039349E-11  7.715347E-12 -3.892519E-13  2.635328E-13
         9   1  2.133205E-39  2.014888E-39 -1.002178E-19  2.073203E-39 -2.155123E-20 -2.246985E-20
         9   2  2.133205E-39 -5.421011E-20  2.724748E-20 -2.710505E-20 -3.197068E-19 -3.492961E-19
         9   3  3.181274E-41  2.014888E-39  2.366215E-20  2.531780E-40 -2.128522E-19 -1.851002E-19
         9   4  3.181274E-41 -1.626303E-19  3.922813E-20 -8.131516E-20 -5.022183E-20 -5.114045E-20
         9   5  2.971172E-38  2.806377E-38 -1.002178E-19  2.887599E-38  1.218846E-19  1.184563E-19
         9   6  2.971172E-38  2.624848E-40  2.724748E-20  2.792647E-39  6.767450E-20 -4.275400E-20
         9   7  4.430943E-40  2.806377E-38  2.366215E-20  3.526315E-39 -2.019560E-19 -9.838417E-20
         9   8  4.430943E-40 -5.421011E-19  3.922813E-20 -2.710505E-19  3.401451E-19  3.367168E-19

 displacements (vx,vy,vz) for set NALL and time  0.1027812E+00

         1  0.000000E+00  0.000000E+00  0.000000E+00
         2 -1.327295E-09  0.000000E+00  0.000000E+00
         3 -6.968298E-02  0.000000E+00  0.000000E+00
         4 -6.968298E-02  0.000000E+00  0.000000E+00
         5 -1.668337E-01  0.000000E+00  0.000000E+00
         6 -1.668337E-01  0.000000E+00  0.000000E+00
         7  0.000000E+00 -1.327295E-09  0.000000E+00
         8 -1.327295E-09 -1.327295E-09  0.000000E+00
         9 -6.968298E-02  1.527235E-08  0.000000E+00
        10 -6.968298E-02  1.384622E-08  0.000000E+00
        11 -1.668337E-01 -1.615638E-08  0.000000E+00
        12 -1.668337E-01 -2.946052E-08  0.000000E+00
        13  0.000000E+00 -6.968298E-02  0.000000E+00
        14  1.527235E-08 -6.968298E-02  0.000000E+00
        15  4.955581E-01  4.955581E-01  0.000000E+00
        16  4.955581E-01  4.955581E-01  0.000000E+00
        17  8.567562E-01 -7.418177E-01  0.000000E+00
        18  8.566278E-01 -1.100120E+00  0.000000E+00
        19  0.000000E+00 -6.968298E-02  0.000000E+00
        20  1.384622E-08 -6.968298E-02  0.000000E+00
        21  4.955581E-01  4.955581E-01  0.000000E+00
        22  4.955581E-01  4.955581E-01  0.000000E+00
        23  1.215059E+00 -7.419461E-01  0.000000E+00
        24  1.214931E+00 -1.100249E+00  0.000000E+00
        25  0.000000E+00 -1.668337E-01  0.000000E+00
        26 -1.615638E-08 -1.668337E-01  0.000000E+00
        27 -7.418177E-01  8.567562E-01  0.000000E+00
        28 -7.419461E-01  1.215059E+00  0.000000E+00
        29 -3.083437E+00 -3.083437E+00  0.000000E+00
        30 -3.083437E+00 -3.083437E+00  0.000000E+00
        31  0.000000E+00 -1.668337E-01  0.000000E+00
        32 -2.946052E-08 -1.668337E-01  0.000000E+00
        33 -1.100120E+00  8.566278E-01  0.000000E+00
        34 -1.100249E+00  1.214931E+00  0.000000E+00
        35 -3.083437E+00 -3.083437E+00  0.000000E+00
        36 -3.083437E+00 -3.083437E+00  0.000000E+00
        37  0.000000E+00  0.000000E+00  1.592754E-09
        38 -1.327295E-09  0.000000E+00  1.592754E-09
        39 -6.968298E-02  0.000000E+00 -5.149818E-09
        40 -6.968299E-02  0.000000E+00 -4.601307E-09
        41 -1.668337E-01  0.000000E+00  7.806865E-09
        42 -1.668337E-01  0.000000E+00  1.292384E-08
        43  0.000000E+00 -1.327295E-09  1.592754E-09
        44 -1.327295E-09 -1.327295E-09  1.592754E-09
        45 -6.968298E-02  1.527235E-08 -5.149818E-09
        46 -6.968298E-02  1.384622E-08 -4.601307E-09
        47 -1.668337E-01 -1.625940E-08  8.046251E-09
        48 -1.668337E-01 -2.956353E-08  1.316323E-08
        49  0.000000E+00 -6.968298E-02 -5.149818E-09
        50  1.527235E-08 -6.968298E-02 -5.149818E-09
        51  4.955581E-01  4.955581E-01 -9.419754E-09
        52  4.955581E-01  4.955581E-01 -1.256099E-08
        53  8.567562E-01 -7.418177E-01  7.051210E-09
        54  8.566278E-01 -1.100120E+00  8.318301E-09
        55  0.000000E+00 -6.968299E-02 -4.601307E-09
        56  1.384622E-08 -6.968298E-02 -4.601308E-09
        57  4.955581E-01  4.955581E-01 -1.256099E-08
        58  4.955581E-01  4.955581E-01 -1.570223E-08
        59  1.215059E+00 -7.419461E-01  5.641932E-09
        60  1.214931E+00 -1.100249E+00  6.909024E-09
        61  0.000000E+00 -1.668337E-01  7.806865E-09
        62 -1.625940E-08 -1.668337E-01  8.046251E-09
        63 -7.418177E-01  8.567562E-01  7.051209E-09
        64 -7.419461E-01  1.215059E+00  5.641933E-09
        65 -3.083437E+00 -3.083437E+00  1.999183E-17
        66 -3.083437E+00 -3.083437E+00  4.773556E-17
        67  0.000000E+00 -1.668337E-01  1.292384E-08
        68 -2.956353E-08 -1.668337E-01  1.316323E-08
        69 -1.100120E+00  8.566278E-01  8.318301E-09
        70 -1.100249E+00  1.214931E+00  6.909024E-09
        71 -3.083437E+00 -3.083437E+00  1.085932E-16
        72 -3.083437E+00 -3.083437E+00 -3.414716E-16

 stresses (elem, integ.pnt.,sxx,syy,szz,sxy,sxz,syz) for set EALL and time  0.1027812E+00

         1   1 -7.963769E-07 -7.963769E-07 -2.089418E-15  2.163103E-15 -2.775313E-16 -2.775314E-16
         1   2 -7.963769E-07 -7.963769E-07  2.383607E-15  5.117957E-15 -1.052059E-15 -2.775484E-16
         1   3 -7.963769E-07 -7.963769E-07  2.383607E-15  5.117957E-15 -2.775484E-16 -1.052059E-15
         1   4 -7.963769E-07 -7.963769E-07  6.856815E-15  8.072811E-15 -1.052196E-15 -1.052196E-15
         1   5 -7.963769E-07 -7.963769E-07 -5.342433E-15  2.162980E-15 -2.612338E-16 -2.612338E-16
         1   6 -7.963769E-07 -7.963769E-07 -8.696600E-16  5.117666E-15 -1.035761E-15 -2.611772E-16
         1   7 -7.963769E-07 -7.963769E-07 -8.696603E-16  5.117666E-15 -2.611773E-16 -1.035761E-15
         1   8 -7.963769E-07 -7.963769E-07  3.603296E-15  8.072351E-15 -1.035825E-15 -1.035825E-15
         2   1 -8.809855E-07  6.034255E-06  3.580950E-08  2.234618E-07 -2.557824E-08  1.091310E-15
         2   2 -1.025685E-06  5.623542E-06 -3.580950E-08  2.234618E-07 -2.557825E-08  5.527570E-16
         2   3 -8.809855E-07  6.034255E-06  3.580949E-08  9.045505E-08 -2.557824E-08  1.268254E-14
         2   4 -1.025685E-06  5.623542E-06 -3.580951E-08  9.045506E-08 -2.557825E-08  1.155681E-14
         2   5 -8.809855E-07  6.034255E-06  3.580950E-08  2.234618E-07  2.557823E-08 -7.518058E-15
         2   6 -1.025685E-06  5.623542E-06 -3.580950E-08  2.234618E-07  2.557822E-08 -8.940785E-15
         2   7 -8.809855E-07  6.034255E-06  3.580950E-08  9.045505E-08  2.557823E-08  4.073002E-15
         2   8 -1.025685E-06  5.623542E-06 -3.580951E-08  9.045506E-08  2.557822E-08  2.063095E-15
         3   1  1.613592E-07 -7.811242E-06  3.866743E-07  1.159267E-07 -2.398989E-07  5.660148E-09
         3   2 -1.188523E-06 -1.164273E-05 -2.814491E-07  1.458011E-08 -2.373321E-07  5.660149E-09
         3   3 -1.694331E-07 -7.939341E-06  2.904697E-07 -1.124874E-06 -2.398989E-07 -1.202173E-09
         3   4 -1.519315E-06 -1.177082E-05 -3.776537E-07 -1.226220E-06 -2.373321E-07 -1.202172E-09
         3   5  1.595258E-07 -7.839477E-06  3.776537E-07  1.159267E-07  2.373321E-07  2.798628E-08
         3   6 -1.190356E-06 -1.167096E-05 -2.904697E-07  1.458010E-08  2.398989E-07  2.798629E-08
         3   7 -1.712666E-07 -7.967576E-06  2.814491E-07 -1.124874E-06  2.373321E-07  2.112396E-08
         3   8 -1.521149E-06 -1.179906E-05 -3.866743E-07 -1.226221E-06  2.398989E-07  2.112396E-08
         4   1  6.034255E-06 -8.809855E-07  3.580950E-08  2.234618E-07  1.087671E-15 -2.557824E-08
         4   2  6.034255E-06 -8.809855E-07  3.580949E-08  9.045505E-08  1.264028E-14 -2.557824E-08
         4   3  5.623542E-06 -1.025685E-06 -3.580950E-08  2.234618E-07  5.219185E-16 -2.557825E-08
         4   4  5.623542E-06 -1.025685E-06 -3.580951E-08  9.045506E-08  1.157425E-14 -2.557825E-08
         4   5  6.034255E-06 -8.809855E-07  3.580950E-08  2.234618E-07 -7.493023E-15  2.557822E-08
         4   6  6.034255E-06 -8.809855E-07  3.580950E-08  9.045505E-08  4.059422E-15  2.557823E-08
         4   7  5.623542E-06 -1.025685E-06 -3.580950E-08  2.234618E-07 -9.104162E-15  2.557822E-08
         4   8  5.623542E-06 -1.025685E-06 -3.580951E-08  9.045506E-08  1.948004E-15  2.557821E-08
         5   1  4.690113E-06  4.690113E-06 -4.101514E-07 -5.132510E-10  1.464826E-07  1.464826E-07
         5   2  5.518786E-06  7.042206E-06  9.397024E-15  7.611964E-07  1.464826E-07  1.464826E-07
         5   3  7.042206E-06  5.518786E-06  2.736310E-14  7.611964E-07  1.464826E-07  1.464826E-07
         5   4  7.870879E-06  7.870879E-06  4.101515E-07  1.522906E-06  1.464826E-07  1.464826E-07
         5   5  4.690113E-06  4.690113E-06 -4.101514E-07 -5.132707E-10 -1.464826E-07 -1.464826E-07
         5   6  5.518786E-06  7.042206E-06  1.350832E-14  7.611964E-07 -1.464826E-07 -1.464826E-07
         5   7  7.042206E-06  5.518786E-06  4.050507E-14  7.611964E-07 -1.464826E-07 -1.464826E-07
         5   8  7.870879E-06  7.870879E-06  4.101515E-07  1.522906E-06 -1.464826E-07 -1.464826E-07
         6   1  2.760136E-06 -9.812240E-06 -9.282448E-09  1.337866E-06 -5.904006E-08  6.575989E-08
         6   2  2.426361E-06 -1.076150E-05 -1.747267E-07  1.679157E-06 -5.904006E-08  6.575987E-08
         6   3  3.814933E-06 -9.440026E-06  1.747268E-07  1.030123E-06 -5.904005E-08  6.575994E-08
         6   4  3.481157E-06 -1.038929E-05  9.282690E-09  1.371414E-06 -5.904009E-08  6.575992E-08
         6   5  2.760136E-06 -9.812240E-06 -9.282464E-09  1.337866E-06  5.904011E-08 -6.575997E-08
         6   6  2.426361E-06 -1.076150E-05 -1.747267E-07  1.679157E-06  5.904008E-08 -6.575994E-08
         6   7  3.814933E-06 -9.440026E-06  1.747268E-07  1.030123E-06  5.904008E-08 -6.575991E-08
         6   8  3.481157E-06 -1.038929E-05  9.282662E-09  1.371414E-06  5.904008E-08 -6.575989E-08
         7   1 -7.811242E-06  1.613592E-07  3.866743E-07  1.159267E-07  5.660148E-09 -2.398989E-07
         7   2 -7.939341E-06 -1.694331E-07  2.904697E-07 -1.124874E-06 -1.202173E-09 -2.398989E-07
         7   3 -1.164273E-05 -1.188523E-06 -2.814491E-07  1.458011E-08  5.660149E-09 -2.373321E-07
         7   4 -1.177082E-05 -1.519315E-06 -3.776537E-07 -1.226220E-06 -1.202172E-09 -2.373321E-07
         7   5 -7.839477E-06  1.595258E-07  3.776537E-07  1.159267E-07  2.798628E-08  2.373321E-07
         7   6 -7.967576E-06 -1.712666E-07  2.814491E-07 -1.124874E-06  2.112396E-08  2.373321E-07
         7   7 -1.167096E-05 -1.190356E-06 -2.904697E-07  1.458011E-08  2.798629E-08  2.398989E-07
         7   8 -1.179906E-05 -1.521149E-06 -3.866743E-07 -1.226220E-06  2.112396E-08  2.398989E-07
         8   1 -9.812240E-06  2.760137E-06 -9.282408E-09  1.337866E-06  6.575990E-08 -5.904006E-08
         8   2 -9.440026E-06  3.814933E-06  1.747269E-07  1.030123E-06  6.575992E-08 -5.904004E-08
         8   3 -1.076150E-05  2.426361E-06 -1.747266E-07  1.679157E-06  6.575993E-08 -5.904009E-08
         8   4 -1.038929E-05  3.481157E-06  9.282691E-09  1.371414E-06  6.575994E-08 -5.904009E-08
         8   5 -9.812240E-06  2.760137E-06 -9.282439E-09  1.337866E-06 -6.575993E-08  5.904010E-08
         8   6 -9.440026E-06  3.814933E-06  1.747268E-07  1.030123E-06 -6.575992E-08  5.904010E-08
         8   7 -1.076150E-05  2.426361E-06 -1.747266E-07  1.679157E-06 -6.575992E-08  5.904007E-08
         8   8 -1.038929E-05  3.481157E-06  9.282668E-09  1.371414E-06 -6.575993E-08  5.904007E-08
         9   1  4.022373E-15  4.022373E-15  9.385537E-15  6.974932E-33  1.501421E-14  1.709171E-14
         9   2  8.865357E-14  2.112518E-13  8.426008E-14  6.129912E-14 -5.066342E-14 -5.800308E-14
         9   3  2.786144E-15  2.786144E-15  6.501003E-15  2.509300E-32  2.311108E-14  3.460575E-14
         9   4  2.044488E-14  9.050102E-14 -2.235141E-14  3.502807E-14  1.435407E-14  1.643157E-14
         9   5 -4.851973E-14 -1.185759E-13 -4.315657E-14 -3.502807E-14  8.184548E-15  1.593790E-14
         9   6 -5.583722E-14 -1.258934E-13 -6.023071E-14 -3.502807E-14 -7.140232E-15 -3.453219E-14
         9   7 -4.975596E-14 -1.198121E-13 -4.604110E-14 -3.502807E-14 -4.447479E-14 -1.576139E-15
         9   8  2.044488E-14  9.050102E-14 -2.235141E-14  3.502807E-14  5.185240E-14  5.960575E-14

 strains (elem, integ.pnt.,exx,eyy,ezz,exy,exz,eyz) forset EALL and time  0.1027812E+00

         1   1 -2.654590E-12 -2.654590E-12  2.275363E-12  1.339064E-20 -1.718051E-21 -1.718051E-21
         1   2 -2.654590E-12 -2.654590E-12  2.275363E-12  3.168259E-20 -6.512743E-21 -1.718157E-21
         1   3 -2.654590E-12 -2.654590E-12  2.275363E-12  3.168259E-20 -1.718157E-21 -6.512745E-21
         1   4 -2.654590E-12 -2.654590E-12  2.275363E-12  4.997454E-20 -6.513593E-21 -6.513592E-21
         1   5 -2.654590E-12 -2.654590E-12  2.275363E-12  1.338988E-20 -1.617161E-21 -1.617162E-21
         1   6 -2.654590E-12 -2.654590E-12  2.275363E-12  3.168079E-20 -6.411854E-21 -1.616811E-21
         1   7 -2.654590E-12 -2.654590E-12  2.275363E-12  3.168079E-20 -1.616812E-21 -6.411855E-21
         1   8 -2.654590E-12 -2.654590E-12  2.275363E-12  4.997170E-20 -6.412248E-21 -6.412247E-21
         2   1 -1.286669E-11  2.994194E-11 -7.191292E-12  1.383335E-12 -1.583415E-13  6.755312E-21
         2   2 -1.286669E-11  2.829519E-11 -6.738888E-12  1.383335E-12 -1.583415E-13  3.421413E-21
         2   3 -1.286669E-11  2.994194E-11 -7.191292E-12  5.599598E-13 -1.583415E-13  7.851046E-20
         2   4 -1.286669E-11  2.829519E-11 -6.738888E-12  5.599599E-13 -1.583415E-13  7.154165E-20
         2   5 -1.286669E-11  2.994194E-11 -7.191292E-12  1.383335E-12  1.583414E-13 -4.654146E-20
         2   6 -1.286669E-11  2.829519E-11 -6.738888E-12  1.383335E-12  1.583413E-13 -5.534882E-20
         2   7 -1.286669E-11  2.994194E-11 -7.191292E-12  5.599598E-13  1.583414E-13  2.521369E-20
         2   8 -1.286669E-11  2.829519E-11 -6.738888E-12  5.599599E-13  1.583413E-13  1.277141E-20
         3   1  1.137490E-11 -3.797930E-11  1.276971E-11  7.176417E-13 -1.485088E-12  3.503901E-14
         3   2  1.137490E-11 -5.334159E-11  1.699012E-11  9.025785E-14 -1.469199E-12  3.503902E-14
         3   3  1.012014E-11 -3.797930E-11  1.296715E-11 -6.963505E-12 -1.485088E-12 -7.442023E-15
         3   4  1.012014E-11 -5.334159E-11  1.718756E-11 -7.590889E-12 -1.469199E-12 -7.442016E-15
         3   5  1.141939E-11 -3.809824E-11  1.276971E-11  7.176417E-13  1.469199E-12  1.732484E-13
         3   6  1.141939E-11 -5.346054E-11  1.699012E-11  9.025779E-14  1.485089E-12  1.732484E-13
         3   7  1.016463E-11 -3.809824E-11  1.296715E-11 -6.963505E-12  1.469199E-12  1.307674E-13
         3   8  1.016463E-11 -5.346054E-11  1.718756E-11 -7.590889E-12  1.485089E-12  1.307674E-13
         4   1  2.994194E-11 -1.286669E-11 -7.191292E-12  1.383335E-12  6.732786E-21 -1.583415E-13
         4   2  2.994194E-11 -1.286669E-11 -7.191292E-12  5.599598E-13  7.824890E-20 -1.583415E-13
         4   3  2.829519E-11 -1.286669E-11 -6.738888E-12  1.383335E-12  3.230508E-21 -1.583415E-13
         4   4  2.829519E-11 -1.286669E-11 -6.738888E-12  5.599599E-13  7.164965E-20 -1.583415E-13
         4   5  2.994194E-11 -1.286669E-11 -7.191292E-12  1.383335E-12 -4.638648E-20  1.583414E-13
         4   6  2.994194E-11 -1.286669E-11 -7.191292E-12  5.599598E-13  2.512963E-20  1.583414E-13
         4   7  2.829519E-11 -1.286669E-11 -6.738888E-12  1.383335E-12 -5.636020E-20  1.583413E-13
         4   8  2.829519E-11 -1.286669E-11 -6.738888E-12  5.599599E-13  1.205895E-20  1.583413E-13
         5   1  1.621964E-11  1.621964E-11 -1.535342E-11 -3.177268E-15  9.067970E-13  9.067970E-13
         5   2  1.621964E-11  2.565033E-11 -1.794427E-11  4.712168E-12  9.067970E-13  9.067970E-13
         5   3  2.565033E-11  1.621964E-11 -1.794427E-11  4.712168E-12  9.067970E-13  9.067970E-13
         5   4  2.565033E-11  2.565033E-11 -2.053512E-11  9.427514E-12  9.067970E-13  9.067970E-13
         5   5  1.621964E-11  1.621964E-11 -1.535342E-11 -3.177390E-15 -9.067972E-13 -9.067973E-13
         5   6  1.621964E-11  2.565033E-11 -1.794427E-11  4.712168E-12 -9.067973E-13 -9.067972E-13
         5   7  2.565033E-11  1.621964E-11 -1.794427E-11  4.712168E-12 -9.067973E-13 -9.067973E-13
         5   8  2.565033E-11  2.565033E-11 -2.053512E-11  9.427514E-12 -9.067972E-13 -9.067972E-13
         6   1  2.716234E-11 -5.064283E-11  1.003023E-11  8.337791E-12 -3.657777E-13  4.068230E-13
         6   2  2.716234E-11 -5.444692E-11  1.107531E-11  1.045327E-11 -3.657777E-13  4.068229E-13
         6   3  3.139331E-11 -5.064283E-11  8.867880E-12  6.435746E-12 -3.657776E-13  4.068233E-13
         6   4  3.139331E-11 -5.444692E-11  9.912959E-12  8.551227E-12 -3.657779E-13  4.068232E-13
         6   5  2.716234E-11 -5.064283E-11  1.003023E-11  8.337791E-12  3.657780E-13 -4.068235E-13
         6   6  2.716234E-11 -5.444692E-11  1.107531E-11  1.045327E-11  3.657778E-13 -4.068233E-13
         6   7  3.139331E-11 -5.064283E-11  8.867880E-12  6.435746E-12  3.657778E-13 -4.068232E-13
         6   8  3.139331E-11 -5.444692E-11  9.912959E-12  8.551227E-12  3.657778E-13 -4.068230E-13
         7   1 -3.797930E-11  1.137490E-11  1.276971E-11  7.176417E-13  3.503901E-14 -1.485088E-12
         7   2 -3.797930E-11  1.012014E-11  1.296715E-11 -6.963505E-12 -7.442021E-15 -1.485088E-12
         7   3 -5.334159E-11  1.137490E-11  1.699012E-11  9.025785E-14  3.503902E-14 -1.469199E-12
         7   4 -5.334159E-11  1.012014E-11  1.718756E-11 -7.590889E-12 -7.442016E-15 -1.469199E-12
         7   5 -3.809824E-11  1.141939E-11  1.276971E-11  7.176417E-13  1.732484E-13  1.469199E-12
         7   6 -3.809824E-11  1.016463E-11  1.296715E-11 -6.963505E-12  1.307674E-13  1.469199E-12
         7   7 -5.346054E-11  1.141939E-11  1.699012E-11  9.025781E-14  1.732484E-13  1.485088E-12
         7   8 -5.346054E-11  1.016463E-11  1.718756E-11 -7.590889E-12  1.307674E-13  1.485089E-12
         8   1 -5.064283E-11  2.716234E-11  1.003023E-11  8.337791E-12  4.068231E-13 -3.657777E-13
         8   2 -5.064283E-11  3.139331E-11  8.867880E-12  6.435746E-12  4.068232E-13 -3.657776E-13
         8   3 -5.444692E-11  2.716234E-11  1.107531E-11  1.045327E-11  4.068233E-13 -3.657779E-13
         8   4 -5.444692E-11  3.139331E-11  9.912959E-12  8.551227E-12  4.068233E-13 -3.657779E-13
         8   5 -5.064283E-11  2.716234E-11  1.003023E-11  8.337791E-12 -4.068233E-13  3.657780E-13
         8   6 -5.064283E-11  3.139331E-11  8.867880E-12  6.435746E-12 -4.068232E-13  3.657780E-13
         8   7 -5.444692E-11  2.716234E-11  1.107531E-11  1.045327E-11 -4.068232E-13  3.657778E-13
         8   8 -5.444692E-11  3.139331E-11  9.912959E-12  8.551227E-12 -4.068233E-13  3.657778E-13
         9   1  4.789592E-40  1.367011E-41  3.320054E-20  8.091615E-41  9.294509E-20  1.058058E-19
         9   2  4.789592E-40  7.589415E-19 -2.719780E-20  3.794708E-19 -3.136307E-19 -3.590667E-19
         9   3  1.088456E-38  1.367011E-41  2.299675E-20  3.857371E-40  1.430686E-19  2.142260E-19
         9   4  1.088456E-38  4.336809E-19 -2.649295E-19  2.168404E-19  8.885851E-20  1.017192E-19
         9   5  6.671041E-39 -4.336809E-19  3.320054E-20 -2.168404E-19  5.066625E-20  9.866317E-20
         9   6  6.671041E-39 -4.336809E-19 -2.719780E-20 -2.168404E-19 -4.420144E-20 -2.137707E-19
         9   7  1.516024E-37 -4.336809E-19  2.299675E-20 -2.168404E-19 -2.753202E-19 -9.757049E-21
         9   8  1.516024E-37  4.336809E-19 -2.649295E-19  2.168404E-19  3.209910E-19  3.689880E-19

 displacements (vx,vy,vz) for set NALL and time  0.1117812E+00

         1  0.000000E+00  0.000000E+00  0.000000E+00
         2 -1.359860E-09  0.000000E+00  0.000000E+00
         3 -7.139267E-02  0.000000E+00  0.000000E+00
         4 -7.139268E-02  0.000000E+00  0.000000E+00
         5 -1.762272E-01  0.000000E+00  0.000000E+00
         6 -1.762272E-01  0.000000E+00  0.000000E+00
         7  0.000000E+00 -1.359860E-09  0.000000E+00
         8 -1.359860E-09 -1.359860E-09  0.000000E+00
         9 -7.139267E-02  1.703131E-08  0.000000E+00
        10 -7.139268E-02  1.529501E-08  0.000000E+00
        11 -1.762272E-01 -1.428300E-08  0.000000E+00
        12 -1.762272E-01 -3.009685E-08  0.000000E+00
        13  0.000000E+00 -7.139267E-02  0.000000E+00
        14  1.703131E-08 -7.139267E-02  0.000000E+00
        15  5.502481E-01  5.502481E-01  0.000000E+00
        16  5.502481E-01  5.502481E-01  0.000000E+00
        17  9.538541E-01 -7.062077E-01  0.000000E+00
        18  9.536808E-01 -1.122533E+00  0.000000E+00
        19  0.000000E+00 -7.139268E-02  0.000000E+00
        20  1.529501E-08 -7.139268E-02  0.000000E+00
        21  5.502481E-01  5.502481E-01  0.000000E+00
        22  5.502481E-01  5.502481E-01  0.000000E+00
        23  1.370179E+00 -7.063811E-01  0.000000E+00
        24  1.370006E+00 -1.122706E+00  0.000000E+00
        25  0.000000E+00 -1.762272E-01  0.000000E+00
        26 -1.428300E-08 -1.762272E-01  0.000000E+00
        27 -7.062077E-01  9.538541E-01  0.000000E+00
        28 -7.063811E-01  1.370179E+00  0.000000E+00
        29 -3.353437E+00 -3.353437E+00  0.000000E+00
        30 -3.353437E+00 -3.353437E+00  0.000000E+00
        31  0.000000E+00 -1.762272E-01  0.000000E+00
        32 -3.009685E-08 -1.762272E-01  0.000000E+00
        33 -1.122533E+00  9.536808E-01  0.000000E+00
        34 -1.122706E+00  1.370006E+00  0.000000E+00
        35 -3.353437E+00 -3.353437E+00  0.000000E+00
        36 -3.353437E+00 -3.353437E+00  0.000000E+00
        37  0.000000E+00  0.000000E+00  1.631832E-09
        38 -1.359860E-09  0.000000E+00  1.631832E-09
        39 -7.139267E-02  0.000000E+00 -5.813315E-09
        40 -7.139268E-02  0.000000E+00 -5.145506E-09
        41 -1.762272E-01  0.000000E+00  7.139212E-09
        42 -1.762272E-01  0.000000E+00  1.322146E-08
        43  0.000000E+00 -1.359860E-09  1.631832E-09
        44 -1.359860E-09 -1.359860E-09  1.631832E-09
        45 -7.139267E-02  1.703131E-08 -5.813315E-09
        46 -7.139268E-02  1.529501E-08 -5.145506E-09
        47 -1.762272E-01 -1.441443E-08  7.444641E-09
        48 -1.762272E-01 -3.022828E-08  1.352689E-08
        49  0.000000E+00 -7.139267E-02 -5.813315E-09
        50  1.703131E-08 -7.139267E-02 -5.813315E-09
        51  5.502481E-01  5.502481E-01 -1.036301E-08
        52  5.502481E-01  5.502481E-01 -1.401168E-08
        53  9.538541E-01 -7.062077E-01  6.329956E-09
        54  9.536808E-01 -1.122533E+00  8.024963E-09
        55  0.000000E+00 -7.139268E-02 -5.145506E-09
        56  1.529501E-08 -7.139268E-02 -5.145506E-09
        57  5.502481E-01  5.502481E-01 -1.401168E-08
        58  5.502481E-01  5.502481E-01 -1.766035E-08
        59  1.370179E+00 -7.063811E-01  4.876691E-09
        60  1.370006E+00 -1.122706E+00  6.571698E-09
        61  0.000000E+00 -1.762272E-01  7.139212E-09
        62 -1.441443E-08 -1.762272E-01  7.444641E-09
        63 -7.062077E-01  9.538541E-01  6.329956E-09
        64 -7.063811E-01  1.370179E+00  4.876691E-09
        65 -3.353437E+00 -3.353437E+00 -1.718742E-16
        66 -3.353437E+00 -3.353437E+00 -1.815641E-17
        67  0.000000E+00 -1.762272E-01  1.322146E-08
        68 -3.022828E-08 -1.762272E-01  1.352689E-08
        69 -1.122533E+00  9.536808E-01  8.024963E-09
        70 -1.122706E+00  1.370006E+00  6.571698E-09
        71 -3.353437E+00 -3.353437E+00  1.661939E-17
        72 -3.353437E+00 -3.353437E+00 -8.066739E-17

 stresses (elem, integ.pnt.,sxx,syy,szz,sxy,sxz,syz) for set EALL and time  0.1117812E+00

         1   1 -8.159162E-07 -8.159162E-07 -2.598365E-15  2.648227E-15 -3.436113E-16 -3.436113E-16
         1   2 -8.159162E-07 -8.159162E-07  2.828012E-15  6.265773E-15 -1.282399E-15 -3.436113E-16
         1   3 -8.159162E-07 -8.159162E-07  2.828012E-15  6.265773E-15 -3.436113E-16 -1.282399E-15
         1   4 -8.159162E-07 -8.159162E-07  8.254390E-15  9.883319E-15 -1.282399E-15 -1.282399E-15
         1   5 -8.159163E-07 -8.159163E-07 -6.541272E-15  2.648227E-15 -3.435877E-16 -3.435878E-16
         1   6 -8.159162E-07 -8.159162E-07 -1.114894E-15  6.265773E-15 -1.282375E-15 -3.435878E-16
         1   7 -8.159162E-07 -8.159162E-07 -1.114894E-15  6.265773E-15 -3.435878E-16 -1.282375E-15
         1   8 -8.159162E-07 -8.159162E-07  4.311483E-15  9.883319E-15 -1.282375E-15 -1.282375E-15
         2   1 -9.189269E-07  6.736444E-06  4.359791E-08  2.720638E-07 -3.114139E-08  1.239632E-15
         2   2 -1.095098E-06  6.236402E-06 -4.359791E-08  2.720638E-07 -3.114140E-08  5.198825E-16
         2   3 -9.189268E-07  6.736444E-06  4.359791E-08  1.101286E-07 -3.114139E-08  1.476260E-14
         2   4 -1.095098E-06  6.236402E-06 -4.359792E-08  1.101286E-07 -3.114140E-08  1.364951E-14
         2   5 -9.189269E-07  6.736444E-06  4.359791E-08  2.720638E-07  3.114138E-08 -8.896083E-15
         2   6 -1.095098E-06  6.236402E-06 -4.359791E-08  2.720638E-07  3.114137E-08 -1.118889E-14
         2   7 -9.189268E-07  6.736444E-06  4.359791E-08  1.101286E-07  3.114138E-08  4.626634E-15
         2   8 -1.095098E-06  6.236402E-06 -4.359792E-08  1.101286E-07  3.114137E-08  1.940491E-15
         3   1  2.562410E-07 -7.197971E-06  4.642074E-07  2.030327E-07 -2.852658E-07  7.221705E-09
         3   2 -1.348285E-06 -1.175223E-05 -3.299520E-07  7.372595E-08 -2.819908E-07  7.221706E-09
         3   3 -1.658123E-07 -7.361411E-06  3.414612E-07 -1.271835E-06 -2.852658E-07 -1.533836E-09
         3   4 -1.770338E-06 -1.191567E-05 -4.526981E-07 -1.401141E-06 -2.819908E-07 -1.533836E-09
         3   5  2.539017E-07 -7.233995E-06  4.526982E-07  2.030327E-07  2.819909E-07  3.570731E-08
         3   6 -1.350624E-06 -1.178826E-05 -3.414612E-07  7.372595E-08  2.852658E-07  3.570731E-08
         3   7 -1.681516E-07 -7.397435E-06  3.299520E-07 -1.271835E-06  2.819909E-07  2.695177E-08
         3   8 -1.772678E-06 -1.195170E-05 -4.642074E-07 -1.401141E-06  2.852658E-07  2.695177E-08
         4   1  6.736444E-06 -9.189268E-07  4.359791E-08  2.720638E-07  1.207220E-15 -3.114139E-08
         4   2  6.736444E-06 -9.189268E-07  4.359791E-08  1.101286E-07  1.495560E-14 -3.114139E-08
         4   3  6.236402E-06 -1.095098E-06 -4.359791E-08  2.720638E-07  5.406573E-16 -3.114141E-08
         4   4  6.236402E-06 -1.095098E-06 -4.359792E-08  1.101286E-07  1.349447E-14 -3.114140E-08
         4   5  6.736444E-06 -9.189269E-07  4.359791E-08  2.720638E-07 -9.242457E-15  3.114138E-08
         4   6  6.736444E-06 -9.189268E-07  4.359791E-08  1.101286E-07  4.505671E-15  3.114138E-08
         4   7  6.236402E-06 -1.095098E-06 -4.359791E-08  2.720638E-07 -1.093554E-14  3.114137E-08
         4   8  6.236402E-06 -1.095098E-06 -4.359792E-08  1.101286E-07  2.018024E-15  3.114137E-08
         5   1  5.158551E-06  5.158551E-06 -4.764066E-07  2.209919E-08  1.701452E-07  1.701452E-07
         5   2  6.121086E-06  7.890597E-06  6.077676E-15  9.068543E-07  1.701452E-07  1.701452E-07
         5   3  7.890597E-06  6.121086E-06  3.370122E-14  9.068542E-07  1.701452E-07  1.701451E-07
         5   4  8.853132E-06  8.853132E-06  4.764067E-07  1.791609E-06  1.701452E-07  1.701451E-07
         5   5  5.158551E-06  5.158551E-06 -4.764066E-07  2.209919E-08 -1.701452E-07 -1.701452E-07
         5   6  6.121086E-06  7.890597E-06  4.056713E-14  9.068542E-07 -1.701452E-07 -1.701452E-07
         5   7  7.890597E-06  6.121086E-06  4.356155E-14  9.068543E-07 -1.701452E-07 -1.701452E-07
         5   8  8.853132E-06  8.853132E-06  4.764067E-07  1.791609E-06 -1.701452E-07 -1.701452E-07
         6   1  3.133133E-06 -9.461568E-06  1.578215E-08  1.547511E-06 -7.898533E-08  6.783460E-08
         6   2  2.686569E-06 -1.073134E-05 -2.055350E-07  1.899224E-06 -7.898533E-08  6.783460E-08
         6   3  4.220623E-06 -9.077505E-06  2.055350E-07  1.135907E-06 -7.898534E-08  6.783466E-08
         6   4  3.774058E-06 -1.034728E-05 -1.578216E-08  1.487620E-06 -7.898533E-08  6.783462E-08
         6   5  3.133133E-06 -9.461568E-06  1.578211E-08  1.547511E-06  7.898539E-08 -6.783469E-08
         6   6  2.686569E-06 -1.073134E-05 -2.055351E-07  1.899224E-06  7.898538E-08 -6.783465E-08
         6   7  4.220623E-06 -9.077505E-06  2.055349E-07  1.135907E-06  7.898538E-08 -6.783465E-08
         6   8  3.774058E-06 -1.034728E-05 -1.578221E-08  1.487620E-06  7.898539E-08 -6.783466E-08
         7   1 -7.197971E-06  2.562410E-07  4.642074E-07  2.030327E-07  7.221705E-09 -2.852658E-07
         7   2 -7.361411E-06 -1.658123E-07  3.414612E-07 -1.271835E-06 -1.533837E-09 -2.852658E-07
         7   3 -1.175223E-05 -1.348285E-06 -3.299520E-07  7.372595E-08  7.221706E-09 -2.819908E-07
         7   4 -1.191567E-05 -1.770338E-06 -4.526982E-07 -1.401141E-06 -1.533836E-09 -2.819908E-07
         7   5 -7.233995E-06  2.539018E-07  4.526982E-07  2.030327E-07  3.570731E-08  2.819909E-07
         7   6 -7.397435E-06 -1.681516E-07  3.299520E-07 -1.271835E-06  2.695177E-08  2.819909E-07
         7   7 -1.178826E-05 -1.350624E-06 -3.414612E-07  7.372595E-08  3.570732E-08  2.852658E-07
         7   8 -1.195170E-05 -1.772678E-06 -4.642074E-07 -1.401141E-06  2.695177E-08  2.852658E-07
         8   1 -9.461568E-06  3.133133E-06  1.578213E-08  1.547511E-06  6.783461E-08 -7.898533E-08
         8   2 -9.077505E-06  4.220623E-06  2.055350E-07  1.135907E-06  6.783463E-08 -7.898535E-08
         8   3 -1.073134E-05  2.686569E-06 -2.055350E-07  1.899224E-06  6.783462E-08 -7.898536E-08
         8   4 -1.034728E-05  3.774058E-06 -1.578217E-08  1.487620E-06  6.783463E-08 -7.898536E-08
         8   5 -9.461568E-06  3.133133E-06  1.578214E-08  1.547511E-06 -6.783467E-08  7.898540E-08
         8   6 -9.077505E-06  4.220623E-06  2.055350E-07  1.135907E-06 -6.783466E-08  7.898538E-08
         8   7 -1.073134E-05  2.686569E-06 -2.055350E-07  1.899224E-06 -6.783465E-08  7.898535E-08
         8   8 -1.034728E-05  3.774058E-06 -1.578218E-08  1.487620E-06 -6.783465E-08  7.898536E-08
         9   1  8.591320E-14  2.260255E-13  6.035184E-14  7.005614E-14  5.597883E-14  5.716598E-14
         9   2  6.970213E-14  1.747863E-13  5.755408E-14  5.254211E-14 -3.596985E-14 -3.972977E-14
         9   3  9.944819E-14  2.395605E-13  9.193348E-14  7.005614E-14  3.351773E-14  3.965194E-14
         9   4  2.934950E-14  8.189161E-14  1.594006E-14  2.627105E-14  2.476072E-14  2.594786E-14
         9   5 -1.917101E-14 -1.917101E-14 -4.473237E-14  1.004552E-32 -1.344501E-14 -9.014523E-15
         9   6 -3.538208E-14 -7.041016E-14 -4.753013E-14 -1.751404E-14  1.501530E-14  9.830857E-16
         9   7 -1.107202E-13 -2.508325E-13 -1.182349E-13 -7.005614E-14 -5.636653E-15  1.725653E-14
         9   8 -8.887024E-14 -1.939544E-13 -1.022797E-13 -5.254211E-14  2.063440E-14  2.506488E-14

 strains (elem, integ.pnt.,exx,eyy,ezz,exy,exz,eyz) forset EALL and time  0.1117812E+00

         1   1 -2.719721E-12 -2.719721E-12  2.331189E-12  1.639379E-20 -2.127118E-21 -2.127118E-21
         1   2 -2.719721E-12 -2.719721E-12  2.331189E-12  3.878812E-20 -7.938658E-21 -2.127118E-21
         1   3 -2.719721E-12 -2.719721E-12  2.331189E-12  3.878812E-20 -2.127118E-21 -7.938658E-21
         1   4 -2.719721E-12 -2.719721E-12  2.331189E-12  6.118245E-20 -7.938657E-21 -7.938658E-21
         1   5 -2.719721E-12 -2.719721E-12  2.331189E-12  1.639379E-20 -2.126972E-21 -2.126972E-21
         1   6 -2.719721E-12 -2.719721E-12  2.331189E-12  3.878812E-20 -7.938512E-21 -2.126972E-21
         1   7 -2.719721E-12 -2.719721E-12  2.331189E-12  3.878812E-20 -2.126972E-21 -7.938512E-21
         1   8 -2.719721E-12 -2.719721E-12  2.331189E-12  6.118245E-20 -7.938512E-21 -7.938512E-21
         2   1 -1.406162E-11  3.332877E-11 -8.103129E-12  1.684204E-12 -1.927800E-13  7.673297E-21
         2   2 -1.406162E-11  3.132386E-11 -7.552329E-12  1.684205E-12 -1.927801E-13  3.217703E-21
         2   3 -1.406162E-11  3.332877E-11 -8.103129E-12  6.817487E-13 -1.927800E-13  9.138679E-20
         2   4 -1.406162E-11  3.132386E-11 -7.552329E-12  6.817488E-13 -1.927801E-13  8.449625E-20
         2   5 -1.406162E-11  3.332877E-11 -8.103129E-12  1.684204E-12  1.927800E-13 -5.507262E-20
         2   6 -1.406162E-11  3.132386E-11 -7.552329E-12  1.684205E-12  1.927799E-13 -6.926617E-20
         2   7 -1.406162E-11  3.332877E-11 -8.103129E-12  6.817487E-13  1.927800E-13  2.864088E-20
         2   8 -1.406162E-11  3.132386E-11 -7.552329E-12  6.817488E-13  1.927799E-13  1.201238E-20
         3   1  1.083986E-11 -3.530526E-11  1.212727E-11  1.256869E-12 -1.765931E-12  4.470579E-14
         3   2  1.083986E-11 -5.356553E-11  1.714382E-11  4.563987E-13 -1.745658E-12  4.470580E-14
         3   3  9.238917E-12 -3.530526E-11  1.237918E-11 -7.873262E-12 -1.765931E-12 -9.495178E-15
         3   4  9.238917E-12 -5.356553E-11  1.739574E-11 -8.673732E-12 -1.745658E-12 -9.495176E-15
         3   5  1.089662E-11 -3.545703E-11  1.212727E-11  1.256869E-12  1.745658E-12  2.210453E-13
         3   6  1.089662E-11 -5.371729E-11  1.714382E-11  4.563987E-13  1.765931E-12  2.210453E-13
         3   7  9.295683E-12 -3.545703E-11  1.237918E-11 -7.873262E-12  1.745658E-12  1.668443E-13
         3   8  9.295683E-12 -5.371729E-11  1.739574E-11 -8.673732E-12  1.765931E-12  1.668443E-13
         4   1  3.332877E-11 -1.406162E-11 -8.103129E-12  1.684204E-12  7.472652E-21 -1.927800E-13
         4   2  3.332877E-11 -1.406162E-11 -8.103129E-12  6.817487E-13  9.258155E-20 -1.927800E-13
         4   3  3.132386E-11 -1.406162E-11 -7.552329E-12  1.684205E-12  3.346309E-21 -1.927801E-13
         4   4  3.132386E-11 -1.406162E-11 -7.552329E-12  6.817488E-13  8.353645E-20 -1.927801E-13
         4   5  3.332877E-11 -1.406162E-11 -8.103129E-12  1.684204E-12 -5.721684E-20  1.927800E-13
         4   6  3.332877E-11 -1.406162E-11 -8.103129E-12  6.817487E-13  2.789206E-20  1.927800E-13
         4   7  3.132386E-11 -1.406162E-11 -7.552329E-12  1.684205E-12 -6.769781E-20  1.927799E-13
         4   8  3.132386E-11 -1.406162E-11 -7.552329E-12  6.817488E-13  1.249234E-20  1.927799E-13
         5   1  1.787575E-11  1.787575E-11 -1.700732E-11  1.368045E-13  1.053280E-12  1.053280E-12
         5   2  1.787575E-11  2.882986E-11 -2.001669E-11  5.613860E-12  1.053280E-12  1.053280E-12
         5   3  2.882986E-11  1.787575E-11 -2.001669E-11  5.613860E-12  1.053280E-12  1.053279E-12
         5   4  2.882986E-11  2.882986E-11 -2.302606E-11  1.109091E-11  1.053280E-12  1.053279E-12
         5   5  1.787575E-11  1.787575E-11 -1.700732E-11  1.368045E-13 -1.053280E-12 -1.053280E-12
         5   6  1.787575E-11  2.882986E-11 -2.001669E-11  5.613860E-12 -1.053280E-12 -1.053280E-12
         5   7  2.882986E-11  1.787575E-11 -2.001669E-11  5.613860E-12 -1.053280E-12 -1.053280E-12
         5   8  2.882986E-11  2.882986E-11 -2.302606E-11  1.109091E-11 -1.053280E-12 -1.053280E-12
         6   1  2.839766E-11 -4.953753E-11  9.115774E-12  9.644737E-12 -4.893063E-13  4.195212E-13
         6   2  2.839766E-11 -5.462632E-11  1.051379E-11  1.182625E-11 -4.893063E-13  4.195212E-13
         6   3  3.276068E-11 -4.953753E-11  7.917142E-12  7.100343E-12 -4.893064E-13  4.195216E-13
         6   4  3.276068E-11 -5.462632E-11  9.315160E-12  9.281855E-12 -4.893063E-13  4.195213E-13
         6   5  2.839766E-11 -4.953753E-11  9.115774E-12  9.644737E-12  4.893066E-13 -4.195217E-13
         6   6  2.839766E-11 -5.462632E-11  1.051379E-11  1.182625E-11  4.893066E-13 -4.195215E-13
         6   7  3.276068E-11 -4.953753E-11  7.917142E-12  7.100343E-12  4.893066E-13 -4.195215E-13
         6   8  3.276068E-11 -5.462632E-11  9.315160E-12  9.281855E-12  4.893067E-13 -4.195216E-13
         7   1 -3.530526E-11  1.083986E-11  1.212727E-11  1.256869E-12  4.470579E-14 -1.765931E-12
         7   2 -3.530526E-11  9.238916E-12  1.237918E-11 -7.873262E-12 -9.495180E-15 -1.765931E-12
         7   3 -5.356553E-11  1.083986E-11  1.714382E-11  4.563987E-13  4.470580E-14 -1.745658E-12
         7   4 -5.356553E-11  9.238916E-12  1.739574E-11 -8.673733E-12 -9.495173E-15 -1.745658E-12
         7   5 -3.545703E-11  1.089662E-11  1.212727E-11  1.256869E-12  2.210453E-13  1.745658E-12
         7   6 -3.545703E-11  9.295683E-12  1.237918E-11 -7.873262E-12  1.668443E-13  1.745658E-12
         7   7 -5.371729E-11  1.089662E-11  1.714382E-11  4.563987E-13  2.210453E-13  1.765931E-12
         7   8 -5.371729E-11  9.295683E-12  1.739574E-11 -8.673733E-12  1.668443E-13  1.765931E-12
         8   1 -4.953753E-11  2.839766E-11  9.115774E-12  9.644737E-12  4.195213E-13 -4.893063E-13
         8   2 -4.953753E-11  3.276068E-11  7.917142E-12  7.100343E-12  4.195214E-13 -4.893064E-13
         8   3 -5.462632E-11  2.839766E-11  1.051379E-11  1.182625E-11  4.195213E-13 -4.893065E-13
         8   4 -5.462632E-11  3.276068E-11  9.315160E-12  9.281855E-12  4.195214E-13 -4.893065E-13
         8   5 -4.953753E-11  2.839766E-11  9.115774E-12  9.644737E-12 -4.195216E-13  4.893067E-13
         8   6 -4.953753E-11  3.276068E-11  7.917142E-12  7.100343E-12 -4.195215E-13  4.893066E-13
         8   7 -5.462632E-11  2.839766E-11  1.051379E-11  1.182625E-11 -4.195215E-13  4.893064E-13
         8   8 -5.462632E-11  3.276068E-11  9.315160E-12  9.281855E-12 -4.195215E-13  4.893065E-13
         9   1  9.052500E-40  8.673617E-19 -1.582369E-19  4.336809E-19  3.465356E-19  3.538846E-19
         9   2  9.052500E-40  6.505213E-19 -7.520217E-20  3.252607E-19 -2.226705E-19 -2.459462E-19
         9   3  1.748339E-40  8.673617E-19 -4.651957E-20  4.336809E-19  2.074907E-19  2.454644E-19
         9   4  1.748339E-40  3.252607E-19 -8.301081E-20  1.626303E-19  1.532806E-19  1.606296E-19
         9   5  1.260851E-38  2.282365E-38 -1.582369E-19  1.696385E-38 -8.323100E-20 -5.580419E-20
         9   6  1.260851E-38 -2.168404E-19 -7.520217E-20 -1.084202E-19  9.295185E-20  6.085769E-21
         9   7  2.435122E-39 -8.673617E-19 -4.651957E-20 -4.336809E-19 -3.489357E-20  1.068261E-19
         9   8  2.435122E-39 -6.505213E-19 -8.301081E-20 -3.252607E-19  1.277368E-19  1.551636E-19

 displacements (vx,vy,vz) for set NALL and time  0.1207812E+00

         1  0.000000E+00  0.000000E+00  0.000000E+00
         2 -1.326340E-09  0.000000E+00  0.000000E+00
         3 -6.963286E-02  0.000000E+00  0.000000E+00
         4 -6.963287E-02  0.000000E+00  0.000000E+00
         5 -1.782169E-01  0.000000E+00  0.000000E+00
         6 -1.782169E-01  0.000000E+00  0.000000E+00
         7  0.000000E+00 -1.326340E-09  0.000000E+00
         8 -1.326340E-09 -1.326340E-09  0.000000E+00
         9 -6.963286E-02  1.855691E-08  0.000000E+00
        10 -6.963287E-02  1.653455E-08  0.000000E+00
        11 -1.782169E-01 -1.205213E-08  0.000000E+00
        12 -1.782169E-01 -3.055949E-08  0.000000E+00
        13  0.000000E+00 -6.963286E-02  0.000000E+00
        14  1.855691E-08 -6.963286E-02  0.000000E+00
        15  5.982742E-01  5.982742E-01  0.000000E+00
        16  5.982742E-01  5.982742E-01  0.000000E+00
        17  1.036622E+00 -6.582647E-01  0.000000E+00
        18  1.036397E+00 -1.132313E+00  0.000000E+00
        19  0.000000E+00 -6.963287E-02  0.000000E+00
        20  1.653455E-08 -6.963287E-02  0.000000E+00
        21  5.982742E-01  5.982742E-01  0.000000E+00
        22  5.982742E-01  5.982742E-01  0.000000E+00
        23  1.510670E+00 -6.584894E-01  0.000000E+00
        24  1.510445E+00 -1.132537E+00  0.000000E+00
        25  0.000000E+00 -1.782169E-01  0.000000E+00
        26 -1.205213E-08 -1.782169E-01  0.000000E+00
        27 -6.582647E-01  1.036622E+00  0.000000E+00
        28 -6.584894E-01  1.510670E+00  0.000000E+00
        29 -3.623437E+00 -3.623437E+00  0.000000E+00
        30 -3.623437E+00 -3.623437E+00  0.000000E+00
        31  0.000000E+00 -1.782169E-01  0.000000E+00
        32 -3.055949E-08 -1.782169E-01  0.000000E+00
        33 -1.132313E+00  1.036397E+00  0.000000E+00
        34 -1.132537E+00  1.510445E+00  0.000000E+00
        35 -3.623437E+00 -3.623437E+00  0.000000E+00
        36 -3.623437E+00 -3.623437E+00  0.000000E+00
        37  0.000000E+00  0.000000E+00  1.591608E-09
        38 -1.326340E-09  0.000000E+00  1.591608E-09
        39 -6.963286E-02  0.000000E+00 -6.434223E-09
        40 -6.963287E-02  0.000000E+00 -5.656396E-09
        41 -1.782169E-01  0.000000E+00  6.295332E-09
        42 -1.782169E-01  0.000000E+00  1.341355E-08
        43  0.000000E+00 -1.326340E-09  1.591608E-09
        44 -1.326340E-09 -1.326340E-09  1.591608E-09
        45 -6.963286E-02  1.855691E-08 -6.434223E-09
        46 -6.963287E-02  1.653455E-08 -5.656396E-09
        47 -1.782169E-01 -1.221180E-08  6.666395E-09
        48 -1.782169E-01 -3.071917E-08  1.378461E-08
        49  0.000000E+00 -6.963286E-02 -6.434223E-09
        50  1.855691E-08 -6.963286E-02 -6.434223E-09
        51  5.982742E-01  5.982742E-01 -1.111268E-08
        52  5.982742E-01  5.982742E-01 -1.527420E-08
        53  1.036622E+00 -6.582647E-01  5.500190E-09
        54  1.036397E+00 -1.132313E+00  7.691836E-09
        55  0.000000E+00 -6.963287E-02 -5.656396E-09
        56  1.653455E-08 -6.963287E-02 -5.656396E-09
        57  5.982742E-01  5.982742E-01 -1.527420E-08
        58  5.982742E-01  5.982742E-01 -1.943572E-08
        59  1.510670E+00 -6.584894E-01  4.005598E-09
        60  1.510445E+00 -1.132537E+00  6.197244E-09
        61  0.000000E+00 -1.782169E-01  6.295332E-09
        62 -1.221180E-08 -1.782169E-01  6.666395E-09
        63 -6.582647E-01  1.036622E+00  5.500190E-09
        64 -6.584894E-01  1.510670E+00  4.005598E-09
        65 -3.623437E+00 -3.623437E+00 -1.799567E-17
        66 -3.623437E+00 -3.623437E+00 -1.396442E-16
        67  0.000000E+00 -1.782169E-01  1.341355E-08
        68 -3.071917E-08 -1.782169E-01  1.378461E-08
        69 -1.132313E+00  1.036397E+00  7.691836E-09
        70 -1.132537E+00  1.510445E+00  6.197244E-09
        71 -3.623437E+00 -3.623437E+00 -2.662284E-17
        72 -3.623437E+00 -3.623437E+00 -1.961644E-16

 stresses (elem, integ.pnt.,sxx,syy,szz,sxy,sxz,syz) for set EALL and time  0.1207812E+00

         1   1 -7.958041E-07 -7.958041E-07 -3.108607E-15  3.106893E-15 -4.087836E-16 -4.087168E-16
         1   2 -7.958041E-07 -7.958041E-07  3.183276E-15  7.350856E-15 -1.495818E-15 -4.087642E-16
         1   3 -7.958041E-07 -7.958041E-07  3.182784E-15  7.351121E-15 -4.087532E-16 -1.495531E-15
         1   4 -7.958041E-07 -7.958041E-07  9.474759E-15  1.159508E-14 -1.495741E-15 -1.495745E-15
         1   5 -7.958041E-07 -7.958041E-07 -7.673689E-15  3.106832E-15 -4.385670E-16 -4.385376E-16
         1   6 -7.958041E-07 -7.958041E-07 -1.382156E-15  7.350859E-15 -1.525601E-15 -4.385483E-16
         1   7 -7.958041E-07 -7.958041E-07 -1.382200E-15  7.350826E-15 -4.384998E-16 -1.525352E-15
         1   8 -7.958041E-07 -7.958041E-07  4.909425E-15  1.159485E-14 -1.525488E-15 -1.525529E-15
         2   1 -9.157851E-07  7.354902E-06  5.078041E-08  3.168847E-07 -3.627175E-08  1.406777E-15
         2   2 -1.120980E-06  6.772482E-06 -5.078042E-08  3.168847E-07 -3.627177E-08  4.426121E-16
         2   3 -9.157851E-07  7.354902E-06  5.078041E-08  1.282717E-07 -3.627175E-08  1.712067E-14
         2   4 -1.120979E-06  6.772482E-06 -5.078042E-08  1.282717E-07 -3.627177E-08  1.552939E-14
         2   5 -9.157852E-07  7.354902E-06  5.078041E-08  3.168847E-07  3.627174E-08 -1.046303E-14
         2   6 -1.120980E-06  6.772482E-06 -5.078042E-08  3.168847E-07  3.627173E-08 -1.343423E-14
         2   7 -9.157851E-07  7.354902E-06  5.078041E-08  1.282717E-07  3.627174E-08  5.250522E-15
         2   8 -1.120980E-06  6.772482E-06 -5.078042E-08  1.282717E-07  3.627172E-08  1.652208E-15
         3   1  3.828579E-07 -6.439976E-06  5.462656E-07  3.211046E-07 -3.339271E-07  8.773582E-09
         3   2 -1.494961E-06 -1.176995E-05 -3.831601E-07  1.640110E-07 -3.299483E-07  8.773583E-09
         3   3 -1.298909E-07 -6.638537E-06  3.971425E-07 -1.404972E-06 -3.339271E-07 -1.863445E-09
         3   4 -2.007710E-06 -1.196851E-05 -5.322832E-07 -1.562065E-06 -3.299483E-07 -1.863444E-09
         3   5  3.800159E-07 -6.483742E-06  5.322832E-07  3.211046E-07  3.299484E-07  4.338048E-08
         3   6 -1.497803E-06 -1.181371E-05 -3.971425E-07  1.640110E-07  3.339271E-07  4.338049E-08
         3   7 -1.327329E-07 -6.682303E-06  3.831601E-07 -1.404972E-06  3.299484E-07  3.274345E-08
         3   8 -2.010552E-06 -1.201227E-05 -5.462656E-07 -1.562065E-06  3.339271E-07  3.274346E-08
         4   1  7.354902E-06 -9.157851E-07  5.078041E-08  3.168847E-07  1.412716E-15 -3.627175E-08
         4   2  7.354902E-06 -9.157851E-07  5.078041E-08  1.282717E-07  1.721443E-14 -3.627175E-08
         4   3  6.772482E-06 -1.120980E-06 -5.078042E-08  3.168847E-07  4.825874E-16 -3.627177E-08
         4   4  6.772482E-06 -1.120979E-06 -5.078042E-08  1.282717E-07  1.564944E-14 -3.627177E-08
         4   5  7.354902E-06 -9.157852E-07  5.078041E-08  3.168847E-07 -1.052869E-14  3.627174E-08
         4   6  7.354902E-06 -9.157851E-07  5.078041E-08  1.282717E-07  5.272686E-15  3.627174E-08
         4   7  6.772482E-06 -1.120980E-06 -5.078042E-08  3.168847E-07 -1.336511E-14  3.627173E-08
         4   8  6.772482E-06 -1.120980E-06 -5.078042E-08  1.282717E-07  1.801398E-15  3.627172E-08
         5   1  5.530156E-06  5.530156E-06 -5.433698E-07  5.346877E-08  1.940606E-07  1.940606E-07
         5   2  6.627984E-06  8.646215E-06  3.367762E-14  1.062584E-06  1.940606E-07  1.940605E-07
         5   3  8.646215E-06  6.627984E-06  2.819945E-14  1.062584E-06  1.940605E-07  1.940605E-07
         5   4  9.744043E-06  9.744043E-06  5.433698E-07  2.071699E-06  1.940605E-07  1.940605E-07
         5   5  5.530156E-06  5.530156E-06 -5.433698E-07  5.346876E-08 -1.940606E-07 -1.940606E-07
         5   6  6.627984E-06  8.646215E-06  2.876310E-14  1.062584E-06 -1.940606E-07 -1.940606E-07
         5   7  8.646215E-06  6.627984E-06  1.179135E-14  1.062584E-06 -1.940606E-07 -1.940606E-07
         5   8  9.744043E-06  9.744043E-06  5.433698E-07  2.071699E-06 -1.940606E-07 -1.940606E-07
         6   1  3.459510E-06 -8.955314E-06  4.550721E-08  1.755283E-06 -1.021350E-07  6.979285E-08
         6   2  2.882030E-06 -1.059706E-05 -2.406561E-07  2.116694E-06 -1.021350E-07  6.979286E-08
         6   3  4.577621E-06 -8.560026E-06  2.406561E-07  1.223151E-06 -1.021350E-07  6.979288E-08
         6   4  4.000141E-06 -1.020177E-05 -4.550718E-08  1.584562E-06 -1.021350E-07  6.979287E-08
         6   5  3.459510E-06 -8.955314E-06  4.550720E-08  1.755283E-06  1.021350E-07 -6.979290E-08
         6   6  2.882030E-06 -1.059706E-05 -2.406561E-07  2.116694E-06  1.021350E-07 -6.979287E-08
         6   7  4.577621E-06 -8.560026E-06  2.406560E-07  1.223151E-06  1.021351E-07 -6.979286E-08
         6   8  4.000141E-06 -1.020177E-05 -4.550716E-08  1.584562E-06  1.021351E-07 -6.979288E-08
         7   1 -6.439976E-06  3.828579E-07  5.462656E-07  3.211046E-07  8.773582E-09 -3.339271E-07
         7   2 -6.638537E-06 -1.298909E-07  3.971425E-07 -1.404972E-06 -1.863445E-09 -3.339271E-07
         7   3 -1.176995E-05 -1.494961E-06 -3.831601E-07  1.640110E-07  8.773584E-09 -3.299483E-07
         7   4 -1.196851E-05 -2.007710E-06 -5.322832E-07 -1.562065E-06 -1.863444E-09 -3.299483E-07
         7   5 -6.483742E-06  3.800159E-07  5.322832E-07  3.211046E-07  4.338048E-08  3.299484E-07
         7   6 -6.682303E-06 -1.327328E-07  3.831601E-07 -1.404972E-06  3.274346E-08  3.299484E-07
         7   7 -1.181371E-05 -1.497803E-06 -3.971425E-07  1.640110E-07  4.338049E-08  3.339271E-07
         7   8 -1.201227E-05 -2.010552E-06 -5.462656E-07 -1.562065E-06  3.274346E-08  3.339271E-07
         8   1 -8.955314E-06  3.459510E-06  4.550720E-08  1.755283E-06  6.979286E-08 -1.021350E-07
         8   2 -8.560026E-06  4.577621E-06  2.406561E-07  1.223151E-06  6.979287E-08 -1.021350E-07
         8   3 -1.059706E-05  2.882030E-06 -2.406561E-07  2.116694E-06  6.979290E-08 -1.021350E-07
         8   4 -1.020177E-05  4.000141E-06 -4.550723E-08  1.584562E-06  6.979287E-08 -1.021350E-07
         8   5 -8.955314E-06  3.459510E-06  4.550722E-08  1.755283E-06 -6.979289E-08  1.021351E-07
         8   6 -8.560026E-06  4.577621E-06  2.406561E-07  1.223151E-06 -6.979289E-08  1.021350E-07
         8   7 -1.059706E-05  2.882030E-06 -2.406560E-07  2.116694E-06 -6.979288E-08  1.021350E-07
         8   8 -1.020177E-05  4.000141E-06 -4.550720E-08  1.584562E-06 -6.979288E-08  1.021350E-07
         9   1 -8.249708E-15 -8.249708E-15 -1.924932E-14  8.918092E-32  5.680090E-14  6.065912E-14
         9   2  1.756160E-13  4.383265E-13  1.470601E-13  1.313553E-13  2.069535E-15  4.983830E-15
         9   3 -1.012314E-14 -1.012314E-14 -2.362065E-14  4.312308E-35 -5.442154E-15 -6.400072E-16
         9   4  6.785423E-15  5.057051E-14 -2.795243E-14  2.189254E-14 -4.922724E-14 -4.536902E-14
         9   5 -8.249708E-15 -8.249708E-15 -1.924932E-14  1.225012E-32 -3.430165E-14 -1.990257E-14
         9   6 -4.768796E-14 -8.271603E-14 -7.624384E-14 -1.751404E-14 -3.868016E-14 -2.780386E-14
         9   7 -1.012314E-14 -1.012314E-14 -2.362065E-14  1.024405E-31  4.974575E-14  6.766760E-14
         9   8  2.176601E-16  3.524573E-14 -3.452020E-14  1.751404E-14  1.471768E-14  2.911675E-14

 strains (elem, integ.pnt.,exx,eyy,ezz,exy,exz,eyz) forset EALL and time  0.1207812E+00

         1   1 -2.652680E-12 -2.652680E-12  2.273726E-12  1.923315E-20 -2.530565E-21 -2.530151E-21
         1   2 -2.652680E-12 -2.652680E-12  2.273726E-12  4.550530E-20 -9.259825E-21 -2.530445E-21
         1   3 -2.652680E-12 -2.652680E-12  2.273726E-12  4.550694E-20 -2.530377E-21 -9.258049E-21
         1   4 -2.652680E-12 -2.652680E-12  2.273726E-12  7.177908E-20 -9.259349E-21 -9.259373E-21
         1   5 -2.652680E-12 -2.652680E-12  2.273726E-12  1.923277E-20 -2.714939E-21 -2.714756E-21
         1   6 -2.652680E-12 -2.652680E-12  2.273726E-12  4.550532E-20 -9.444199E-21 -2.714823E-21
         1   7 -2.652680E-12 -2.652680E-12  2.273726E-12  4.550511E-20 -2.714522E-21 -9.442654E-21
         1   8 -2.652680E-12 -2.652680E-12  2.273726E-12  7.177767E-20 -9.443495E-21 -9.443750E-21
         2   1 -1.494043E-11  3.625906E-11 -8.956927E-12  1.961667E-12 -2.245394E-13  8.707784E-21
         2   2 -1.494043E-11  3.392386E-11 -8.315386E-12  1.961667E-12 -2.245395E-13  2.739143E-21
         2   3 -1.494043E-11  3.625906E-11 -8.956927E-12  7.940628E-13 -2.245394E-13  1.059841E-19
         2   4 -1.494043E-11  3.392386E-11 -8.315386E-12  7.940629E-13 -2.245395E-13  9.613335E-20
         2   5 -1.494043E-11  3.625906E-11 -8.956927E-12  1.961667E-12  2.245393E-13 -6.477337E-20
         2   6 -1.494043E-11  3.392386E-11 -8.315386E-12  1.961667E-12  2.245393E-13 -8.316651E-20
         2   7 -1.494043E-11  3.625906E-11 -8.956927E-12  7.940628E-13  2.245393E-13  3.250297E-20
         2   8 -1.494043E-11  3.392386E-11 -8.315386E-12  7.940629E-13  2.245392E-13  1.022770E-20
         3   1  1.024272E-11 -3.199387E-11  1.125429E-11  1.987791E-12 -2.067168E-12  5.431265E-14
         3   2  1.024272E-11 -5.336434E-11  1.712530E-11  1.015306E-12 -2.042537E-12  5.431266E-14
         3   3  8.297750E-12 -3.199387E-11  1.156034E-11 -8.697443E-12 -2.067168E-12 -1.153561E-14
         3   4  8.297750E-12 -5.336434E-11  1.743135E-11 -9.669927E-12 -2.042537E-12 -1.153560E-14
         3   5  1.031168E-11 -3.217825E-11  1.125429E-11  1.987791E-12  2.042538E-12  2.685458E-13
         3   6  1.031168E-11 -5.354871E-11  1.712530E-11  1.015306E-12  2.067168E-12  2.685459E-13
         3   7  8.366715E-12 -3.217825E-11  1.156034E-11 -8.697443E-12  2.042538E-12  2.026976E-13
         3   8  8.366715E-12 -5.354871E-11  1.743135E-11 -9.669927E-12  2.067168E-12  2.026976E-13
         4   1  3.625906E-11 -1.494043E-11 -8.956927E-12  1.961667E-12  8.744549E-21 -2.245394E-13
         4   2  3.625906E-11 -1.494043E-11 -8.956927E-12  7.940628E-13  1.065645E-19 -2.245394E-13
         4   3  3.392386E-11 -1.494043E-11 -8.315386E-12  1.961667E-12  2.986609E-21 -2.245395E-13
         4   4  3.392386E-11 -1.494043E-11 -8.315386E-12  7.940629E-13  9.687649E-20 -2.245395E-13
         4   5  3.625906E-11 -1.494043E-11 -8.956927E-12  1.961667E-12 -6.517979E-20  2.245393E-13
         4   6  3.625906E-11 -1.494043E-11 -8.956927E-12  7.940628E-13  3.264018E-20  2.245393E-13
         4   7  3.392386E-11 -1.494043E-11 -8.315386E-12  1.961667E-12 -8.273862E-20  2.245393E-13
         4   8  3.392386E-11 -1.494043E-11 -8.315386E-12  7.940629E-13  1.115125E-20  2.245392E-13
         5   1  1.921010E-11  1.921010E-11 -1.838792E-11  3.309972E-13  1.201327E-12  1.201327E-12
         5   2  1.921010E-11  3.170390E-11 -2.182028E-11  6.577900E-12  1.201327E-12  1.201327E-12
         5   3  3.170390E-11  1.921010E-11 -2.182028E-11  6.577900E-12  1.201327E-12  1.201327E-12
         5   4  3.170390E-11  3.170390E-11 -2.525265E-11  1.282480E-11  1.201327E-12  1.201327E-12
         5   5  1.921010E-11  1.921010E-11 -1.838792E-11  3.309971E-13 -1.201328E-12 -1.201328E-12
         5   6  1.921010E-11  3.170390E-11 -2.182028E-11  6.577900E-12 -1.201328E-12 -1.201328E-12
         5   7  3.170390E-11  1.921010E-11 -2.182028E-11  6.577900E-12 -1.201328E-12 -1.201328E-12
         5   8  3.170390E-11  3.170390E-11 -2.525265E-11  1.282480E-11 -1.201328E-12 -1.201328E-12
         6   1  2.918148E-11 -4.763085E-11  8.067849E-12  1.093888E-11 -6.326735E-13  4.314513E-13
         6   2  2.918148E-11 -5.421066E-11  9.875488E-12  1.318243E-11 -6.326735E-13  4.314514E-13
         6   3  3.366858E-11 -4.763085E-11  6.835131E-12  7.648980E-12 -6.326735E-13  4.314515E-13
         6   4  3.366858E-11 -5.421066E-11  8.642770E-12  9.892528E-12 -6.326737E-13  4.314514E-13
         6   5  2.918148E-11 -4.763085E-11  8.067849E-12  1.093888E-11  6.326739E-13 -4.314516E-13
         6   6  2.918148E-11 -5.421066E-11  9.875488E-12  1.318243E-11  6.326739E-13 -4.314515E-13
         6   7  3.366858E-11 -4.763085E-11  6.835131E-12  7.648980E-12  6.326740E-13 -4.314514E-13
         6   8  3.366858E-11 -5.421066E-11  8.642770E-12  9.892528E-12  6.326740E-13 -4.314515E-13
         7   1 -3.199387E-11  1.024272E-11  1.125429E-11  1.987791E-12  5.431265E-14 -2.067168E-12
         7   2 -3.199387E-11  8.297750E-12  1.156034E-11 -8.697443E-12 -1.153561E-14 -2.067168E-12
         7   3 -5.336434E-11  1.024272E-11  1.712530E-11  1.015306E-12  5.431266E-14 -2.042537E-12
         7   4 -5.336434E-11  8.297750E-12  1.743135E-11 -9.669927E-12 -1.153560E-14 -2.042537E-12
         7   5 -3.217825E-11  1.031168E-11  1.125429E-11  1.987791E-12  2.685458E-13  2.042538E-12
         7   6 -3.217825E-11  8.366715E-12  1.156034E-11 -8.697443E-12  2.026976E-13  2.042538E-12
         7   7 -5.354871E-11  1.031168E-11  1.712530E-11  1.015306E-12  2.685459E-13  2.067168E-12
         7   8 -5.354871E-11  8.366715E-12  1.743135E-11 -9.669927E-12  2.026976E-13  2.067168E-12
         8   1 -4.763085E-11  2.918148E-11  8.067849E-12  1.093888E-11  4.314514E-13 -6.326736E-13
         8   2 -4.763085E-11  3.366858E-11  6.835131E-12  7.648980E-12  4.314514E-13 -6.326734E-13
         8   3 -5.421066E-11  2.918148E-11  9.875489E-12  1.318243E-11  4.314516E-13 -6.326738E-13
         8   4 -5.421066E-11  3.366858E-11  8.642770E-12  9.892528E-12  4.314515E-13 -6.326737E-13
         8   5 -4.763085E-11  2.918148E-11  8.067849E-12  1.093888E-11 -4.314516E-13  6.326740E-13
         8   6 -4.763085E-11  3.366858E-11  6.835131E-12  7.648980E-12 -4.314516E-13  6.326738E-13
         8   7 -5.421066E-11  2.918148E-11  9.875489E-12  1.318243E-11 -4.314516E-13  6.326738E-13
         8   8 -5.421066E-11  3.366858E-11  8.642770E-12  9.892528E-12 -4.314515E-13  6.326739E-13
         9   1  1.550819E-39  3.139409E-41 -6.809283E-20  2.206503E-40  3.516246E-19  3.755088E-19
         9   2  1.550819E-39  1.626303E-18 -1.767745E-19  8.131516E-19  1.281141E-20  3.085228E-20
         9   3  2.269968E-39  3.139409E-41 -8.355604E-20  2.669524E-40 -3.368952E-20 -3.961950E-21
         9   4  2.269968E-39  2.710505E-19 -2.150439E-19  1.355253E-19 -3.047401E-19 -2.808558E-19
         9   5  2.160012E-38  4.372632E-40 -6.809283E-20  3.073262E-39 -2.123435E-19 -1.232064E-19
         9   6  2.160012E-38 -2.168404E-19 -1.767745E-19 -1.084202E-19 -2.394486E-19 -1.721192E-19
         9   7  3.161657E-38  4.372632E-40 -8.355604E-20  3.718167E-39  3.079499E-19  4.188947E-19
         9   8  3.161657E-38  2.168404E-19 -2.150439E-19  1.084202E-19  9.110942E-20  1.802466E-19

 displacements (vx,vy,vz) for set NALL and time  0.1297812E+00

         1  0.000000E+00  0.000000E+00  0.000000E+00
         2 -1.236485E-09  0.000000E+00  0.000000E+00
         3 -6.491547E-02  0.000000E+00  0.000000E+00
         4 -6.491548E-02  0.000000E+00  0.000000E+00
         5 -1.735713E-01  0.000000E+00  0.000000E+00
         6 -1.735713E-01  0.000000E+00  0.000000E+00
         7  0.000000E+00 -1.236485E-09  0.000000E+00
         8 -1.236485E-09 -1.236485E-09  0.000000E+00
         9 -6.491547E-02  1.982946E-08  0.000000E+00
        10 -6.491548E-02  1.755846E-08  0.000000E+00
        11 -1.735713E-01 -9.574611E-09  0.000000E+00
        12 -1.735713E-01 -3.087093E-08  0.000000E+00
        13  0.000000E+00 -6.491547E-02  0.000000E+00
        14  1.982946E-08 -6.491547E-02  0.000000E+00
        15  6.391427E-01  6.391427E-01  0.000000E+00
        16  6.391427E-01  6.391427E-01  0.000000E+00
        17  1.104013E+00 -6.005119E-01  0.000000E+00
        18  1.103732E+00 -1.130337E+00  0.000000E+00
        19  0.000000E+00 -6.491548E-02  0.000000E+00
        20  1.755846E-08 -6.491548E-02  0.000000E+00
        21  6.391427E-01  6.391427E-01  0.000000E+00
        22  6.391427E-01  6.391427E-01  0.000000E+00
        23  1.633838E+00 -6.007926E-01  0.000000E+00
        24  1.633557E+00 -1.130618E+00  0.000000E+00
        25  0.000000E+00 -1.735713E-01  0.000000E+00
        26 -9.574611E-09 -1.735713E-01  0.000000E+00
        27 -6.005119E-01  1.104013E+00  0.000000E+00
        28 -6.007926E-01  1.633838E+00  0.000000E+00
        29 -3.893437E+00 -3.893437E+00  0.000000E+00
        30 -3.893437E+00 -3.893437E+00  0.000000E+00
        31  0.000000E+00 -1.735713E-01  0.000000E+00
        32 -3.087093E-08 -1.735713E-01  0.000000E+00
        33 -1.130337E+00  1.103732E+00  0.000000E+00
        34 -1.130618E+00  1.633557E+00  0.000000E+00
        35 -3.893437E+00 -3.893437E+00  0.000000E+00
        36 -3.893437E+00 -3.893437E+00  0.000000E+00
        37  0.000000E+00  0.000000E+00  1.483782E-09
        38 -1.236485E-09  0.000000E+00  1.483782E-09
        39 -6.491547E-02  0.000000E+00 -6.998809E-09
        40 -6.491548E-02  0.000000E+00 -6.125346E-09
        41 -1.735713E-01  0.000000E+00  5.321035E-09
        42 -1.735713E-01  0.000000E+00  1.351193E-08
        43  0.000000E+00 -1.236485E-09  1.483782E-09
        44 -1.236485E-09 -1.236485E-09  1.483782E-09
        45 -6.491547E-02  1.982946E-08 -6.998809E-09
        46 -6.491548E-02  1.755846E-08 -6.125346E-09
        47 -1.735713E-01 -9.760608E-09  5.753270E-09
        48 -1.735713E-01 -3.105693E-08  1.394416E-08
        49  0.000000E+00 -6.491547E-02 -6.998809E-09
        50  1.982946E-08 -6.491547E-02 -6.998809E-09
        51  6.391427E-01  6.391427E-01 -1.166429E-08
        52  6.391427E-01  6.391427E-01 -1.633106E-08
        53  1.104013E+00 -6.005119E-01  4.603452E-09
        54  1.103732E+00 -1.130337E+00  7.349222E-09
        55  0.000000E+00 -6.491548E-02 -6.125346E-09
        56  1.755846E-08 -6.491548E-02 -6.125346E-09
        57  6.391427E-01  6.391427E-01 -1.633106E-08
        58  6.391427E-01  6.391427E-01 -2.099784E-08
        59  1.633838E+00 -6.007926E-01  3.055551E-09
        60  1.633557E+00 -1.130618E+00  5.801322E-09
        61  0.000000E+00 -1.735713E-01  5.321035E-09
        62 -9.760608E-09 -1.735713E-01  5.753270E-09
        63 -6.005119E-01  1.104013E+00  4.603452E-09
        64 -6.007926E-01  1.633838E+00  3.055551E-09
        65 -3.893437E+00 -3.893437E+00  7.749440E-17
        66 -3.893437E+00 -3.893437E+00 -9.762811E-17
        67  0.000000E+00 -1.735713E-01  1.351193E-08
        68 -3.105693E-08 -1.735713E-01  1.394416E-08
        69 -1.130337E+00  1.103732E+00  7.349223E-09
        70 -1.130618E+00  1.633557E+00  5.801322E-09
        71 -3.893437E+00 -3.893437E+00 -1.068861E-17
        72 -3.893437E+00 -3.893437E+00  8.748769E-17

 stresses (elem, integ.pnt.,sxx,syy,szz,sxy,sxz,syz) for set EALL and time  0.1297812E+00

         1   1 -7.418911E-07 -7.418911E-07 -3.596365E-15  3.517801E-15 -4.699965E-16 -4.699296E-16
         1   2 -7.418911E-07 -7.418911E-07  3.432799E-15  8.323074E-15 -1.682393E-15 -4.699600E-16
         1   3 -7.418911E-07 -7.418911E-07  3.432307E-15  8.323339E-15 -4.699490E-16 -1.682106E-15
         1   4 -7.418911E-07 -7.418911E-07  1.046138E-14  1.312861E-14 -1.682179E-15 -1.682183E-15
         1   5 -7.418911E-07 -7.418911E-07 -8.687969E-15  3.517863E-15 -5.416540E-16 -5.416244E-16
         1   6 -7.418911E-07 -7.418911E-07 -1.658903E-15  8.323369E-15 -1.754051E-15 -5.416918E-16
         1   7 -7.418911E-07 -7.418911E-07 -1.658947E-15  8.323336E-15 -5.416433E-16 -1.753801E-15
         1   8 -7.418911E-07 -7.418911E-07  5.370027E-15  1.312884E-14 -1.753873E-15 -1.753915E-15
         2   1 -8.766240E-07  7.880929E-06  5.702397E-08  3.558464E-07 -4.073145E-08  1.523519E-15
         2   2 -1.107048E-06  7.226898E-06 -5.702398E-08  3.558464E-07 -4.073146E-08  3.994945E-16
         2   3 -8.766240E-07  7.880929E-06  5.702397E-08  1.440430E-07 -4.073144E-08  1.948263E-14
         2   4 -1.107047E-06  7.226898E-06 -5.702398E-08  1.440430E-07 -4.073146E-08  1.753356E-14
         2   5 -8.766241E-07  7.880929E-06  5.702398E-08  3.558464E-07  4.073143E-08 -1.227238E-14
         2   6 -1.107048E-06  7.226898E-06 -5.702398E-08  3.558464E-07  4.073141E-08 -1.564225E-14
         2   7 -8.766240E-07  7.880929E-06  5.702397E-08  1.440430E-07  4.073143E-08  5.686299E-15
         2   8 -1.107048E-06  7.226898E-06 -5.702398E-08  1.440430E-07  4.073141E-08  1.491385E-15
         3   1  5.345574E-07 -5.578741E-06  6.297395E-07  4.636982E-07 -3.842761E-07  1.021996E-08
         3   2 -1.626238E-06 -1.171191E-05 -4.397451E-07  2.807068E-07 -3.796414E-07  1.021996E-08
         3   3 -6.272101E-08 -5.810037E-06  4.560326E-07 -1.522487E-06 -3.842761E-07 -2.170646E-09
         3   4 -2.223516E-06 -1.194320E-05 -6.134520E-07 -1.705479E-06 -3.796414E-07 -2.170644E-09
         3   5  5.312469E-07 -5.629723E-06  6.134520E-07  4.636982E-07  3.796414E-07  5.053201E-08
         3   6 -1.629548E-06 -1.176289E-05 -4.560326E-07  2.807068E-07  3.842761E-07  5.053202E-08
         3   7 -6.603151E-08 -5.861018E-06  4.397451E-07 -1.522487E-06  3.796414E-07  3.814141E-08
         3   8 -2.226827E-06 -1.199418E-05 -6.297395E-07 -1.705479E-06  3.842761E-07  3.814141E-08
         4   1  7.880929E-06 -8.766240E-07  5.702397E-08  3.558464E-07  1.474497E-15 -4.073145E-08
         4   2  7.880929E-06 -8.766240E-07  5.702397E-08  1.440430E-07  1.949542E-14 -4.073144E-08
         4   3  7.226898E-06 -1.107048E-06 -5.702398E-08  3.558464E-07  4.281849E-16 -4.073146E-08
         4   4  7.226898E-06 -1.107047E-06 -5.702399E-08  1.440430E-07  1.759474E-14 -4.073146E-08
         4   5  7.880929E-06 -8.766241E-07  5.702397E-08  3.558464E-07 -1.251714E-14  4.073143E-08
         4   6  7.880929E-06 -8.766240E-07  5.702397E-08  1.440430E-07  5.503349E-15  4.073143E-08
         4   7  7.226898E-06 -1.107048E-06 -5.702398E-08  3.558464E-07 -1.556766E-14  4.073141E-08
         4   8  7.226898E-06 -1.107048E-06 -5.702399E-08  1.440430E-07  1.598458E-15  4.073141E-08
         5   1  5.802780E-06  5.802780E-06 -6.093411E-07  9.205456E-08  2.176218E-07  2.176217E-07
         5   2  7.033898E-06  9.297165E-06  4.648479E-14  1.223688E-06  2.176217E-07  2.176217E-07
         5   3  9.297165E-06  7.033898E-06  4.421315E-14  1.223688E-06  2.176217E-07  2.176217E-07
         5   4  1.052828E-05  1.052828E-05  6.093412E-07  2.355321E-06  2.176217E-07  2.176217E-07
         5   5  5.802780E-06  5.802780E-06 -6.093412E-07  9.205457E-08 -2.176218E-07 -2.176218E-07
         5   6  7.033898E-06  9.297165E-06  2.022796E-14  1.223688E-06 -2.176218E-07 -2.176218E-07
         5   7  9.297165E-06  7.033898E-06  8.104667E-15  1.223688E-06 -2.176218E-07 -2.176218E-07
         5   8  1.052828E-05  1.052828E-05  6.093412E-07  2.355321E-06 -2.176218E-07 -2.176218E-07
         6   1  3.730634E-06 -8.326549E-06  7.820294E-08  1.953533E-06 -1.279646E-07  7.231753E-08
         6   2  3.007081E-06 -1.038332E-05 -2.803124E-07  2.327467E-06 -1.279646E-07  7.231753E-08
         6   3  4.888258E-06 -7.916794E-06  2.803123E-07  1.286925E-06 -1.279646E-07  7.231759E-08
         6   4  4.164705E-06 -9.973563E-06 -7.820292E-08  1.660859E-06 -1.279646E-07  7.231754E-08
         6   5  3.730634E-06 -8.326549E-06  7.820296E-08  1.953533E-06  1.279646E-07 -7.231760E-08
         6   6  3.007081E-06 -1.038332E-05 -2.803124E-07  2.327467E-06  1.279646E-07 -7.231760E-08
         6   7  4.888258E-06 -7.916794E-06  2.803124E-07  1.286924E-06  1.279646E-07 -7.231756E-08
         6   8  4.164705E-06 -9.973563E-06 -7.820294E-08  1.660859E-06  1.279646E-07 -7.231756E-08
         7   1 -5.578741E-06  5.345574E-07  6.297395E-07  4.636982E-07  1.021996E-08 -3.842761E-07
         7   2 -5.810037E-06 -6.272103E-08  4.560326E-07 -1.522487E-06 -2.170645E-09 -3.842761E-07
         7   3 -1.171191E-05 -1.626238E-06 -4.397451E-07  2.807068E-07  1.021996E-08 -3.796414E-07
         7   4 -1.194320E-05 -2.223516E-06 -6.134520E-07 -1.705479E-06 -2.170644E-09 -3.796414E-07
         7   5 -5.629723E-06  5.312468E-07  6.134520E-07  4.636982E-07  5.053201E-08  3.796414E-07
         7   6 -5.861018E-06 -6.603153E-08  4.397451E-07 -1.522487E-06  3.814141E-08  3.796415E-07
         7   7 -1.176289E-05 -1.629548E-06 -4.560326E-07  2.807068E-07  5.053202E-08  3.842761E-07
         7   8 -1.199418E-05 -2.226827E-06 -6.297395E-07 -1.705479E-06  3.814141E-08  3.842761E-07
         8   1 -8.326549E-06  3.730634E-06  7.820289E-08  1.953533E-06  7.231753E-08 -1.279646E-07
         8   2 -7.916794E-06  4.888258E-06  2.803124E-07  1.286924E-06  7.231755E-08 -1.279646E-07
         8   3 -1.038332E-05  3.007081E-06 -2.803124E-07  2.327467E-06  7.231755E-08 -1.279646E-07
         8   4 -9.973563E-06  4.164705E-06 -7.820295E-08  1.660859E-06  7.231755E-08 -1.279646E-07
         8   5 -8.326549E-06  3.730634E-06  7.820296E-08  1.953533E-06 -7.231758E-08  1.279646E-07
         8   6 -7.916794E-06  4.888258E-06  2.803124E-07  1.286924E-06 -7.231756E-08  1.279646E-07
         8   7 -1.038332E-05  3.007081E-06 -2.803124E-07  2.327467E-06 -7.231758E-08  1.279646E-07
         8   8 -9.973563E-06  4.164705E-06 -7.820295E-08  1.660859E-06 -7.231757E-08  1.279646E-07
         9   1  5.894382E-15  5.894382E-15  1.375356E-14  1.403387E-33  4.750426E-15  7.718288E-15
         9   2  4.670840E-14  1.167645E-13  3.893014E-14  3.502807E-14  3.719174E-16  8.726242E-15
         9   3  2.853816E-15  2.853816E-15  6.658905E-15 -1.774578E-35  1.379871E-15 -1.038729E-15
         9   4  5.286731E-14  1.141664E-13  6.205794E-14  3.064956E-14  6.267899E-14  6.564686E-14
         9   5 -9.918983E-14 -2.393021E-13 -9.133065E-14 -7.005614E-14 -1.495280E-14 -3.876591E-15
         9   6 -3.210475E-14 -6.713282E-14 -3.988302E-14 -1.751404E-14 -3.684535E-14 -5.666583E-15
         9   7 -1.022304E-13 -2.423427E-13 -9.842531E-14 -7.005614E-14  4.017782E-14  3.115148E-14
         9   8  3.316402E-14  6.819209E-14  4.235465E-14  1.751404E-14 -6.490639E-14 -5.383018E-14

 strains (elem, integ.pnt.,exx,eyy,ezz,exy,exz,eyz) forset EALL and time  0.1297812E+00

         1   1 -2.472970E-12 -2.472970E-12  2.119689E-12  2.177686E-20 -2.909502E-21 -2.909088E-21
         1   2 -2.472970E-12 -2.472970E-12  2.119689E-12  5.152379E-20 -1.041481E-20 -2.909276E-21
         1   3 -2.472970E-12 -2.472970E-12  2.119689E-12  5.152543E-20 -2.909208E-21 -1.041304E-20
         1   4 -2.472970E-12 -2.472970E-12  2.119689E-12  8.127236E-20 -1.041349E-20 -1.041351E-20
         1   5 -2.472970E-12 -2.472970E-12  2.119689E-12  2.177724E-20 -3.353096E-21 -3.352913E-21
         1   6 -2.472970E-12 -2.472970E-12  2.119689E-12  5.152562E-20 -1.085841E-20 -3.353330E-21
         1   7 -2.472970E-12 -2.472970E-12  2.119689E-12  5.152541E-20 -3.353030E-21 -1.085686E-20
         1   8 -2.472970E-12 -2.472970E-12  2.119689E-12  8.127378E-20 -1.085731E-20 -1.085757E-20
         2   1 -1.551433E-11  3.869909E-11 -9.734607E-12  2.202859E-12 -2.521471E-13  9.430251E-21
         2   2 -1.551433E-11  3.607676E-11 -9.014187E-12  2.202859E-12 -2.521472E-13  2.472006E-21
         2   3 -1.551433E-11  3.869909E-11 -9.734607E-12  8.916945E-13 -2.521470E-13  1.206055E-19
         2   4 -1.551433E-11  3.607676E-11 -9.014187E-12  8.916947E-13 -2.521471E-13  1.085399E-19
         2   5 -1.551433E-11  3.869909E-11 -9.734607E-12  2.202859E-12  2.521469E-13 -7.597468E-20
         2   6 -1.551433E-11  3.607676E-11 -9.014187E-12  2.202859E-12  2.521468E-13 -9.683580E-20
         2   7 -1.551433E-11  3.869909E-11 -9.734607E-12  8.916946E-13  2.521469E-13  3.520057E-20
         2   8 -1.551433E-11  3.607676E-11 -9.014187E-12  8.916947E-13  2.521468E-13  9.232057E-21
         3   1  9.615514E-12 -2.822872E-11  1.020474E-11  2.870513E-12 -2.378852E-12  6.326641E-14
         3   2  9.615514E-12 -5.281959E-11  1.696047E-11  1.737709E-12 -2.350161E-12  6.326642E-14
         3   3  7.349906E-12 -2.822872E-11  1.056124E-11 -9.424922E-12 -2.378852E-12 -1.343733E-14
         3   4  7.349906E-12 -5.281959E-11  1.731697E-11 -1.055773E-11 -2.350161E-12 -1.343732E-14
         3   5  9.695848E-12 -2.844349E-11  1.020474E-11  2.870513E-12  2.350161E-12  3.128172E-13
         3   6  9.695848E-12 -5.303436E-11  1.696047E-11  1.737709E-12  2.378852E-12  3.128172E-13
         3   7  7.430240E-12 -2.844349E-11  1.056124E-11 -9.424922E-12  2.350161E-12  2.361135E-13
         3   8  7.430240E-12 -5.303436E-11  1.731697E-11 -1.055773E-11  2.378852E-12  2.361135E-13
         4   1  3.869909E-11 -1.551433E-11 -9.734607E-12  2.202859E-12  9.126784E-21 -2.521471E-13
         4   2  3.869909E-11 -1.551433E-11 -9.734607E-12  8.916945E-13  1.206847E-19 -2.521470E-13
         4   3  3.607676E-11 -1.551433E-11 -9.014187E-12  2.202859E-12  2.649613E-21 -2.521472E-13
         4   4  3.607676E-11 -1.551433E-11 -9.014187E-12  8.916947E-13  1.089186E-19 -2.521471E-13
         4   5  3.869909E-11 -1.551433E-11 -9.734607E-12  2.202859E-12 -7.748987E-20  2.521470E-13
         4   6  3.869909E-11 -1.551433E-11 -9.734607E-12  8.916946E-13  3.406803E-20  2.521470E-13
         4   7  3.607676E-11 -1.551433E-11 -9.014187E-12  2.202859E-12 -9.637405E-20  2.521469E-13
         4   8  3.607676E-11 -1.551433E-11 -9.014187E-12  8.916947E-13  9.894894E-21  2.521468E-13
         5   1  2.021309E-11  2.021309E-11 -1.948100E-11  5.698616E-13  1.347182E-12  1.347182E-12
         5   2  2.021309E-11  3.422379E-11 -2.333009E-11  7.575211E-12  1.347182E-12  1.347182E-12
         5   3  3.422379E-11  2.021309E-11 -2.333009E-11  7.575211E-12  1.347182E-12  1.347182E-12
         5   4  3.422379E-11  3.422379E-11 -2.717918E-11  1.458056E-11  1.347182E-12  1.347182E-12
         5   5  2.021309E-11  2.021309E-11 -1.948100E-11  5.698616E-13 -1.347183E-12 -1.347183E-12
         5   6  2.021309E-11  3.422379E-11 -2.333009E-11  7.575211E-12 -1.347183E-12 -1.347183E-12
         5   7  3.422379E-11  2.021309E-11 -2.333009E-11  7.575211E-12 -1.347182E-12 -1.347183E-12
         5   8  3.422379E-11  3.422379E-11 -2.717918E-11  1.458056E-11 -1.347183E-12 -1.347183E-12
         6   1  2.952256E-11 -4.506572E-11  6.937988E-12  1.217236E-11 -7.926356E-13  4.468403E-13
         6   2  2.952256E-11 -5.330913E-11  9.202661E-12  1.449593E-11 -7.926357E-13  4.468403E-13
         6   3  3.416970E-11 -4.506572E-11  5.661301E-12  8.050655E-12 -7.926358E-13  4.468406E-13
         6   4  3.416970E-11 -5.330913E-11  7.925974E-12  1.037423E-11 -7.926356E-13  4.468403E-13
         6   5  2.952256E-11 -4.506572E-11  6.937988E-12  1.217236E-11  7.926356E-13 -4.468407E-13
         6   6  2.952256E-11 -5.330913E-11  9.202661E-12  1.449593E-11  7.926356E-13 -4.468407E-13
         6   7  3.416971E-11 -4.506572E-11  5.661301E-12  8.050655E-12  7.926358E-13 -4.468405E-13
         6   8  3.416971E-11 -5.330913E-11  7.925974E-12  1.037423E-11  7.926360E-13 -4.468405E-13
         7   1 -2.822872E-11  9.615514E-12  1.020474E-11  2.870513E-12  6.326641E-14 -2.378852E-12
         7   2 -2.822872E-11  7.349906E-12  1.056124E-11 -9.424922E-12 -1.343733E-14 -2.378852E-12
         7   3 -5.281959E-11  9.615514E-12  1.696047E-11  1.737709E-12  6.326642E-14 -2.350161E-12
         7   4 -5.281959E-11  7.349906E-12  1.731697E-11 -1.055773E-11 -1.343732E-14 -2.350161E-12
         7   5 -2.844349E-11  9.695848E-12  1.020474E-11  2.870513E-12  3.128172E-13  2.350161E-12
         7   6 -2.844349E-11  7.430240E-12  1.056124E-11 -9.424922E-12  2.361135E-13  2.350161E-12
         7   7 -5.303436E-11  9.695848E-12  1.696047E-11  1.737709E-12  3.128172E-13  2.378852E-12
         7   8 -5.303436E-11  7.430240E-12  1.731697E-11 -1.055773E-11  2.361135E-13  2.378852E-12
         8   1 -4.506572E-11  2.952256E-11  6.937988E-12  1.217236E-11  4.468403E-13 -7.926355E-13
         8   2 -4.506572E-11  3.416971E-11  5.661301E-12  8.050655E-12  4.468404E-13 -7.926355E-13
         8   3 -5.330913E-11  2.952256E-11  9.202661E-12  1.449593E-11  4.468404E-13 -7.926357E-13
         8   4 -5.330913E-11  3.416971E-11  7.925974E-12  1.037423E-11  4.468404E-13 -7.926355E-13
         8   5 -4.506572E-11  2.952256E-11  6.937988E-12  1.217236E-11 -4.468406E-13  7.926359E-13
         8   6 -4.506572E-11  3.416971E-11  5.661301E-12  8.050655E-12 -4.468404E-13  7.926359E-13
         8   7 -5.330913E-11  2.952256E-11  9.202661E-12  1.449593E-11 -4.468406E-13  7.926357E-13
         8   8 -5.330913E-11  3.416970E-11  7.925974E-12  1.037423E-11 -4.468405E-13  7.926358E-13
         9   1  1.230349E-39  8.269572E-41  4.865205E-20  3.189742E-40  2.940740E-20  4.777988E-20
         9   2  1.230349E-39  4.336809E-19 -4.815118E-20  2.168404E-19  2.302346E-21  5.401959E-20
         9   3  1.459336E-40  8.269572E-41  2.355531E-20 -1.098548E-40  8.542059E-21 -6.430230E-21
         9   4  1.459336E-40  3.794708E-19  5.689437E-20  1.897354E-19  3.880128E-19  4.063853E-19
         9   5  1.713655E-38 -8.673617E-19  4.865205E-20 -4.336809E-19 -9.256497E-20 -2.399795E-20
         9   6  1.713655E-38 -2.168404E-19 -4.815118E-20 -1.084202E-19 -2.280902E-19 -3.507885E-20
         9   7  2.032592E-39 -8.673617E-19  2.355531E-20 -4.336809E-19  2.487198E-19  1.928425E-19
         9   8  2.032592E-39  2.168404E-19  5.689437E-20  1.084202E-19 -4.018015E-19 -3.332344E-19

 displacements (vx,vy,vz) for set NALL and time  0.1387812E+00

         1  0.000000E+00  0.000000E+00  0.000000E+00
         2 -1.103690E-09  0.000000E+00  0.000000E+00
         3 -5.794370E-02  0.000000E+00  0.000000E+00
         4 -5.794371E-02  0.000000E+00  0.000000E+00
         5 -1.635311E-01  0.000000E+00  0.000000E+00
         6 -1.635310E-01  0.000000E+00  0.000000E+00
         7  0.000000E+00 -1.103690E-09  0.000000E+00
         8 -1.103690E-09 -1.103690E-09  0.000000E+00
         9 -5.794370E-02  2.084287E-08  0.000000E+00
        10 -5.794371E-02  1.836921E-08  0.000000E+00
        11 -1.635310E-01 -6.958373E-09  0.000000E+00
        12 -1.635310E-01 -3.103737E-08  0.000000E+00
        13  0.000000E+00 -5.794370E-02  0.000000E+00
        14  2.084287E-08 -5.794370E-02  0.000000E+00
        15  6.726443E-01  6.726443E-01  0.000000E+00
        16  6.726443E-01  6.726443E-01  0.000000E+00
        17  1.155850E+00 -5.355858E-01  0.000000E+00
        18  1.155512E+00 -1.117641E+00  0.000000E+00
        19  0.000000E+00 -5.794371E-02  0.000000E+00
        20  1.836921E-08 -5.794371E-02  0.000000E+00
        21  6.726443E-01  6.726443E-01  0.000000E+00
        22  6.726443E-01  6.726443E-01  0.000000E+00
        23  1.737906E+00 -5.359246E-01  0.000000E+00
        24  1.737567E+00 -1.117980E+00  0.000000E+00
        25  0.000000E+00 -1.635311E-01  0.000000E+00
        26 -6.958373E-09 -1.635310E-01  0.000000E+00
        27 -5.355858E-01  1.155850E+00  0.000000E+00
        28 -5.359246E-01  1.737906E+00  0.000000E+00
        29 -4.163437E+00 -4.163437E+00  0.000000E+00
        30 -4.163437E+00 -4.163437E+00  0.000000E+00
        31  0.000000E+00 -1.635310E-01  0.000000E+00
        32 -3.103737E-08 -1.635310E-01  0.000000E+00
        33 -1.117641E+00  1.155512E+00  0.000000E+00
        34 -1.117980E+00  1.737567E+00  0.000000E+00
        35 -4.163437E+00 -4.163437E+00  0.000000E+00
        36 -4.163437E+00 -4.163437E+00  0.000000E+00
        37  0.000000E+00  0.000000E+00  1.324427E-09
        38 -1.103690E-09  0.000000E+00  1.324427E-09
        39 -5.794370E-02  0.000000E+00 -7.495438E-09
        40 -5.794371E-02  0.000000E+00 -6.544029E-09
        41 -1.635311E-01  0.000000E+00  4.262919E-09
        42 -1.635311E-01  0.000000E+00  1.352407E-08
        43  0.000000E+00 -1.103690E-09  1.324427E-09
        44 -1.103690E-09 -1.103690E-09  1.324427E-09
        45 -5.794370E-02  2.084287E-08 -7.495438E-09
        46 -5.794371E-02  1.836921E-08 -6.544029E-09
        47 -1.635310E-01 -7.167292E-09  4.748423E-09
        48 -1.635310E-01 -3.124629E-08  1.400958E-08
        49  0.000000E+00 -5.794370E-02 -7.495438E-09
        50  2.084287E-08 -5.794370E-02 -7.495438E-09
        51  6.726443E-01  6.726443E-01 -1.202516E-08
        52  6.726443E-01  6.726443E-01 -1.717599E-08
        53  1.155850E+00 -5.355858E-01  3.677110E-09
        54  1.155512E+00 -1.117641E+00  7.017449E-09
        55  0.000000E+00 -5.794371E-02 -6.544029E-09
        56  1.836921E-08 -5.794371E-02 -6.544029E-09
        57  6.726443E-01  6.726443E-01 -1.717599E-08
        58  6.726443E-01  6.726443E-01 -2.232682E-08
        59  1.737906E+00 -5.359246E-01  2.051166E-09
        60  1.737567E+00 -1.117980E+00  5.391506E-09
        61  0.000000E+00 -1.635311E-01  4.262919E-09
        62 -7.167292E-09 -1.635310E-01  4.748423E-09
        63 -5.355858E-01  1.155850E+00  3.677110E-09
        64 -5.359246E-01  1.737906E+00  2.051166E-09
        65 -4.163437E+00 -4.163437E+00  1.748603E-16
        66 -4.163437E+00 -4.163437E+00  4.573235E-18
        67  0.000000E+00 -1.635311E-01  1.352407E-08
        68 -3.124629E-08 -1.635310E-01  1.400958E-08
        69 -1.117641E+00  1.155512E+00  7.017449E-09
        70 -1.117980E+00  1.737567E+00  5.391505E-09
        71 -4.163437E+00 -4.163437E+00  6.543089E-17
        72 -4.163437E+00 -4.163437E+00 -4.231156E-17

 stresses (elem, integ.pnt.,sxx,syy,szz,sxy,sxz,syz) for set EALL and time  0.1387812E+00

         1   1 -6.622137E-07 -6.622137E-07 -4.039483E-15  3.865402E-15 -5.245852E-16 -5.245322E-16
         1   2 -6.622137E-07 -6.622137E-07  3.575393E-15  9.145638E-15 -1.835587E-15 -5.245627E-16
         1   3 -6.622137E-07 -6.622137E-07  3.575146E-15  9.145639E-15 -5.245378E-16 -1.835290E-15
         1   4 -6.622137E-07 -6.622137E-07  1.118993E-14  1.442588E-14 -1.835373E-15 -1.835367E-15
         1   5 -6.622138E-07 -6.622138E-07 -9.545178E-15  3.865463E-15 -6.467774E-16 -6.468228E-16
         1   6 -6.622137E-07 -6.622137E-07 -1.930400E-15  9.145933E-15 -1.957779E-15 -6.468900E-16
         1   7 -6.622137E-07 -6.622137E-07 -1.930200E-15  9.145635E-15 -6.467667E-16 -1.957581E-15
         1   8 -6.622137E-07 -6.622137E-07  5.684486E-15  1.442610E-14 -1.957602E-15 -1.957695E-15
         2   1 -8.089700E-07  8.310394E-06  6.211270E-08  3.876016E-07 -4.436626E-08  1.594881E-15
         2   2 -1.059956E-06  7.597999E-06 -6.211271E-08  3.876016E-07 -4.436628E-08  3.857578E-16
         2   3 -8.089700E-07  8.310394E-06  6.211270E-08  1.568971E-07 -4.436626E-08  2.178463E-14
         2   4 -1.059956E-06  7.597999E-06 -6.211271E-08  1.568972E-07 -4.436628E-08  1.945070E-14
         2   5 -8.089701E-07  8.310394E-06  6.211270E-08  3.876016E-07  4.436624E-08 -1.423653E-14
         2   6 -1.059956E-06  7.597999E-06 -6.211271E-08  3.876016E-07  4.436622E-08 -1.762423E-14
         2   7 -8.089700E-07  8.310394E-06  6.211270E-08  1.568971E-07  4.436624E-08  5.952712E-15
         2   8 -1.059956E-06  7.597999E-06 -6.211271E-08  1.568972E-07  4.436622E-08  1.440203E-15
         3   1  7.025107E-07 -4.654077E-06  7.113191E-07  6.222707E-07 -4.344703E-07  1.147947E-08
         3   2 -1.740625E-06 -1.158863E-05 -4.979096E-07  4.167273E-07 -4.292644E-07  1.147947E-08
         3   3  3.162335E-08 -4.913878E-06  5.162044E-07 -1.623440E-06 -4.344703E-07 -2.438157E-09
         3   4 -2.411512E-06 -1.184843E-05 -6.930243E-07 -1.828983E-06 -4.292644E-07 -2.438156E-09
         3   5  6.987922E-07 -4.711341E-06  6.930243E-07  6.222707E-07  4.292645E-07  5.675961E-08
         3   6 -1.744343E-06 -1.164590E-05 -5.162044E-07  4.167273E-07  4.344703E-07  5.675961E-08
         3   7  2.790485E-08 -4.971142E-06  4.979096E-07 -1.623440E-06  4.292645E-07  4.284198E-08
         3   8 -2.415231E-06 -1.190570E-05 -7.113191E-07 -1.828983E-06  4.344703E-07  4.284198E-08
         4   1  8.310394E-06 -8.089700E-07  6.211270E-08  3.876016E-07  1.596918E-15 -4.436626E-08
         4   2  8.310394E-06 -8.089700E-07  6.211270E-08  1.568971E-07  2.170967E-14 -4.436626E-08
         4   3  7.597999E-06 -1.059956E-06 -6.211271E-08  3.876016E-07  3.848938E-16 -4.436628E-08
         4   4  7.597999E-06 -1.059956E-06 -6.211271E-08  1.568972E-07  1.956275E-14 -4.436627E-08
         4   5  8.310394E-06 -8.089701E-07  6.211270E-08  3.876016E-07 -1.415193E-14  4.436624E-08
         4   6  8.310394E-06 -8.089700E-07  6.211270E-08  1.568971E-07  5.960314E-15  4.436624E-08
         4   7  7.597999E-06 -1.059956E-06 -6.211271E-08  3.876016E-07 -1.774037E-14  4.436622E-08
         4   8  7.597999E-06 -1.059956E-06 -6.211271E-08  1.568972E-07  1.436978E-15  4.436622E-08
         5   1  5.980171E-06  5.980171E-06 -6.725438E-07  1.356218E-07  2.401941E-07  2.401941E-07
         5   2  7.338984E-06  9.837003E-06  3.591523E-14  1.384631E-06  2.401941E-07  2.401941E-07
         5   3  9.837003E-06  7.338984E-06  3.394571E-14  1.384631E-06  2.401941E-07  2.401941E-07
         5   4  1.119582E-05  1.119582E-05  6.725439E-07  2.633641E-06  2.401941E-07  2.401941E-07
         5   5  5.980171E-06  5.980171E-06 -6.725438E-07  1.356218E-07 -2.401942E-07 -2.401942E-07
         5   6  7.338984E-06  9.837003E-06  2.033412E-14  1.384631E-06 -2.401942E-07 -2.401942E-07
         5   7  9.837003E-06  7.338984E-06  2.411139E-14  1.384631E-06 -2.401942E-07 -2.401942E-07
         5   8  1.119582E-05  1.119582E-05  6.725438E-07  2.633641E-06 -2.401942E-07 -2.401942E-07
         6   1  3.941723E-06 -7.608045E-06  1.119248E-07  2.134731E-06 -1.556788E-07  7.600248E-08
         6   2  3.061442E-06 -1.011014E-05 -3.242234E-07  2.527115E-06 -1.556788E-07  7.600250E-08
         6   3  5.157309E-06 -7.177226E-06  3.242244E-07  1.323826E-06 -1.556788E-07  7.600254E-08
         6   4  4.277028E-06 -9.679318E-06 -1.119237E-07  1.716210E-06 -1.556788E-07  7.600252E-08
         6   5  3.941723E-06 -7.608045E-06  1.119248E-07  2.134731E-06  1.556788E-07 -7.600257E-08
         6   6  3.061442E-06 -1.011014E-05 -3.242234E-07  2.527115E-06  1.556788E-07 -7.600255E-08
         6   7  5.157309E-06 -7.177227E-06  3.242243E-07  1.323826E-06  1.556788E-07 -7.600252E-08
         6   8  4.277028E-06 -9.679318E-06 -1.119238E-07  1.716210E-06  1.556788E-07 -7.600253E-08
         7   1 -4.654077E-06  7.025107E-07  7.113191E-07  6.222707E-07  1.147947E-08 -4.344703E-07
         7   2 -4.913878E-06  3.162335E-08  5.162044E-07 -1.623440E-06 -2.438158E-09 -4.344703E-07
         7   3 -1.158863E-05 -1.740625E-06 -4.979096E-07  4.167273E-07  1.147947E-08 -4.292644E-07
         7   4 -1.184843E-05 -2.411512E-06 -6.930243E-07 -1.828983E-06 -2.438156E-09 -4.292644E-07
         7   5 -4.711341E-06  6.987922E-07  6.930243E-07  6.222707E-07  5.675961E-08  4.292645E-07
         7   6 -4.971142E-06  2.790485E-08  4.979096E-07 -1.623440E-06  4.284198E-08  4.292645E-07
         7   7 -1.164590E-05 -1.744343E-06 -5.162044E-07  4.167273E-07  5.675961E-08  4.344703E-07
         7   8 -1.190570E-05 -2.415231E-06 -7.113191E-07 -1.828983E-06  4.284198E-08  4.344703E-07
         8   1 -7.608045E-06  3.941723E-06  1.119248E-07  2.134731E-06  7.600250E-08 -1.556787E-07
         8   2 -7.177226E-06  5.157309E-06  3.242244E-07  1.323826E-06  7.600252E-08 -1.556787E-07
         8   3 -1.011014E-05  3.061442E-06 -3.242234E-07  2.527115E-06  7.600251E-08 -1.556788E-07
         8   4 -9.679318E-06  4.277028E-06 -1.119237E-07  1.716210E-06  7.600251E-08 -1.556788E-07
         8   5 -7.608045E-06  3.941723E-06  1.119247E-07  2.134731E-06 -7.600255E-08  1.556788E-07
         8   6 -7.177227E-06  5.157309E-06  3.242244E-07  1.323826E-06 -7.600254E-08  1.556789E-07
         8   7 -1.011014E-05  3.061442E-06 -3.242234E-07  2.527115E-06 -7.600256E-08  1.556788E-07
         8   8 -9.679318E-06  4.277028E-06 -1.119237E-07  1.716210E-06 -7.600255E-08  1.556788E-07
         9   1  2.051695E-14  2.051695E-14  4.787289E-14  9.688409E-33 -2.287594E-14 -2.079844E-14
         9   2  4.422817E-14  9.677027E-14  5.065696E-14  2.627105E-14 -9.833992E-16  2.326800E-15
         9   3  1.090285E-14  1.090285E-14  2.543999E-14  1.679105E-34 -4.129212E-15 -3.284405E-15
         9   4  5.383597E-15  1.414061E-14  3.804708E-15  4.378509E-15 -5.667132E-14 -5.459381E-14
         9   5 -8.456726E-14 -2.246795E-13 -5.721132E-14 -7.005614E-14  1.501716E-14  2.277051E-14
         9   6 -4.772052E-14 -1.177767E-13 -4.129173E-14 -3.502807E-14  6.318075E-14  7.553459E-14
         9   7 -9.418136E-14 -2.342936E-13 -7.964422E-14 -7.005614E-14 -8.546657E-14 -8.231371E-14
         9   8 -1.184166E-15 -1.184166E-15 -2.763055E-15  2.183901E-32  1.961764E-14  2.737099E-14

 strains (elem, integ.pnt.,exx,eyy,ezz,exy,exz,eyz) forset EALL and time  0.1387812E+00

         1   1 -2.207379E-12 -2.207379E-12  1.892039E-12  2.392868E-20 -3.247432E-21 -3.247104E-21
         1   2 -2.207379E-12 -2.207379E-12  1.892039E-12  5.661586E-20 -1.136316E-20 -3.247293E-21
         1   3 -2.207379E-12 -2.207379E-12  1.892039E-12  5.661586E-20 -3.247139E-21 -1.136132E-20
         1   4 -2.207379E-12 -2.207379E-12  1.892039E-12  8.930304E-20 -1.136183E-20 -1.136180E-20
         1   5 -2.207379E-12 -2.207379E-12  1.892039E-12  2.392906E-20 -4.003860E-21 -4.004141E-21
         1   6 -2.207379E-12 -2.207379E-12  1.892039E-12  5.661768E-20 -1.211958E-20 -4.004557E-21
         1   7 -2.207379E-12 -2.207379E-12  1.892039E-12  5.661584E-20 -4.003794E-21 -1.211836E-20
         1   8 -2.207379E-12 -2.207379E-12  1.892039E-12  8.930446E-20 -1.211849E-20 -1.211906E-20
         2   1 -1.581296E-11  4.064024E-11 -1.042055E-11  2.399438E-12 -2.746483E-13  9.871821E-21
         2   2 -1.581296E-11  3.778390E-11 -9.635836E-12  2.399438E-12 -2.746484E-13  2.386773E-21
         2   3 -1.581296E-11  4.064024E-11 -1.042055E-11  9.712679E-13 -2.746482E-13  1.348558E-19
         2   4 -1.581296E-11  3.778390E-11 -9.635836E-12  9.712681E-13 -2.746484E-13  1.204076E-19
         2   5 -1.581296E-11  4.064025E-11 -1.042055E-11  2.399438E-12  2.746481E-13 -8.813422E-20
         2   6 -1.581296E-11  3.778390E-11 -9.635836E-12  2.399438E-12  2.746480E-13 -1.091057E-19
         2   7 -1.581296E-11  4.064025E-11 -1.042055E-11  9.712680E-13  2.746482E-13  3.684973E-20
         2   8 -1.581296E-11  3.778390E-11 -9.635836E-12  9.712681E-13  2.746480E-13  8.915154E-21
         3   1  8.977800E-12 -2.418203E-11  9.032329E-12  3.852152E-12 -2.689578E-12  7.106341E-14
         3   2  8.977800E-12 -5.198606E-11  1.667080E-11  2.579740E-12 -2.657351E-12  7.106342E-14
         3   3  6.432978E-12 -2.418203E-11  9.432765E-12 -1.004987E-11 -2.689578E-12 -1.509336E-14
         3   4  6.432978E-12 -5.198606E-11  1.707124E-11 -1.132228E-11 -2.657351E-12 -1.509335E-14
         3   5  9.068035E-12 -2.442327E-11  9.032329E-12  3.852152E-12  2.657352E-12  3.513690E-13
         3   6  9.068035E-12 -5.222730E-11  1.667080E-11  2.579740E-12  2.689578E-12  3.513690E-13
         3   7  6.523212E-12 -2.442327E-11  9.432765E-12 -1.004987E-11  2.657352E-12  2.652123E-13
         3   8  6.523212E-12 -5.222730E-11  1.707124E-11 -1.132228E-11  2.689578E-12  2.652123E-13
         4   1  4.064024E-11 -1.581296E-11 -1.042055E-11  2.399438E-12  9.884432E-21 -2.746483E-13
         4   2  4.064024E-11 -1.581296E-11 -1.042055E-11  9.712679E-13  1.343918E-19 -2.746483E-13
         4   3  3.778390E-11 -1.581296E-11 -9.635836E-12  2.399438E-12  2.381424E-21 -2.746484E-13
         4   4  3.778390E-11 -1.581296E-11 -9.635836E-12  9.712681E-13  1.211012E-19 -2.746484E-13
         4   5  4.064025E-11 -1.581296E-11 -1.042055E-11  2.399438E-12 -8.761053E-20  2.746482E-13
         4   6  4.064025E-11 -1.581296E-11 -1.042055E-11  9.712680E-13  3.689680E-20  2.746481E-13
         4   7  3.778390E-11 -1.581296E-11 -9.635836E-12  2.399438E-12 -1.098246E-19  2.746480E-13
         4   8  3.778390E-11 -1.581296E-11 -9.635836E-12  9.712681E-13  8.895191E-21  2.746480E-13
         5   1  2.089468E-11  2.089468E-11 -2.028879E-11  8.395636E-13  1.486916E-12  1.486916E-12
         5   2  2.089468E-11  3.635861E-11 -2.453712E-11  8.571528E-12  1.486916E-12  1.486916E-12
         5   3  3.635861E-11  2.089468E-11 -2.453712E-11  8.571528E-12  1.486916E-12  1.486916E-12
         5   4  3.635861E-11  3.635861E-11 -2.878546E-11  1.630349E-11  1.486916E-12  1.486916E-12
         5   5  2.089468E-11  2.089468E-11 -2.028879E-11  8.395635E-13 -1.486916E-12 -1.486916E-12
         5   6  2.089468E-11  3.635861E-11 -2.453712E-11  8.571528E-12 -1.486916E-12 -1.486916E-12
         5   7  3.635861E-11  2.089468E-11 -2.453712E-11  8.571528E-12 -1.486916E-12 -1.486916E-12
         5   8  3.635861E-11  3.635861E-11 -2.878546E-11  1.630349E-11 -1.486916E-12 -1.486916E-12
         6   1  2.944799E-11 -4.198885E-11  5.770578E-12  1.329820E-11 -9.642727E-13  4.693693E-13
         6   2  2.944799E-11 -5.201729E-11  8.525643E-12  1.573892E-11 -9.642727E-13  4.693695E-13
         6   3  3.432943E-11 -4.198885E-11  4.429522E-12  8.283980E-12 -9.642727E-13  4.693697E-13
         6   4  3.432943E-11 -5.201729E-11  7.184587E-12  1.072470E-11 -9.642728E-13  4.693696E-13
         6   5  2.944799E-11 -4.198885E-11  5.770578E-12  1.329820E-11  9.642731E-13 -4.693699E-13
         6   6  2.944799E-11 -5.201729E-11  8.525643E-12  1.573892E-11  9.642731E-13 -4.693698E-13
         6   7  3.432943E-11 -4.198885E-11  4.429522E-12  8.283981E-12  9.642731E-13 -4.693696E-13
         6   8  3.432943E-11 -5.201729E-11  7.184587E-12  1.072470E-11  9.642729E-13 -4.693696E-13
         7   1 -2.418203E-11  8.977800E-12  9.032329E-12  3.852152E-12  7.106341E-14 -2.689578E-12
         7   2 -2.418203E-11  6.432978E-12  9.432765E-12 -1.004987E-11 -1.509336E-14 -2.689578E-12
         7   3 -5.198606E-11  8.977800E-12  1.667080E-11  2.579740E-12  7.106342E-14 -2.657351E-12
         7   4 -5.198606E-11  6.432978E-12  1.707124E-11 -1.132228E-11 -1.509335E-14 -2.657351E-12
         7   5 -2.442327E-11  9.068035E-12  9.032329E-12  3.852152E-12  3.513690E-13  2.657352E-12
         7   6 -2.442327E-11  6.523212E-12  9.432765E-12 -1.004987E-11  2.652122E-13  2.657352E-12
         7   7 -5.222730E-11  9.068035E-12  1.667080E-11  2.579740E-12  3.513690E-13  2.689578E-12
         7   8 -5.222730E-11  6.523212E-12  1.707124E-11 -1.132228E-11  2.652123E-13  2.689578E-12
         8   1 -4.198885E-11  2.944799E-11  5.770578E-12  1.329820E-11  4.693694E-13 -9.642726E-13
         8   2 -4.198885E-11  3.432943E-11  4.429522E-12  8.283981E-12  4.693696E-13 -9.642724E-13
         8   3 -5.201729E-11  2.944799E-11  8.525643E-12  1.573892E-11  4.693695E-13 -9.642727E-13
         8   4 -5.201729E-11  3.432943E-11  7.184587E-12  1.072470E-11  4.693696E-13 -9.642730E-13
         8   5 -4.198885E-11  2.944799E-11  5.770578E-12  1.329820E-11 -4.693697E-13  9.642731E-13
         8   6 -4.198885E-11  3.432943E-11  4.429522E-12  8.283981E-12 -4.693697E-13  9.642733E-13
         8   7 -5.201729E-11  2.944799E-11  8.525643E-12  1.573892E-11 -4.693699E-13  9.642729E-13
         8   8 -5.201729E-11  3.432943E-11  7.184587E-12  1.072470E-11 -4.693698E-13  9.642731E-13
         9   1  2.203519E-39  8.267828E-40  1.693463E-19  1.349752E-39 -1.416130E-19 -1.287522E-19
         9   2  2.203519E-39  3.252607E-19  3.979725E-20  1.626303E-19 -6.087709E-21  1.440400E-20
         9   3  1.306810E-39  8.267828E-40  8.999180E-20  1.039446E-39 -2.556179E-20 -2.033203E-20
         9   4  1.306810E-39  5.421011E-20 -9.774072E-21  2.710505E-20 -3.508224E-19 -3.379617E-19
         9   5  3.069106E-38 -8.673617E-19  1.693463E-19 -4.336809E-19  9.296335E-20  1.409603E-19
         9   6  3.069106E-38 -4.336809E-19  3.979725E-20 -2.168404E-19  3.911190E-19  4.675951E-19
         9   7  1.820152E-38 -8.673617E-19  8.999180E-20 -4.336809E-19 -5.290788E-19 -5.095610E-19
         9   8  1.820152E-38  4.493706E-39 -9.774072E-21  9.043908E-39  1.214425E-19  1.694395E-19

 displacements (vx,vy,vz) for set NALL and time  0.1477812E+00

         1  0.000000E+00  0.000000E+00  0.000000E+00
         2 -9.423759E-10  0.000000E+00  0.000000E+00
         3 -4.947474E-02  0.000000E+00  0.000000E+00
         4 -4.947474E-02  0.000000E+00  0.000000E+00
         5 -1.495218E-01  0.000000E+00  0.000000E+00
         6 -1.495218E-01  0.000000E+00  0.000000E+00
         7  0.000000E+00 -9.423759E-10  0.000000E+00
         8 -9.423759E-10 -9.423759E-10  0.000000E+00
         9 -4.947473E-02  2.159993E-08  0.000000E+00
        10 -4.947474E-02  1.897421E-08  0.000000E+00
        11 -1.495218E-01 -4.303366E-09  0.000000E+00
        12 -1.495218E-01 -3.105477E-08  0.000000E+00
        13  0.000000E+00 -4.947474E-02  0.000000E+00
        14  2.159993E-08 -4.947473E-02  0.000000E+00
        15  6.987555E-01  6.987555E-01  0.000000E+00
        16  6.987555E-01  6.987555E-01  0.000000E+00
        17  1.192549E+00 -4.661024E-01  0.000000E+00
        18  1.192153E+00 -1.095374E+00  0.000000E+00
        19  0.000000E+00 -4.947474E-02  0.000000E+00
        20  1.897421E-08 -4.947474E-02  0.000000E+00
        21  6.987555E-01  6.987555E-01  0.000000E+00
        22  6.987555E-01  6.987555E-01  0.000000E+00
        23  1.821821E+00 -4.664984E-01  0.000000E+00
        24  1.821425E+00 -1.095770E+00  0.000000E+00
        25  0.000000E+00 -1.495218E-01  0.000000E+00
        26 -4.303366E-09 -1.495218E-01  0.000000E+00
        27 -4.661024E-01  1.192549E+00  0.000000E+00
        28 -4.664984E-01  1.821821E+00  0.000000E+00
        29 -4.433437E+00 -4.433437E+00  0.000000E+00
        30 -4.433437E+00 -4.433437E+00  0.000000E+00
        31  0.000000E+00 -1.495218E-01  0.000000E+00
        32 -3.105477E-08 -1.495218E-01  0.000000E+00
        33 -1.095374E+00  1.192153E+00  0.000000E+00
        34 -1.095770E+00  1.821425E+00  0.000000E+00
        35 -4.433437E+00 -4.433437E+00  0.000000E+00
        36 -4.433437E+00 -4.433437E+00  0.000000E+00
        37  0.000000E+00  0.000000E+00  1.130851E-09
        38 -9.423759E-10  0.000000E+00  1.130851E-09
        39 -4.947474E-02  0.000000E+00 -7.914782E-09
        40 -4.947475E-02  0.000000E+00 -6.904888E-09
        41 -1.495219E-01  0.000000E+00  3.165401E-09
        42 -1.495218E-01  0.000000E+00  1.345440E-08
        43  0.000000E+00 -9.423759E-10  1.130851E-09
        44 -9.423759E-10 -9.423759E-10  1.130851E-09
        45 -4.947473E-02  2.159993E-08 -7.914782E-09
        46 -4.947474E-02  1.897421E-08 -6.904888E-09
        47 -1.495218E-01 -4.530698E-09  3.693693E-09
        48 -1.495218E-01 -3.128210E-08  1.398269E-08
        49  0.000000E+00 -4.947474E-02 -7.914782E-09
        50  2.159993E-08 -4.947473E-02 -7.914782E-09
        51  6.987555E-01  6.987555E-01 -1.221009E-08
        52  6.987555E-01  6.987555E-01 -1.781034E-08
        53  1.192549E+00 -4.661024E-01  2.754032E-09
        54  1.192153E+00 -1.095374E+00  6.707804E-09
        55  0.000000E+00 -4.947475E-02 -6.904888E-09
        56  1.897421E-08 -4.947474E-02 -6.904888E-09
        57  6.987555E-01  6.987555E-01 -1.781034E-08
        58  6.987555E-01  6.987555E-01 -2.341059E-08
        59  1.821821E+00 -4.664984E-01  1.016231E-09
        60  1.821425E+00 -1.095770E+00  4.970003E-09
        61  0.000000E+00 -1.495219E-01  3.165401E-09
        62 -4.530698E-09 -1.495218E-01  3.693693E-09
        63 -4.661024E-01  1.192549E+00  2.754032E-09
        64 -4.664984E-01  1.821821E+00  1.016231E-09
        65 -4.433437E+00 -4.433437E+00  8.569558E-17
        66 -4.433437E+00 -4.433437E+00  1.765658E-16
        67  0.000000E+00 -1.495218E-01  1.345440E-08
        68 -3.128210E-08 -1.495218E-01  1.398269E-08
        69 -1.095374E+00  1.192153E+00  6.707804E-09
        70 -1.095770E+00  1.821425E+00  4.970003E-09
        71 -4.433437E+00 -4.433437E+00  2.591583E-16
        72 -4.433437E+00 -4.433437E+00 -2.587253E-17

 stresses (elem, integ.pnt.,sxx,syy,szz,sxy,sxz,syz) for set EALL and time  0.1477812E+00

         1   1 -5.654255E-07 -5.654255E-07 -4.418856E-15  4.139277E-15 -5.703849E-16 -5.703181E-16
         1   2 -5.654255E-07 -5.654255E-07  3.620223E-15  9.793502E-15 -1.951643E-15 -5.703485E-16
         1   3 -5.654255E-07 -5.654255E-07  3.619731E-15  9.793767E-15 -5.703375E-16 -1.951356E-15
         1   4 -5.654255E-07 -5.654255E-07  1.165872E-14  1.544799E-14 -1.951429E-15 -1.951432E-15
         1   5 -5.654256E-07 -5.654256E-07 -1.021968E-14  4.139339E-15 -7.474478E-16 -7.474184E-16
         1   6 -5.654255E-07 -5.654255E-07 -2.180695E-15  9.793797E-15 -2.128705E-15 -7.474856E-16
         1   7 -5.654255E-07 -5.654255E-07 -2.180739E-15  9.793764E-15 -7.474372E-16 -2.128456E-15
         1   8 -5.654255E-07 -5.654255E-07  5.858150E-15  1.544822E-14 -2.128528E-15 -2.128570E-15
         2   1 -7.212032E-07  8.642339E-06  6.593086E-08  4.114280E-07 -4.709352E-08  1.724369E-15
         2   2 -9.876178E-07  7.886152E-06 -6.593087E-08  4.114281E-07 -4.709354E-08  3.391098E-16
         2   3 -7.212031E-07  8.642339E-06  6.593086E-08  1.665418E-07 -4.709352E-08  2.380159E-14
         2   4 -9.876177E-07  7.886152E-06 -6.593088E-08  1.665419E-07 -4.709354E-08  2.136188E-14
         2   5 -7.212032E-07  8.642339E-06  6.593086E-08  4.114280E-07  4.709350E-08 -1.564062E-14
         2   6 -9.876179E-07  7.886152E-06 -6.593087E-08  4.114281E-07  4.709348E-08 -1.975602E-14
         2   7 -7.212031E-07  8.642339E-06  6.593087E-08  1.665418E-07  4.709350E-08  6.436034E-15
         2   8 -9.876178E-07  7.886152E-06 -6.593088E-08  1.665419E-07  4.709348E-08  1.266178E-15
         3   1  8.771741E-07 -3.702450E-06  7.878264E-07  7.876066E-07 -4.826303E-07  1.249120E-08
         3   2 -1.837112E-06 -1.140664E-05 -5.556083E-07  5.639479E-07 -4.769657E-07  1.249120E-08
         3   3  1.471589E-07 -3.985148E-06  5.755155E-07 -1.707343E-06 -4.826303E-07 -2.653041E-09
         3   4 -2.567127E-06 -1.168933E-05 -7.679192E-07 -1.931002E-06 -4.769657E-07 -2.653040E-09
         3   5  8.731279E-07 -3.764761E-06  7.679192E-07  7.876066E-07  4.769657E-07  6.176205E-08
         3   6 -1.841158E-06 -1.146895E-05 -5.755155E-07  5.639479E-07  4.826304E-07  6.176206E-08
         3   7  1.431127E-07 -4.047459E-06  5.556083E-07 -1.707343E-06  4.769658E-07  4.661781E-08
         3   8 -2.571173E-06 -1.175164E-05 -7.878264E-07 -1.931002E-06  4.826304E-07  4.661781E-08
         4   1  8.642339E-06 -7.212032E-07  6.593086E-08  4.114280E-07  1.714235E-15 -4.709352E-08
         4   2  8.642339E-06 -7.212031E-07  6.593086E-08  1.665418E-07  2.383761E-14 -4.709352E-08
         4   3  7.886152E-06 -9.876178E-07 -6.593087E-08  4.114281E-07  3.503213E-16 -4.709354E-08
         4   4  7.886152E-06 -9.876177E-07 -6.593088E-08  1.665419E-07  2.131095E-14 -4.709354E-08
         4   5  8.642339E-06 -7.212032E-07  6.593087E-08  4.114280E-07 -1.572459E-14  4.709350E-08
         4   6  8.642339E-06 -7.212031E-07  6.593087E-08  1.665418E-07  6.398215E-15  4.709350E-08
         4   7  7.886152E-06 -9.876178E-07 -6.593087E-08  4.114281E-07 -1.965204E-14  4.709348E-08
         4   8  7.886152E-06 -9.876178E-07 -6.593087E-08  1.665419E-07  1.308019E-15  4.709348E-08
         5   1  6.069811E-06  6.069811E-06 -7.312247E-07  1.815882E-07  2.611516E-07  2.611516E-07
         5   2  7.547183E-06  1.026316E-05  2.877604E-14  1.539577E-06  2.611515E-07  2.611516E-07
         5   3  1.026316E-05  7.547183E-06  4.784801E-14  1.539577E-06  2.611515E-07  2.611515E-07
         5   4  1.174053E-05  1.174053E-05  7.312248E-07  2.897565E-06  2.611516E-07  2.611515E-07
         5   5  6.069811E-06  6.069811E-06 -7.312247E-07  1.815882E-07 -2.611516E-07 -2.611517E-07
         5   6  7.547183E-06  1.026316E-05  4.193204E-14  1.539577E-06 -2.611517E-07 -2.611517E-07
         5   7  1.026316E-05  7.547183E-06  2.488131E-14  1.539577E-06 -2.611516E-07 -2.611516E-07
         5   8  1.174053E-05  1.174053E-05  7.312248E-07  2.897565E-06 -2.611516E-07 -2.611517E-07
         6   1  4.091107E-06 -6.831179E-06  1.446750E-07  2.292220E-06 -1.842706E-07  8.126930E-08
         6   2  3.049141E-06 -9.792737E-06 -3.715690E-07  2.711200E-06 -1.842707E-07  8.126931E-08
         6   3  5.389921E-06 -6.370324E-06  3.715797E-07  1.332424E-06 -1.842706E-07  8.126937E-08
         6   4  4.347955E-06 -9.331883E-06 -1.446643E-07  1.751403E-06 -1.842706E-07  8.126932E-08
         6   5  4.091107E-06 -6.831179E-06  1.446750E-07  2.292220E-06  1.842708E-07 -8.126938E-08
         6   6  3.049141E-06 -9.792737E-06 -3.715691E-07  2.711200E-06  1.842707E-07 -8.126935E-08
         6   7  5.389921E-06 -6.370324E-06  3.715796E-07  1.332424E-06  1.842708E-07 -8.126931E-08
         6   8  4.347955E-06 -9.331883E-06 -1.446644E-07  1.751404E-06  1.842708E-07 -8.126933E-08
         7   1 -3.702450E-06  8.771741E-07  7.878264E-07  7.876066E-07  1.249120E-08 -4.826303E-07
         7   2 -3.985148E-06  1.471589E-07  5.755155E-07 -1.707343E-06 -2.653041E-09 -4.826303E-07
         7   3 -1.140664E-05 -1.837112E-06 -5.556083E-07  5.639479E-07  1.249120E-08 -4.769657E-07
         7   4 -1.168933E-05 -2.567127E-06 -7.679192E-07 -1.931002E-06 -2.653040E-09 -4.769657E-07
         7   5 -3.764761E-06  8.731279E-07  7.679192E-07  7.876066E-07  6.176205E-08  4.769657E-07
         7   6 -4.047459E-06  1.431127E-07  5.556083E-07 -1.707343E-06  4.661781E-08  4.769658E-07
         7   7 -1.146895E-05 -1.841158E-06 -5.755154E-07  5.639479E-07  6.176206E-08  4.826304E-07
         7   8 -1.175164E-05 -2.571173E-06 -7.878264E-07 -1.931002E-06  4.661781E-08  4.826304E-07
         8   1 -6.831179E-06  4.091107E-06  1.446749E-07  2.292220E-06  8.126930E-08 -1.842706E-07
         8   2 -6.370324E-06  5.389921E-06  3.715796E-07  1.332424E-06  8.126931E-08 -1.842706E-07
         8   3 -9.792737E-06  3.049141E-06 -3.715690E-07  2.711200E-06  8.126932E-08 -1.842707E-07
         8   4 -9.331883E-06  4.347955E-06 -1.446644E-07  1.751403E-06  8.126932E-08 -1.842707E-07
         8   5 -6.831179E-06  4.091107E-06  1.446750E-07  2.292220E-06 -8.126937E-08  1.842707E-07
         8   6 -6.370324E-06  5.389921E-06  3.715797E-07  1.332424E-06 -8.126935E-08  1.842708E-07
         8   7 -9.792737E-06  3.049141E-06 -3.715691E-07  2.711200E-06 -8.126936E-08  1.842707E-07
         8   8 -9.331883E-06  4.347955E-06 -1.446644E-07  1.751403E-06 -8.126936E-08  1.842707E-07
         9   1 -8.348964E-14 -2.236019E-13 -5.469687E-14 -7.005614E-14  5.293239E-14  5.575186E-14
         9   2  1.616926E-14  7.412245E-15  4.648530E-14 -4.378509E-15  2.666134E-14  2.207215E-14
         9   3 -7.409404E-14 -2.142063E-13 -3.277382E-14 -7.005614E-14 -7.707451E-14 -6.684638E-14
         9   4  1.023947E-13  2.249929E-13  1.163227E-13  6.129912E-14  1.049567E-14  1.331514E-14
         9   5 -8.348964E-14 -2.236019E-13 -5.469687E-14 -7.005614E-14 -1.605746E-14 -5.535057E-15
         9   6 -5.607613E-14 -1.611603E-13 -2.576010E-14 -5.254211E-14  5.835086E-15 -1.129200E-14
         9   7 -7.409404E-14 -2.142063E-13 -3.277382E-14 -7.005614E-14 -9.624905E-14 -5.807716E-14
         9   8 -1.582503E-14 -5.085311E-14 -1.897011E-15 -1.751404E-14  2.634920E-14  3.687160E-14

 strains (elem, integ.pnt.,exx,eyy,ezz,exy,exz,eyz) forset EALL and time  0.1477812E+00

         1   1 -1.884752E-12 -1.884752E-12  1.615502E-12  2.562410E-20 -3.530954E-21 -3.530540E-21
         1   2 -1.884752E-12 -1.884752E-12  1.615502E-12  6.062644E-20 -1.208160E-20 -3.530729E-21
         1   3 -1.884752E-12 -1.884752E-12  1.615502E-12  6.062808E-20 -3.530661E-21 -1.207982E-20
         1   4 -1.884752E-12 -1.884752E-12  1.615502E-12  9.563043E-20 -1.208027E-20 -1.208030E-20
         1   5 -1.884752E-12 -1.884752E-12  1.615502E-12  2.562448E-20 -4.627058E-21 -4.626876E-21
         1   6 -1.884752E-12 -1.884752E-12  1.615502E-12  6.062827E-20 -1.317770E-20 -4.627292E-21
         1   7 -1.884752E-12 -1.884752E-12  1.615502E-12  6.062806E-20 -4.626992E-21 -1.317616E-20
         1   8 -1.884752E-12 -1.884752E-12  1.615502E-12  9.563185E-20 -1.317660E-20 -1.317686E-20
         2   1 -1.587469E-11  4.209010E-11 -1.100195E-11  2.546935E-12 -2.915313E-13  1.067325E-20
         2   2 -1.587469E-11  3.905817E-11 -1.016901E-11  2.546936E-12 -2.915315E-13  2.097840E-21
         2   3 -1.587469E-11  4.209010E-11 -1.100195E-11  1.030973E-12 -2.915313E-13  1.473415E-19
         2   4 -1.587469E-11  3.905817E-11 -1.016901E-11  1.030973E-12 -2.915314E-13  1.322386E-19
         2   5 -1.587469E-11  4.209010E-11 -1.100195E-11  2.546935E-12  2.915312E-13 -9.682661E-20
         2   6 -1.587469E-11  3.905817E-11 -1.016901E-11  2.546936E-12  2.915311E-13 -1.223029E-19
         2   7 -1.587469E-11  4.209010E-11 -1.100195E-11  1.030973E-12  2.915312E-13  3.984168E-20
         2   8 -1.587469E-11  3.905817E-11 -1.016901E-11  1.030973E-12  2.915311E-13  7.837807E-21
         3   1  8.340767E-12 -2.000929E-11  7.787662E-12  4.875660E-12 -2.987712E-12  7.732650E-14
         3   2  8.340767E-12 -5.089914E-11  1.627389E-11  3.491106E-12 -2.952645E-12  7.732651E-14
         3   3  5.571660E-12 -2.000929E-11  8.223391E-12 -1.056927E-11 -2.987712E-12 -1.642359E-14
         3   4  5.571660E-12 -5.089914E-11  1.670961E-11 -1.195382E-11 -2.952645E-12 -1.642358E-14
         3   5  8.438954E-12 -2.027179E-11  7.787662E-12  4.875660E-12  2.952645E-12  3.823365E-13
         3   6  8.438954E-12 -5.116164E-11  1.627389E-11  3.491106E-12  2.987712E-12  3.823365E-13
         3   7  5.669847E-12 -2.027179E-11  8.223391E-12 -1.056927E-11  2.952645E-12  2.885864E-13
         3   8  5.669847E-12 -5.116164E-11  1.670961E-11 -1.195382E-11  2.987712E-12  2.885864E-13
         4   1  4.209010E-11 -1.587469E-11 -1.100195E-11  2.546935E-12  1.061052E-20 -2.915313E-13
         4   2  4.209010E-11 -1.587469E-11 -1.100195E-11  1.030973E-12  1.475645E-19 -2.915313E-13
         4   3  3.905817E-11 -1.587469E-11 -1.016901E-11  2.546936E-12  2.167245E-21 -2.915315E-13
         4   4  3.905817E-11 -1.587469E-11 -1.016901E-11  1.030973E-12  1.319233E-19 -2.915314E-13
         4   5  4.209010E-11 -1.587469E-11 -1.100195E-11  2.546935E-12 -9.734644E-20  2.915312E-13
         4   6  4.209010E-11 -1.587469E-11 -1.100195E-11  1.030973E-12  3.960756E-20  2.915312E-13
         4   7  3.905817E-11 -1.587469E-11 -1.016901E-11  2.546936E-12 -1.216592E-19  2.915311E-13
         4   8  3.905817E-11 -1.587469E-11 -1.016901E-11  1.030973E-12  8.096824E-21  2.915311E-13
         5   1  2.127731E-11  2.127731E-11 -2.082434E-11  1.124117E-12  1.616652E-12  1.616652E-12
         5   2  2.127731E-11  3.809050E-11 -2.544335E-11  9.530713E-12  1.616652E-12  1.616653E-12
         5   3  3.809050E-11  2.127731E-11 -2.544335E-11  9.530713E-12  1.616652E-12  1.616652E-12
         5   4  3.809050E-11  3.809050E-11 -3.006236E-11  1.793731E-11  1.616652E-12  1.616652E-12
         5   5  2.127731E-11  2.127731E-11 -2.082434E-11  1.124117E-12 -1.616653E-12 -1.616653E-12
         5   6  2.127731E-11  3.809050E-11 -2.544335E-11  9.530713E-12 -1.616653E-12 -1.616653E-12
         5   7  3.809050E-11  2.127731E-11 -2.544335E-11  9.530713E-12 -1.616653E-12 -1.616653E-12
         5   8  3.809050E-11  3.809050E-11 -3.006236E-11  1.793731E-11 -1.616653E-12 -1.616653E-12
         6   1  2.899778E-11 -3.854471E-11  4.603317E-12  1.427498E-11 -1.141355E-12  5.016596E-13
         6   2  2.899778E-11 -5.041481E-11  7.864333E-12  1.688362E-11 -1.141355E-12  5.016597E-13
         6   3  3.421505E-11 -3.854471E-11  3.170003E-12  8.339935E-12 -1.141355E-12  5.016601E-13
         6   4  3.421505E-11 -5.041481E-11  6.431019E-12  1.094857E-11 -1.141355E-12  5.016597E-13
         6   5  2.899778E-11 -3.854471E-11  4.603317E-12  1.427498E-11  1.141356E-12 -5.016601E-13
         6   6  2.899778E-11 -5.041481E-11  7.864333E-12  1.688362E-11  1.141356E-12 -5.016599E-13
         6   7  3.421505E-11 -3.854471E-11  3.170003E-12  8.339935E-12  1.141356E-12 -5.016597E-13
         6   8  3.421505E-11 -5.041481E-11  6.431019E-12  1.094857E-11  1.141356E-12 -5.016598E-13
         7   1 -2.000929E-11  8.340767E-12  7.787662E-12  4.875660E-12  7.732650E-14 -2.987712E-12
         7   2 -2.000929E-11  5.571660E-12  8.223391E-12 -1.056927E-11 -1.642359E-14 -2.987712E-12
         7   3 -5.089914E-11  8.340767E-12  1.627389E-11  3.491106E-12  7.732651E-14 -2.952645E-12
         7   4 -5.089914E-11  5.571660E-12  1.670961E-11 -1.195382E-11 -1.642358E-14 -2.952645E-12
         7   5 -2.027179E-11  8.438954E-12  7.787662E-12  4.875660E-12  3.823365E-13  2.952645E-12
         7   6 -2.027179E-11  5.669847E-12  8.223391E-12 -1.056927E-11  2.885864E-13  2.952645E-12
         7   7 -5.116164E-11  8.438954E-12  1.627389E-11  3.491106E-12  3.823365E-13  2.987712E-12
         7   8 -5.116164E-11  5.669847E-12  1.670961E-11 -1.195382E-11  2.885865E-13  2.987712E-12
         8   1 -3.854471E-11  2.899778E-11  4.603317E-12  1.427498E-11  5.016596E-13 -1.141355E-12
         8   2 -3.854471E-11  3.421505E-11  3.170003E-12  8.339934E-12  5.016597E-13 -1.141355E-12
         8   3 -5.041481E-11  2.899778E-11  7.864333E-12  1.688362E-11  5.016597E-13 -1.141356E-12
         8   4 -5.041481E-11  3.421505E-11  6.431019E-12  1.094857E-11  5.016597E-13 -1.141355E-12
         8   5 -3.854471E-11  2.899778E-11  4.603317E-12  1.427498E-11 -5.016601E-13  1.141356E-12
         8   6 -3.854471E-11  3.421505E-11  3.170003E-12  8.339935E-12 -5.016599E-13  1.141356E-12
         8   7 -5.041481E-11  2.899778E-11  7.864333E-12  1.688362E-11 -5.016600E-13  1.141356E-12
         8   8 -5.041481E-11  3.421505E-11  6.431019E-12  1.094857E-11 -5.016600E-13  1.141356E-12
         9   1  1.167481E-41 -8.673617E-19  1.782409E-19 -4.336809E-19  3.276767E-19  3.451306E-19
         9   2  1.167481E-41 -5.421011E-20  1.876707E-19 -2.710505E-20  1.650464E-19  1.366371E-19
         9   3  3.775291E-39 -8.673617E-19  2.557919E-19 -4.336809E-19 -4.771279E-19 -4.138109E-19
         9   4  3.775291E-39  7.589415E-19  8.622110E-20  3.794708E-19  6.497317E-20  8.242703E-20
         9   5  1.626092E-40 -8.673617E-19  1.782409E-19 -4.336809E-19 -9.940331E-20 -3.426464E-20
         9   6  1.626092E-40 -6.505213E-19  1.876707E-19 -3.252607E-19  3.612196E-20 -6.990285E-20
         9   7  5.258302E-38 -8.673617E-19  2.557919E-19 -4.336809E-19 -5.958274E-19 -3.595253E-19
         9   8  5.258302E-38 -2.168404E-19  8.622110E-20 -1.084202E-19  1.631141E-19  2.282527E-19

 displacements (vx,vy,vz) for set NALL and time  0.1567812E+00

         1  0.000000E+00  0.000000E+00  0.000000E+00
         2 -7.661866E-10  0.000000E+00  0.000000E+00
         3 -4.022480E-02  0.000000E+00  0.000000E+00
         4 -4.022481E-02  0.000000E+00  0.000000E+00
         5 -1.329484E-01  0.000000E+00  0.000000E+00
         6 -1.329484E-01  0.000000E+00  0.000000E+00
         7  0.000000E+00 -7.661866E-10  0.000000E+00
         8 -7.661866E-10 -7.661866E-10  0.000000E+00
         9 -4.022480E-02  2.210920E-08  0.000000E+00
        10 -4.022480E-02  1.938346E-08  0.000000E+00
        11 -1.329484E-01 -1.698094E-09  0.000000E+00
        12 -1.329484E-01 -3.091410E-08  0.000000E+00
        13  0.000000E+00 -4.022480E-02  0.000000E+00
        14  2.210920E-08 -4.022480E-02  0.000000E+00
        15  7.175815E-01  7.175815E-01  0.000000E+00
        16  7.175815E-01  7.175815E-01  0.000000E+00
        17  1.214910E+00 -3.945276E-01  0.000000E+00
        18  1.214461E+00 -1.064736E+00  0.000000E+00
        19  0.000000E+00 -4.022481E-02  0.000000E+00
        20  1.938346E-08 -4.022480E-02  0.000000E+00
        21  7.175815E-01  7.175815E-01  0.000000E+00
        22  7.175815E-01  7.175815E-01  0.000000E+00
        23  1.885119E+00 -3.949768E-01  0.000000E+00
        24  1.884669E+00 -1.065186E+00  0.000000E+00
        25  0.000000E+00 -1.329484E-01  0.000000E+00
        26 -1.698094E-09 -1.329484E-01  0.000000E+00
        27 -3.945276E-01  1.214910E+00  0.000000E+00
        28 -3.949768E-01  1.885119E+00  0.000000E+00
        29 -4.703437E+00 -4.703437E+00  0.000000E+00
        30 -4.703437E+00 -4.703437E+00  0.000000E+00
        31  0.000000E+00 -1.329484E-01  0.000000E+00
        32 -3.091410E-08 -1.329484E-01  0.000000E+00
        33 -1.064736E+00  1.214461E+00  0.000000E+00
        34 -1.065186E+00  1.884669E+00  0.000000E+00
        35 -4.703437E+00 -4.703437E+00  0.000000E+00
        36 -4.703437E+00 -4.703437E+00  0.000000E+00
        37  0.000000E+00  0.000000E+00  9.194240E-10
        38 -7.661867E-10  0.000000E+00  9.194239E-10
        39 -4.022480E-02  0.000000E+00 -8.250024E-09
        40 -4.022481E-02  0.000000E+00 -7.201660E-09
        41 -1.329484E-01  0.000000E+00  2.068608E-09
        42 -1.329484E-01  0.000000E+00  1.330553E-08
        43  0.000000E+00 -7.661867E-10  9.194239E-10
        44 -7.661866E-10 -7.661866E-10  9.194239E-10
        45 -4.022480E-02  2.210920E-08 -8.250024E-09
        46 -4.022480E-02  1.938346E-08 -7.201661E-09
        47 -1.329484E-01 -1.938633E-09  2.627593E-09
        48 -1.329484E-01 -3.115464E-08  1.386452E-08
        49  0.000000E+00 -4.022480E-02 -8.250024E-09
        50  2.210920E-08 -4.022480E-02 -8.250024E-09
        51  7.175815E-01  7.175815E-01 -1.223806E-08
        52  7.175815E-01  7.175815E-01 -1.824061E-08
        53  1.214910E+00 -3.945276E-01  1.862256E-09
        54  1.214461E+00 -1.064736E+00  6.424072E-09
        55  0.000000E+00 -4.022481E-02 -7.201660E-09
        56  1.938346E-08 -4.022480E-02 -7.201661E-09
        57  7.175815E-01  7.175815E-01 -1.824061E-08
        58  7.175815E-01  7.175815E-01 -2.424315E-08
        59  1.885119E+00 -3.949768E-01 -2.555751E-11
        60  1.884669E+00 -1.065186E+00  4.536259E-09
        61  0.000000E+00 -1.329484E-01  2.068608E-09
        62 -1.938633E-09 -1.329484E-01  2.627593E-09
        63 -3.945276E-01  1.214910E+00  1.862256E-09
        64 -3.949768E-01  1.885119E+00 -2.555737E-11
        65 -4.703437E+00 -4.703437E+00  2.456383E-16
        66 -4.703437E+00 -4.703437E+00  1.706232E-16
        67  0.000000E+00 -1.329484E-01  1.330553E-08
        68 -3.115464E-08 -1.329484E-01  1.386452E-08
        69 -1.064736E+00  1.214461E+00  6.424072E-09
        70 -1.065186E+00  1.884669E+00  4.536259E-09
        71 -4.703437E+00 -4.703437E+00  2.749506E-16
        72 -4.703437E+00 -4.703437E+00 -2.404934E-19

 stresses (elem, integ.pnt.,sxx,syy,szz,sxy,sxz,syz) for set EALL and time  0.1567812E+00

         1   1 -4.597120E-07 -4.597120E-07 -4.719273E-15  4.333580E-15 -6.057142E-16 -6.057672E-16
         1   2 -4.597120E-07 -4.597120E-07  3.581564E-15  1.025336E-14 -2.029023E-15 -6.057197E-16
         1   3 -4.597120E-07 -4.597120E-07  3.581811E-15  1.025336E-14 -6.057446E-16 -2.029319E-15
         1   4 -4.597120E-07 -4.597120E-07  1.188256E-14  1.617314E-14 -2.029100E-15 -2.029105E-15
         1   5 -4.597120E-07 -4.597120E-07 -1.069768E-14  4.333642E-15 -8.372476E-16 -8.372022E-16
         1   6 -4.597120E-07 -4.597120E-07 -2.396493E-15  1.025336E-14 -2.260556E-15 -8.371915E-16
         1   7 -4.597120E-07 -4.597120E-07 -2.396693E-15  1.025365E-14 -8.373148E-16 -2.260754E-15
         1   8 -4.597120E-07 -4.597120E-07  5.904401E-15  1.617337E-14 -2.260670E-15 -2.260577E-15
         2   1 -6.214236E-07  8.878043E-06  6.844233E-08  4.271004E-07 -4.888744E-08  1.837257E-15
         2   2 -8.979866E-07  8.093051E-06 -6.844235E-08  4.271004E-07 -4.888746E-08  3.095402E-16
         2   3 -6.214235E-07  8.878043E-06  6.844234E-08  1.728858E-07 -4.888743E-08  2.561657E-14
         2   4 -8.979865E-07  8.093051E-06 -6.844235E-08  1.728859E-07 -4.888746E-08  2.298137E-14
         2   5 -6.214236E-07  8.878043E-06  6.844233E-08  4.271004E-07  4.888741E-08 -1.692131E-14
         2   6 -8.979867E-07  8.093051E-06 -6.844235E-08  4.271004E-07  4.888739E-08 -2.151534E-14
         2   7 -6.214235E-07  8.878043E-06  6.844234E-08  1.728858E-07  4.888741E-08  6.857385E-15
         2   8 -8.979866E-07  8.093051E-06 -6.844235E-08  1.728859E-07  4.888739E-08  1.155869E-15
         3   1  1.049385E-06 -2.755905E-06  8.564573E-07  9.508820E-07 -5.269986E-07  1.321691E-08
         3   2 -1.914968E-06 -1.116988E-05 -6.107479E-07  7.142293E-07 -5.210049E-07  1.321691E-08
         3   3  2.769582E-07 -3.055027E-06  6.318116E-07 -1.773927E-06 -5.269986E-07 -2.807176E-09
         3   4 -2.687395E-06 -1.146900E-05 -8.353935E-07 -2.010580E-06 -5.210049E-07 -2.807175E-09
         3   5  1.045104E-06 -2.821836E-06  8.353936E-07  9.508820E-07  5.210050E-07  6.535027E-08
         3   6 -1.919249E-06 -1.123581E-05 -6.318116E-07  7.142293E-07  5.269987E-07  6.535028E-08
         3   7  2.726769E-07 -3.120958E-06  6.107479E-07 -1.773928E-06  5.210050E-07  4.932618E-08
         3   8 -2.691676E-06 -1.153493E-05 -8.564573E-07 -2.010580E-06  5.269987E-07  4.932619E-08
         4   1  8.878043E-06 -6.214236E-07  6.844233E-08  4.271004E-07  1.821205E-15 -4.888744E-08
         4   2  8.878043E-06 -6.214235E-07  6.844234E-08  1.728858E-07  2.562953E-14 -4.888743E-08
         4   3  8.093051E-06 -8.979866E-07 -6.844234E-08  4.271004E-07  3.242966E-16 -4.888746E-08
         4   4  8.093051E-06 -8.979865E-07 -6.844235E-08  1.728859E-07  2.300603E-14 -4.888746E-08
         4   5  8.878043E-06 -6.214236E-07  6.844233E-08  4.271004E-07 -1.701023E-14  4.888741E-08
         4   6  8.878043E-06 -6.214235E-07  6.844234E-08  1.728858E-07  6.797478E-15  4.888741E-08
         4   7  8.093051E-06 -8.979867E-07 -6.844235E-08  4.271004E-07 -2.147018E-14  4.888739E-08
         4   8  8.093051E-06 -8.979866E-07 -6.844235E-08  1.728859E-07  1.210940E-15  4.888739E-08
         5   1  6.081265E-06  6.081265E-06 -7.837525E-07  2.273404E-07  2.799115E-07  2.799115E-07
         5   2  7.664765E-06  1.057584E-05  3.469461E-14  1.682881E-06  2.799115E-07  2.799115E-07
         5   3  1.057584E-05  7.664765E-06  5.210256E-14  1.682881E-06  2.799115E-07  2.799115E-07
         5   4  1.215934E-05  1.215934E-05  7.837526E-07  3.138421E-06  2.799115E-07  2.799115E-07
         5   5  6.081265E-06  6.081265E-06 -7.837525E-07  2.273404E-07 -2.799116E-07 -2.799116E-07
         5   6  7.664765E-06  1.057584E-05  5.113754E-14  1.682881E-06 -2.799116E-07 -2.799116E-07
         5   7  1.057584E-05  7.664765E-06  6.151739E-15  1.682881E-06 -2.799116E-07 -2.799116E-07
         5   8  1.215934E-05  1.215934E-05  7.837526E-07  3.138421E-06 -2.799116E-07 -2.799116E-07
         6   1  4.179600E-06 -6.024926E-06  1.746039E-07  2.420742E-06 -2.126090E-07  8.831782E-08
         6   2  2.977394E-06 -9.441941E-06 -4.210325E-07  2.875545E-06 -2.126090E-07  8.831779E-08
         6   3  5.590188E-06 -5.523945E-06  4.210957E-07  1.313337E-06 -2.126090E-07  8.831789E-08
         6   4  4.387982E-06 -8.940960E-06 -1.745406E-07  1.768140E-06 -2.126091E-07  8.831783E-08
         6   5  4.179599E-06 -6.024926E-06  1.746039E-07  2.420742E-06  2.126091E-07 -8.831790E-08
         6   6  2.977394E-06 -9.441941E-06 -4.210326E-07  2.875545E-06  2.126090E-07 -8.831790E-08
         6   7  5.590188E-06 -5.523945E-06  4.210957E-07  1.313337E-06  2.126090E-07 -8.831783E-08
         6   8  4.387982E-06 -8.940960E-06 -1.745406E-07  1.768140E-06  2.126090E-07 -8.831788E-08
         7   1 -2.755905E-06  1.049385E-06  8.564573E-07  9.508820E-07  1.321691E-08 -5.269986E-07
         7   2 -3.055027E-06  2.769582E-07  6.318116E-07 -1.773928E-06 -2.807176E-09 -5.269986E-07
         7   3 -1.116988E-05 -1.914968E-06 -6.107479E-07  7.142293E-07  1.321691E-08 -5.210049E-07
         7   4 -1.146900E-05 -2.687395E-06 -8.353935E-07 -2.010580E-06 -2.807175E-09 -5.210049E-07
         7   5 -2.821836E-06  1.045104E-06  8.353936E-07  9.508820E-07  6.535027E-08  5.210050E-07
         7   6 -3.120958E-06  2.726769E-07  6.107479E-07 -1.773928E-06  4.932618E-08  5.210050E-07
         7   7 -1.123581E-05 -1.919249E-06 -6.318116E-07  7.142293E-07  6.535028E-08  5.269987E-07
         7   8 -1.153493E-05 -2.691676E-06 -8.564573E-07 -2.010580E-06  4.932619E-08  5.269987E-07
         8   1 -6.024926E-06  4.179600E-06  1.746039E-07  2.420742E-06  8.831782E-08 -2.126090E-07
         8   2 -5.523945E-06  5.590188E-06  4.210957E-07  1.313337E-06  8.831784E-08 -2.126089E-07
         8   3 -9.441941E-06  2.977394E-06 -4.210325E-07  2.875545E-06  8.831786E-08 -2.126091E-07
         8   4 -8.940960E-06  4.387982E-06 -1.745406E-07  1.768140E-06  8.831783E-08 -2.126090E-07
         8   5 -6.024926E-06  4.179599E-06  1.746038E-07  2.420742E-06 -8.831787E-08  2.126090E-07
         8   6 -5.523945E-06  5.590187E-06  4.210957E-07  1.313337E-06 -8.831786E-08  2.126091E-07
         8   7 -9.441941E-06  2.977394E-06 -4.210325E-07  2.875545E-06 -8.831787E-08  2.126090E-07
         8   8 -8.940960E-06  4.387982E-06 -1.745407E-07  1.768140E-06 -8.831788E-08  2.126090E-07
         9   1  1.302445E-14 -2.200362E-14  6.541845E-14 -1.751404E-14 -4.004872E-15 -4.434380E-16
         9   2 -2.496965E-14 -9.502579E-14  1.179361E-14 -3.502807E-14  3.102320E-14  3.063935E-14
         9   3  1.172642E-14 -2.330165E-14  6.238971E-14 -1.751404E-14 -7.950151E-15 -4.434380E-16
         9   4  6.070015E-14  1.219993E-13  8.033457E-14  3.064956E-14 -4.297822E-14 -3.941679E-14
         9   5 -1.708729E-13 -4.510975E-13 -1.184789E-13 -1.401123E-13 -4.997446E-14 -3.668300E-14
         9   6  1.301398E-15 -3.372667E-14  3.806467E-14 -1.751404E-14  4.635274E-14  4.492021E-14
         9   7 -1.721709E-13 -4.523955E-13 -1.215077E-13 -1.401123E-13 -2.967037E-14 -1.654933E-15
         9   8 -6.408735E-14 -1.691716E-13 -4.445293E-14 -5.254211E-14 -1.215633E-14  1.135122E-15

 strains (elem, integ.pnt.,exx,eyy,ezz,exy,exz,eyz) forset EALL and time  0.1567812E+00

         1   1 -1.532373E-12 -1.532373E-12  1.313463E-12  2.682692E-20 -3.749659E-21 -3.749987E-21
         1   2 -1.532373E-12 -1.532373E-12  1.313463E-12  6.347319E-20 -1.256062E-20 -3.749694E-21
         1   3 -1.532373E-12 -1.532373E-12  1.313463E-12  6.347318E-20 -3.749848E-21 -1.256245E-20
         1   4 -1.532373E-12 -1.532373E-12  1.313463E-12  1.001194E-19 -1.256109E-20 -1.256113E-20
         1   5 -1.532373E-12 -1.532373E-12  1.313463E-12  2.682730E-20 -5.182961E-21 -5.182680E-21
         1   6 -1.532373E-12 -1.532373E-12  1.313463E-12  6.347316E-20 -1.399392E-20 -5.182614E-21
         1   7 -1.532373E-12 -1.532373E-12  1.313463E-12  6.347501E-20 -5.183377E-21 -1.399514E-20
         1   8 -1.532373E-12 -1.532373E-12  1.313463E-12  1.001209E-19 -1.399462E-20 -1.399405E-20
         2   1 -1.573985E-11  4.306637E-11 -1.146926E-11  2.643955E-12 -3.026365E-13  1.137198E-20
         2   2 -1.573985E-11  3.991895E-11 -1.060458E-11  2.643955E-12 -3.026367E-13  1.914681E-21
         2   3 -1.573985E-11  4.306637E-11 -1.146926E-11  1.070246E-12 -3.026365E-13  1.585770E-19
         2   4 -1.573985E-11  3.991895E-11 -1.060458E-11  1.070246E-12 -3.026366E-13  1.422638E-19
         2   5 -1.573985E-11  4.306637E-11 -1.146926E-11  2.643955E-12  3.026364E-13 -1.047550E-19
         2   6 -1.573985E-11  3.991895E-11 -1.060458E-11  2.643955E-12  3.026362E-13 -1.331942E-19
         2   7 -1.573985E-11  4.306637E-11 -1.146926E-11  1.070246E-12  3.026364E-13  4.245001E-20
         2   8 -1.573985E-11  3.991895E-11 -1.060458E-11  1.070246E-12  3.026362E-13  7.154911E-21
         3   1  7.710570E-12 -1.584599E-11  6.516253E-12  5.886412E-12 -3.262373E-12  8.181898E-14
         3   2  7.710570E-12 -4.958172E-11  1.578431E-11  4.421419E-12 -3.225269E-12  8.181898E-14
         3   3  4.780584E-12 -1.584599E-11  6.977296E-12 -1.098146E-11 -3.262373E-12 -1.737776E-14
         3   4  4.780584E-12 -4.958172E-11  1.624536E-11 -1.244645E-11 -3.225268E-12 -1.737775E-14
         3   5  7.814461E-12 -1.612374E-11  6.516253E-12  5.886412E-12  3.225269E-12  4.045493E-13
         3   6  7.814461E-12 -4.985948E-11  1.578431E-11  4.421419E-12  3.262373E-12  4.045493E-13
         3   7  4.884475E-12 -1.612374E-11  6.977296E-12 -1.098146E-11  3.225269E-12  3.053526E-13
         3   8  4.884475E-12 -4.985948E-11  1.624536E-11 -1.244645E-11  3.262373E-12  3.053526E-13
         4   1  4.306637E-11 -1.573985E-11 -1.146926E-11  2.643955E-12  1.127260E-20 -3.026365E-13
         4   2  4.306637E-11 -1.573985E-11 -1.146926E-11  1.070246E-12  1.586572E-19 -3.026365E-13
         4   3  3.991895E-11 -1.573985E-11 -1.060458E-11  2.643955E-12  2.006030E-21 -3.026367E-13
         4   4  3.991895E-11 -1.573985E-11 -1.060458E-11  1.070246E-12  1.424165E-19 -3.026366E-13
         4   5  4.306637E-11 -1.573985E-11 -1.146926E-11  2.643955E-12 -1.053055E-19  3.026364E-13
         4   6  4.306637E-11 -1.573985E-11 -1.146926E-11  1.070246E-12  4.207916E-20  3.026364E-13
         4   7  3.991895E-11 -1.573985E-11 -1.060458E-11  2.643955E-12 -1.329147E-19  3.026362E-13
         4   8  3.991895E-11 -1.573985E-11 -1.060458E-11  1.070246E-12  7.495828E-21  3.026362E-13
         5   1  2.139053E-11  2.139053E-11 -2.110720E-11  1.407345E-12  1.732785E-12  1.732785E-12
         5   2  2.139053E-11  3.941150E-11 -2.605801E-11  1.041783E-11  1.732785E-12  1.732785E-12
         5   3  3.941150E-11  2.139053E-11 -2.605801E-11  1.041783E-11  1.732785E-12  1.732785E-12
         5   4  3.941150E-11  3.941150E-11 -3.100883E-11  1.942832E-11  1.732785E-12  1.732785E-12
         5   5  2.139053E-11  2.139053E-11 -2.110720E-11  1.407346E-12 -1.732786E-12 -1.732786E-12
         5   6  2.139053E-11  3.941150E-11 -2.605801E-11  1.041783E-11 -1.732786E-12 -1.732786E-12
         5   7  3.941150E-11  2.139053E-11 -2.605801E-11  1.041783E-11 -1.732786E-12 -1.732786E-12
         5   8  3.941150E-11  3.941150E-11 -3.100883E-11  1.942832E-11 -1.732786E-12 -1.732786E-12
         6   1  2.822017E-11 -3.487013E-11  3.467628E-12  1.507017E-11 -1.316882E-12  5.449647E-13
         6   2  2.822017E-11 -4.856571E-11  7.230150E-12  1.790398E-11 -1.316883E-12  5.449645E-13
         6   3  3.388781E-11 -3.487013E-11  1.910585E-12  8.222376E-12 -1.316883E-12  5.449651E-13
         6   4  3.388781E-11 -4.856571E-11  5.673108E-12  1.105619E-11 -1.316883E-12  5.449648E-13
         6   5  2.822017E-11 -3.487013E-11  3.467628E-12  1.507017E-11  1.316883E-12 -5.449652E-13
         6   6  2.822017E-11 -4.856571E-11  7.230150E-12  1.790398E-11  1.316883E-12 -5.449651E-13
         6   7  3.388781E-11 -3.487013E-11  1.910585E-12  8.222375E-12  1.316883E-12 -5.449648E-13
         6   8  3.388781E-11 -4.856571E-11  5.673108E-12  1.105619E-11  1.316883E-12 -5.449651E-13
         7   1 -1.584599E-11  7.710570E-12  6.516253E-12  5.886412E-12  8.181897E-14 -3.262373E-12
         7   2 -1.584599E-11  4.780584E-12  6.977296E-12 -1.098146E-11 -1.737776E-14 -3.262373E-12
         7   3 -4.958172E-11  7.710570E-12  1.578431E-11  4.421419E-12  8.181898E-14 -3.225268E-12
         7   4 -4.958172E-11  4.780584E-12  1.624536E-11 -1.244645E-11 -1.737775E-14 -3.225268E-12
         7   5 -1.612374E-11  7.814461E-12  6.516253E-12  5.886412E-12  4.045493E-13  3.225269E-12
         7   6 -1.612374E-11  4.884475E-12  6.977296E-12 -1.098146E-11  3.053526E-13  3.225269E-12
         7   7 -4.985948E-11  7.814461E-12  1.578431E-11  4.421419E-12  4.045493E-13  3.262373E-12
         7   8 -4.985948E-11  4.884475E-12  1.624536E-11 -1.244645E-11  3.053526E-13  3.262373E-12
         8   1 -3.487013E-11  2.822017E-11  3.467628E-12  1.507017E-11  5.449647E-13 -1.316883E-12
         8   2 -3.487013E-11  3.388781E-11  1.910585E-12  8.222376E-12  5.449648E-13 -1.316882E-12
         8   3 -4.856571E-11  2.822017E-11  7.230150E-12  1.790398E-11  5.449649E-13 -1.316883E-12
         8   4 -4.856571E-11  3.388781E-11  5.673108E-12  1.105619E-11  5.449648E-13 -1.316883E-12
         8   5 -3.487013E-11  2.822017E-11  3.467628E-12  1.507017E-11 -5.449650E-13  1.316883E-12
         8   6 -3.487013E-11  3.388781E-11  1.910585E-12  8.222376E-12 -5.449649E-13  1.316883E-12
         8   7 -4.856571E-11  2.822017E-11  7.230150E-12  1.790398E-11 -5.449650E-13  1.316883E-12
         8   8 -4.856571E-11  3.388781E-11  5.673108E-12  1.105619E-11 -5.449651E-13  1.316883E-12
         9   1  1.229293E-39 -2.168404E-19  3.243438E-19 -1.084202E-19 -2.479207E-20 -2.745092E-21
         9   2  1.229293E-39 -4.336809E-19  2.275821E-19 -2.168404E-19  1.920484E-19  1.896722E-19
         9   3  4.844276E-39 -2.168404E-19  3.136299E-19 -1.084202E-19 -4.921522E-20 -2.745092E-21
         9   4  4.844276E-39  3.794708E-19  1.215464E-19  1.897354E-19 -2.660557E-19 -2.440087E-19
         9   5  1.712184E-38 -1.734723E-18  3.243438E-19 -8.673617E-19 -3.093657E-19 -2.270853E-19
         9   6  1.712184E-38 -2.168404E-19  2.275821E-19 -1.084202E-19  2.869455E-19  2.780775E-19
         9   7  6.747206E-38 -1.734723E-18  3.136299E-19 -8.673617E-19 -1.836737E-19 -1.024482E-20
         9   8  6.747206E-38 -6.505213E-19  1.215464E-19 -3.252607E-19 -7.525348E-20  7.026945E-21

 displacements (vx,vy,vz) for set NALL and time  0.1657812E+00

         1  0.000000E+00  0.000000E+00  0.000000E+00
         2 -5.869085E-10  0.000000E+00  0.000000E+00
         3 -3.081270E-02  0.000000E+00  0.000000E+00
         4 -3.081270E-02  0.000000E+00  0.000000E+00
         5 -1.150666E-01  0.000000E+00  0.000000E+00
         6 -1.150666E-01  0.000000E+00  0.000000E+00
         7  0.000000E+00 -5.869085E-10  0.000000E+00
         8 -5.869084E-10 -5.869084E-10  0.000000E+00
         9 -3.081269E-02  2.238282E-08  0.000000E+00
        10 -3.081270E-02  1.960814E-08  0.000000E+00
        11 -1.150666E-01  7.825308E-10  0.000000E+00
        12 -1.150666E-01 -3.060542E-08  0.000000E+00
        13  0.000000E+00 -3.081270E-02  0.000000E+00
        14  2.238282E-08 -3.081269E-02  0.000000E+00
        15  7.293219E-01  7.293219E-01  0.000000E+00
        16  7.293219E-01  7.293219E-01  0.000000E+00
        17  1.223963E+00 -3.230709E-01  0.000000E+00
        18  1.223468E+00 -1.026924E+00  0.000000E+00
        19  0.000000E+00 -3.081270E-02  0.000000E+00
        20  1.960814E-08 -3.081270E-02  0.000000E+00
        21  7.293219E-01  7.293219E-01  0.000000E+00
        22  7.293219E-01  7.293219E-01  0.000000E+00
        23  1.927817E+00 -3.235664E-01  0.000000E+00
        24  1.927321E+00 -1.027419E+00  0.000000E+00
        25  0.000000E+00 -1.150666E-01  0.000000E+00
        26  7.825308E-10 -1.150666E-01  0.000000E+00
        27 -3.230709E-01  1.223963E+00  0.000000E+00
        28 -3.235664E-01  1.927817E+00  0.000000E+00
        29 -4.973437E+00 -4.973437E+00  0.000000E+00
        30 -4.973437E+00 -4.973437E+00  0.000000E+00
        31  0.000000E+00 -1.150666E-01  0.000000E+00
        32 -3.060542E-08 -1.150666E-01  0.000000E+00
        33 -1.026924E+00  1.223468E+00  0.000000E+00
        34 -1.027419E+00  1.927321E+00  0.000000E+00
        35 -4.973437E+00 -4.973437E+00  0.000000E+00
        36 -4.973437E+00 -4.973437E+00  0.000000E+00
        37  0.000000E+00  0.000000E+00  7.042901E-10
        38 -5.869085E-10  0.000000E+00  7.042901E-10
        39 -3.081270E-02  0.000000E+00 -8.496912E-09
        40 -3.081270E-02  0.000000E+00 -7.429730E-09
        41 -1.150666E-01  0.000000E+00  1.007049E-09
        42 -1.150666E-01  0.000000E+00  1.307934E-08
        43  0.000000E+00 -5.869085E-10  7.042901E-10
        44 -5.869084E-10 -5.869084E-10  7.042901E-10
        45 -3.081269E-02  2.238282E-08 -8.496913E-09
        46 -3.081270E-02  1.960814E-08 -7.429730E-09
        47 -1.150666E-01  5.342876E-10  1.583937E-09
        48 -1.150666E-01 -3.085367E-08  1.365623E-08
        49  0.000000E+00 -3.081270E-02 -8.496912E-09
        50  2.238282E-08 -3.081269E-02 -8.496913E-09
        51  7.293219E-01  7.293219E-01 -1.212975E-08
        52  7.293219E-01  7.293219E-01 -1.847652E-08
        53  1.223963E+00 -3.230709E-01  1.024710E-09
        54  1.223468E+00 -1.026924E+00  6.164347E-09
        55  0.000000E+00 -3.081270E-02 -7.429730E-09
        56  1.960814E-08 -3.081270E-02 -7.429730E-09
        57  7.293219E-01  7.293219E-01 -1.847652E-08
        58  7.293219E-01  7.293219E-01 -2.482329E-08
        59  1.927817E+00 -3.235664E-01 -1.050586E-09
        60  1.927321E+00 -1.027419E+00  4.089052E-09
        61  0.000000E+00 -1.150666E-01  1.007049E-09
        62  5.342876E-10 -1.150666E-01  1.583937E-09
        63 -3.230709E-01  1.223963E+00  1.024710E-09
        64 -3.235664E-01  1.927817E+00 -1.050586E-09
        65 -4.973437E+00 -4.973437E+00 -1.502235E-16
        66 -4.973437E+00 -4.973437E+00 -1.989931E-17
        67  0.000000E+00 -1.150666E-01  1.307934E-08
        68 -3.085367E-08 -1.150666E-01  1.365623E-08
        69 -1.026924E+00  1.223468E+00  6.164347E-09
        70 -1.027419E+00  1.927321E+00  4.089052E-09
        71 -4.973437E+00 -4.973437E+00  2.148373E-16
        72 -4.973437E+00 -4.973437E+00  2.962144E-16

 stresses (elem, integ.pnt.,sxx,syy,szz,sxy,sxz,syz) for set EALL and time  0.1657812E+00

         1   1 -3.521451E-07 -3.521451E-07 -4.930925E-15  4.446635E-15 -6.297239E-16 -6.296820E-16
         1   2 -3.521451E-07 -3.521451E-07  3.476958E-15  1.052087E-14 -2.068794E-15 -6.296820E-16
         1   3 -3.521451E-07 -3.521451E-07  3.476667E-15  1.052084E-14 -6.297239E-16 -2.068502E-15
         1   4 -3.521451E-07 -3.521451E-07  1.188455E-14  1.659507E-14 -2.068795E-15 -2.068502E-15
         1   5 -3.521451E-07 -3.521451E-07 -1.097450E-14  4.446635E-15 -9.110910E-16 -9.111849E-16
         1   6 -3.521451E-07 -3.521451E-07 -2.566613E-15  1.052087E-14 -2.350162E-15 -9.111849E-16
         1   7 -3.521451E-07 -3.521451E-07 -2.566904E-15  1.052084E-14 -9.110910E-16 -2.350005E-15
         1   8 -3.521451E-07 -3.521451E-07  5.840979E-15  1.659507E-14 -2.350162E-15 -2.350005E-15
         2   1 -5.167595E-07  9.020386E-06  6.967092E-08  4.347671E-07 -4.976501E-08  1.893379E-15
         2   2 -7.982871E-07  8.221303E-06 -6.967094E-08  4.347672E-07 -4.976503E-08  3.061438E-16
         2   3 -5.167594E-07  9.020386E-06  6.967093E-08  1.759893E-07 -4.976500E-08  2.727386E-14
         2   4 -7.982870E-07  8.221303E-06 -6.967094E-08  1.759893E-07 -4.976503E-08  2.438990E-14
         2   5 -5.167596E-07  9.020386E-06  6.967092E-08  4.347671E-07  4.976498E-08 -1.831298E-14
         2   6 -7.982871E-07  8.221303E-06 -6.967094E-08  4.347672E-07  4.976495E-08 -2.293990E-14
         2   7 -5.167595E-07  9.020386E-06  6.967093E-08  1.759893E-07  4.976498E-08  7.066860E-15
         2   8 -7.982870E-07  8.221303E-06 -6.967094E-08  1.759893E-07  4.976495E-08  1.143217E-15
         3   1  1.211079E-06 -1.841451E-06  9.149288E-07  1.104353E-06 -5.660495E-07  1.364022E-08
         3   2 -1.973647E-06 -1.088093E-05 -6.613500E-07  8.601206E-07 -5.598638E-07  1.364022E-08
         3   3  4.139128E-07 -2.150153E-06  6.830884E-07 -1.823022E-06 -5.660495E-07 -2.897082E-09
         3   4 -2.770814E-06 -1.118963E-05 -8.931905E-07 -2.067254E-06 -5.598638E-07 -2.897081E-09
         3   5  1.206661E-06 -1.909494E-06  8.931905E-07  1.104353E-06  5.598639E-07  6.744327E-08
         3   6 -1.978066E-06 -1.094897E-05 -6.830884E-07  8.601206E-07  5.660495E-07  6.744328E-08
         3   7  4.094944E-07 -2.218196E-06  6.613500E-07 -1.823022E-06  5.598639E-07  5.090598E-08
         3   8 -2.775232E-06 -1.125767E-05 -9.149288E-07 -2.067254E-06  5.660496E-07  5.090598E-08
         4   1  9.020386E-06 -5.167595E-07  6.967092E-08  4.347671E-07  1.884333E-15 -4.976501E-08
         4   2  9.020386E-06 -5.167594E-07  6.967093E-08  1.759893E-07  2.731597E-14 -4.976500E-08
         4   3  8.221303E-06 -7.982871E-07 -6.967094E-08  4.347672E-07  3.117729E-16 -4.976503E-08
         4   4  8.221303E-06 -7.982870E-07 -6.967094E-08  1.759893E-07  2.436752E-14 -4.976503E-08
         4   5  9.020386E-06 -5.167596E-07  6.967092E-08  4.347672E-07 -1.839790E-14  4.976498E-08
         4   6  9.020386E-06 -5.167595E-07  6.967093E-08  1.759893E-07  7.033099E-15  4.976498E-08
         4   7  8.221303E-06 -7.982871E-07 -6.967094E-08  4.347672E-07 -2.289088E-14  4.976495E-08
         4   8  8.221303E-06 -7.982870E-07 -6.967094E-08  1.759893E-07  1.164225E-15  4.976495E-08
         5   1  6.024944E-06  6.024944E-06 -8.286974E-07  2.704839E-07  2.959632E-07  2.959632E-07
         5   2  7.699250E-06  1.077727E-05  1.739677E-14  1.809493E-06  2.959632E-07  2.959632E-07
         5   3  1.077727E-05  7.699250E-06  4.472245E-14  1.809493E-06  2.959632E-07  2.959632E-07
         5   4  1.245158E-05  1.245158E-05  8.286975E-07  3.348502E-06  2.959632E-07  2.959632E-07
         5   5  6.024944E-06  6.024944E-06 -8.286974E-07  2.704839E-07 -2.959633E-07 -2.959633E-07
         5   6  7.699250E-06  1.077727E-05  1.249725E-14  1.809493E-06 -2.959633E-07 -2.959633E-07
         5   7  1.077727E-05  7.699250E-06  3.161322E-14  1.809493E-06 -2.959633E-07 -2.959633E-07
         5   8  1.245158E-05  1.245158E-05  8.286975E-07  3.348502E-06 -2.959633E-07 -2.959633E-07
         6   1  4.209968E-06 -5.214964E-06  2.001856E-07  2.516716E-06 -2.395357E-07  9.711272E-08
         6   2  2.855520E-06 -9.064829E-06 -4.708969E-07  3.016437E-06 -2.395358E-07  9.711271E-08
         6   3  5.760395E-06 -4.663981E-06  4.711570E-07  1.269008E-06 -2.395357E-07  9.711278E-08
         6   4  4.405947E-06 -8.513845E-06 -1.999255E-07  1.768730E-06 -2.395358E-07  9.711273E-08
         6   5  4.209968E-06 -5.214964E-06  2.001856E-07  2.516716E-06  2.395358E-07 -9.711280E-08
         6   6  2.855520E-06 -9.064829E-06 -4.708970E-07  3.016437E-06  2.395358E-07 -9.711279E-08
         6   7  5.760395E-06 -4.663981E-06  4.711568E-07  1.269008E-06  2.395359E-07 -9.711274E-08
         6   8  4.405946E-06 -8.513845E-06 -1.999256E-07  1.768730E-06  2.395358E-07 -9.711280E-08
         7   1 -1.841451E-06  1.211079E-06  9.149288E-07  1.104353E-06  1.364022E-08 -5.660495E-07
         7   2 -2.150153E-06  4.139128E-07  6.830884E-07 -1.823022E-06 -2.897082E-09 -5.660495E-07
         7   3 -1.088093E-05 -1.973647E-06 -6.613500E-07  8.601206E-07  1.364022E-08 -5.598638E-07
         7   4 -1.118963E-05 -2.770814E-06 -8.931905E-07 -2.067254E-06 -2.897081E-09 -5.598638E-07
         7   5 -1.909494E-06  1.206661E-06  8.931905E-07  1.104353E-06  6.744327E-08  5.598639E-07
         7   6 -2.218196E-06  4.094944E-07  6.613500E-07 -1.823022E-06  5.090598E-08  5.598639E-07
         7   7 -1.094897E-05 -1.978066E-06 -6.830884E-07  8.601206E-07  6.744328E-08  5.660495E-07
         7   8 -1.125767E-05 -2.775232E-06 -9.149288E-07 -2.067254E-06  5.090598E-08  5.660495E-07
         8   1 -5.214964E-06  4.209968E-06  2.001856E-07  2.516716E-06  9.711273E-08 -2.395358E-07
         8   2 -4.663981E-06  5.760395E-06  4.711571E-07  1.269008E-06  9.711274E-08 -2.395357E-07
         8   3 -9.064829E-06  2.855520E-06 -4.708969E-07  3.016437E-06  9.711276E-08 -2.395358E-07
         8   4 -8.513845E-06  4.405947E-06 -1.999254E-07  1.768730E-06  9.711273E-08 -2.395358E-07
         8   5 -5.214964E-06  4.209968E-06  2.001856E-07  2.516716E-06 -9.711278E-08  2.395358E-07
         8   6 -4.663981E-06  5.760395E-06  4.711569E-07  1.269008E-06 -9.711276E-08  2.395359E-07
         8   7 -9.064829E-06  2.855520E-06 -4.708969E-07  3.016437E-06 -9.711277E-08  2.395358E-07
         8   8 -8.513845E-06  4.405946E-06 -1.999256E-07  1.768730E-06 -9.711277E-08  2.395358E-07
         9   1 -1.396149E-13 -3.147552E-13 -1.506277E-13 -8.757018E-14 -1.009884E-13 -9.297520E-14
         9   2  1.482203E-13  3.408747E-13  1.531931E-13  9.632719E-14  4.788087E-14  5.492940E-14
         9   3 -1.041694E-13 -2.793098E-13 -6.792161E-14 -8.757018E-14 -6.692506E-14 -5.794713E-14
         9   4  1.545709E-13  3.121972E-13  2.030391E-13  7.881316E-14 -6.692506E-14 -5.891183E-14
         9   5 -8.259610E-15 -8.259610E-15 -1.927242E-14  3.757040E-32 -3.725644E-14 -7.350665E-15
         9   6 -1.276257E-13 -3.027661E-13 -1.226530E-13 -8.757018E-14 -5.039196E-14 -2.408650E-14
         9   7 -1.829826E-13 -4.632071E-13 -1.467348E-13 -1.401123E-13  1.168536E-14  4.519144E-14
         9   8  8.889325E-14  1.589494E-13  1.373614E-13  3.502807E-14 -7.588482E-14 -4.597905E-14

 strains (elem, integ.pnt.,exx,eyy,ezz,exy,exz,eyz) forset EALL and time  0.1657812E+00

         1   1 -1.173817E-12 -1.173817E-12  1.006129E-12  2.752679E-20 -3.898291E-21 -3.898031E-21
         1   2 -1.173817E-12 -1.173817E-12  1.006129E-12  6.512918E-20 -1.280682E-20 -3.898031E-21
         1   3 -1.173817E-12 -1.173817E-12  1.006129E-12  6.512898E-20 -3.898291E-21 -1.280501E-20
         1   4 -1.173817E-12 -1.173817E-12  1.006129E-12  1.027314E-19 -1.280682E-20 -1.280501E-20
         1   5 -1.173817E-12 -1.173817E-12  1.006129E-12  2.752679E-20 -5.640087E-21 -5.640668E-21
         1   6 -1.173817E-12 -1.173817E-12  1.006129E-12  6.512918E-20 -1.454862E-20 -5.640669E-21
         1   7 -1.173817E-12 -1.173817E-12  1.006129E-12  6.512898E-20 -5.640087E-21 -1.454765E-20
         1   8 -1.173817E-12 -1.173817E-12  1.006129E-12  1.027314E-19 -1.454862E-20 -1.454765E-20
         2   1 -1.544656E-11  4.359292E-11 -1.181627E-11  2.691416E-12 -3.080691E-13  1.171934E-20
         2   2 -1.544656E-11  4.038900E-11 -1.093607E-11  2.691416E-12 -3.080692E-13  1.893601E-21
         2   3 -1.544655E-11  4.359292E-11 -1.181627E-11  1.089457E-12 -3.080691E-13  1.688363E-19
         2   4 -1.544655E-11  4.038900E-11 -1.093607E-11  1.089458E-12 -3.080692E-13  1.509833E-19
         2   5 -1.544656E-11  4.359292E-11 -1.181627E-11  2.691416E-12  3.080689E-13 -1.133702E-19
         2   6 -1.544656E-11  4.038900E-11 -1.093607E-11  2.691416E-12  3.080688E-13 -1.420131E-19
         2   7 -1.544656E-11  4.359292E-11 -1.181627E-11  1.089457E-12  3.080689E-13  4.374674E-20
         2   8 -1.544656E-11  4.038900E-11 -1.093607E-11  1.089458E-12  3.080688E-13  7.076570E-21
         3   1  7.090646E-12 -1.180597E-11  5.257336E-12  6.836469E-12 -3.504116E-12  8.443943E-14
         3   2  7.090646E-12 -4.804966E-11  1.521439E-11  5.324556E-12 -3.465823E-12  8.443943E-14
         3   3  4.066820E-12 -1.180597E-11  5.733145E-12 -1.128538E-11 -3.504116E-12 -1.793432E-14
         3   4  4.066820E-12 -4.804966E-11  1.569020E-11 -1.279729E-11 -3.465823E-12 -1.793431E-14
         3   5  7.197865E-12 -1.209262E-11  5.257336E-12  6.836469E-12  3.465824E-12  4.175060E-13
         3   6  7.197865E-12 -4.833630E-11  1.521439E-11  5.324556E-12  3.504116E-12  4.175060E-13
         3   7  4.174039E-12 -1.209262E-11  5.733145E-12 -1.128538E-11  3.465824E-12  3.151322E-13
         3   8  4.174039E-12 -4.833630E-11  1.569020E-11 -1.279729E-11  3.504116E-12  3.151323E-13
         4   1  4.359292E-11 -1.544656E-11 -1.181627E-11  2.691416E-12  1.166334E-20 -3.080691E-13
         4   2  4.359292E-11 -1.544655E-11 -1.181627E-11  1.089457E-12  1.690970E-19 -3.080691E-13
         4   3  4.038900E-11 -1.544656E-11 -1.093607E-11  2.691416E-12  1.928448E-21 -3.080692E-13
         4   4  4.038900E-11 -1.544655E-11 -1.093607E-11  1.089458E-12  1.508447E-19 -3.080692E-13
         4   5  4.359292E-11 -1.544656E-11 -1.181627E-11  2.691416E-12 -1.138959E-19  3.080689E-13
         4   6  4.359292E-11 -1.544656E-11 -1.181627E-11  1.089457E-12  4.353775E-20  3.080689E-13
         4   7  4.038900E-11 -1.544656E-11 -1.093607E-11  2.691416E-12 -1.417096E-19  3.080688E-13
         4   8  4.038900E-11 -1.544656E-11 -1.093607E-11  1.089458E-12  7.206623E-21  3.080688E-13
         5   1  2.126700E-11  2.126700E-11 -2.116030E-11  1.674424E-12  1.832153E-12  1.832153E-12
         5   2  2.126700E-11  4.032140E-11 -2.639503E-11  1.120162E-11  1.832153E-12  1.832153E-12
         5   3  4.032140E-11  2.126700E-11 -2.639503E-11  1.120162E-11  1.832153E-12  1.832153E-12
         5   4  4.032140E-11  4.032140E-11 -3.162975E-11  2.072882E-11  1.832153E-12  1.832153E-12
         5   5  2.126700E-11  2.126700E-11 -2.116030E-11  1.674424E-12 -1.832154E-12 -1.832154E-12
         5   6  2.126700E-11  4.032140E-11 -2.639503E-11  1.120162E-11 -1.832154E-12 -1.832154E-12
         5   7  4.032140E-11  2.126700E-11 -2.639503E-11  1.120162E-11 -1.832154E-12 -1.832154E-12
         5   8  4.032140E-11  4.032140E-11 -3.162975E-11  2.072882E-11 -1.832154E-12 -1.832154E-12
         6   1  2.716746E-11 -3.108941E-11  2.388974E-12  1.566174E-11 -1.483685E-12  5.990860E-13
         6   2  2.716746E-11 -4.651974E-11  6.628075E-12  1.877699E-11 -1.483685E-12  5.990859E-13
         6   3  3.339796E-11 -3.108941E-11  6.772985E-13  7.946575E-12 -1.483685E-12  5.990864E-13
         6   4  3.339796E-11 -4.651974E-11  4.916400E-12  1.106182E-11 -1.483686E-12  5.990860E-13
         6   5  2.716746E-11 -3.108941E-11  2.388974E-12  1.566174E-11  1.483686E-12 -5.990865E-13
         6   6  2.716746E-11 -4.651974E-11  6.628075E-12  1.877699E-11  1.483685E-12 -5.990864E-13
         6   7  3.339796E-11 -3.108941E-11  6.772985E-13  7.946575E-12  1.483686E-12 -5.990861E-13
         6   8  3.339796E-11 -4.651974E-11  4.916400E-12  1.106182E-11  1.483686E-12 -5.990865E-13
         7   1 -1.180597E-11  7.090646E-12  5.257336E-12  6.836469E-12  8.443943E-14 -3.504116E-12
         7   2 -1.180597E-11  4.066820E-12  5.733145E-12 -1.128538E-11 -1.793432E-14 -3.504116E-12
         7   3 -4.804966E-11  7.090646E-12  1.521439E-11  5.324556E-12  8.443943E-14 -3.465823E-12
         7   4 -4.804966E-11  4.066820E-12  1.569020E-11 -1.279729E-11 -1.793431E-14 -3.465823E-12
         7   5 -1.209262E-11  7.197865E-12  5.257336E-12  6.836469E-12  4.175060E-13  3.465824E-12
         7   6 -1.209262E-11  4.174039E-12  5.733145E-12 -1.128538E-11  3.151322E-13  3.465824E-12
         7   7 -4.833630E-11  7.197865E-12  1.521439E-11  5.324556E-12  4.175060E-13  3.504116E-12
         7   8 -4.833630E-11  4.174039E-12  1.569020E-11 -1.279729E-11  3.151323E-13  3.504116E-12
         8   1 -3.108941E-11  2.716746E-11  2.388973E-12  1.566174E-11  5.990861E-13 -1.483685E-12
         8   2 -3.108941E-11  3.339796E-11  6.772987E-13  7.946574E-12  5.990861E-13 -1.483685E-12
         8   3 -4.651974E-11  2.716746E-11  6.628075E-12  1.877699E-11  5.990862E-13 -1.483686E-12
         8   4 -4.651974E-11  3.339796E-11  4.916400E-12  1.106182E-11  5.990860E-13 -1.483685E-12
         8   5 -3.108941E-11  2.716746E-11  2.388973E-12  1.566174E-11 -5.990864E-13  1.483686E-12
         8   6 -3.108941E-11  3.339796E-11  6.772987E-13  7.946574E-12 -5.990862E-13  1.483686E-12
         8   7 -4.651974E-11  2.716746E-11  6.628075E-12  1.877699E-11 -5.990863E-13  1.483686E-12
         8   8 -4.651974E-11  3.339796E-11  4.916400E-12  1.106182E-11 -5.990863E-13  1.483686E-12
         9   1  1.285736E-39 -1.084202E-18 -6.817455E-20 -5.421011E-19 -6.251665E-19 -5.755608E-19
         9   2  1.285736E-39  1.192622E-18  3.078362E-20  5.963112E-19  2.964054E-19  3.400391E-19
         9   3  7.513925E-40 -1.084202E-18  2.243912E-19 -5.421011E-19 -4.142980E-19 -3.587203E-19
         9   4  7.513925E-40  9.757820E-19  3.000412E-19  4.878910E-19 -4.142980E-19 -3.646923E-19
         9   5  1.790800E-38  1.565274E-37 -6.817455E-20  5.294424E-38 -2.306351E-19 -4.550412E-20
         9   6  1.790800E-38 -1.084202E-18  3.078362E-20 -5.421011E-19 -3.119502E-19 -1.491069E-19
         9   7  1.046555E-38 -1.734723E-18  2.243912E-19 -8.673617E-19  7.233792E-20  2.797565E-19
         9   8  1.046555E-38  4.336809E-19  3.000412E-19  2.168404E-19 -4.697632E-19 -2.846322E-19

 displacements (vx,vy,vz) for set NALL and time  0.1747812E+00

         1  0.000000E+00  0.000000E+00  0.000000E+00
         2 -4.139837E-10  0.000000E+00  0.000000E+00
         3 -2.173415E-02  0.000000E+00  0.000000E+00
         4 -2.173415E-02  0.000000E+00  0.000000E+00
         5 -9.691891E-02  0.000000E+00  0.000000E+00
         6 -9.691890E-02  0.000000E+00  0.000000E+00
         7  0.000000E+00 -4.139837E-10  0.000000E+00
         8 -4.139837E-10 -4.139837E-10  0.000000E+00
         9 -2.173414E-02  2.243493E-08  0.000000E+00
        10 -2.173415E-02  1.965977E-08  0.000000E+00
        11 -9.691889E-02  3.078048E-09  0.000000E+00
        12 -9.691889E-02 -3.012047E-08  0.000000E+00
        13  0.000000E+00 -2.173415E-02  0.000000E+00
        14  2.243493E-08 -2.173414E-02  0.000000E+00
        15  7.342446E-01  7.342446E-01  0.000000E+00
        16  7.342446E-01  7.342446E-01  0.000000E+00
        17  1.220857E+00 -2.536176E-01  0.000000E+00
        18  1.220325E+00 -9.830749E-01  0.000000E+00
        19  0.000000E+00 -2.173415E-02  0.000000E+00
        20  1.965977E-08 -2.173415E-02  0.000000E+00
        21  7.342446E-01  7.342446E-01  0.000000E+00
        22  7.342446E-01  7.342446E-01  0.000000E+00
        23  1.950315E+00 -2.541497E-01  0.000000E+00
        24  1.949783E+00 -9.836071E-01  0.000000E+00
        25  0.000000E+00 -9.691891E-02  0.000000E+00
        26  3.078048E-09 -9.691889E-02  0.000000E+00
        27 -2.536176E-01  1.220857E+00  0.000000E+00
        28 -2.541497E-01  1.950315E+00  0.000000E+00
        29 -5.243437E+00 -5.243437E+00  0.000000E+00
        30 -5.243437E+00 -5.243437E+00  0.000000E+00
        31  0.000000E+00 -9.691890E-02  0.000000E+00
        32 -3.012047E-08 -9.691889E-02  0.000000E+00
        33 -9.830749E-01  1.220325E+00  0.000000E+00
        34 -9.836071E-01  1.949783E+00  0.000000E+00
        35 -5.243437E+00 -5.243437E+00  0.000000E+00
        36 -5.243437E+00 -5.243437E+00  0.000000E+00
        37  0.000000E+00  0.000000E+00  4.967805E-10
        38 -4.139838E-10  0.000000E+00  4.967805E-10
        39 -2.173415E-02  0.000000E+00 -8.653604E-09
        40 -2.173416E-02  0.000000E+00 -7.586234E-09
        41 -9.691891E-02  0.000000E+00  8.992032E-12
        42 -9.691891E-02  0.000000E+00  1.277765E-08
        43  0.000000E+00 -4.139838E-10  4.967805E-10
        44 -4.139837E-10 -4.139837E-10  4.967805E-10
        45 -2.173414E-02  2.243493E-08 -8.653604E-09
        46 -2.173415E-02  1.965977E-08 -7.586234E-09
        47 -9.691890E-02  2.827559E-09  5.910997E-10
        48 -9.691890E-02 -3.037096E-08  1.335976E-08
        49  0.000000E+00 -2.173415E-02 -8.653604E-09
        50  2.243493E-08 -2.173414E-02 -8.653604E-09
        51  7.342446E-01  7.342446E-01 -1.190577E-08
        52  7.342446E-01  7.342446E-01 -1.852969E-08
        53  1.220857E+00 -2.536176E-01  2.591118E-10
        54  1.220325E+00 -9.830749E-01  5.922868E-09
        55  0.000000E+00 -2.173416E-02 -7.586234E-09
        56  1.965977E-08 -2.173415E-02 -7.586234E-09
        57  7.342446E-01  7.342446E-01 -1.852969E-08
        58  7.342446E-01  7.342446E-01 -2.515360E-08
        59  1.950315E+00 -2.541497E-01 -2.035789E-09
        60  1.949783E+00 -9.836071E-01  3.627967E-09
        61  0.000000E+00 -9.691891E-02  8.992034E-12
        62  2.827559E-09 -9.691890E-02  5.910997E-10
        63 -2.536176E-01  1.220857E+00  2.591116E-10
        64 -2.541497E-01  1.950315E+00 -2.035789E-09
        65 -5.243437E+00 -5.243437E+00  2.469907E-16
        66 -5.243437E+00 -5.243437E+00 -2.467411E-16
        67  0.000000E+00 -9.691891E-02  1.277765E-08
        68 -3.037096E-08 -9.691890E-02  1.335976E-08
        69 -9.830749E-01  1.220325E+00  5.922868E-09
        70 -9.836071E-01  1.949783E+00  3.627967E-09
        71 -5.243437E+00 -5.243437E+00 -7.720907E-17
        72 -5.243437E+00 -5.243437E+00  2.595865E-17

 stresses (elem, integ.pnt.,sxx,syy,szz,sxy,sxz,syz) for set EALL and time  0.1747812E+00

         1   1 -2.483902E-07 -2.483902E-07 -5.048494E-15  4.479873E-15 -6.418730E-16 -6.418730E-16
         1   2 -2.483902E-07 -2.483902E-07  3.322060E-15  1.059949E-14 -2.071953E-15 -6.418730E-16
         1   3 -2.483902E-07 -2.483902E-07  3.322060E-15  1.059949E-14 -6.418730E-16 -2.071953E-15
         1   4 -2.483902E-07 -2.483902E-07  1.169261E-14  1.671911E-14 -2.071953E-15 -2.071953E-15
         1   5 -2.483903E-07 -2.483903E-07 -1.105483E-14  4.479873E-15 -9.654232E-16 -9.654232E-16
         1   6 -2.483902E-07 -2.483902E-07 -2.684274E-15  1.059949E-14 -2.395503E-15 -9.654232E-16
         1   7 -2.483902E-07 -2.483902E-07 -2.684274E-15  1.059949E-14 -9.654232E-16 -2.395503E-15
         1   8 -2.483902E-07 -2.483902E-07  5.686280E-15  1.671911E-14 -2.395503E-15 -2.395503E-15
         2   1 -4.130337E-07  9.073353E-06  6.968320E-08  4.348438E-07 -4.977378E-08  1.980181E-15
         2   2 -6.946109E-07  8.274129E-06 -6.968321E-08  4.348438E-07 -4.977380E-08  2.703836E-16
         2   3 -4.130336E-07  9.073353E-06  6.968321E-08  1.760203E-07 -4.977378E-08  2.848928E-14
         2   4 -6.946107E-07  8.274129E-06 -6.968321E-08  1.760203E-07 -4.977380E-08  2.550674E-14
         2   5 -4.130338E-07  9.073354E-06  6.968320E-08  4.348438E-07  4.977375E-08 -1.911765E-14
         2   6 -6.946109E-07  8.274129E-06 -6.968321E-08  4.348438E-07  4.977372E-08 -2.422596E-14
         2   7 -4.130336E-07  9.073354E-06  6.968321E-08  1.760203E-07  4.977375E-08  7.390809E-15
         2   8 -6.946108E-07  8.274129E-06 -6.968321E-08  1.760203E-07  4.977372E-08  1.009758E-15
         3   1  1.355662E-06 -9.808745E-07  9.615385E-07  1.241712E-06 -5.985507E-07  1.376363E-08
         3   2 -2.012770E-06 -1.054178E-05 -7.056654E-07  9.952697E-07 -5.923091E-07  1.376363E-08
         3   3  5.512830E-07 -1.292370E-06  7.276004E-07 -1.854524E-06 -5.985507E-07 -2.923293E-09
         3   4 -2.817149E-06 -1.085327E-05 -9.396035E-07 -2.100966E-06 -5.923091E-07 -2.923292E-09
         3   5  1.351203E-06 -1.049533E-06  9.396035E-07  1.241712E-06  5.923091E-07  6.805348E-08
         3   6 -2.017229E-06 -1.061044E-05 -7.276004E-07  9.952697E-07  5.985508E-07  6.805349E-08
         3   7  5.468246E-07 -1.361028E-06  7.056654E-07 -1.854524E-06  5.923091E-07  5.136656E-08
         3   8 -2.821608E-06 -1.092193E-05 -9.615385E-07 -2.100966E-06  5.985508E-07  5.136656E-08
         4   1  9.073353E-06 -4.130337E-07  6.968320E-08  4.348438E-07  1.971733E-15 -4.977378E-08
         4   2  9.073353E-06 -4.130336E-07  6.968321E-08  1.760203E-07  2.853039E-14 -4.977378E-08
         4   3  8.274129E-06 -6.946109E-07 -6.968321E-08  4.348438E-07  2.843657E-16 -4.977380E-08
         4   4  8.274129E-06 -6.946107E-07 -6.968321E-08  1.760203E-07  2.556045E-14 -4.977380E-08
         4   5  9.073354E-06 -4.130338E-07  6.968320E-08  4.348438E-07 -1.919874E-14  4.977375E-08
         4   6  9.073354E-06 -4.130336E-07  6.968321E-08  1.760203E-07  7.359282E-15  4.977375E-08
         4   7  8.274129E-06 -6.946109E-07 -6.968321E-08  4.348438E-07 -2.421351E-14  4.977372E-08
         4   8  8.274129E-06 -6.946108E-07 -6.968321E-08  1.760203E-07  1.061940E-15  4.977372E-08
         5   1  5.911211E-06  5.911211E-06 -8.648843E-07  3.090071E-07  3.088871E-07  3.088871E-07
         5   2  7.658630E-06  1.087106E-05  5.555312E-14  1.915221E-06  3.088871E-07  3.088871E-07
         5   3  1.087106E-05  7.658630E-06  5.461074E-14  1.915221E-06  3.088871E-07  3.088871E-07
         5   4  1.261848E-05  1.261848E-05  8.648844E-07  3.521434E-06  3.088871E-07  3.088871E-07
         5   5  5.911211E-06  5.911211E-06 -8.648843E-07  3.090071E-07 -3.088872E-07 -3.088872E-07
         5   6  7.658630E-06  1.087106E-05  7.364312E-14  1.915220E-06 -3.088872E-07 -3.088872E-07
         5   7  1.087106E-05  7.658630E-06  8.665042E-15  1.915221E-06 -3.088872E-07 -3.088872E-07
         5   8  1.261848E-05  1.261848E-05  8.648844E-07  3.521434E-06 -3.088872E-07 -3.088872E-07
         6   1  4.186425E-06 -4.423037E-06  2.203269E-07  2.578260E-06 -2.639566E-07  1.074013E-07
         6   2  2.693918E-06 -8.665556E-06 -5.191899E-07  3.130734E-06 -2.639566E-07  1.074013E-07
         6   3  5.900789E-06 -3.813622E-06  5.199720E-07  1.203254E-06 -2.639566E-07  1.074014E-07
         6   4  4.408281E-06 -8.056141E-06 -2.195447E-07  1.755729E-06 -2.639566E-07  1.074013E-07
         6   5  4.186425E-06 -4.423037E-06  2.203268E-07  2.578260E-06  2.639567E-07 -1.074014E-07
         6   6  2.693918E-06 -8.665556E-06 -5.191899E-07  3.130734E-06  2.639567E-07 -1.074014E-07
         6   7  5.900789E-06 -3.813622E-06  5.199720E-07  1.203254E-06  2.639567E-07 -1.074013E-07
         6   8  4.408281E-06 -8.056141E-06 -2.195448E-07  1.755729E-06  2.639567E-07 -1.074014E-07
         7   1 -9.808745E-07  1.355662E-06  9.615385E-07  1.241712E-06  1.376363E-08 -5.985507E-07
         7   2 -1.292370E-06  5.512830E-07  7.276004E-07 -1.854524E-06 -2.923293E-09 -5.985507E-07
         7   3 -1.054178E-05 -2.012770E-06 -7.056654E-07  9.952697E-07  1.376363E-08 -5.923090E-07
         7   4 -1.085327E-05 -2.817149E-06 -9.396035E-07 -2.100966E-06 -2.923292E-09 -5.923091E-07
         7   5 -1.049533E-06  1.351203E-06  9.396035E-07  1.241712E-06  6.805348E-08  5.923091E-07
         7   6 -1.361028E-06  5.468246E-07  7.056654E-07 -1.854524E-06  5.136656E-08  5.923091E-07
         7   7 -1.061044E-05 -2.017229E-06 -7.276004E-07  9.952697E-07  6.805349E-08  5.985508E-07
         7   8 -1.092193E-05 -2.821608E-06 -9.615385E-07 -2.100966E-06  5.136656E-08  5.985508E-07
         8   1 -4.423037E-06  4.186425E-06  2.203268E-07  2.578260E-06  1.074013E-07 -2.639566E-07
         8   2 -3.813622E-06  5.900789E-06  5.199721E-07  1.203254E-06  1.074013E-07 -2.639565E-07
         8   3 -8.665556E-06  2.693918E-06 -5.191899E-07  3.130735E-06  1.074013E-07 -2.639567E-07
         8   4 -8.056141E-06  4.408281E-06 -2.195446E-07  1.755729E-06  1.074013E-07 -2.639565E-07
         8   5 -4.423037E-06  4.186425E-06  2.203269E-07  2.578260E-06 -1.074014E-07  2.639566E-07
         8   6 -3.813622E-06  5.900789E-06  5.199720E-07  1.203254E-06 -1.074013E-07  2.639568E-07
         8   7 -8.665556E-06  2.693918E-06 -5.191899E-07  3.130735E-06 -1.074013E-07  2.639567E-07
         8   8 -8.056141E-06  4.408281E-06 -2.195447E-07  1.755729E-06 -1.074013E-07  2.639567E-07
         9   1  1.488010E-13  3.239414E-13  1.720621E-13  8.757018E-14  3.999358E-14  4.578091E-14
         9   2  1.055013E-13  2.718846E-13  7.978631E-14  8.319167E-14  1.810104E-14  3.565270E-14
         9   3  1.290097E-13  3.041500E-13  1.258823E-13  8.757018E-14 -7.841971E-16 -6.761195E-15
         9   4  1.506222E-14  4.133328E-14  8.874139E-15  1.313553E-14  1.672984E-14  2.251717E-14
         9   5 -1.927226E-13 -4.729472E-13 -1.694616E-13 -1.401123E-13 -2.931770E-14 -7.719088E-15
         9   6  3.325588E-14  1.033120E-13  7.540916E-15  3.502807E-14  1.446739E-14  7.997107E-14
         9   7 -2.125140E-13 -4.927385E-13 -2.156414E-13 -1.401123E-13 -2.926663E-15 -2.523312E-14
         9   8 -4.641065E-15 -4.641065E-15 -1.082915E-14  5.744030E-32 -5.546877E-14 -3.387016E-14

 strains (elem, integ.pnt.,exx,eyy,ezz,exy,exz,eyz) forset EALL and time  0.1747812E+00

         1   1 -8.279675E-13 -8.279675E-13  7.096864E-13  2.773254E-20 -3.973500E-21 -3.973500E-21
         1   2 -8.279675E-13 -8.279674E-13  7.096864E-13  6.561590E-20 -1.282637E-20 -3.973500E-21
         1   3 -8.279674E-13 -8.279675E-13  7.096864E-13  6.561590E-20 -3.973500E-21 -1.282637E-20
         1   4 -8.279674E-13 -8.279674E-13  7.096864E-13  1.034993E-19 -1.282637E-20 -1.282637E-20
         1   5 -8.279675E-13 -8.279675E-13  7.096864E-13  2.773254E-20 -5.976429E-21 -5.976429E-21
         1   6 -8.279675E-13 -8.279674E-13  7.096864E-13  6.561590E-20 -1.482930E-20 -5.976429E-21
         1   7 -8.279674E-13 -8.279675E-13  7.096864E-13  6.561590E-20 -5.976429E-21 -1.482930E-20
         1   8 -8.279674E-13 -8.279674E-13  7.096864E-13  1.034993E-19 -1.482930E-20 -1.482930E-20
         2   1 -1.502831E-11  4.369695E-11 -1.204006E-11  2.691890E-12 -3.081234E-13  1.225669E-20
         2   2 -1.502831E-11  4.049246E-11 -1.115971E-11  2.691890E-12 -3.081236E-13  1.672228E-21
         2   3 -1.502831E-11  4.369695E-11 -1.204006E-11  1.089649E-12 -3.081234E-13  1.763604E-19
         2   4 -1.502831E-11  4.049246E-11 -1.115971E-11  1.089650E-12 -3.081235E-13  1.578970E-19
         2   5 -1.502831E-11  4.369695E-11 -1.204006E-11  2.691890E-12  3.081232E-13 -1.183516E-19
         2   6 -1.502831E-11  4.049246E-11 -1.115971E-11  2.691890E-12  3.081230E-13 -1.499744E-19
         2   7 -1.502831E-11  4.369695E-11 -1.204006E-11  1.089649E-12  3.081232E-13  4.575214E-20
         2   8 -1.502831E-11  4.049246E-11 -1.115971E-11  1.089650E-12  3.081231E-13  6.250399E-21
         3   1  6.483155E-12 -7.981117E-12  4.043345E-12  7.686786E-12 -3.705314E-12  8.520341E-14
         3   2  6.483155E-12 -4.631546E-11  1.457476E-11  6.161194E-12 -3.666675E-12  8.520342E-14
         3   3  3.431970E-12 -7.981117E-12  4.523459E-12 -1.148039E-11 -3.705314E-12 -1.809658E-14
         3   4  3.431970E-12 -4.631546E-11  1.505487E-11 -1.300598E-11 -3.666675E-12 -1.809657E-14
         3   5  6.591344E-12 -8.270357E-12  4.043345E-12  7.686786E-12  3.666675E-12  4.212835E-13
         3   6  6.591344E-12 -4.660470E-11  1.457476E-11  6.161194E-12  3.705314E-12  4.212835E-13
         3   7  3.540159E-12 -8.270357E-12  4.523459E-12 -1.148039E-11  3.666676E-12  3.179835E-13
         3   8  3.540159E-12 -4.660470E-11  1.505487E-11 -1.300598E-11  3.705314E-12  3.179835E-13
         4   1  4.369695E-11 -1.502831E-11 -1.204006E-11  2.691890E-12  1.220439E-20 -3.081234E-13
         4   2  4.369695E-11 -1.502831E-11 -1.204006E-11  1.089649E-12  1.766149E-19 -3.081234E-13
         4   3  4.049246E-11 -1.502831E-11 -1.115971E-11  2.691890E-12  1.758783E-21 -3.081236E-13
         4   4  4.049246E-11 -1.502831E-11 -1.115971E-11  1.089650E-12  1.582295E-19 -3.081235E-13
         4   5  4.369695E-11 -1.502831E-11 -1.204006E-11  2.691890E-12 -1.188535E-19  3.081232E-13
         4   6  4.369695E-11 -1.502831E-11 -1.204006E-11  1.089649E-12  4.555698E-20  3.081232E-13
         4   7  4.049246E-11 -1.502831E-11 -1.115971E-11  2.691890E-12 -1.498973E-19  3.081230E-13
         4   8  4.049246E-11 -1.502831E-11 -1.115971E-11  1.089650E-12  6.573431E-21  3.081231E-13
         5   1  2.093958E-11  2.093958E-11 -2.100767E-11  1.912901E-12  1.912158E-12  1.912158E-12
         5   2  2.093958E-11  4.082604E-11 -2.647098E-11  1.185613E-11  1.912158E-12  1.912158E-12
         5   3  4.082604E-11  2.093958E-11 -2.647098E-11  1.185613E-11  1.912158E-12  1.912158E-12
         5   4  4.082604E-11  4.082604E-11 -3.193429E-11  2.179935E-11  1.912158E-12  1.912158E-12
         5   5  2.093958E-11  2.093958E-11 -2.100767E-11  1.912901E-12 -1.912159E-12 -1.912159E-12
         5   6  2.093958E-11  4.082604E-11 -2.647098E-11  1.185613E-11 -1.912159E-12 -1.912159E-12
         5   7  4.082604E-11  2.093958E-11 -2.647098E-11  1.185613E-11 -1.912159E-12 -1.912159E-12
         5   8  4.082604E-11  4.082604E-11 -3.193429E-11  2.179935E-11 -1.912159E-12 -1.912159E-12
         6   1  2.589255E-11 -2.731076E-11  1.387192E-12  1.603835E-11 -1.634985E-12  6.624806E-13
         6   2  2.589255E-11 -4.431461E-11  6.058579E-12  1.948325E-11 -1.634985E-12  6.624805E-13
         6   3  3.278235E-11 -2.731076E-11 -5.056102E-13  7.536420E-12 -1.634985E-12  6.624810E-13
         6   4  3.278235E-11 -4.431461E-11  4.165777E-12  1.098132E-11 -1.634985E-12  6.624805E-13
         6   5  2.589255E-11 -2.731076E-11  1.387192E-12  1.603835E-11  1.634986E-12 -6.624811E-13
         6   6  2.589255E-11 -4.431461E-11  6.058579E-12  1.948325E-11  1.634986E-12 -6.624811E-13
         6   7  3.278235E-11 -2.731076E-11 -5.056102E-13  7.536421E-12  1.634986E-12 -6.624807E-13
         6   8  3.278235E-11 -4.431461E-11  4.165777E-12  1.098132E-11  1.634986E-12 -6.624809E-13
         7   1 -7.981117E-12  6.483155E-12  4.043345E-12  7.686786E-12  8.520341E-14 -3.705314E-12
         7   2 -7.981117E-12  3.431970E-12  4.523459E-12 -1.148039E-11 -1.809658E-14 -3.705314E-12
         7   3 -4.631546E-11  6.483155E-12  1.457476E-11  6.161194E-12  8.520342E-14 -3.666675E-12
         7   4 -4.631546E-11  3.431970E-12  1.505487E-11 -1.300598E-11 -1.809657E-14 -3.666675E-12
         7   5 -8.270357E-12  6.591344E-12  4.043345E-12  7.686786E-12  4.212835E-13  3.666675E-12
         7   6 -8.270357E-12  3.540159E-12  4.523459E-12 -1.148039E-11  3.179835E-13  3.666675E-12
         7   7 -4.660470E-11  6.591344E-12  1.457476E-11  6.161194E-12  4.212835E-13  3.705314E-12
         7   8 -4.660470E-11  3.540159E-12  1.505487E-11 -1.300598E-11  3.179835E-13  3.705314E-12
         8   1 -2.731076E-11  2.589255E-11  1.387192E-12  1.603835E-11  6.624806E-13 -1.634985E-12
         8   2 -2.731076E-11  3.278235E-11 -5.056101E-13  7.536421E-12  6.624807E-13 -1.634985E-12
         8   3 -4.431461E-11  2.589255E-11  6.058579E-12  1.948325E-11  6.624807E-13 -1.634986E-12
         8   4 -4.431461E-11  3.278235E-11  4.165777E-12  1.098132E-11  6.624806E-13 -1.634985E-12
         8   5 -2.731076E-11  2.589255E-11  1.387192E-12  1.603835E-11 -6.624810E-13  1.634986E-12
         8   6 -2.731076E-11  3.278235E-11 -5.056101E-13  7.536421E-12 -6.624809E-13  1.634986E-12
         8   7 -4.431461E-11  2.589255E-11  6.058579E-12  1.948325E-11 -6.624808E-13  1.634986E-12
         8   8 -4.431461E-11  3.278235E-11  4.165777E-12  1.098132E-11 -6.624808E-13  1.634986E-12
         9   1  1.206878E-38  1.084202E-18  1.439970E-19  5.421011E-19  2.475793E-19  2.834056E-19
         9   2  1.206878E-38  1.029992E-18 -1.591879E-19  5.149960E-19  1.120540E-19  2.207072E-19
         9   3  4.713337E-41  1.084202E-18 -1.936022E-20  5.421011E-19 -4.854553E-21 -4.185502E-20
         9   4  4.713337E-41  1.626303E-19 -3.830720E-20  8.131516E-20  1.035657E-19  1.393920E-19
         9   5  1.680965E-37 -1.734723E-18  1.439970E-19 -8.673617E-19 -1.814905E-19 -4.778483E-20
         9   6  1.680965E-37  4.336809E-19 -1.591879E-19  2.168404E-19  8.956001E-20  4.950590E-19
         9   7  6.564832E-40 -1.734723E-18 -1.936022E-20 -8.673617E-19 -1.811744E-20 -1.562050E-19
         9   8  6.564832E-40  2.672129E-38 -3.830720E-20 -4.188326E-39 -3.433781E-19 -2.096724E-19

 displacements (vx,vy,vz) for set NALL and time  0.1837813E+00

         1  0.000000E+00  0.000000E+00  0.000000E+00
         2 -2.544434E-10  0.000000E+00  0.000000E+00
         3 -1.335828E-02  0.000000E+00  0.000000E+00
         4 -1.335828E-02  0.000000E+00  0.000000E+00
         5 -7.931663E-02  0.000000E+00  0.000000E+00
         6 -7.931663E-02  0.000000E+00  0.000000E+00
         7  0.000000E+00 -2.544434E-10  0.000000E+00
         8 -2.544433E-10 -2.544433E-10  0.000000E+00
         9 -1.335827E-02  2.228062E-08  0.000000E+00
        10 -1.335828E-02  1.954962E-08  0.000000E+00
        11 -7.931662E-02  5.142175E-09  0.000000E+00
        12 -7.931662E-02 -2.945409E-08  0.000000E+00
        13  0.000000E+00 -1.335828E-02  0.000000E+00
        14  2.228062E-08 -1.335827E-02  0.000000E+00
        15  7.326626E-01  7.326626E-01  0.000000E+00
        16  7.326626E-01  7.326626E-01  0.000000E+00
        17  1.206763E+00 -1.877012E-01  0.000000E+00
        18  1.206205E+00 -9.342373E-01  0.000000E+00
        19  0.000000E+00 -1.335828E-02  0.000000E+00
        20  1.954962E-08 -1.335828E-02  0.000000E+00
        21  7.326626E-01  7.326626E-01  0.000000E+00
        22  7.326627E-01  7.326627E-01  0.000000E+00
        23  1.953299E+00 -1.882586E-01  0.000000E+00
        24  1.952741E+00 -9.347946E-01  0.000000E+00
        25  0.000000E+00 -7.931663E-02  0.000000E+00
        26  5.142175E-09 -7.931662E-02  0.000000E+00
        27 -1.877012E-01  1.206763E+00  0.000000E+00
        28 -1.882586E-01  1.953299E+00  0.000000E+00
        29 -5.513438E+00 -5.513438E+00  0.000000E+00
        30 -5.513438E+00 -5.513438E+00  0.000000E+00
        31  0.000000E+00 -7.931663E-02  0.000000E+00
        32 -2.945409E-08 -7.931662E-02  0.000000E+00
        33 -9.342373E-01  1.206205E+00  0.000000E+00
        34 -9.347946E-01  1.952741E+00  0.000000E+00
        35 -5.513438E+00 -5.513438E+00  0.000000E+00
        36 -5.513438E+00 -5.513438E+00  0.000000E+00
        37  0.000000E+00  0.000000E+00  3.053320E-10
        38 -2.544434E-10  0.000000E+00  3.053320E-10
        39 -1.335828E-02  0.000000E+00 -8.720335E-09
        40 -1.335829E-02  0.000000E+00 -7.669949E-09
        41 -7.931664E-02  0.000000E+00 -9.035536E-10
        42 -7.931664E-02  0.000000E+00  1.240270E-08
        43  0.000000E+00 -2.544434E-10  3.053320E-10
        44 -2.544433E-10 -2.544433E-10  3.053320E-10
        45 -1.335827E-02  2.228062E-08 -8.720335E-09
        46 -1.335828E-02  1.954962E-08 -7.669949E-09
        47 -7.931663E-02  4.894582E-09 -3.281767E-10
        48 -7.931662E-02 -2.970168E-08  1.297808E-08
        49  0.000000E+00 -1.335828E-02 -8.720335E-09
        50  2.228062E-08 -1.335827E-02 -8.720335E-09
        51  7.326626E-01  7.326626E-01 -1.158543E-08
        52  7.326626E-01  7.326626E-01 -1.841256E-08
        53  1.206763E+00 -1.877012E-01 -4.218515E-10
        54  1.206205E+00 -9.342373E-01  5.691713E-09
        55  0.000000E+00 -1.335829E-02 -7.669949E-09
        56  1.954962E-08 -1.335828E-02 -7.669949E-09
        57  7.326626E-01  7.326626E-01 -1.841256E-08
        58  7.326627E-01  7.326627E-01 -2.523968E-08
        59  1.953299E+00 -1.882586E-01 -2.959319E-09
        60  1.952741E+00 -9.347946E-01  3.154247E-09
        61  0.000000E+00 -7.931664E-02 -9.035535E-10
        62  4.894582E-09 -7.931663E-02 -3.281767E-10
        63 -1.877012E-01  1.206763E+00 -4.218517E-10
        64 -1.882586E-01  1.953299E+00 -2.959318E-09
        65 -5.513438E+00 -5.513438E+00  4.014142E-17
        66 -5.513438E+00 -5.513438E+00  2.324935E-17
        67  0.000000E+00 -7.931664E-02  1.240270E-08
        68 -2.970168E-08 -7.931662E-02  1.297808E-08
        69 -9.342373E-01  1.206205E+00  5.691714E-09
        70 -9.347946E-01  1.952741E+00  3.154247E-09
        71 -5.513438E+00 -5.513438E+00  5.861449E-18
        72 -5.513438E+00 -5.513438E+00  3.318081E-16

 stresses (elem, integ.pnt.,sxx,syy,szz,sxy,sxz,syz) for set EALL and time  0.1837813E+00

         1   1 -1.526660E-07 -1.526660E-07 -5.071559E-15  4.437354E-15 -6.423424E-16 -6.423424E-16
         1   2 -1.526660E-07 -1.526660E-07  3.131579E-15  1.049889E-14 -2.041587E-15 -6.423424E-16
         1   3 -1.526660E-07 -1.526660E-07  3.131579E-15  1.049889E-14 -6.423424E-16 -2.041587E-15
         1   4 -1.526660E-07 -1.526660E-07  1.133472E-14  1.656043E-14 -2.041587E-15 -2.041587E-15
         1   5 -1.526660E-07 -1.526660E-07 -1.094839E-14  4.437354E-15 -9.980101E-16 -9.980101E-16
         1   6 -1.526660E-07 -1.526660E-07 -2.745248E-15  1.049889E-14 -2.397255E-15 -9.980101E-16
         1   7 -1.526660E-07 -1.526660E-07 -2.745248E-15  1.049889E-14 -9.980101E-16 -2.397255E-15
         1   8 -1.526660E-07 -1.526660E-07  5.457890E-15  1.656043E-14 -2.397255E-15 -2.397255E-15
         2   1 -3.146896E-07  9.041633E-06  6.857436E-08  4.279243E-07 -4.898176E-08  2.005380E-15
         2   2 -5.917861E-07  8.255126E-06 -6.857437E-08  4.279243E-07 -4.898178E-08  2.957034E-16
         2   3 -3.146895E-07  9.041633E-06  6.857437E-08  1.732194E-07 -4.898175E-08  2.941862E-14
         2   4 -5.917860E-07  8.255126E-06 -6.857437E-08  1.732194E-07 -4.898178E-08  2.637167E-14
         2   5 -3.146897E-07  9.041633E-06  6.857436E-08  4.279243E-07  4.898172E-08 -1.992779E-14
         2   6 -5.917862E-07  8.255126E-06 -6.857437E-08  4.279244E-07  4.898170E-08 -2.497112E-14
         2   7 -3.146895E-07  9.041633E-06  6.857437E-08  1.732194E-07  4.898172E-08  7.484833E-15
         2   8 -5.917861E-07  8.255126E-06 -6.857437E-08  1.732194E-07  4.898170E-08  1.104232E-15
         3   1  1.478125E-06 -1.909187E-07  9.951560E-07  1.358189E-06 -6.235838E-07  1.360448E-08
         3   2 -2.032127E-06 -1.015436E-05 -7.422415E-07  1.114597E-06 -6.174143E-07  1.360448E-08
         3   3  6.830475E-07 -4.988119E-07  7.639229E-07 -1.868406E-06 -6.235838E-07 -2.889490E-09
         3   4 -2.827204E-06 -1.046225E-05 -9.734746E-07 -2.111999E-06 -6.174143E-07 -2.889489E-09
         3   5  1.473718E-06 -2.587832E-07  9.734746E-07  1.358189E-06  6.174144E-07  6.726658E-08
         3   6 -2.036534E-06 -1.022223E-05 -7.639229E-07  1.114597E-06  6.235838E-07  6.726659E-08
         3   7  6.786406E-07 -5.666765E-07  7.422415E-07 -1.868406E-06  6.174144E-07  5.077261E-08
         3   8 -2.831611E-06 -1.053012E-05 -9.951560E-07 -2.111999E-06  6.235838E-07  5.077262E-08
         4   1  9.041633E-06 -3.146896E-07  6.857436E-08  4.279243E-07  2.008723E-15 -4.898176E-08
         4   2  9.041633E-06 -3.146895E-07  6.857437E-08  1.732194E-07  2.939376E-14 -4.898175E-08
         4   3  8.255126E-06 -5.917861E-07 -6.857437E-08  4.279243E-07  2.935998E-16 -4.898178E-08
         4   4  8.255126E-06 -5.917860E-07 -6.857437E-08  1.732194E-07  2.637392E-14 -4.898178E-08
         4   5  9.041633E-06 -3.146897E-07  6.857436E-08  4.279243E-07 -1.988711E-14  4.898172E-08
         4   6  9.041633E-06 -3.146895E-07  6.857437E-08  1.732194E-07  7.497309E-15  4.898172E-08
         4   7  8.255126E-06 -5.917862E-07 -6.857437E-08  4.279244E-07 -2.498332E-14  4.898170E-08
         4   8  8.255126E-06 -5.917861E-07 -6.857437E-08  1.732194E-07  1.096381E-15  4.898170E-08
         5   1  5.749760E-06  5.749760E-06 -8.914179E-07  3.413633E-07  3.183634E-07  3.183634E-07
         5   2  7.550788E-06  1.086177E-05  6.489315E-14  1.996853E-06  3.183634E-07  3.183634E-07
         5   3  1.086177E-05  7.550788E-06  4.582137E-14  1.996853E-06  3.183634E-07  3.183634E-07
         5   4  1.266280E-05  1.266280E-05  8.914180E-07  3.652344E-06  3.183634E-07  3.183634E-07
         5   5  5.749760E-06  5.749760E-06 -8.914179E-07  3.413633E-07 -3.183635E-07 -3.183635E-07
         5   6  7.550788E-06  1.086177E-05  4.686223E-14  1.996853E-06 -3.183635E-07 -3.183635E-07
         5   7  1.086177E-05  7.550788E-06  7.869062E-14  1.996853E-06 -3.183635E-07 -3.183635E-07
         5   8  1.266280E-05  1.266280E-05  8.914180E-07  3.652344E-06 -3.183635E-07 -3.183635E-07
         6   1  4.113882E-06 -3.666934E-06  2.342447E-07  2.605030E-06 -2.849116E-07  1.187530E-07
         6   2  2.502926E-06 -8.246473E-06 -5.640037E-07  3.215903E-06 -2.849116E-07  1.187530E-07
         6   3  6.009454E-06 -2.993109E-06  5.655617E-07  1.120738E-06 -2.849116E-07  1.187531E-07
         6   4  4.398498E-06 -7.572648E-06 -2.326866E-07  1.731611E-06 -2.849116E-07  1.187530E-07
         6   5  4.113882E-06 -3.666934E-06  2.342446E-07  2.605030E-06  2.849117E-07 -1.187531E-07
         6   6  2.502926E-06 -8.246474E-06 -5.640037E-07  3.215903E-06  2.849117E-07 -1.187530E-07
         6   7  6.009454E-06 -2.993109E-06  5.655616E-07  1.120738E-06  2.849117E-07 -1.187530E-07
         6   8  4.398498E-06 -7.572648E-06 -2.326867E-07  1.731611E-06  2.849117E-07 -1.187530E-07
         7   1 -1.909187E-07  1.478125E-06  9.951560E-07  1.358189E-06  1.360448E-08 -6.235838E-07
         7   2 -4.988119E-07  6.830475E-07  7.639229E-07 -1.868406E-06 -2.889490E-09 -6.235838E-07
         7   3 -1.015436E-05 -2.032127E-06 -7.422415E-07  1.114597E-06  1.360448E-08 -6.174143E-07
         7   4 -1.046225E-05 -2.827204E-06 -9.734746E-07 -2.111999E-06 -2.889489E-09 -6.174143E-07
         7   5 -2.587832E-07  1.473718E-06  9.734746E-07  1.358189E-06  6.726658E-08  6.174143E-07
         7   6 -5.666765E-07  6.786406E-07  7.422415E-07 -1.868406E-06  5.077261E-08  6.174144E-07
         7   7 -1.022223E-05 -2.036534E-06 -7.639229E-07  1.114597E-06  6.726659E-08  6.235838E-07
         7   8 -1.053012E-05 -2.831611E-06 -9.951560E-07 -2.111999E-06  5.077262E-08  6.235838E-07
         8   1 -3.666934E-06  4.113882E-06  2.342446E-07  2.605030E-06  1.187530E-07 -2.849115E-07
         8   2 -2.993108E-06  6.009455E-06  5.655618E-07  1.120738E-06  1.187530E-07 -2.849115E-07
         8   3 -8.246474E-06  2.502926E-06 -5.640037E-07  3.215903E-06  1.187530E-07 -2.849116E-07
         8   4 -7.572648E-06  4.398498E-06 -2.326866E-07  1.731611E-06  1.187530E-07 -2.849116E-07
         8   5 -3.666934E-06  4.113882E-06  2.342446E-07  2.605030E-06 -1.187531E-07  2.849117E-07
         8   6 -2.993109E-06  6.009454E-06  5.655617E-07  1.120738E-06 -1.187530E-07  2.849117E-07
         8   7 -8.246473E-06  2.502926E-06 -5.640037E-07  3.215903E-06 -1.187530E-07  2.849116E-07
         8   8 -7.572648E-06  4.398498E-06 -2.326866E-07  1.731611E-06 -1.187531E-07  2.849117E-07
         9   1  7.725818E-15  7.725818E-15  1.802691E-14  6.932291E-33 -1.561744E-14 -1.621101E-14
         9   2 -1.299352E-14 -4.802159E-14  4.709861E-15 -1.751404E-14  9.384528E-14  1.000087E-13
         9   3  1.154003E-14  1.154003E-14  2.692674E-14  1.130316E-31 -6.140251E-14 -6.875311E-14
         9   4 -1.567120E-14 -8.572734E-14  3.349001E-14 -3.502807E-14 -8.860408E-15 -9.453980E-15
         9   5 -9.735839E-14 -2.374707E-13 -8.705730E-14 -7.005614E-14  4.210627E-14  3.989103E-14
         9   6 -9.180668E-14 -2.319190E-13 -7.410330E-14 -7.005614E-14 -1.043583E-14  1.256650E-14
         9   7 -9.354418E-14 -2.336565E-13 -7.815747E-14 -7.005614E-14 -1.078165E-13 -1.352493E-13
         9   8  1.156841E-13  2.207683E-13  1.648453E-13  5.254211E-14 -2.732294E-15 -4.947536E-15

 strains (elem, integ.pnt.,exx,eyy,ezz,exy,exz,eyz) forset EALL and time  0.1837813E+00

         1   1 -5.088867E-13 -5.088867E-13  4.361886E-13  2.746933E-20 -3.976405E-21 -3.976406E-21
         1   2 -5.088867E-13 -5.088867E-13  4.361886E-13  6.499314E-20 -1.263839E-20 -3.976405E-21
         1   3 -5.088867E-13 -5.088867E-13  4.361886E-13  6.499314E-20 -3.976406E-21 -1.263840E-20
         1   4 -5.088867E-13 -5.088867E-13  4.361886E-13  1.025169E-19 -1.263840E-20 -1.263839E-20
         1   5 -5.088868E-13 -5.088868E-13  4.361886E-13  2.746933E-20 -6.178158E-21 -6.178158E-21
         1   6 -5.088868E-13 -5.088867E-13  4.361886E-13  6.499314E-20 -1.484015E-20 -6.178158E-21
         1   7 -5.088867E-13 -5.088868E-13  4.361886E-13  6.499314E-20 -6.178158E-21 -1.484015E-20
         1   8 -5.088867E-13 -5.088867E-13  4.361886E-13  1.025169E-19 -1.484015E-20 -1.484015E-20
         2   1 -1.451310E-11  4.340699E-11 -1.214052E-11  2.649055E-12 -3.032204E-13  1.241273E-20
         2   2 -1.451310E-11  4.025350E-11 -1.127417E-11  2.649055E-12 -3.032206E-13  1.829019E-21
         2   3 -1.451310E-11  4.340699E-11 -1.214052E-11  1.072310E-12 -3.032204E-13  1.821135E-19
         2   4 -1.451310E-11  4.025350E-11 -1.127417E-11  1.072311E-12 -3.032205E-13  1.632514E-19
         2   5 -1.451310E-11  4.340699E-11 -1.214052E-11  2.649055E-12  3.032202E-13 -1.233665E-19
         2   6 -1.451310E-11  4.025350E-11 -1.127417E-11  2.649056E-12  3.032200E-13 -1.545872E-19
         2   7 -1.451310E-11  4.340699E-11 -1.214052E-11  1.072310E-12  3.032202E-13  4.633421E-20
         2   8 -1.451310E-11  4.025350E-11 -1.127417E-11  1.072311E-12  3.032200E-13  6.835253E-21
         3   1  5.889781E-12 -4.442395E-12  2.899972E-12  8.407836E-12 -3.860280E-12  8.421821E-14
         3   2  5.889781E-12 -4.439072E-11  1.387479E-11  6.899884E-12 -3.822088E-12  8.421822E-14
         3   3  2.873877E-12 -4.442395E-12  3.374535E-12 -1.156633E-11 -3.860280E-12 -1.788732E-14
         3   4  2.873877E-12 -4.439072E-11  1.434935E-11 -1.307428E-11 -3.822088E-12 -1.788732E-14
         3   5  5.996719E-12 -4.728291E-12  2.899972E-12  8.407836E-12  3.822089E-12  4.164122E-13
         3   6  5.996719E-12 -4.467661E-11  1.387479E-11  6.899884E-12  3.860281E-12  4.164122E-13
         3   7  2.980815E-12 -4.728291E-12  3.374535E-12 -1.156633E-11  3.822089E-12  3.143067E-13
         3   8  2.980815E-12 -4.467661E-11  1.434935E-11 -1.307428E-11  3.860281E-12  3.143067E-13
         4   1  4.340699E-11 -1.451310E-11 -1.214052E-11  2.649055E-12  1.243343E-20 -3.032204E-13
         4   2  4.340699E-11 -1.451310E-11 -1.214052E-11  1.072310E-12  1.819596E-19 -3.032204E-13
         4   3  4.025350E-11 -1.451310E-11 -1.127417E-11  2.649055E-12  1.815997E-21 -3.032206E-13
         4   4  4.025350E-11 -1.451310E-11 -1.127417E-11  1.072311E-12  1.632653E-19 -3.032205E-13
         4   5  4.340699E-11 -1.451310E-11 -1.214052E-11  2.649055E-12 -1.231147E-19  3.032202E-13
         4   6  4.340699E-11 -1.451310E-11 -1.214052E-11  1.072310E-12  4.641144E-20  3.032202E-13
         4   7  4.025350E-11 -1.451310E-11 -1.127417E-11  2.649056E-12 -1.546627E-19  3.032200E-13
         4   8  4.025350E-11 -1.451310E-11 -1.127417E-11  1.072311E-12  6.786651E-21  3.032200E-13
         5   1  2.043932E-11  2.043932E-11 -2.067273E-11  2.113201E-12  1.970821E-12  1.970821E-12
         5   2  2.043932E-11  4.093587E-11 -2.630365E-11  1.236147E-11  1.970821E-12  1.970821E-12
         5   3  4.093587E-11  2.043932E-11 -2.630365E-11  1.236147E-11  1.970821E-12  1.970821E-12
         5   4  4.093587E-11  4.093587E-11 -3.193457E-11  2.260975E-11  1.970821E-12  1.970821E-12
         5   5  2.043932E-11  2.043932E-11 -2.067273E-11  2.113201E-12 -1.970822E-12 -1.970822E-12
         5   6  2.043932E-11  4.093587E-11 -2.630365E-11  1.236147E-11 -1.970822E-12 -1.970822E-12
         5   7  4.093587E-11  2.043932E-11 -2.630365E-11  1.236147E-11 -1.970822E-12 -1.970822E-12
         5   8  4.093587E-11  4.093587E-11 -3.193457E-11  2.260975E-11 -1.970822E-12 -1.970822E-12
         6   1  2.444549E-11 -2.362494E-11  4.769527E-13  1.619822E-11 -1.764834E-12  7.325034E-13
         6   2  2.444549E-11 -4.197921E-11  5.519336E-12  2.000724E-11 -1.764834E-12  7.325034E-13
         6   3  3.206353E-11 -2.362494E-11 -1.615915E-12  7.021079E-12 -1.764834E-12  7.325038E-13
         6   4  3.206353E-11 -4.197921E-11  3.426469E-12  1.083010E-11 -1.764834E-12  7.325034E-13
         6   5  2.444549E-11 -2.362494E-11  4.769527E-13  1.619822E-11  1.764834E-12 -7.325038E-13
         6   6  2.444549E-11 -4.197921E-11  5.519336E-12  2.000724E-11  1.764835E-12 -7.325037E-13
         6   7  3.206353E-11 -2.362494E-11 -1.615915E-12  7.021080E-12  1.764835E-12 -7.325034E-13
         6   8  3.206353E-11 -4.197921E-11  3.426469E-12  1.083010E-11  1.764835E-12 -7.325037E-13
         7   1 -4.442396E-12  5.889781E-12  2.899972E-12  8.407836E-12  8.421821E-14 -3.860280E-12
         7   2 -4.442396E-12  2.873877E-12  3.374535E-12 -1.156633E-11 -1.788732E-14 -3.860280E-12
         7   3 -4.439072E-11  5.889781E-12  1.387479E-11  6.899884E-12  8.421822E-14 -3.822088E-12
         7   4 -4.439072E-11  2.873877E-12  1.434935E-11 -1.307428E-11 -1.788732E-14 -3.822088E-12
         7   5 -4.728291E-12  5.996719E-12  2.899972E-12  8.407836E-12  4.164122E-13  3.822089E-12
         7   6 -4.728291E-12  2.980815E-12  3.374535E-12 -1.156633E-11  3.143067E-13  3.822089E-12
         7   7 -4.467661E-11  5.996719E-12  1.387479E-11  6.899884E-12  4.164122E-13  3.860281E-12
         7   8 -4.467661E-11  2.980815E-12  1.434935E-11 -1.307428E-11  3.143067E-13  3.860281E-12
         8   1 -2.362494E-11  2.444549E-11  4.769526E-13  1.619822E-11  7.325033E-13 -1.764834E-12
         8   2 -2.362494E-11  3.206353E-11 -1.615915E-12  7.021079E-12  7.325034E-13 -1.764833E-12
         8   3 -4.197921E-11  2.444549E-11  5.519336E-12  2.000724E-11  7.325033E-13 -1.764834E-12
         8   4 -4.197921E-11  3.206353E-11  3.426469E-12  1.083010E-11  7.325033E-13 -1.764834E-12
         8   5 -2.362494E-11  2.444549E-11  4.769526E-13  1.619822E-11 -7.325038E-13  1.764835E-12
         8   6 -2.362494E-11  3.206353E-11 -1.615915E-12  7.021079E-12 -7.325036E-13  1.764835E-12
         8   7 -4.197921E-11  2.444549E-11  5.519336E-12  2.000724E-11 -7.325037E-13  1.764834E-12
         8   8 -4.197921E-11  3.206353E-11  3.426469E-12  1.083010E-11 -7.325039E-13  1.764834E-12
         9   1  2.756949E-40  1.301320E-40  6.376865E-20  1.894115E-40 -9.667937E-20 -1.003539E-19
         9   2  2.756949E-40 -2.168404E-19  1.095923E-19 -1.084202E-19  5.809470E-19  6.191017E-19
         9   3  5.739506E-39  1.301320E-40  9.525105E-20  8.642298E-40 -3.801108E-19 -4.256145E-19
         9   4  5.739506E-39 -4.336809E-19  3.043313E-19 -2.168404E-19 -5.485014E-20 -5.852464E-20
         9   5  3.839934E-39 -8.673617E-19  6.376865E-20 -4.336809E-19  2.606579E-19  2.469445E-19
         9   6  3.839934E-39 -8.673617E-19  1.095923E-19 -4.336809E-19 -6.460279E-20  7.779261E-20
         9   7  7.994100E-38 -8.673617E-19  9.525105E-20 -4.336809E-19 -6.674355E-19 -8.372577E-19
         9   8  7.994100E-38  6.505213E-19  3.043313E-19  3.252607E-19 -1.691420E-20 -3.062760E-20

 displacements (vx,vy,vz) for set NALL and time  0.1927813E+00

         1  0.000000E+00  0.000000E+00  0.000000E+00
         2 -1.131034E-10  0.000000E+00  0.000000E+00
         3 -5.937931E-03  0.000000E+00  0.000000E+00
         4 -5.937938E-03  0.000000E+00  0.000000E+00
         5 -6.285199E-02  0.000000E+00  0.000000E+00
         6 -6.285199E-02  0.000000E+00  0.000000E+00
         7  0.000000E+00 -1.131034E-10  0.000000E+00
         8 -1.131034E-10 -1.131034E-10  0.000000E+00
         9 -5.937927E-03  2.193503E-08  0.000000E+00
        10 -5.937934E-03  1.928834E-08  0.000000E+00
        11 -6.285197E-02  6.941671E-09  0.000000E+00
        12 -6.285197E-02 -2.860483E-08  0.000000E+00
        13  0.000000E+00 -5.937931E-03  0.000000E+00
        14  2.193503E-08 -5.937927E-03  0.000000E+00
        15  7.249133E-01  7.249133E-01  0.000000E+00
        16  7.249134E-01  7.249133E-01  0.000000E+00
        17  1.182808E+00 -1.265107E-01  0.000000E+00
        18  1.182238E+00 -8.813530E-01  0.000000E+00
        19  0.000000E+00 -5.937938E-03  0.000000E+00
        20  1.928834E-08 -5.937934E-03  0.000000E+00
        21  7.249133E-01  7.249134E-01  0.000000E+00
        22  7.249134E-01  7.249134E-01  0.000000E+00
        23  1.937650E+00 -1.270804E-01  0.000000E+00
        24  1.937080E+00 -8.819228E-01  0.000000E+00
        25  0.000000E+00 -6.285199E-02  0.000000E+00
        26  6.941671E-09 -6.285197E-02  0.000000E+00
        27 -1.265107E-01  1.182808E+00  0.000000E+00
        28 -1.270804E-01  1.937650E+00  0.000000E+00
        29 -5.783438E+00 -5.783438E+00  0.000000E+00
        30 -5.783438E+00 -5.783438E+00  0.000000E+00
        31  0.000000E+00 -6.285199E-02  0.000000E+00
        32 -2.860483E-08 -6.285197E-02  0.000000E+00
        33 -8.813530E-01  1.182238E+00  0.000000E+00
        34 -8.819228E-01  1.937080E+00  0.000000E+00
        35 -5.783438E+00 -5.783438E+00  0.000000E+00
        36 -5.783438E+00 -5.783438E+00  0.000000E+00
        37  0.000000E+00  0.000000E+00  1.357241E-10
        38 -1.131035E-10  0.000000E+00  1.357241E-10
        39 -5.937931E-03  0.000000E+00 -8.698985E-09
        40 -5.937938E-03  0.000000E+00 -7.681029E-09
        41 -6.285200E-02  0.000000E+00 -1.714404E-09
        42 -6.285200E-02  0.000000E+00  1.195733E-08
        43  0.000000E+00 -1.131035E-10  1.357241E-10
        44 -1.131034E-10 -1.131034E-10  1.357241E-10
        45 -5.937928E-03  2.193503E-08 -8.698986E-09
        46 -5.937935E-03  1.928834E-08 -7.681029E-09
        47 -6.285198E-02  6.701610E-09 -1.156531E-09
        48 -6.285198E-02 -2.884489E-08  1.251520E-08
        49  0.000000E+00 -5.937931E-03 -8.698985E-09
        50  2.193503E-08 -5.937928E-03 -8.698986E-09
        51  7.249133E-01  7.249133E-01 -1.118594E-08
        52  7.249134E-01  7.249133E-01 -1.813764E-08
        53  1.182808E+00 -1.265107E-01 -1.010092E-09
        54  1.182238E+00 -8.813530E-01  5.462229E-09
        55  0.000000E+00 -5.937938E-03 -7.681029E-09
        56  1.928834E-08 -5.937935E-03 -7.681029E-09
        57  7.249133E-01  7.249134E-01 -1.813764E-08
        58  7.249134E-01  7.249134E-01 -2.508934E-08
        59  1.937650E+00 -1.270804E-01 -3.801180E-09
        60  1.937080E+00 -8.819228E-01  2.671141E-09
        61  0.000000E+00 -6.285200E-02 -1.714404E-09
        62  6.701610E-09 -6.285198E-02 -1.156531E-09
        63 -1.265107E-01  1.182808E+00 -1.010093E-09
        64 -1.270804E-01  1.937650E+00 -3.801180E-09
        65 -5.783438E+00 -5.783438E+00  3.771421E-16
        66 -5.783438E+00 -5.783438E+00 -7.301982E-17
        67  0.000000E+00 -6.285200E-02  1.195733E-08
        68 -2.884489E-08 -6.285198E-02  1.251520E-08
        69 -8.813530E-01  1.182238E+00  5.462229E-09
        70 -8.819228E-01  1.937080E+00  2.671141E-09
        71 -5.783438E+00 -5.783438E+00  1.617168E-16
        72 -5.783438E+00 -5.783438E+00 -1.188974E-16

 stresses (elem, integ.pnt.,sxx,syy,szz,sxy,sxz,syz) for set EALL and time  0.1927813E+00

         1   1 -6.786206E-08 -6.786206E-08 -5.003460E-15  4.324995E-15 -6.316568E-16 -6.316568E-16
         1   2 -6.786205E-08 -6.786204E-08  2.917214E-15  1.023305E-14 -1.980813E-15 -6.316568E-16
         1   3 -6.786204E-08 -6.786205E-08  2.917214E-15  1.023305E-14 -6.316568E-16 -1.980813E-15
         1   4 -6.786203E-08 -6.786203E-08  1.083789E-14  1.614110E-14 -1.980813E-15 -1.980813E-15
         1   5 -6.786207E-08 -6.786207E-08 -1.066991E-14  4.324995E-15 -1.008219E-15 -1.008219E-15
         1   6 -6.786206E-08 -6.786205E-08 -2.749241E-15  1.023305E-14 -2.357375E-15 -1.008219E-15
         1   7 -6.786205E-08 -6.786206E-08 -2.749241E-15  1.023305E-14 -1.008219E-15 -2.357375E-15
         1   8 -6.786204E-08 -6.786204E-08  5.171432E-15  1.614110E-14 -2.357375E-15 -2.357375E-15
         2   1 -2.248834E-07  8.930273E-06  6.645722E-08  4.147128E-07 -4.746952E-08  2.019104E-15
         2   2 -4.934250E-07  8.168049E-06 -6.645724E-08  4.147128E-07 -4.746955E-08  3.166391E-16
         2   3 -2.248832E-07  8.930273E-06  6.645724E-08  1.678715E-07 -4.746952E-08  2.994330E-14
         2   4 -4.934249E-07  8.168049E-06 -6.645724E-08  1.678715E-07 -4.746954E-08  2.691608E-14
         2   5 -2.248835E-07  8.930273E-06  6.645723E-08  4.147128E-07  4.746949E-08 -2.038761E-14
         2   6 -4.934251E-07  8.168049E-06 -6.645724E-08  4.147128E-07  4.746946E-08 -2.541654E-14
         2   7 -2.248833E-07  8.930273E-06  6.645724E-08  1.678715E-07  4.746949E-08  7.536013E-15
         2   8 -4.934249E-07  8.168049E-06 -6.645724E-08  1.678715E-07  4.746946E-08  1.182325E-15
         3   1  1.574975E-06  5.162570E-07  1.015169E-06  1.450477E-06 -6.405329E-07  1.319062E-08
         3   2 -2.031692E-06 -9.720847E-06 -7.699486E-07  1.214295E-06 -6.345511E-07  1.319062E-08
         3   3  8.040845E-07  2.177302E-07  7.909705E-07 -1.864742E-06 -6.405329E-07 -2.801587E-09
         3   4 -2.802582E-06 -1.001937E-05 -9.941473E-07 -2.100923E-06 -6.345511E-07 -2.801586E-09
         3   5  1.570702E-06  4.504570E-07  9.941473E-07  1.450477E-06  6.345512E-07  6.522025E-08
         3   6 -2.035964E-06 -9.786647E-06 -7.909705E-07  1.214295E-06  6.405330E-07  6.522025E-08
         3   7  7.998117E-07  1.519302E-07  7.699486E-07 -1.864742E-06  6.345512E-07  4.922805E-08
         3   8 -2.806855E-06 -1.008517E-05 -1.015169E-06 -2.100923E-06  6.405330E-07  4.922805E-08
         4   1  8.930273E-06 -2.248834E-07  6.645722E-08  4.147128E-07  2.021073E-15 -4.746952E-08
         4   2  8.930273E-06 -2.248832E-07  6.645724E-08  1.678715E-07  2.994300E-14 -4.746952E-08
         4   3  8.168049E-06 -4.934250E-07 -6.645724E-08  4.147128E-07  3.111665E-16 -4.746955E-08
         4   4  8.168049E-06 -4.934249E-07 -6.645724E-08  1.678715E-07  2.691744E-14 -4.746954E-08
         4   5  8.930273E-06 -2.248835E-07  6.645723E-08  4.147128E-07 -2.037799E-14  4.746949E-08
         4   6  8.930273E-06 -2.248833E-07  6.645724E-08  1.678715E-07  7.543360E-15  4.746949E-08
         4   7  8.168049E-06 -4.934251E-07 -6.645724E-08  4.147128E-07 -2.544379E-14  4.746946E-08
         4   8  8.168049E-06 -4.934249E-07 -6.645724E-08  1.678715E-07  1.161901E-15  4.746946E-08
         5   1  5.549232E-06  5.549232E-06 -9.076833E-07  3.664838E-07  3.241725E-07  3.241724E-07
         5   2  7.383122E-06  1.075452E-05  3.802159E-14  2.052181E-06  3.241724E-07  3.241724E-07
         5   3  1.075452E-05  7.383122E-06  1.373084E-14  2.052181E-06  3.241724E-07  3.241724E-07
         5   4  1.258841E-05  1.258841E-05  9.076833E-07  3.737878E-06  3.241724E-07  3.241724E-07
         5   5  5.549232E-06  5.549232E-06 -9.076833E-07  3.664838E-07 -3.241725E-07 -3.241726E-07
         5   6  7.383122E-06  1.075452E-05  4.462090E-14  2.052181E-06 -3.241726E-07 -3.241726E-07
         5   7  1.075452E-05  7.383122E-06  3.910748E-15  2.052181E-06 -3.241725E-07 -3.241726E-07
         5   8  1.258841E-05  1.258841E-05  9.076833E-07  3.737878E-06 -3.241725E-07 -3.241725E-07
         6   1  3.996875E-06 -2.961195E-06  2.410569E-07  2.597936E-06 -3.016213E-07  1.306099E-07
         6   2  2.291482E-06 -7.809570E-06 -6.040341E-07  3.269997E-06 -3.016213E-07  1.306099E-07
         6   3  6.082041E-06 -2.220152E-06  6.054893E-07  1.026445E-06 -3.016213E-07  1.306099E-07
         6   4  4.376648E-06 -7.068526E-06 -2.396018E-07  1.698506E-06 -3.016213E-07  1.306099E-07
         6   5  3.996875E-06 -2.961195E-06  2.410569E-07  2.597936E-06  3.016214E-07 -1.306099E-07
         6   6  2.291482E-06 -7.809570E-06 -6.040343E-07  3.269997E-06  3.016214E-07 -1.306099E-07
         6   7  6.082041E-06 -2.220151E-06  6.054894E-07  1.026445E-06  3.016214E-07 -1.306099E-07
         6   8  4.376649E-06 -7.068526E-06 -2.396018E-07  1.698506E-06  3.016214E-07 -1.306099E-07
         7   1  5.162570E-07  1.574975E-06  1.015169E-06  1.450477E-06  1.319062E-08 -6.405329E-07
         7   2  2.177302E-07  8.040845E-07  7.909705E-07 -1.864742E-06 -2.801587E-09 -6.405329E-07
         7   3 -9.720847E-06 -2.031692E-06 -7.699486E-07  1.214295E-06  1.319062E-08 -6.345511E-07
         7   4 -1.001937E-05 -2.802582E-06 -9.941473E-07 -2.100923E-06 -2.801586E-09 -6.345511E-07
         7   5  4.504570E-07  1.570702E-06  9.941473E-07  1.450477E-06  6.522025E-08  6.345512E-07
         7   6  1.519302E-07  7.998117E-07  7.699486E-07 -1.864742E-06  4.922805E-08  6.345512E-07
         7   7 -9.786647E-06 -2.035964E-06 -7.909705E-07  1.214295E-06  6.522025E-08  6.405330E-07
         7   8 -1.008517E-05 -2.806855E-06 -1.015169E-06 -2.100923E-06  4.922805E-08  6.405330E-07
         8   1 -2.961196E-06  3.996875E-06  2.410569E-07  2.597936E-06  1.306099E-07 -3.016213E-07
         8   2 -2.220151E-06  6.082041E-06  6.054894E-07  1.026445E-06  1.306099E-07 -3.016212E-07
         8   3 -7.809570E-06  2.291482E-06 -6.040342E-07  3.269997E-06  1.306099E-07 -3.016213E-07
         8   4 -7.068526E-06  4.376649E-06 -2.396017E-07  1.698506E-06  1.306099E-07 -3.016213E-07
         8   5 -2.961196E-06  3.996875E-06  2.410569E-07  2.597936E-06 -1.306099E-07  3.016214E-07
         8   6 -2.220152E-06  6.082041E-06  6.054893E-07  1.026445E-06 -1.306099E-07  3.016214E-07
         8   7 -7.809570E-06  2.291482E-06 -6.040342E-07  3.269997E-06 -1.306099E-07  3.016213E-07
         8   8 -7.068526E-06  4.376648E-06 -2.396019E-07  1.698506E-06 -1.306099E-07  3.016214E-07
         9   1  4.224093E-14  4.224093E-14  9.856216E-14  1.306556E-32 -3.165814E-14 -2.364491E-14
         9   2  6.651598E-14  1.540862E-13  6.763379E-14  4.378509E-14 -5.387083E-15  5.967769E-15
         9   3  2.429465E-14  2.429465E-14  5.668752E-14  1.076607E-31  5.925366E-14  6.392527E-14
         9   4  5.835130E-14  1.459215E-13  4.858287E-14  4.378509E-14 -1.509148E-13 -1.429015E-13
         9   5 -1.679275E-13 -4.481521E-13 -1.116063E-13 -1.401123E-13 -8.781457E-14 -5.790880E-14
         9   6  7.965151E-14  1.847357E-13  8.076931E-14  5.254211E-14  5.667622E-14  9.905310E-14
         9   7 -1.858738E-13 -4.660983E-13 -1.534809E-13 -1.401123E-13  2.974075E-14  4.717541E-14
         9   8 -5.986843E-14 -1.299246E-13 -6.963687E-14 -3.502807E-14 -4.031539E-14 -1.040962E-14

 strains (elem, integ.pnt.,exx,eyy,ezz,exy,exz,eyz) forset EALL and time  0.1927813E+00

         1   1 -2.262069E-13 -2.262069E-13  1.938916E-13  2.677378E-20 -3.910256E-21 -3.910256E-21
         1   2 -2.262069E-13 -2.262068E-13  1.938916E-13  6.334744E-20 -1.226217E-20 -3.910256E-21
         1   3 -2.262068E-13 -2.262069E-13  1.938916E-13  6.334744E-20 -3.910256E-21 -1.226217E-20
         1   4 -2.262068E-13 -2.262068E-13  1.938916E-13  9.992110E-20 -1.226217E-20 -1.226217E-20
         1   5 -2.262069E-13 -2.262069E-13  1.938916E-13  2.677378E-20 -6.241358E-21 -6.241357E-21
         1   6 -2.262069E-13 -2.262068E-13  1.938916E-13  6.334744E-20 -1.459327E-20 -6.241358E-21
         1   7 -2.262068E-13 -2.262069E-13  1.938916E-13  6.334744E-20 -6.241358E-21 -1.459327E-20
         1   8 -2.262068E-13 -2.262068E-13  1.938916E-13  9.992110E-20 -1.459328E-20 -1.459328E-20
         2   1 -1.392335E-11  4.275143E-11 -1.211981E-11  2.567270E-12 -2.938589E-13  1.249779E-20
         2   2 -1.392335E-11  3.969530E-11 -1.128021E-11  2.567270E-12 -2.938591E-13  1.958714E-21
         2   3 -1.392334E-11  4.275143E-11 -1.211981E-11  1.039204E-12 -2.938589E-13  1.853616E-19
         2   4 -1.392334E-11  3.969530E-11 -1.128021E-11  1.039205E-12 -2.938591E-13  1.666217E-19
         2   5 -1.392335E-11  4.275143E-11 -1.211981E-11  2.567270E-12  2.938587E-13 -1.262128E-19
         2   6 -1.392335E-11  3.969530E-11 -1.128021E-11  2.567270E-12  2.938586E-13 -1.573443E-19
         2   7 -1.392335E-11  4.275143E-11 -1.211981E-11  1.039204E-12  2.938587E-13  4.665106E-20
         2   8 -1.392335E-11  3.969530E-11 -1.128021E-11  1.039205E-12  2.938586E-13  7.318715E-21
         3   1  5.312129E-12 -1.241839E-12  1.846665E-12  8.979144E-12 -3.965204E-12  8.165619E-14
         3   2  5.312129E-12 -4.228740E-11  1.312292E-11  7.517066E-12 -3.928173E-12  8.165619E-14
         3   3  2.387973E-12 -1.241839E-12  2.306791E-12 -1.154364E-11 -3.965204E-12 -1.734316E-14
         3   4  2.387973E-12 -4.228740E-11  1.358304E-11 -1.300572E-11 -3.928173E-12 -1.734315E-14
         3   5  5.415814E-12 -1.519037E-12  1.846665E-12  8.979144E-12  3.928174E-12  4.037444E-13
         3   6  5.415814E-12 -4.256460E-11  1.312292E-11  7.517066E-12  3.965204E-12  4.037444E-13
         3   7  2.491657E-12 -1.519037E-12  2.306791E-12 -1.154364E-11  3.928174E-12  3.047450E-13
         3   8  2.491657E-12 -4.256460E-11  1.358304E-11 -1.300572E-11  3.965204E-12  3.047451E-13
         4   1  4.275143E-11 -1.392335E-11 -1.211981E-11  2.567270E-12  1.250997E-20 -2.938589E-13
         4   2  4.275143E-11 -1.392334E-11 -1.211981E-11  1.039204E-12  1.853598E-19 -2.938589E-13
         4   3  3.969530E-11 -1.392335E-11 -1.128021E-11  2.567270E-12  1.924836E-21 -2.938591E-13
         4   4  3.969530E-11 -1.392334E-11 -1.128021E-11  1.039205E-12  1.666301E-19 -2.938591E-13
         4   5  4.275143E-11 -1.392335E-11 -1.211981E-11  2.567270E-12 -1.261533E-19  2.938587E-13
         4   6  4.275143E-11 -1.392335E-11 -1.211981E-11  1.039204E-12  4.669655E-20  2.938587E-13
         4   7  3.969530E-11 -1.392335E-11 -1.128021E-11  2.567270E-12 -1.575130E-19  2.938586E-13
         4   8  3.969530E-11 -1.392335E-11 -1.128021E-11  1.039205E-12  7.192279E-21  2.938586E-13
         5   1  1.979413E-11  1.979413E-11 -2.017725E-11  2.268709E-12  2.006782E-12  2.006782E-12
         5   2  1.979413E-11  4.066467E-11 -2.591091E-11  1.270398E-11  2.006782E-12  2.006782E-12
         5   3  4.066467E-11  1.979413E-11 -2.591091E-11  1.270398E-11  2.006782E-12  2.006782E-12
         5   4  4.066467E-11  4.066467E-11 -3.164458E-11  2.313925E-11  2.006782E-12  2.006782E-12
         5   5  1.979413E-11  1.979413E-11 -2.017725E-11  2.268709E-12 -2.006782E-12 -2.006783E-12
         5   6  1.979413E-11  4.066467E-11 -2.591091E-11  1.270398E-11 -2.006782E-12 -2.006782E-12
         5   7  4.066467E-11  1.979413E-11 -2.591091E-11  1.270398E-11 -2.006782E-12 -2.006782E-12
         5   8  4.066467E-11  4.066467E-11 -3.164458E-11  2.313925E-11 -2.006782E-12 -2.006782E-12
         6   1  2.286999E-11 -2.010646E-11 -3.316518E-13  1.614742E-11 -1.868398E-12  8.057174E-13
         6   2  2.286999E-11 -3.953781E-11  5.006629E-12  2.033715E-11 -1.868398E-12  8.057175E-13
         6   3  3.124946E-11 -2.010646E-11 -2.633702E-12  6.431746E-12 -1.868398E-12  8.057179E-13
         6   4  3.124946E-11 -3.953781E-11  2.704578E-12  1.062148E-11 -1.868398E-12  8.057175E-13
         6   5  2.286999E-11 -2.010646E-11 -3.316518E-13  1.614742E-11  1.868399E-12 -8.057180E-13
         6   6  2.286999E-11 -3.953781E-11  5.006629E-12  2.033715E-11  1.868398E-12 -8.057179E-13
         6   7  3.124946E-11 -2.010646E-11 -2.633702E-12  6.431746E-12  1.868398E-12 -8.057176E-13
         6   8  3.124946E-11 -3.953781E-11  2.704578E-12  1.062148E-11  1.868398E-12 -8.057178E-13
         7   1 -1.241839E-12  5.312129E-12  1.846665E-12  8.979144E-12  8.165619E-14 -3.965204E-12
         7   2 -1.241839E-12  2.387973E-12  2.306791E-12 -1.154364E-11 -1.734316E-14 -3.965204E-12
         7   3 -4.228740E-11  5.312129E-12  1.312292E-11  7.517066E-12  8.165619E-14 -3.928173E-12
         7   4 -4.228740E-11  2.387973E-12  1.358304E-11 -1.300572E-11 -1.734315E-14 -3.928173E-12
         7   5 -1.519037E-12  5.415813E-12  1.846665E-12  8.979144E-12  4.037444E-13  3.928174E-12
         7   6 -1.519037E-12  2.491657E-12  2.306791E-12 -1.154364E-11  3.047450E-13  3.928174E-12
         7   7 -4.256460E-11  5.415813E-12  1.312292E-11  7.517066E-12  4.037444E-13  3.965204E-12
         7   8 -4.256460E-11  2.491657E-12  1.358304E-11 -1.300572E-11  3.047451E-13  3.965204E-12
         8   1 -2.010646E-11  2.286999E-11 -3.316519E-13  1.614742E-11  8.057175E-13 -1.868398E-12
         8   2 -2.010646E-11  3.124946E-11 -2.633702E-12  6.431746E-12  8.057176E-13 -1.868398E-12
         8   3 -3.953781E-11  2.286999E-11  5.006629E-12  2.033715E-11  8.057176E-13 -1.868398E-12
         8   4 -3.953781E-11  3.124946E-11  2.704578E-12  1.062148E-11  8.057175E-13 -1.868398E-12
         8   5 -2.010646E-11  2.286999E-11 -3.316519E-13  1.614742E-11 -8.057178E-13  1.868398E-12
         8   6 -2.010646E-11  3.124946E-11 -2.633702E-12  6.431746E-12 -8.057178E-13  1.868399E-12
         8   7 -3.953781E-11  2.286999E-11  5.006629E-12  2.033715E-11 -8.057179E-13  1.868398E-12
         8   8 -3.953781E-11  3.124946E-11  2.704578E-12  1.062148E-11 -8.057180E-13  1.868399E-12
         9   1  1.533306E-38  2.880865E-39  3.486553E-19  6.646237E-39 -1.959789E-19 -1.463732E-19
         9   2  1.533306E-38  5.421011E-19  6.919739E-21  2.710505E-19 -3.334861E-20  3.694333E-20
         9   3  8.943854E-39  2.880865E-39  2.005273E-19  5.076025E-39  3.668084E-19  3.957278E-19
         9   4  8.943854E-39  5.421011E-19 -6.047127E-20  2.710505E-19 -9.342342E-19 -8.846285E-19
         9   5  2.135620E-37 -1.734723E-18  3.486553E-19 -8.673617E-19 -5.436140E-19 -3.584831E-19
         9   6  2.135620E-37  6.505213E-19  6.919739E-21  3.252607E-19  3.508528E-19  6.131859E-19
         9   7  1.245718E-37 -1.734723E-18  2.005273E-19 -8.673617E-19  1.841094E-19  2.920382E-19
         9   8  1.245718E-37 -4.336809E-19 -6.047127E-20 -2.168404E-19 -2.495714E-19 -6.444048E-20

 displacements (vx,vy,vz) for set NALL and time  0.2017813E+00

         1  0.000000E+00  0.000000E+00  0.000000E+00
         2  7.105910E-12  0.000000E+00  0.000000E+00
         3  3.730602E-04  0.000000E+00  0.000000E+00
         4  3.730536E-04  0.000000E+00  0.000000E+00
         5 -4.792651E-02  0.000000E+00  0.000000E+00
         6 -4.792651E-02  0.000000E+00  0.000000E+00
         7  0.000000E+00  7.105910E-12  0.000000E+00
         8  7.105971E-12  7.105971E-12  0.000000E+00
         9  3.730632E-04  2.141279E-08  0.000000E+00
        10  3.730566E-04  1.888570E-08  0.000000E+00
        11 -4.792649E-02  8.454674E-09  0.000000E+00
        12 -4.792649E-02 -2.757499E-08  0.000000E+00
        13  0.000000E+00  3.730602E-04  0.000000E+00
        14  2.141279E-08  3.730632E-04  0.000000E+00
        15  7.113400E-01  7.113400E-01  0.000000E+00
        16  7.113400E-01  7.113400E-01  0.000000E+00
        17  1.150033E+00 -7.092130E-02  0.000000E+00
        18  1.149464E+00 -8.252568E-01  0.000000E+00
        19  0.000000E+00  3.730536E-04  0.000000E+00
        20  1.888570E-08  3.730566E-04  0.000000E+00
        21  7.113400E-01  7.113400E-01  0.000000E+00
        22  7.113400E-01  7.113400E-01  0.000000E+00
        23  1.904368E+00 -7.149033E-02  0.000000E+00
        24  1.903799E+00 -8.258259E-01  0.000000E+00
        25  0.000000E+00 -4.792651E-02  0.000000E+00
        26  8.454674E-09 -4.792649E-02  0.000000E+00
        27 -7.092130E-02  1.150033E+00  0.000000E+00
        28 -7.149033E-02  1.904368E+00  0.000000E+00
        29 -6.053438E+00 -6.053438E+00  0.000000E+00
        30 -6.053438E+00 -6.053438E+00  0.000000E+00
        31  0.000000E+00 -4.792651E-02  0.000000E+00
        32 -2.757499E-08 -4.792649E-02  0.000000E+00
        33 -8.252568E-01  1.149464E+00  0.000000E+00
        34 -8.258259E-01  1.903799E+00  0.000000E+00
        35 -6.053438E+00 -6.053438E+00  0.000000E+00
        36 -6.053438E+00 -6.053438E+00  0.000000E+00
        37  0.000000E+00  0.000000E+00 -8.527113E-12
        38  7.105891E-12  0.000000E+00 -8.527117E-12
        39  3.730596E-04  0.000000E+00 -8.592636E-09
        40  3.730529E-04  0.000000E+00 -7.620678E-09
        41 -4.792652E-02  0.000000E+00 -2.412493E-09
        42 -4.792652E-02  0.000000E+00  1.144507E-08
        43  0.000000E+00  7.105891E-12 -8.527117E-12
        44  7.105952E-12  7.105952E-12 -8.527122E-12
        45  3.730625E-04  2.141279E-08 -8.592636E-09
        46  3.730559E-04  1.888570E-08 -7.620678E-09
        47 -4.792650E-02  8.226154E-09 -1.881440E-09
        48 -4.792650E-02 -2.780351E-08  1.197612E-08
        49  0.000000E+00  3.730596E-04 -8.592636E-09
        50  2.141279E-08  3.730625E-04 -8.592636E-09
        51  7.113400E-01  7.113400E-01 -1.072204E-08
        52  7.113400E-01  7.113400E-01 -1.771697E-08
        53  1.150033E+00 -7.092130E-02 -1.501505E-09
        54  1.149464E+00 -8.252568E-01  5.226115E-09
        55  0.000000E+00  3.730529E-04 -7.620678E-09
        56  1.888570E-08  3.730559E-04 -7.620678E-09
        57  7.113400E-01  7.113400E-01 -1.771697E-08
        58  7.113400E-01  7.113400E-01 -2.471189E-08
        59  1.904368E+00 -7.149032E-02 -4.543732E-09
        60  1.903799E+00 -8.258259E-01  2.183889E-09
        61  0.000000E+00 -4.792652E-02 -2.412493E-09
        62  8.226154E-09 -4.792650E-02 -1.881440E-09
        63 -7.092130E-02  1.150033E+00 -1.501506E-09
        64 -7.149032E-02  1.904368E+00 -4.543732E-09
        65 -6.053438E+00 -6.053438E+00  5.162445E-18
        66 -6.053438E+00 -6.053438E+00  9.981669E-17
        67  0.000000E+00 -4.792652E-02  1.144507E-08
        68 -2.780351E-08 -4.792650E-02  1.197612E-08
        69 -8.252568E-01  1.149464E+00  5.226115E-09
        70 -8.258259E-01  1.903799E+00  2.183889E-09
        71 -6.053438E+00 -6.053438E+00  3.693291E-16
        72 -6.053438E+00 -6.053438E+00  1.143655E-17

 stresses (elem, integ.pnt.,sxx,syy,szz,sxy,sxz,syz) for set EALL and time  0.2017813E+00

         1   1  4.263549E-09  4.263549E-09 -4.850491E-15  4.149878E-15 -6.106359E-16 -6.106608E-16
         1   2  4.263558E-09  4.263569E-09  2.687834E-15  9.818865E-15 -1.893041E-15 -6.106304E-16
         1   3  4.263569E-09  4.263558E-09  2.688034E-15  9.818567E-15 -6.106834E-16 -1.893035E-15
         1   4  4.263577E-09  4.263577E-09  1.022645E-14  1.548755E-14 -1.893254E-15 -1.892958E-15
         1   5  4.263540E-09  4.263540E-09 -1.023653E-14  4.149816E-15 -9.965196E-16 -9.966429E-16
         1   6  4.263549E-09  4.263560E-09 -2.698104E-15  9.818570E-15 -2.278924E-15 -9.965756E-16
         1   7  4.263560E-09  4.263549E-09 -2.698351E-15  9.818571E-15 -9.965302E-16 -2.279017E-15
         1   8  4.263568E-09  4.263568E-09  4.840164E-15  1.548732E-14 -2.279101E-15 -2.278904E-15
         2   1 -1.456623E-07  8.744413E-06  6.345417E-08  3.959728E-07 -4.532448E-08  2.015726E-15
         2   2 -4.020691E-07  8.016632E-06 -6.345418E-08  3.959729E-07 -4.532451E-08  3.378704E-16
         2   3 -1.456622E-07  8.744413E-06  6.345418E-08  1.602857E-07 -4.532448E-08  3.010201E-14
         2   4 -4.020690E-07  8.016632E-06 -6.345418E-08  1.602858E-07 -4.532450E-08  2.713795E-14
         2   5 -1.456624E-07  8.744413E-06  6.345417E-08  3.959728E-07  4.532444E-08 -2.056241E-14
         2   6 -4.020692E-07  8.016632E-06 -6.345418E-08  3.959729E-07  4.532442E-08 -2.553804E-14
         2   7 -1.456623E-07  8.744413E-06  6.345418E-08  1.602857E-07  4.532444E-08  7.523349E-15
         2   8 -4.020691E-07  8.016632E-06 -6.345418E-08  1.602858E-07  4.532442E-08  1.261508E-15
         3   1  1.644055E-06  1.132455E-06  1.021407E-06  1.516556E-06 -6.490548E-07  1.255647E-08
         3   2 -2.011634E-06 -9.243795E-06 -7.879751E-07  1.291729E-06 -6.433605E-07  1.255647E-08
         3   3  9.102257E-07  8.482796E-07  8.079863E-07 -1.843724E-06 -6.490548E-07 -2.666898E-09
         3   4 -2.745464E-06 -9.527970E-06 -1.001395E-06 -2.068551E-06 -6.433605E-07 -2.666898E-09
         3   5  1.639988E-06  1.069818E-06  1.001395E-06  1.516556E-06  6.433606E-07  6.208476E-08
         3   6 -2.015702E-06 -9.306432E-06 -8.079863E-07  1.291729E-06  6.490548E-07  6.208476E-08
         3   7  9.061583E-07  7.856429E-07  7.879751E-07 -1.843724E-06  6.433606E-07  4.686139E-08
         3   8 -2.749531E-06 -9.590607E-06 -1.021407E-06 -2.068551E-06  6.490548E-07  4.686139E-08
         4   1  8.744413E-06 -1.456623E-07  6.345417E-08  3.959728E-07  2.015768E-15 -4.532448E-08
         4   2  8.744413E-06 -1.456622E-07  6.345418E-08  1.602857E-07  3.010084E-14 -4.532448E-08
         4   3  8.016632E-06 -4.020691E-07 -6.345418E-08  3.959729E-07  3.375354E-16 -4.532451E-08
         4   4  8.016632E-06 -4.020690E-07 -6.345418E-08  1.602858E-07  2.713710E-14 -4.532450E-08
         4   5  8.744413E-06 -1.456624E-07  6.345417E-08  3.959728E-07 -2.056104E-14  4.532444E-08
         4   6  8.744413E-06 -1.456623E-07  6.345418E-08  1.602857E-07  7.523506E-15  4.532444E-08
         4   7  8.016632E-06 -4.020692E-07 -6.345418E-08  3.959729E-07 -2.553878E-14  4.532442E-08
         4   8  8.016632E-06 -4.020691E-07 -6.345418E-08  1.602858E-07  1.260257E-15  4.532442E-08
         5   1  5.317007E-06  5.317007E-06 -9.133281E-07  3.837440E-07  3.261884E-07  3.261884E-07
         5   2  7.162303E-06  1.055466E-05  1.277165E-14  2.079924E-06  3.261884E-07  3.261884E-07
         5   3  1.055466E-05  7.162303E-06  8.259221E-15  2.079924E-06  3.261884E-07  3.261884E-07
         5   4  1.239996E-05  1.239996E-05  9.133281E-07  3.776105E-06  3.261884E-07  3.261884E-07
         5   5  5.317007E-06  5.317007E-06 -9.133281E-07  3.837440E-07 -3.261885E-07 -3.261885E-07
         5   6  7.162303E-06  1.055466E-05  3.579077E-14  2.079924E-06 -3.261885E-07 -3.261885E-07
         5   7  1.055466E-05  7.162302E-06 -2.783153E-14  2.079924E-06 -3.261885E-07 -3.261885E-07
         5   8  1.239996E-05  1.239996E-05  9.133281E-07  3.776105E-06 -3.261885E-07 -3.261885E-07
         6   1  3.840867E-06 -2.315773E-06  2.407211E-07  2.558834E-06 -3.135089E-07  1.423386E-07
         6   2  2.068307E-06 -7.355492E-06 -6.377045E-07  3.291609E-06 -3.135088E-07  1.423386E-07
         6   3  6.113896E-06 -1.508294E-06  6.379446E-07  9.252537E-07 -3.135089E-07  1.423387E-07
         6   4  4.341337E-06 -6.548013E-06 -2.404809E-07  1.658029E-06 -3.135088E-07  1.423386E-07
         6   5  3.840867E-06 -2.315773E-06  2.407210E-07  2.558834E-06  3.135090E-07 -1.423387E-07
         6   6  2.068307E-06 -7.355492E-06 -6.377045E-07  3.291609E-06  3.135090E-07 -1.423387E-07
         6   7  6.113896E-06 -1.508294E-06  6.379445E-07  9.252537E-07  3.135090E-07 -1.423386E-07
         6   8  4.341336E-06 -6.548013E-06 -2.404809E-07  1.658029E-06  3.135090E-07 -1.423387E-07
         7   1  1.132455E-06  1.644055E-06  1.021407E-06  1.516556E-06  1.255647E-08 -6.490548E-07
         7   2  8.482796E-07  9.102257E-07  8.079863E-07 -1.843724E-06 -2.666898E-09 -6.490548E-07
         7   3 -9.243795E-06 -2.011634E-06 -7.879751E-07  1.291729E-06  1.255647E-08 -6.433605E-07
         7   4 -9.527970E-06 -2.745464E-06 -1.001395E-06 -2.068551E-06 -2.666898E-09 -6.433605E-07
         7   5  1.069818E-06  1.639988E-06  1.001395E-06  1.516556E-06  6.208476E-08  6.433606E-07
         7   6  7.856429E-07  9.061583E-07  7.879751E-07 -1.843724E-06  4.686139E-08  6.433606E-07
         7   7 -9.306432E-06 -2.015702E-06 -8.079863E-07  1.291729E-06  6.208476E-08  6.490548E-07
         7   8 -9.590607E-06 -2.749531E-06 -1.021407E-06 -2.068551E-06  4.686139E-08  6.490548E-07
         8   1 -2.315773E-06  3.840867E-06  2.407210E-07  2.558834E-06  1.423386E-07 -3.135089E-07
         8   2 -1.508294E-06  6.113896E-06  6.379447E-07  9.252537E-07  1.423386E-07 -3.135089E-07
         8   3 -7.355492E-06  2.068307E-06 -6.377045E-07  3.291609E-06  1.423386E-07 -3.135089E-07
         8   4 -6.548013E-06  4.341337E-06 -2.404809E-07  1.658029E-06  1.423386E-07 -3.135088E-07
         8   5 -2.315773E-06  3.840867E-06  2.407210E-07  2.558834E-06 -1.423387E-07  3.135090E-07
         8   6 -1.508294E-06  6.113896E-06  6.379446E-07  9.252537E-07 -1.423387E-07  3.135090E-07
         8   7 -7.355492E-06  2.068307E-06 -6.377044E-07  3.291609E-06 -1.423387E-07  3.135089E-07
         8   8 -6.548013E-06  4.341337E-06 -2.404809E-07  1.658029E-06 -1.423387E-07  3.135090E-07
         9   1 -1.434491E-13 -3.536175E-13 -1.245461E-13 -1.050842E-13 -5.257556E-14 -4.337519E-14
         9   2  2.111122E-13  4.738227E-13  2.298845E-13  1.313553E-13 -4.411968E-15 -4.130869E-15
         9   3 -1.166157E-13 -3.267842E-13 -6.193497E-14 -1.050842E-13 -8.952732E-15  9.166912E-15
         9   4  1.330239E-13  2.906502E-13  1.527628E-13  7.881316E-14 -6.149484E-14 -5.229447E-14
         9   5 -9.090700E-14 -2.310193E-13 -7.200404E-14 -7.005614E-14 -3.515294E-14 -8.166878E-16
         9   6 -3.846283E-14 -1.085190E-13 -1.969047E-14 -3.502807E-14 -4.390996E-14 -4.286088E-14
         9   7 -6.407364E-14 -2.041859E-13 -9.392869E-15 -7.005614E-14 -1.034682E-13 -3.584476E-14
         9   8 -9.028005E-14 -2.303923E-13 -7.054117E-14 -7.005614E-14  5.415812E-14  8.849438E-14

 strains (elem, integ.pnt.,exx,eyy,ezz,exy,exz,eyz) forset EALL and time  0.2017813E+00

         1   1  1.421184E-14  1.421184E-14 -1.218159E-14  2.568972E-20 -3.780127E-21 -3.780281E-21
         1   2  1.421184E-14  1.421191E-14 -1.218160E-14  6.078345E-20 -1.171882E-20 -3.780093E-21
         1   3  1.421191E-14  1.421184E-14 -1.218160E-14  6.078161E-20 -3.780421E-21 -1.171879E-20
         1   4  1.421191E-14  1.421191E-14 -1.218160E-14  9.587534E-20 -1.172015E-20 -1.171831E-20
         1   5  1.421182E-14  1.421182E-14 -1.218159E-14  2.568934E-20 -6.168931E-21 -6.169694E-21
         1   6  1.421182E-14  1.421189E-14 -1.218160E-14  6.078163E-20 -1.410763E-20 -6.169278E-21
         1   7  1.421189E-14  1.421182E-14 -1.218160E-14  6.078163E-20 -6.168997E-21 -1.410820E-20
         1   8  1.421189E-14  1.421189E-14 -1.218160E-14  9.587392E-20 -1.410872E-20 -1.410750E-20
         2   1 -1.327630E-11  4.175750E-11 -1.198177E-11  2.451260E-12 -2.805801E-13  1.247700E-20
         2   2 -1.327630E-11  3.883947E-11 -1.118011E-11  2.451261E-12 -2.805803E-13  2.090272E-21
         2   3 -1.327630E-11  4.175750E-11 -1.198177E-11  9.922449E-13 -2.805801E-13  1.863443E-19
         2   4 -1.327630E-11  3.883947E-11 -1.118011E-11  9.922452E-13 -2.805803E-13  1.679953E-19
         2   5 -1.327630E-11  4.175750E-11 -1.198177E-11  2.451260E-12  2.805799E-13 -1.272946E-19
         2   6 -1.327630E-11  3.883947E-11 -1.118011E-11  2.451261E-12  2.805797E-13 -1.580961E-19
         2   7 -1.327630E-11  4.175750E-11 -1.198177E-11  9.922450E-13  2.805799E-13  4.657271E-20
         2   8 -1.327630E-11  3.883947E-11 -1.118011E-11  9.922452E-13  2.805797E-13  7.808931E-21
         3   1  4.751890E-12  1.584838E-12  8.973984E-13  9.388205E-12 -4.017958E-12  7.773054E-14
         3   2  4.751890E-12 -4.001863E-11  1.232692E-11  7.996417E-12 -3.982708E-12  7.773054E-14
         3   3  1.968314E-12  1.584838E-12  1.335404E-12 -1.141353E-11 -4.017958E-12 -1.650937E-14
         3   4  1.968314E-12 -4.001863E-11  1.276493E-11 -1.280532E-11 -3.982708E-12 -1.650937E-14
         3   5  4.850590E-12  1.320966E-12  8.973984E-13  9.388205E-12  3.982709E-12  3.843342E-13
         3   6  4.850590E-12 -4.028250E-11  1.232692E-11  7.996417E-12  4.017959E-12  3.843342E-13
         3   7  2.067014E-12  1.320966E-12  1.335404E-12 -1.141353E-11  3.982709E-12  2.900943E-13
         3   8  2.067014E-12 -4.028250E-11  1.276493E-11 -1.280532E-11  4.017959E-12  2.900943E-13
         4   1  4.175750E-11 -1.327630E-11 -1.198177E-11  2.451260E-12  1.247726E-20 -2.805801E-13
         4   2  4.175750E-11 -1.327630E-11 -1.198177E-11  9.922449E-13  1.863370E-19 -2.805801E-13
         4   3  3.883947E-11 -1.327630E-11 -1.118011E-11  2.451261E-12  2.088198E-21 -2.805803E-13
         4   4  3.883947E-11 -1.327630E-11 -1.118011E-11  9.922452E-13  1.679901E-19 -2.805803E-13
         4   5  4.175750E-11 -1.327630E-11 -1.198177E-11  2.451260E-12 -1.272861E-19  2.805799E-13
         4   6  4.175750E-11 -1.327630E-11 -1.198177E-11  9.922450E-13  4.657368E-20  2.805799E-13
         4   7  3.883947E-11 -1.327630E-11 -1.118011E-11  2.451261E-12 -1.581007E-19  2.805797E-13
         4   8  3.883947E-11 -1.327630E-11 -1.118011E-11  9.922452E-13  7.801190E-21  2.805797E-13
         5   1  1.902811E-11  1.902811E-11 -1.954063E-11  2.375558E-12  2.019262E-12  2.019262E-12
         5   2  1.902811E-11  4.002844E-11 -2.530995E-11  1.287572E-11  2.019262E-12  2.019262E-12
         5   3  4.002844E-11  1.902811E-11 -2.530995E-11  1.287572E-11  2.019262E-12  2.019261E-12
         5   4  4.002844E-11  4.002844E-11 -3.107927E-11  2.337589E-11  2.019262E-12  2.019261E-12
         5   5  1.902811E-11  1.902811E-11 -1.954063E-11  2.375558E-12 -2.019262E-12 -2.019262E-12
         5   6  1.902811E-11  4.002844E-11 -2.530995E-11  1.287572E-11 -2.019262E-12 -2.019262E-12
         5   7  4.002844E-11  1.902811E-11 -2.530995E-11  1.287572E-11 -2.019262E-12 -2.019262E-12
         5   8  4.002844E-11  4.002844E-11 -3.107927E-11  2.337589E-11 -2.019262E-12 -2.019262E-12
         6   1  2.120632E-11 -1.681045E-11 -1.032414E-12  1.589783E-11 -1.942096E-12  8.782149E-13
         6   2  2.120632E-11 -3.700826E-11  4.516433E-12  2.046454E-11 -1.942096E-12  8.782146E-13
         6   3  3.033976E-11 -1.681045E-11 -3.541600E-12  5.798922E-12 -1.942096E-12  8.782153E-13
         6   4  3.033976E-11 -3.700826E-11  2.007248E-12  1.036564E-11 -1.942096E-12  8.782148E-13
         6   5  2.120632E-11 -1.681045E-11 -1.032414E-12  1.589783E-11  1.942097E-12 -8.782154E-13
         6   6  2.120632E-11 -3.700826E-11  4.516433E-12  2.046454E-11  1.942097E-12 -8.782154E-13
         6   7  3.033976E-11 -1.681045E-11 -3.541600E-12  5.798922E-12  1.942097E-12 -8.782149E-13
         6   8  3.033976E-11 -3.700826E-11  2.007248E-12  1.036564E-11  1.942097E-12 -8.782151E-13
         7   1  1.584838E-12  4.751890E-12  8.973984E-13  9.388205E-12  7.773054E-14 -4.017958E-12
         7   2  1.584838E-12  1.968314E-12  1.335404E-12 -1.141353E-11 -1.650937E-14 -4.017958E-12
         7   3 -4.001863E-11  4.751890E-12  1.232692E-11  7.996417E-12  7.773054E-14 -3.982708E-12
         7   4 -4.001863E-11  1.968314E-12  1.276493E-11 -1.280532E-11 -1.650937E-14 -3.982708E-12
         7   5  1.320966E-12  4.850590E-12  8.973984E-13  9.388205E-12  3.843342E-13  3.982709E-12
         7   6  1.320966E-12  2.067014E-12  1.335404E-12 -1.141353E-11  2.900943E-13  3.982709E-12
         7   7 -4.028250E-11  4.850590E-12  1.232692E-11  7.996417E-12  3.843342E-13  4.017959E-12
         7   8 -4.028250E-11  2.067014E-12  1.276493E-11 -1.280532E-11  2.900943E-13  4.017959E-12
         8   1 -1.681045E-11  2.120632E-11 -1.032414E-12  1.589783E-11  8.782148E-13 -1.942097E-12
         8   2 -1.681045E-11  3.033976E-11 -3.541600E-12  5.798921E-12  8.782149E-13 -1.942096E-12
         8   3 -3.700826E-11  2.120632E-11  4.516433E-12  2.046454E-11  8.782149E-13 -1.942097E-12
         8   4 -3.700826E-11  3.033976E-11  2.007247E-12  1.036564E-11  8.782149E-13 -1.942096E-12
         8   5 -1.681045E-11  2.120632E-11 -1.032414E-12  1.589783E-11 -8.782152E-13  1.942097E-12
         8   6 -1.681045E-11  3.033976E-11 -3.541600E-12  5.798922E-12 -8.782151E-13  1.942097E-12
         8   7 -3.700826E-11  2.120632E-11  4.516433E-12  2.046454E-11 -8.782153E-13  1.942097E-12
         8   8 -3.700826E-11  3.033976E-11  2.007247E-12  1.036564E-11 -8.782153E-13  1.942097E-12
         9   1  8.580699E-44 -1.301043E-18  1.170183E-19 -6.505213E-19 -3.254678E-19 -2.685131E-19
         9   2  8.580699E-44  1.626303E-18  1.162099E-19  8.131516E-19 -2.731219E-20 -2.557205E-20
         9   3  6.143125E-39 -1.301043E-18  3.385000E-19 -6.505213E-19 -5.542168E-20  5.674755E-20
         9   4  6.143125E-39  9.757820E-19  1.221931E-19  4.878910E-19 -3.806823E-19 -3.237276E-19
         9   5  1.195137E-42 -8.673617E-19  1.170183E-19 -4.336809E-19 -2.176135E-19 -5.055687E-21
         9   6  1.195137E-42 -4.336809E-19  1.162099E-19 -2.168404E-19 -2.718236E-19 -2.653293E-19
         9   7  8.556269E-38 -8.673617E-19  3.385000E-19 -4.336809E-19 -6.405174E-19 -2.218961E-19
         9   8  8.556269E-38 -8.673617E-19  1.221931E-19 -4.336809E-19  3.352646E-19  5.478223E-19

 displacements (vx,vy,vz) for set NALL and time  0.2107813E+00

         1  0.000000E+00  0.000000E+00  0.000000E+00
         2  1.047744E-10  0.000000E+00  0.000000E+00
         3  5.500658E-03  0.000000E+00  0.000000E+00
         4  5.500651E-03  0.000000E+00  0.000000E+00
         5 -3.478525E-02  0.000000E+00  0.000000E+00
         6 -3.478524E-02  0.000000E+00  0.000000E+00
         7  0.000000E+00  1.047744E-10  0.000000E+00
         8  1.047745E-10  1.047745E-10  0.000000E+00
         9  5.500661E-03  2.072765E-08  0.000000E+00
        10  5.500654E-03  1.835040E-08  0.000000E+00
        11 -3.478523E-02  9.668826E-09  0.000000E+00
        12 -3.478523E-02 -2.637029E-08  0.000000E+00
        13  0.000000E+00  5.500658E-03  0.000000E+00
        14  2.072765E-08  5.500661E-03  0.000000E+00
        15  6.922769E-01  6.922769E-01  0.000000E+00
        16  6.922769E-01  6.922769E-01  0.000000E+00
        17  1.109362E+00 -2.153953E-02  0.000000E+00
        18  1.108807E+00 -7.666852E-01  0.000000E+00
        19  0.000000E+00  5.500651E-03  0.000000E+00
        20  1.835040E-08  5.500654E-03  0.000000E+00
        21  6.922769E-01  6.922769E-01  0.000000E+00
        22  6.922769E-01  6.922769E-01  0.000000E+00
        23  1.854508E+00 -2.209477E-02  0.000000E+00
        24  1.853952E+00 -7.672405E-01  0.000000E+00
        25  0.000000E+00 -3.478525E-02  0.000000E+00
        26  9.668826E-09 -3.478523E-02  0.000000E+00
        27 -2.153953E-02  1.109362E+00  0.000000E+00
        28 -2.209477E-02  1.854508E+00  0.000000E+00
        29 -6.323438E+00 -6.323438E+00  0.000000E+00
        30 -6.323438E+00 -6.323438E+00  0.000000E+00
        31  0.000000E+00 -3.478524E-02  0.000000E+00
        32 -2.637029E-08 -3.478523E-02  0.000000E+00
        33 -7.666852E-01  1.108807E+00  0.000000E+00
        34 -7.672405E-01  1.853952E+00  0.000000E+00
        35 -6.323438E+00 -6.323438E+00  0.000000E+00
        36 -6.323438E+00 -6.323438E+00  0.000000E+00
        37  0.000000E+00  0.000000E+00 -1.257293E-10
        38  1.047744E-10  0.000000E+00 -1.257293E-10
        39  5.500657E-03  0.000000E+00 -8.405148E-09
        40  5.500651E-03  0.000000E+00 -7.490823E-09
        41 -3.478526E-02  0.000000E+00 -2.991049E-09
        42 -3.478525E-02  0.000000E+00  1.087015E-08
        43  0.000000E+00  1.047744E-10 -1.257293E-10
        44  1.047745E-10  1.047745E-10 -1.257293E-10
        45  5.500660E-03  2.072765E-08 -8.405148E-09
        46  5.500654E-03  1.835040E-08 -7.490824E-09
        47 -3.478524E-02  9.455168E-09 -2.494532E-09
        48 -3.478524E-02 -2.658395E-08  1.136667E-08
        49  0.000000E+00  5.500657E-03 -8.405148E-09
        50  2.072765E-08  5.500660E-03 -8.405148E-09
        51  6.922769E-01  6.922769E-01 -1.020582E-08
        52  6.922769E-01  6.922769E-01 -1.716174E-08
        53  1.109362E+00 -2.153952E-02 -1.895262E-09
        54  1.108807E+00 -7.666852E-01  4.976193E-09
        55  0.000000E+00  5.500651E-03 -7.490823E-09
        56  1.835040E-08  5.500654E-03 -7.490824E-09
        57  6.922769E-01  6.922769E-01 -1.716174E-08
        58  6.922769E-01  6.922769E-01 -2.411766E-08
        59  1.854508E+00 -2.209477E-02 -5.171984E-09
        60  1.853952E+00 -7.672405E-01  1.699472E-09
        61  0.000000E+00 -3.478526E-02 -2.991049E-09
        62  9.455168E-09 -3.478524E-02 -2.494532E-09
        63 -2.153952E-02  1.109362E+00 -1.895263E-09
        64 -2.209477E-02  1.854508E+00 -5.171984E-09
        65 -6.323438E+00 -6.323438E+00  1.034031E-16
        66 -6.323438E+00 -6.323438E+00  1.883397E-16
        67  0.000000E+00 -3.478525E-02  1.087015E-08
        68 -2.658395E-08 -3.478524E-02  1.136667E-08
        69 -7.666852E-01  1.108807E+00  4.976193E-09
        70 -7.672405E-01  1.853952E+00  1.699472E-09
        71 -6.323438E+00 -6.323438E+00  4.839340E-16
        72 -6.323438E+00 -6.323438E+00 -2.672977E-16

 stresses (elem, integ.pnt.,sxx,syy,szz,sxy,sxz,syz) for set EALL and time  0.2107813E+00

         1   1  6.286466E-08  6.286466E-08 -4.621192E-15  3.920034E-15 -5.804637E-16 -5.804527E-16
         1   2  6.286467E-08  6.286468E-08  2.450914E-15  9.274883E-15 -1.782233E-15 -5.805001E-16
         1   3  6.286468E-08  6.286467E-08  2.450959E-15  9.274915E-15 -5.804333E-16 -1.782229E-15
         1   4  6.286469E-08  6.286469E-08  9.523156E-15  1.462976E-14 -1.782156E-15 -1.782443E-15
         1   5  6.286465E-08  6.286465E-08 -9.668639E-15  3.919972E-15 -9.645505E-16 -9.645020E-16
         1   6  6.286466E-08  6.286467E-08 -2.596883E-15  9.274886E-15 -2.166320E-15 -9.645127E-16
         1   7  6.286467E-08  6.286466E-08 -2.596391E-15  9.274621E-15 -9.644833E-16 -2.166279E-15
         1   8  6.286468E-08  6.286468E-08  4.475457E-15  1.462953E-14 -2.166206E-15 -2.166456E-15
         2   1 -7.817128E-08  8.489072E-06  5.969162E-08  3.724934E-07 -4.263695E-08  1.984987E-15
         2   2 -3.193743E-07  7.804445E-06 -5.969163E-08  3.724935E-07 -4.263697E-08  3.684128E-16
         2   3 -7.817115E-08  8.489072E-06  5.969163E-08  1.507815E-07 -4.263694E-08  2.988815E-14
         2   4 -3.193742E-07  7.804445E-06 -5.969163E-08  1.507815E-07 -4.263697E-08  2.702213E-14
         2   5 -7.817136E-08  8.489072E-06  5.969162E-08  3.724934E-07  4.263691E-08 -2.049413E-14
         2   6 -3.193744E-07  7.804445E-06 -5.969163E-08  3.724935E-07  4.263688E-08 -2.527782E-14
         2   7 -7.817122E-08  8.489072E-06  5.969163E-08  1.507815E-07  4.263691E-08  7.408565E-15
         2   8 -3.193743E-07  7.804445E-06 -5.969163E-08  1.507815E-07  4.263688E-08  1.375429E-15
         3   1  1.684331E-06  1.652755E-06  1.014054E-06  1.555479E-06 -6.490392E-07  1.173989E-08
         3   2 -1.972318E-06 -8.726217E-06 -7.958028E-07  1.345273E-06 -6.437152E-07  1.173989E-08
         3   3  9.982239E-07  1.387061E-06  8.145126E-07 -1.805683E-06 -6.490391E-07 -2.493461E-09
         3   4 -2.658425E-06 -8.991911E-06 -9.953438E-07 -2.015889E-06 -6.437152E-07 -2.493461E-09
         3   5  1.680528E-06  1.594192E-06  9.953438E-07  1.555479E-06  6.437153E-07  5.804722E-08
         3   6 -1.976121E-06 -8.784780E-06 -8.145126E-07  1.345273E-06  6.490392E-07  5.804722E-08
         3   7  9.944211E-07  1.328498E-06  7.958028E-07 -1.805683E-06  6.437153E-07  4.381387E-08
         3   8 -2.662227E-06 -9.050474E-06 -1.014054E-06 -2.015889E-06  6.490392E-07  4.381387E-08
         4   1  8.489072E-06 -7.817128E-08  5.969162E-08  3.724934E-07  1.984507E-15 -4.263695E-08
         4   2  8.489072E-06 -7.817115E-08  5.969163E-08  1.507815E-07  2.988476E-14 -4.263694E-08
         4   3  7.804445E-06 -3.193743E-07 -5.969163E-08  3.724935E-07  3.681483E-16 -4.263697E-08
         4   4  7.804445E-06 -3.193742E-07 -5.969163E-08  1.507815E-07  2.702015E-14 -4.263697E-08
         4   5  8.489072E-06 -7.817136E-08  5.969162E-08  3.724934E-07 -2.049301E-14  4.263691E-08
         4   6  8.489072E-06 -7.817122E-08  5.969163E-08  1.507815E-07  7.406774E-15  4.263691E-08
         4   7  7.804445E-06 -3.193744E-07 -5.969163E-08  3.724935E-07 -2.527709E-14  4.263688E-08
         4   8  7.804445E-06 -3.193743E-07 -5.969163E-08  1.507815E-07  1.374442E-15  4.263688E-08
         5   1  5.059146E-06  5.059146E-06 -9.082347E-07  3.929039E-07  3.243694E-07  3.243694E-07
         5   2  6.894151E-06  1.026759E-05  5.944722E-14  2.079625E-06  3.243694E-07  3.243694E-07
         5   3  1.026759E-05  6.894151E-06  8.377099E-14  2.079625E-06  3.243694E-07  3.243694E-07
         5   4  1.210260E-05  1.210260E-05  9.082348E-07  3.766346E-06  3.243694E-07  3.243694E-07
         5   5  5.059146E-06  5.059146E-06 -9.082347E-07  3.929039E-07 -3.243695E-07 -3.243695E-07
         5   6  6.894151E-06  1.026759E-05  1.843029E-14  2.079625E-06 -3.243695E-07 -3.243695E-07
         5   7  1.026759E-05  6.894151E-06  2.469271E-14  2.079625E-06 -3.243695E-07 -3.243695E-07
         5   8  1.210260E-05  1.210260E-05  9.082348E-07  3.766347E-06 -3.243695E-07 -3.243695E-07
         6   1  3.653268E-06 -1.735225E-06  2.347312E-07  2.490206E-06 -3.202026E-07  1.532779E-07
         6   2  1.842907E-06 -6.882788E-06 -6.624750E-07  3.279799E-06 -3.202026E-07  1.532778E-07
         6   3  6.101839E-06 -8.658411E-07  6.625727E-07  8.216057E-07 -3.202025E-07  1.532779E-07
         6   4  4.291477E-06 -6.013403E-06 -2.346334E-07  1.611199E-06 -3.202025E-07  1.532779E-07
         6   5  3.653268E-06 -1.735226E-06  2.347311E-07  2.490206E-06  3.202026E-07 -1.532779E-07
         6   6  1.842907E-06 -6.882788E-06 -6.624751E-07  3.279799E-06  3.202026E-07 -1.532779E-07
         6   7  6.101838E-06 -8.658411E-07  6.625726E-07  8.216057E-07  3.202027E-07 -1.532779E-07
         6   8  4.291477E-06 -6.013403E-06 -2.346334E-07  1.611199E-06  3.202026E-07 -1.532779E-07
         7   1  1.652755E-06  1.684331E-06  1.014054E-06  1.555479E-06  1.173989E-08 -6.490392E-07
         7   2  1.387061E-06  9.982239E-07  8.145126E-07 -1.805683E-06 -2.493461E-09 -6.490392E-07
         7   3 -8.726217E-06 -1.972318E-06 -7.958028E-07  1.345273E-06  1.173989E-08 -6.437152E-07
         7   4 -8.991911E-06 -2.658425E-06 -9.953438E-07 -2.015889E-06 -2.493461E-09 -6.437152E-07
         7   5  1.594192E-06  1.680528E-06  9.953438E-07  1.555479E-06  5.804722E-08  6.437153E-07
         7   6  1.328498E-06  9.944211E-07  7.958028E-07 -1.805683E-06  4.381387E-08  6.437153E-07
         7   7 -8.784780E-06 -1.976121E-06 -8.145126E-07  1.345273E-06  5.804722E-08  6.490392E-07
         7   8 -9.050474E-06 -2.662227E-06 -1.014054E-06 -2.015889E-06  4.381387E-08  6.490392E-07
         8   1 -1.735225E-06  3.653268E-06  2.347311E-07  2.490206E-06  1.532779E-07 -3.202025E-07
         8   2 -8.658412E-07  6.101838E-06  6.625726E-07  8.216058E-07  1.532779E-07 -3.202025E-07
         8   3 -6.882788E-06  1.842907E-06 -6.624750E-07  3.279799E-06  1.532779E-07 -3.202026E-07
         8   4 -6.013403E-06  4.291477E-06 -2.346335E-07  1.611199E-06  1.532779E-07 -3.202025E-07
         8   5 -1.735225E-06  3.653268E-06  2.347311E-07  2.490206E-06 -1.532779E-07  3.202026E-07
         8   6 -8.658411E-07  6.101838E-06  6.625727E-07  8.216057E-07 -1.532779E-07  3.202027E-07
         8   7 -6.882788E-06  1.842907E-06 -6.624750E-07  3.279799E-06 -1.532779E-07  3.202026E-07
         8   8 -6.013403E-06  4.291477E-06 -2.346334E-07  1.611199E-06 -1.532779E-07  3.202027E-07
         9   1  2.845838E-14  2.845838E-14  6.640289E-14  7.057818E-32  4.940946E-14  5.950019E-14
         9   2 -1.120667E-13 -2.872071E-13 -8.634872E-14 -8.757018E-14  7.568052E-14  6.929115E-14
         9   3  4.882608E-14  4.882608E-14  1.139275E-13  1.308146E-31 -8.966888E-14 -6.309805E-14
         9   4  4.551257E-15  2.206529E-14 -6.894434E-15  8.757018E-15 -1.961273E-14 -9.522004E-15
         9   5  2.845838E-14  2.845838E-14  6.640289E-14 -3.758806E-33 -1.169118E-14  2.596794E-14
         9   6  1.769148E-13  3.870833E-13  2.026329E-13  1.050842E-13 -4.234074E-14 -6.618617E-14
         9   7 -3.715108E-13 -9.319599E-13 -3.064093E-13 -2.802246E-13 -7.319572E-14  2.596794E-14
         9   8 -8.584269E-15 -8.584269E-15 -2.002996E-14  3.296960E-31  6.691656E-14  1.045757E-13

 strains (elem, integ.pnt.,exx,eyy,ezz,exy,exz,eyz) forset EALL and time  0.2107813E+00

         1   1  2.095489E-13  2.095489E-13 -1.796133E-13  2.426687E-20 -3.593347E-21 -3.593278E-21
         1   2  2.095489E-13  2.095489E-13 -1.796133E-13  5.741594E-20 -1.103287E-20 -3.593572E-21
         1   3  2.095489E-13  2.095489E-13 -1.796133E-13  5.741614E-20 -3.593158E-21 -1.103285E-20
         1   4  2.095489E-13  2.095489E-13 -1.796133E-13  9.056521E-20 -1.103240E-20 -1.103417E-20
         1   5  2.095489E-13  2.095489E-13 -1.796133E-13  2.426649E-20 -5.971027E-21 -5.970727E-21
         1   6  2.095489E-13  2.095489E-13 -1.796133E-13  5.741596E-20 -1.341055E-20 -5.970793E-21
         1   7  2.095489E-13  2.095489E-13 -1.796133E-13  5.741432E-20 -5.970611E-21 -1.341030E-20
         1   8  2.095489E-13  2.095489E-13 -1.796133E-13  9.056379E-20 -1.340985E-20 -1.341139E-20
         2   1 -1.258476E-11  4.045055E-11 -1.173133E-11  2.305912E-12 -2.639430E-13  1.228686E-20
         2   2 -1.258476E-11  3.770555E-11 -1.097720E-11  2.305912E-12 -2.639432E-13  2.279494E-21
         2   3 -1.258476E-11  4.045055E-11 -1.173133E-11  9.334092E-13 -2.639430E-13  1.850205E-19
         2   4 -1.258476E-11  3.770555E-11 -1.097720E-11  9.334095E-13 -2.639431E-13  1.672785E-19
         2   5 -1.258476E-11  4.045055E-11 -1.173133E-11  2.305912E-12  2.639428E-13 -1.268715E-19
         2   6 -1.258476E-11  3.770555E-11 -1.097720E-11  2.305912E-12  2.639426E-13 -1.564848E-19
         2   7 -1.258476E-11  4.045055E-11 -1.173133E-11  9.334093E-13  2.639428E-13  4.586219E-20
         2   8 -1.258476E-11  3.770555E-11 -1.097720E-11  9.334096E-13  2.639426E-13  8.514206E-21
         3   1  4.210895E-12  4.015429E-12  6.156115E-14  9.629155E-12 -4.017861E-12  7.267552E-14
         3   2  4.210895E-12 -3.759895E-11  1.149408E-11  8.327878E-12 -3.984904E-12  7.267552E-14
         3   3  1.608342E-12  4.015429E-12  4.710818E-13 -1.117804E-11 -4.017861E-12 -1.543571E-14
         3   4  1.608342E-12 -3.759895E-11  1.190360E-11 -1.247931E-11 -3.984904E-12 -1.543571E-14
         3   5  4.303176E-12  3.768717E-12  6.156115E-14  9.629155E-12  3.984904E-12  3.593399E-13
         3   6  4.303176E-12 -3.784567E-11  1.149408E-11  8.327878E-12  4.017862E-12  3.593400E-13
         3   7  1.700623E-12  3.768717E-12  4.710818E-13 -1.117804E-11  3.984904E-12  2.712287E-13
         3   8  1.700623E-12 -3.784567E-11  1.190360E-11 -1.247931E-11  4.017862E-12  2.712287E-13
         4   1  4.045055E-11 -1.258476E-11 -1.173133E-11  2.305912E-12  1.228389E-20 -2.639430E-13
         4   2  4.045055E-11 -1.258476E-11 -1.173133E-11  9.334092E-13  1.849995E-19 -2.639430E-13
         4   3  3.770555E-11 -1.258476E-11 -1.097720E-11  2.305912E-12  2.277857E-21 -2.639432E-13
         4   4  3.770555E-11 -1.258476E-11 -1.097720E-11  9.334095E-13  1.672662E-19 -2.639431E-13
         4   5  4.045055E-11 -1.258476E-11 -1.173133E-11  2.305912E-12 -1.268645E-19  2.639428E-13
         4   6  4.045055E-11 -1.258476E-11 -1.173133E-11  9.334093E-13  4.585110E-20  2.639428E-13
         4   7  3.770555E-11 -1.258476E-11 -1.097720E-11  2.305912E-12 -1.564803E-19  2.639426E-13
         4   8  3.770555E-11 -1.258476E-11 -1.097720E-11  9.334096E-13  8.508095E-21  2.639426E-13
         5   1  1.816130E-11  1.816130E-11 -1.877963E-11  2.432262E-12  2.008001E-12  2.008001E-12
         5   2  1.816130E-11  3.904451E-11 -2.451678E-11  1.287387E-11  2.008001E-12  2.008001E-12
         5   3  3.904451E-11  1.816130E-11 -2.451678E-11  1.287387E-11  2.008001E-12  2.008001E-12
         5   4  3.904451E-11  3.904451E-11 -3.025392E-11  2.331548E-11  2.008001E-12  2.008001E-12
         5   5  1.816130E-11  1.816130E-11 -1.877963E-11  2.432262E-12 -2.008002E-12 -2.008002E-12
         5   6  1.816130E-11  3.904451E-11 -2.451678E-11  1.287387E-11 -2.008002E-12 -2.008002E-12
         5   7  3.904451E-11  1.816130E-11 -2.451678E-11  1.287387E-11 -2.008002E-12 -2.008002E-12
         5   8  3.904451E-11  3.904451E-11 -3.025392E-11  2.331548E-11 -2.008002E-12 -2.008002E-12
         6   1  1.949406E-11 -1.377124E-11 -1.622294E-12  1.546521E-11 -1.983618E-12  9.459078E-13
         6   2  1.949406E-11 -3.440088E-11  4.045187E-12  2.038393E-11 -1.983618E-12  9.459076E-13
         6   3  2.933150E-11 -1.377124E-11 -4.324888E-12  5.150389E-12 -1.983618E-12  9.459082E-13
         6   4  2.933150E-11 -3.440088E-11  1.342593E-12  1.006911E-11 -1.983618E-12  9.459078E-13
         6   5  1.949406E-11 -1.377124E-11 -1.622294E-12  1.546521E-11  1.983619E-12 -9.459082E-13
         6   6  1.949406E-11 -3.440088E-11  4.045187E-12  2.038393E-11  1.983618E-12 -9.459083E-13
         6   7  2.933150E-11 -1.377124E-11 -4.324888E-12  5.150389E-12  1.983619E-12 -9.459078E-13
         6   8  2.933150E-11 -3.440088E-11  1.342593E-12  1.006911E-11  1.983619E-12 -9.459081E-13
         7   1  4.015429E-12  4.210895E-12  6.156115E-14  9.629155E-12  7.267552E-14 -4.017861E-12
         7   2  4.015429E-12  1.608342E-12  4.710818E-13 -1.117804E-11 -1.543571E-14 -4.017861E-12
         7   3 -3.759895E-11  4.210895E-12  1.149408E-11  8.327878E-12  7.267552E-14 -3.984904E-12
         7   4 -3.759895E-11  1.608342E-12  1.190360E-11 -1.247931E-11 -1.543571E-14 -3.984904E-12
         7   5  3.768717E-12  4.303176E-12  6.156115E-14  9.629155E-12  3.593399E-13  3.984904E-12
         7   6  3.768717E-12  1.700623E-12  4.710818E-13 -1.117804E-11  2.712287E-13  3.984904E-12
         7   7 -3.784567E-11  4.303176E-12  1.149408E-11  8.327878E-12  3.593400E-13  4.017862E-12
         7   8 -3.784567E-11  1.700623E-12  1.190360E-11 -1.247931E-11  2.712287E-13  4.017862E-12
         8   1 -1.377124E-11  1.949406E-11 -1.622294E-12  1.546521E-11  9.459079E-13 -1.983618E-12
         8   2 -1.377124E-11  2.933150E-11 -4.324888E-12  5.150389E-12  9.459080E-13 -1.983618E-12
         8   3 -3.440088E-11  1.949406E-11  4.045187E-12  2.038393E-11  9.459078E-13 -1.983618E-12
         8   4 -3.440088E-11  2.933150E-11  1.342593E-12  1.006911E-11  9.459079E-13 -1.983618E-12
         8   5 -1.377124E-11  1.949406E-11 -1.622294E-12  1.546521E-11 -9.459081E-13  1.983619E-12
         8   6 -1.377124E-11  2.933150E-11 -4.324888E-12  5.150389E-12 -9.459080E-13  1.983619E-12
         8   7 -3.440088E-11  1.949406E-11  4.045187E-12  2.038393E-11 -9.459081E-13  1.983618E-12
         8   8 -3.440088E-11  2.933150E-11  1.342593E-12  1.006911E-11 -9.459082E-13  1.983619E-12
         9   1  7.521419E-40  3.710718E-39  2.348946E-19 -1.670625E-39  3.058681E-19  3.683345E-19
         9   2  7.521419E-40 -1.084202E-18  1.592068E-19 -5.421011E-19  4.684984E-19  4.289452E-19
         9   3  2.948183E-38  3.710718E-39  4.030089E-19 -1.045939E-38 -5.550930E-19 -3.906070E-19
         9   4  2.948183E-38  1.084202E-19 -7.085428E-20  5.421011E-20 -1.214122E-19 -5.894574E-20
         9   5  1.047599E-38  5.168363E-38  2.348946E-19 -2.326880E-38 -7.237398E-20  1.607539E-19
         9   6  1.047599E-38  1.301043E-18  1.592068E-19  6.505213E-19 -2.621094E-19 -4.097239E-19
         9   7  4.106289E-37 -3.469447E-18  4.030089E-19 -1.734723E-18 -4.531164E-19  1.607539E-19
         9   8  4.106289E-37  9.678988E-38 -7.085428E-20  1.993608E-37  4.142454E-19  6.473732E-19

 displacements (vx,vy,vz) for set NALL and time  0.2197813E+00

         1  0.000000E+00  0.000000E+00  0.000000E+00
         2  1.796681E-10  0.000000E+00  0.000000E+00
         3  9.432574E-03  0.000000E+00  0.000000E+00
         4  9.432568E-03  0.000000E+00  0.000000E+00
         5 -2.355033E-02  0.000000E+00  0.000000E+00
         6 -2.355033E-02  0.000000E+00  0.000000E+00
         7  0.000000E+00  1.796681E-10  0.000000E+00
         8  1.796681E-10  1.796681E-10  0.000000E+00
         9  9.432577E-03  1.989224E-08  0.000000E+00
        10  9.432571E-03  1.769002E-08  0.000000E+00
        11 -2.355031E-02  1.057938E-08  0.000000E+00
        12 -2.355031E-02 -2.499945E-08  0.000000E+00
        13  0.000000E+00  9.432574E-03  0.000000E+00
        14  1.989224E-08  9.432577E-03  0.000000E+00
        15  6.680389E-01  6.680389E-01  0.000000E+00
        16  6.680389E-01  6.680389E-01  0.000000E+00
        17  1.061590E+00  2.124772E-02  0.000000E+00
        18  1.061061E+00 -7.062906E-01  0.000000E+00
        19  0.000000E+00  9.432568E-03  0.000000E+00
        20  1.769002E-08  9.432571E-03  0.000000E+00
        21  6.680389E-01  6.680389E-01  0.000000E+00
        22  6.680389E-01  6.680389E-01  0.000000E+00
        23  1.789128E+00  2.071840E-02  0.000000E+00
        24  1.788599E+00 -7.068200E-01  0.000000E+00
        25  0.000000E+00 -2.355033E-02  0.000000E+00
        26  1.057938E-08 -2.355031E-02  0.000000E+00
        27  2.124772E-02  1.061590E+00  0.000000E+00
        28  2.071840E-02  1.789128E+00  0.000000E+00
        29 -6.593438E+00 -6.593438E+00  0.000000E+00
        30 -6.593438E+00 -6.593438E+00  0.000000E+00
        31  0.000000E+00 -2.355033E-02  0.000000E+00
        32 -2.499945E-08 -2.355031E-02  0.000000E+00
        33 -7.062906E-01  1.061061E+00  0.000000E+00
        34 -7.068200E-01  1.788599E+00  0.000000E+00
        35 -6.593438E+00 -6.593438E+00  0.000000E+00
        36 -6.593438E+00 -6.593438E+00  0.000000E+00
        37  0.000000E+00  0.000000E+00 -2.156017E-10
        38  1.796681E-10  0.000000E+00 -2.156017E-10
        39  9.432573E-03  0.000000E+00 -8.140833E-09
        40  9.432568E-03  0.000000E+00 -7.293826E-09
        41 -2.355034E-02  0.000000E+00 -3.446750E-09
        42 -2.355034E-02  0.000000E+00  1.023741E-08
        43  0.000000E+00  1.796681E-10 -2.156017E-10
        44  1.796681E-10  1.796681E-10 -2.156017E-10
        45  9.432576E-03  1.989224E-08 -8.140833E-09
        46  9.432570E-03  1.769002E-08 -7.293826E-09
        47 -2.355032E-02  1.038319E-08 -2.990842E-09
        48 -2.355032E-02 -2.519563E-08  1.069332E-08
        49  0.000000E+00  9.432573E-03 -8.140833E-09
        50  1.989224E-08  9.432576E-03 -8.140833E-09
        51  6.680389E-01  6.680389E-01 -9.646870E-09
        52  6.680389E-01  6.680389E-01 -1.648218E-08
        53  1.061590E+00  2.124772E-02 -2.193102E-09
        54  1.061061E+00 -7.062906E-01  4.706869E-09
        55  0.000000E+00  9.432568E-03 -7.293826E-09
        56  1.769002E-08  9.432570E-03 -7.293826E-09
        57  6.680389E-01  6.680389E-01 -1.648218E-08
        58  6.680389E-01  6.680389E-01 -2.331749E-08
        59  1.789128E+00  2.071841E-02 -5.673725E-09
        60  1.788599E+00 -7.068200E-01  1.226246E-09
        61  0.000000E+00 -2.355034E-02 -3.446750E-09
        62  1.038319E-08 -2.355032E-02 -2.990842E-09
        63  2.124772E-02  1.061590E+00 -2.193102E-09
        64  2.071841E-02  1.789128E+00 -5.673725E-09
        65 -6.593438E+00 -6.593438E+00  4.611436E-16
        66 -6.593438E+00 -6.593438E+00 -6.376956E-17
        67  0.000000E+00 -2.355034E-02  1.023741E-08
        68 -2.519563E-08 -2.355032E-02  1.069332E-08
        69 -7.062906E-01  1.061061E+00  4.706869E-09
        70 -7.068200E-01  1.788599E+00  1.226246E-09
        71 -6.593438E+00 -6.593438E+00  4.925180E-17
        72 -6.593438E+00 -6.593438E+00 -1.456045E-16

 stresses (elem, integ.pnt.,sxx,syy,szz,sxy,sxz,syz) for set EALL and time  0.2197813E+00

         1   1  1.078008E-07  1.078008E-07 -4.325439E-15  3.643745E-15 -5.423658E-16 -5.422879E-16
         1   2  1.078009E-07  1.078009E-07  2.211371E-15  8.621044E-15 -1.652302E-15 -5.423658E-16
         1   3  1.078009E-07  1.078009E-07  2.210924E-15  8.621342E-15 -5.422879E-16 -1.652012E-15
         1   4  1.078009E-07  1.078009E-07  8.747733E-15  1.359864E-14 -1.652012E-15 -1.652302E-15
         1   5  1.078008E-07  1.078008E-07 -8.986726E-15  3.643745E-15 -9.142003E-16 -9.141224E-16
         1   6  1.078008E-07  1.078009E-07 -2.450363E-15  8.621342E-15 -2.024137E-15 -9.142004E-16
         1   7  1.078009E-07  1.078008E-07 -2.449916E-15  8.621045E-15 -9.141224E-16 -2.023846E-15
         1   8  1.078009E-07  1.078009E-07  4.086447E-15  1.359864E-14 -2.023846E-15 -2.024137E-15
         2   1 -2.285117E-08  8.169013E-06  5.529675E-08  3.450682E-07 -3.949776E-08  1.920950E-15
         2   2 -2.462954E-07  7.534792E-06 -5.529677E-08  3.450682E-07 -3.949779E-08  4.076029E-16
         2   3 -2.285104E-08  8.169013E-06  5.529677E-08  1.396800E-07 -3.949775E-08  2.929130E-14
         2   4 -2.462952E-07  7.534792E-06 -5.529676E-08  1.396801E-07 -3.949778E-08  2.658862E-14
         2   5 -2.285125E-08  8.169013E-06  5.529675E-08  3.450682E-07  3.949772E-08 -2.020044E-14
         2   6 -2.462955E-07  7.534792E-06 -5.529677E-08  3.450682E-07  3.949769E-08 -2.465900E-14
         2   7 -2.285111E-08  8.169013E-06  5.529677E-08  1.396800E-07  3.949772E-08  7.169508E-15
         2   8 -2.462953E-07  7.534793E-06 -5.529676E-08  1.396801E-07  3.949769E-08  1.521619E-15
         3   1  1.695660E-06  2.074845E-06  9.935710E-07  1.567150E-06 -6.405660E-07  1.077972E-08
         3   2 -1.914286E-06 -8.171569E-06 -7.931702E-07  1.374136E-06 -6.356775E-07  1.077972E-08
         3   3  1.065668E-06  1.830881E-06  8.103499E-07 -1.751083E-06 -6.405660E-07 -2.289527E-09
         3   4 -2.544279E-06 -8.415533E-06 -9.763914E-07 -1.944098E-06 -6.356775E-07 -2.289527E-09
         3   5  1.692168E-06  2.021071E-06  9.763914E-07  1.567150E-06  6.356776E-07  5.329972E-08
         3   6 -1.917778E-06 -8.225342E-06 -8.103498E-07  1.374136E-06  6.405661E-07  5.329972E-08
         3   7  1.062176E-06  1.777107E-06  7.931702E-07 -1.751083E-06  6.356776E-07  4.023047E-08
         3   8 -2.547770E-06 -8.469306E-06 -9.935710E-07 -1.944098E-06  6.405661E-07  4.023047E-08
         4   1  8.169013E-06 -2.285118E-08  5.529675E-08  3.450682E-07  1.927273E-15 -3.949776E-08
         4   2  8.169013E-06 -2.285104E-08  5.529677E-08  1.396800E-07  2.928205E-14 -3.949775E-08
         4   3  7.534792E-06 -2.462954E-07 -5.529677E-08  3.450682E-07  4.063859E-16 -3.949779E-08
         4   4  7.534792E-06 -2.462952E-07 -5.529676E-08  1.396801E-07  2.659217E-14 -3.949778E-08
         4   5  8.169013E-06 -2.285125E-08  5.529675E-08  3.450682E-07 -2.016127E-14  3.949772E-08
         4   6  8.169013E-06 -2.285111E-08  5.529677E-08  1.396800E-07  7.193105E-15  3.949772E-08
         4   7  7.534792E-06 -2.462955E-07 -5.529677E-08  3.450682E-07 -2.466831E-14  3.949769E-08
         4   8  7.534793E-06 -2.462953E-07 -5.529676E-08  1.396801E-07  1.517077E-15  3.949769E-08
         5   1  4.780429E-06  4.780429E-06 -8.924863E-07  3.940374E-07  3.187450E-07  3.187449E-07
         5   2  6.583615E-06  9.898564E-06  5.503406E-14  2.051512E-06  3.187450E-07  3.187449E-07
         5   3  9.898564E-06  6.583615E-06  5.297519E-14  2.051512E-06  3.187450E-07  3.187449E-07
         5   4  1.170175E-05  1.170175E-05  8.924864E-07  3.708986E-06  3.187450E-07  3.187449E-07
         5   5  4.780428E-06  4.780428E-06 -8.924863E-07  3.940374E-07 -3.187451E-07 -3.187451E-07
         5   6  6.583615E-06  9.898563E-06 -2.128568E-14  2.051512E-06 -3.187451E-07 -3.187451E-07
         5   7  9.898563E-06  6.583615E-06  3.330241E-14  2.051512E-06 -3.187451E-07 -3.187451E-07
         5   8  1.170175E-05  1.170175E-05  8.924864E-07  3.708986E-06 -3.187451E-07 -3.187451E-07
         6   1  3.438790E-06 -1.223746E-06  2.233606E-07  2.394904E-06 -3.215238E-07  1.627769E-07
         6   2  1.620995E-06 -6.392748E-06 -6.775687E-07  3.234038E-06 -3.215238E-07  1.627768E-07
         6   3  6.040135E-06 -3.006691E-07  6.778255E-07  7.193009E-07 -3.215238E-07  1.627769E-07
         6   4  4.222339E-06 -5.469671E-06 -2.231037E-07  1.558434E-06 -3.215239E-07  1.627769E-07
         6   5  3.438790E-06 -1.223746E-06  2.233606E-07  2.394904E-06  3.215239E-07 -1.627769E-07
         6   6  1.620995E-06 -6.392748E-06 -6.775687E-07  3.234038E-06  3.215239E-07 -1.627769E-07
         6   7  6.040135E-06 -3.006690E-07  6.778256E-07  7.193009E-07  3.215239E-07 -1.627769E-07
         6   8  4.222339E-06 -5.469671E-06 -2.231037E-07  1.558434E-06  3.215239E-07 -1.627769E-07
         7   1  2.074845E-06  1.695660E-06  9.935710E-07  1.567150E-06  1.077972E-08 -6.405660E-07
         7   2  1.830881E-06  1.065668E-06  8.103499E-07 -1.751083E-06 -2.289527E-09 -6.405660E-07
         7   3 -8.171569E-06 -1.914286E-06 -7.931702E-07  1.374136E-06  1.077972E-08 -6.356775E-07
         7   4 -8.415533E-06 -2.544279E-06 -9.763914E-07 -1.944098E-06 -2.289527E-09 -6.356775E-07
         7   5  2.021071E-06  1.692168E-06  9.763914E-07  1.567150E-06  5.329972E-08  6.356776E-07
         7   6  1.777107E-06  1.062176E-06  7.931702E-07 -1.751083E-06  4.023047E-08  6.356776E-07
         7   7 -8.225342E-06 -1.917778E-06 -8.103498E-07  1.374136E-06  5.329972E-08  6.405661E-07
         7   8 -8.469306E-06 -2.547770E-06 -9.935710E-07 -1.944098E-06  4.023047E-08  6.405661E-07
         8   1 -1.223746E-06  3.438791E-06  2.233607E-07  2.394904E-06  1.627769E-07 -3.215238E-07
         8   2 -3.006691E-07  6.040135E-06  6.778256E-07  7.193009E-07  1.627769E-07 -3.215238E-07
         8   3 -6.392748E-06  1.620995E-06 -6.775686E-07  3.234038E-06  1.627769E-07 -3.215239E-07
         8   4 -5.469671E-06  4.222339E-06 -2.231038E-07  1.558434E-06  1.627769E-07 -3.215238E-07
         8   5 -1.223746E-06  3.438790E-06  2.233606E-07  2.394904E-06 -1.627769E-07  3.215239E-07
         8   6 -3.006691E-07  6.040135E-06  6.778255E-07  7.193008E-07 -1.627769E-07  3.215239E-07
         8   7 -6.392748E-06  1.620995E-06 -6.775687E-07  3.234038E-06 -1.627769E-07  3.215239E-07
         8   8 -5.469671E-06  4.222339E-06 -2.231038E-07  1.558434E-06 -1.627769E-07  3.215239E-07
         9   1  4.810036E-14  4.810036E-14  1.122342E-13  2.246892E-33 -1.553797E-14 -1.167975E-14
         9   2  6.829527E-14  1.558654E-13  7.178546E-14  4.378509E-14 -2.402449E-15  7.960883E-15
         9   3  1.391141E-14  1.391141E-14  3.245997E-14  1.407996E-31 -7.908900E-14 -8.173589E-14
         9   4  2.370454E-13  5.698121E-13  2.203394E-13  1.663833E-13 -6.157497E-14 -5.771675E-14
         9   5 -1.620681E-13 -4.422926E-13 -9.793425E-14 -1.401123E-13 -4.047448E-14 -2.607540E-14
         9   6 -1.024666E-13 -2.425789E-13 -9.897638E-14 -7.005614E-14  1.083948E-13  1.470713E-13
         9   7 -1.962570E-13 -4.764816E-13 -1.777085E-13 -1.401123E-13 -3.371111E-14 -4.358944E-14
         9   8 -1.252956E-14 -1.252956E-14 -2.923564E-14  1.109126E-31 -8.625321E-14 -7.185414E-14

 strains (elem, integ.pnt.,exx,eyy,ezz,exy,exz,eyz) forset EALL and time  0.2197813E+00

         1   1  3.593362E-13  3.593362E-13 -3.080024E-13  2.255652E-20 -3.357503E-21 -3.357020E-21
         1   2  3.593362E-13  3.593362E-13 -3.080024E-13  5.336837E-20 -1.022854E-20 -3.357503E-21
         1   3  3.593362E-13  3.593362E-13 -3.080024E-13  5.337022E-20 -3.357021E-21 -1.022674E-20
         1   4  3.593362E-13  3.593362E-13 -3.080024E-13  8.418207E-20 -1.022674E-20 -1.022854E-20
         1   5  3.593361E-13  3.593361E-13 -3.080024E-13  2.255652E-20 -5.659335E-21 -5.658853E-21
         1   6  3.593361E-13  3.593362E-13 -3.080024E-13  5.337022E-20 -1.253037E-20 -5.659336E-21
         1   7  3.593362E-13  3.593361E-13 -3.080024E-13  5.336837E-20 -5.658853E-21 -1.252857E-20
         1   8  3.593362E-13  3.593362E-13 -3.080024E-13  8.418207E-20 -1.252857E-20 -1.253037E-20
         2   1 -1.185783E-11  3.885371E-11 -1.137406E-11  2.136136E-12 -2.445099E-13  1.189061E-20
         2   2 -1.185783E-11  3.631081E-11 -1.067546E-11  2.136137E-12 -2.445101E-13  2.522264E-21
         2   3 -1.185783E-11  3.885371E-11 -1.137406E-11  8.646860E-13 -2.445099E-13  1.813259E-19
         2   4 -1.185783E-11  3.631081E-11 -1.067546E-11  8.646863E-13 -2.445101E-13  1.645951E-19
         2   5 -1.185783E-11  3.885371E-11 -1.137406E-11  2.136136E-12  2.445097E-13 -1.250529E-19
         2   6 -1.185783E-11  3.631081E-11 -1.067546E-11  2.136137E-12  2.445095E-13 -1.526536E-19
         2   7 -1.185783E-11  3.885371E-11 -1.137406E-11  8.646860E-13  2.445097E-13  4.438236E-20
         2   8 -1.185783E-11  3.631081E-11 -1.067546E-11  8.646863E-13  2.445095E-13  9.419240E-21
         3   1  3.691121E-12  6.038455E-12 -6.551450E-13  9.701405E-12 -3.965409E-12  6.673162E-14
         3   2  3.691121E-12 -3.504444E-11  1.063136E-11  8.506556E-12 -3.935147E-12  6.673162E-14
         3   3  1.301422E-12  6.038455E-12 -2.791178E-13 -1.084004E-11 -3.965409E-12 -1.417326E-14
         3   4  1.301422E-12 -3.504444E-11  1.100739E-11 -1.203489E-11 -3.935147E-12 -1.417326E-14
         3   5  3.775854E-12  5.811921E-12 -6.551450E-13  9.701405E-12  3.935147E-12  3.299507E-13
         3   6  3.775854E-12 -3.527097E-11  1.063136E-11  8.506556E-12  3.965409E-12  3.299507E-13
         3   7  1.386156E-12  5.811921E-12 -2.791178E-13 -1.084004E-11  3.935147E-12  2.490458E-13
         3   8  1.386156E-12 -3.527097E-11  1.100739E-11 -1.203489E-11  3.965409E-12  2.490458E-13
         4   1  3.885371E-11 -1.185783E-11 -1.137406E-11  2.136136E-12  1.192975E-20 -2.445099E-13
         4   2  3.885371E-11 -1.185783E-11 -1.137406E-11  8.646860E-13  1.812687E-19 -2.445099E-13
         4   3  3.631081E-11 -1.185783E-11 -1.067546E-11  2.136137E-12  2.514730E-21 -2.445101E-13
         4   4  3.631081E-11 -1.185783E-11 -1.067546E-11  8.646863E-13  1.646171E-19 -2.445101E-13
         4   5  3.885371E-11 -1.185783E-11 -1.137406E-11  2.136136E-12 -1.248105E-19  2.445097E-13
         4   6  3.885371E-11 -1.185783E-11 -1.137406E-11  8.646860E-13  4.452844E-20  2.445097E-13
         4   7  3.631081E-11 -1.185783E-11 -1.067546E-11  2.136137E-12 -1.527112E-19  2.445095E-13
         4   8  3.631081E-11 -1.185783E-11 -1.067546E-11  8.646863E-13  9.391121E-21  2.445095E-13
         5   1  1.720974E-11  1.720974E-11 -1.790830E-11  2.439279E-12  1.973183E-12  1.973183E-12
         5   2  1.720974E-11  3.773085E-11 -2.354597E-11  1.269983E-11  1.973183E-12  1.973183E-12
         5   3  3.773085E-11  1.720974E-11 -2.354597E-11  1.269983E-11  1.973183E-12  1.973183E-12
         5   4  3.773085E-11  3.773085E-11 -2.918364E-11  2.296039E-11  1.973183E-12  1.973183E-12
         5   5  1.720974E-11  1.720974E-11 -1.790830E-11  2.439279E-12 -1.973184E-12 -1.973184E-12
         5   6  1.720974E-11  3.773085E-11 -2.354597E-11  1.269983E-11 -1.973184E-12 -1.973184E-12
         5   7  3.773085E-11  1.720974E-11 -2.354597E-11  1.269983E-11 -1.973184E-12 -1.973184E-12
         5   8  3.773085E-11  3.773085E-11 -2.918364E-11  2.296039E-11 -1.973184E-12 -1.973184E-12
         6   1  1.776111E-11 -1.101580E-11 -2.100727E-12  1.486753E-11 -1.991850E-12  1.004769E-12
         6   2  1.776111E-11 -3.173104E-11  3.590273E-12  2.009233E-11 -1.991850E-12  1.004769E-12
         6   3  2.821071E-11 -1.101580E-11 -4.971496E-12  4.509911E-12 -1.991850E-12  1.004769E-12
         6   4  2.821071E-11 -3.173104E-11  7.195039E-13  9.734712E-12 -1.991850E-12  1.004769E-12
         6   5  1.776111E-11 -1.101580E-11 -2.100727E-12  1.486753E-11  1.991850E-12 -1.004769E-12
         6   6  1.776111E-11 -3.173104E-11  3.590273E-12  2.009233E-11  1.991850E-12 -1.004770E-12
         6   7  2.821071E-11 -1.101580E-11 -4.971496E-12  4.509912E-12  1.991850E-12 -1.004769E-12
         6   8  2.821071E-11 -3.173104E-11  7.195039E-13  9.734712E-12  1.991850E-12 -1.004769E-12
         7   1  6.038455E-12  3.691121E-12 -6.551450E-13  9.701405E-12  6.673162E-14 -3.965409E-12
         7   2  6.038455E-12  1.301422E-12 -2.791178E-13 -1.084004E-11 -1.417326E-14 -3.965409E-12
         7   3 -3.504444E-11  3.691121E-12  1.063136E-11  8.506556E-12  6.673162E-14 -3.935147E-12
         7   4 -3.504444E-11  1.301422E-12  1.100739E-11 -1.203489E-11 -1.417326E-14 -3.935147E-12
         7   5  5.811921E-12  3.775854E-12 -6.551450E-13  9.701405E-12  3.299507E-13  3.935147E-12
         7   6  5.811921E-12  1.386156E-12 -2.791178E-13 -1.084004E-11  2.490458E-13  3.935147E-12
         7   7 -3.527097E-11  3.775854E-12  1.063136E-11  8.506556E-12  3.299507E-13  3.965409E-12
         7   8 -3.527097E-11  1.386156E-12  1.100739E-11 -1.203489E-11  2.490458E-13  3.965409E-12
         8   1 -1.101580E-11  1.776111E-11 -2.100727E-12  1.486753E-11  1.004769E-12 -1.991849E-12
         8   2 -1.101580E-11  2.821071E-11 -4.971496E-12  4.509911E-12  1.004769E-12 -1.991849E-12
         8   3 -3.173104E-11  1.776111E-11  3.590273E-12  2.009233E-11  1.004769E-12 -1.991850E-12
         8   4 -3.173104E-11  2.821071E-11  7.195038E-13  9.734712E-12  1.004769E-12 -1.991850E-12
         8   5 -1.101580E-11  1.776111E-11 -2.100727E-12  1.486753E-11 -1.004769E-12  1.991850E-12
         8   6 -1.101580E-11  2.821071E-11 -4.971496E-12  4.509911E-12 -1.004769E-12  1.991850E-12
         8   7 -3.173104E-11  1.776111E-11  3.590273E-12  2.009233E-11 -1.004769E-12  1.991850E-12
         8   8 -3.173104E-11  2.821071E-11  7.195038E-13  9.734712E-12 -1.004769E-12  1.991850E-12
         9   1  1.850406E-38  1.045552E-38  3.970188E-19  1.390933E-38 -9.618746E-20 -7.230324E-20
         9   2  1.850406E-38  5.421011E-19  2.160593E-20  2.710505E-19 -1.487230E-20  4.928166E-20
         9   3  6.253584E-39  1.045552E-38  1.148244E-19  8.086066E-39 -4.895986E-19 -5.059841E-19
         9   4  6.253584E-39  2.059984E-18 -1.034186E-19  1.029992E-18 -3.811784E-19 -3.572942E-19
         9   5  2.577283E-37 -1.734723E-18  3.970188E-19 -8.673617E-19 -2.505563E-19 -1.614192E-19
         9   6  2.577283E-37 -8.673617E-19  2.160593E-20 -4.336809E-19  6.710156E-19  9.104414E-19
         9   7  8.710119E-38 -1.734723E-18  1.148244E-19 -8.673617E-19 -2.086878E-19 -2.698394E-19
         9   8  8.710119E-38  2.858472E-38 -1.034186E-19  4.989753E-38 -5.339484E-19 -4.448113E-19

 displacements (vx,vy,vz) for set NALL and time  0.2287813E+00

         1  0.000000E+00  0.000000E+00  0.000000E+00
         2  2.324398E-10  0.000000E+00  0.000000E+00
         3  1.220309E-02  0.000000E+00  0.000000E+00
         4  1.220308E-02  0.000000E+00  0.000000E+00
         5 -1.424999E-02  0.000000E+00  0.000000E+00
         6 -1.424998E-02  0.000000E+00  0.000000E+00
         7  0.000000E+00  2.324398E-10  0.000000E+00
         8  2.324398E-10  2.324398E-10  0.000000E+00
         9  1.220309E-02  1.891798E-08  0.000000E+00
        10  1.220309E-02  1.691095E-08  0.000000E+00
        11 -1.424997E-02  1.118761E-08  0.000000E+00
        12 -1.424997E-02 -2.347383E-08  0.000000E+00
        13  0.000000E+00  1.220309E-02  0.000000E+00
        14  1.891798E-08  1.220309E-02  0.000000E+00
        15  6.389137E-01  6.389137E-01  0.000000E+00
        16  6.389137E-01  6.389137E-01  0.000000E+00
        17  1.007379E+00  5.722835E-02  0.000000E+00
        18  1.006886E+00 -6.446598E-01  0.000000E+00
        19  0.000000E+00  1.220308E-02  0.000000E+00
        20  1.691095E-08  1.220309E-02  0.000000E+00
        21  6.389137E-01  6.389137E-01  0.000000E+00
        22  6.389138E-01  6.389138E-01  0.000000E+00
        23  1.709267E+00  5.673570E-02  0.000000E+00
        24  1.708774E+00 -6.451525E-01  0.000000E+00
        25  0.000000E+00 -1.424999E-02  0.000000E+00
        26  1.118761E-08 -1.424997E-02  0.000000E+00
        27  5.722835E-02  1.007379E+00  0.000000E+00
        28  5.673570E-02  1.709267E+00  0.000000E+00
        29 -6.863438E+00 -6.863438E+00  0.000000E+00
        30 -6.863438E+00 -6.863438E+00  0.000000E+00
        31  0.000000E+00 -1.424998E-02  0.000000E+00
        32 -2.347383E-08 -1.424997E-02  0.000000E+00
        33 -6.446598E-01  1.006886E+00  0.000000E+00
        34 -6.451525E-01  1.708774E+00  0.000000E+00
        35 -6.863438E+00 -6.863438E+00  0.000000E+00
        36 -6.863438E+00 -6.863438E+00  0.000000E+00
        37  0.000000E+00  0.000000E+00 -2.789278E-10
        38  2.324398E-10  0.000000E+00 -2.789278E-10
        39  1.220309E-02  0.000000E+00 -7.804186E-09
        40  1.220308E-02  0.000000E+00 -7.032250E-09
        41 -1.425000E-02  0.000000E+00 -3.779015E-09
        42 -1.424999E-02  0.000000E+00  9.552306E-09
        43  0.000000E+00  2.324398E-10 -2.789278E-10
        44  2.324398E-10  2.324398E-10 -2.789278E-10
        45  1.220309E-02  1.891798E-08 -7.804187E-09
        46  1.220308E-02  1.691095E-08 -7.032251E-09
        47 -1.424998E-02  1.101082E-08 -3.368170E-09
        48 -1.424998E-02 -2.365062E-08  9.963152E-09
        49  0.000000E+00  1.220309E-02 -7.804186E-09
        50  1.891798E-08  1.220309E-02 -7.804187E-09
        51  6.389137E-01  6.389137E-01 -9.052342E-09
        52  6.389137E-01  6.389137E-01 -1.568739E-08
        53  1.007379E+00  5.722835E-02 -2.398676E-09
        54  1.006886E+00 -6.446598E-01  4.414400E-09
        55  0.000000E+00  1.220308E-02 -7.032250E-09
        56  1.691095E-08  1.220308E-02 -7.032251E-09
        57  6.389137E-01  6.389137E-01 -1.568739E-08
        58  6.389138E-01  6.389138E-01 -2.232244E-08
        59  1.709267E+00  5.673571E-02 -6.039535E-09
        60  1.708774E+00 -6.451525E-01  7.735413E-10
        61  0.000000E+00 -1.425000E-02 -3.779015E-09
        62  1.101082E-08 -1.424998E-02 -3.368170E-09
        63  5.722835E-02  1.007379E+00 -2.398676E-09
        64  5.673571E-02  1.709267E+00 -6.039535E-09
        65 -6.863438E+00 -6.863438E+00  7.196821E-17
        66 -6.863438E+00 -6.863438E+00 -7.551160E-17
        67  0.000000E+00 -1.424999E-02  9.552306E-09
        68 -2.365062E-08 -1.424998E-02  9.963152E-09
        69 -6.446598E-01  1.006886E+00  4.414400E-09
        70 -6.451525E-01  1.708774E+00  7.735413E-10
        71 -6.863438E+00 -6.863438E+00 -1.537572E-16
        72 -6.863438E+00 -6.863438E+00  7.041306E-16

 stresses (elem, integ.pnt.,sxx,syy,szz,sxy,sxz,syz) for set EALL and time  0.2287813E+00

         1   1  1.394639E-07  1.394639E-07 -3.974273E-15  3.329659E-15 -4.975968E-16 -4.975968E-16
         1   2  1.394639E-07  1.394639E-07  1.972014E-15  7.878057E-15 -1.506532E-15 -4.975968E-16
         1   3  1.394639E-07  1.394639E-07  1.972014E-15  7.878057E-15 -4.975968E-16 -1.506532E-15
         1   4  1.394639E-07  1.394639E-07  7.918300E-15  1.242646E-14 -1.506532E-15 -1.506532E-15
         1   5  1.394639E-07  1.394639E-07 -8.211801E-15  3.329659E-15 -8.481213E-16 -8.481213E-16
         1   6  1.394639E-07  1.394639E-07 -2.265514E-15  7.878057E-15 -1.857057E-15 -8.481213E-16
         1   7  1.394639E-07  1.394639E-07 -2.265514E-15  7.878057E-15 -8.481213E-16 -1.857057E-15
         1   8  1.394639E-07  1.394639E-07  3.680772E-15  1.242646E-14 -1.857057E-15 -1.857057E-15
         2   1  2.039163E-08  7.788651E-06  5.039576E-08  3.144846E-07 -3.599705E-08  1.846936E-15
         2   2 -1.832486E-07  7.210642E-06 -5.039577E-08  3.144846E-07 -3.599707E-08  4.350741E-16
         2   3  2.039176E-08  7.788651E-06  5.039577E-08  1.273001E-07 -3.599704E-08  2.834321E-14
         2   4 -1.832484E-07  7.210642E-06 -5.039577E-08  1.273001E-07 -3.599707E-08  2.584712E-14
         2   5  2.039155E-08  7.788651E-06  5.039576E-08  3.144846E-07  3.599701E-08 -1.960273E-14
         2   6 -1.832486E-07  7.210642E-06 -5.039578E-08  3.144846E-07  3.599698E-08 -2.378764E-14
         2   7  2.039169E-08  7.788651E-06  5.039577E-08  1.273001E-07  3.599701E-08  6.893211E-15
         2   8 -1.832485E-07  7.210642E-06 -5.039577E-08  1.273001E-07  3.599698E-08  1.624071E-15
         3   1  1.678608E-06  2.398451E-06  9.606316E-07  1.552144E-06 -6.238706E-07  9.714224E-09
         3   2 -1.838257E-06 -7.583762E-06 -7.800390E-07  1.378208E-06 -6.194653E-07  9.714224E-09
         3   3  1.110886E-06  2.178601E-06  7.955206E-07 -1.680529E-06 -6.238706E-07 -2.063221E-09
         3   4 -2.405979E-06 -7.803612E-06 -9.451501E-07 -1.854465E-06 -6.194653E-07 -2.063221E-09
         3   5  1.675461E-06  2.349992E-06  9.451501E-07  1.552144E-06  6.194654E-07  4.803142E-08
         3   6 -1.841403E-06 -7.632220E-06 -7.955206E-07  1.378208E-06  6.238707E-07  4.803142E-08
         3   7  1.107740E-06  2.130142E-06  7.800390E-07 -1.680529E-06  6.194654E-07  3.625398E-08
         3   8 -2.409125E-06 -7.852070E-06 -9.606316E-07 -1.854465E-06  6.238707E-07  3.625398E-08
         4   1  7.788651E-06  2.039163E-08  5.039576E-08  3.144846E-07  1.838336E-15 -3.599705E-08
         4   2  7.788651E-06  2.039176E-08  5.039577E-08  1.273001E-07  2.833643E-14 -3.599704E-08
         4   3  7.210642E-06 -1.832486E-07 -5.039577E-08  3.144846E-07  4.446990E-16 -3.599707E-08
         4   4  7.210642E-06 -1.832484E-07 -5.039577E-08  1.273001E-07  2.584234E-14 -3.599707E-08
         4   5  7.788651E-06  2.039155E-08  5.039576E-08  3.144846E-07 -1.963664E-14  3.599701E-08
         4   6  7.788651E-06  2.039169E-08  5.039577E-08  1.273001E-07  6.861116E-15  3.599701E-08
         4   7  7.210642E-06 -1.832486E-07 -5.039578E-08  3.144846E-07 -2.373731E-14  3.599698E-08
         4   8  7.210642E-06 -1.832485E-07 -5.039577E-08  1.273001E-07  1.659992E-15  3.599699E-08
         5   1  4.484424E-06  4.484424E-06 -8.663382E-07  3.874679E-07  3.094063E-07  3.094064E-07
         5   2  6.234781E-06  9.452608E-06  3.564469E-14  1.996381E-06  3.094063E-07  3.094064E-07
         5   3  9.452608E-06  6.234781E-06 -5.116516E-15  1.996381E-06  3.094063E-07  3.094063E-07
         5   4  1.120296E-05  1.120296E-05  8.663383E-07  3.605295E-06  3.094064E-07  3.094063E-07
         5   5  4.484424E-06  4.484424E-06 -8.663382E-07  3.874679E-07 -3.094065E-07 -3.094065E-07
         5   6  6.234781E-06  9.452608E-06  1.268626E-14  1.996381E-06 -3.094065E-07 -3.094065E-07
         5   7  9.452608E-06  6.234781E-06  8.047752E-15  1.996381E-06 -3.094065E-07 -3.094065E-07
         5   8  1.120296E-05  1.120296E-05  8.663382E-07  3.605295E-06 -3.094065E-07 -3.094065E-07
         6   1  3.202612E-06 -7.824159E-07  2.075666E-07  2.275931E-06 -3.174696E-07  1.702268E-07
         6   2  1.407762E-06 -5.886376E-06 -6.820169E-07  3.154150E-06 -3.174696E-07  1.702268E-07
         6   3  5.924168E-06  1.827016E-07  6.829536E-07  6.213752E-07 -3.174696E-07  1.702269E-07
         6   4  4.129319E-06 -4.921259E-06 -2.066299E-07  1.499595E-06 -3.174696E-07  1.702268E-07
         6   5  3.202612E-06 -7.824159E-07  2.075665E-07  2.275931E-06  3.174697E-07 -1.702269E-07
         6   6  1.407762E-06 -5.886376E-06 -6.820169E-07  3.154150E-06  3.174697E-07 -1.702269E-07
         6   7  5.924168E-06  1.827016E-07  6.829535E-07  6.213753E-07  3.174698E-07 -1.702268E-07
         6   8  4.129319E-06 -4.921259E-06 -2.066299E-07  1.499595E-06  3.174697E-07 -1.702269E-07
         7   1  2.398451E-06  1.678608E-06  9.606316E-07  1.552144E-06  9.714224E-09 -6.238706E-07
         7   2  2.178601E-06  1.110886E-06  7.955206E-07 -1.680529E-06 -2.063221E-09 -6.238706E-07
         7   3 -7.583762E-06 -1.838257E-06 -7.800390E-07  1.378208E-06  9.714224E-09 -6.194653E-07
         7   4 -7.803612E-06 -2.405979E-06 -9.451501E-07 -1.854465E-06 -2.063221E-09 -6.194653E-07
         7   5  2.349992E-06  1.675461E-06  9.451501E-07  1.552144E-06  4.803142E-08  6.194654E-07
         7   6  2.130142E-06  1.107740E-06  7.800390E-07 -1.680529E-06  3.625398E-08  6.194654E-07
         7   7 -7.632220E-06 -1.841403E-06 -7.955206E-07  1.378208E-06  4.803142E-08  6.238707E-07
         7   8 -7.852070E-06 -2.409125E-06 -9.606316E-07 -1.854465E-06  3.625398E-08  6.238707E-07
         8   1 -7.824159E-07  3.202612E-06  2.075665E-07  2.275931E-06  1.702268E-07 -3.174696E-07
         8   2  1.827015E-07  5.924168E-06  6.829535E-07  6.213753E-07  1.702269E-07 -3.174695E-07
         8   3 -5.886376E-06  1.407762E-06 -6.820169E-07  3.154150E-06  1.702268E-07 -3.174697E-07
         8   4 -4.921259E-06  4.129319E-06 -2.066299E-07  1.499595E-06  1.702268E-07 -3.174696E-07
         8   5 -7.824159E-07  3.202612E-06  2.075665E-07  2.275931E-06 -1.702269E-07  3.174697E-07
         8   6  1.827015E-07  5.924168E-06  6.829535E-07  6.213753E-07 -1.702269E-07  3.174698E-07
         8   7 -5.886376E-06  1.407762E-06 -6.820169E-07  3.154150E-06 -1.702269E-07  3.174697E-07
         8   8 -4.921259E-06  4.129319E-06 -2.066299E-07  1.499595E-06 -1.702269E-07  3.174697E-07
         9   1  6.576677E-15  6.576677E-15  1.534558E-14  6.186684E-31  1.598445E-13  1.571734E-13
         9   2  5.247638E-14  1.050185E-13  6.990279E-14  2.627105E-14  2.218206E-15  1.936198E-14
         9   3  5.251039E-15  5.251039E-15  1.225242E-14  4.485529E-31 -1.180792E-13 -1.405652E-13
         9   4  4.347509E-14  8.447017E-15  1.364699E-13 -1.751404E-14  5.706113E-14  5.439005E-14
         9   5 -2.035917E-13 -4.838163E-13 -1.948228E-13 -1.401123E-13 -2.674961E-14 -3.671820E-14
         9   6 -1.445565E-13 -3.547249E-13 -1.271301E-13 -1.050842E-13 -4.426365E-14  1.971779E-14
         9   7  5.251039E-15  5.251039E-15  1.225242E-14  4.995148E-32  1.217234E-14 -7.174627E-14
         9   8  1.720403E-14 -5.285211E-14  1.101989E-13 -3.502807E-14 -7.539783E-14 -8.536642E-14

 strains (elem, integ.pnt.,exx,eyy,ezz,exy,exz,eyz) forset EALL and time  0.2287813E+00

         1   1  4.648796E-13  4.648796E-13 -3.984682E-13  2.061217E-20 -3.080361E-21 -3.080361E-21
         1   2  4.648796E-13  4.648796E-13 -3.984682E-13  4.876893E-20 -9.326151E-21 -3.080361E-21
         1   3  4.648796E-13  4.648796E-13 -3.984682E-13  4.876893E-20 -3.080361E-21 -9.326151E-21
         1   4  4.648796E-13  4.648796E-13 -3.984682E-13  7.692568E-20 -9.326151E-21 -9.326151E-21
         1   5  4.648796E-13  4.648796E-13 -3.984682E-13  2.061217E-20 -5.250275E-21 -5.250275E-21
         1   6  4.648796E-13  4.648796E-13 -3.984682E-13  4.876893E-20 -1.149606E-20 -5.250275E-21
         1   7  4.648796E-13  4.648796E-13 -3.984682E-13  4.876893E-20 -5.250275E-21 -1.149606E-20
         1   8  4.648796E-13  4.648796E-13 -3.984682E-13  7.692568E-20 -1.149606E-20 -1.149606E-20
         2   1 -1.110154E-11  3.698769E-11 -1.091580E-11  1.946809E-12 -2.228389E-13  1.143259E-20
         2   2 -1.110154E-11  3.467017E-11 -1.027911E-11  1.946809E-12 -2.228390E-13  2.692492E-21
         2   3 -1.110154E-11  3.698769E-11 -1.091580E-11  7.880482E-13 -2.228388E-13  1.754570E-19
         2   4 -1.110154E-11  3.467017E-11 -1.027911E-11  7.880485E-13 -2.228390E-13  1.600050E-19
         2   5 -1.110154E-11  3.698769E-11 -1.091580E-11  1.946809E-12  2.228386E-13 -1.213524E-19
         2   6 -1.110154E-11  3.467017E-11 -1.027911E-11  1.946809E-12  2.228385E-13 -1.472590E-19
         2   7 -1.110154E-11  3.698769E-11 -1.091580E-11  7.880483E-13  2.228386E-13  4.267200E-20
         2   8 -1.110154E-11  3.467017E-11 -1.027911E-11  7.880485E-13  2.228385E-13  1.005352E-20
         3   1  3.194683E-12  7.650851E-12 -1.249934E-12  9.608513E-12 -3.862056E-12  6.013567E-14
         3   2  3.194683E-12 -3.237273E-11  9.745555E-12  8.531767E-12 -3.834785E-12  6.013567E-14
         3   3  1.041190E-12  7.650851E-12 -9.110741E-13 -1.040328E-11 -3.862056E-12 -1.277232E-14
         3   4  1.041190E-12 -3.237273E-11  1.008441E-11 -1.148002E-11 -3.834785E-12 -1.277232E-14
         3   5  3.271042E-12  7.446709E-12 -1.249934E-12  9.608513E-12  3.834786E-12  2.973374E-13
         3   6  3.271042E-12 -3.257687E-11  9.745555E-12  8.531767E-12  3.862057E-12  2.973374E-13
         3   7  1.117548E-12  7.446709E-12 -9.110741E-13 -1.040328E-11  3.834786E-12  2.244294E-13
         3   8  1.117548E-12 -3.257687E-11  1.008441E-11 -1.148002E-11  3.862057E-12  2.244294E-13
         4   1  3.698769E-11 -1.110154E-11 -1.091580E-11  1.946809E-12  1.137935E-20 -2.228389E-13
         4   2  3.698769E-11 -1.110154E-11 -1.091580E-11  7.880482E-13  1.754150E-19 -2.228388E-13
         4   3  3.467017E-11 -1.110154E-11 -1.027911E-11  1.946809E-12  2.752075E-21 -2.228390E-13
         4   4  3.467017E-11 -1.110154E-11 -1.027911E-11  7.880485E-13  1.599754E-19 -2.228390E-13
         4   5  3.698769E-11 -1.110154E-11 -1.091580E-11  1.946809E-12 -1.215624E-19  2.228386E-13
         4   6  3.698769E-11 -1.110154E-11 -1.091580E-11  7.880483E-13  4.247332E-20  2.228386E-13
         4   7  3.467017E-11 -1.110154E-11 -1.027911E-11  1.946809E-12 -1.469475E-19  2.228385E-13
         4   8  3.467017E-11 -1.110154E-11 -1.027911E-11  7.880485E-13  1.027588E-20  2.228385E-13
         5   1  1.618571E-11  1.618571E-11 -1.693806E-11  2.398611E-12  1.915373E-12  1.915373E-12
         5   2  1.618571E-11  3.610559E-11 -2.241056E-11  1.235855E-11  1.915373E-12  1.915373E-12
         5   3  3.610559E-11  1.618571E-11 -2.241056E-11  1.235855E-11  1.915373E-12  1.915373E-12
         5   4  3.610559E-11  3.610559E-11 -2.788305E-11  2.231849E-11  1.915373E-12  1.915373E-12
         5   5  1.618571E-11  1.618571E-11 -1.693806E-11  2.398611E-12 -1.915373E-12 -1.915373E-12
         5   6  1.618571E-11  3.610559E-11 -2.241056E-11  1.235855E-11 -1.915373E-12 -1.915373E-12
         5   7  3.610559E-11  1.618571E-11 -2.241056E-11  1.235855E-11 -1.915373E-12 -1.915373E-12
         5   8  3.610559E-11  3.610559E-11 -2.788305E-11  2.231849E-11 -1.915373E-12 -1.915373E-12
         6   1  1.603214E-11 -8.557869E-12 -2.469010E-12  1.412367E-11 -1.966765E-12  1.051025E-12
         6   2  1.603214E-11 -2.901223E-11  3.150320E-12  1.958900E-11 -1.966765E-12  1.051025E-12
         6   3  2.696281E-11 -8.557869E-12 -5.471940E-12  3.896487E-12 -1.966765E-12  1.051026E-12
         6   4  2.696281E-11 -2.901223E-11  1.473900E-13  9.361820E-12 -1.966765E-12  1.051025E-12
         6   5  1.603214E-11 -8.557869E-12 -2.469010E-12  1.412367E-11  1.966766E-12 -1.051026E-12
         6   6  1.603214E-11 -2.901223E-11  3.150320E-12  1.958900E-11  1.966766E-12 -1.051026E-12
         6   7  2.696281E-11 -8.557869E-12 -5.471940E-12  3.896487E-12  1.966766E-12 -1.051025E-12
         6   8  2.696281E-11 -2.901223E-11  1.473900E-13  9.361820E-12  1.966766E-12 -1.051026E-12
         7   1  7.650851E-12  3.194683E-12 -1.249934E-12  9.608513E-12  6.013567E-14 -3.862056E-12
         7   2  7.650851E-12  1.041190E-12 -9.110741E-13 -1.040328E-11 -1.277232E-14 -3.862056E-12
         7   3 -3.237273E-11  3.194683E-12  9.745555E-12  8.531767E-12  6.013567E-14 -3.834785E-12
         7   4 -3.237273E-11  1.041190E-12  1.008441E-11 -1.148002E-11 -1.277232E-14 -3.834785E-12
         7   5  7.446709E-12  3.271042E-12 -1.249934E-12  9.608513E-12  2.973374E-13  3.834786E-12
         7   6  7.446709E-12  1.117548E-12 -9.110741E-13 -1.040328E-11  2.244294E-13  3.834786E-12
         7   7 -3.257687E-11  3.271042E-12  9.745555E-12  8.531767E-12  2.973374E-13  3.862057E-12
         7   8 -3.257687E-11  1.117548E-12  1.008441E-11 -1.148002E-11  2.244294E-13  3.862057E-12
         8   1 -8.557869E-12  1.603214E-11 -2.469010E-12  1.412367E-11  1.051025E-12 -1.966765E-12
         8   2 -8.557869E-12  2.696281E-11 -5.471940E-12  3.896487E-12  1.051025E-12 -1.966765E-12
         8   3 -2.901223E-11  1.603214E-11  3.150320E-12  1.958900E-11  1.051025E-12 -1.966766E-12
         8   4 -2.901223E-11  2.696281E-11  1.473900E-13  9.361820E-12  1.051025E-12 -1.966765E-12
         8   5 -8.557869E-12  1.603214E-11 -2.469010E-12  1.412367E-11 -1.051026E-12  1.966766E-12
         8   6 -8.557869E-12  2.696281E-11 -5.471940E-12  3.896487E-12 -1.051025E-12  1.966767E-12
         8   7 -2.901223E-11  1.603214E-11  3.150320E-12  1.958900E-11 -1.051026E-12  1.966766E-12
         8   8 -2.901223E-11  2.696281E-11  1.473900E-13  9.361820E-12 -1.051026E-12  1.966766E-12
         9   1  3.771220E-40  1.571898E-41  5.428369E-20 -7.699335E-41  9.895137E-19  9.729785E-19
         9   2  3.771220E-40  3.252607E-19  1.078778E-19  1.626303E-19  1.373175E-20  1.198599E-19
         9   3  3.720725E-38  1.571898E-41  4.334191E-20 -7.647615E-40 -7.309666E-19 -8.701652E-19
         9   4  3.720725E-38 -2.168404E-19  5.756824E-19 -1.084202E-19  3.532355E-19  3.367003E-19
         9   5  5.252632E-39 -1.734723E-18  5.428369E-20 -8.673617E-19 -1.655928E-19 -2.273032E-19
         9   6  5.252632E-39 -1.301043E-18  1.078778E-19 -6.505213E-19 -2.740131E-19  1.220625E-19
         9   7  5.182302E-37  2.189372E-40  4.334191E-20 -1.065175E-38  7.535260E-20 -4.441436E-19
         9   8  5.182302E-37 -4.336809E-19  5.756824E-19 -2.168404E-19 -4.667485E-19 -5.284588E-19

 displacements (vx,vy,vz) for set NALL and time  0.2377813E+00

         1  0.000000E+00  0.000000E+00  0.000000E+00
         2  2.644016E-10  0.000000E+00  0.000000E+00
         3  1.388108E-02  0.000000E+00  0.000000E+00
         4  1.388108E-02  0.000000E+00  0.000000E+00
         5 -6.842203E-03  0.000000E+00  0.000000E+00
         6 -6.842201E-03  0.000000E+00  0.000000E+00
         7  0.000000E+00  2.644016E-10  0.000000E+00
         8  2.644016E-10  2.644016E-10  0.000000E+00
         9  1.388109E-02  1.781509E-08  0.000000E+00
        10  1.388108E-02  1.601842E-08  0.000000E+00
        11 -6.842186E-03  1.149933E-08  0.000000E+00
        12 -6.842186E-03 -2.180689E-08  0.000000E+00
        13  0.000000E+00  1.388108E-02  0.000000E+00
        14  1.781509E-08  1.388109E-02  0.000000E+00
        15  6.051582E-01  6.051582E-01  0.000000E+00
        16  6.051582E-01  6.051582E-01  0.000000E+00
        17  9.472630E-01  8.632126E-02  0.000000E+00
        18  9.468159E-01 -5.823292E-01  0.000000E+00
        19  0.000000E+00  1.388108E-02  0.000000E+00
        20  1.601842E-08  1.388108E-02  0.000000E+00
        21  6.051582E-01  6.051582E-01  0.000000E+00
        22  6.051583E-01  6.051583E-01  0.000000E+00
        23  1.615913E+00  8.587416E-02  0.000000E+00
        24  1.615466E+00 -5.827763E-01  0.000000E+00
        25  0.000000E+00 -6.842203E-03  0.000000E+00
        26  1.149933E-08 -6.842186E-03  0.000000E+00
        27  8.632126E-02  9.472630E-01  0.000000E+00
        28  8.587416E-02  1.615913E+00  0.000000E+00
        29 -7.133438E+00 -7.133438E+00  0.000000E+00
        30 -7.133438E+00 -7.133438E+00  0.000000E+00
        31  0.000000E+00 -6.842201E-03  0.000000E+00
        32 -2.180689E-08 -6.842186E-03  0.000000E+00
        33 -5.823292E-01  9.468159E-01  0.000000E+00
        34 -5.827763E-01  1.615466E+00  0.000000E+00
        35 -7.133438E+00 -7.133438E+00  0.000000E+00
        36 -7.133438E+00 -7.133438E+00  0.000000E+00
        37  0.000000E+00  0.000000E+00 -3.172819E-10
        38  2.644016E-10  0.000000E+00 -3.172819E-10
        39  1.388108E-02  0.000000E+00 -7.399722E-09
        40  1.388108E-02  0.000000E+00 -6.708698E-09
        41 -6.842212E-03  0.000000E+00 -3.989325E-09
        42 -6.842210E-03  0.000000E+00  8.820758E-09
        43  0.000000E+00  2.644016E-10 -3.172819E-10
        44  2.644016E-10  2.644016E-10 -3.172819E-10
        45  1.388109E-02  1.781509E-08 -7.399723E-09
        46  1.388108E-02  1.601843E-08 -6.708698E-09
        47 -6.842195E-03  1.134318E-08 -3.626448E-09
        48 -6.842195E-03 -2.196304E-08  9.183635E-09
        49  0.000000E+00  1.388108E-02 -7.399722E-09
        50  1.781509E-08  1.388109E-02 -7.399723E-09
        51  6.051582E-01  6.051582E-01 -8.427291E-09
        52  6.051583E-01  6.051582E-01 -1.478544E-08
        53  9.472630E-01  8.632126E-02 -2.516976E-09
        54  9.468159E-01 -5.823292E-01  4.096939E-09
        55  0.000000E+00  1.388108E-02 -6.708698E-09
        56  1.601843E-08  1.388108E-02 -6.708698E-09
        57  6.051582E-01  6.051583E-01 -1.478544E-08
        58  6.051583E-01  6.051583E-01 -2.114359E-08
        59  1.615913E+00  8.587417E-02 -6.262668E-09
        60  1.615466E+00 -5.827763E-01  3.512475E-10
        61  0.000000E+00 -6.842212E-03 -3.989325E-09
        62  1.134318E-08 -6.842195E-03 -3.626448E-09
        63  8.632126E-02  9.472630E-01 -2.516977E-09
        64  8.587417E-02  1.615913E+00 -6.262668E-09
        65 -7.133438E+00 -7.133438E+00  1.151299E-16
        66 -7.133438E+00 -7.133438E+00  7.224062E-17
        67  0.000000E+00 -6.842210E-03  8.820758E-09
        68 -2.196304E-08 -6.842195E-03  9.183635E-09
        69 -5.823292E-01  9.468159E-01  4.096939E-09
        70 -5.827763E-01  1.615466E+00  3.512473E-10
        71 -7.133438E+00 -7.133438E+00  2.287317E-16
        72 -7.133438E+00 -7.133438E+00 -2.922581E-16

 stresses (elem, integ.pnt.,sxx,syy,szz,sxy,sxz,syz) for set EALL and time  0.2377813E+00

         1   1  1.586410E-07  1.586410E-07 -3.579703E-15  2.986751E-15 -4.476897E-16 -4.477317E-16
         1   2  1.586410E-07  1.586410E-07  1.735805E-15  7.066712E-15 -1.349007E-15 -4.477317E-16
         1   3  1.586410E-07  1.586410E-07  1.736096E-15  7.066745E-15 -4.476898E-16 -1.349300E-15
         1   4  1.586410E-07  1.586410E-07  7.051603E-15  1.114671E-14 -1.349007E-15 -1.349300E-15
         1   5  1.586409E-07  1.586409E-07 -7.365763E-15  2.986751E-15 -7.694832E-16 -7.693893E-16
         1   6  1.586410E-07  1.586410E-07 -2.050256E-15  7.066712E-15 -1.670801E-15 -7.693893E-16
         1   7  1.586410E-07  1.586410E-07 -2.049965E-15  7.066745E-15 -7.694832E-16 -1.670957E-15
         1   8  1.586410E-07  1.586410E-07  3.265543E-15  1.114671E-14 -1.670801E-15 -1.670957E-15
         2   1  5.204942E-08  7.352020E-06  4.511346E-08  2.815215E-07 -3.222398E-08  1.752471E-15
         2   2 -1.302460E-07  6.834596E-06 -4.511348E-08  2.815215E-07 -3.222400E-08  4.625255E-16
         2   3  5.204955E-08  7.352021E-06  4.511348E-08  1.139570E-07 -3.222397E-08  2.701593E-14
         2   4 -1.302458E-07  6.834596E-06 -4.511347E-08  1.139570E-07 -3.222400E-08  2.480748E-14
         2   5  5.204935E-08  7.352021E-06  4.511346E-08  2.815215E-07  3.222394E-08 -1.872260E-14
         2   6 -1.302460E-07  6.834596E-06 -4.511348E-08  2.815215E-07  3.222391E-08 -2.261824E-14
         2   7  5.204948E-08  7.352021E-06  4.511348E-08  1.139570E-07  3.222394E-08  6.540594E-15
         2   8 -1.302459E-07  6.834596E-06 -4.511347E-08  1.139570E-07  3.222392E-08  1.726451E-15
         3   1  1.634268E-06  2.624815E-06  9.160600E-07  1.511535E-06 -5.993070E-07  8.580037E-09
         3   2 -1.745091E-06 -6.967105E-06 -7.565525E-07  1.357907E-06 -5.954160E-07  8.580037E-09
         3   3  1.132831E-06  2.430634E-06  7.702265E-07 -1.594745E-06 -5.993070E-07 -1.822327E-09
         3   4 -2.246529E-06 -7.161286E-06 -9.023860E-07 -1.748373E-06 -5.954160E-07 -1.822327E-09
         3   5  1.631489E-06  2.582015E-06  9.023860E-07  1.511535E-06  5.954161E-07  4.242350E-08
         3   6 -1.747871E-06 -7.009905E-06 -7.702265E-07  1.357907E-06  5.993071E-07  4.242350E-08
         3   7  1.130052E-06  2.387834E-06  7.565525E-07 -1.594745E-06  5.954161E-07  3.202113E-08
         3   8 -2.249308E-06 -7.204086E-06 -9.160600E-07 -1.748373E-06  5.993071E-07  3.202113E-08
         4   1  7.352020E-06  5.204942E-08  4.511346E-08  2.815215E-07  1.749907E-15 -3.222398E-08
         4   2  7.352021E-06  5.204955E-08  4.511348E-08  1.139570E-07  2.705030E-14 -3.222397E-08
         4   3  6.834596E-06 -1.302460E-07 -4.511348E-08  2.815215E-07  4.749763E-16 -3.222400E-08
         4   4  6.834596E-06 -1.302458E-07 -4.511347E-08  1.139570E-07  2.477690E-14 -3.222400E-08
         4   5  7.352021E-06  5.204935E-08  4.511346E-08  2.815215E-07 -1.876910E-14  3.222394E-08
         4   6  7.352021E-06  5.204948E-08  4.511348E-08  1.139570E-07  6.531024E-15  3.222394E-08
         4   7  6.834596E-06 -1.302460E-07 -4.511348E-08  2.815215E-07 -2.252874E-14  3.222391E-08
         4   8  6.834596E-06 -1.302459E-07 -4.511347E-08  1.139570E-07  1.772917E-15  3.222392E-08
         5   1  4.173641E-06  4.173641E-06 -8.301836E-07  3.737066E-07  2.964940E-07  2.964940E-07
         5   2  5.850951E-06  8.934489E-06  1.446712E-14  1.915476E-06  2.964940E-07  2.964940E-07
         5   3  8.934489E-06  5.850951E-06  4.655113E-14  1.915476E-06  2.964940E-07  2.964940E-07
         5   4  1.061180E-05  1.061180E-05  8.301836E-07  3.457245E-06  2.964940E-07  2.964940E-07
         5   5  4.173641E-06  4.173641E-06 -8.301836E-07  3.737066E-07 -2.964941E-07 -2.964941E-07
         5   6  5.850950E-06  8.934489E-06 -2.655500E-14  1.915476E-06 -2.964941E-07 -2.964941E-07
         5   7  8.934489E-06  5.850951E-06 -2.238399E-14  1.915476E-06 -2.964941E-07 -2.964941E-07
         5   8  1.061180E-05  1.061180E-05  8.301836E-07  3.457245E-06 -2.964941E-07 -2.964941E-07
         6   1  2.948208E-06 -4.118483E-07  1.876531E-07  2.136284E-06 -3.081871E-07  1.750819E-07
         6   2  1.205850E-06 -5.366633E-06 -6.759260E-07  3.040273E-06 -3.081871E-07  1.750819E-07
         6   3  5.748611E-06  5.805755E-07  6.767282E-07  5.300709E-07 -3.081871E-07  1.750819E-07
         6   4  4.006252E-06 -4.374209E-06 -1.868509E-07  1.434060E-06 -3.081871E-07  1.750819E-07
         6   5  2.948208E-06 -4.118483E-07  1.876531E-07  2.136284E-06  3.081872E-07 -1.750819E-07
         6   6  1.205850E-06 -5.366633E-06 -6.759260E-07  3.040273E-06  3.081872E-07 -1.750819E-07
         6   7  5.748611E-06  5.805754E-07  6.767281E-07  5.300710E-07  3.081872E-07 -1.750819E-07
         6   8  4.006252E-06 -4.374209E-06 -1.868510E-07  1.434060E-06  3.081872E-07 -1.750819E-07
         7   1  2.624815E-06  1.634268E-06  9.160600E-07  1.511535E-06  8.580037E-09 -5.993070E-07
         7   2  2.430634E-06  1.132831E-06  7.702265E-07 -1.594745E-06 -1.822327E-09 -5.993070E-07
         7   3 -6.967105E-06 -1.745091E-06 -7.565525E-07  1.357907E-06  8.580037E-09 -5.954160E-07
         7   4 -7.161286E-06 -2.246529E-06 -9.023860E-07 -1.748373E-06 -1.822327E-09 -5.954160E-07
         7   5  2.582015E-06  1.631489E-06  9.023860E-07  1.511535E-06  4.242350E-08  5.954161E-07
         7   6  2.387834E-06  1.130052E-06  7.565525E-07 -1.594745E-06  3.202113E-08  5.954161E-07
         7   7 -7.009905E-06 -1.747871E-06 -7.702265E-07  1.357907E-06  4.242350E-08  5.993071E-07
         7   8 -7.204086E-06 -2.249308E-06 -9.160600E-07 -1.748373E-06  3.202113E-08  5.993071E-07
         8   1 -4.118484E-07  2.948208E-06  1.876531E-07  2.136284E-06  1.750819E-07 -3.081871E-07
         8   2  5.805754E-07  5.748611E-06  6.767281E-07  5.300709E-07  1.750819E-07 -3.081871E-07
         8   3 -5.366633E-06  1.205850E-06 -6.759260E-07  3.040273E-06  1.750819E-07 -3.081872E-07
         8   4 -4.374209E-06  4.006252E-06 -1.868510E-07  1.434060E-06  1.750819E-07 -3.081871E-07
         8   5 -4.118483E-07  2.948208E-06  1.876531E-07  2.136284E-06 -1.750819E-07  3.081872E-07
         8   6  5.805754E-07  5.748610E-06  6.767281E-07  5.300709E-07 -1.750819E-07  3.081873E-07
         8   7 -5.366633E-06  1.205850E-06 -6.759260E-07  3.040273E-06 -1.750819E-07  3.081872E-07
         8   8 -4.374209E-06  4.006252E-06 -1.868510E-07  1.434060E-06 -1.750819E-07  3.081872E-07
         9   1  7.135939E-14  1.414155E-13  9.644910E-14  3.502807E-14 -9.248332E-14 -8.714116E-14
         9   2  2.408750E-13  5.561277E-13  2.467891E-13  1.576263E-13 -1.318899E-13 -1.359707E-13
         9   3  7.261519E-14  1.426713E-13  9.937931E-14  3.502807E-14  5.572009E-14  7.048515E-14
         9   4 -8.755843E-15  8.758192E-15 -3.794434E-14  8.757018E-15  5.572009E-14  6.106224E-14
         9   5 -1.913511E-13 -4.715757E-13 -1.662614E-13 -1.401123E-13  1.669198E-14  3.662916E-14
         9   6 -1.531908E-13 -3.633592E-13 -1.472767E-13 -1.050842E-13 -6.212117E-14 -7.735079E-14
         9   7 -1.900953E-13 -4.703199E-13 -1.633312E-13 -1.401123E-13 -5.350288E-14  1.601094E-15
         9   8  1.357349E-13  3.459034E-13  1.065465E-13  1.050842E-13  3.406730E-14  5.400448E-14

 strains (elem, integ.pnt.,exx,eyy,ezz,exy,exz,eyz) forset EALL and time  0.2377813E+00

         1   1  5.288032E-13  5.288032E-13 -4.532599E-13  1.848941E-20 -2.771413E-21 -2.771672E-21
         1   2  5.288032E-13  5.288032E-13 -4.532599E-13  4.374632E-20 -8.350998E-21 -2.771672E-21
         1   3  5.288032E-13  5.288032E-13 -4.532599E-13  4.374651E-20 -2.771413E-21 -8.352808E-21
         1   4  5.288032E-13  5.288032E-13 -4.532599E-13  6.900342E-20 -8.350999E-21 -8.352808E-21
         1   5  5.288032E-13  5.288032E-13 -4.532599E-13  1.848941E-20 -4.763467E-21 -4.762886E-21
         1   6  5.288032E-13  5.288032E-13 -4.532599E-13  4.374631E-20 -1.034305E-20 -4.762886E-21
         1   7  5.288032E-13  5.288032E-13 -4.532599E-13  4.374651E-20 -4.763467E-21 -1.034402E-20
         1   8  5.288032E-13  5.288032E-13 -4.532599E-13  6.900342E-20 -1.034305E-20 -1.034402E-20
         2   1 -1.031948E-11  3.487082E-11 -1.036242E-11  1.742752E-12 -1.994818E-13  1.084797E-20
         2   2 -1.031948E-11  3.279621E-11 -9.792469E-12  1.742752E-12 -1.994819E-13  2.862593E-21
         2   3 -1.031948E-11  3.487082E-11 -1.036242E-11  7.054480E-13 -1.994817E-13  1.672407E-19
         2   4 -1.031948E-11  3.279621E-11 -9.792469E-12  7.054482E-13 -1.994819E-13  1.535693E-19
         2   5 -1.031948E-11  3.487082E-11 -1.036242E-11  1.742752E-12  1.994815E-13 -1.159036E-19
         2   6 -1.031948E-11  3.279621E-11 -9.792469E-12  1.742752E-12  1.994814E-13 -1.400194E-19
         2   7 -1.031948E-11  3.487082E-11 -1.036242E-11  7.054480E-13  1.994815E-13  4.048919E-20
         2   8 -1.031948E-11  3.279621E-11 -9.792469E-12  7.054483E-13  1.994814E-13  1.068735E-20
         3   1  2.723837E-12  8.855795E-12 -1.722215E-12  9.357123E-12 -3.709996E-12  5.311451E-14
         3   2  2.723837E-12 -2.960291E-11  8.843363E-12  8.406093E-12 -3.685909E-12  5.311451E-14
         3   3  8.217751E-13  8.855795E-12 -1.422919E-12 -9.872230E-12 -3.709996E-12 -1.128107E-14
         3   4  8.217751E-13 -2.960291E-11  9.142659E-12 -1.082326E-11 -3.685909E-12 -1.128107E-14
         3   5  2.791280E-12  8.675487E-12 -1.722215E-12  9.357123E-12  3.685909E-12  2.626216E-13
         3   6  2.791280E-12 -2.978322E-11  8.843363E-12  8.406093E-12  3.709996E-12  2.626216E-13
         3   7  8.892182E-13  8.675487E-12 -1.422919E-12 -9.872230E-12  3.685909E-12  1.982261E-13
         3   8  8.892182E-13 -2.978322E-11  9.142659E-12 -1.082326E-11  3.709996E-12  1.982261E-13
         4   1  3.487082E-11 -1.031948E-11 -1.036242E-11  1.742752E-12  1.083210E-20 -1.994818E-13
         4   2  3.487082E-11 -1.031948E-11 -1.036242E-11  7.054480E-13  1.674535E-19 -1.994817E-13
         4   3  3.279621E-11 -1.031948E-11 -9.792469E-12  1.742752E-12  2.939669E-21 -1.994819E-13
         4   4  3.279621E-11 -1.031948E-11 -9.792469E-12  7.054482E-13  1.533800E-19 -1.994819E-13
         4   5  3.487082E-11 -1.031948E-11 -1.036242E-11  1.742752E-12 -1.161914E-19  1.994815E-13
         4   6  3.487082E-11 -1.031948E-11 -1.036242E-11  7.054480E-13  4.042994E-20  1.994815E-13
         4   7  3.279621E-11 -1.031948E-11 -9.792469E-12  1.742752E-12 -1.394654E-19  1.994814E-13
         4   8  3.279621E-11 -1.031948E-11 -9.792469E-12  7.054483E-13  1.097500E-20  1.994814E-13
         5   1  1.509811E-11  1.509811E-11 -1.587794E-11  2.313422E-12  1.835439E-12  1.835439E-12
         5   2  1.509811E-11  3.418668E-11 -2.112206E-11  1.185771E-11  1.835439E-12  1.835439E-12
         5   3  3.418668E-11  1.509811E-11 -2.112206E-11  1.185771E-11  1.835439E-12  1.835439E-12
         5   4  3.418668E-11  3.418668E-11 -2.636617E-11  2.140199E-11  1.835439E-12  1.835439E-12
         5   5  1.509811E-11  1.509811E-11 -1.587794E-11  2.313422E-12 -1.835440E-12 -1.835440E-12
         5   6  1.509811E-11  3.418668E-11 -2.112206E-11  1.185771E-11 -1.835440E-12 -1.835440E-12
         5   7  3.418668E-11  1.509811E-11 -2.112206E-11  1.185771E-11 -1.835440E-12 -1.835440E-12
         5   8  3.418668E-11  3.418668E-11 -2.636617E-11  2.140199E-11 -1.835440E-12 -1.835440E-12
         6   1  1.432396E-11 -6.405577E-12 -2.729785E-12  1.325238E-11 -1.909273E-12  1.081288E-12
         6   2  1.432396E-11 -2.626202E-11  2.725281E-12  1.887508E-11 -1.909273E-12  1.081288E-12
         6   3  2.556936E-11 -6.405577E-12 -5.819180E-12  3.324163E-12 -1.909272E-12  1.081288E-12
         6   4  2.556936E-11 -2.626202E-11 -3.641138E-13  8.946861E-12 -1.909273E-12  1.081288E-12
         6   5  1.432396E-11 -6.405577E-12 -2.729785E-12  1.325238E-11  1.909273E-12 -1.081288E-12
         6   6  1.432396E-11 -2.626202E-11  2.725281E-12  1.887508E-11  1.909273E-12 -1.081288E-12
         6   7  2.556935E-11 -6.405577E-12 -5.819180E-12  3.324164E-12  1.909274E-12 -1.081288E-12
         6   8  2.556935E-11 -2.626202E-11 -3.641138E-13  8.946862E-12  1.909273E-12 -1.081288E-12
         7   1  8.855795E-12  2.723837E-12 -1.722215E-12  9.357123E-12  5.311451E-14 -3.709996E-12
         7   2  8.855795E-12  8.217751E-13 -1.422919E-12 -9.872230E-12 -1.128107E-14 -3.709996E-12
         7   3 -2.960291E-11  2.723837E-12  8.843363E-12  8.406093E-12  5.311451E-14 -3.685909E-12
         7   4 -2.960291E-11  8.217751E-13  9.142659E-12 -1.082326E-11 -1.128107E-14 -3.685909E-12
         7   5  8.675487E-12  2.791280E-12 -1.722215E-12  9.357123E-12  2.626216E-13  3.685909E-12
         7   6  8.675487E-12  8.892182E-13 -1.422919E-12 -9.872230E-12  1.982261E-13  3.685909E-12
         7   7 -2.978322E-11  2.791280E-12  8.843363E-12  8.406093E-12  2.626216E-13  3.709996E-12
         7   8 -2.978322E-11  8.892182E-13  9.142659E-12 -1.082326E-11  1.982261E-13  3.709996E-12
         8   1 -6.405577E-12  1.432396E-11 -2.729785E-12  1.325238E-11  1.081288E-12 -1.909273E-12
         8   2 -6.405577E-12  2.556935E-11 -5.819180E-12  3.324163E-12  1.081288E-12 -1.909272E-12
         8   3 -2.626202E-11  1.432396E-11  2.725281E-12  1.887508E-11  1.081288E-12 -1.909273E-12
         8   4 -2.626202E-11  2.556935E-11 -3.641138E-13  8.946862E-12  1.081288E-12 -1.909273E-12
         8   5 -6.405577E-12  1.432396E-11 -2.729785E-12  1.325238E-11 -1.081288E-12  1.909273E-12
         8   6 -6.405577E-12  2.556935E-11 -5.819180E-12  3.324163E-12 -1.081288E-12  1.909274E-12
         8   7 -2.626202E-11  1.432396E-11  2.725281E-12  1.887508E-11 -1.081288E-12  1.909273E-12
         8   8 -2.626202E-11  2.556935E-11 -3.641138E-13  8.946862E-12 -1.081288E-12  1.909273E-12
         9   1  1.850105E-39  4.336809E-19  1.553173E-19  2.168404E-19 -5.725158E-19 -5.394453E-19
         9   2  1.850105E-39  1.951564E-18  3.661093E-20  9.757820E-19 -8.164612E-19 -8.417231E-19
         9   3  1.575206E-38  4.336809E-19  1.656826E-19  2.168404E-19  3.449339E-19  4.363367E-19
         9   4  1.575206E-38  1.084202E-19 -1.806907E-19  5.421011E-20  3.449339E-19  3.780043E-19
         9   5  2.576864E-38 -1.734723E-18  1.553173E-19 -8.673617E-19  1.033313E-19  2.267520E-19
         9   6  2.576864E-38 -1.301043E-18  3.661093E-20 -6.505213E-19 -3.845597E-19 -4.788382E-19
         9   7  2.193979E-37 -1.734723E-18  1.656826E-19 -8.673617E-19 -3.312083E-19  9.911532E-21
         9   8  2.193979E-37  1.301043E-18 -1.806907E-19  6.505213E-19  2.108928E-19  3.343134E-19

 displacements (vx,vy,vz) for set NALL and time  0.2467813E+00

         1  0.000000E+00  0.000000E+00  0.000000E+00
         2  2.773604E-10  0.000000E+00  0.000000E+00
         3  1.456142E-02  0.000000E+00  0.000000E+00
         4  1.456142E-02  0.000000E+00  0.000000E+00
         5 -1.232310E-03  0.000000E+00  0.000000E+00
         6 -1.232309E-03  0.000000E+00  0.000000E+00
         7  0.000000E+00  2.773604E-10  0.000000E+00
         8  2.773604E-10  2.773604E-10  0.000000E+00
         9  1.456142E-02  1.659262E-08  0.000000E+00
        10  1.456142E-02  1.501658E-08  0.000000E+00
        11 -1.232294E-03  1.152375E-08  0.000000E+00
        12 -1.232294E-03 -2.001390E-08  0.000000E+00
        13  0.000000E+00  1.456142E-02  0.000000E+00
        14  1.659262E-08  1.456142E-02  0.000000E+00
        15  5.669965E-01  5.669965E-01  0.000000E+00
        16  5.669965E-01  5.669965E-01  0.000000E+00
        17  8.816601E-01  1.085424E-01  0.000000E+00
        18  8.812653E-01 -5.197999E-01  0.000000E+00
        19  0.000000E+00  1.456142E-02  0.000000E+00
        20  1.501658E-08  1.456142E-02  0.000000E+00
        21  5.669965E-01  5.669965E-01  0.000000E+00
        22  5.669965E-01  5.669965E-01  0.000000E+00
        23  1.510003E+00  1.081476E-01  0.000000E+00
        24  1.509608E+00 -5.201948E-01  0.000000E+00
        25  0.000000E+00 -1.232310E-03  0.000000E+00
        26  1.152375E-08 -1.232294E-03  0.000000E+00
        27  1.085424E-01  8.816601E-01  0.000000E+00
        28  1.081476E-01  1.510003E+00  0.000000E+00
        29 -7.403438E+00 -7.403438E+00  0.000000E+00
        30 -7.403438E+00 -7.403438E+00  0.000000E+00
        31  0.000000E+00 -1.232309E-03  0.000000E+00
        32 -2.001390E-08 -1.232294E-03  0.000000E+00
        33 -5.197999E-01  8.812653E-01  0.000000E+00
        34 -5.201948E-01  1.509608E+00  0.000000E+00
        35 -7.403438E+00 -7.403438E+00  0.000000E+00
        36 -7.403438E+00 -7.403438E+00  0.000000E+00
        37  0.000000E+00  0.000000E+00 -3.328325E-10
        38  2.773604E-10  0.000000E+00 -3.328325E-10
        39  1.456142E-02  0.000000E+00 -6.931863E-09
        40  1.456142E-02  0.000000E+00 -6.325692E-09
        41 -1.232319E-03  0.000000E+00 -4.080726E-09
        42 -1.232317E-03  0.000000E+00  8.049140E-09
        43  0.000000E+00  2.773604E-10 -3.328325E-10
        44  2.773604E-10  2.773604E-10 -3.328325E-10
        45  1.456142E-02  1.659262E-08 -6.931863E-09
        46  1.456142E-02  1.501658E-08 -6.325692E-09
        47 -1.232303E-03  1.138886E-08 -3.767263E-09
        48 -1.232303E-03 -2.014879E-08  8.362604E-09
        49  0.000000E+00  1.456142E-02 -6.931863E-09
        50  1.659262E-08  1.456142E-02 -6.931863E-09
        51  5.669965E-01  5.669965E-01 -7.774909E-09
        52  5.669965E-01  5.669965E-01 -1.378340E-08
        53  8.816601E-01  1.085424E-01 -2.553869E-09
        54  8.812653E-01 -5.197999E-01  3.754483E-09
        55  0.000000E+00  1.456142E-02 -6.325692E-09
        56  1.501658E-08  1.456142E-02 -6.325692E-09
        57  5.669965E-01  5.669965E-01 -1.378340E-08
        58  5.669965E-01  5.669965E-01 -1.979190E-08
        59  1.510003E+00  1.081476E-01 -6.338911E-09
        60  1.509608E+00 -5.201947E-01 -3.055899E-11
        61  0.000000E+00 -1.232319E-03 -4.080726E-09
        62  1.138886E-08 -1.232303E-03 -3.767263E-09
        63  1.085424E-01  8.816601E-01 -2.553869E-09
        64  1.081476E-01  1.510003E+00 -6.338911E-09
        65 -7.403438E+00 -7.403438E+00  3.715003E-17
        66 -7.403438E+00 -7.403438E+00  2.172299E-16
        67  0.000000E+00 -1.232317E-03  8.049140E-09
        68 -2.014879E-08 -1.232303E-03  8.362604E-09
        69 -5.197999E-01  8.812653E-01  3.754483E-09
        70 -5.201947E-01  1.509608E+00 -3.055920E-11
        71 -7.403438E+00 -7.403438E+00  2.606996E-16
        72 -7.403438E+00 -7.403438E+00  4.850571E-16

 stresses (elem, integ.pnt.,sxx,syy,szz,sxy,sxz,syz) for set EALL and time  0.2467813E+00

         1   1  1.664162E-07  1.664162E-07 -3.153402E-15  2.623626E-15 -3.941259E-16 -3.941259E-16
         1   2  1.664162E-07  1.664163E-07  1.504960E-15  6.207565E-15 -1.183879E-15 -3.941259E-16
         1   3  1.664163E-07  1.664162E-07  1.504960E-15  6.207565E-15 -3.941259E-16 -1.183879E-15
         1   4  1.664163E-07  1.664163E-07  6.163322E-15  9.791504E-15 -1.183879E-15 -1.183879E-15
         1   5  1.664162E-07  1.664162E-07 -6.470365E-15  2.623626E-15 -6.811447E-16 -6.811447E-16
         1   6  1.664162E-07  1.664162E-07 -1.812003E-15  6.207565E-15 -1.470898E-15 -6.811447E-16
         1   7  1.664162E-07  1.664162E-07 -1.812003E-15  6.207565E-15 -6.811447E-16 -1.470898E-15
         1   8  1.664163E-07  1.664163E-07  2.846359E-15  9.791504E-15 -1.470898E-15 -1.470898E-15
         2   1  7.291353E-08  6.862763E-06  3.957378E-08  2.469522E-07 -2.826706E-08  1.616322E-15
         2   2 -8.699703E-08  6.408875E-06 -3.957380E-08  2.469523E-07 -2.826708E-08  5.149177E-16
         2   3  7.291365E-08  6.862763E-06  3.957380E-08  9.996372E-08 -2.826706E-08  2.547779E-14
         2   4 -8.699691E-08  6.408875E-06 -3.957379E-08  9.996376E-08 -2.826708E-08  2.344432E-14
         2   5  7.291346E-08  6.862763E-06  3.957378E-08  2.469523E-07  2.826703E-08 -1.782885E-14
         2   6 -8.699710E-08  6.408875E-06 -3.957380E-08  2.469523E-07  2.826700E-08 -2.100728E-14
         2   7  7.291359E-08  6.862763E-06  3.957380E-08  9.996372E-08  2.826703E-08  6.032412E-15
         2   8 -8.699698E-08  6.408875E-06 -3.957379E-08  9.996376E-08  2.826700E-08  1.921916E-15
         3   1  1.564135E-06  2.756312E-06  8.607918E-07  1.446772E-06 -5.673221E-07  7.411681E-09
         3   2 -1.635780E-06 -6.326276E-06 -7.230048E-07  1.314064E-06 -5.639610E-07  7.411681E-09
         3   3  1.130979E-06  2.588573E-06  7.348167E-07 -1.494564E-06 -5.673221E-07 -1.574176E-09
         3   4 -2.068936E-06 -6.494015E-06 -8.489799E-07 -1.627272E-06 -5.639610E-07 -1.574176E-09
         3   5  1.561734E-06  2.719340E-06  8.489799E-07  1.446772E-06  5.639611E-07  3.664662E-08
         3   6 -1.638181E-06 -6.363248E-06 -7.348167E-07  1.314064E-06  5.673222E-07  3.664663E-08
         3   7  1.128579E-06  2.551600E-06  7.230048E-07 -1.494564E-06  5.639611E-07  2.766077E-08
         3   8 -2.071337E-06 -6.530988E-06 -8.607918E-07 -1.627272E-06  5.673222E-07  2.766077E-08
         4   1  6.862763E-06  7.291353E-08  3.957378E-08  2.469522E-07  1.616818E-15 -2.826706E-08
         4   2  6.862763E-06  7.291365E-08  3.957380E-08  9.996372E-08  2.544784E-14 -2.826706E-08
         4   3  6.408875E-06 -8.699703E-08 -3.957380E-08  2.469523E-07  5.054212E-16 -2.826708E-08
         4   4  6.408875E-06 -8.699691E-08 -3.957379E-08  9.996376E-08  2.342188E-14 -2.826708E-08
         4   5  6.862763E-06  7.291346E-08  3.957378E-08  2.469523E-07 -1.779655E-14  2.826703E-08
         4   6  6.862763E-06  7.291359E-08  3.957380E-08  9.996372E-08  6.034265E-15  2.826703E-08
         4   7  6.408875E-06 -8.699710E-08 -3.957380E-08  2.469523E-07 -2.102978E-14  2.826700E-08
         4   8  6.408875E-06 -8.699698E-08 -3.957379E-08  9.996376E-08  1.886475E-15  2.826700E-08
         5   1  3.849650E-06  3.849650E-06 -7.845291E-07  3.534054E-07  2.801888E-07  2.801888E-07
         5   2  5.434719E-06  8.348684E-06  3.608893E-14  1.810388E-06  2.801888E-07  2.801888E-07
         5   3  8.348683E-06  5.434719E-06  2.047497E-14  1.810388E-06  2.801888E-07  2.801888E-07
         5   4  9.933752E-06  9.933752E-06  7.845292E-07  3.267370E-06  2.801888E-07  2.801888E-07
         5   5  3.849650E-06  3.849650E-06 -7.845292E-07  3.534054E-07 -2.801889E-07 -2.801889E-07
         5   6  5.434719E-06  8.348683E-06  1.148338E-14  1.810388E-06 -2.801889E-07 -2.801889E-07
         5   7  8.348684E-06  5.434719E-06  3.035019E-14  1.810388E-06 -2.801889E-07 -2.801889E-07
         5   8  9.933752E-06  9.933752E-06  7.845292E-07  3.267370E-06 -2.801889E-07 -2.801889E-07
         6   1  2.680173E-06 -1.097924E-07  1.649248E-07  1.978848E-06 -2.939498E-07  1.768741E-07
         6   2  1.018302E-06 -4.835656E-06 -6.587569E-07  2.892824E-06 -2.939499E-07  1.768741E-07
         6   3  5.510485E-06  8.925671E-07  6.591377E-07  4.468516E-07 -2.939499E-07  1.768742E-07
         6   4  3.848614E-06 -3.833296E-06 -1.645439E-07  1.360828E-06 -2.939499E-07  1.768741E-07
         6   5  2.680172E-06 -1.097924E-07  1.649247E-07  1.978848E-06  2.939499E-07 -1.768742E-07
         6   6  1.018301E-06 -4.835656E-06 -6.587569E-07  2.892824E-06  2.939499E-07 -1.768742E-07
         6   7  5.510485E-06  8.925670E-07  6.591377E-07  4.468515E-07  2.939500E-07 -1.768741E-07
         6   8  3.848614E-06 -3.833296E-06 -1.645439E-07  1.360828E-06  2.939500E-07 -1.768742E-07
         7   1  2.756312E-06  1.564135E-06  8.607918E-07  1.446772E-06  7.411681E-09 -5.673221E-07
         7   2  2.588573E-06  1.130979E-06  7.348167E-07 -1.494564E-06 -1.574176E-09 -5.673221E-07
         7   3 -6.326276E-06 -1.635780E-06 -7.230048E-07  1.314064E-06  7.411681E-09 -5.639610E-07
         7   4 -6.494015E-06 -2.068936E-06 -8.489799E-07 -1.627272E-06 -1.574176E-09 -5.639610E-07
         7   5  2.719340E-06  1.561734E-06  8.489799E-07  1.446772E-06  3.664662E-08  5.639611E-07
         7   6  2.551600E-06  1.128579E-06  7.230048E-07 -1.494564E-06  2.766077E-08  5.639611E-07
         7   7 -6.363248E-06 -1.638181E-06 -7.348167E-07  1.314064E-06  3.664663E-08  5.673222E-07
         7   8 -6.530988E-06 -2.071337E-06 -8.607918E-07 -1.627272E-06  2.766077E-08  5.673222E-07
         8   1 -1.097924E-07  2.680172E-06  1.649247E-07  1.978848E-06  1.768741E-07 -2.939499E-07
         8   2  8.925670E-07  5.510485E-06  6.591377E-07  4.468515E-07  1.768741E-07 -2.939498E-07
         8   3 -4.835656E-06  1.018302E-06 -6.587569E-07  2.892824E-06  1.768741E-07 -2.939499E-07
         8   4 -3.833296E-06  3.848614E-06 -1.645440E-07  1.360828E-06  1.768741E-07 -2.939498E-07
         8   5 -1.097924E-07  2.680172E-06  1.649247E-07  1.978848E-06 -1.768742E-07  2.939499E-07
         8   6  8.925670E-07  5.510485E-06  6.591377E-07  4.468516E-07 -1.768741E-07  2.939500E-07
         8   7 -4.835656E-06  1.018302E-06 -6.587569E-07  2.892824E-06 -1.768742E-07  2.939499E-07
         8   8 -3.833296E-06  3.848614E-06 -1.645440E-07  1.360828E-06 -1.768742E-07  2.939500E-07
         9   1  2.153498E-14  2.153498E-14  5.024829E-14  1.748926E-31 -8.110335E-14 -7.961942E-14
         9   2  5.360017E-14  7.111421E-14  1.075530E-13  8.757018E-15  6.466823E-15  8.823424E-15
         9   3  4.480840E-14  4.480840E-14  1.045529E-13  7.224843E-34  7.339493E-15  7.950754E-15
         9   4 -3.879166E-14 -1.789039E-13  4.959840E-14 -7.005614E-14 -9.774472E-14 -9.626079E-14
         9   5 -1.886334E-13 -4.688580E-13 -1.599201E-13 -1.401123E-13 -2.840759E-14 -2.286949E-14
         9   6 -1.171617E-13 -3.273301E-13 -6.320881E-14 -1.050842E-13  1.117047E-13  1.204996E-13
         9   7 -1.653600E-13 -4.455846E-13 -1.056155E-13 -1.401123E-13 -1.127209E-13 -1.104397E-13
         9   8 -3.879166E-14 -1.789039E-13  4.959840E-14 -7.005614E-14 -7.636709E-15 -2.098603E-15

 strains (elem, integ.pnt.,exx,eyy,ezz,exy,exz,eyz) forset EALL and time  0.2467813E+00

         1   1  5.547208E-13  5.547208E-13 -4.754750E-13  1.624149E-20 -2.439827E-21 -2.439827E-21
         1   2  5.547208E-13  5.547208E-13 -4.754750E-13  3.842778E-20 -7.328775E-21 -2.439827E-21
         1   3  5.547208E-13  5.547208E-13 -4.754750E-13  3.842778E-20 -2.439827E-21 -7.328775E-21
         1   4  5.547208E-13  5.547208E-13 -4.754750E-13  6.061407E-20 -7.328775E-21 -7.328775E-21
         1   5  5.547208E-13  5.547208E-13 -4.754750E-13  1.624149E-20 -4.216610E-21 -4.216610E-21
         1   6  5.547208E-13  5.547208E-13 -4.754750E-13  3.842778E-20 -9.105558E-21 -4.216610E-21
         1   7  5.547208E-13  5.547208E-13 -4.754750E-13  3.842778E-20 -4.216610E-21 -9.105558E-21
         1   8  5.547208E-13  5.547208E-13 -4.754750E-13  6.061407E-20 -9.105558E-21 -9.105558E-21
         2   1 -9.513274E-12  3.251913E-11 -9.719663E-12  1.528752E-12 -1.749866E-13  1.000529E-20
         2   2 -9.513274E-12  3.069927E-11 -9.219701E-12  1.528752E-12 -1.749867E-13  3.187077E-21
         2   3 -9.513273E-12  3.251913E-11 -9.719663E-12  6.188230E-13 -1.749865E-13  1.577191E-19
         2   4 -9.513273E-12  3.069927E-11 -9.219702E-12  6.188233E-13 -1.749867E-13  1.451309E-19
         2   5 -9.513274E-12  3.251913E-11 -9.719663E-12  1.528752E-12  1.749863E-13 -1.103704E-19
         2   6 -9.513274E-12  3.069927E-11 -9.219701E-12  1.528752E-12  1.749862E-13 -1.300464E-19
         2   7 -9.513274E-12  3.251913E-11 -9.719663E-12  6.188230E-13  1.749863E-13  3.734334E-20
         2   8 -9.513274E-12  3.069927E-11 -9.219702E-12  6.188233E-13  1.749862E-13  1.189742E-20
         3   1  2.280972E-12  9.661114E-12 -2.073059E-12  8.956210E-12 -3.511994E-12  4.588183E-14
         3   2  2.280972E-12 -2.675543E-11  7.931486E-12  8.134683E-12 -3.491187E-12  4.588183E-14
         3   3  6.379168E-13  9.661114E-12 -1.814519E-12 -9.252062E-12 -3.511994E-12 -9.744898E-15
         3   4  6.379168E-13 -2.675543E-11  8.190026E-12 -1.007359E-11 -3.491187E-12 -9.744900E-15
         3   5  2.339231E-12  9.505359E-12 -2.073059E-12  8.956210E-12  3.491188E-12  2.268601E-13
         3   6  2.339231E-12 -2.691119E-11  7.931486E-12  8.134683E-12  3.511994E-12  2.268601E-13
         3   7  6.961760E-13  9.505359E-12 -1.814519E-12 -9.252062E-12  3.491188E-12  1.712333E-13
         3   8  6.961760E-13 -2.691119E-11  8.190026E-12 -1.007359E-11  3.511994E-12  1.712333E-13
         4   1  3.251913E-11 -9.513274E-12 -9.719663E-12  1.528752E-12  1.000837E-20 -1.749866E-13
         4   2  3.251913E-11 -9.513273E-12 -9.719663E-12  6.188230E-13  1.575336E-19 -1.749865E-13
         4   3  3.069927E-11 -9.513274E-12 -9.219701E-12  1.528752E-12  3.128290E-21 -1.749867E-13
         4   4  3.069927E-11 -9.513273E-12 -9.219702E-12  6.188233E-13  1.449920E-19 -1.749867E-13
         4   5  3.251913E-11 -9.513274E-12 -9.719663E-12  1.528752E-12 -1.101704E-19  1.749863E-13
         4   6  3.251913E-11 -9.513274E-12 -9.719663E-12  6.188230E-13  3.735482E-20  1.749864E-13
         4   7  3.069927E-11 -9.513274E-12 -9.219701E-12  1.528752E-12 -1.301857E-19  1.749862E-13
         4   8  3.069927E-11 -9.513274E-12 -9.219702E-12  6.188233E-13  1.167802E-20  1.749862E-13
         5   1  1.395292E-11  1.395292E-11 -1.473485E-11  2.187748E-12  1.734502E-12  1.734502E-12
         5   2  1.395292E-11  3.199175E-11 -1.969057E-11  1.120716E-11  1.734502E-12  1.734502E-12
         5   3  3.199175E-11  1.395292E-11 -1.969057E-11  1.120716E-11  1.734502E-12  1.734502E-12
         5   4  3.199175E-11  3.199175E-11 -2.464630E-11  2.022658E-11  1.734502E-12  1.734502E-12
         5   5  1.395292E-11  1.395292E-11 -1.473485E-11  2.187748E-12 -1.734503E-12 -1.734503E-12
         5   6  1.395292E-11  3.199175E-11 -1.969057E-11  1.120716E-11 -1.734503E-12 -1.734503E-12
         5   7  3.199175E-11  1.395292E-11 -1.969057E-11  1.120716E-11 -1.734503E-12 -1.734503E-12
         5   8  3.199175E-11  3.199175E-11 -2.464630E-11  2.022658E-11 -1.734503E-12 -1.734503E-12
         6   1  1.265315E-11 -4.556429E-12 -2.886616E-12  1.227168E-11 -1.821064E-12  1.092647E-12
         6   2  1.265315E-11 -2.349550E-11  2.316425E-12  1.795344E-11 -1.821064E-12  1.092647E-12
         6   3  2.401668E-11 -4.556429E-12 -6.008466E-12  2.802140E-12 -1.821064E-12  1.092648E-12
         6   4  2.401668E-11 -2.349550E-11 -8.054246E-13  8.483908E-12 -1.821064E-12  1.092647E-12
         6   5  1.265315E-11 -4.556429E-12 -2.886616E-12  1.227168E-11  1.821065E-12 -1.092648E-12
         6   6  1.265315E-11 -2.349550E-11  2.316425E-12  1.795344E-11  1.821064E-12 -1.092648E-12
         6   7  2.401668E-11 -4.556429E-12 -6.008466E-12  2.802140E-12  1.821065E-12 -1.092647E-12
         6   8  2.401668E-11 -2.349550E-11 -8.054246E-13  8.483908E-12  1.821065E-12 -1.092648E-12
         7   1  9.661114E-12  2.280972E-12 -2.073059E-12  8.956210E-12  4.588183E-14 -3.511994E-12
         7   2  9.661114E-12  6.379168E-13 -1.814519E-12 -9.252062E-12 -9.744898E-15 -3.511994E-12
         7   3 -2.675543E-11  2.280972E-12  7.931486E-12  8.134683E-12  4.588183E-14 -3.491187E-12
         7   4 -2.675543E-11  6.379168E-13  8.190026E-12 -1.007359E-11 -9.744900E-15 -3.491187E-12
         7   5  9.505359E-12  2.339231E-12 -2.073059E-12  8.956210E-12  2.268601E-13  3.491188E-12
         7   6  9.505359E-12  6.961760E-13 -1.814519E-12 -9.252062E-12  1.712333E-13  3.491188E-12
         7   7 -2.691119E-11  2.339231E-12  7.931486E-12  8.134683E-12  2.268601E-13  3.511994E-12
         7   8 -2.691119E-11  6.961760E-13  8.190026E-12 -1.007359E-11  1.712333E-13  3.511994E-12
         8   1 -4.556429E-12  1.265315E-11 -2.886616E-12  1.227168E-11  1.092647E-12 -1.821064E-12
         8   2 -4.556429E-12  2.401668E-11 -6.008466E-12  2.802140E-12  1.092648E-12 -1.821064E-12
         8   3 -2.349550E-11  1.265315E-11  2.316426E-12  1.795344E-11  1.092647E-12 -1.821064E-12
         8   4 -2.349550E-11  2.401668E-11 -8.054247E-13  8.483907E-12  1.092647E-12 -1.821064E-12
         8   5 -4.556429E-12  1.265315E-11 -2.886616E-12  1.227168E-11 -1.092648E-12  1.821065E-12
         8   6 -4.556429E-12  2.401668E-11 -6.008466E-12  2.802140E-12 -1.092648E-12  1.821065E-12
         8   7 -2.349550E-11  1.265315E-11  2.316426E-12  1.795344E-11 -1.092648E-12  1.821065E-12
         8   8 -2.349550E-11  2.401668E-11 -8.054247E-13  8.483908E-12 -1.092648E-12  1.821065E-12
         9   1  3.205236E-39  4.845010E-39  1.777490E-19  3.940736E-39 -5.020684E-19 -4.928821E-19
         9   2  3.205236E-39  1.084202E-19  3.339939E-19  5.421011E-20  4.003271E-20  5.462120E-20
         9   3  4.128671E-39  4.845010E-39  3.698471E-19  4.472522E-39  4.543496E-20  4.921895E-20
         9   4  4.128671E-39 -8.673617E-19  5.471766E-19 -4.336809E-19 -6.050863E-19 -5.959001E-19
         9   5  4.464318E-38 -1.734723E-18  1.777490E-19 -8.673617E-19 -1.758565E-19 -1.415730E-19
         9   6  4.464318E-38 -1.301043E-18  3.339939E-19 -6.505213E-19  6.915052E-19  7.459502E-19
         9   7  5.750497E-38 -1.734723E-18  3.698471E-19 -8.673617E-19 -6.977962E-19 -6.836741E-19
         9   8  5.750497E-38 -8.673617E-19  5.471766E-19 -4.336809E-19 -4.727486E-20 -1.299135E-20

 displacements (vx,vy,vz) for set NALL and time  0.2557813E+00

         1  0.000000E+00  0.000000E+00  0.000000E+00
         2  2.735076E-10  0.000000E+00  0.000000E+00
         3  1.435915E-02  0.000000E+00  0.000000E+00
         4  1.435915E-02  0.000000E+00  0.000000E+00
         5  2.714557E-03  0.000000E+00  0.000000E+00
         6  2.714558E-03  0.000000E+00  0.000000E+00
         7  0.000000E+00  2.735076E-10  0.000000E+00
         8  2.735077E-10  2.735077E-10  0.000000E+00
         9  1.435915E-02  1.525859E-08  0.000000E+00
        10  1.435915E-02  1.390848E-08  0.000000E+00
        11  2.714572E-03  1.127263E-08  0.000000E+00
        12  2.714572E-03 -1.811160E-08  0.000000E+00
        13  0.000000E+00  1.435915E-02  0.000000E+00
        14  1.525859E-08  1.435915E-02  0.000000E+00
        15  5.246200E-01  5.246200E-01  0.000000E+00
        16  5.246200E-01  5.246200E-01  0.000000E+00
        17  8.108810E-01  1.239767E-01  0.000000E+00
        18  8.105429E-01 -4.575503E-01  0.000000E+00
        19  0.000000E+00  1.435915E-02  0.000000E+00
        20  1.390848E-08  1.435915E-02  0.000000E+00
        21  5.246200E-01  5.246200E-01  0.000000E+00
        22  5.246200E-01  5.246200E-01  0.000000E+00
        23  1.392408E+00  1.236385E-01  0.000000E+00
        24  1.392070E+00 -4.578885E-01  0.000000E+00
        25  0.000000E+00  2.714557E-03  0.000000E+00
        26  1.127263E-08  2.714572E-03  0.000000E+00
        27  1.239767E-01  8.108810E-01  0.000000E+00
        28  1.236385E-01  1.392408E+00  0.000000E+00
        29 -7.673438E+00 -7.673438E+00  0.000000E+00
        30 -7.673438E+00 -7.673438E+00  0.000000E+00
        31  0.000000E+00  2.714558E-03  0.000000E+00
        32 -1.811160E-08  2.714572E-03  0.000000E+00
        33 -4.575503E-01  8.105429E-01  0.000000E+00
        34 -4.578885E-01  1.392070E+00  0.000000E+00
        35 -7.673438E+00 -7.673438E+00  0.000000E+00
        36 -7.673438E+00 -7.673438E+00  0.000000E+00
        37  0.000000E+00  0.000000E+00 -3.282092E-10
        38  2.735076E-10  0.000000E+00 -3.282092E-10
        39  1.435915E-02  0.000000E+00 -6.404888E-09
        40  1.435915E-02  0.000000E+00 -5.885612E-09
        41  2.714549E-03  0.000000E+00 -4.057433E-09
        42  2.714550E-03  0.000000E+00  7.244193E-09
        43  0.000000E+00  2.735076E-10 -3.282092E-10
        44  2.735076E-10  2.735076E-10 -3.282092E-10
        45  1.435915E-02  1.525859E-08 -6.404888E-09
        46  1.435915E-02  1.390848E-08 -5.885612E-09
        47  2.714564E-03  1.115904E-08 -3.793466E-09
        48  2.714564E-03 -1.822518E-08  7.508160E-09
        49  0.000000E+00  1.435915E-02 -6.404888E-09
        50  1.525859E-08  1.435915E-02 -6.404888E-09
        51  5.246200E-01  5.246200E-01 -7.096803E-09
        52  5.246200E-01  5.246200E-01 -1.268746E-08
        53  8.108810E-01  1.239767E-01 -2.515712E-09
        54  8.105429E-01 -4.575503E-01  3.388732E-09
        55  0.000000E+00  1.435915E-02 -5.885612E-09
        56  1.390848E-08  1.435915E-02 -5.885612E-09
        57  5.246200E-01  5.246200E-01 -1.268746E-08
        58  5.246200E-01  5.246200E-01 -1.827812E-08
        59  1.392408E+00  1.236385E-01 -6.266397E-09
        60  1.392070E+00 -4.578885E-01 -3.619524E-10
        61  0.000000E+00  2.714549E-03 -4.057433E-09
        62  1.115904E-08  2.714564E-03 -3.793466E-09
        63  1.239767E-01  8.108810E-01 -2.515712E-09
        64  1.236385E-01  1.392408E+00 -6.266397E-09
        65 -7.673438E+00 -7.673438E+00 -1.440139E-16
        66 -7.673438E+00 -7.673438E+00  5.629996E-16
        67  0.000000E+00  2.714550E-03  7.244193E-09
        68 -1.822518E-08  2.714564E-03  7.508160E-09
        69 -4.575503E-01  8.105429E-01  3.388732E-09
        70 -4.578885E-01  1.392070E+00 -3.619525E-10
        71 -7.673438E+00 -7.673438E+00  5.195298E-16
        72 -7.673438E+00 -7.673438E+00 -7.186188E-17

 stresses (elem, integ.pnt.,sxx,syy,szz,sxy,sxz,syz) for set EALL and time  0.2557813E+00

         1   1  1.641046E-07  1.641046E-07 -2.708098E-15  2.249326E-15 -3.382992E-16 -3.382992E-16
         1   2  1.641046E-07  1.641046E-07  1.279980E-15  5.321963E-15 -1.014199E-15 -3.382992E-16
         1   3  1.641046E-07  1.641046E-07  1.279980E-15  5.321963E-15 -3.382992E-16 -1.014199E-15
         1   4  1.641046E-07  1.641046E-07  5.268059E-15  8.394599E-15 -1.014199E-15 -1.014199E-15
         1   5  1.641046E-07  1.641046E-07 -5.546878E-15  2.249326E-15 -5.866497E-16 -5.866497E-16
         1   6  1.641046E-07  1.641046E-07 -1.558800E-15  5.321963E-15 -1.262550E-15 -5.866497E-16
         1   7  1.641046E-07  1.641046E-07 -1.558800E-15  5.321963E-15 -5.866497E-16 -1.262550E-15
         1   8  1.641046E-07  1.641046E-07  2.429279E-15  8.394599E-15 -1.262550E-15 -1.262550E-15
         2   1  8.400547E-08  6.324149E-06  3.390088E-08  2.115517E-07 -2.421498E-08  1.470996E-15
         2   2 -5.298193E-08  5.935327E-06 -3.390089E-08  2.115517E-07 -2.421501E-08  5.225814E-16
         2   3  8.400559E-08  6.324150E-06  3.390089E-08  8.563393E-08 -2.421498E-08  2.354658E-14
         2   4 -5.298182E-08  5.935327E-06 -3.390089E-08  8.563397E-08 -2.421500E-08  2.180190E-14
         2   5  8.400541E-08  6.324150E-06  3.390088E-08  2.115517E-07  2.421495E-08 -1.658544E-14
         2   6 -5.298199E-08  5.935327E-06 -3.390090E-08  2.115517E-07  2.421493E-08 -1.932871E-14
         2   7  8.400552E-08  6.324150E-06  3.390089E-08  8.563393E-08  2.421495E-08  5.489992E-15
         2   8 -5.298188E-08  5.935327E-06 -3.390089E-08  8.563397E-08  2.421493E-08  1.950460E-15
         3   1  1.470004E-06  2.796138E-06  7.958418E-07  1.359586E-06 -5.284341E-07  6.241371E-09
         3   2 -1.511418E-06 -5.666281E-06 -6.798114E-07  1.247832E-06 -5.256037E-07  6.241371E-09
         3   3  1.105243E-06  2.654885E-06  6.897583E-07 -1.380913E-06 -5.284341E-07 -1.325610E-09
         3   4 -1.876178E-06 -5.807534E-06 -7.858950E-07 -1.492667E-06 -5.256037E-07 -1.325611E-09
         3   5  1.467982E-06  2.765004E-06  7.858950E-07  1.359586E-06  5.256038E-07  3.086010E-08
         3   6 -1.513440E-06 -5.697415E-06 -6.897583E-07  1.247832E-06  5.284342E-07  3.086010E-08
         3   7  1.103222E-06  2.623751E-06  6.798114E-07 -1.380913E-06  5.256038E-07  2.329311E-08
         3   8 -1.878200E-06 -5.838668E-06 -7.958418E-07 -1.492667E-06  5.284342E-07  2.329311E-08
         4   1  6.324149E-06  8.400547E-08  3.390088E-08  2.115517E-07  1.487788E-15 -2.421498E-08
         4   2  6.324150E-06  8.400559E-08  3.390090E-08  8.563393E-08  2.353597E-14 -2.421498E-08
         4   3  5.935327E-06 -5.298193E-08 -3.390089E-08  2.115517E-07  5.189231E-16 -2.421501E-08
         4   4  5.935327E-06 -5.298181E-08 -3.390089E-08  8.563397E-08  2.180821E-14 -2.421500E-08
         4   5  6.324150E-06  8.400541E-08  3.390088E-08  2.115517E-07 -1.649537E-14  2.421495E-08
         4   6  6.324150E-06  8.400552E-08  3.390089E-08  8.563393E-08  5.552659E-15  2.421495E-08
         4   7  5.935327E-06 -5.298199E-08 -3.390090E-08  2.115517E-07 -1.935233E-14  2.421493E-08
         4   8  5.935327E-06 -5.298188E-08 -3.390089E-08  8.563397E-08  1.936806E-15  2.421493E-08
         5   1  3.513226E-06  3.513226E-06 -7.299721E-07  3.273197E-07  2.607042E-07  2.607042E-07
         5   2  4.988067E-06  7.699392E-06  4.052008E-14  1.682982E-06  2.607042E-07  2.607042E-07
         5   3  7.699392E-06  4.988067E-06  7.266405E-15  1.682982E-06  2.607042E-07  2.607042E-07
         5   4  9.174233E-06  9.174233E-06  7.299722E-07  3.038644E-06  2.607042E-07  2.607042E-07
         5   5  3.513226E-06  3.513226E-06 -7.299721E-07  3.273197E-07 -2.607043E-07 -2.607043E-07
         5   6  4.988067E-06  7.699392E-06  2.494205E-14  1.682982E-06 -2.607043E-07 -2.607043E-07
         5   7  7.699392E-06  4.988067E-06  1.713845E-14  1.682982E-06 -2.607043E-07 -2.607043E-07
         5   8  9.174233E-06  9.174233E-06  7.299722E-07  3.038644E-06 -2.607043E-07 -2.607043E-07
         6   1  2.402611E-06  1.268842E-07  1.406779E-07  1.806324E-06 -2.751332E-07  1.752225E-07
         6   2  8.471026E-07 -4.296351E-06 -6.302656E-07  2.712484E-06 -2.751332E-07  1.752225E-07
         6   3  5.207712E-06  1.119665E-06  6.304048E-07  3.724603E-07 -2.751332E-07  1.752226E-07
         6   4  3.652204E-06 -3.303570E-06 -1.405386E-07  1.278620E-06 -2.751332E-07  1.752225E-07
         6   5  2.402611E-06  1.268842E-07  1.406779E-07  1.806324E-06  2.751333E-07 -1.752226E-07
         6   6  8.471026E-07 -4.296351E-06 -6.302656E-07  2.712484E-06  2.751333E-07 -1.752226E-07
         6   7  5.207712E-06  1.119665E-06  6.304047E-07  3.724604E-07  2.751333E-07 -1.752225E-07
         6   8  3.652203E-06 -3.303570E-06 -1.405386E-07  1.278620E-06  2.751333E-07 -1.752226E-07
         7   1  2.796138E-06  1.470004E-06  7.958418E-07  1.359586E-06  6.241371E-09 -5.284341E-07
         7   2  2.654885E-06  1.105243E-06  6.897583E-07 -1.380913E-06 -1.325610E-09 -5.284341E-07
         7   3 -5.666281E-06 -1.511418E-06 -6.798114E-07  1.247832E-06  6.241371E-09 -5.256037E-07
         7   4 -5.807534E-06 -1.876178E-06 -7.858950E-07 -1.492667E-06 -1.325611E-09 -5.256037E-07
         7   5  2.765004E-06  1.467982E-06  7.858950E-07  1.359586E-06  3.086010E-08  5.256038E-07
         7   6  2.623751E-06  1.103222E-06  6.798114E-07 -1.380913E-06  2.329311E-08  5.256038E-07
         7   7 -5.697415E-06 -1.513440E-06 -6.897583E-07  1.247832E-06  3.086010E-08  5.284342E-07
         7   8 -5.838668E-06 -1.878200E-06 -7.958418E-07 -1.492667E-06  2.329311E-08  5.284342E-07
         8   1  1.268841E-07  2.402611E-06  1.406778E-07  1.806324E-06  1.752225E-07 -2.751332E-07
         8   2  1.119665E-06  5.207712E-06  6.304048E-07  3.724604E-07  1.752226E-07 -2.751331E-07
         8   3 -4.296351E-06  8.471026E-07 -6.302656E-07  2.712484E-06  1.752225E-07 -2.751332E-07
         8   4 -3.303570E-06  3.652203E-06 -1.405387E-07  1.278620E-06  1.752225E-07 -2.751332E-07
         8   5  1.268842E-07  2.402611E-06  1.406778E-07  1.806324E-06 -1.752226E-07  2.751333E-07
         8   6  1.119665E-06  5.207712E-06  6.304048E-07  3.724604E-07 -1.752226E-07  2.751333E-07
         8   7 -4.296351E-06  8.471026E-07 -6.302655E-07  2.712484E-06 -1.752226E-07  2.751333E-07
         8   8 -3.303570E-06  3.652203E-06 -1.405386E-07  1.278620E-06 -1.752226E-07  2.751333E-07
         9   1  1.516751E-14  1.516751E-14  3.539085E-14  2.429116E-33  1.476867E-14  1.328474E-14
         9   2 -7.279321E-15 -9.484950E-14  7.058509E-14 -4.378509E-14  7.606779E-14  4.899351E-14
         9   3  5.405455E-14  5.405455E-14  1.261273E-13 -1.779924E-33 -1.082168E-14  1.328474E-14
         9   4  1.537326E-13  3.288730E-13  1.835691E-13  8.757018E-14 -9.839185E-14 -9.987578E-14
         9   5 -1.950009E-13 -4.752255E-13 -1.747776E-13 -1.401123E-13 -1.200229E-13 -1.255610E-13
         9   6 -1.517701E-13 -4.319947E-13 -7.390570E-14 -1.401123E-13  6.387444E-14 -3.716814E-14
         9   7 -1.561139E-13 -4.363384E-13 -8.404113E-14 -1.401123E-13 -4.038705E-14  4.957931E-14
         9   8 -8.270684E-14 -2.228191E-13 -5.287035E-14 -7.005614E-14  2.966909E-14  2.413099E-14

 strains (elem, integ.pnt.,exx,eyy,ezz,exy,exz,eyz) forset EALL and time  0.2557813E+00

         1   1  5.470153E-13  5.470153E-13 -4.688702E-13  1.392440E-20 -2.094233E-21 -2.094233E-21
         1   2  5.470153E-13  5.470153E-13 -4.688702E-13  3.294548E-20 -6.278376E-21 -2.094233E-21
         1   3  5.470153E-13  5.470153E-13 -4.688702E-13  3.294548E-20 -2.094233E-21 -6.278376E-21
         1   4  5.470153E-13  5.470153E-13 -4.688702E-13  5.196657E-20 -6.278376E-21 -6.278376E-21
         1   5  5.470152E-13  5.470152E-13 -4.688702E-13  1.392440E-20 -3.631641E-21 -3.631641E-21
         1   6  5.470152E-13  5.470153E-13 -4.688702E-13  3.294548E-20 -7.815784E-21 -3.631641E-21
         1   7  5.470153E-13  5.470152E-13 -4.688702E-13  3.294548E-20 -3.631641E-21 -7.815784E-21
         1   8  5.470153E-13  5.470153E-13 -4.688702E-13  5.196657E-20 -7.815784E-21 -7.815784E-21
         2   1 -8.682903E-12  2.994656E-11 -8.993074E-12  1.309606E-12 -1.499023E-13  9.105794E-21
         2   2 -8.682903E-12  2.838758E-11 -8.564782E-12  1.309606E-12 -1.499024E-13  3.234655E-21
         2   3 -8.682903E-12  2.994656E-11 -8.993074E-12  5.301148E-13 -1.499023E-13  1.457641E-19
         2   4 -8.682903E-12  2.838758E-11 -8.564783E-12  5.301150E-13 -1.499024E-13  1.349637E-19
         2   5 -8.682903E-12  2.994656E-11 -8.993074E-12  1.309606E-12  1.499021E-13 -1.026728E-19
         2   6 -8.682903E-12  2.838758E-11 -8.564782E-12  1.309606E-12  1.499019E-13 -1.196549E-19
         2   7 -8.682903E-12  2.994656E-11 -8.993074E-12  5.301148E-13  1.499021E-13  3.398555E-20
         2   8 -8.682903E-12  2.838758E-11 -8.564783E-12  5.301150E-13  1.499019E-13  1.207416E-20
         3   1  1.868617E-12  1.007802E-11 -2.304765E-12  8.416482E-12 -3.271259E-12  3.863706E-14
         3   2  1.868617E-12 -2.385196E-11  7.016658E-12  7.724674E-12 -3.253737E-12  3.863706E-14
         3   3  4.850019E-13  1.007802E-11 -2.087049E-12 -8.548510E-12 -3.271259E-12 -8.206158E-15
         3   4  4.850019E-13 -2.385196E-11  7.234375E-12 -9.240317E-12 -3.253737E-12 -8.206161E-15
         3   5  1.917677E-12  9.946860E-12 -2.304765E-12  8.416482E-12  3.253738E-12  1.910387E-13
         3   6  1.917677E-12 -2.398312E-11  7.016658E-12  7.724674E-12  3.271259E-12  1.910387E-13
         3   7  5.340619E-13  9.946860E-12 -2.087049E-12 -8.548510E-12  3.253738E-12  1.441955E-13
         3   8  5.340619E-13 -2.398312E-11  7.234375E-12 -9.240317E-12  3.271259E-12  1.441955E-13
         4   1  2.994656E-11 -8.682903E-12 -8.993074E-12  1.309606E-12  9.209741E-21 -1.499023E-13
         4   2  2.994656E-11 -8.682903E-12 -8.993074E-12  5.301148E-13  1.456984E-19 -1.499023E-13
         4   3  2.838758E-11 -8.682903E-12 -8.564782E-12  1.309606E-12  3.212008E-21 -1.499024E-13
         4   4  2.838758E-11 -8.682903E-12 -8.564783E-12  5.301150E-13  1.350028E-19 -1.499024E-13
         4   5  2.994656E-11 -8.682903E-12 -8.993074E-12  1.309606E-12 -1.021152E-19  1.499021E-13
         4   6  2.994656E-11 -8.682903E-12 -8.993074E-12  5.301148E-13  3.437349E-20  1.499021E-13
         4   7  2.838758E-11 -8.682903E-12 -8.564782E-12  1.309606E-12 -1.198011E-19  1.499019E-13
         4   8  2.838758E-11 -8.682903E-12 -8.564783E-12  5.301150E-13  1.198964E-20  1.499019E-13
         5   1  1.275357E-11  1.275357E-11 -1.351385E-11  2.026265E-12  1.613883E-12  1.613883E-12
         5   2  1.275357E-11  2.953796E-11 -1.812494E-11  1.041846E-11  1.613883E-12  1.613883E-12
         5   3  2.953796E-11  1.275357E-11 -1.812494E-11  1.041846E-11  1.613883E-12  1.613883E-12
         5   4  2.953796E-11  2.953796E-11 -2.273604E-11  1.881066E-11  1.613883E-12  1.613883E-12
         5   5  1.275357E-11  1.275357E-11 -1.351385E-11  2.026265E-12 -1.613884E-12 -1.613884E-12
         5   6  1.275357E-11  2.953796E-11 -1.812494E-11  1.041846E-11 -1.613884E-12 -1.613884E-12
         5   7  2.953796E-11  1.275357E-11 -1.812494E-11  1.041846E-11 -1.613884E-12 -1.613884E-12
         5   8  2.953796E-11  2.953796E-11 -2.273604E-11  1.881066E-11 -1.613884E-12 -1.613884E-12
         6   1  1.103274E-11 -3.003030E-12 -2.943670E-12  1.119836E-11 -1.704466E-12  1.082729E-12
         6   2  1.103274E-11 -2.072948E-11  1.926233E-12  1.682855E-11 -1.704466E-12  1.082729E-12
         6   3  2.229313E-11 -3.003030E-12 -6.037183E-12  2.335134E-12 -1.704466E-12  1.082730E-12
         6   4  2.229313E-11 -2.072948E-11 -1.167279E-12  7.965328E-12 -1.704466E-12  1.082729E-12
         6   5  1.103274E-11 -3.003030E-12 -2.943670E-12  1.119836E-11  1.704466E-12 -1.082730E-12
         6   6  1.103274E-11 -2.072948E-11  1.926233E-12  1.682855E-11  1.704466E-12 -1.082730E-12
         6   7  2.229313E-11 -3.003030E-12 -6.037183E-12  2.335134E-12  1.704467E-12 -1.082729E-12
         6   8  2.229313E-11 -2.072948E-11 -1.167279E-12  7.965328E-12  1.704467E-12 -1.082730E-12
         7   1  1.007802E-11  1.868617E-12 -2.304765E-12  8.416482E-12  3.863706E-14 -3.271259E-12
         7   2  1.007802E-11  4.850019E-13 -2.087049E-12 -8.548510E-12 -8.206158E-15 -3.271259E-12
         7   3 -2.385196E-11  1.868617E-12  7.016658E-12  7.724674E-12  3.863706E-14 -3.253737E-12
         7   4 -2.385196E-11  4.850019E-13  7.234375E-12 -9.240317E-12 -8.206161E-15 -3.253737E-12
         7   5  9.946860E-12  1.917677E-12 -2.304765E-12  8.416482E-12  1.910387E-13  3.253738E-12
         7   6  9.946860E-12  5.340619E-13 -2.087049E-12 -8.548510E-12  1.441955E-13  3.253738E-12
         7   7 -2.398312E-11  1.917677E-12  7.016658E-12  7.724674E-12  1.910387E-13  3.271259E-12
         7   8 -2.398312E-11  5.340619E-13  7.234375E-12 -9.240317E-12  1.441955E-13  3.271259E-12
         8   1 -3.003030E-12  1.103274E-11 -2.943670E-12  1.119836E-11  1.082729E-12 -1.704466E-12
         8   2 -3.003030E-12  2.229313E-11 -6.037183E-12  2.335134E-12  1.082729E-12 -1.704466E-12
         8   3 -2.072948E-11  1.103274E-11  1.926234E-12  1.682855E-11  1.082729E-12 -1.704466E-12
         8   4 -2.072948E-11  2.229313E-11 -1.167279E-12  7.965327E-12  1.082729E-12 -1.704466E-12
         8   5 -3.003030E-12  1.103274E-11 -2.943670E-12  1.119836E-11 -1.082729E-12  1.704466E-12
         8   6 -3.003030E-12  2.229313E-11 -6.037183E-12  2.335134E-12 -1.082729E-12  1.704467E-12
         8   7 -2.072948E-11  1.103274E-11  1.926234E-12  1.682855E-11 -1.082730E-12  1.704466E-12
         8   8 -2.072948E-11  2.229313E-11 -1.167279E-12  7.965327E-12 -1.082730E-12  1.704466E-12
         9   1  1.671709E-38  1.352646E-38  1.251921E-19  1.503739E-38  9.142509E-20  8.223885E-20
         9   2  1.671709E-38 -5.421011E-19  4.820178E-19 -2.710505E-19  4.708958E-19  3.032932E-19
         9   3  8.975678E-39  1.352646E-38  4.461646E-19 -1.101858E-38 -6.699133E-20  8.223885E-20
         9   4  8.975678E-39  1.084202E-18  1.847021E-19  5.421011E-19 -6.090924E-19 -6.182787E-19
         9   5  2.328391E-37 -1.734723E-18  1.251921E-19 -8.673617E-19 -7.429991E-19 -7.772826E-19
         9   6  2.328391E-37 -1.734723E-18  4.820178E-19 -8.673617E-19  3.954132E-19 -2.300885E-19
         9   7  1.250151E-37 -1.734723E-18  4.461646E-19 -8.673617E-19 -2.500151E-19  3.069196E-19
         9   8  1.250151E-37 -8.673617E-19  1.847021E-19 -4.336809E-19  1.836658E-19  1.493823E-19

 displacements (vx,vy,vz) for set NALL and time  0.2647813E+00

         1  0.000000E+00  0.000000E+00  0.000000E+00
         2  2.553543E-10  0.000000E+00  0.000000E+00
         3  1.340610E-02  0.000000E+00  0.000000E+00
         4  1.340610E-02  0.000000E+00  0.000000E+00
         5  5.165415E-03  0.000000E+00  0.000000E+00
         6  5.165416E-03  0.000000E+00  0.000000E+00
         7  0.000000E+00  2.553543E-10  0.000000E+00
         8  2.553543E-10  2.553543E-10  0.000000E+00
         9  1.340610E-02  1.382009E-08  0.000000E+00
        10  1.340610E-02  1.269619E-08  0.000000E+00
        11  5.165429E-03  1.075958E-08  0.000000E+00
        12  5.165429E-03 -1.611789E-08  0.000000E+00
        13  0.000000E+00  1.340610E-02  0.000000E+00
        14  1.382009E-08  1.340610E-02  0.000000E+00
        15  4.781882E-01  4.781882E-01  0.000000E+00
        16  4.781882E-01  4.781882E-01  0.000000E+00
        17  7.351439E-01  1.327557E-01  0.000000E+00
        18  7.348643E-01 -3.960450E-01  0.000000E+00
        19  0.000000E+00  1.340610E-02  0.000000E+00
        20  1.269619E-08  1.340610E-02  0.000000E+00
        21  4.781882E-01  4.781882E-01  0.000000E+00
        22  4.781882E-01  4.781882E-01  0.000000E+00
        23  1.263945E+00  1.324761E-01  0.000000E+00
        24  1.263665E+00 -3.963246E-01  0.000000E+00
        25  0.000000E+00  5.165415E-03  0.000000E+00
        26  1.075958E-08  5.165429E-03  0.000000E+00
        27  1.327557E-01  7.351439E-01  0.000000E+00
        28  1.324761E-01  1.263945E+00  0.000000E+00
        29 -7.943438E+00 -7.943438E+00  0.000000E+00
        30 -7.943438E+00 -7.943438E+00  0.000000E+00
        31  0.000000E+00  5.165416E-03  0.000000E+00
        32 -1.611789E-08  5.165429E-03  0.000000E+00
        33 -3.960450E-01  7.348643E-01  0.000000E+00
        34 -3.963246E-01  1.263665E+00  0.000000E+00
        35 -7.943438E+00 -7.943438E+00  0.000000E+00
        36 -7.943438E+00 -7.943438E+00  0.000000E+00
        37  0.000000E+00  0.000000E+00 -3.064251E-10
        38  2.553543E-10  0.000000E+00 -3.064251E-10
        39  1.340610E-02  0.000000E+00 -5.822926E-09
        40  1.340610E-02  0.000000E+00 -5.390655E-09
        41  5.165408E-03  0.000000E+00 -3.924527E-09
        42  5.165409E-03  0.000000E+00  6.412961E-09
        43  0.000000E+00  2.553543E-10 -3.064251E-10
        44  2.553543E-10  2.553543E-10 -3.064251E-10
        45  1.340610E-02  1.382009E-08 -5.822926E-09
        46  1.340610E-02  1.269619E-08 -5.390655E-09
        47  5.165422E-03  1.066678E-08 -3.708871E-09
        48  5.165422E-03 -1.621069E-08  6.628616E-09
        49  0.000000E+00  1.340610E-02 -5.822926E-09
        50  1.382009E-08  1.340610E-02 -5.822926E-09
        51  4.781882E-01  4.781882E-01 -6.393264E-09
        52  4.781882E-01  4.781882E-01 -1.150302E-08
        53  7.351439E-01  1.327557E-01 -2.409070E-09
        54  7.348643E-01 -3.960450E-01  3.002888E-09
        55  0.000000E+00  1.340610E-02 -5.390655E-09
        56  1.269619E-08  1.340610E-02 -5.390655E-09
        57  4.781882E-01  4.781882E-01 -1.150302E-08
        58  4.781882E-01  4.781882E-01 -1.661278E-08
        59  1.263945E+00  1.324761E-01 -6.045412E-09
        60  1.263665E+00 -3.963246E-01 -6.334533E-10
        61  0.000000E+00  5.165408E-03 -3.924527E-09
        62  1.066678E-08  5.165422E-03 -3.708871E-09
        63  1.327557E-01  7.351439E-01 -2.409071E-09
        64  1.324761E-01  1.263945E+00 -6.045412E-09
        65 -7.943438E+00 -7.943438E+00  2.594804E-16
        66 -7.943438E+00 -7.943438E+00  1.978870E-16
        67  0.000000E+00  5.165409E-03  6.412961E-09
        68 -1.621069E-08  5.165422E-03  6.628616E-09
        69 -3.960450E-01  7.348643E-01  3.002888E-09
        70 -3.963246E-01  1.263665E+00 -6.334535E-10
        71 -7.943438E+00 -7.943438E+00  3.891539E-16
        72 -7.943438E+00 -7.943438E+00 -5.373285E-16

 stresses (elem, integ.pnt.,sxx,syy,szz,sxy,sxz,syz) for set EALL and time  0.2647813E+00

         1   1  1.532126E-07  1.532126E-07 -2.256031E-15  1.872882E-15 -2.818055E-16 -2.818055E-16
         1   2  1.532126E-07  1.532126E-07  1.063194E-15  4.431286E-15 -8.443600E-16 -2.818055E-16
         1   3  1.532126E-07  1.532126E-07  1.063194E-15  4.431286E-15 -2.818055E-16 -8.443600E-16
         1   4  1.532126E-07  1.532126E-07  4.382420E-15  6.989690E-15 -8.443600E-16 -8.443600E-16
         1   5  1.532126E-07  1.532126E-07 -4.618760E-15  1.872882E-15 -4.891578E-16 -4.891578E-16
         1   6  1.532126E-07  1.532126E-07 -1.299535E-15  4.431286E-15 -1.051712E-15 -4.891578E-16
         1   7  1.532126E-07  1.532126E-07 -1.299535E-15  4.431286E-15 -4.891578E-16 -1.051712E-15
         1   8  1.532126E-07  1.532126E-07  2.019691E-15  6.989690E-15 -1.051712E-15 -1.051712E-15
         2   1  8.653417E-08  5.739112E-06  2.822074E-08  1.761059E-07 -2.015774E-08  1.323694E-15
         2   2 -2.750082E-08  5.415436E-06 -2.822075E-08  1.761060E-07 -2.015776E-08  5.297295E-16
         2   3  8.653427E-08  5.739112E-06  2.822075E-08  7.128585E-08 -2.015773E-08  2.136746E-14
         2   4 -2.750071E-08  5.415436E-06 -2.822075E-08  7.128589E-08 -2.015775E-08  1.996178E-14
         2   5  8.653411E-08  5.739112E-06  2.822074E-08  1.761059E-07  2.015771E-08 -1.510346E-14
         2   6 -2.750088E-08  5.415436E-06 -2.822075E-08  1.761060E-07  2.015768E-08 -1.745486E-14
         2   7  8.653421E-08  5.739112E-06  2.822075E-08  7.128585E-08  2.015771E-08  4.940203E-15
         2   8 -2.750077E-08  5.415437E-06 -2.822075E-08  7.128589E-08  2.015768E-08  1.977088E-15
         3   1  1.353894E-06  2.748092E-06  7.222801E-07  1.251914E-06 -4.832153E-07  5.099069E-09
         3   2 -1.373184E-06 -4.992401E-06 -6.274857E-07  1.160614E-06 -4.809029E-07  5.099069E-09
         3   3  1.055893E-06  2.632691E-06  6.356120E-07 -1.254793E-06 -4.832153E-07 -1.082993E-09
         3   4 -1.671185E-06 -5.107802E-06 -7.141537E-07 -1.346094E-06 -4.809029E-07 -1.082994E-09
         3   5  1.352242E-06  2.722655E-06  7.141537E-07  1.251914E-06  4.809030E-07  2.521205E-08
         3   6 -1.374835E-06 -5.017837E-06 -6.356120E-07  1.160614E-06  4.832154E-07  2.521205E-08
         3   7  1.054241E-06  2.607255E-06  6.274857E-07 -1.254793E-06  4.809030E-07  1.902999E-08
         3   8 -1.672837E-06 -5.133238E-06 -7.222801E-07 -1.346094E-06  4.832154E-07  1.902999E-08
         4   1  5.739112E-06  8.653417E-08  2.822074E-08  1.761059E-07  1.325168E-15 -2.015774E-08
         4   2  5.739112E-06  8.653427E-08  2.822075E-08  7.128585E-08  2.135967E-14 -2.015773E-08
         4   3  5.415436E-06 -2.750082E-08 -2.822075E-08  1.761060E-07  5.324644E-16 -2.015776E-08
         4   4  5.415436E-06 -2.750072E-08 -2.822075E-08  7.128589E-08  1.994649E-14 -2.015775E-08
         4   5  5.739112E-06  8.653411E-08  2.822074E-08  1.761059E-07 -1.508869E-14  2.015771E-08
         4   6  5.739112E-06  8.653421E-08  2.822075E-08  7.128585E-08  4.945706E-15  2.015771E-08
         4   7  5.415436E-06 -2.750088E-08 -2.822076E-08  1.761060E-07 -1.742662E-14  2.015768E-08
         4   8  5.415437E-06 -2.750077E-08 -2.822075E-08  7.128589E-08  1.987295E-15  2.015769E-08
         5   1  3.164482E-06  3.164482E-06 -6.671811E-07  2.962820E-07  2.382789E-07  2.382788E-07
         5   2  4.512460E-06  6.990561E-06  2.864154E-14  1.535332E-06  2.382788E-07  2.382788E-07
         5   3  6.990560E-06  4.512460E-06  1.696144E-14  1.535332E-06  2.382788E-07  2.382788E-07
         5   4  8.338538E-06  8.338538E-06  6.671811E-07  2.774383E-06  2.382788E-07  2.382788E-07
         5   5  3.164482E-06  3.164482E-06 -6.671811E-07  2.962820E-07 -2.382789E-07 -2.382789E-07
         5   6  4.512460E-06  6.990560E-06 -2.142061E-14  1.535332E-06 -2.382789E-07 -2.382789E-07
         5   7  6.990560E-06  4.512460E-06 -9.292564E-15  1.535332E-06 -2.382789E-07 -2.382789E-07
         5   8  8.338538E-06  8.338538E-06  6.671811E-07  2.774383E-06 -2.382789E-07 -2.382789E-07
         6   1  2.118798E-06  3.015194E-07  1.159437E-07  1.621195E-06 -2.521917E-07  1.698372E-07
         6   2  6.929601E-07 -3.752704E-06 -5.906959E-07  2.500183E-06 -2.521917E-07  1.698372E-07
         6   3  4.838836E-06  1.263581E-06  5.907409E-07  3.070025E-07 -2.521916E-07  1.698372E-07
         6   4  3.412998E-06 -2.790642E-06 -1.158987E-07  1.185991E-06 -2.521917E-07  1.698372E-07
         6   5  2.118798E-06  3.015194E-07  1.159437E-07  1.621195E-06  2.521918E-07 -1.698372E-07
         6   6  6.929600E-07 -3.752704E-06 -5.906959E-07  2.500183E-06  2.521918E-07 -1.698372E-07
         6   7  4.838836E-06  1.263581E-06  5.907408E-07  3.070026E-07  2.521918E-07 -1.698372E-07
         6   8  3.412998E-06 -2.790642E-06 -1.158987E-07  1.185991E-06  2.521918E-07 -1.698372E-07
         7   1  2.748092E-06  1.353894E-06  7.222801E-07  1.251914E-06  5.099069E-09 -4.832153E-07
         7   2  2.632691E-06  1.055893E-06  6.356120E-07 -1.254793E-06 -1.082993E-09 -4.832153E-07
         7   3 -4.992401E-06 -1.373184E-06 -6.274857E-07  1.160614E-06  5.099069E-09 -4.809029E-07
         7   4 -5.107802E-06 -1.671185E-06 -7.141537E-07 -1.346094E-06 -1.082994E-09 -4.809029E-07
         7   5  2.722655E-06  1.352242E-06  7.141537E-07  1.251914E-06  2.521205E-08  4.809030E-07
         7   6  2.607255E-06  1.054241E-06  6.274857E-07 -1.254793E-06  1.902999E-08  4.809030E-07
         7   7 -5.017837E-06 -1.374835E-06 -6.356120E-07  1.160614E-06  2.521205E-08  4.832154E-07
         7   8 -5.133238E-06 -1.672837E-06 -7.222801E-07 -1.346094E-06  1.902999E-08  4.832154E-07
         8   1  3.015193E-07  2.118798E-06  1.159437E-07  1.621195E-06  1.698372E-07 -2.521917E-07
         8   2  1.263581E-06  4.838836E-06  5.907409E-07  3.070026E-07  1.698372E-07 -2.521917E-07
         8   3 -3.752704E-06  6.929600E-07 -5.906959E-07  2.500183E-06  1.698372E-07 -2.521917E-07
         8   4 -2.790642E-06  3.412998E-06 -1.158987E-07  1.185991E-06  1.698372E-07 -2.521917E-07
         8   5  3.015194E-07  2.118798E-06  1.159437E-07  1.621195E-06 -1.698372E-07  2.521918E-07
         8   6  1.263581E-06  4.838836E-06  5.907409E-07  3.070026E-07 -1.698372E-07  2.521918E-07
         8   7 -3.752704E-06  6.929600E-07 -5.906959E-07  2.500183E-06 -1.698372E-07  2.521917E-07
         8   8 -2.790642E-06  3.412998E-06 -1.158988E-07  1.185991E-06 -1.698372E-07  2.521918E-07
         9   1  4.071514E-14  4.071514E-14  9.500200E-14  5.580788E-33  9.172091E-15  1.570139E-14
         9   2  1.476519E-13  3.227922E-13  1.693807E-13  8.757018E-14  3.544314E-14  2.492629E-14
         9   3  3.540917E-14  3.540917E-14  8.262139E-14  5.697674E-34 -2.538809E-14 -1.812648E-15
         9   4  2.677084E-14  1.143410E-13 -2.510487E-14  4.378509E-14 -2.538809E-14 -1.885880E-14
         9   5 -1.694533E-13 -4.496778E-13 -1.151664E-13 -1.401123E-13 -4.864660E-14 -2.427893E-14
         9   6 -3.624548E-14 -1.063016E-13 -1.451664E-14 -3.502807E-14 -3.988958E-14 -7.913900E-14
         9   7 -1.747593E-13 -4.549838E-13 -1.275470E-13 -1.401123E-13 -2.469351E-14  6.329125E-14
         9   8  1.363532E-14  8.369146E-14 -3.824040E-14  3.502807E-14  6.287667E-14  8.724433E-14

 strains (elem, integ.pnt.,exx,eyy,ezz,exy,exz,eyz) forset EALL and time  0.2647813E+00

         1   1  5.107086E-13  5.107086E-13 -4.377502E-13  1.159403E-20 -1.744510E-21 -1.744510E-21
         1   2  5.107086E-13  5.107086E-13 -4.377502E-13  2.743177E-20 -5.226991E-21 -1.744510E-21
         1   3  5.107086E-13  5.107086E-13 -4.377502E-13  2.743177E-20 -1.744510E-21 -5.226990E-21
         1   4  5.107086E-13  5.107086E-13 -4.377502E-13  4.326951E-20 -5.226991E-21 -5.226990E-21
         1   5  5.107085E-13  5.107085E-13 -4.377502E-13  1.159403E-20 -3.028120E-21 -3.028120E-21
         1   6  5.107085E-13  5.107086E-13 -4.377502E-13  2.743177E-20 -6.510600E-21 -3.028120E-21
         1   7  5.107086E-13  5.107085E-13 -4.377502E-13  2.743177E-20 -3.028120E-21 -6.510600E-21
         1   8  5.107086E-13  5.107086E-13 -4.377502E-13  4.326951E-20 -6.510600E-21 -6.510600E-21
         2   1 -7.826979E-12  2.716517E-11 -8.187967E-12  1.090179E-12 -1.247860E-13  8.194037E-21
         2   2 -7.826979E-12  2.586739E-11 -7.831435E-12  1.090180E-12 -1.247861E-13  3.279020E-21
         2   3 -7.826978E-12  2.716517E-11 -8.187967E-12  4.412934E-13 -1.247860E-13  1.322745E-19
         2   4 -7.826978E-12  2.586739E-11 -7.831436E-12  4.412936E-13 -1.247861E-13  1.235726E-19
         2   5 -7.826979E-12  2.716517E-11 -8.187967E-12  1.090180E-12  1.247858E-13 -9.349831E-20
         2   6 -7.826979E-12  2.586740E-11 -7.831435E-12  1.090180E-12  1.247857E-13 -1.080546E-19
         2   7 -7.826979E-12  2.716517E-11 -8.187967E-12  4.412934E-13  1.247858E-13  3.058213E-20
         2   8 -7.826979E-12  2.586740E-11 -7.831436E-12  4.412936E-13  1.247857E-13  1.223904E-20
         3   1  1.489441E-12  1.012019E-11 -2.420551E-12  7.749946E-12 -2.991333E-12  3.156567E-14
         3   2  1.489441E-12 -2.091524E-11  6.105666E-12  7.184754E-12 -2.977018E-12  3.156567E-14
         3   3  3.590559E-13  1.012019E-11 -2.242681E-12 -7.767768E-12 -2.991333E-12 -6.704245E-15
         3   4  3.590559E-13 -2.091524E-11  6.283536E-12 -8.332960E-12 -2.977018E-12 -6.704247E-15
         3   5  1.529522E-12  1.001303E-11 -2.420551E-12  7.749946E-12  2.977019E-12  1.560746E-13
         3   6  1.529522E-12 -2.102240E-11  6.105666E-12  7.184754E-12  2.991333E-12  1.560746E-13
         3   7  3.991369E-13  1.001303E-11 -2.242681E-12 -7.767768E-12  2.977019E-12  1.178047E-13
         3   8  3.991369E-13 -2.102240E-11  6.283536E-12 -8.332960E-12  2.991333E-12  1.178047E-13
         4   1  2.716517E-11 -7.826979E-12 -8.187967E-12  1.090179E-12  8.203165E-21 -1.247860E-13
         4   2  2.716517E-11 -7.826978E-12 -8.187967E-12  4.412934E-13  1.322262E-19 -1.247860E-13
         4   3  2.586739E-11 -7.826979E-12 -7.831435E-12  1.090180E-12  3.295950E-21 -1.247861E-13
         4   4  2.586739E-11 -7.826978E-12 -7.831436E-12  4.412936E-13  1.234780E-19 -1.247861E-13
         4   5  2.716517E-11 -7.826979E-12 -8.187967E-12  1.090180E-12 -9.340687E-20  1.247858E-13
         4   6  2.716517E-11 -7.826979E-12 -8.187967E-12  4.412934E-13  3.061620E-20  1.247858E-13
         4   7  2.586740E-11 -7.826979E-12 -7.831435E-12  1.090180E-12 -1.078798E-19  1.247857E-13
         4   8  2.586740E-11 -7.826979E-12 -7.831436E-12  4.412936E-13  1.230222E-20  1.247857E-13
         5   1  1.150139E-11  1.150139E-11 -1.221843E-11  1.834127E-12  1.475060E-12  1.475059E-12
         5   2  1.150139E-11  2.684201E-11 -1.643289E-11  9.504438E-12  1.475059E-12  1.475059E-12
         5   3  2.684201E-11  1.150139E-11 -1.643289E-11  9.504438E-12  1.475060E-12  1.475059E-12
         5   4  2.684201E-11  2.684201E-11 -2.064734E-11  1.717475E-11  1.475059E-12  1.475059E-12
         5   5  1.150139E-11  1.150139E-11 -1.221843E-11  1.834127E-12 -1.475060E-12 -1.475060E-12
         5   6  1.150139E-11  2.684201E-11 -1.643289E-11  9.504438E-12 -1.475060E-12 -1.475060E-12
         5   7  2.684201E-11  1.150139E-11 -1.643289E-11  9.504438E-12 -1.475060E-12 -1.475060E-12
         5   8  2.684201E-11  2.684201E-11 -2.064734E-11  1.717475E-11 -1.475060E-12 -1.475060E-12
         6   1  9.471898E-12 -1.735441E-12 -2.905484E-12  1.004785E-11 -1.562298E-12  1.049721E-12
         6   2  9.471898E-12 -1.798334E-11  1.558225E-12  1.550640E-11 -1.562298E-12  1.049721E-12
         6   3  2.038900E-11 -1.735441E-12 -5.904688E-12  1.923895E-12 -1.562297E-12  1.049722E-12
         6   4  2.038900E-11 -1.798334E-11 -1.440979E-12  7.382447E-12 -1.562297E-12  1.049721E-12
         6   5  9.471898E-12 -1.735441E-12 -2.905484E-12  1.004785E-11  1.562298E-12 -1.049722E-12
         6   6  9.471898E-12 -1.798334E-11  1.558225E-12  1.550640E-11  1.562298E-12 -1.049722E-12
         6   7  2.038900E-11 -1.735441E-12 -5.904688E-12  1.923896E-12  1.562299E-12 -1.049721E-12
         6   8  2.038900E-11 -1.798334E-11 -1.440979E-12  7.382447E-12  1.562298E-12 -1.049722E-12
         7   1  1.012019E-11  1.489441E-12 -2.420551E-12  7.749946E-12  3.156567E-14 -2.991333E-12
         7   2  1.012019E-11  3.590559E-13 -2.242681E-12 -7.767768E-12 -6.704245E-15 -2.991333E-12
         7   3 -2.091524E-11  1.489441E-12  6.105666E-12  7.184754E-12  3.156567E-14 -2.977018E-12
         7   4 -2.091524E-11  3.590559E-13  6.283536E-12 -8.332960E-12 -6.704247E-15 -2.977018E-12
         7   5  1.001303E-11  1.529522E-12 -2.420551E-12  7.749946E-12  1.560746E-13  2.977019E-12
         7   6  1.001303E-11  3.991369E-13 -2.242681E-12 -7.767768E-12  1.178047E-13  2.977019E-12
         7   7 -2.102240E-11  1.529522E-12  6.105666E-12  7.184754E-12  1.560746E-13  2.991333E-12
         7   8 -2.102240E-11  3.991369E-13  6.283536E-12 -8.332960E-12  1.178047E-13  2.991333E-12
         8   1 -1.735441E-12  9.471898E-12 -2.905484E-12  1.004785E-11  1.049721E-12 -1.562298E-12
         8   2 -1.735441E-12  2.038900E-11 -5.904688E-12  1.923895E-12  1.049721E-12 -1.562297E-12
         8   3 -1.798334E-11  9.471898E-12  1.558225E-12  1.550640E-11  1.049721E-12 -1.562298E-12
         8   4 -1.798334E-11  2.038900E-11 -1.440979E-12  7.382447E-12  1.049721E-12 -1.562298E-12
         8   5 -1.735441E-12  9.471898E-12 -2.905484E-12  1.004785E-11 -1.049722E-12  1.562298E-12
         8   6 -1.735441E-12  2.038900E-11 -5.904688E-12  1.923895E-12 -1.049721E-12  1.562299E-12
         8   7 -1.798334E-11  9.471898E-12  1.558225E-12  1.550640E-11 -1.049722E-12  1.562298E-12
         8   8 -1.798334E-11  2.038900E-11 -1.440979E-12  7.382447E-12 -1.049722E-12  1.562298E-12
         9   1  5.333505E-39  2.518286E-40  3.360615E-19  1.158934E-39  5.677961E-20  9.719906E-20
         9   2  5.333505E-39  1.084202E-18  1.345118E-19  5.421011E-19  2.194099E-19  1.543056E-19
         9   3  4.940128E-38  2.518286E-40  2.922661E-19  3.527132E-39 -1.571644E-19 -1.122115E-20
         9   4  4.940128E-38  5.421011E-19 -3.211354E-19  2.710505E-19 -1.571644E-19 -1.167449E-19
         9   5  7.428614E-38 -1.734723E-18  3.360615E-19 -8.673617E-19 -3.011456E-19 -1.502981E-19
         9   6  7.428614E-38 -4.336809E-19  1.345118E-19 -2.168404E-19 -2.469355E-19 -4.899081E-19
         9   7  6.880711E-37 -1.734723E-18  2.922661E-19 -8.673617E-19 -1.528646E-19  3.918029E-19
         9   8  6.880711E-37  4.336809E-19 -3.211354E-19  2.168404E-19  3.892365E-19  5.400840E-19

 displacements (vx,vy,vz) for set NALL and time  0.2737813E+00

         1  0.000000E+00  0.000000E+00  0.000000E+00
         2  2.257021E-10  0.000000E+00  0.000000E+00
         3  1.184936E-02  0.000000E+00  0.000000E+00
         4  1.184936E-02  0.000000E+00  0.000000E+00
         5  6.314913E-03  0.000000E+00  0.000000E+00
         6  6.314914E-03  0.000000E+00  0.000000E+00
         7  0.000000E+00  2.257021E-10  0.000000E+00
         8  2.257021E-10  2.257021E-10  0.000000E+00
         9  1.184936E-02  1.228341E-08  0.000000E+00
        10  1.184936E-02  1.138084E-08  0.000000E+00
        11  6.314925E-03  9.999608E-09  0.000000E+00
        12  6.314925E-03 -1.405163E-08  0.000000E+00
        13  0.000000E+00  1.184936E-02  0.000000E+00
        14  1.228341E-08  1.184936E-02  0.000000E+00
        15  4.278306E-01  4.278306E-01  0.000000E+00
        16  4.278306E-01  4.278306E-01  0.000000E+00
        17  6.545871E-01  1.350414E-01  0.000000E+00
        18  6.543654E-01 -3.357415E-01  0.000000E+00
        19  0.000000E+00  1.184936E-02  0.000000E+00
        20  1.138084E-08  1.184936E-02  0.000000E+00
        21  4.278306E-01  4.278306E-01  0.000000E+00
        22  4.278306E-01  4.278306E-01  0.000000E+00
        23  1.125370E+00  1.348198E-01  0.000000E+00
        24  1.125148E+00 -3.359632E-01  0.000000E+00
        25  0.000000E+00  6.314913E-03  0.000000E+00
        26  9.999608E-09  6.314925E-03  0.000000E+00
        27  1.350414E-01  6.545871E-01  0.000000E+00
        28  1.348198E-01  1.125370E+00  0.000000E+00
        29 -8.213438E+00 -8.213438E+00  0.000000E+00
        30 -8.213438E+00 -8.213438E+00  0.000000E+00
        31  0.000000E+00  6.314914E-03  0.000000E+00
        32 -1.405163E-08  6.314925E-03  0.000000E+00
        33 -3.357415E-01  6.543654E-01  0.000000E+00
        34 -3.359632E-01  1.125148E+00  0.000000E+00
        35 -8.213438E+00 -8.213438E+00  0.000000E+00
        36 -8.213438E+00 -8.213438E+00  0.000000E+00
        37  0.000000E+00  0.000000E+00 -2.708425E-10
        38  2.257021E-10  0.000000E+00 -2.708425E-10
        39  1.184936E-02  0.000000E+00 -5.189973E-09
        40  1.184936E-02  0.000000E+00 -4.842831E-09
        41  6.314907E-03  0.000000E+00 -3.687749E-09
        42  6.314907E-03  0.000000E+00  5.562725E-09
        43  0.000000E+00  2.257021E-10 -2.708425E-10
        44  2.257021E-10  2.257021E-10 -2.708425E-10
        45  1.184936E-02  1.228341E-08 -5.189973E-09
        46  1.184936E-02  1.138084E-08 -4.842831E-09
        47  6.314919E-03  9.926580E-09 -3.518041E-09
        48  6.314919E-03 -1.412465E-08  5.732433E-09
        49  0.000000E+00  1.184936E-02 -5.189973E-09
        50  1.228341E-08  1.184936E-02 -5.189973E-09
        51  4.278306E-01  4.278306E-01 -5.663504E-09
        52  4.278306E-01  4.278306E-01 -1.023484E-08
        53  6.545871E-01  1.350414E-01 -2.240503E-09
        54  6.543654E-01 -3.357415E-01  2.601418E-09
        55  0.000000E+00  1.184936E-02 -4.842831E-09
        56  1.138084E-08  1.184936E-02 -4.842831E-09
        57  4.278306E-01  4.278306E-01 -1.023484E-08
        58  4.278306E-01  4.278306E-01 -1.480617E-08
        59  1.125370E+00  1.348198E-01 -5.678204E-09
        60  1.125148E+00 -3.359632E-01 -8.362827E-10
        61  0.000000E+00  6.314907E-03 -3.687749E-09
        62  9.926580E-09  6.314919E-03 -3.518041E-09
        63  1.350414E-01  6.545871E-01 -2.240504E-09
        64  1.348198E-01  1.125370E+00 -5.678204E-09
        65 -8.213438E+00 -8.213438E+00  1.372020E-16
        66 -8.213438E+00 -8.213438E+00 -7.825679E-17
        67  0.000000E+00  6.314907E-03  5.562725E-09
        68 -1.412465E-08  6.314919E-03  5.732433E-09
        69 -3.357415E-01  6.543654E-01  2.601418E-09
        70 -3.359632E-01  1.125148E+00 -8.362828E-10
        71 -8.213438E+00 -8.213438E+00  2.607061E-17
        72 -8.213438E+00 -8.213438E+00  3.327173E-16

 stresses (elem, integ.pnt.,sxx,syy,szz,sxy,sxz,syz) for set EALL and time  0.2737813E+00

         1   1  1.354213E-07  1.354213E-07 -1.810102E-15  1.503553E-15 -2.261536E-16 -2.261536E-16
         1   2  1.354213E-07  1.354213E-07  8.558934E-16  3.557445E-15 -6.780796E-16 -2.261536E-16
         1   3  1.354213E-07  1.354213E-07  8.558934E-16  3.557445E-15 -2.261536E-16 -6.780796E-16
         1   4  1.354213E-07  1.354213E-07  3.521888E-15  5.611337E-15 -6.780796E-16 -6.780796E-16
         1   5  1.354213E-07  1.354213E-07 -3.708191E-15  1.503553E-15 -3.920908E-16 -3.920908E-16
         1   6  1.354213E-07  1.354213E-07 -1.042196E-15  3.557445E-15 -8.440168E-16 -3.920908E-16
         1   7  1.354213E-07  1.354213E-07 -1.042196E-15  3.557445E-15 -3.920908E-16 -8.440168E-16
         1   8  1.354213E-07  1.354213E-07  1.623799E-15  5.611337E-15 -8.440168E-16 -8.440168E-16
         2   1  8.187407E-08  5.110283E-06  2.266313E-08  1.414248E-07 -1.618801E-08  1.162842E-15
         2   2 -9.703603E-09  4.850350E-06 -2.266314E-08  1.414248E-07 -1.618802E-08  5.268264E-16
         2   3  8.187416E-08  5.110283E-06  2.266314E-08  5.724728E-08 -1.618801E-08  1.901520E-14
         2   4 -9.703511E-09  4.850350E-06 -2.266313E-08  5.724731E-08 -1.618802E-08  1.785102E-14
         2   5  8.187402E-08  5.110283E-06  2.266313E-08  1.414248E-07  1.618798E-08 -1.351243E-14
         2   6 -9.703654E-09  4.850350E-06 -2.266314E-08  1.414248E-07  1.618796E-08 -1.535791E-14
         2   7  8.187411E-08  5.110283E-06  2.266314E-08  5.724728E-08  1.618798E-08  4.339855E-15
         2   8 -9.703563E-09  4.850350E-06 -2.266313E-08  5.724731E-08  1.618796E-08  1.966214E-15
         3   1  1.218001E-06  2.616417E-06  6.412160E-07  1.125859E-06 -4.322792E-07  4.012669E-09
         3   2 -1.222318E-06 -4.310143E-06 -5.666184E-07  1.054011E-06 -4.304595E-07  4.012669E-09
         3   3  9.834909E-07  2.525603E-06  5.730133E-07 -1.117262E-06 -4.322792E-07 -8.522502E-10
         3   4 -1.456827E-06 -4.400957E-06 -6.348210E-07 -1.189110E-06 -4.304595E-07 -8.522506E-10
         3   5  1.216701E-06  2.596400E-06  6.348210E-07  1.125859E-06  4.304595E-07  1.984041E-08
         3   6 -1.223617E-06 -4.330160E-06 -5.730133E-07  1.054011E-06  4.322792E-07  1.984041E-08
         3   7  9.821911E-07  2.505586E-06  5.666184E-07 -1.117262E-06  4.304595E-07  1.497549E-08
         3   8 -1.458127E-06 -4.420974E-06 -6.412160E-07 -1.189110E-06  4.322792E-07  1.497549E-08
         4   1  5.110283E-06  8.187407E-08  2.266313E-08  1.414248E-07  1.168831E-15 -1.618801E-08
         4   2  5.110283E-06  8.187416E-08  2.266314E-08  5.724727E-08  1.899410E-14 -1.618800E-08
         4   3  4.850350E-06 -9.703603E-09 -2.266314E-08  1.414248E-07  5.207886E-16 -1.618802E-08
         4   4  4.850350E-06 -9.703510E-09 -2.266313E-08  5.724731E-08  1.785467E-14 -1.618802E-08
         4   5  5.110283E-06  8.187402E-08  2.266313E-08  1.414248E-07 -1.346299E-14  1.618798E-08
         4   6  5.110283E-06  8.187411E-08  2.266314E-08  5.724728E-08  4.362210E-15  1.618798E-08
         4   7  4.850350E-06 -9.703655E-09 -2.266314E-08  1.414248E-07 -1.539013E-14  1.618796E-08
         4   8  4.850350E-06 -9.703563E-09 -2.266313E-08  5.724731E-08  1.943681E-15  1.618796E-08
         5   1  2.802990E-06  2.802990E-06 -5.968794E-07  2.611843E-07  2.131711E-07  2.131711E-07
         5   2  4.008930E-06  6.225910E-06  1.245297E-14  1.369674E-06  2.131711E-07  2.131711E-07
         5   3  6.225910E-06  4.008930E-06  1.563135E-15  1.369674E-06  2.131711E-07  2.131711E-07
         5   4  7.431849E-06  7.431849E-06  5.968794E-07  2.478164E-06  2.131711E-07  2.131711E-07
         5   5  2.802990E-06  2.802990E-06 -5.968794E-07  2.611843E-07 -2.131712E-07 -2.131712E-07
         5   6  4.008929E-06  6.225910E-06 -1.790929E-14  1.369674E-06 -2.131712E-07 -2.131712E-07
         5   7  6.225910E-06  4.008930E-06  2.456395E-14  1.369674E-06 -2.131712E-07 -2.131712E-07
         5   8  7.431849E-06  7.431849E-06  5.968794E-07  2.478164E-06 -2.131712E-07 -2.131712E-07
         6   1  1.831575E-06  4.177862E-07  9.168134E-08  1.425714E-06 -2.256381E-07  1.605198E-07
         6   2  5.558210E-07 -3.209311E-06 -5.405285E-07  2.257100E-06 -2.256381E-07  1.605198E-07
         6   3  4.403440E-06  1.326880E-06  5.405419E-07  2.500425E-07 -2.256381E-07  1.605199E-07
         6   4  3.127686E-06 -2.300217E-06 -9.166788E-08  1.081428E-06 -2.256381E-07  1.605198E-07
         6   5  1.831575E-06  4.177862E-07  9.168132E-08  1.425714E-06  2.256381E-07 -1.605199E-07
         6   6  5.558209E-07 -3.209311E-06 -5.405285E-07  2.257100E-06  2.256381E-07 -1.605199E-07
         6   7  4.403440E-06  1.326880E-06  5.405419E-07  2.500426E-07  2.256382E-07 -1.605198E-07
         6   8  3.127686E-06 -2.300217E-06 -9.166793E-08  1.081428E-06  2.256382E-07 -1.605199E-07
         7   1  2.616417E-06  1.218001E-06  6.412160E-07  1.125859E-06  4.012669E-09 -4.322792E-07
         7   2  2.525603E-06  9.834909E-07  5.730133E-07 -1.117262E-06 -8.522502E-10 -4.322792E-07
         7   3 -4.310143E-06 -1.222318E-06 -5.666184E-07  1.054011E-06  4.012669E-09 -4.304595E-07
         7   4 -4.400957E-06 -1.456827E-06 -6.348210E-07 -1.189110E-06 -8.522506E-10 -4.304595E-07
         7   5  2.596400E-06  1.216701E-06  6.348210E-07  1.125859E-06  1.984041E-08  4.304595E-07
         7   6  2.505586E-06  9.821911E-07  5.666184E-07 -1.117262E-06  1.497549E-08  4.304595E-07
         7   7 -4.330160E-06 -1.223617E-06 -5.730133E-07  1.054011E-06  1.984041E-08  4.322792E-07
         7   8 -4.420974E-06 -1.458127E-06 -6.412160E-07 -1.189110E-06  1.497549E-08  4.322792E-07
         8   1  4.177862E-07  1.831575E-06  9.168133E-08  1.425714E-06  1.605198E-07 -2.256381E-07
         8   2  1.326880E-06  4.403440E-06  5.405419E-07  2.500426E-07  1.605199E-07 -2.256381E-07
         8   3 -3.209311E-06  5.558210E-07 -5.405285E-07  2.257100E-06  1.605198E-07 -2.256381E-07
         8   4 -2.300217E-06  3.127686E-06 -9.166792E-08  1.081428E-06  1.605198E-07 -2.256381E-07
         8   5  4.177862E-07  1.831575E-06  9.168132E-08  1.425714E-06 -1.605199E-07  2.256381E-07
         8   6  1.326880E-06  4.403440E-06  5.405419E-07  2.500426E-07 -1.605199E-07  2.256382E-07
         8   7 -3.209311E-06  5.558209E-07 -5.405285E-07  2.257100E-06 -1.605199E-07  2.256381E-07
         8   8 -2.300217E-06  3.127686E-06 -9.166786E-08  1.081428E-06 -1.605199E-07  2.256382E-07
         9   1  1.583683E-14  1.583683E-14  3.695261E-14  3.195136E-32 -3.861673E-14 -3.505530E-14
         9   2  5.787422E-14  1.279304E-13  6.498370E-14  3.502807E-14 -2.110270E-14 -7.251053E-15
         9   3  1.575713E-14  1.575713E-14  3.676665E-14  4.745318E-31 -1.334107E-13 -1.401395E-13
         9   4  1.404581E-13  2.805704E-13  1.876233E-13  7.005614E-14  4.172962E-14  4.529105E-14
         9   5 -1.943316E-13 -4.745562E-13 -1.732158E-13 -1.401123E-13  2.163501E-14  3.492646E-14
         9   6 -9.975210E-14 -2.398644E-13 -9.264261E-14 -7.005614E-14  5.666308E-14  1.083581E-13
         9   7 -1.944113E-13 -4.746358E-13 -1.734018E-13 -1.401123E-13 -1.151018E-13 -1.402139E-13
         9   8  8.791599E-14  1.579721E-13  1.350812E-13  3.502807E-14 -8.007369E-14 -6.678224E-14

 strains (elem, integ.pnt.,exx,eyy,ezz,exy,exz,eyz) forset EALL and time  0.2737813E+00

         1   1  4.514042E-13  4.514042E-13 -3.869179E-13  9.307711E-21 -1.399999E-21 -1.399999E-21
         1   2  4.514042E-13  4.514042E-13 -3.869179E-13  2.202228E-20 -4.197636E-21 -1.399999E-21
         1   3  4.514042E-13  4.514042E-13 -3.869179E-13  2.202228E-20 -1.399999E-21 -4.197636E-21
         1   4  4.514042E-13  4.514042E-13 -3.869179E-13  3.473685E-20 -4.197636E-21 -4.197636E-21
         1   5  4.514042E-13  4.514042E-13 -3.869179E-13  9.307711E-21 -2.427229E-21 -2.427229E-21
         1   6  4.514042E-13  4.514042E-13 -3.869179E-13  2.202228E-20 -5.224866E-21 -2.427229E-21
         1   7  4.514042E-13  4.514042E-13 -3.869179E-13  2.202228E-20 -2.427229E-21 -5.224866E-21
         1   8  4.514042E-13  4.514042E-13 -3.869179E-13  3.473685E-20 -5.224866E-21 -5.224866E-21
         2   1 -6.942903E-12  2.418534E-11 -7.309447E-12  8.754866E-13 -1.002115E-13  7.198377E-21
         2   2 -6.942903E-12  2.314314E-11 -7.023129E-12  8.754868E-13 -1.002116E-13  3.261139E-21
         2   3 -6.942903E-12  2.418534E-11 -7.309447E-12  3.543879E-13 -1.002115E-13  1.177129E-19
         2   4 -6.942903E-12  2.314314E-11 -7.023129E-12  3.543881E-13 -1.002116E-13  1.105061E-19
         2   5 -6.942904E-12  2.418534E-11 -7.309447E-12  8.754866E-13  1.002113E-13 -8.364884E-20
         2   6 -6.942904E-12  2.314314E-11 -7.023129E-12  8.754868E-13  1.002112E-13 -9.507322E-20
         2   7 -6.942903E-12  2.418534E-11 -7.309447E-12  3.543879E-13  1.002113E-13  2.686572E-20
         2   8 -6.942903E-12  2.314314E-11 -7.023129E-12  3.543881E-13  1.002112E-13  1.217175E-20
         3   1  1.146242E-12  9.803103E-12 -2.424329E-12  6.969603E-12 -2.676014E-12  2.484033E-14
         3   2  1.146242E-12 -1.796887E-11  5.205333E-12  6.524830E-12 -2.664749E-12  2.484033E-14
         3   3  2.566956E-13  9.803103E-12 -2.284356E-12 -6.916383E-12 -2.676014E-12 -5.275835E-15
         3   4  2.566956E-13 -1.796887E-11  5.345306E-12 -7.361156E-12 -2.664749E-12 -5.275837E-15
         3   5  1.177784E-12  9.718777E-12 -2.424329E-12  6.969603E-12  2.664750E-12  1.228216E-13
         3   6  1.177784E-12 -1.805319E-11  5.205333E-12  6.524830E-12  2.676014E-12  1.228216E-13
         3   7  2.882369E-13  9.718777E-12 -2.284356E-12 -6.916383E-12  2.664750E-12  9.270539E-14
         3   8  2.882369E-13 -1.805319E-11  5.345306E-12 -7.361156E-12  2.676014E-12  9.270539E-14
         4   1  2.418534E-11 -6.942903E-12 -7.309447E-12  8.754866E-13  7.235457E-21 -1.002115E-13
         4   2  2.418534E-11 -6.942903E-12 -7.309447E-12  3.543879E-13  1.175823E-19 -1.002115E-13
         4   3  2.314314E-11 -6.942903E-12 -7.023129E-12  8.754868E-13  3.223763E-21 -1.002116E-13
         4   4  2.314314E-11 -6.942903E-12 -7.023129E-12  3.543881E-13  1.105287E-19 -1.002116E-13
         4   5  2.418534E-11 -6.942904E-12 -7.309447E-12  8.754866E-13 -8.334275E-20  1.002113E-13
         4   6  2.418534E-11 -6.942903E-12 -7.309447E-12  3.543879E-13  2.700410E-20  1.002113E-13
         4   7  2.314314E-11 -6.942904E-12 -7.023129E-12  8.754868E-13 -9.527268E-20  1.002112E-13
         4   8  2.314314E-11 -6.942903E-12 -7.023129E-12  3.543881E-13  1.203226E-20  1.002112E-13
         5   1  1.019598E-11  1.019598E-11 -1.085082E-11  1.616855E-12  1.319631E-12  1.319631E-12
         5   2  1.019598E-11  2.392015E-11 -1.462120E-11  8.478936E-12  1.319631E-12  1.319631E-12
         5   3  2.392015E-11  1.019598E-11 -1.462120E-11  8.478936E-12  1.319631E-12  1.319631E-12
         5   4  2.392015E-11  2.392015E-11 -1.839157E-11  1.534102E-11  1.319630E-12  1.319631E-12
         5   5  1.019598E-11  1.019598E-11 -1.085082E-11  1.616855E-12 -1.319631E-12 -1.319631E-12
         5   6  1.019598E-11  2.392015E-11 -1.462120E-11  8.478936E-12 -1.319631E-12 -1.319631E-12
         5   7  2.392015E-11  1.019598E-11 -1.462120E-11  8.478936E-12 -1.319631E-12 -1.319631E-12
         5   8  2.392015E-11  2.392015E-11 -1.839157E-11  1.534102E-11 -1.319631E-12 -1.319631E-12
         6   1  7.977347E-12 -7.414229E-13 -2.776795E-12  8.834073E-12 -1.397742E-12  9.923786E-13
         6   2  7.977347E-12 -1.527795E-11  1.216754E-12  1.399444E-11 -1.397742E-12  9.923786E-13
         6   3  1.829809E-11 -7.414229E-13 -5.612163E-12  1.565812E-12 -1.397742E-12  9.923789E-13
         6   4  1.829809E-11 -1.527795E-11 -1.618614E-12  6.726182E-12 -1.397742E-12  9.923786E-13
         6   5  7.977347E-12 -7.414228E-13 -2.776795E-12  8.834073E-12  1.397743E-12 -9.923789E-13
         6   6  7.977347E-12 -1.527795E-11  1.216754E-12  1.399444E-11  1.397742E-12 -9.923789E-13
         6   7  1.829809E-11 -7.414228E-13 -5.612163E-12  1.565812E-12  1.397743E-12 -9.923786E-13
         6   8  1.829809E-11 -1.527795E-11 -1.618614E-12  6.726182E-12  1.397743E-12 -9.923788E-13
         7   1  9.803103E-12  1.146242E-12 -2.424329E-12  6.969603E-12  2.484033E-14 -2.676014E-12
         7   2  9.803103E-12  2.566956E-13 -2.284356E-12 -6.916383E-12 -5.275835E-15 -2.676014E-12
         7   3 -1.796887E-11  1.146242E-12  5.205333E-12  6.524830E-12  2.484033E-14 -2.664749E-12
         7   4 -1.796887E-11  2.566956E-13  5.345306E-12 -7.361156E-12 -5.275837E-15 -2.664749E-12
         7   5  9.718777E-12  1.177784E-12 -2.424329E-12  6.969603E-12  1.228216E-13  2.664750E-12
         7   6  9.718777E-12  2.882369E-13 -2.284356E-12 -6.916383E-12  9.270539E-14  2.664750E-12
         7   7 -1.805319E-11  1.177784E-12  5.205333E-12  6.524830E-12  1.228216E-13  2.676014E-12
         7   8 -1.805319E-11  2.882369E-13  5.345306E-12 -7.361156E-12  9.270539E-14  2.676014E-12
         8   1 -7.414229E-13  7.977347E-12 -2.776795E-12  8.834073E-12  9.923786E-13 -1.397742E-12
         8   2 -7.414229E-13  1.829809E-11 -5.612163E-12  1.565812E-12  9.923787E-13 -1.397742E-12
         8   3 -1.527795E-11  7.977347E-12  1.216754E-12  1.399444E-11  9.923786E-13 -1.397742E-12
         8   4 -1.527795E-11  1.829809E-11 -1.618614E-12  6.726182E-12  9.923787E-13 -1.397742E-12
         8   5 -7.414228E-13  7.977347E-12 -2.776795E-12  8.834073E-12 -9.923788E-13  1.397743E-12
         8   6 -7.414228E-13  1.829809E-11 -5.612163E-12  1.565812E-12 -9.923788E-13  1.397743E-12
         8   7 -1.527794E-11  7.977347E-12  1.216754E-12  1.399444E-11 -9.923789E-13  1.397742E-12
         8   8 -1.527794E-11  1.829809E-11 -1.618614E-12  6.726182E-12 -9.923789E-13  1.397743E-12
         9   1  9.870586E-40  5.681468E-44  1.307167E-19  7.488619E-42 -2.390560E-19 -2.170090E-19
         9   2  9.870586E-40  4.336809E-19  4.401110E-20  2.168404E-19 -1.306357E-19 -4.488747E-20
         9   3  3.442139E-39  5.681468E-44  1.300589E-19 -1.398442E-41 -8.258760E-19 -8.675303E-19
         9   4  3.442139E-39  8.673617E-19  2.919749E-19  4.336809E-19  2.583262E-19  2.803732E-19
         9   5  1.374795E-38 -1.734723E-18  1.307167E-19 -8.673617E-19  1.339310E-19  2.162114E-19
         9   6  1.374795E-38 -8.673617E-19  4.401110E-20 -4.336809E-19  3.507714E-19  6.707883E-19
         9   7  4.794281E-38 -1.734723E-18  1.300589E-19 -8.673617E-19 -7.125347E-19 -8.679908E-19
         9   8  4.794281E-38  4.336809E-19  2.919749E-19  2.168404E-19 -4.956943E-19 -4.134139E-19

 displacements (vx,vy,vz) for set NALL and time  0.2827813E+00

         1  0.000000E+00  0.000000E+00  0.000000E+00
         2  1.876432E-10  0.000000E+00  0.000000E+00
         3  9.851267E-03  0.000000E+00  0.000000E+00
         4  9.851264E-03  0.000000E+00  0.000000E+00
         5  6.383553E-03  0.000000E+00  0.000000E+00
         6  6.383553E-03  0.000000E+00  0.000000E+00
         7  0.000000E+00  1.876432E-10  0.000000E+00
         8  1.876432E-10  1.876432E-10  0.000000E+00
         9  9.851268E-03  1.065415E-08  0.000000E+00
        10  9.851265E-03  9.962627E-09  0.000000E+00
        11  6.383563E-03  9.008797E-09  0.000000E+00
        12  6.383563E-03 -1.193237E-08  0.000000E+00
        13  0.000000E+00  9.851267E-03  0.000000E+00
        14  1.065415E-08  9.851268E-03  0.000000E+00
        15  3.736472E-01  3.736472E-01  0.000000E+00
        16  3.736472E-01  3.736472E-01  0.000000E+00
        17  5.692808E-01  1.310139E-01  0.000000E+00
        18  5.691143E-01 -2.770948E-01  0.000000E+00
        19  0.000000E+00  9.851264E-03  0.000000E+00
        20  9.962627E-09  9.851265E-03  0.000000E+00
        21  3.736472E-01  3.736472E-01  0.000000E+00
        22  3.736472E-01  3.736472E-01  0.000000E+00
        23  9.773895E-01  1.308474E-01  0.000000E+00
        24  9.772230E-01 -2.772614E-01  0.000000E+00
        25  0.000000E+00  6.383553E-03  0.000000E+00
        26  9.008797E-09  6.383563E-03  0.000000E+00
        27  1.310139E-01  5.692808E-01  0.000000E+00
        28  1.308474E-01  9.773895E-01  0.000000E+00
        29 -8.483438E+00 -8.483438E+00  0.000000E+00
        30 -8.483438E+00 -8.483438E+00  0.000000E+00
        31  0.000000E+00  6.383553E-03  0.000000E+00
        32 -1.193237E-08  6.383563E-03  0.000000E+00
        33 -2.770948E-01  5.691143E-01  0.000000E+00
        34 -2.772614E-01  9.772230E-01  0.000000E+00
        35 -8.483438E+00 -8.483438E+00  0.000000E+00
        36 -8.483438E+00 -8.483438E+00  0.000000E+00
        37  0.000000E+00  0.000000E+00 -2.251718E-10
        38  1.876432E-10  0.000000E+00 -2.251718E-10
        39  9.851267E-03  0.000000E+00 -4.509929E-09
        40  9.851264E-03  0.000000E+00 -4.243958E-09
        41  6.383547E-03  0.000000E+00 -3.353363E-09
        42  6.383547E-03  0.000000E+00  4.700930E-09
        43  0.000000E+00  1.876432E-10 -2.251718E-10
        44  1.876432E-10  1.876432E-10 -2.251718E-10
        45  9.851268E-03  1.065415E-08 -4.509929E-09
        46  9.851265E-03  9.962627E-09 -4.243959E-09
        47  6.383558E-03  8.954049E-09 -3.226134E-09
        48  6.383558E-03 -1.198711E-08  4.828160E-09
        49  0.000000E+00  9.851267E-03 -4.509929E-09
        50  1.065415E-08  9.851268E-03 -4.509929E-09
        51  3.736472E-01  3.736472E-01 -4.905878E-09
        52  3.736472E-01  3.736472E-01 -8.887127E-09
        53  5.692808E-01  1.310139E-01 -2.016414E-09
        54  5.691143E-01 -2.770948E-01  2.189800E-09
        55  0.000000E+00  9.851264E-03 -4.243958E-09
        56  9.962627E-09  9.851265E-03 -4.243959E-09
        57  3.736472E-01  3.736472E-01 -8.887127E-09
        58  3.736472E-01  3.736472E-01 -1.286838E-08
        59  9.773895E-01  1.308474E-01 -5.168788E-09
        60  9.772230E-01 -2.772614E-01 -9.625738E-10
        61  0.000000E+00  6.383547E-03 -3.353363E-09
        62  8.954049E-09  6.383558E-03 -3.226134E-09
        63  1.310139E-01  5.692808E-01 -2.016415E-09
        64  1.308474E-01  9.773895E-01 -5.168788E-09
        65 -8.483438E+00 -8.483438E+00  6.666591E-16
        66 -8.483438E+00 -8.483438E+00 -1.845233E-16
        67  0.000000E+00  6.383547E-03  4.700930E-09
        68 -1.198711E-08  6.383558E-03  4.828160E-09
        69 -2.770948E-01  5.691143E-01  2.189800E-09
        70 -2.772614E-01  9.772230E-01 -9.625739E-10
        71 -8.483438E+00 -8.483438E+00 -4.542008E-17
        72 -8.483438E+00 -8.483438E+00 -7.348428E-17

 stresses (elem, integ.pnt.,sxx,syy,szz,sxy,sxz,syz) for set EALL and time  0.2827813E+00

         1   1  1.125859E-07  1.125859E-07 -1.383432E-15  1.151008E-15 -1.729474E-16 -1.729055E-16
         1   2  1.125859E-07  1.125859E-07  6.603932E-16  2.723330E-15 -5.196047E-16 -1.729055E-16
         1   3  1.125859E-07  1.125859E-07  6.601022E-16  2.723297E-15 -1.729474E-16 -5.193125E-16
         1   4  1.125859E-07  1.125859E-07  2.703927E-15  4.295619E-15 -5.196047E-16 -5.193125E-16
         1   5  1.125859E-07  1.125859E-07 -2.838867E-15  1.151008E-15 -2.987912E-16 -2.988851E-16
         1   6  1.125859E-07  1.125859E-07 -7.950418E-16  2.723330E-15 -6.454485E-16 -2.988851E-16
         1   7  1.125859E-07  1.125859E-07 -7.953328E-16  2.723297E-15 -2.987912E-16 -6.452921E-16
         1   8  1.125859E-07  1.125859E-07  1.248492E-15  4.295619E-15 -6.454485E-16 -6.452921E-16
         2   1  7.155957E-08  4.440043E-06  1.736385E-08  1.083557E-07 -1.240280E-08  9.849384E-16
         2   2  1.395344E-09  4.240890E-06 -1.736385E-08  1.083557E-07 -1.240281E-08  5.092276E-16
         2   3  7.155965E-08  4.440043E-06  1.736385E-08  4.386124E-08 -1.240280E-08  1.643451E-14
         2   4  1.395423E-09  4.240890E-06 -1.736385E-08  4.386127E-08 -1.240281E-08  1.556597E-14
         2   5  7.155952E-08  4.440043E-06  1.736384E-08  1.083557E-07  1.240277E-08 -1.177365E-14
         2   6  1.395299E-09  4.240890E-06 -1.736385E-08  1.083557E-07  1.240276E-08 -1.315619E-14
         2   7  7.155960E-08  4.440043E-06  1.736385E-08  4.386124E-08  1.240277E-08  3.675882E-15
         2   8  1.395378E-09  4.240890E-06 -1.736385E-08  4.386127E-08  1.240276E-08  1.900505E-15
         3   1  1.064656E-06  2.405705E-06  5.537872E-07  9.836477E-07 -3.762710E-07  3.008271E-09
         3   2 -1.060104E-06 -3.625180E-06 -4.978618E-07  9.297837E-07 -3.749068E-07  3.008271E-09
         3   3  8.888454E-07  2.337623E-06  5.026561E-07 -9.694147E-07 -3.762710E-07 -6.389239E-10
         3   4 -1.235915E-06 -3.693262E-06 -5.489929E-07 -1.023279E-06 -3.749068E-07 -6.389242E-10
         3   5  1.063681E-06  2.390699E-06  5.489929E-07  9.836477E-07  3.749068E-07  1.487421E-08
         3   6 -1.061079E-06 -3.640186E-06 -5.026561E-07  9.297837E-07  3.762710E-07  1.487421E-08
         3   7  8.878709E-07  2.322616E-06  4.978619E-07 -9.694147E-07  3.749068E-07  1.122702E-08
         3   8 -1.236889E-06 -3.708269E-06 -5.537872E-07 -1.023279E-06  3.762710E-07  1.122702E-08
         4   1  4.440043E-06  7.155957E-08  1.736384E-08  1.083557E-07  9.894023E-16 -1.240280E-08
         4   2  4.440043E-06  7.155965E-08  1.736385E-08  4.386124E-08  1.642395E-14 -1.240280E-08
         4   3  4.240890E-06  1.395344E-09 -1.736385E-08  1.083557E-07  5.079783E-16 -1.240281E-08
         4   4  4.240890E-06  1.395423E-09 -1.736385E-08  4.386127E-08  1.557501E-14 -1.240281E-08
         4   5  4.440043E-06  7.155953E-08  1.736385E-08  1.083557E-07 -1.174197E-14  1.240277E-08
         4   6  4.440043E-06  7.155961E-08  1.736385E-08  4.386124E-08  3.692541E-15  1.240277E-08
         4   7  4.240890E-06  1.395301E-09 -1.736385E-08  1.083557E-07 -1.317115E-14  1.240276E-08
         4   8  4.240890E-06  1.395379E-09 -1.736385E-08  4.386127E-08  1.895843E-15  1.240276E-08
         5   1  2.427889E-06  2.427889E-06 -5.198318E-07  2.229680E-07  1.856541E-07  1.856541E-07
         5   2  3.478162E-06  5.408965E-06  1.306704E-14  1.188370E-06  1.856541E-07  1.856541E-07
         5   3  5.408965E-06  3.478162E-06  2.171055E-14  1.188370E-06  1.856541E-07  1.856541E-07
         5   4  6.459238E-06  6.459238E-06  5.198319E-07  2.153772E-06  1.856541E-07  1.856541E-07
         5   5  2.427889E-06  2.427889E-06 -5.198318E-07  2.229680E-07 -1.856542E-07 -1.856542E-07
         5   6  3.478162E-06  5.408965E-06  6.509629E-15  1.188370E-06 -1.856542E-07 -1.856542E-07
         5   7  5.408965E-06  3.478162E-06 -1.266268E-15  1.188370E-06 -1.856542E-07 -1.856542E-07
         5   8  6.459238E-06  6.459238E-06  5.198318E-07  2.153772E-06 -1.856542E-07 -1.856542E-07
         6   1  1.543464E-06  4.795880E-07  6.880195E-08  1.221907E-06 -1.960247E-07  1.471619E-07
         6   2  4.350911E-07 -2.671183E-06 -4.804035E-07  1.984651E-06 -1.960247E-07  1.471619E-07
         6   3  3.902228E-06  1.312865E-06  4.804073E-07  2.007080E-07 -1.960247E-07  1.471620E-07
         6   4  2.793856E-06 -1.837906E-06 -6.879812E-08  9.634519E-07 -1.960247E-07  1.471619E-07
         6   5  1.543464E-06  4.795879E-07  6.880192E-08  1.221907E-06  1.960247E-07 -1.471620E-07
         6   6  4.350910E-07 -2.671183E-06 -4.804036E-07  1.984651E-06  1.960247E-07 -1.471620E-07
         6   7  3.902228E-06  1.312865E-06  4.804073E-07  2.007080E-07  1.960248E-07 -1.471619E-07
         6   8  2.793856E-06 -1.837906E-06 -6.879814E-08  9.634519E-07  1.960247E-07 -1.471620E-07
         7   1  2.405705E-06  1.064656E-06  5.537872E-07  9.836477E-07  3.008271E-09 -3.762710E-07
         7   2  2.337623E-06  8.888454E-07  5.026561E-07 -9.694147E-07 -6.389239E-10 -3.762710E-07
         7   3 -3.625180E-06 -1.060104E-06 -4.978618E-07  9.297837E-07  3.008271E-09 -3.749068E-07
         7   4 -3.693262E-06 -1.235915E-06 -5.489929E-07 -1.023279E-06 -6.389242E-10 -3.749068E-07
         7   5  2.390699E-06  1.063681E-06  5.489929E-07  9.836477E-07  1.487421E-08  3.749068E-07
         7   6  2.322616E-06  8.878709E-07  4.978619E-07 -9.694147E-07  1.122702E-08  3.749068E-07
         7   7 -3.640186E-06 -1.061079E-06 -5.026561E-07  9.297837E-07  1.487421E-08  3.762710E-07
         7   8 -3.708269E-06 -1.236889E-06 -5.537872E-07 -1.023279E-06  1.122702E-08  3.762710E-07
         8   1  4.795879E-07  1.543464E-06  6.880193E-08  1.221907E-06  1.471619E-07 -1.960247E-07
         8   2  1.312865E-06  3.902228E-06  4.804073E-07  2.007080E-07  1.471620E-07 -1.960246E-07
         8   3 -2.671183E-06  4.350911E-07 -4.804035E-07  1.984651E-06  1.471619E-07 -1.960247E-07
         8   4 -1.837906E-06  2.793856E-06 -6.879816E-08  9.634519E-07  1.471619E-07 -1.960246E-07
         8   5  4.795880E-07  1.543464E-06  6.880196E-08  1.221907E-06 -1.471620E-07  1.960247E-07
         8   6  1.312865E-06  3.902228E-06  4.804073E-07  2.007080E-07 -1.471620E-07  1.960248E-07
         8   7 -2.671183E-06  4.350911E-07 -4.804035E-07  1.984651E-06 -1.471620E-07  1.960247E-07
         8   8 -1.837906E-06  2.793856E-06 -6.879815E-08  9.634519E-07 -1.471620E-07  1.960247E-07
         9   1  6.456843E-14  6.456843E-14  1.506597E-13  1.627724E-31 -9.317505E-14 -8.842647E-14
         9   2  1.019790E-13  2.420913E-13  9.783883E-14  7.005614E-14 -1.719882E-13 -1.510167E-13
         9   3  1.079486E-14  1.079486E-14  2.518802E-14  1.161066E-30 -2.170644E-13 -2.285387E-13
         9   4  8.255754E-14  2.051558E-13  7.003602E-14  6.129912E-14  6.316012E-14  6.790870E-14
         9   5 -1.456000E-13 -4.258245E-13 -5.950874E-14 -1.401123E-13  8.885942E-14  1.065814E-13
         9   6 -1.081894E-13 -2.483017E-13 -1.123296E-13 -7.005614E-14  1.326445E-13  2.109111E-13
         9   7 -1.993736E-13 -4.795981E-13 -1.849804E-13 -1.401123E-13 -9.579243E-14 -1.386151E-13
         9   8  4.315096E-14  1.132071E-13  3.062944E-14  3.502807E-14 -6.076436E-14 -4.304242E-14

 strains (elem, integ.pnt.,exx,eyy,ezz,exy,exz,eyz) forset EALL and time  0.2827813E+00

         1   1  3.752864E-13  3.752864E-13 -3.216740E-13  7.125285E-21 -1.070627E-21 -1.070367E-21
         1   2  3.752864E-13  3.752864E-13 -3.216740E-13  1.685871E-20 -3.216601E-21 -1.070367E-21
         1   3  3.752864E-13  3.752864E-13 -3.216740E-13  1.685851E-20 -1.070627E-21 -3.214791E-21
         1   4  3.752864E-13  3.752864E-13 -3.216740E-13  2.659193E-20 -3.216601E-21 -3.214791E-21
         1   5  3.752864E-13  3.752864E-13 -3.216740E-13  7.125285E-21 -1.849660E-21 -1.850241E-21
         1   6  3.752864E-13  3.752864E-13 -3.216740E-13  1.685871E-20 -3.995634E-21 -1.850241E-21
         1   7  3.752864E-13  3.752864E-13 -3.216740E-13  1.685851E-20 -1.849660E-21 -3.994665E-21
         1   8  3.752864E-13  3.752864E-13 -3.216740E-13  2.659193E-20 -3.995634E-21 -3.994665E-21
         2   1 -6.026964E-12  2.101603E-11 -6.362461E-12  6.707731E-13 -7.677922E-14  6.097140E-21
         2   2 -6.026964E-12  2.021753E-11 -6.143092E-12  6.707733E-13 -7.677932E-14  3.152263E-21
         2   3 -6.026964E-12  2.101603E-11 -6.362462E-12  2.715220E-13 -7.677921E-14  1.017374E-19
         2   4 -6.026964E-12  2.021753E-11 -6.143093E-12  2.715221E-13 -7.677931E-14  9.636063E-20
         2   5 -6.026964E-12  2.101603E-11 -6.362461E-12  6.707731E-13  7.677906E-14 -7.288478E-20
         2   6 -6.026964E-12  2.021753E-11 -6.143092E-12  6.707733E-13  7.677897E-14 -8.144337E-20
         2   7 -6.026964E-12  2.101603E-11 -6.362462E-12  2.715220E-13  7.677906E-14  2.275543E-20
         2   8 -6.026964E-12  2.021753E-11 -6.143093E-12  2.715222E-13  7.677897E-14  1.176500E-20
         3   1  8.419430E-13  9.143678E-12 -2.320577E-12  6.089247E-12 -2.329297E-12  1.862263E-14
         3   2  8.419430E-13 -1.503709E-11  4.322492E-12  5.755804E-12 -2.320851E-12  1.862263E-14
         3   3  1.750560E-13  9.143678E-12 -2.215640E-12 -6.001139E-12 -2.329297E-12 -3.955243E-15
         3   4  1.750560E-13 -1.503709E-11  4.427429E-12 -6.334582E-12 -2.320851E-12 -3.955245E-15
         3   5  8.655892E-13  9.080460E-12 -2.320577E-12  6.089247E-12  2.320852E-12  9.207847E-14
         3   6  8.655892E-13 -1.510031E-11  4.322492E-12  5.755804E-12  2.329297E-12  9.207847E-14
         3   7  1.987022E-13  9.080460E-12 -2.215640E-12 -6.001139E-12  2.320852E-12  6.950060E-14
         3   8  1.987022E-13 -1.510031E-11  4.427429E-12 -6.334582E-12  2.329297E-12  6.950060E-14
         4   1  2.101603E-11 -6.026964E-12 -6.362461E-12  6.707731E-13  6.124773E-21 -7.677922E-14
         4   2  2.101603E-11 -6.026964E-12 -6.362462E-12  2.715220E-13  1.016720E-19 -7.677921E-14
         4   3  2.021753E-11 -6.026964E-12 -6.143092E-12  6.707733E-13  3.144530E-21 -7.677932E-14
         4   4  2.021753E-11 -6.026964E-12 -6.143093E-12  2.715222E-13  9.641662E-20 -7.677931E-14
         4   5  2.101603E-11 -6.026964E-12 -6.362461E-12  6.707731E-13 -7.268865E-20  7.677906E-14
         4   6  2.101603E-11 -6.026964E-12 -6.362462E-12  2.715220E-13  2.285856E-20  7.677906E-14
         4   7  2.021753E-11 -6.026964E-12 -6.143092E-12  6.707733E-13 -8.153595E-20  7.677896E-14
         4   8  2.021753E-11 -6.026964E-12 -6.143093E-12  2.715222E-13  1.173614E-20  7.677897E-14
         5   1  8.835581E-12  8.835582E-12 -9.412216E-12  1.380278E-12  1.149287E-12  1.149288E-12
         5   2  8.835581E-12  2.078817E-11 -1.269590E-11  7.356575E-12  1.149287E-12  1.149287E-12
         5   3  2.078817E-11  8.835582E-12 -1.269590E-11  7.356575E-12  1.149287E-12  1.149287E-12
         5   4  2.078817E-11  2.078817E-11 -1.597957E-11  1.333287E-11  1.149288E-12  1.149287E-12
         5   5  8.835582E-12  8.835581E-12 -9.412216E-12  1.380278E-12 -1.149288E-12 -1.149288E-12
         5   6  8.835582E-12  2.078817E-11 -1.269590E-11  7.356575E-12 -1.149288E-12 -1.149288E-12
         5   7  2.078817E-11  8.835581E-12 -1.269590E-11  7.356575E-12 -1.149288E-12 -1.149288E-12
         5   8  2.078817E-11  2.078817E-11 -1.597957E-11  1.333287E-11 -1.149288E-12 -1.149288E-12
         6   1  6.554060E-12 -7.131933E-15 -2.562445E-12  7.569553E-12 -1.214229E-12  9.100117E-13
         6   2  6.554060E-12 -1.263512E-11  9.067815E-13  1.230162E-11 -1.214229E-12  9.100116E-13
         6   3  1.601818E-11 -7.131933E-15 -5.162479E-12  1.255560E-12 -1.214229E-12  9.100120E-13
         6   4  1.601818E-11 -1.263512E-11 -1.693252E-12  5.987622E-12 -1.214229E-12  9.100117E-13
         6   5  6.554060E-12 -7.131878E-15 -2.562445E-12  7.569554E-12  1.214230E-12 -9.100120E-13
         6   6  6.554060E-12 -1.263512E-11  9.067815E-13  1.230162E-11  1.214229E-12 -9.100121E-13
         6   7  1.601818E-11 -7.131878E-15 -5.162479E-12  1.255560E-12  1.214230E-12 -9.100118E-13
         6   8  1.601818E-11 -1.263512E-11 -1.693252E-12  5.987622E-12  1.214230E-12 -9.100119E-13
         7   1  9.143678E-12  8.419430E-13 -2.320577E-12  6.089247E-12  1.862263E-14 -2.329297E-12
         7   2  9.143678E-12  1.750560E-13 -2.215640E-12 -6.001139E-12 -3.955243E-15 -2.329297E-12
         7   3 -1.503709E-11  8.419430E-13  4.322492E-12  5.755804E-12  1.862263E-14 -2.320851E-12
         7   4 -1.503709E-11  1.750560E-13  4.427429E-12 -6.334582E-12 -3.955245E-15 -2.320851E-12
         7   5  9.080460E-12  8.655892E-13 -2.320577E-12  6.089247E-12  9.207847E-14  2.320852E-12
         7   6  9.080460E-12  1.987022E-13 -2.215640E-12 -6.001139E-12  6.950060E-14  2.320852E-12
         7   7 -1.510031E-11  8.655892E-13  4.322492E-12  5.755804E-12  9.207847E-14  2.329297E-12
         7   8 -1.510031E-11  1.987022E-13  4.427429E-12 -6.334582E-12  6.950060E-14  2.329297E-12
         8   1 -7.132022E-15  6.554060E-12 -2.562445E-12  7.569553E-12  9.100117E-13 -1.214229E-12
         8   2 -7.132022E-15  1.601818E-11 -5.162479E-12  1.255560E-12  9.100118E-13 -1.214229E-12
         8   3 -1.263512E-11  6.554060E-12  9.067815E-13  1.230162E-11  9.100117E-13 -1.214229E-12
         8   4 -1.263512E-11  1.601818E-11 -1.693252E-12  5.987622E-12  9.100117E-13 -1.214229E-12
         8   5 -7.131890E-15  6.554060E-12 -2.562445E-12  7.569554E-12 -9.100119E-13  1.214230E-12
         8   6 -7.131890E-15  1.601818E-11 -5.162479E-12  1.255560E-12 -9.100118E-13  1.214230E-12
         8   7 -1.263512E-11  6.554060E-12  9.067815E-13  1.230162E-11 -9.100120E-13  1.214230E-12
         8   8 -1.263512E-11  1.601818E-11 -1.693252E-12  5.987622E-12 -9.100120E-13  1.214230E-12
         9   1  4.096497E-38  2.586496E-38  5.329458E-19  3.255084E-38 -5.767979E-19 -5.474019E-19
         9   2  4.096497E-38  8.673617E-19 -2.562993E-20  4.336809E-19 -1.064689E-18 -9.348655E-19
         9   3  3.644811E-39  2.586496E-38  8.910046E-20  9.709423E-39 -1.343732E-18 -1.414764E-18
         9   4  3.644811E-39  7.589415E-19 -7.751420E-20  3.794708E-19  3.909912E-19  4.203872E-19
         9   5  5.705685E-37 -1.734723E-18  5.329458E-19 -8.673617E-19  5.500821E-19  6.597894E-19
         9   6  5.705685E-37 -8.673617E-19 -2.562993E-20 -4.336809E-19  8.211327E-19  1.305640E-18
         9   7  5.076567E-38 -1.734723E-18  8.910046E-20 -8.673617E-19 -5.930008E-19 -8.580937E-19
         9   8  5.076567E-38  4.336809E-19 -7.751420E-20  2.168404E-19 -3.761603E-19 -2.664531E-19

 displacements (vx,vy,vz) for set NALL and time  0.2917813E+00

         1  0.000000E+00  0.000000E+00  0.000000E+00
         2  1.445820E-10  0.000000E+00  0.000000E+00
         3  7.590556E-03  0.000000E+00  0.000000E+00
         4  7.590553E-03  0.000000E+00  0.000000E+00
         5  5.618014E-03  0.000000E+00  0.000000E+00
         6  5.618014E-03  0.000000E+00  0.000000E+00
         7  0.000000E+00  1.445820E-10  0.000000E+00
         8  1.445820E-10  1.445820E-10  0.000000E+00
         9  7.590556E-03  8.937384E-09  0.000000E+00
        10  7.590554E-03  8.440867E-09  0.000000E+00
        11  5.618022E-03  7.804130E-09  0.000000E+00
        12  5.618022E-03 -9.780161E-09  0.000000E+00
        13  0.000000E+00  7.590556E-03  0.000000E+00
        14  8.937384E-09  7.590556E-03  0.000000E+00
        15  3.157103E-01  3.157103E-01  0.000000E+00
        16  3.157103E-01  3.157103E-01  0.000000E+00
        17  4.792380E-01  1.208623E-01  0.000000E+00
        18  4.791214E-01 -2.205594E-01  0.000000E+00
        19  0.000000E+00  7.590553E-03  0.000000E+00
        20  8.440867E-09  7.590554E-03  0.000000E+00
        21  3.157103E-01  3.157103E-01  0.000000E+00
        22  3.157103E-01  3.157103E-01  0.000000E+00
        23  8.206597E-01  1.207458E-01  0.000000E+00
        24  8.205432E-01 -2.206760E-01  0.000000E+00
        25  0.000000E+00  5.618014E-03  0.000000E+00
        26  7.804130E-09  5.618022E-03  0.000000E+00
        27  1.208623E-01  4.792380E-01  0.000000E+00
        28  1.207458E-01  8.206597E-01  0.000000E+00
        29 -8.753438E+00 -8.753438E+00  0.000000E+00
        30 -8.753438E+00 -8.753438E+00  0.000000E+00
        31  0.000000E+00  5.618014E-03  0.000000E+00
        32 -9.780161E-09  5.618022E-03  0.000000E+00
        33 -2.205594E-01  4.791214E-01  0.000000E+00
        34 -2.206760E-01  8.205432E-01  0.000000E+00
        35 -8.753438E+00 -8.753438E+00  0.000000E+00
        36 -8.753438E+00 -8.753438E+00  0.000000E+00
        37  0.000000E+00  0.000000E+00 -1.734984E-10
        38  1.445820E-10  0.000000E+00 -1.734984E-10
        39  7.590556E-03  0.000000E+00 -3.786651E-09
        40  7.590553E-03  0.000000E+00 -3.595682E-09
        41  5.618009E-03  0.000000E+00 -2.928069E-09
        42  5.618009E-03  0.000000E+00  3.835119E-09
        43  0.000000E+00  1.445820E-10 -1.734984E-10
        44  1.445820E-10  1.445820E-10 -1.734984E-10
        45  7.590556E-03  8.937385E-09 -3.786651E-09
        46  7.590554E-03  8.440867E-09 -3.595683E-09
        47  5.618018E-03  7.765720E-09 -2.838810E-09
        48  5.618018E-03 -9.818571E-09  3.924378E-09
        49  0.000000E+00  7.590556E-03 -3.786651E-09
        50  8.937385E-09  7.590556E-03 -3.786651E-09
        51  3.157103E-01  3.157103E-01 -4.118068E-09
        52  3.157103E-01  3.157103E-01 -7.463651E-09
        53  4.792380E-01  1.208623E-01 -1.742957E-09
        54  4.791214E-01 -2.205594E-01  1.774260E-09
        55  0.000000E+00  7.590553E-03 -3.595682E-09
        56  8.440867E-09  7.590554E-03 -3.595683E-09
        57  3.157103E-01  3.157103E-01 -7.463651E-09
        58  3.157103E-01  3.157103E-01 -1.080924E-08
        59  8.206597E-01  1.207458E-01 -4.522764E-09
        60  8.205432E-01 -2.206760E-01 -1.005548E-09
        61  0.000000E+00  5.618009E-03 -2.928069E-09
        62  7.765720E-09  5.618018E-03 -2.838810E-09
        63  1.208623E-01  4.792380E-01 -1.742957E-09
        64  1.207458E-01  8.206597E-01 -4.522764E-09
        65 -8.753438E+00 -8.753438E+00  7.637032E-17
        66 -8.753438E+00 -8.753438E+00  3.099434E-16
        67  0.000000E+00  5.618009E-03  3.835119E-09
        68 -9.818571E-09  5.618018E-03  3.924378E-09
        69 -2.205594E-01  4.791214E-01  1.774260E-09
        70 -2.206760E-01  8.205432E-01 -1.005548E-09
        71 -8.753438E+00 -8.753438E+00  3.621071E-16
        72 -8.753438E+00 -8.753438E+00  6.443388E-17

 stresses (elem, integ.pnt.,sxx,syy,szz,sxy,sxz,syz) for set EALL and time  0.2917813E+00

         1   1  8.674921E-08  8.674921E-08 -9.894736E-16  8.253868E-16 -1.237388E-16 -1.237388E-16
         1   2  8.674921E-08  8.674921E-08  4.791715E-16  1.952886E-15 -3.727578E-16 -1.237558E-16
         1   3  8.674921E-08  8.674921E-08  4.791715E-16  1.952886E-15 -1.237558E-16 -3.727579E-16
         1   4  8.674921E-08  8.674921E-08  1.948000E-15  3.080386E-15 -3.728948E-16 -3.728948E-16
         1   5  8.674921E-08  8.674921E-08 -2.035354E-15  8.252639E-16 -2.127804E-16 -2.127804E-16
         1   6  8.674921E-08  8.674921E-08 -5.669606E-16  1.952595E-15 -4.617994E-16 -2.127238E-16
         1   7  8.674921E-08  8.674921E-08 -5.669606E-16  1.952595E-15 -2.127238E-16 -4.617995E-16
         1   8  8.674921E-08  8.674921E-08  9.016165E-16  3.079927E-15 -4.618629E-16 -4.618629E-16
         2   1  5.729208E-08  3.730560E-06  1.246733E-08  7.779992E-08 -8.905276E-09  8.019133E-16
         2   2  6.913808E-09  3.587567E-06 -1.246733E-08  7.779994E-08 -8.905290E-09  4.757623E-16
         2   3  5.729215E-08  3.730560E-06  1.246733E-08  3.149260E-08 -8.905276E-09  1.370137E-14
         2   4  6.913875E-09  3.587567E-06 -1.246733E-08  3.149262E-08 -8.905289E-09  1.307296E-14
         2   5  5.729205E-08  3.730560E-06  1.246733E-08  7.779992E-08  8.905254E-09 -9.906637E-15
         2   6  6.913770E-09  3.587567E-06 -1.246733E-08  7.779995E-08  8.905241E-09 -1.082159E-14
         2   7  5.729211E-08  3.730560E-06  1.246733E-08  3.149260E-08  8.905255E-09  2.992803E-15
         2   8  6.913837E-09  3.587567E-06 -1.246733E-08  3.149262E-08  8.905241E-09  1.775591E-15
         3   1  8.963070E-07  2.120844E-06  4.611523E-07  8.276158E-07 -3.158605E-07  2.110485E-09
         3   2 -8.878538E-07 -2.943289E-06 -4.219172E-07  7.898270E-07 -3.149034E-07  2.110485E-09
         3   3  7.729654E-07  2.073080E-06  4.252807E-07 -8.123703E-07 -3.158605E-07 -4.482418E-10
         3   4 -1.011195E-06 -2.991053E-06 -4.577888E-07 -8.501592E-07 -3.149034E-07 -4.482421E-10
         3   5  8.956233E-07  2.110316E-06  4.577888E-07  8.276158E-07  3.149034E-07  1.043517E-08
         3   6 -8.885374E-07 -2.953817E-06 -4.252807E-07  7.898270E-07  3.158605E-07  1.043517E-08
         3   7  7.722817E-07  2.062552E-06  4.219172E-07 -8.123703E-07  3.149034E-07  7.876439E-09
         3   8 -1.011879E-06 -3.001581E-06 -4.611523E-07 -8.501592E-07  3.158605E-07  7.876439E-09
         4   1  3.730560E-06  5.729208E-08  1.246733E-08  7.779992E-08  8.100107E-16 -8.905276E-09
         4   2  3.730560E-06  5.729215E-08  1.246733E-08  3.149260E-08  1.369601E-14 -8.905276E-09
         4   3  3.587567E-06  6.913808E-09 -1.246733E-08  7.779994E-08  4.678570E-16 -8.905290E-09
         4   4  3.587567E-06  6.913874E-09 -1.246733E-08  3.149262E-08  1.306005E-14 -8.905289E-09
         4   5  3.730560E-06  5.729205E-08  1.246733E-08  7.779992E-08 -9.862958E-15  8.905255E-09
         4   6  3.730560E-06  5.729211E-08  1.246733E-08  3.149260E-08  3.023023E-15  8.905255E-09
         4   7  3.587567E-06  6.913770E-09 -1.246733E-08  7.779995E-08 -1.084608E-14  8.905241E-09
         4   8  3.587567E-06  6.913837E-09 -1.246733E-08  3.149262E-08  1.746088E-15  8.905241E-09
         5   1  2.037984E-06  2.037984E-06 -4.368330E-07  1.826212E-07  1.560117E-07  1.560117E-07
         5   2  2.920565E-06  4.543087E-06  9.181567E-15  9.938823E-07  1.560117E-07  1.560117E-07
         5   3  4.543087E-06  2.920565E-06  2.755298E-14  9.938823E-07  1.560117E-07  1.560117E-07
         5   4  5.425668E-06  5.425668E-06  4.368330E-07  1.805143E-06  1.560117E-07  1.560117E-07
         5   5  2.037984E-06  2.037984E-06 -4.368330E-07  1.826213E-07 -1.560118E-07 -1.560118E-07
         5   6  2.920565E-06  4.543087E-06  1.581999E-16  9.938823E-07 -1.560118E-07 -1.560118E-07
         5   7  4.543087E-06  2.920565E-06 -1.184630E-14  9.938824E-07 -1.560118E-07 -1.560118E-07
         5   8  5.425668E-06  5.425668E-06  4.368330E-07  1.805143E-06 -1.560118E-07 -1.560118E-07
         6   1  1.256688E-06  4.909105E-07  4.814226E-08  1.011596E-06 -1.639267E-07  1.297403E-07
         6   2  3.297491E-07 -2.143627E-06 -4.111008E-07  1.684498E-06 -1.639268E-07  1.297403E-07
         6   3  3.336984E-06  1.225402E-06  4.111018E-07  1.577962E-07 -1.639267E-07  1.297404E-07
         6   4  2.410045E-06 -1.409135E-06 -4.814123E-08  8.306984E-07 -1.639267E-07  1.297403E-07
         6   5  1.256688E-06  4.909105E-07  4.814228E-08  1.011596E-06  1.639268E-07 -1.297404E-07
         6   6  3.297491E-07 -2.143627E-06 -4.111008E-07  1.684498E-06  1.639268E-07 -1.297404E-07
         6   7  3.336984E-06  1.225402E-06  4.111018E-07  1.577963E-07  1.639268E-07 -1.297403E-07
         6   8  2.410045E-06 -1.409135E-06 -4.814126E-08  8.306984E-07  1.639268E-07 -1.297404E-07
         7   1  2.120844E-06  8.963070E-07  4.611523E-07  8.276158E-07  2.110485E-09 -3.158605E-07
         7   2  2.073080E-06  7.729654E-07  4.252807E-07 -8.123703E-07 -4.482418E-10 -3.158605E-07
         7   3 -2.943289E-06 -8.878538E-07 -4.219172E-07  7.898270E-07  2.110485E-09 -3.149034E-07
         7   4 -2.991053E-06 -1.011195E-06 -4.577888E-07 -8.501592E-07 -4.482420E-10 -3.149034E-07
         7   5  2.110316E-06  8.956233E-07  4.577888E-07  8.276158E-07  1.043517E-08  3.149034E-07
         7   6  2.062552E-06  7.722817E-07  4.219172E-07 -8.123703E-07  7.876439E-09  3.149034E-07
         7   7 -2.953817E-06 -8.885374E-07 -4.252807E-07  7.898270E-07  1.043517E-08  3.158605E-07
         7   8 -3.001581E-06 -1.011879E-06 -4.611523E-07 -8.501592E-07  7.876439E-09  3.158605E-07
         8   1  4.909105E-07  1.256687E-06  4.814224E-08  1.011596E-06  1.297403E-07 -1.639267E-07
         8   2  1.225402E-06  3.336984E-06  4.111018E-07  1.577962E-07  1.297403E-07 -1.639267E-07
         8   3 -2.143627E-06  3.297491E-07 -4.111008E-07  1.684498E-06  1.297403E-07 -1.639268E-07
         8   4 -1.409135E-06  2.410045E-06 -4.814125E-08  8.306984E-07  1.297403E-07 -1.639267E-07
         8   5  4.909105E-07  1.256688E-06  4.814226E-08  1.011596E-06 -1.297403E-07  1.639268E-07
         8   6  1.225402E-06  3.336984E-06  4.111018E-07  1.577963E-07 -1.297403E-07  1.639268E-07
         8   7 -2.143627E-06  3.297491E-07 -4.111008E-07  1.684498E-06 -1.297404E-07  1.639268E-07
         8   8 -1.409135E-06  2.410045E-06 -4.814127E-08  8.306984E-07 -1.297404E-07  1.639268E-07
         9   1  2.810577E-14  2.810577E-14  6.558013E-14  2.606494E-31 -1.009431E-13 -9.916241E-14
         9   2  6.649860E-14  1.015267E-13  1.201353E-13  1.751404E-14  1.705244E-13  1.618348E-13
         9   3  4.544006E-14  4.544006E-14  1.060268E-13  4.849412E-31  1.337830E-13  1.460341E-13
         9   4 -1.249357E-14 -6.503567E-14  2.339045E-14 -2.627105E-14  1.337830E-13  1.355637E-13
         9   5 -1.820627E-13 -4.622872E-13 -1.445883E-13 -1.401123E-13 -1.246575E-13 -1.180118E-13
         9   6 -1.173988E-13 -3.275672E-13 -6.376204E-14 -1.050842E-13 -2.059290E-15 -3.448950E-14
         9   7 -1.647284E-13 -4.449529E-13 -1.041416E-13 -1.401123E-13  1.164911E-13  1.622128E-13
         9   8 -2.562909E-14 -9.568524E-14  1.025492E-14 -3.502807E-14 -1.287054E-13 -1.220597E-13

 strains (elem, integ.pnt.,exx,eyy,ezz,exy,exz,eyz) forset EALL and time  0.2917813E+00

         1   1  2.891640E-13  2.891640E-13 -2.478549E-13  5.109537E-21 -7.660020E-22 -7.660020E-22
         1   2  2.891640E-13  2.891640E-13 -2.478549E-13  1.208930E-20 -2.307549E-21 -7.661072E-22
         1   3  2.891640E-13  2.891640E-13 -2.478549E-13  1.208930E-20 -7.661072E-22 -2.307549E-21
         1   4  2.891640E-13  2.891640E-13 -2.478549E-13  1.906905E-20 -2.308397E-21 -2.308397E-21
         1   5  2.891640E-13  2.891640E-13 -2.478549E-13  5.108776E-21 -1.317212E-21 -1.317212E-21
         1   6  2.891640E-13  2.891640E-13 -2.478549E-13  1.208749E-20 -2.858758E-21 -1.316862E-21
         1   7  2.891640E-13  2.891640E-13 -2.478549E-13  1.208749E-20 -1.316862E-21 -2.858759E-21
         1   8  2.891640E-13  2.891640E-13 -2.478549E-13  1.906621E-20 -2.859151E-21 -2.859151E-21
         2   1 -5.074363E-12  1.766492E-11 -5.351849E-12  4.816186E-13 -5.512790E-14  4.964175E-21
         2   2 -5.074363E-12  1.709159E-11 -5.194341E-12  4.816187E-13 -5.512798E-14  2.945144E-21
         2   3 -5.074362E-12  1.766492E-11 -5.351849E-12  1.949542E-13 -5.512790E-14  8.481797E-20
         2   4 -5.074362E-12  1.709159E-11 -5.194341E-12  1.949543E-13 -5.512798E-14  8.092778E-20
         2   5 -5.074363E-12  1.766492E-11 -5.351849E-12  4.816186E-13  5.512777E-14 -6.132693E-20
         2   6 -5.074363E-12  1.709159E-11 -5.194341E-12  4.816187E-13  5.512768E-14 -6.699090E-20
         2   7 -5.074363E-12  1.766492E-11 -5.351849E-12  1.949542E-13  5.512777E-14  1.852686E-20
         2   8 -5.074363E-12  1.709159E-11 -5.194341E-12  1.949543E-13  5.512769E-14  1.099174E-20
         3   1  5.795624E-13  8.160030E-12 -2.114253E-12  5.123336E-12 -1.955327E-12  1.306491E-14
         3   2  5.795624E-13 -1.214456E-11  3.463931E-12  4.889405E-12 -1.949402E-12  1.306491E-14
         3   3  1.117006E-13  8.160030E-12 -2.040633E-12 -5.028959E-12 -1.955327E-12 -2.774830E-15
         3   4  1.117006E-13 -1.214456E-11  3.537551E-12 -5.262890E-12 -1.949402E-12 -2.774832E-15
         3   5  5.961516E-13  8.115679E-12 -2.114253E-12  5.123336E-12  1.949402E-12  6.459865E-14
         3   6  5.961516E-13 -1.218891E-11  3.463931E-12  4.889405E-12  1.955327E-12  6.459865E-14
         3   7  1.282898E-13  8.115679E-12 -2.040633E-12 -5.028959E-12  1.949402E-12  4.875891E-14
         3   8  1.282898E-13 -1.218891E-11  3.537551E-12 -5.262890E-12  1.955327E-12  4.875891E-14
         4   1  1.766492E-11 -5.074363E-12 -5.351849E-12  4.816186E-13  5.014302E-21 -5.512790E-14
         4   2  1.766492E-11 -5.074362E-12 -5.351849E-12  1.949542E-13  8.478478E-20 -5.512790E-14
         4   3  1.709159E-11 -5.074363E-12 -5.194341E-12  4.816187E-13  2.896207E-21 -5.512798E-14
         4   4  1.709159E-11 -5.074362E-12 -5.194341E-12  1.949543E-13  8.084787E-20 -5.512798E-14
         4   5  1.766492E-11 -5.074363E-12 -5.351849E-12  4.816186E-13 -6.105654E-20  5.512777E-14
         4   6  1.766492E-11 -5.074363E-12 -5.351849E-12  1.949542E-13  1.871394E-20  5.512777E-14
         4   7  1.709159E-11 -5.074363E-12 -5.194341E-12  4.816187E-13 -6.714256E-20  5.512768E-14
         4   8  1.709159E-11 -5.074363E-12 -5.194341E-12  1.949543E-13  1.080910E-20  5.512768E-14
         5   1  7.417327E-12  7.417327E-12 -7.902968E-12  1.130512E-12  9.657867E-13  9.657867E-13
         5   2  7.417327E-12  1.746151E-11 -1.066236E-11  6.152605E-12  9.657867E-13  9.657868E-13
         5   3  1.746151E-11  7.417327E-12 -1.066236E-11  6.152605E-12  9.657867E-13  9.657866E-13
         5   4  1.746151E-11  1.746151E-11 -1.342175E-11  1.117470E-11  9.657867E-13  9.657867E-13
         5   5  7.417327E-12  7.417327E-12 -7.902968E-12  1.130513E-12 -9.657871E-13 -9.657871E-13
         5   6  7.417327E-12  1.746151E-11 -1.066236E-11  6.152605E-12 -9.657871E-13 -9.657870E-13
         5   7  1.746151E-11  7.417327E-12 -1.066236E-11  6.152605E-12 -9.657871E-13 -9.657871E-13
         5   8  1.746151E-11  1.746151E-11 -1.342175E-11  1.117470E-11 -9.657871E-13 -9.657871E-13
         6   1  5.205596E-12  4.821809E-13 -2.267320E-12  6.265490E-12 -1.015333E-12  8.024613E-13
         6   2  5.205596E-12 -1.007728E-11  6.336314E-13  1.043829E-11 -1.015333E-12  8.024612E-13
         6   3  1.355120E-11  4.821809E-13 -4.560066E-12  9.857586E-13 -1.015333E-12  8.024615E-13
         6   4  1.355120E-11 -1.007728E-11 -1.659115E-12  5.158558E-12 -1.015333E-12  8.024612E-13
         6   5  5.205596E-12  4.821810E-13 -2.267320E-12  6.265491E-12  1.015333E-12 -8.024615E-13
         6   6  5.205596E-12 -1.007728E-11  6.336314E-13  1.043829E-11  1.015333E-12 -8.024615E-13
         6   7  1.355119E-11  4.821810E-13 -4.560066E-12  9.857590E-13  1.015333E-12 -8.024613E-13
         6   8  1.355119E-11 -1.007728E-11 -1.659115E-12  5.158558E-12  1.015333E-12 -8.024614E-13
         7   1  8.160030E-12  5.795624E-13 -2.114253E-12  5.123336E-12  1.306491E-14 -1.955327E-12
         7   2  8.160030E-12  1.117006E-13 -2.040633E-12 -5.028959E-12 -2.774830E-15 -1.955327E-12
         7   3 -1.214456E-11  5.795624E-13  3.463931E-12  4.889405E-12  1.306491E-14 -1.949402E-12
         7   4 -1.214456E-11  1.117006E-13  3.537551E-12 -5.262890E-12 -2.774832E-15 -1.949402E-12
         7   5  8.115679E-12  5.961516E-13 -2.114253E-12  5.123336E-12  6.459865E-14  1.949402E-12
         7   6  8.115679E-12  1.282898E-13 -2.040633E-12 -5.028959E-12  4.875891E-14  1.949402E-12
         7   7 -1.218891E-11  5.961516E-13  3.463931E-12  4.889405E-12  6.459865E-14  1.955327E-12
         7   8 -1.218891E-11  1.282898E-13  3.537551E-12 -5.262890E-12  4.875891E-14  1.955327E-12
         8   1  4.821808E-13  5.205596E-12 -2.267320E-12  6.265490E-12  8.024613E-13 -1.015333E-12
         8   2  4.821808E-13  1.355120E-11 -4.560066E-12  9.857589E-13  8.024613E-13 -1.015332E-12
         8   3 -1.007728E-11  5.205596E-12  6.336314E-13  1.043829E-11  8.024612E-13 -1.015333E-12
         8   4 -1.007728E-11  1.355120E-11 -1.659115E-12  5.158558E-12  8.024612E-13 -1.015333E-12
         8   5  4.821810E-13  5.205596E-12 -2.267320E-12  6.265491E-12 -8.024614E-13  1.015333E-12
         8   6  4.821810E-13  1.355119E-11 -4.560066E-12  9.857590E-13 -8.024613E-13  1.015333E-12
         8   7 -1.007728E-11  5.205596E-12  6.336314E-13  1.043829E-11 -8.024615E-13  1.015333E-12
         8   8 -1.007728E-11  1.355119E-11 -1.659115E-12  5.158558E-12 -8.024614E-13  1.015333E-12
         9   1  1.314337E-39  2.687733E-39  2.319841E-19  1.879518E-39 -6.248860E-19 -6.138625E-19
         9   2  1.314337E-39  2.168404E-19  3.320369E-19  1.084202E-19  1.055627E-18  1.001834E-18
         9   3  3.070341E-39  2.687733E-39  3.750608E-19 -2.872674E-39  8.281805E-19  9.040205E-19
         9   4  3.070341E-39 -3.252607E-19  2.221391E-19 -1.626303E-19  8.281805E-19  8.392040E-19
         9   5  1.830635E-38 -1.734723E-18  2.319841E-19 -8.673617E-19 -7.716895E-19 -7.305493E-19
         9   6  1.830635E-38 -1.301043E-18  3.320369E-19 -6.505213E-19 -1.274799E-20 -2.135064E-19
         9   7  4.276433E-38 -1.734723E-18  3.750608E-19 -8.673617E-19  7.211353E-19  1.004174E-18
         9   8  4.276433E-38 -4.336809E-19  2.221391E-19 -2.168404E-19 -7.967477E-19 -7.556075E-19

 displacements (vx,vy,vz) for set NALL and time  0.3007813E+00

         1  0.000000E+00  0.000000E+00  0.000000E+00
         2  1.002757E-10  0.000000E+00  0.000000E+00
         3  5.264477E-03  0.000000E+00  0.000000E+00
         4  5.264475E-03  0.000000E+00  0.000000E+00
         5  4.293098E-03  0.000000E+00  0.000000E+00
         6  4.293098E-03  0.000000E+00  0.000000E+00
         7  0.000000E+00  1.002757E-10  0.000000E+00
         8  1.002758E-10  1.002758E-10  0.000000E+00
         9  5.264477E-03  7.137717E-09  0.000000E+00
        10  5.264475E-03  6.813950E-09  0.000000E+00
        11  4.293105E-03  6.403390E-09  0.000000E+00
        12  4.293105E-03 -7.615368E-09  0.000000E+00
        13  0.000000E+00  5.264477E-03  0.000000E+00
        14  7.137717E-09  5.264477E-03  0.000000E+00
        15  2.540636E-01  2.540636E-01  0.000000E+00
        16  2.540636E-01  2.540636E-01  0.000000E+00
        17  3.844223E-01  1.047788E-01  0.000000E+00
        18  3.843486E-01 -1.665910E-01  0.000000E+00
        19  0.000000E+00  5.264475E-03  0.000000E+00
        20  6.813950E-09  5.264475E-03  0.000000E+00
        21  2.540636E-01  2.540636E-01  0.000000E+00
        22  2.540636E-01  2.540636E-01  0.000000E+00
        23  6.557921E-01  1.047052E-01  0.000000E+00
        24  6.557185E-01 -1.666647E-01  0.000000E+00
        25  0.000000E+00  4.293098E-03  0.000000E+00
        26  6.403390E-09  4.293105E-03  0.000000E+00
        27  1.047788E-01  3.844223E-01  0.000000E+00
        28  1.047052E-01  6.557921E-01  0.000000E+00
        29 -9.023438E+00 -9.023438E+00  0.000000E+00
        30 -9.023438E+00 -9.023438E+00  0.000000E+00
        31  0.000000E+00  4.293098E-03  0.000000E+00
        32 -7.615368E-09  4.293105E-03  0.000000E+00
        33 -1.665910E-01  3.843486E-01  0.000000E+00
        34 -1.666647E-01  6.557185E-01  0.000000E+00
        35 -9.023438E+00 -9.023438E+00  0.000000E+00
        36 -9.023438E+00 -9.023438E+00  0.000000E+00
        37  0.000000E+00  0.000000E+00 -1.203309E-10
        38  1.002757E-10  0.000000E+00 -1.203309E-10
        39  5.264477E-03  0.000000E+00 -3.024004E-09
        40  5.264475E-03  0.000000E+00 -2.899479E-09
        41  4.293094E-03  0.000000E+00 -2.418975E-09
        42  4.293094E-03  0.000000E+00  2.972855E-09
        43  0.000000E+00  1.002757E-10 -1.203309E-10
        44  1.002757E-10  1.002757E-10 -1.203309E-10
        45  5.264477E-03  7.137717E-09 -3.024005E-09
        46  5.264475E-03  6.813950E-09 -2.899479E-09
        47  4.293101E-03  6.378953E-09 -2.362185E-09
        48  4.293101E-03 -7.639805E-09  3.029645E-09
        49  0.000000E+00  5.264477E-03 -3.024004E-09
        50  7.137717E-09  5.264477E-03 -3.024005E-09
        51  2.540636E-01  2.540636E-01 -3.297245E-09
        52  2.540636E-01  2.540636E-01 -5.967823E-09
        53  3.844223E-01  1.047788E-01 -1.425982E-09
        54  3.843486E-01 -1.665910E-01  1.361514E-09
        55  0.000000E+00  5.264475E-03 -2.899479E-09
        56  6.813950E-09  5.264475E-03 -2.899479E-09
        57  2.540636E-01  2.540636E-01 -5.967823E-09
        58  2.540636E-01  2.540636E-01 -8.638402E-09
        59  6.557921E-01  1.047052E-01 -3.747147E-09
        60  6.557185E-01 -1.666647E-01 -9.596504E-10
        61  0.000000E+00  4.293094E-03 -2.418975E-09
        62  6.378953E-09  4.293101E-03 -2.362185E-09
        63  1.047788E-01  3.844223E-01 -1.425983E-09
        64  1.047052E-01  6.557921E-01 -3.747147E-09
        65 -9.023438E+00 -9.023438E+00  3.276920E-16
        66 -9.023438E+00 -9.023438E+00  2.602443E-16
        67  0.000000E+00  4.293094E-03  2.972855E-09
        68 -7.639805E-09  4.293101E-03  3.029645E-09
        69 -1.665910E-01  3.843486E-01  1.361514E-09
        70 -1.666647E-01  6.557185E-01 -9.596504E-10
        71 -9.023438E+00 -9.023438E+00  3.037141E-16
        72 -9.023438E+00 -9.023438E+00 -1.167069E-16

 stresses (elem, integ.pnt.,sxx,syy,szz,sxy,sxz,syz) for set EALL and time  0.3007813E+00

         1   1  6.016545E-08  6.016545E-08 -6.415980E-16  5.371914E-16 -8.036821E-17 -8.029031E-17
         1   2  6.016545E-08  6.016545E-08  3.174801E-16  1.270860E-15 -2.431898E-16 -8.036821E-17
         1   3  6.016545E-08  6.016545E-08  3.170331E-16  1.271158E-15 -8.029031E-17 -2.428991E-16
         1   4  6.016545E-08  6.016545E-08  1.276111E-15  2.004826E-15 -2.428991E-16 -2.431898E-16
         1   5  6.016545E-08  6.016545E-08 -1.325002E-15  5.371914E-16 -1.371167E-16 -1.370388E-16
         1   6  6.016545E-08  6.016545E-08 -3.663706E-16  1.271158E-15 -2.999382E-16 -1.371167E-16
         1   7  6.016545E-08  6.016545E-08 -3.659237E-16  1.270860E-15 -1.370388E-16 -2.996475E-16
         1   8  6.016545E-08  6.016545E-08  5.927075E-16  2.004826E-15 -2.996475E-16 -2.999382E-16
         2   1  4.095720E-08  2.983831E-06  8.129626E-09  5.073137E-08 -5.806910E-09  6.279806E-16
         2   2  8.106796E-09  2.890589E-06 -8.129630E-09  5.073139E-08 -5.806921E-09  4.088719E-16
         2   3  4.095725E-08  2.983831E-06  8.129631E-09  2.053553E-08 -5.806910E-09  1.084052E-14
         2   4  8.106849E-09  2.890589E-06 -8.129626E-09  2.053555E-08 -5.806920E-09  1.043735E-14
         2   5  4.095717E-08  2.983831E-06  8.129625E-09  5.073137E-08  5.806892E-09 -7.868866E-15
         2   6  8.106766E-09  2.890589E-06 -8.129631E-09  5.073139E-08  5.806882E-09 -8.502524E-15
         2   7  4.095722E-08  2.983831E-06  8.129630E-09  2.053553E-08  5.806893E-09  2.343665E-15
         2   8  8.106818E-09  2.890589E-06 -8.129627E-09  2.053555E-08  5.806882E-09  1.525940E-15
         3   1  7.155047E-07  1.766997E-06  3.644869E-07  6.601951E-07 -2.517370E-07  1.342755E-09
         3   2 -7.068852E-07 -2.270291E-06 -3.395244E-07  6.361527E-07 -2.511281E-07  1.342755E-09
         3   3  6.370310E-07  1.736608E-06  3.416643E-07 -6.472542E-07 -2.517370E-07 -2.851829E-10
         3   4 -7.853589E-07 -2.300680E-06 -3.623469E-07 -6.712966E-07 -2.511281E-07 -2.851830E-10
         3   5  7.150697E-07  1.760299E-06  3.623469E-07  6.601951E-07  2.511281E-07  6.639167E-09
         3   6 -7.073202E-07 -2.276989E-06 -3.416643E-07  6.361527E-07  2.517370E-07  6.639167E-09
         3   7  6.365961E-07  1.729910E-06  3.395244E-07 -6.472542E-07  2.511281E-07  5.011230E-09
         3   8 -7.857939E-07 -2.307378E-06 -3.644869E-07 -6.712966E-07  2.517370E-07  5.011229E-09
         4   1  2.983831E-06  4.095720E-08  8.129625E-09  5.073137E-08  6.315951E-16 -5.806910E-09
         4   2  2.983831E-06  4.095725E-08  8.129631E-09  2.053553E-08  1.083109E-14 -5.806910E-09
         4   3  2.890589E-06  8.106796E-09 -8.129631E-09  5.073139E-08  4.115272E-16 -5.806921E-09
         4   4  2.890589E-06  8.106848E-09 -8.129626E-09  2.053555E-08  1.043304E-14 -5.806920E-09
         4   5  2.983831E-06  4.095717E-08  8.129625E-09  5.073137E-08 -7.842333E-15  5.806892E-09
         4   6  2.983831E-06  4.095722E-08  8.129631E-09  2.053553E-08  2.357154E-15  5.806893E-09
         4   7  2.890589E-06  8.106766E-09 -8.129631E-09  5.073139E-08 -8.485654E-15  5.806882E-09
         4   8  2.890589E-06  8.106818E-09 -8.129627E-09  2.053555E-08  1.535850E-15  5.806882E-09
         5   1  1.631820E-06  1.631820E-06 -3.486975E-07  1.411803E-07  1.245348E-07  1.245348E-07
         5   2  2.336331E-06  3.631493E-06  6.497922E-15  7.887612E-07  1.245347E-07  1.245348E-07
         5   3  3.631493E-06  2.336331E-06  8.078258E-15  7.887612E-07  1.245348E-07  1.245348E-07
         5   4  4.336004E-06  4.336004E-06  3.486975E-07  1.436342E-06  1.245348E-07  1.245348E-07
         5   5  1.631820E-06  1.631820E-06 -3.486975E-07  1.411803E-07 -1.245348E-07 -1.245348E-07
         5   6  2.336331E-06  3.631493E-06 -7.043432E-15  7.887612E-07 -1.245348E-07 -1.245348E-07
         5   7  3.631493E-06  2.336331E-06 -5.052611E-15  7.887612E-07 -1.245348E-07 -1.245348E-07
         5   8  4.336004E-06  4.336004E-06  3.486975E-07  1.436342E-06 -1.245348E-07 -1.245348E-07
         6   1  9.731966E-07  4.557205E-07  3.044465E-08  7.964210E-07 -1.299281E-07  1.083114E-07
         6   2  2.384524E-07 -1.632109E-06 -3.335189E-07  1.358539E-06 -1.299282E-07  1.083114E-07
         6   3  2.710502E-06  1.068789E-06  3.335191E-07  1.198784E-07 -1.299281E-07  1.083114E-07
         6   4  1.975757E-06 -1.019041E-06 -3.044441E-08  6.819968E-07 -1.299281E-07  1.083114E-07
         6   5  9.731965E-07  4.557205E-07  3.044464E-08  7.964210E-07  1.299282E-07 -1.083114E-07
         6   6  2.384524E-07 -1.632109E-06 -3.335189E-07  1.358539E-06  1.299282E-07 -1.083114E-07
         6   7  2.710502E-06  1.068789E-06  3.335191E-07  1.198784E-07  1.299282E-07 -1.083114E-07
         6   8  1.975757E-06 -1.019041E-06 -3.044443E-08  6.819968E-07  1.299282E-07 -1.083114E-07
         7   1  1.766997E-06  7.155047E-07  3.644869E-07  6.601951E-07  1.342755E-09 -2.517370E-07
         7   2  1.736608E-06  6.370310E-07  3.416643E-07 -6.472542E-07 -2.851829E-10 -2.517370E-07
         7   3 -2.270291E-06 -7.068852E-07 -3.395244E-07  6.361527E-07  1.342755E-09 -2.511281E-07
         7   4 -2.300680E-06 -7.853589E-07 -3.623469E-07 -6.712966E-07 -2.851830E-10 -2.511281E-07
         7   5  1.760299E-06  7.150697E-07  3.623469E-07  6.601951E-07  6.639167E-09  2.511281E-07
         7   6  1.729910E-06  6.365961E-07  3.395244E-07 -6.472542E-07  5.011230E-09  2.511281E-07
         7   7 -2.276989E-06 -7.073202E-07 -3.416643E-07  6.361527E-07  6.639167E-09  2.517370E-07
         7   8 -2.307378E-06 -7.857939E-07 -3.644869E-07 -6.712966E-07  5.011229E-09  2.517370E-07
         8   1  4.557205E-07  9.731966E-07  3.044464E-08  7.964210E-07  1.083114E-07 -1.299281E-07
         8   2  1.068789E-06  2.710502E-06  3.335191E-07  1.198784E-07  1.083114E-07 -1.299281E-07
         8   3 -1.632109E-06  2.384524E-07 -3.335188E-07  1.358539E-06  1.083114E-07 -1.299282E-07
         8   4 -1.019041E-06  1.975757E-06 -3.044439E-08  6.819968E-07  1.083114E-07 -1.299281E-07
         8   5  4.557205E-07  9.731965E-07  3.044463E-08  7.964210E-07 -1.083114E-07  1.299282E-07
         8   6  1.068789E-06  2.710502E-06  3.335191E-07  1.198784E-07 -1.083114E-07  1.299282E-07
         8   7 -1.632109E-06  2.384524E-07 -3.335189E-07  1.358539E-06 -1.083114E-07  1.299282E-07
         8   8 -1.019041E-06  1.975757E-06 -3.044441E-08  6.819968E-07 -1.083114E-07  1.299282E-07
         9   1  5.064376E-14  5.064376E-14  1.181688E-13  2.020048E-34 -4.848824E-15 -3.364893E-15
         9   2  4.958582E-14  6.709986E-14  9.818622E-14  8.757018E-15  3.893626E-14  3.346342E-14
         9   3  4.079405E-14  4.079405E-14  9.518613E-14  4.918279E-34 -1.180559E-14 -3.364893E-15
         9   4  6.236749E-15  6.236749E-15  1.455242E-14  8.090397E-31 -1.869459E-13 -1.854620E-13
         9   5 -1.595247E-13 -4.397492E-13 -9.199965E-14 -1.401123E-13 -5.312413E-14 -4.758602E-14
         9   6 -1.211760E-13 -3.313444E-13 -7.257563E-14 -1.050842E-13  1.132592E-13  9.283429E-14
         9   7 -1.693744E-13 -4.495989E-13 -1.149823E-13 -1.401123E-13 -4.405908E-14 -1.255795E-14
         9   8 -4.630536E-14 -1.163615E-13 -3.798969E-14 -3.502807E-14  2.599706E-14  3.153517E-14

 strains (elem, integ.pnt.,exx,eyy,ezz,exy,exz,eyz) forset EALL and time  0.3007813E+00

         1   1  2.005515E-13  2.005515E-13 -1.719013E-13  3.325471E-21 -4.975175E-22 -4.970353E-22
         1   2  2.005515E-13  2.005515E-13 -1.719013E-13  7.867226E-21 -1.505461E-21 -4.975175E-22
         1   3  2.005515E-13  2.005515E-13 -1.719013E-13  7.869071E-21 -4.970353E-22 -1.503661E-21
         1   4  2.005515E-13  2.005515E-13 -1.719013E-13  1.241083E-20 -1.503661E-21 -1.505461E-21
         1   5  2.005515E-13  2.005515E-13 -1.719013E-13  3.325471E-21 -8.488174E-22 -8.483352E-22
         1   6  2.005515E-13  2.005515E-13 -1.719013E-13  7.869071E-21 -1.856761E-21 -8.488174E-22
         1   7  2.005515E-13  2.005515E-13 -1.719013E-13  7.867226E-21 -8.483352E-22 -1.854961E-21
         1   8  2.005515E-13  2.005515E-13 -1.719013E-13  1.241083E-20 -1.854961E-21 -1.856761E-21
         2   1 -4.079195E-12  1.413859E-11 -4.282413E-12  3.140513E-13 -3.594754E-14  3.887478E-21
         2   2 -4.079195E-12  1.376474E-11 -4.179706E-12  3.140514E-13 -3.594761E-14  2.531091E-21
         2   3 -4.079194E-12  1.413859E-11 -4.282413E-12  1.271247E-13 -3.594754E-14  6.710795E-20
         2   4 -4.079194E-12  1.376474E-11 -4.179706E-12  1.271248E-13 -3.594760E-14  6.461211E-20
         2   5 -4.079195E-12  1.413859E-11 -4.282413E-12  3.140513E-13  3.594743E-14 -4.871208E-20
         2   6 -4.079195E-12  1.376474E-11 -4.179706E-12  3.140514E-13  3.594737E-14 -5.263473E-20
         2   7 -4.079195E-12  1.413859E-11 -4.282413E-12  1.271247E-13  3.594743E-14  1.450839E-20
         2   8 -4.079195E-12  1.376474E-11 -4.179706E-12  1.271248E-13  3.594737E-14  9.446289E-21
         3   1  3.621879E-13  6.871428E-12 -1.810780E-12  4.086922E-12 -1.558372E-12  8.312292E-15
         3   2  3.621879E-13 -9.316040E-12  2.636327E-12  3.938088E-12 -1.554602E-12  8.312292E-15
         3   3  6.452009E-14  6.871428E-12 -1.763941E-12 -4.006812E-12 -1.558372E-12 -1.765418E-15
         3   4  6.452009E-14 -9.316040E-12  2.683166E-12 -4.155646E-12 -1.554602E-12 -1.765419E-15
         3   5  3.727425E-13  6.843210E-12 -1.810780E-12  4.086922E-12  1.554603E-12  4.109961E-14
         3   6  3.727425E-13 -9.344258E-12  2.636327E-12  3.938088E-12  1.558372E-12  4.109961E-14
         3   7  7.507465E-14  6.843210E-12 -1.763941E-12 -4.006812E-12  1.554603E-12  3.102190E-14
         3   8  7.507465E-14 -9.344258E-12  2.683166E-12 -4.155646E-12  1.558372E-12  3.102190E-14
         4   1  1.413859E-11 -4.079195E-12 -4.282413E-12  3.140513E-13  3.909853E-21 -3.594754E-14
         4   2  1.413859E-11 -4.079194E-12 -4.282413E-12  1.271247E-13  6.704958E-20 -3.594754E-14
         4   3  1.376474E-11 -4.079195E-12 -4.179706E-12  3.140514E-13  2.547528E-21 -3.594760E-14
         4   4  1.376474E-11 -4.079194E-12 -4.179706E-12  1.271248E-13  6.458546E-20 -3.594760E-14
         4   5  1.413859E-11 -4.079195E-12 -4.282413E-12  3.140513E-13 -4.854783E-20  3.594743E-14
         4   6  1.413859E-11 -4.079195E-12 -4.282413E-12  1.271247E-13  1.459190E-20  3.594743E-14
         4   7  1.376474E-11 -4.079195E-12 -4.179706E-12  3.140514E-13 -5.253030E-20  3.594737E-14
         4   8  1.376474E-11 -4.079195E-12 -4.179706E-12  1.271248E-13  9.507634E-21  3.594737E-14
         5   1  5.937538E-12  5.937538E-12 -6.322806E-12  8.739731E-13  7.709295E-13  7.709295E-13
         5   2  5.937538E-12  1.395521E-11 -8.525462E-12  4.882808E-12  7.709294E-13  7.709295E-13
         5   3  1.395521E-11  5.937538E-12 -8.525462E-12  4.882807E-12  7.709295E-13  7.709295E-13
         5   4  1.395521E-11  1.395521E-11 -1.072812E-11  8.891642E-12  7.709295E-13  7.709294E-13
         5   5  5.937538E-12  5.937538E-12 -6.322806E-12  8.739731E-13 -7.709297E-13 -7.709297E-13
         5   6  5.937538E-12  1.395521E-11 -8.525462E-12  4.882808E-12 -7.709298E-13 -7.709298E-13
         5   7  1.395521E-11  5.937538E-12 -8.525462E-12  4.882808E-12 -7.709297E-13 -7.709298E-13
         5   8  1.395521E-11  1.395521E-11 -1.072812E-11  8.891642E-12 -7.709297E-13 -7.709298E-13
         6   1  3.934395E-12  7.416770E-13 -1.896336E-12  4.931961E-12 -8.046808E-13  6.700624E-13
         6   2  3.934395E-12 -7.627006E-12  4.027528E-13  8.416286E-12 -8.046809E-13  6.700623E-13
         6   3  1.090305E-11  7.416770E-13 -3.810800E-12  7.476196E-13 -8.046808E-13  6.700626E-13
         6   4  1.090305E-11 -7.627006E-12 -1.511711E-12  4.231945E-12 -8.046808E-13  6.700624E-13
         6   5  3.934395E-12  7.416771E-13 -1.896336E-12  4.931961E-12  8.046811E-13 -6.700625E-13
         6   6  3.934395E-12 -7.627006E-12  4.027528E-13  8.416286E-12  8.046810E-13 -6.700626E-13
         6   7  1.090305E-11  7.416771E-13 -3.810800E-12  7.476197E-13  8.046812E-13 -6.700624E-13
         6   8  1.090305E-11 -7.627006E-12 -1.511711E-12  4.231945E-12  8.046812E-13 -6.700626E-13
         7   1  6.871428E-12  3.621879E-13 -1.810780E-12  4.086922E-12  8.312292E-15 -1.558372E-12
         7   2  6.871428E-12  6.452009E-14 -1.763941E-12 -4.006812E-12 -1.765418E-15 -1.558372E-12
         7   3 -9.316040E-12  3.621879E-13  2.636327E-12  3.938088E-12  8.312292E-15 -1.554602E-12
         7   4 -9.316040E-12  6.452009E-14  2.683166E-12 -4.155646E-12 -1.765419E-15 -1.554602E-12
         7   5  6.843210E-12  3.727425E-13 -1.810780E-12  4.086922E-12  4.109961E-14  1.554603E-12
         7   6  6.843210E-12  7.507465E-14 -1.763941E-12 -4.006812E-12  3.102190E-14  1.554603E-12
         7   7 -9.344258E-12  3.727425E-13  2.636327E-12  3.938088E-12  4.109961E-14  1.558372E-12
         7   8 -9.344258E-12  7.507465E-14  2.683166E-12 -4.155646E-12  3.102190E-14  1.558372E-12
         8   1  7.416770E-13  3.934395E-12 -1.896336E-12  4.931961E-12  6.700624E-13 -8.046808E-13
         8   2  7.416770E-13  1.090305E-11 -3.810800E-12  7.476196E-13  6.700625E-13 -8.046806E-13
         8   3 -7.627006E-12  3.934395E-12  4.027529E-13  8.416286E-12  6.700624E-13 -8.046810E-13
         8   4 -7.627006E-12  1.090305E-11 -1.511711E-12  4.231945E-12  6.700624E-13 -8.046808E-13
         8   5  7.416771E-13  3.934395E-12 -1.896336E-12  4.931961E-12 -6.700625E-13  8.046811E-13
         8   6  7.416771E-13  1.090305E-11 -3.810800E-12  7.476196E-13 -6.700624E-13  8.046812E-13
         8   7 -7.627006E-12  3.934395E-12  4.027529E-13  8.416286E-12 -6.700626E-13  8.046810E-13
         8   8 -7.627006E-12  1.090305E-11 -1.511711E-12  4.231945E-12 -6.700625E-13  8.046812E-13
         9   1  1.801984E-39  8.678018E-40  4.180120E-19  1.250506E-39 -3.001653E-20 -2.083029E-20
         9   2  1.801984E-39  1.084202E-19  3.008596E-19  5.421011E-20  2.410340E-19  2.071545E-19
         9   3  1.068203E-38  8.678018E-40  3.367128E-19  3.044649E-39 -7.308225E-20 -2.083029E-20
         9   4  1.068203E-38  8.165401E-39  5.147793E-20  9.339329E-39 -1.157284E-18 -1.148098E-18
         9   5  2.509840E-38 -1.734723E-18  4.180120E-19 -8.673617E-19 -3.288636E-19 -2.945801E-19
         9   6  2.509840E-38 -1.301043E-18  3.008596E-19 -6.505213E-19  7.011284E-19  5.746885E-19
         9   7  1.487815E-37 -1.734723E-18  3.367128E-19 -8.673617E-19 -2.727467E-19 -7.773969E-20
         9   8  1.487815E-37 -4.336809E-19  5.147793E-20 -2.168404E-19  1.609342E-19  1.952177E-19

 displacements (vx,vy,vz) for set NALL and time  0.3097813E+00

         1  0.000000E+00  0.000000E+00  0.000000E+00
         2  5.889085E-11  0.000000E+00  0.000000E+00
         3  3.091770E-03  0.000000E+00  0.000000E+00
         4  3.091768E-03  0.000000E+00  0.000000E+00
         5  2.714962E-03  0.000000E+00  0.000000E+00
         6  2.714962E-03  0.000000E+00  0.000000E+00
         7  0.000000E+00  5.889085E-11  0.000000E+00
         8  5.889085E-11  5.889085E-11  0.000000E+00
         9  3.091770E-03  5.259393E-09  0.000000E+00
        10  3.091768E-03  5.079304E-09  0.000000E+00
        11  2.714967E-03  4.825167E-09  0.000000E+00
        12  2.714967E-03 -5.458472E-09  0.000000E+00
        13  0.000000E+00  3.091770E-03  0.000000E+00
        14  5.259393E-09  3.091770E-03  0.000000E+00
        15  1.887215E-01  1.887215E-01  0.000000E+00
        16  1.887215E-01  1.887215E-01  0.000000E+00
        17  2.847548E-01  8.295399E-02  0.000000E+00
        18  2.847154E-01 -1.156468E-01  0.000000E+00
        19  0.000000E+00  3.091768E-03  0.000000E+00
        20  5.079304E-09  3.091768E-03  0.000000E+00
        21  1.887215E-01  1.887215E-01  0.000000E+00
        22  1.887215E-01  1.887215E-01  0.000000E+00
        23  4.833556E-01  8.291455E-02  0.000000E+00
        24  4.833162E-01 -1.156863E-01  0.000000E+00
        25  0.000000E+00  2.714962E-03  0.000000E+00
        26  4.825167E-09  2.714967E-03  0.000000E+00
        27  8.295399E-02  2.847548E-01  0.000000E+00
        28  8.291455E-02  4.833556E-01  0.000000E+00
        29 -9.293438E+00 -9.293438E+00  0.000000E+00
        30 -9.293438E+00 -9.293438E+00  0.000000E+00
        31  0.000000E+00  2.714962E-03  0.000000E+00
        32 -5.458472E-09  2.714967E-03  0.000000E+00
        33 -1.156468E-01  2.847154E-01  0.000000E+00
        34 -1.156863E-01  4.833162E-01  0.000000E+00
        35 -9.293438E+00 -9.293438E+00  0.000000E+00
        36 -9.293438E+00 -9.293438E+00  0.000000E+00
        37  0.000000E+00  0.000000E+00 -7.066902E-11
        38  5.889085E-11  0.000000E+00 -7.066902E-11
        39  3.091770E-03  0.000000E+00 -2.225927E-09
        40  3.091768E-03  0.000000E+00 -2.156662E-09
        41  2.714959E-03  0.000000E+00 -1.833587E-09
        42  2.714959E-03  0.000000E+00  2.121658E-09
        43  0.000000E+00  5.889085E-11 -7.066902E-11
        44  5.889085E-11  5.889085E-11 -7.066902E-11
        45  3.091770E-03  5.259393E-09 -2.225927E-09
        46  3.091768E-03  5.079304E-09 -2.156662E-09
        47  2.714964E-03  4.811924E-09 -1.802812E-09
        48  2.714964E-03 -5.471715E-09  2.152433E-09
        49  0.000000E+00  3.091770E-03 -2.225927E-09
        50  5.259393E-09  3.091770E-03 -2.225927E-09
        51  1.887215E-01  1.887215E-01 -2.440201E-09
        52  1.887215E-01  1.887215E-01 -4.402765E-09
        53  2.847548E-01  8.295399E-02 -1.071032E-09
        54  2.847154E-01 -1.156468E-01  9.585154E-10
        55  0.000000E+00  3.091768E-03 -2.156662E-09
        56  5.079304E-09  3.091768E-03 -2.156662E-09
        57  1.887215E-01  1.887215E-01 -4.402765E-09
        58  1.887215E-01  1.887215E-01 -6.365330E-09
        59  4.833556E-01  8.291455E-02 -2.850203E-09
        60  4.833162E-01 -1.156863E-01 -8.206551E-10
        61  0.000000E+00  2.714959E-03 -1.833587E-09
        62  4.811924E-09  2.714964E-03 -1.802812E-09
        63  8.295399E-02  2.847548E-01 -1.071032E-09
        64  8.291455E-02  4.833556E-01 -2.850203E-09
        65 -9.293438E+00 -9.293438E+00  4.983600E-16
        66 -9.293438E+00 -9.293438E+00  5.345186E-17
        67  0.000000E+00  2.714959E-03  2.121658E-09
        68 -5.471715E-09  2.714964E-03  2.152433E-09
        69 -1.156468E-01  2.847154E-01  9.585155E-10
        70 -1.156863E-01  4.833162E-01 -8.206551E-10
        71 -9.293438E+00 -9.293438E+00  2.273309E-16
        72 -9.293438E+00 -9.293438E+00  2.368441E-17

 stresses (elem, integ.pnt.,sxx,syy,szz,sxy,sxz,syz) for set EALL and time  0.3097813E+00

         1   1  3.533451E-08  3.533451E-08 -3.542978E-16  2.980626E-16 -4.441874E-17 -4.441874E-17
         1   2  3.533451E-08  3.533451E-08  1.798324E-16  7.052238E-16 -1.351284E-16 -4.441874E-17
         1   3  3.533451E-08  3.533451E-08  1.798324E-16  7.052238E-16 -4.441874E-17 -1.351284E-16
         1   4  3.533451E-08  3.533451E-08  7.139626E-16  1.112385E-15 -1.351284E-16 -1.351284E-16
         1   5  3.533451E-08  3.533451E-08 -7.352785E-16  2.980626E-16 -7.506333E-17 -7.506332E-17
         1   6  3.533451E-08  3.533451E-08 -2.011482E-16  7.052238E-16 -1.657730E-16 -7.506332E-17
         1   7  3.533451E-08  3.533451E-08 -2.011482E-16  7.052238E-16 -7.506332E-17 -1.657730E-16
         1   8  3.533451E-08  3.533451E-08  3.329820E-16  1.112385E-15 -1.657730E-16 -1.657730E-16
         2   1  2.465028E-08  2.201713E-06  4.521947E-09  2.821837E-08 -3.229988E-09  4.504034E-16
         2   2  6.377867E-09  2.149848E-06 -4.521951E-09  2.821838E-08 -3.229996E-09  3.292417E-16
         2   3  2.465032E-08  2.201713E-06  4.521951E-09  1.142250E-08 -3.229988E-09  7.881420E-15
         2   4  6.377906E-09  2.149848E-06 -4.521947E-09  1.142251E-08 -3.229996E-09  7.667136E-15
         2   5  2.465026E-08  2.201713E-06  4.521947E-09  2.821837E-08  3.229975E-09 -5.750083E-15
         2   6  6.377845E-09  2.149848E-06 -4.521951E-09  2.821838E-08  3.229967E-09 -6.109141E-15
         2   7  2.465030E-08  2.201713E-06  4.521951E-09  1.142250E-08  3.229975E-09  1.680931E-15
         2   8  6.377883E-09  2.149848E-06 -4.521948E-09  1.142251E-08  3.229967E-09  1.228750E-15
         3   1  5.248965E-07  1.349619E-06  2.649820E-07  4.839094E-07 -1.846065E-07  7.276638E-10
         3   2 -5.185157E-07 -1.611985E-06 -2.514544E-07  4.708803E-07 -1.842765E-07  7.276638E-10
         3   3  4.823702E-07  1.333151E-06  2.526140E-07 -4.751867E-07 -1.846065E-07 -1.545438E-10
         3   4 -5.610420E-07 -1.628454E-06 -2.638223E-07 -4.882157E-07 -1.842765E-07 -1.545439E-10
         3   5  5.246608E-07  1.345989E-06  2.638223E-07  4.839094E-07  1.842766E-07  3.597886E-09
         3   6 -5.187514E-07 -1.615615E-06 -2.526140E-07  4.708803E-07  1.846065E-07  3.597886E-09
         3   7  4.821345E-07  1.329521E-06  2.514544E-07 -4.751867E-07  1.842766E-07  2.715678E-09
         3   8 -5.612778E-07 -1.632084E-06 -2.649820E-07 -4.882157E-07  1.846065E-07  2.715678E-09
         4   1  2.201713E-06  2.465028E-08  4.521947E-09  2.821837E-08  4.500752E-16 -3.229988E-09
         4   2  2.201713E-06  2.465032E-08  4.521951E-09  1.142250E-08  7.879758E-15 -3.229988E-09
         4   3  2.149848E-06  6.377867E-09 -4.521951E-09  2.821838E-08  3.309806E-16 -3.229996E-09
         4   4  2.149848E-06  6.377906E-09 -4.521947E-09  1.142251E-08  7.668672E-15 -3.229996E-09
         4   5  2.201713E-06  2.465026E-08  4.521947E-09  2.821837E-08 -5.749974E-15  3.229975E-09
         4   6  2.201713E-06  2.465030E-08  4.521951E-09  1.142250E-08  1.679706E-15  3.229975E-09
         4   7  2.149848E-06  6.377845E-09 -4.521951E-09  2.821838E-08 -6.102449E-15  3.229967E-09
         4   8  2.149848E-06  6.377883E-09 -4.521948E-09  1.142251E-08  1.235239E-15  3.229967E-09
         5   1  1.207752E-06  1.207752E-06 -2.562521E-07  9.973748E-08  9.151856E-08  9.151856E-08
         5   2  1.725486E-06  2.677279E-06  3.991362E-15  5.756341E-07  9.151855E-08  9.151856E-08
         5   3  2.677279E-06  1.725486E-06 -6.931432E-15  5.756341E-07  9.151856E-08  9.151856E-08
         5   4  3.195013E-06  3.195013E-06  2.562521E-07  1.051531E-06  9.151856E-08  9.151856E-08
         5   5  1.207752E-06  1.207752E-06 -2.562521E-07  9.973747E-08 -9.151859E-08 -9.151859E-08
         5   6  1.725486E-06  2.677279E-06 -8.320679E-15  5.756341E-07 -9.151859E-08 -9.151859E-08
         5   7  2.677279E-06  1.725486E-06 -3.645035E-15  5.756341E-07 -9.151859E-08 -9.151859E-08
         5   8  3.195013E-06  3.195013E-06  2.562521E-07  1.051531E-06 -9.151859E-08 -9.151859E-08
         6   1  6.946989E-07  3.779090E-07  1.634593E-08  5.778800E-07 -9.460918E-08  8.300410E-08
         6   2  1.596372E-07 -1.142116E-06 -2.486522E-07  1.008915E-06 -9.460919E-08  8.300409E-08
         6   3  2.026513E-06  8.476536E-07  2.486522E-07  8.539818E-08 -9.460917E-08  8.300412E-08
         6   4  1.491452E-06 -6.723717E-07 -1.634588E-08  5.164330E-07 -9.460918E-08  8.300410E-08
         6   5  6.946988E-07  3.779090E-07  1.634592E-08  5.778800E-07  9.460921E-08 -8.300412E-08
         6   6  1.596371E-07 -1.142116E-06 -2.486522E-07  1.008915E-06  9.460920E-08 -8.300413E-08
         6   7  2.026513E-06  8.476536E-07  2.486522E-07  8.539822E-08  9.460921E-08 -8.300410E-08
         6   8  1.491451E-06 -6.723717E-07 -1.634590E-08  5.164331E-07  9.460921E-08 -8.300412E-08
         7   1  1.349619E-06  5.248965E-07  2.649820E-07  4.839094E-07  7.276638E-10 -1.846065E-07
         7   2  1.333151E-06  4.823702E-07  2.526140E-07 -4.751867E-07 -1.545438E-10 -1.846065E-07
         7   3 -1.611985E-06 -5.185157E-07 -2.514544E-07  4.708803E-07  7.276638E-10 -1.842765E-07
         7   4 -1.628454E-06 -5.610420E-07 -2.638223E-07 -4.882157E-07 -1.545439E-10 -1.842765E-07
         7   5  1.345989E-06  5.246608E-07  2.638223E-07  4.839094E-07  3.597886E-09  1.842766E-07
         7   6  1.329521E-06  4.821345E-07  2.514544E-07 -4.751867E-07  2.715678E-09  1.842766E-07
         7   7 -1.615615E-06 -5.187514E-07 -2.526140E-07  4.708803E-07  3.597886E-09  1.846065E-07
         7   8 -1.632084E-06 -5.612778E-07 -2.649820E-07 -4.882157E-07  2.715678E-09  1.846065E-07
         8   1  3.779090E-07  6.946989E-07  1.634593E-08  5.778800E-07  8.300410E-08 -9.460918E-08
         8   2  8.476536E-07  2.026513E-06  2.486522E-07  8.539820E-08  8.300411E-08 -9.460917E-08
         8   3 -1.142116E-06  1.596372E-07 -2.486522E-07  1.008915E-06  8.300410E-08 -9.460919E-08
         8   4 -6.723717E-07  1.491451E-06 -1.634591E-08  5.164330E-07  8.300410E-08 -9.460916E-08
         8   5  3.779090E-07  6.946989E-07  1.634592E-08  5.778800E-07 -8.300412E-08  9.460922E-08
         8   6  8.476537E-07  2.026513E-06  2.486522E-07  8.539820E-08 -8.300411E-08  9.460922E-08
         8   7 -1.142116E-06  1.596372E-07 -2.486522E-07  1.008915E-06 -8.300412E-08  9.460919E-08
         8   8 -6.723717E-07  1.491452E-06 -1.634588E-08  5.164331E-07 -8.300412E-08  9.460921E-08
         9   1  6.193367E-14  6.193367E-14  1.445119E-13  1.250633E-33 -1.344741E-14 -7.511682E-15
         9   2  2.257046E-14  2.257046E-14  5.266441E-14  1.156815E-32 -3.096144E-14 -2.027068E-14
         9   3  3.994550E-14  3.994550E-14  9.320616E-14  8.084053E-34 -8.692364E-15 -7.511682E-15
         9   4  1.365704E-15 -1.614833E-14  2.070068E-14 -8.757018E-15 -1.488046E-13 -1.428689E-13
         9   5 -1.482348E-13 -4.284593E-13 -6.565652E-14 -1.401123E-13  1.986974E-14  4.202216E-14
         9   6  7.511257E-14  1.451687E-13  1.052065E-13  3.502807E-14  1.986974E-14  5.976822E-14
         9   7 -1.702229E-13 -4.504475E-13 -1.169623E-13 -1.401123E-13 -3.244034E-14 -2.803398E-14
         9   8 -2.482093E-13 -5.984900E-13 -2.288743E-13 -1.751404E-13  7.264387E-14  9.479629E-14

 strains (elem, integ.pnt.,exx,eyy,ezz,exy,exz,eyz) forset EALL and time  0.3097813E+00

         1   1  1.177817E-13  1.177817E-13 -1.009557E-13  1.845150E-21 -2.749732E-22 -2.749732E-22
         1   2  1.177817E-13  1.177817E-13 -1.009557E-13  4.365671E-21 -8.365093E-22 -2.749732E-22
         1   3  1.177817E-13  1.177817E-13 -1.009557E-13  4.365671E-21 -2.749732E-22 -8.365093E-22
         1   4  1.177817E-13  1.177817E-13 -1.009557E-13  6.886192E-21 -8.365092E-22 -8.365093E-22
         1   5  1.177817E-13  1.177817E-13 -1.009557E-13  1.845150E-21 -4.646777E-22 -4.646777E-22
         1   6  1.177817E-13  1.177817E-13 -1.009557E-13  4.365671E-21 -1.026214E-21 -4.646777E-22
         1   7  1.177817E-13  1.177817E-13 -1.009557E-13  4.365671E-21 -4.646777E-22 -1.026214E-21
         1   8  1.177817E-13  1.177817E-13 -1.009557E-13  6.886192E-21 -1.026214E-21 -1.026214E-21
         2   1 -3.034381E-12  1.044267E-11 -3.158985E-12  1.746851E-13 -1.999517E-14  2.788205E-21
         2   2 -3.034381E-12  1.023472E-11 -3.101856E-12  1.746852E-13 -1.999521E-14  2.038157E-21
         2   3 -3.034381E-12  1.044267E-11 -3.158985E-12  7.071070E-14 -1.999516E-14  4.878973E-20
         2   4 -3.034381E-12  1.023472E-11 -3.101856E-12  7.071078E-14 -1.999521E-14  4.746321E-20
         2   5 -3.034381E-12  1.044267E-11 -3.158985E-12  1.746851E-13  1.999508E-14 -3.559577E-20
         2   6 -3.034381E-12  1.023472E-11 -3.101856E-12  1.746852E-13  1.999504E-14 -3.781851E-20
         2   7 -3.034381E-12  1.044267E-11 -3.158985E-12  7.071071E-14  1.999508E-14  1.040576E-20
         2   8 -3.034381E-12  1.023472E-11 -3.101856E-12  7.071079E-14  1.999504E-14  7.606544E-21
         3   1  1.929343E-13  5.298359E-12 -1.416060E-12  2.995629E-12 -1.142802E-12  4.504586E-15
         3   2  1.929343E-13 -6.576164E-12  1.846171E-12  2.914974E-12 -1.140760E-12  4.504585E-15
         3   3  3.162268E-14  5.298359E-12 -1.390677E-12 -2.941632E-12 -1.142802E-12 -9.567000E-16
         3   4  3.162268E-14 -6.576164E-12  1.871554E-12 -3.022288E-12 -1.140760E-12 -9.567006E-16
         3   5  1.986540E-13  5.283068E-12 -1.416060E-12  2.995629E-12  1.140760E-12  2.227263E-14
         3   6  1.986540E-13 -6.591455E-12  1.846171E-12  2.914974E-12  1.142802E-12  2.227263E-14
         3   7  3.734236E-14  5.283068E-12 -1.390677E-12 -2.941632E-12  1.140760E-12  1.681134E-14
         3   8  3.734236E-14 -6.591455E-12  1.871554E-12 -3.022288E-12  1.142802E-12  1.681134E-14
         4   1  1.044267E-11 -3.034381E-12 -3.158985E-12  1.746851E-13  2.786173E-21 -1.999517E-14
         4   2  1.044267E-11 -3.034381E-12 -3.158985E-12  7.071070E-14  4.877945E-20 -1.999516E-14
         4   3  1.023472E-11 -3.034381E-12 -3.101856E-12  1.746852E-13  2.048921E-21 -1.999521E-14
         4   4  1.023472E-11 -3.034381E-12 -3.101856E-12  7.071078E-14  4.747272E-20 -1.999521E-14
         4   5  1.044267E-11 -3.034381E-12 -3.158985E-12  1.746851E-13 -3.559510E-20  1.999508E-14
         4   6  1.044267E-11 -3.034381E-12 -3.158985E-12  7.071071E-14  1.039818E-20  1.999508E-14
         4   7  1.023472E-11 -3.034381E-12 -3.101856E-12  1.746852E-13 -3.777708E-20  1.999504E-14
         4   8  1.023472E-11 -3.034381E-12 -3.101856E-12  7.071079E-14  7.646719E-21  1.999504E-14
         5   1  4.391916E-12  4.391916E-12 -4.670969E-12  6.174225E-13  5.665435E-13  5.665434E-13
         5   2  4.391916E-12  1.028397E-11 -6.289665E-12  3.563449E-12  5.665434E-13  5.665434E-13
         5   3  1.028397E-11  4.391916E-12 -6.289665E-12  3.563449E-12  5.665434E-13  5.665434E-13
         5   4  1.028397E-11  1.028397E-11 -7.908361E-12  6.509476E-12  5.665435E-13  5.665435E-13
         5   5  4.391915E-12  4.391916E-12 -4.670969E-12  6.174224E-13 -5.665436E-13 -5.665436E-13
         5   6  4.391915E-12  1.028397E-11 -6.289665E-12  3.563449E-12 -5.665437E-13 -5.665436E-13
         5   7  1.028397E-11  4.391916E-12 -6.289665E-12  3.563449E-12 -5.665436E-13 -5.665436E-13
         5   8  1.028397E-11  1.028397E-11 -7.908361E-12  6.509476E-12 -5.665437E-13 -5.665436E-13
         6   1  2.742026E-12  7.866307E-13 -1.454459E-12  3.578130E-12 -5.858799E-13  5.136022E-13
         6   2  2.742026E-12 -5.306522E-12  2.194836E-13  6.248862E-12 -5.858800E-13  5.136022E-13
         6   3  8.083491E-12  7.866307E-13 -2.921894E-12  5.315539E-13 -5.858799E-13  5.136024E-13
         6   4  8.083491E-12 -5.306522E-12 -1.247952E-12  3.202286E-12 -5.858799E-13  5.136022E-13
         6   5  2.742026E-12  7.866307E-13 -1.454459E-12  3.578130E-12  5.858801E-13 -5.136024E-13
         6   6  2.742026E-12 -5.306522E-12  2.194836E-13  6.248862E-12  5.858801E-13 -5.136024E-13
         6   7  8.083490E-12  7.866307E-13 -2.921894E-12  5.315541E-13  5.858801E-13 -5.136023E-13
         6   8  8.083490E-12 -5.306522E-12 -1.247952E-12  3.202286E-12  5.858801E-13 -5.136023E-13
         7   1  5.298359E-12  1.929343E-13 -1.416060E-12  2.995629E-12  4.504586E-15 -1.142802E-12
         7   2  5.298359E-12  3.162268E-14 -1.390677E-12 -2.941632E-12 -9.567000E-16 -1.142802E-12
         7   3 -6.576164E-12  1.929343E-13  1.846171E-12  2.914974E-12  4.504585E-15 -1.140760E-12
         7   4 -6.576164E-12  3.162268E-14  1.871554E-12 -3.022288E-12 -9.567006E-16 -1.140760E-12
         7   5  5.283068E-12  1.986540E-13 -1.416060E-12  2.995629E-12  2.227263E-14  1.140760E-12
         7   6  5.283068E-12  3.734236E-14 -1.390677E-12 -2.941632E-12  1.681134E-14  1.140760E-12
         7   7 -6.591455E-12  1.986540E-13  1.846171E-12  2.914974E-12  2.227263E-14  1.142802E-12
         7   8 -6.591455E-12  3.734236E-14  1.871554E-12 -3.022288E-12  1.681134E-14  1.142802E-12
         8   1  7.866306E-13  2.742026E-12 -1.454459E-12  3.578130E-12  5.136023E-13 -5.858799E-13
         8   2  7.866306E-13  8.083490E-12 -2.921894E-12  5.315540E-13  5.136023E-13 -5.858799E-13
         8   3 -5.306522E-12  2.742026E-12  2.194836E-13  6.248862E-12  5.136022E-13 -5.858800E-13
         8   4 -5.306522E-12  8.083490E-12 -1.247952E-12  3.202286E-12  5.136023E-13 -5.858798E-13
         8   5  7.866307E-13  2.742026E-12 -1.454459E-12  3.578130E-12 -5.136023E-13  5.858801E-13
         8   6  7.866307E-13  8.083491E-12 -2.921894E-12  5.315540E-13 -5.136023E-13  5.858802E-13
         8   7 -5.306522E-12  2.742026E-12  2.194836E-13  6.248862E-12 -5.136024E-13  5.858800E-13
         8   8 -5.306522E-12  8.083491E-12 -1.247952E-12  3.202286E-12 -5.136023E-13  5.858801E-13
         9   1  1.385974E-38  4.324665E-39  5.111985E-19  7.742012E-39 -8.324585E-20 -4.650089E-20
         9   2  1.385974E-38  5.824228E-40  1.862959E-19  2.841167E-39 -1.916661E-19 -1.254851E-19
         9   3  5.791005E-39  4.324665E-39  3.297088E-19  5.004414E-39 -5.380987E-20 -4.650089E-20
         9   4  5.791005E-39 -1.084202E-19  1.196927E-19 -5.421011E-20 -9.211716E-19 -8.844267E-19
         9   5  1.930413E-37 -1.734723E-18  5.111985E-19 -8.673617E-19  1.230031E-19  2.601372E-19
         9   6  1.930413E-37  4.336809E-19  1.862959E-19  2.168404E-19  1.230031E-19  3.699937E-19
         9   7  8.065830E-38 -1.734723E-18  3.297088E-19 -8.673617E-19 -2.008212E-19 -1.735437E-19
         9   8  8.065830E-38 -2.168404E-18  1.196927E-19 -1.084202E-18  4.497001E-19  5.868342E-19

 displacements (vx,vy,vz) for set NALL and time  0.3187813E+00

         1  0.000000E+00  0.000000E+00  0.000000E+00
         2  2.507584E-11  0.000000E+00  0.000000E+00
         3  1.316482E-03  0.000000E+00  0.000000E+00
         4  1.316481E-03  0.000000E+00  0.000000E+00
         5  1.225460E-03  0.000000E+00  0.000000E+00
         6  1.225460E-03  0.000000E+00  0.000000E+00
         7  0.000000E+00  2.507584E-11  0.000000E+00
         8  2.507585E-11  2.507585E-11  0.000000E+00
         9  1.316482E-03  3.306374E-09  0.000000E+00
        10  1.316481E-03  3.233296E-09  0.000000E+00
        11  1.225463E-03  3.088922E-09  0.000000E+00
        12  1.225463E-03 -3.329932E-09  0.000000E+00
        13  0.000000E+00  1.316482E-03  0.000000E+00
        14  3.306374E-09  1.316482E-03  0.000000E+00
        15  1.196665E-01  1.196665E-01  0.000000E+00
        16  1.196665E-01  1.196665E-01  0.000000E+00
        17  1.801174E-01  5.557367E-02  0.000000E+00
        18  1.801021E-01 -6.818616E-02  0.000000E+00
        19  0.000000E+00  1.316481E-03  0.000000E+00
        20  3.233296E-09  1.316481E-03  0.000000E+00
        21  1.196665E-01  1.196665E-01  0.000000E+00
        22  1.196665E-01  1.196665E-01  0.000000E+00
        23  3.038773E-01  5.555836E-02  0.000000E+00
        24  3.038619E-01 -6.820147E-02  0.000000E+00
        25  0.000000E+00  1.225460E-03  0.000000E+00
        26  3.088922E-09  1.225463E-03  0.000000E+00
        27  5.557367E-02  1.801174E-01  0.000000E+00
        28  5.555836E-02  3.038773E-01  0.000000E+00
        29 -9.563438E+00 -9.563438E+00  0.000000E+00
        30 -9.563438E+00 -9.563438E+00  0.000000E+00
        31  0.000000E+00  1.225460E-03  0.000000E+00
        32 -3.329932E-09  1.225463E-03  0.000000E+00
        33 -6.818616E-02  1.801021E-01  0.000000E+00
        34 -6.820147E-02  3.038619E-01  0.000000E+00
        35 -9.563438E+00 -9.563438E+00  0.000000E+00
        36 -9.563438E+00 -9.563438E+00  0.000000E+00
        37  0.000000E+00  0.000000E+00 -3.009101E-11
        38  2.507584E-11  0.000000E+00 -3.009101E-11
        39  1.316482E-03  0.000000E+00 -1.396488E-09
        40  1.316481E-03  0.000000E+00 -1.368381E-09
        41  1.225458E-03  0.000000E+00 -1.179853E-09
        42  1.225458E-03  0.000000E+00  1.288937E-09
        43  0.000000E+00  2.507584E-11 -3.009101E-11
        44  2.507584E-11  2.507584E-11 -3.009101E-11
        45  1.316482E-03  3.306374E-09 -1.396488E-09
        46  1.316481E-03  3.233296E-09 -1.368381E-09
        47  1.225461E-03  3.083695E-09 -1.167705E-09
        48  1.225461E-03 -3.335160E-09  1.301085E-09
        49  0.000000E+00  1.316482E-03 -1.396488E-09
        50  3.306374E-09  1.316482E-03 -1.396488E-09
        51  1.196665E-01  1.196665E-01 -1.543448E-09
        52  1.196665E-01  1.196665E-01 -2.771365E-09
        53  1.801174E-01  5.557368E-02 -6.833560E-10
        54  1.801021E-01 -6.818615E-02  5.722186E-10
        55  0.000000E+00  1.316481E-03 -1.368381E-09
        56  3.233296E-09  1.316481E-03 -1.368381E-09
        57  1.196665E-01  1.196665E-01 -2.771365E-09
        58  1.196665E-01  1.196665E-01 -3.999282E-09
        59  3.038773E-01  5.555836E-02 -1.841310E-09
        60  3.038619E-01 -6.820147E-02 -5.857350E-10
        61  0.000000E+00  1.225458E-03 -1.179853E-09
        62  3.083695E-09  1.225461E-03 -1.167705E-09
        63  5.557368E-02  1.801174E-01 -6.833560E-10
        64  5.555836E-02  3.038773E-01 -1.841310E-09
        65 -9.563438E+00 -9.563438E+00 -8.359016E-17
        66 -9.563438E+00 -9.563438E+00  1.794729E-16
        67  0.000000E+00  1.225458E-03  1.288937E-09
        68 -3.335160E-09  1.225461E-03  1.301085E-09
        69 -6.818615E-02  1.801021E-01  5.722186E-10
        70 -6.820147E-02  3.038619E-01 -5.857350E-10
        71 -9.563438E+00 -9.563438E+00  3.359640E-16
        72 -9.563438E+00 -9.563438E+00 -8.790848E-17

 stresses (elem, integ.pnt.,sxx,syy,szz,sxy,sxz,syz) for set EALL and time  0.3187813E+00

         1   1  1.504551E-08  1.504551E-08 -1.426198E-16  1.206572E-16 -1.789766E-17 -1.789767E-17
         1   2  1.504551E-08  1.504551E-08  7.458137E-17  2.854780E-16 -5.478297E-17 -1.789766E-17
         1   3  1.504551E-08  1.504551E-08  7.458137E-17  2.854780E-16 -1.789766E-17 -5.478297E-17
         1   4  1.504551E-08  1.504551E-08  2.917825E-16  4.502989E-16 -5.478297E-17 -5.478297E-17
         1   5  1.504551E-08  1.504551E-08 -2.975381E-16  1.206572E-16 -2.990969E-17 -2.990969E-17
         1   6  1.504551E-08  1.504551E-08 -8.033690E-17  2.854780E-16 -6.679499E-17 -2.990969E-17
         1   7  1.504551E-08  1.504551E-08 -8.033691E-17  2.854780E-16 -2.990969E-17 -6.679500E-17
         1   8  1.504551E-08  1.504551E-08  1.368643E-16  4.502989E-16 -6.679499E-17 -6.679499E-17
         2   1  1.070999E-08  1.385955E-06  1.834944E-09  1.145065E-08 -1.310691E-09  2.733225E-16
         2   2  3.295277E-09  1.364909E-06 -1.834946E-09  1.145066E-08 -1.310696E-09  2.245511E-16
         2   3  1.071001E-08  1.385955E-06  1.834947E-09  4.635100E-09 -1.310691E-09  4.879720E-15
         2   4  3.295301E-09  1.364909E-06 -1.834944E-09  4.635108E-09 -1.310696E-09  4.793801E-15
         2   5  1.070997E-08  1.385955E-06  1.834944E-09  1.145065E-08  1.310682E-09 -3.586344E-15
         2   6  3.295263E-09  1.364909E-06 -1.834947E-09  1.145066E-08  1.310678E-09 -3.731213E-15
         2   7  1.071000E-08  1.385955E-06  1.834946E-09  4.635100E-09  1.310682E-09  1.020054E-15
         2   8  3.295287E-09  1.364909E-06 -1.834944E-09  4.635108E-09  1.310678E-09  8.380368E-16
         3   1  3.272283E-07  8.744906E-07  1.638449E-07  3.013763E-07 -1.151901E-07  2.872331E-10
         3   2 -3.240500E-07 -9.740873E-07 -1.585051E-07  2.962333E-07 -1.150598E-07  2.872331E-10
         3   3  3.104418E-07  8.679900E-07  1.589628E-07 -2.972735E-07 -1.151901E-07 -6.100179E-11
         3   4 -3.408366E-07 -9.805879E-07 -1.633871E-07 -3.024165E-07 -1.150598E-07 -6.100184E-11
         3   5  3.271353E-07  8.730578E-07  1.633871E-07  3.013763E-07  1.150598E-07  1.420204E-09
         3   6 -3.241431E-07 -9.755202E-07 -1.589628E-07  2.962333E-07  1.151901E-07  1.420203E-09
         3   7  3.103487E-07  8.665572E-07  1.585051E-07 -2.972735E-07  1.150598E-07  1.071969E-09
         3   8 -3.409296E-07 -9.820207E-07 -1.638449E-07 -3.024165E-07  1.151901E-07  1.071969E-09
         4   1  1.385955E-06  1.070999E-08  1.834944E-09  1.145065E-08  2.748801E-16 -1.310691E-09
         4   2  1.385955E-06  1.071001E-08  1.834947E-09  4.635100E-09  4.881470E-15 -1.310691E-09
         4   3  1.364909E-06  3.295277E-09 -1.834946E-09  1.145066E-08  2.247932E-16 -1.310696E-09
         4   4  1.364909E-06  3.295301E-09 -1.834944E-09  4.635108E-09  4.792582E-15 -1.310696E-09
         4   5  1.385955E-06  1.070997E-08  1.834944E-09  1.145065E-08 -3.580722E-15  1.310682E-09
         4   6  1.385955E-06  1.071000E-08  1.834946E-09  4.635100E-09  1.025867E-15  1.310682E-09
         4   7  1.364909E-06  3.295263E-09 -1.834947E-09  1.145066E-08 -3.728849E-15  1.310678E-09
         4   8  1.364909E-06  3.295287E-09 -1.834944E-09  4.635108E-09  8.389400E-16  1.310678E-09
         5   1  7.639983E-07  7.639983E-07 -1.603291E-07  5.945393E-08  5.726038E-08  5.726038E-08
         5   2  1.087929E-06  1.683437E-06  1.644435E-15  3.572080E-07  5.726037E-08  5.726037E-08
         5   3  1.683437E-06  1.087929E-06 -5.486918E-15  3.572080E-07  5.726037E-08  5.726037E-08
         5   4  2.007367E-06  2.007367E-06  1.603291E-07  6.549620E-07  5.726038E-08  5.726038E-08
         5   5  7.639983E-07  7.639983E-07 -1.603291E-07  5.945393E-08 -5.726040E-08 -5.726040E-08
         5   6  1.087929E-06  1.683437E-06  1.440176E-15  3.572080E-07 -5.726040E-08 -5.726039E-08
         5   7  1.683437E-06  1.087929E-06 -1.381082E-15  3.572080E-07 -5.726040E-08 -5.726040E-08
         5   8  2.007367E-06  2.007367E-06  1.603291E-07  6.549620E-07 -5.726040E-08 -5.726040E-08
         6   1  4.226976E-07  2.612726E-07  6.373203E-09  3.573632E-07 -5.853675E-08  5.401234E-08
         6   2  9.161008E-08 -6.790142E-07 -1.575672E-07  6.380013E-07 -5.853675E-08  5.401233E-08
         6   3  1.289598E-06  5.668970E-07  1.575672E-07  5.276356E-08 -5.853674E-08  5.401235E-08
         6   4  9.585106E-07 -3.733899E-07 -6.373198E-09  3.334016E-07 -5.853675E-08  5.401234E-08
         6   5  4.226976E-07  2.612726E-07  6.373204E-09  3.573632E-07  5.853677E-08 -5.401235E-08
         6   6  9.161007E-08 -6.790142E-07 -1.575672E-07  6.380013E-07  5.853676E-08 -5.401235E-08
         6   7  1.289598E-06  5.668970E-07  1.575672E-07  5.276357E-08  5.853678E-08 -5.401234E-08
         6   8  9.585106E-07 -3.733899E-07 -6.373201E-09  3.334017E-07  5.853678E-08 -5.401235E-08
         7   1  8.744906E-07  3.272283E-07  1.638449E-07  3.013763E-07  2.872331E-10 -1.151901E-07
         7   2  8.679900E-07  3.104418E-07  1.589628E-07 -2.972735E-07 -6.100179E-11 -1.151901E-07
         7   3 -9.740873E-07 -3.240500E-07 -1.585051E-07  2.962333E-07  2.872331E-10 -1.150598E-07
         7   4 -9.805879E-07 -3.408366E-07 -1.633871E-07 -3.024165E-07 -6.100184E-11 -1.150598E-07
         7   5  8.730578E-07  3.271353E-07  1.633871E-07  3.013763E-07  1.420204E-09  1.150598E-07
         7   6  8.665572E-07  3.103487E-07  1.585051E-07 -2.972735E-07  1.071969E-09  1.150598E-07
         7   7 -9.755202E-07 -3.241431E-07 -1.589628E-07  2.962333E-07  1.420203E-09  1.151901E-07
         7   8 -9.820207E-07 -3.409296E-07 -1.638449E-07 -3.024165E-07  1.071969E-09  1.151901E-07
         8   1  2.612726E-07  4.226976E-07  6.373207E-09  3.573632E-07  5.401234E-08 -5.853675E-08
         8   2  5.668970E-07  1.289598E-06  1.575672E-07  5.276355E-08  5.401234E-08 -5.853674E-08
         8   3 -6.790142E-07  9.161010E-08 -1.575672E-07  6.380013E-07  5.401234E-08 -5.853676E-08
         8   4 -3.733899E-07  9.585106E-07 -6.373198E-09  3.334017E-07  5.401234E-08 -5.853676E-08
         8   5  2.612726E-07  4.226976E-07  6.373200E-09  3.573632E-07 -5.401235E-08  5.853677E-08
         8   6  5.668970E-07  1.289598E-06  1.575672E-07  5.276355E-08 -5.401234E-08  5.853678E-08
         8   7 -6.790142E-07  9.161007E-08 -1.575672E-07  6.380013E-07 -5.401235E-08  5.853676E-08
         8   8 -3.733899E-07  9.585106E-07 -6.373206E-09  3.334016E-07 -5.401235E-08  5.853676E-08
         9   1 -4.735213E-14 -1.174083E-13 -4.043216E-14 -3.502807E-14 -6.603150E-14 -6.068935E-14
         9   2  2.008683E-13  4.460648E-13  2.234961E-13  1.225982E-13  1.616510E-13  1.534543E-13
         9   3 -1.993367E-14 -8.998981E-14  2.354423E-14 -3.502807E-14  1.305981E-13  1.494791E-13
         9   4 -3.464812E-14 -8.719022E-14 -2.830350E-14 -2.627105E-14  2.551386E-14  3.085601E-14
         9   5 -4.151469E-13 -9.755960E-13 -4.082269E-13 -2.802246E-13 -1.601202E-13 -1.401830E-13
         9   6  1.697090E-14  1.697090E-14  3.959877E-14  7.578476E-31 -1.601202E-13 -1.907107E-13
         9   7  3.260843E-14  3.260843E-14  7.608634E-14  4.697899E-31  1.046048E-13  1.750696E-13
         9   8  1.098427E-13  2.499550E-13  1.161873E-13  7.005614E-14 -3.550751E-14 -1.557033E-14

 strains (elem, integ.pnt.,exx,eyy,ezz,exy,exz,eyz) forset EALL and time  0.3187813E+00

         1   1  5.015169E-14  5.015169E-14 -4.298716E-14  7.469256E-22 -1.107951E-22 -1.107951E-22
         1   2  5.015169E-14  5.015169E-14 -4.298716E-14  1.767245E-21 -3.391327E-22 -1.107951E-22
         1   3  5.015169E-14  5.015169E-14 -4.298716E-14  1.767245E-21 -1.107951E-22 -3.391327E-22
         1   4  5.015169E-14  5.015169E-14 -4.298716E-14  2.787564E-21 -3.391327E-22 -3.391327E-22
         1   5  5.015169E-14  5.015169E-14 -4.298716E-14  7.469256E-22 -1.851552E-22 -1.851552E-22
         1   6  5.015169E-14  5.015169E-14 -4.298716E-14  1.767245E-21 -4.134928E-22 -1.851552E-22
         1   7  5.015169E-14  5.015169E-14 -4.298716E-14  1.767245E-21 -1.851552E-22 -4.134928E-22
         1   8  5.015169E-14  5.015169E-14 -4.298716E-14  2.787564E-21 -4.134928E-22 -4.134928E-22
         2   1 -1.931556E-12  6.581862E-12 -1.986497E-12  7.088497E-14 -8.113802E-15  1.691995E-21
         2   2 -1.931556E-12  6.497479E-12 -1.963315E-12  7.088502E-14 -8.113831E-15  1.390077E-21
         2   3 -1.931556E-12  6.581862E-12 -1.986497E-12  2.869348E-14 -8.113801E-15  3.020779E-20
         2   4 -1.931556E-12  6.497479E-12 -1.963315E-12  2.869353E-14 -8.113830E-15  2.967591E-20
         2   5 -1.931557E-12  6.581862E-12 -1.986497E-12  7.088497E-14  8.113748E-15 -2.220118E-20
         2   6 -1.931557E-12  6.497479E-12 -1.963315E-12  7.088502E-14  8.113718E-15 -2.309799E-20
         2   7 -1.931556E-12  6.581862E-12 -1.986497E-12  2.869348E-14  8.113748E-15  6.314618E-21
         2   8 -1.931556E-12  6.497479E-12 -1.963315E-12  2.869353E-14  8.113718E-15  5.187846E-21
         3   1  7.489382E-14  3.462708E-12 -9.365277E-13  1.865663E-12 -7.130814E-13  1.778110E-15
         3   2  7.489382E-14 -3.949147E-12  1.099696E-12  1.833825E-12 -7.122751E-13  1.778110E-15
         3   3  1.121880E-14  3.462708E-12 -9.265083E-13 -1.840265E-12 -7.130814E-13 -3.776301E-16
         3   4  1.121880E-14 -3.949147E-12  1.109715E-12 -1.872102E-12 -7.122751E-13 -3.776304E-16
         3   5  7.715153E-14  3.456672E-12 -9.365277E-13  1.865663E-12  7.122752E-13  8.791736E-15
         3   6  7.715153E-14 -3.955183E-12  1.099696E-12  1.833825E-12  7.130815E-13  8.791736E-15
         3   7  1.347651E-14  3.456672E-12 -9.265083E-13 -1.840265E-12  7.122752E-13  6.635996E-15
         3   8  1.347651E-14 -3.955183E-12  1.109715E-12 -1.872102E-12  7.130815E-13  6.635996E-15
         4   1  6.581862E-12 -1.931556E-12 -1.986497E-12  7.088497E-14  1.701638E-21 -8.113801E-15
         4   2  6.581862E-12 -1.931556E-12 -1.986497E-12  2.869348E-14  3.021862E-20 -8.113801E-15
         4   3  6.497479E-12 -1.931556E-12 -1.963315E-12  7.088502E-14  1.391576E-21 -8.113831E-15
         4   4  6.497479E-12 -1.931556E-12 -1.963315E-12  2.869353E-14  2.966836E-20 -8.113830E-15
         4   5  6.581862E-12 -1.931557E-12 -1.986497E-12  7.088497E-14 -2.216638E-20  8.113748E-15
         4   6  6.581862E-12 -1.931556E-12 -1.986497E-12  2.869348E-14  6.350604E-21  8.113748E-15
         4   7  6.497479E-12 -1.931557E-12 -1.963315E-12  7.088502E-14 -2.308335E-20  8.113718E-15
         4   8  6.497479E-12 -1.931556E-12 -1.963315E-12  2.869353E-14  5.193438E-21  8.113718E-15
         5   1  2.775703E-12  2.775703E-12 -2.946324E-12  3.680481E-13  3.544690E-13  3.544690E-13
         5   2  2.775703E-12  6.462181E-12 -3.959093E-12  2.211287E-12  3.544690E-13  3.544690E-13
         5   3  6.462181E-12  2.775703E-12 -3.959093E-12  2.211287E-12  3.544690E-13  3.544690E-13
         5   4  6.462181E-12  6.462181E-12 -4.971862E-12  4.054527E-12  3.544690E-13  3.544690E-13
         5   5  2.775703E-12  2.775703E-12 -2.946324E-12  3.680481E-13 -3.544691E-13 -3.544691E-13
         5   6  2.775703E-12  6.462181E-12 -3.959093E-12  2.211287E-12 -3.544691E-13 -3.544691E-13
         5   7  6.462181E-12  2.775703E-12 -3.959093E-12  2.211287E-12 -3.544691E-13 -3.544691E-13
         5   8  6.462181E-12  6.462181E-12 -4.971862E-12  4.054527E-12 -3.544691E-13 -3.544691E-13
         6   1  1.629399E-12  6.322923E-13 -9.467518E-13  2.212496E-12 -3.624531E-13  3.342724E-13
         6   2  1.629399E-12 -3.137221E-12  8.882873E-14  3.950712E-12 -3.624531E-13  3.342724E-13
         6   3  5.105833E-12  6.322923E-13 -1.901816E-12  3.277389E-13 -3.624530E-13  3.342725E-13
         6   4  5.105833E-12 -3.137221E-12 -8.662353E-13  2.065956E-12 -3.624531E-13  3.342724E-13
         6   5  1.629399E-12  6.322924E-13 -9.467518E-13  2.212496E-12  3.624532E-13 -3.342725E-13
         6   6  1.629399E-12 -3.137221E-12  8.882873E-14  3.950712E-12  3.624532E-13 -3.342725E-13
         6   7  5.105833E-12  6.322924E-13 -1.901816E-12  3.277390E-13  3.624533E-13 -3.342724E-13
         6   8  5.105833E-12 -3.137221E-12 -8.662353E-13  2.065956E-12  3.624533E-13 -3.342725E-13
         7   1  3.462708E-12  7.489382E-14 -9.365277E-13  1.865663E-12  1.778110E-15 -7.130814E-13
         7   2  3.462708E-12  1.121880E-14 -9.265083E-13 -1.840265E-12 -3.776302E-16 -7.130814E-13
         7   3 -3.949147E-12  7.489382E-14  1.099696E-12  1.833825E-12  1.778110E-15 -7.122751E-13
         7   4 -3.949147E-12  1.121880E-14  1.109715E-12 -1.872102E-12 -3.776304E-16 -7.122751E-13
         7   5  3.456672E-12  7.715153E-14 -9.365277E-13  1.865663E-12  8.791736E-15  7.122752E-13
         7   6  3.456672E-12  1.347651E-14 -9.265083E-13 -1.840265E-12  6.635996E-15  7.122752E-13
         7   7 -3.955183E-12  7.715153E-14  1.099696E-12  1.833825E-12  8.791736E-15  7.130815E-13
         7   8 -3.955183E-12  1.347651E-14  1.109715E-12 -1.872102E-12  6.635996E-15  7.130815E-13
         8   1  6.322923E-13  1.629399E-12 -9.467518E-13  2.212496E-12  3.342724E-13 -3.624531E-13
         8   2  6.322923E-13  5.105833E-12 -1.901816E-12  3.277388E-13  3.342724E-13 -3.624530E-13
         8   3 -3.137221E-12  1.629399E-12  8.882873E-14  3.950712E-12  3.342724E-13 -3.624532E-13
         8   4 -3.137221E-12  5.105833E-12 -8.662353E-13  2.065956E-12  3.342724E-13 -3.624531E-13
         8   5  6.322923E-13  1.629399E-12 -9.467518E-13  2.212496E-12 -3.342724E-13  3.624532E-13
         8   6  6.322923E-13  5.105833E-12 -1.901816E-12  3.277388E-13 -3.342724E-13  3.624533E-13
         8   7 -3.137221E-12  1.629399E-12  8.882873E-14  3.950712E-12 -3.342725E-13  3.624532E-13
         8   8 -3.137221E-12  5.105833E-12 -8.662353E-13  2.065955E-12 -3.342725E-13  3.624532E-13
         9   1  1.241460E-39 -4.336809E-19  4.283789E-20 -2.168404E-19 -4.087664E-19 -3.756960E-19
         9   2  1.241460E-39  1.517883E-18  1.400773E-19  7.589415E-19  1.000696E-18  9.499549E-19
         9   3  6.937828E-39 -4.336809E-19  2.691490E-19 -2.168404E-19  8.084642E-19  9.253467E-19
         9   4  6.937828E-39 -3.252607E-19  3.927620E-20 -1.626303E-19  1.579429E-19  1.910134E-19
         9   5  1.729131E-38 -3.469447E-18  4.283789E-20 -1.734723E-18 -9.912202E-19 -8.677995E-19
         9   6  1.729131E-38  1.858121E-38  1.400773E-19 -1.792466E-38 -9.912202E-19 -1.180590E-18
         9   7  9.663148E-38  9.366023E-38  2.691490E-19 -9.513425E-38  6.475533E-19  1.083764E-18
         9   8  9.663148E-38  8.673617E-19  3.927620E-20  4.336809E-19 -2.198084E-19 -9.638778E-20

 displacements (vx,vy,vz) for set NALL and time  0.3277813E+00

         1  0.000000E+00  0.000000E+00  0.000000E+00
         2  4.052261E-12  0.000000E+00  0.000000E+00
         3  2.127437E-04  0.000000E+00  0.000000E+00
         4  2.127433E-04  0.000000E+00  0.000000E+00
         5  2.075670E-04  0.000000E+00  0.000000E+00
         6  2.075670E-04  0.000000E+00  0.000000E+00
         7  0.000000E+00  4.052261E-12  0.000000E+00
         8  4.052261E-12  4.052261E-12  0.000000E+00
         9  2.127437E-04  1.282404E-09  0.000000E+00
        10  2.127433E-04  1.271090E-09  0.000000E+00
        11  2.075682E-04  1.215139E-09  0.000000E+00
        12  2.075682E-04 -1.250058E-09  0.000000E+00
        13  0.000000E+00  2.127437E-04  0.000000E+00
        14  1.282404E-09  2.127437E-04  0.000000E+00
        15  4.684387E-02  4.684387E-02  0.000000E+00
        16  4.684387E-02  4.684387E-02  0.000000E+00
        17  7.035369E-02  2.281615E-02  0.000000E+00
        18  7.035143E-02 -2.467193E-02  0.000000E+00
        19  0.000000E+00  2.127433E-04  0.000000E+00
        20  1.271090E-09  2.127433E-04  0.000000E+00
        21  4.684387E-02  4.684387E-02  0.000000E+00
        22  4.684387E-02  4.684387E-02  0.000000E+00
        23  1.178418E-01  2.281389E-02  0.000000E+00
        24  1.178395E-01 -2.467418E-02  0.000000E+00
        25  0.000000E+00  2.075670E-04  0.000000E+00
        26  1.215139E-09  2.075682E-04  0.000000E+00
        27  2.281615E-02  7.035369E-02  0.000000E+00
        28  2.281389E-02  1.178418E-01  0.000000E+00
        29 -9.833438E+00 -9.833438E+00  0.000000E+00
        30 -9.833438E+00 -9.833438E+00  0.000000E+00
        31  0.000000E+00  2.075670E-04  0.000000E+00
        32 -1.250058E-09  2.075682E-04  0.000000E+00
        33 -2.467193E-02  7.035143E-02  0.000000E+00
        34 -2.467418E-02  1.178395E-01  0.000000E+00
        35 -9.833438E+00 -9.833438E+00  0.000000E+00
        36 -9.833438E+00 -9.833438E+00  0.000000E+00
        37  0.000000E+00  0.000000E+00 -4.862713E-12
        38  4.052261E-12  0.000000E+00 -4.862713E-12
        39  2.127437E-04  0.000000E+00 -5.399515E-10
        40  2.127433E-04  0.000000E+00 -5.355997E-10
        41  2.075663E-04  0.000000E+00 -4.662159E-10
        42  2.075663E-04  0.000000E+00  4.819369E-10
        43  0.000000E+00  4.052261E-12 -4.862713E-12
        44  4.052261E-12  4.052261E-12 -4.862713E-12
        45  2.127437E-04  1.282404E-09 -5.399515E-10
        46  2.127433E-04  1.271090E-09 -5.355997E-10
        47  2.075676E-04  1.214353E-09 -4.643893E-10
        48  2.075676E-04 -1.250844E-09  4.837634E-10
        49  0.000000E+00  2.127437E-04 -5.399515E-10
        50  1.282404E-09  2.127437E-04 -5.399515E-10
        51  4.684387E-02  4.684387E-02 -6.032945E-10
        52  4.684387E-02  4.684387E-02 -1.076314E-09
        53  7.035369E-02  2.281615E-02 -2.679635E-10
        54  7.035143E-02 -2.467193E-02  2.093674E-10
        55  0.000000E+00  2.127433E-04 -5.355997E-10
        56  1.271090E-09  2.127433E-04 -5.355997E-10
        57  4.684387E-02  4.684387E-02 -1.076314E-09
        58  4.684388E-02  4.684388E-02 -1.549334E-09
        59  1.178418E-01  2.281389E-02 -7.308375E-10
        60  1.178395E-01 -2.467418E-02 -2.535066E-10
        61  0.000000E+00  2.075663E-04 -4.662159E-10
        62  1.214353E-09  2.075676E-04 -4.643893E-10
        63  2.281615E-02  7.035369E-02 -2.679635E-10
        64  2.281389E-02  1.178418E-01 -7.308375E-10
        65 -9.833438E+00 -9.833438E+00 -2.004173E-16
        66 -9.833438E+00 -9.833438E+00  6.386236E-17
        67  0.000000E+00  2.075663E-04  4.819369E-10
        68 -1.250844E-09  2.075676E-04  4.837634E-10
        69 -2.467193E-02  7.035143E-02  2.093674E-10
        70 -2.467418E-02  1.178395E-01 -2.535066E-10
        71 -9.833438E+00 -9.833438E+00  1.421079E-16
        72 -9.833438E+00 -9.833438E+00 -1.678112E-16

 stresses (elem, integ.pnt.,sxx,syy,szz,sxy,sxz,syz) for set EALL and time  0.3277813E+00

         1   1  2.431356E-09  2.431356E-09 -2.178971E-17  1.860362E-17 -2.756296E-18 -2.756296E-18
         1   2  2.431356E-09  2.431356E-09  1.196602E-17  4.401664E-17 -8.541117E-18 -2.756296E-18
         1   3  2.431356E-09  2.431356E-09  1.196602E-17  4.401664E-17 -2.756296E-18 -8.541117E-18
         1   4  2.431357E-09  2.431357E-09  4.572175E-17  6.942965E-17 -8.541117E-18 -8.541117E-18
         1   5  2.431356E-09  2.431356E-09 -4.608596E-17  1.860362E-17 -4.501814E-18 -4.501814E-18
         1   6  2.431356E-09  2.431356E-09 -1.233023E-17  4.401664E-17 -1.028664E-17 -4.501814E-18
         1   7  2.431356E-09  2.431356E-09 -1.233023E-17  4.401664E-17 -4.501814E-18 -1.028664E-17
         1   8  2.431356E-09  2.431356E-09  2.142550E-17  6.942965E-17 -1.028664E-17 -1.028664E-17
         2   1  1.760099E-09  5.382187E-07  2.840975E-10  1.772875E-09 -2.029333E-10  1.020727E-16
         2   2  6.120989E-10  5.349603E-07 -2.840982E-10  1.772878E-09 -2.029351E-10  9.495350E-17
         2   3  1.760108E-09  5.382187E-07  2.840984E-10  7.176396E-10 -2.029333E-10  1.858583E-15
         2   4  6.121081E-10  5.349603E-07 -2.840973E-10  7.176427E-10 -2.029351E-10  1.845159E-15
         2   5  1.760094E-09  5.382187E-07  2.840973E-10  1.772875E-09  2.029299E-10 -1.375570E-15
         2   6  6.120937E-10  5.349603E-07 -2.840984E-10  1.772878E-09  2.029280E-10 -1.395834E-15
         2   7  1.760103E-09  5.382188E-07  2.840982E-10  7.176396E-10  2.029299E-10  3.809405E-16
         2   8  6.121028E-10  5.349603E-07 -2.840975E-10  7.176427E-10  2.029280E-10  3.543713E-16
         3   1  1.253511E-07  3.477825E-07  6.230159E-08  1.153145E-07 -4.422418E-08  4.318770E-11
         3   2 -1.247760E-07 -3.621744E-07 -6.149871E-08  1.145412E-07 -4.420460E-08  4.318770E-11
         3   3  1.228272E-07  3.468050E-07  6.156754E-08 -1.146004E-07 -4.422418E-08 -9.170948E-12
         3   4 -1.273000E-07 -3.631518E-07 -6.223277E-08 -1.153736E-07 -4.420460E-08 -9.170955E-12
         3   5  1.253371E-07  3.475670E-07  6.223277E-08  1.153145E-07  4.420460E-08  2.135373E-10
         3   6 -1.247900E-07 -3.623898E-07 -6.156754E-08  1.145412E-07  4.422418E-08  2.135373E-10
         3   7  1.228132E-07  3.465896E-07  6.149871E-08 -1.146004E-07  4.420460E-08  1.611787E-10
         3   8 -1.273140E-07 -3.633672E-07 -6.230159E-08 -1.153736E-07  4.422418E-08  1.611787E-10
         4   1  5.382187E-07  1.760099E-09  2.840974E-10  1.772875E-09  1.018450E-16 -2.029333E-10
         4   2  5.382187E-07  1.760108E-09  2.840984E-10  7.176396E-10  1.858256E-15 -2.029333E-10
         4   3  5.349603E-07  6.120989E-10 -2.840982E-10  1.772878E-09  9.511408E-17 -2.029351E-10
         4   4  5.349603E-07  6.121081E-10 -2.840973E-10  7.176427E-10  1.845148E-15 -2.029351E-10
         4   5  5.382187E-07  1.760094E-09  2.840973E-10  1.772875E-09 -1.376320E-15  2.029299E-10
         4   6  5.382188E-07  1.760103E-09  2.840982E-10  7.176396E-10  3.800909E-16  2.029299E-10
         4   7  5.349603E-07  6.120936E-10 -2.840984E-10  1.772878E-09 -1.395064E-15  2.029280E-10
         4   8  5.349603E-07  6.121028E-10 -2.840975E-10  7.176427E-10  3.549706E-16  2.029280E-10
         5   1  2.986711E-07  2.986711E-07 -6.176221E-08  2.157806E-08  2.205792E-08  2.205792E-08
         5   2  4.234560E-07  6.528584E-07  2.637537E-15  1.362793E-07  2.205792E-08  2.205792E-08
         5   3  6.528584E-07  4.234560E-07  3.750175E-15  1.362793E-07  2.205792E-08  2.205792E-08
         5   4  7.776433E-07  7.776433E-07  6.176222E-08  2.509805E-07  2.205792E-08  2.205792E-08
         5   5  2.986711E-07  2.986711E-07 -6.176221E-08  2.157806E-08 -2.205793E-08 -2.205793E-08
         5   6  4.234560E-07  6.528584E-07 -1.159305E-15  1.362793E-07 -2.205793E-08 -2.205793E-08
         5   7  6.528584E-07  4.234560E-07 -7.650160E-16  1.362793E-07 -2.205793E-08 -2.205793E-08
         5   8  7.776433E-07  7.776433E-07  6.176221E-08  2.509805E-07 -2.205793E-08 -2.205793E-08
         6   1  1.585289E-07  1.095256E-07  9.438285E-10  1.361958E-07 -2.225691E-08  2.158692E-08
         6   2  3.262807E-08 -2.479111E-07 -6.138128E-08  2.484147E-07 -2.225691E-08  2.158691E-08
         6   3  5.050972E-07  2.316559E-07  6.138128E-08  2.042783E-08 -2.225690E-08  2.158692E-08
         6   4  3.791964E-07 -1.257808E-07 -9.438283E-10  1.326468E-07 -2.225690E-08  2.158691E-08
         6   5  1.585289E-07  1.095256E-07  9.438265E-10  1.361958E-07  2.225692E-08 -2.158692E-08
         6   6  3.262807E-08 -2.479111E-07 -6.138128E-08  2.484147E-07  2.225691E-08 -2.158692E-08
         6   7  5.050972E-07  2.316559E-07  6.138128E-08  2.042783E-08  2.225692E-08 -2.158691E-08
         6   8  3.791964E-07 -1.257807E-07 -9.438258E-10  1.326468E-07  2.225692E-08 -2.158692E-08
         7   1  3.477825E-07  1.253511E-07  6.230159E-08  1.153145E-07  4.318770E-11 -4.422418E-08
         7   2  3.468050E-07  1.228272E-07  6.156754E-08 -1.146004E-07 -9.170948E-12 -4.422418E-08
         7   3 -3.621744E-07 -1.247760E-07 -6.149871E-08  1.145412E-07  4.318769E-11 -4.420460E-08
         7   4 -3.631518E-07 -1.273000E-07 -6.223277E-08 -1.153736E-07 -9.170955E-12 -4.420460E-08
         7   5  3.475670E-07  1.253371E-07  6.223277E-08  1.153145E-07  2.135373E-10  4.420460E-08
         7   6  3.465896E-07  1.228132E-07  6.149871E-08 -1.146004E-07  1.611787E-10  4.420460E-08
         7   7 -3.623898E-07 -1.247900E-07 -6.156754E-08  1.145412E-07  2.135373E-10  4.422418E-08
         7   8 -3.633672E-07 -1.273140E-07 -6.230159E-08 -1.153736E-07  1.611787E-10  4.422418E-08
         8   1  1.095256E-07  1.585289E-07  9.438259E-10  1.361958E-07  2.158692E-08 -2.225691E-08
         8   2  2.316559E-07  5.050972E-07  6.138128E-08  2.042782E-08  2.158692E-08 -2.225690E-08
         8   3 -2.479111E-07  3.262807E-08 -6.138128E-08  2.484147E-07  2.158691E-08 -2.225691E-08
         8   4 -1.257808E-07  3.791964E-07 -9.438295E-10  1.326468E-07  2.158691E-08 -2.225691E-08
         8   5  1.095256E-07  1.585289E-07  9.438268E-10  1.361958E-07 -2.158692E-08  2.225692E-08
         8   6  2.316559E-07  5.050972E-07  6.138128E-08  2.042783E-08 -2.158692E-08  2.225692E-08
         8   7 -2.479111E-07  3.262807E-08 -6.138128E-08  2.484147E-07 -2.158692E-08  2.225691E-08
         8   8 -1.257808E-07  3.791963E-07 -9.438308E-10  1.326468E-07 -2.158692E-08  2.225691E-08
         9   1  3.561051E-14  1.056666E-13  1.303504E-14  3.502807E-14 -1.002048E-13 -9.753368E-14
         9   2  1.681134E-13  3.957958E-13  1.645821E-13  1.138412E-13 -1.790179E-13 -1.876638E-13
         9   3  5.771241E-14  1.277686E-13  6.460616E-14  3.502807E-14 -6.437459E-15  7.550535E-15
         9   4  1.570884E-13  3.847709E-13  1.388572E-13  1.138412E-13  6.361868E-14  6.628976E-14
         9   5 -4.372684E-13 -9.977176E-13 -4.598439E-13 -2.802246E-13 -5.184575E-14 -4.187716E-14
         9   6 -2.648458E-15 -2.648458E-15 -6.179736E-15  1.822145E-31 -6.935979E-14 -1.016265E-13
         9   7  5.170307E-15  5.170307E-15  1.206405E-14 -8.381878E-33 -2.402492E-14  2.817898E-14
         9   8  9.141081E-14  2.315231E-13  7.317960E-14  7.005614E-14  1.100315E-14  2.097174E-14

 strains (elem, integ.pnt.,exx,eyy,ezz,exy,exz,eyz) forset EALL and time  0.3277813E+00

         1   1  8.104521E-15  8.104521E-15 -6.946733E-15  1.151653E-22 -1.706278E-23 -1.706278E-23
         1   2  8.104521E-15  8.104522E-15 -6.946733E-15  2.724839E-22 -5.287358E-23 -1.706278E-23
         1   3  8.104522E-15  8.104521E-15 -6.946733E-15  2.724839E-22 -1.706278E-23 -5.287358E-23
         1   4  8.104522E-15  8.104522E-15 -6.946733E-15  4.298026E-22 -5.287358E-23 -5.287358E-23
         1   5  8.104521E-15  8.104521E-15 -6.946733E-15  1.151653E-22 -2.786837E-23 -2.786837E-23
         1   6  8.104521E-15  8.104522E-15 -6.946733E-15  2.724839E-22 -6.367917E-23 -2.786837E-23
         1   7  8.104522E-15  8.104521E-15 -6.946733E-15  2.724839E-22 -2.786837E-23 -6.367917E-23
         1   8  8.104522E-15  8.104522E-15 -6.946733E-15  4.298026E-22 -6.367917E-23 -6.367917E-23
         2   1 -7.609083E-13  2.560026E-12 -7.700455E-13  1.097494E-14 -1.256254E-15  6.318786E-22
         2   2 -7.609083E-13  2.546961E-12 -7.664562E-13  1.097496E-14 -1.256265E-15  5.878074E-22
         2   3 -7.609083E-13  2.560026E-12 -7.700455E-13  4.442531E-15 -1.256253E-15  1.150552E-20
         2   4 -7.609083E-13  2.546961E-12 -7.664562E-13  4.442550E-15 -1.256265E-15  1.142241E-20
         2   5 -7.609084E-13  2.560026E-12 -7.700455E-13  1.097494E-14  1.256232E-15 -8.515433E-21
         2   6 -7.609084E-13  2.546961E-12 -7.664562E-13  1.097496E-14  1.256221E-15 -8.640875E-21
         2   7 -7.609083E-13  2.560026E-12 -7.700455E-13  4.442531E-15  1.256232E-15  2.358203E-21
         2   8 -7.609083E-13  2.546961E-12 -7.664562E-13  4.442550E-15  1.256221E-15  2.193727E-21
         3   1  1.107581E-14  1.388032E-12 -3.792309E-13  7.138515E-13 -2.737687E-13  2.673524E-16
         3   2  1.107581E-14 -1.458533E-12  4.027924E-13  7.090646E-13 -2.736475E-13  2.673524E-16
         3   3  1.501823E-15  1.388032E-12 -3.777244E-13 -7.094308E-13 -2.737687E-13 -5.677254E-17
         3   4  1.501823E-15 -1.458533E-12  4.042988E-13 -7.142178E-13 -2.736475E-13 -5.677258E-17
         3   5  1.141526E-14  1.387124E-12 -3.792309E-13  7.138515E-13  2.736475E-13  1.321898E-15
         3   6  1.141526E-14 -1.459441E-12  4.027924E-13  7.090646E-13  2.737688E-13  1.321898E-15
         3   7  1.841268E-15  1.387124E-12 -3.777244E-13 -7.094308E-13  2.736475E-13  9.977728E-16
         3   8  1.841268E-15 -1.459441E-12  4.042988E-13 -7.142178E-13  2.737688E-13  9.977727E-16
         4   1  2.560026E-12 -7.609083E-13 -7.700455E-13  1.097494E-14  6.304692E-22 -1.256254E-15
         4   2  2.560026E-12 -7.609083E-13 -7.700455E-13  4.442531E-15  1.150349E-20 -1.256254E-15
         4   3  2.546961E-12 -7.609083E-13 -7.664562E-13  1.097496E-14  5.888014E-22 -1.256265E-15
         4   4  2.546961E-12 -7.609083E-13 -7.664562E-13  4.442550E-15  1.142235E-20 -1.256265E-15
         4   5  2.560026E-12 -7.609084E-13 -7.700455E-13  1.097494E-14 -8.520079E-21  1.256232E-15
         4   6  2.560026E-12 -7.609083E-13 -7.700455E-13  4.442531E-15  2.352943E-21  1.256232E-15
         4   7  2.546961E-12 -7.609084E-13 -7.664562E-13  1.097496E-14 -8.636108E-21  1.256221E-15
         4   8  2.546961E-12 -7.609083E-13 -7.664562E-13  4.442550E-15  2.197437E-21  1.256221E-15
         5   1  1.083802E-12  1.083802E-12 -1.147452E-12  1.335785E-13  1.365490E-13  1.365490E-13
         5   2  1.083802E-12  2.503913E-12 -1.537592E-12  8.436337E-13  1.365490E-13  1.365490E-13
         5   3  2.503913E-12  1.083802E-12 -1.537592E-12  8.436337E-13  1.365490E-13  1.365490E-13
         5   4  2.503913E-12  2.503913E-12 -1.927732E-12  1.553689E-12  1.365490E-13  1.365490E-13
         5   5  1.083802E-12  1.083802E-12 -1.147452E-12  1.335785E-13 -1.365491E-13 -1.365491E-13
         5   6  1.083802E-12  2.503913E-12 -1.537592E-12  8.436337E-13 -1.365491E-13 -1.365491E-13
         5   7  2.503913E-12  1.083802E-12 -1.537592E-12  8.436337E-13 -1.365491E-13 -1.365491E-13
         5   8  2.503913E-12  2.503913E-12 -1.927732E-12  1.553689E-12 -1.365491E-13 -1.365491E-13
         6   1  5.969258E-13  2.938925E-13 -3.784406E-13  8.431454E-13 -1.377935E-13  1.336202E-13
         6   2  5.969258E-13 -1.139161E-12  1.525531E-14  1.537970E-12 -1.377935E-13  1.336202E-13
         6   3  1.986576E-12  2.938925E-13 -7.602126E-13  1.266187E-13 -1.377935E-13  1.336202E-13
         6   4  1.986576E-12 -1.139161E-12 -3.665167E-13  8.214438E-13 -1.377935E-13  1.336202E-13
         6   5  5.969258E-13  2.938925E-13 -3.784406E-13  8.431454E-13  1.377936E-13 -1.336202E-13
         6   6  5.969258E-13 -1.139161E-12  1.525531E-14  1.537970E-12  1.377936E-13 -1.336202E-13
         6   7  1.986576E-12  2.938925E-13 -7.602126E-13  1.266188E-13  1.377936E-13 -1.336202E-13
         6   8  1.986576E-12 -1.139161E-12 -3.665167E-13  8.214438E-13  1.377936E-13 -1.336202E-13
         7   1  1.388032E-12  1.107581E-14 -3.792309E-13  7.138515E-13  2.673524E-16 -2.737687E-13
         7   2  1.388032E-12  1.501823E-15 -3.777244E-13 -7.094308E-13 -5.677254E-17 -2.737687E-13
         7   3 -1.458533E-12  1.107581E-14  4.027924E-13  7.090646E-13  2.673524E-16 -2.736475E-13
         7   4 -1.458533E-12  1.501823E-15  4.042988E-13 -7.142178E-13 -5.677258E-17 -2.736475E-13
         7   5  1.387124E-12  1.141526E-14 -3.792309E-13  7.138515E-13  1.321898E-15  2.736475E-13
         7   6  1.387124E-12  1.841268E-15 -3.777244E-13 -7.094308E-13  9.977728E-16  2.736475E-13
         7   7 -1.459441E-12  1.141526E-14  4.027924E-13  7.090646E-13  1.321898E-15  2.737688E-13
         7   8 -1.459441E-12  1.841268E-15  4.042988E-13 -7.142178E-13  9.977727E-16  2.737688E-13
         8   1  2.938925E-13  5.969258E-13 -3.784406E-13  8.431454E-13  1.336202E-13 -1.377935E-13
         8   2  2.938925E-13  1.986576E-12 -7.602126E-13  1.266187E-13  1.336202E-13 -1.377935E-13
         8   3 -1.139161E-12  5.969258E-13  1.525531E-14  1.537970E-12  1.336202E-13 -1.377936E-13
         8   4 -1.139161E-12  1.986576E-12 -3.665167E-13  8.214438E-13  1.336202E-13 -1.377935E-13
         8   5  2.938926E-13  5.969258E-13 -3.784406E-13  8.431454E-13 -1.336202E-13  1.377936E-13
         8   6  2.938926E-13  1.986576E-12 -7.602126E-13  1.266187E-13 -1.336202E-13  1.377936E-13
         8   7 -1.139161E-12  5.969258E-13  1.525531E-14  1.537970E-12 -1.336202E-13  1.377936E-13
         8   8 -1.139161E-12  1.986576E-12 -3.665167E-13  8.214438E-13 -1.336202E-13  1.377936E-13
         9   1  1.824826E-39  4.336809E-19 -1.397529E-19  2.168404E-19 -6.203151E-19 -6.037799E-19
         9   2  1.824826E-39  1.409463E-18 -2.186029E-20  7.047314E-19 -1.108206E-18 -1.161728E-18
         9   3  3.176194E-39  4.336809E-19  4.267555E-20  2.168404E-19 -3.985094E-20  4.674141E-20
         9   4  3.176194E-39  1.409463E-18 -1.128598E-19  7.047314E-19  3.938299E-19  4.103652E-19
         9   5  2.541655E-38 -3.469447E-18 -1.397529E-19 -1.734723E-18 -3.209499E-19 -2.592396E-19
         9   6  2.541655E-38  1.514336E-38 -2.186029E-20 -1.961866E-38 -4.293701E-19 -6.291165E-19
         9   7  4.423868E-38  6.085954E-38  4.267555E-20 -5.188782E-38 -1.487257E-19  1.744413E-19
         9   8  4.423868E-38  8.673617E-19 -1.128598E-19  4.336809E-19  6.811472E-20  1.298250E-19

 displacements (vx,vy,vz) for set NALL and time  0.3322813E+00

         1  0.000000E+00  0.000000E+00  0.000000E+00
         2  1.530889E-13  0.000000E+00  0.000000E+00
         3  8.037169E-06  0.000000E+00  0.000000E+00
         4  8.037095E-06  0.000000E+00  0.000000E+00
         5  8.001407E-06  0.000000E+00  0.000000E+00
         6  8.001407E-06  0.000000E+00  0.000000E+00
         7  0.000000E+00  1.530889E-13  0.000000E+00
         8  1.530889E-13  1.530889E-13  0.000000E+00
         9  8.037169E-06  2.449375E-10  0.000000E+00
        10  8.037096E-06  2.445183E-10  0.000000E+00
        11  8.001641E-06  2.334021E-10  0.000000E+00
        12  8.001641E-06 -2.346522E-10  0.000000E+00
        13  0.000000E+00  8.037169E-06  0.000000E+00
        14  2.449375E-10  8.037169E-06  0.000000E+00
        15  8.990923E-03  8.990923E-03  0.000000E+00
        16  8.990923E-03  8.990923E-03  0.000000E+00
        17  1.348952E-02  4.473971E-03  0.000000E+00
        18  1.348944E-02 -4.540975E-03  0.000000E+00
        19  0.000000E+00  8.037095E-06  0.000000E+00
        20  2.445183E-10  8.037096E-06  0.000000E+00
        21  8.990923E-03  8.990923E-03  0.000000E+00
        22  8.990924E-03  8.990924E-03  0.000000E+00
        23  2.250447E-02  4.473890E-03  0.000000E+00
        24  2.250438E-02 -4.541056E-03  0.000000E+00
        25  0.000000E+00  8.001406E-06  0.000000E+00
        26  2.334021E-10  8.001641E-06  0.000000E+00
        27  4.473971E-03  1.348952E-02  0.000000E+00
        28  4.473890E-03  2.250447E-02  0.000000E+00
        29 -9.968438E+00 -9.968438E+00  0.000000E+00
        30 -9.968438E+00 -9.968438E+00  0.000000E+00
        31  0.000000E+00  8.001407E-06  0.000000E+00
        32 -2.346522E-10  8.001641E-06  0.000000E+00
        33 -4.540975E-03  1.348944E-02  0.000000E+00
        34 -4.541056E-03  2.250438E-02  0.000000E+00
        35 -9.968438E+00 -9.968438E+00  0.000000E+00
        36 -9.968438E+00 -9.968438E+00  0.000000E+00
        37  0.000000E+00  0.000000E+00 -1.837067E-13
        38  1.530889E-13  0.000000E+00 -1.837067E-13
        39  8.037168E-06  0.000000E+00 -1.029258E-10
        40  8.037095E-06  0.000000E+00 -1.027645E-10
        41  8.001280E-06  0.000000E+00 -8.972983E-11
        42  8.001281E-06  0.000000E+00  9.029109E-11
        43  0.000000E+00  1.530889E-13 -1.837067E-13
        44  1.530889E-13  1.530889E-13 -1.837067E-13
        45  8.037169E-06  2.449375E-10 -1.029258E-10
        46  8.037096E-06  2.445183E-10 -1.027645E-10
        47  8.001515E-06  2.333735E-10 -8.966319E-11
        48  8.001515E-06 -2.346809E-10  9.035772E-11
        49  0.000000E+00  8.037168E-06 -1.029258E-10
        50  2.449375E-10  8.037169E-06 -1.029258E-10
        51  8.990923E-03  8.990923E-03 -1.157440E-10
        52  8.990923E-03  8.990923E-03 -2.057143E-10
        53  1.348952E-02  4.473971E-03 -5.139331E-11
        54  1.348944E-02 -4.540975E-03  3.873671E-11
        55  0.000000E+00  8.037095E-06 -1.027645E-10
        56  2.445183E-10  8.037096E-06 -1.027645E-10
        57  8.990923E-03  8.990923E-03 -2.057143E-10
        58  8.990924E-03  8.990924E-03 -2.956847E-10
        59  2.250447E-02  4.473890E-03 -1.410005E-10
        60  2.250438E-02 -4.541056E-03 -5.087042E-11
        61  0.000000E+00  8.001280E-06 -8.972983E-11
        62  2.333735E-10  8.001515E-06 -8.966319E-11
        63  4.473971E-03  1.348952E-02 -5.139331E-11
        64  4.473890E-03  2.250447E-02 -1.410005E-10
        65 -9.968438E+00 -9.968438E+00  4.117314E-16
        66 -9.968438E+00 -9.968438E+00  1.414341E-16
        67  0.000000E+00  8.001281E-06  9.029109E-11
        68 -2.346809E-10  8.001515E-06  9.035772E-11
        69 -4.540975E-03  1.348944E-02  3.873671E-11
        70 -4.541056E-03  2.250438E-02 -5.087043E-11
        71 -9.968438E+00 -9.968438E+00  8.057642E-17
        72 -9.968438E+00 -9.968438E+00  2.607386E-16

 stresses (elem, integ.pnt.,sxx,syy,szz,sxy,sxz,syz) for set EALL and time  0.3322813E+00

         1   1  9.185335E-11  9.185335E-11 -8.372654E-19  7.115189E-19 -1.035470E-19 -1.035470E-19
         1   2  9.185335E-11  9.185336E-11  4.462705E-19  1.683472E-18 -3.166855E-19 -1.035470E-19
         1   3  9.185336E-11  9.185335E-11  4.462705E-19  1.683472E-18 -1.035470E-19 -3.166855E-19
         1   4  9.185336E-11  9.185336E-11  1.729806E-18  2.655425E-18 -3.166855E-19 -3.166854E-19
         1   5  9.185335E-11  9.185335E-11 -1.732447E-18  7.115189E-19 -1.733044E-19 -1.733044E-19
         1   6  9.185335E-11  9.185336E-11 -4.489108E-19  1.683472E-18 -3.864428E-19 -1.733044E-19
         1   7  9.185336E-11  9.185335E-11 -4.489108E-19  1.683472E-18 -1.733044E-19 -3.864428E-19
         1   8  9.185336E-11  9.185336E-11  8.346251E-19  2.655425E-18 -3.864428E-19 -3.864428E-19
         2   1  6.698656E-11  1.028598E-07  1.052386E-11  6.567657E-11 -7.518293E-12  1.913486E-17
         2   2  2.445881E-11  1.027391E-07 -1.052400E-11  6.567715E-11 -7.518639E-12  1.888747E-17
         2   3  6.698829E-11  1.028598E-07  1.052403E-11  2.658479E-11 -7.518292E-12  3.512688E-16
         2   4  2.446054E-11  1.027391E-07 -1.052383E-11  2.658537E-11 -7.518639E-12  3.508148E-16
         2   5  6.698556E-11  1.028598E-07  1.052383E-11  6.567657E-11  7.517633E-12 -2.607216E-16
         2   6  2.445781E-11  1.027391E-07 -1.052403E-11  6.567715E-11  7.517287E-12 -2.614384E-16
         2   7  6.698729E-11  1.028598E-07  1.052400E-11  2.658479E-11  7.517633E-12  7.141226E-17
         2   8  2.445954E-11  1.027391E-07 -1.052386E-11  2.658537E-11  7.517287E-12  7.048902E-17
         3   1  2.375655E-08  6.714067E-08  1.176731E-08  2.184028E-08 -8.395117E-09  1.575559E-12
         3   2 -2.373381E-08 -6.765519E-08 -1.173802E-08  2.181207E-08 -8.394402E-09  1.575559E-12
         3   3  2.366447E-08  6.710501E-08  1.174053E-08 -2.181248E-08 -8.395117E-09 -3.342846E-13
         3   4 -2.382589E-08 -6.769085E-08 -1.176480E-08 -2.184069E-08 -8.394402E-09 -3.342846E-13
         3   5  2.375603E-08  6.713281E-08  1.176480E-08  2.184028E-08  8.394403E-09  7.789908E-12
         3   6 -2.373432E-08 -6.766305E-08 -1.174053E-08  2.181207E-08  8.395118E-09  7.789908E-12
         3   7  2.366396E-08  6.709716E-08  1.173802E-08 -2.181248E-08  8.394403E-09  5.880065E-12
         3   8 -2.382640E-08 -6.769871E-08 -1.176731E-08 -2.184069E-08  8.395118E-09  5.880065E-12
         4   1  1.028598E-07  6.698656E-11  1.052386E-11  6.567657E-11  1.912457E-17 -7.518293E-12
         4   2  1.028598E-07  6.698830E-11  1.052403E-11  2.658479E-11  3.512706E-16 -7.518292E-12
         4   3  1.027391E-07  2.445881E-11 -1.052400E-11  6.567715E-11  1.887062E-17 -7.518640E-12
         4   4  1.027391E-07  2.446054E-11 -1.052383E-11  2.658537E-11  3.508133E-16 -7.518639E-12
         4   5  1.028598E-07  6.698556E-11  1.052383E-11  6.567657E-11 -2.607722E-16  7.517633E-12
         4   6  1.028598E-07  6.698730E-11  1.052400E-11  2.658479E-11  7.137387E-17  7.517633E-12
         4   7  1.027391E-07  2.445781E-11 -1.052403E-11  6.567715E-11 -2.615166E-16  7.517287E-12
         4   8  1.027391E-07  2.445954E-11 -1.052386E-11  2.658537E-11  7.042610E-17  7.517287E-12
         5   1  5.730591E-08  5.730591E-08 -1.174743E-08  3.963235E-09  4.195510E-09  4.195510E-09
         5   2  8.104052E-08  1.246738E-07  5.829748E-16  2.577989E-08  4.195510E-09  4.195510E-09
         5   3  1.246738E-07  8.104051E-08  1.770949E-16  2.577989E-08  4.195510E-09  4.195510E-09
         5   4  1.484084E-07  1.484084E-07  1.174743E-08  4.759655E-08  4.195510E-09  4.195510E-09
         5   5  5.730591E-08  5.730591E-08 -1.174743E-08  3.963235E-09 -4.195511E-09 -4.195511E-09
         5   6  8.104051E-08  1.246738E-07 -2.508180E-16  2.577989E-08 -4.195511E-09 -4.195511E-09
         5   7  1.246738E-07  8.104051E-08 -2.814242E-17  2.577989E-08 -4.195511E-09 -4.195512E-09
         5   8  1.484084E-07  1.484084E-07  1.174743E-08  4.759655E-08 -4.195511E-09 -4.195511E-09
         6   1  2.976336E-08  2.163325E-08  3.413812E-11  2.577493E-08 -4.202880E-09  4.178648E-09
         6   2  5.987416E-09 -4.585500E-08 -1.173414E-08  4.750272E-08 -4.202880E-09  4.178647E-09
         6   3  9.685850E-08  4.527282E-08  1.173414E-08  3.918778E-09 -4.202879E-09  4.178649E-09
         6   4  7.308256E-08 -2.221543E-08 -3.413863E-11  2.564657E-08 -4.202880E-09  4.178648E-09
         6   5  2.976336E-08  2.163325E-08  3.413848E-11  2.577493E-08  4.202881E-09 -4.178649E-09
         6   6  5.987416E-09 -4.585500E-08 -1.173414E-08  4.750272E-08  4.202881E-09 -4.178649E-09
         6   7  9.685850E-08  4.527282E-08  1.173414E-08  3.918779E-09  4.202881E-09 -4.178648E-09
         6   8  7.308256E-08 -2.221543E-08 -3.413821E-11  2.564657E-08  4.202881E-09 -4.178648E-09
         7   1  6.714067E-08  2.375655E-08  1.176731E-08  2.184028E-08  1.575559E-12 -8.395117E-09
         7   2  6.710501E-08  2.366447E-08  1.174053E-08 -2.181248E-08 -3.342848E-13 -8.395117E-09
         7   3 -6.765519E-08 -2.373381E-08 -1.173802E-08  2.181207E-08  1.575559E-12 -8.394402E-09
         7   4 -6.769085E-08 -2.382589E-08 -1.176480E-08 -2.184069E-08 -3.342848E-13 -8.394402E-09
         7   5  6.713281E-08  2.375603E-08  1.176480E-08  2.184028E-08  7.789908E-12  8.394403E-09
         7   6  6.709716E-08  2.366396E-08  1.173802E-08 -2.181248E-08  5.880065E-12  8.394403E-09
         7   7 -6.766305E-08 -2.373432E-08 -1.174053E-08  2.181207E-08  7.789908E-12  8.395118E-09
         7   8 -6.769871E-08 -2.382640E-08 -1.176731E-08 -2.184069E-08  5.880064E-12  8.395118E-09
         8   1  2.163325E-08  2.976336E-08  3.413751E-11  2.577493E-08  4.178648E-09 -4.202880E-09
         8   2  4.527282E-08  9.685851E-08  1.173414E-08  3.918778E-09  4.178648E-09 -4.202879E-09
         8   3 -4.585500E-08  5.987416E-09 -1.173414E-08  4.750272E-08  4.178648E-09 -4.202880E-09
         8   4 -2.221543E-08  7.308256E-08 -3.413795E-11  2.564657E-08  4.178648E-09 -4.202880E-09
         8   5  2.163325E-08  2.976336E-08  3.413794E-11  2.577493E-08 -4.178648E-09  4.202882E-09
         8   6  4.527282E-08  9.685851E-08  1.173414E-08  3.918778E-09 -4.178648E-09  4.202882E-09
         8   7 -4.585500E-08  5.987416E-09 -1.173414E-08  4.750272E-08 -4.178649E-09  4.202881E-09
         8   8 -2.221543E-08  7.308256E-08 -3.413757E-11  2.564657E-08 -4.178649E-09  4.202881E-09
         9   1  5.274455E-14  5.274455E-14  1.230706E-13  5.961352E-34 -5.977543E-15 -8.055046E-15
         9   2  1.534668E-13  3.110932E-13  2.004630E-13  7.881316E-14  8.159263E-14  8.839326E-14
         9   3  2.916584E-14  2.916584E-14  6.805363E-14  4.768813E-31  1.430129E-13  1.320572E-13
         9   4  1.427407E-13  2.828529E-13  1.929492E-13  7.005614E-14 -2.072678E-13 -2.093453E-13
         9   5 -1.574239E-13 -4.376484E-13 -8.709781E-14 -1.401123E-13 -5.733656E-14 -6.508991E-14
         9   6 -3.850897E-13 -9.455389E-13 -3.380936E-13 -2.802246E-13  1.178038E-13  1.431841E-13
         9   7 -1.810026E-13 -4.612271E-13 -1.421148E-13 -1.401123E-13  1.082515E-14 -3.006184E-14
         9   8 -6.742777E-14 -2.075400E-13 -1.721918E-14 -7.005614E-14 -9.425906E-14 -1.020124E-13

 strains (elem, integ.pnt.,exx,eyy,ezz,exy,exz,eyz) forset EALL and time  0.3322813E+00

         1   1  3.061778E-16  3.061778E-16 -2.624382E-16  4.404641E-24 -6.410055E-25 -6.410055E-25
         1   2  3.061778E-16  3.061779E-16 -2.624382E-16  1.042149E-23 -1.960434E-24 -6.410054E-25
         1   3  3.061779E-16  3.061778E-16 -2.624382E-16  1.042149E-23 -6.410055E-25 -1.960434E-24
         1   4  3.061779E-16  3.061779E-16 -2.624382E-16  1.643834E-23 -1.960434E-24 -1.960434E-24
         1   5  3.061778E-16  3.061778E-16 -2.624382E-16  4.404641E-24 -1.072837E-24 -1.072837E-24
         1   6  3.061778E-16  3.061779E-16 -2.624382E-16  1.042149E-23 -2.392265E-24 -1.072837E-24
         1   7  3.061779E-16  3.061778E-16 -2.624382E-16  1.042149E-23 -1.072837E-24 -2.392265E-24
         1   8  3.061779E-16  3.061779E-16 -2.624382E-16  1.643834E-23 -2.392265E-24 -2.392265E-24
         2   1 -1.466386E-13  4.896978E-13 -1.469881E-13  4.065692E-16 -4.654181E-17  1.184539E-22
         2   2 -1.466386E-13  4.892138E-13 -1.468552E-13  4.065728E-16 -4.654396E-17  1.169225E-22
         2   3 -1.466386E-13  4.896978E-13 -1.469881E-13  1.645725E-16 -4.654181E-17  2.174521E-21
         2   4 -1.466386E-13  4.892138E-13 -1.468552E-13  1.645761E-16 -4.654395E-17  2.171711E-21
         2   5 -1.466386E-13  4.896978E-13 -1.469881E-13  4.065693E-16  4.653773E-17 -1.613991E-21
         2   6 -1.466386E-13  4.892138E-13 -1.468552E-13  4.065729E-16  4.653558E-17 -1.618428E-21
         2   7 -1.466386E-13  4.896978E-13 -1.469881E-13  1.645725E-16  4.653773E-17  4.420759E-22
         2   8 -1.466386E-13  4.892138E-13 -1.468552E-13  1.645761E-16  4.653558E-17  4.363606E-22
         3   1  4.007190E-16  2.689691E-13 -7.381836E-14  1.352017E-13 -5.196977E-14  9.753458E-18
         3   2  4.007190E-16 -2.714935E-13  7.466039E-14  1.350271E-13 -5.196535E-14  9.753458E-18
         3   3  5.145327E-17  2.689691E-13 -7.376340E-14 -1.350296E-13 -5.196977E-14 -2.069381E-18
         3   4  5.145327E-17 -2.714935E-13  7.471535E-14 -1.352042E-13 -5.196535E-14 -2.069381E-18
         3   5  4.130975E-16  2.689360E-13 -7.381836E-14  1.352017E-13  5.196535E-14  4.822324E-17
         3   6  4.130975E-16 -2.715267E-13  7.466039E-14  1.350271E-13  5.196978E-14  4.822324E-17
         3   7  6.383181E-17  2.689360E-13 -7.376340E-14 -1.350296E-13  5.196535E-14  3.640040E-17
         3   8  6.383181E-17 -2.715267E-13  7.471535E-14 -1.352042E-13  5.196978E-14  3.640040E-17
         4   1  4.896978E-13 -1.466386E-13 -1.469881E-13  4.065692E-16  1.183902E-22 -4.654181E-17
         4   2  4.896978E-13 -1.466386E-13 -1.469881E-13  1.645725E-16  2.174532E-21 -4.654181E-17
         4   3  4.892138E-13 -1.466386E-13 -1.468552E-13  4.065729E-16  1.168181E-22 -4.654396E-17
         4   4  4.892138E-13 -1.466386E-13 -1.468552E-13  1.645761E-16  2.171702E-21 -4.654395E-17
         4   5  4.896978E-13 -1.466386E-13 -1.469881E-13  4.065693E-16 -1.614304E-21  4.653773E-17
         4   6  4.896978E-13 -1.466386E-13 -1.469881E-13  1.645725E-16  4.418382E-22  4.653773E-17
         4   7  4.892138E-13 -1.466386E-13 -1.468552E-13  4.065729E-16 -1.618912E-21  4.653558E-17
         4   8  4.892138E-13 -1.466386E-13 -1.468552E-13  1.645761E-16  4.359711E-22  4.653558E-17
         5   1  2.078017E-13  2.078017E-13 -2.196713E-13  2.453431E-14  2.597220E-14  2.597220E-14
         5   2  2.078017E-13  4.779127E-13 -2.938776E-13  1.595898E-13  2.597220E-14  2.597220E-14
         5   3  4.779127E-13  2.078017E-13 -2.938776E-13  1.595898E-13  2.597220E-14  2.597220E-14
         5   4  4.779127E-13  4.779127E-13 -3.680839E-13  2.946453E-13  2.597220E-14  2.597220E-14
         5   5  2.078017E-13  2.078017E-13 -2.196713E-13  2.453431E-14 -2.597221E-14 -2.597221E-14
         5   6  2.078017E-13  4.779127E-13 -2.938776E-13  1.595898E-13 -2.597221E-14 -2.597221E-14
         5   7  4.779127E-13  2.078017E-13 -2.938776E-13  1.595898E-13 -2.597221E-14 -2.597221E-14
         5   8  4.779127E-13  4.779127E-13 -3.680839E-13  2.946453E-13 -2.597221E-14 -2.597221E-14
         6   1  1.107711E-13  6.045338E-14 -7.326116E-14  1.595600E-13 -2.601829E-14  2.586735E-14
         6   2  1.107711E-13 -2.101369E-13  1.076830E-15  2.940703E-13 -2.601829E-14  2.586735E-14
         6   3  3.797916E-13  6.045338E-14 -1.471679E-13  2.426486E-14 -2.601829E-14  2.586736E-14
         6   4  3.797916E-13 -2.101369E-13 -7.282989E-14  1.587751E-13 -2.601829E-14  2.586735E-14
         6   5  1.107711E-13  6.045338E-14 -7.326116E-14  1.595600E-13  2.601830E-14 -2.586736E-14
         6   6  1.107711E-13 -2.101369E-13  1.076830E-15  2.940703E-13  2.601830E-14 -2.586736E-14
         6   7  3.797916E-13  6.045338E-14 -1.471679E-13  2.426487E-14  2.601830E-14 -2.586735E-14
         6   8  3.797916E-13 -2.101369E-13 -7.282989E-14  1.587751E-13  2.601830E-14 -2.586735E-14
         7   1  2.689691E-13  4.007190E-16 -7.381836E-14  1.352017E-13  9.753458E-18 -5.196977E-14
         7   2  2.689691E-13  5.145327E-17 -7.376340E-14 -1.350296E-13 -2.069382E-18 -5.196977E-14
         7   3 -2.714935E-13  4.007190E-16  7.466039E-14  1.350271E-13  9.753457E-18 -5.196535E-14
         7   4 -2.714935E-13  5.145327E-17  7.471535E-14 -1.352042E-13 -2.069382E-18 -5.196535E-14
         7   5  2.689360E-13  4.130975E-16 -7.381836E-14  1.352017E-13  4.822324E-17  5.196535E-14
         7   6  2.689360E-13  6.383181E-17 -7.376340E-14 -1.350296E-13  3.640040E-17  5.196535E-14
         7   7 -2.715267E-13  4.130975E-16  7.466039E-14  1.350271E-13  4.822324E-17  5.196978E-14
         7   8 -2.715267E-13  6.383181E-17  7.471535E-14 -1.352042E-13  3.640040E-17  5.196978E-14
         8   1  6.045338E-14  1.107711E-13 -7.326116E-14  1.595600E-13  2.586735E-14 -2.601829E-14
         8   2  6.045338E-14  3.797916E-13 -1.471679E-13  2.426486E-14  2.586735E-14 -2.601829E-14
         8   3 -2.101369E-13  1.107711E-13  1.076831E-15  2.940703E-13  2.586735E-14 -2.601830E-14
         8   4 -2.101369E-13  3.797916E-13 -7.282989E-14  1.587751E-13  2.586735E-14 -2.601829E-14
         8   5  6.045338E-14  1.107711E-13 -7.326116E-14  1.595600E-13 -2.586735E-14  2.601830E-14
         8   6  6.045338E-14  3.797916E-13 -1.471679E-13  2.426486E-14 -2.586735E-14  2.601831E-14
         8   7 -2.101369E-13  1.107711E-13  1.076831E-15  2.940703E-13 -2.586736E-14  2.601830E-14
         8   8 -2.101369E-13  3.797916E-13 -7.282989E-14  1.587751E-13 -2.586736E-14  2.601830E-14
         9   1  2.738568E-39  4.972951E-39  4.353518E-19  3.690361E-39 -3.700384E-20 -4.986457E-20
         9   2  2.738568E-39  9.757820E-19  2.909285E-19  4.878910E-19  5.050973E-19  5.471964E-19
         9   3  6.448389E-40  4.972951E-39  2.407339E-19 -1.790741E-39  8.853178E-19  8.174972E-19
         9   4  6.448389E-40  8.673617E-19  3.108151E-19  4.336809E-19 -1.283087E-18 -1.295947E-18
         9   5  3.814333E-38 -1.734723E-18  4.353518E-19 -8.673617E-19 -3.549406E-19 -4.029375E-19
         9   6  3.814333E-38 -3.469447E-18  2.909285E-19 -1.734723E-18  7.292615E-19  8.863777E-19
         9   7  8.981447E-39 -1.734723E-18  2.407339E-19 -8.673617E-19  6.701286E-20 -1.860971E-19
         9   8  8.981447E-39 -8.673617E-19  3.108151E-19 -4.336809E-19 -5.835084E-19 -6.315054E-19
