    1C
    1UUSER                                                              
    1UDATE              23.august.2016                                  
    1UTIME              11:04:51                                        
    1UHOST                                                              
    1UPGM               CalculiX                                        
    1UVERSION           Version 2.10                             
    1UCOMPILETIME       Sa 5. MÃ¤r 12:23:33 CET 2016                    
    1UDIR                                                               
    1UDBN                                                               
    1UMAT    1SI1                                                       
    1UMAT    2EL                                                        
    1UMAT    3SPRING                                                    
    2C                            72                                     1
 -1         1 0.00000E+00 0.00000E+00 0.00000E+00
 -1         2 5.00000E+02 0.00000E+00 0.00000E+00
 -1         3 5.10000E+02 0.00000E+00 0.00000E+00
 -1         4 1.01000E+03 0.00000E+00 0.00000E+00
 -1         5 1.02000E+03 0.00000E+00 0.00000E+00
 -1         6 1.52000E+03 0.00000E+00 0.00000E+00
 -1         7 0.00000E+00 5.00000E+02 0.00000E+00
 -1         8 5.00000E+02 5.00000E+02 0.00000E+00
 -1         9 5.10000E+02 5.00000E+02 0.00000E+00
 -1        10 1.01000E+03 5.00000E+02 0.00000E+00
 -1        11 1.02000E+03 5.00000E+02 0.00000E+00
 -1        12 1.52000E+03 5.00000E+02 0.00000E+00
 -1        13 0.00000E+00 5.10000E+02 0.00000E+00
 -1        14 5.00000E+02 5.10000E+02 0.00000E+00
 -1        15 5.10000E+02 5.10000E+02 0.00000E+00
 -1        16 1.01000E+03 5.10000E+02 0.00000E+00
 -1        17 1.02000E+03 5.10000E+02 0.00000E+00
 -1        18 1.52000E+03 5.10000E+02 0.00000E+00
 -1        19 0.00000E+00 1.01000E+03 0.00000E+00
 -1        20 5.00000E+02 1.01000E+03 0.00000E+00
 -1        21 5.10000E+02 1.01000E+03 0.00000E+00
 -1        22 1.01000E+03 1.01000E+03 0.00000E+00
 -1        23 1.02000E+03 1.01000E+03 0.00000E+00
 -1        24 1.52000E+03 1.01000E+03 0.00000E+00
 -1        25 0.00000E+00 1.02000E+03 0.00000E+00
 -1        26 5.00000E+02 1.02000E+03 0.00000E+00
 -1        27 5.10000E+02 1.02000E+03 0.00000E+00
 -1        28 1.01000E+03 1.02000E+03 0.00000E+00
 -1        29 1.02000E+03 1.02000E+03 0.00000E+00
 -1        30 1.52000E+03 1.02000E+03 0.00000E+00
 -1        31 0.00000E+00 1.52000E+03 0.00000E+00
 -1        32 5.00000E+02 1.52000E+03 0.00000E+00
 -1        33 5.10000E+02 1.52000E+03 0.00000E+00
 -1        34 1.01000E+03 1.52000E+03 0.00000E+00
 -1        35 1.02000E+03 1.52000E+03 0.00000E+00
 -1        36 1.52000E+03 1.52000E+03 0.00000E+00
 -1        37 0.00000E+00 0.00000E+00 7.00000E+02
 -1        38 5.00000E+02 0.00000E+00 7.00000E+02
 -1        39 5.10000E+02 0.00000E+00 7.00000E+02
 -1        40 1.01000E+03 0.00000E+00 7.00000E+02
 -1        41 1.02000E+03 0.00000E+00 7.00000E+02
 -1        42 1.52000E+03 0.00000E+00 7.00000E+02
 -1        43 0.00000E+00 5.00000E+02 7.00000E+02
 -1        44 5.00000E+02 5.00000E+02 7.00000E+02
 -1        45 5.10000E+02 5.00000E+02 7.00000E+02
 -1        46 1.01000E+03 5.00000E+02 7.00000E+02
 -1        47 1.02000E+03 5.00000E+02 7.00000E+02
 -1        48 1.52000E+03 5.00000E+02 7.00000E+02
 -1        49 0.00000E+00 5.10000E+02 7.00000E+02
 -1        50 5.00000E+02 5.10000E+02 7.00000E+02
 -1        51 5.10000E+02 5.10000E+02 7.00000E+02
 -1        52 1.01000E+03 5.10000E+02 7.00000E+02
 -1        53 1.02000E+03 5.10000E+02 7.00000E+02
 -1        54 1.52000E+03 5.10000E+02 7.00000E+02
 -1        55 0.00000E+00 1.01000E+03 7.00000E+02
 -1        56 5.00000E+02 1.01000E+03 7.00000E+02
 -1        57 5.10000E+02 1.01000E+03 7.00000E+02
 -1        58 1.01000E+03 1.01000E+03 7.00000E+02
 -1        59 1.02000E+03 1.01000E+03 7.00000E+02
 -1        60 1.52000E+03 1.01000E+03 7.00000E+02
 -1        61 0.00000E+00 1.02000E+03 7.00000E+02
 -1        62 5.00000E+02 1.02000E+03 7.00000E+02
 -1        63 5.10000E+02 1.02000E+03 7.00000E+02
 -1        64 1.01000E+03 1.02000E+03 7.00000E+02
 -1        65 1.02000E+03 1.02000E+03 7.00000E+02
 -1        66 1.52000E+03 1.02000E+03 7.00000E+02
 -1        67 0.00000E+00 1.52000E+03 7.00000E+02
 -1        68 5.00000E+02 1.52000E+03 7.00000E+02
 -1        69 5.10000E+02 1.52000E+03 7.00000E+02
 -1        70 1.01000E+03 1.52000E+03 7.00000E+02
 -1        71 1.02000E+03 1.52000E+03 7.00000E+02
 -1        72 1.52000E+03 1.52000E+03 7.00000E+02
 -3
    3C                            57                                     1
 -1         1    1    0    2
 -2         1         2         8         7        37        38        44        43
 -1         2    1    0    2
 -2         3         4        10         9        39        40        46        45
 -1         3    1    0    2
 -2         5         6        12        11        41        42        48        47
 -1         4    1    0    2
 -2        13        14        20        19        49        50        56        55
 -1         5    1    0    2
 -2        15        16        22        21        51        52        58        57
 -1         6    1    0    2
 -2        17        18        24        23        53        54        60        59
 -1         7    1    0    2
 -2        25        26        32        31        61        62        68        67
 -1         8    1    0    2
 -2        27        28        34        33        63        64        70        69
 -1         9    1    0    2
 -2        29        30        36        35        65        66        72        71
 -1        10   11    0    3
 -2         2         3
 -1        11   11    0    3
 -2         8         9
 -1        12   11    0    3
 -2        38        39
 -1        13   11    0    3
 -2        44        45
 -1        14   11    0    3
 -2         4         5
 -1        15   11    0    3
 -2        10        11
 -1        16   11    0    3
 -2        40        41
 -1        17   11    0    3
 -2        46        47
 -1        18   11    0    3
 -2        14        15
 -1        19   11    0    3
 -2        20        21
 -1        20   11    0    3
 -2        50        51
 -1        21   11    0    3
 -2        56        57
 -1        22   11    0    3
 -2        16        17
 -1        23   11    0    3
 -2        22        23
 -1        24   11    0    3
 -2        52        53
 -1        25   11    0    3
 -2        58        59
 -1        26   11    0    3
 -2        26        27
 -1        27   11    0    3
 -2        32        33
 -1        28   11    0    3
 -2        62        63
 -1        29   11    0    3
 -2        68        69
 -1        30   11    0    3
 -2        28        29
 -1        31   11    0    3
 -2        34        35
 -1        32   11    0    3
 -2        64        65
 -1        33   11    0    3
 -2        70        71
 -1        34   11    0    3
 -2         7        13
 -1        35   11    0    3
 -2         8        14
 -1        36   11    0    3
 -2        44        50
 -1        37   11    0    3
 -2        43        49
 -1        38   11    0    3
 -2         9        15
 -1        39   11    0    3
 -2        10        16
 -1        40   11    0    3
 -2        46        52
 -1        41   11    0    3
 -2        45        51
 -1        42   11    0    3
 -2        11        17
 -1        43   11    0    3
 -2        12        18
 -1        44   11    0    3
 -2        48        54
 -1        45   11    0    3
 -2        47        53
 -1        46   11    0    3
 -2        19        25
 -1        47   11    0    3
 -2        20        26
 -1        48   11    0    3
 -2        56        62
 -1        49   11    0    3
 -2        55        61
 -1        50   11    0    3
 -2        21        27
 -1        51   11    0    3
 -2        22        28
 -1        52   11    0    3
 -2        58        64
 -1        53   11    0    3
 -2        57        63
 -1        54   11    0    3
 -2        23        29
 -1        55   11    0    3
 -2        24        30
 -1        56   11    0    3
 -2        60        66
 -1        57   11    0    3
 -2        59        65
 -3
    1PSTEP                         1           1           1          
  100CL  101 1.00000E-03          72                     0    1           1
 -4  DISP        4    1
 -5  D1          1    2    1    0
 -5  D2          1    2    2    0
 -5  D3          1    2    3    0
 -5  ALL         1    2    0    0    1ALL
 -1         1 0.00000E+00 0.00000E+00 0.00000E+00
 -1         2-2.85714E-10 0.00000E+00 0.00000E+00
 -1         3-1.50000E-02 0.00000E+00 0.00000E+00
 -1         4-1.50000E-02 0.00000E+00 0.00000E+00
 -1         5-3.00000E-02 0.00000E+00 0.00000E+00
 -1         6-3.00000E-02 0.00000E+00 0.00000E+00
 -1         7 0.00000E+00-2.85714E-10 0.00000E+00
 -1         8-2.85714E-10-2.85714E-10 0.00000E+00
 -1         9-1.50000E-02-2.85714E-10 0.00000E+00
 -1        10-1.50000E-02-2.85714E-10 0.00000E+00
 -1        11-3.00000E-02-2.85714E-10 0.00000E+00
 -1        12-3.00000E-02-2.85714E-10 0.00000E+00
 -1        13 0.00000E+00-1.50000E-02 0.00000E+00
 -1        14-2.85714E-10-1.50000E-02 0.00000E+00
 -1        15-1.50000E-02-1.50000E-02 0.00000E+00
 -1        16-1.50000E-02-1.50000E-02 0.00000E+00
 -1        17-3.00000E-02-1.50000E-02 0.00000E+00
 -1        18-3.00000E-02-1.50000E-02 0.00000E+00
 -1        19 0.00000E+00-1.50000E-02 0.00000E+00
 -1        20-2.85714E-10-1.50000E-02 0.00000E+00
 -1        21-1.50000E-02-1.50000E-02 0.00000E+00
 -1        22-1.50000E-02-1.50000E-02 0.00000E+00
 -1        23-3.00000E-02-1.50000E-02 0.00000E+00
 -1        24-3.00000E-02-1.50000E-02 0.00000E+00
 -1        25 0.00000E+00-3.00000E-02 0.00000E+00
 -1        26-2.85714E-10-3.00000E-02 0.00000E+00
 -1        27-1.50000E-02-3.00000E-02 0.00000E+00
 -1        28-1.50000E-02-3.00000E-02 0.00000E+00
 -1        29-3.00000E-02-3.00000E-02 0.00000E+00
 -1        30-3.00000E-02-3.00000E-02 0.00000E+00
 -1        31 0.00000E+00-3.00000E-02 0.00000E+00
 -1        32-2.85714E-10-3.00000E-02 0.00000E+00
 -1        33-1.50000E-02-3.00000E-02 0.00000E+00
 -1        34-1.50000E-02-3.00000E-02 0.00000E+00
 -1        35-3.00000E-02-3.00000E-02 0.00000E+00
 -1        36-3.00000E-02-3.00000E-02 0.00000E+00
 -1        37 0.00000E+00 0.00000E+00 3.42857E-10
 -1        38-2.85714E-10 0.00000E+00 3.42857E-10
 -1        39-1.50000E-02 0.00000E+00 3.42857E-10
 -1        40-1.50000E-02 0.00000E+00 3.42857E-10
 -1        41-3.00000E-02 0.00000E+00 3.42857E-10
 -1        42-3.00000E-02 0.00000E+00 3.42857E-10
 -1        43 0.00000E+00-2.85714E-10 3.42857E-10
 -1        44-2.85714E-10-2.85714E-10 3.42857E-10
 -1        45-1.50000E-02-2.85714E-10 3.42857E-10
 -1        46-1.50000E-02-2.85714E-10 3.42857E-10
 -1        47-3.00000E-02-2.85714E-10 3.42857E-10
 -1        48-3.00000E-02-2.85714E-10 3.42857E-10
 -1        49 0.00000E+00-1.50000E-02 3.42857E-10
 -1        50-2.85714E-10-1.50000E-02 3.42857E-10
 -1        51-1.50000E-02-1.50000E-02 3.42857E-10
 -1        52-1.50000E-02-1.50000E-02 3.42857E-10
 -1        53-3.00000E-02-1.50000E-02 3.42857E-10
 -1        54-3.00000E-02-1.50000E-02 3.42857E-10
 -1        55 0.00000E+00-1.50000E-02 3.42857E-10
 -1        56-2.85714E-10-1.50000E-02 3.42857E-10
 -1        57-1.50000E-02-1.50000E-02 3.42857E-10
 -1        58-1.50000E-02-1.50000E-02 3.42857E-10
 -1        59-3.00000E-02-1.50000E-02 3.42857E-10
 -1        60-3.00000E-02-1.50000E-02 3.42857E-10
 -1        61 0.00000E+00-3.00000E-02 3.42857E-10
 -1        62-2.85714E-10-3.00000E-02 3.42857E-10
 -1        63-1.50000E-02-3.00000E-02 3.42857E-10
 -1        64-1.50000E-02-3.00000E-02 3.42857E-10
 -1        65-3.00000E-02-3.00000E-02 3.42857E-10
 -1        66-3.00000E-02-3.00000E-02 3.42857E-10
 -1        67 0.00000E+00-3.00000E-02 3.42857E-10
 -1        68-2.85714E-10-3.00000E-02 3.42857E-10
 -1        69-1.50000E-02-3.00000E-02 3.42857E-10
 -1        70-1.50000E-02-3.00000E-02 3.42857E-10
 -1        71-3.00000E-02-3.00000E-02 3.42857E-10
 -1        72-3.00000E-02-3.00000E-02 3.42857E-10
 -3
    1PSTEP                         2           1           1          
  100CL  101 1.00000E-03          72                     0    1           1
 -4  STRESS      6    1
 -5  SXX         1    4    1    1
 -5  SYY         1    4    2    2
 -5  SZZ         1    4    3    3
 -5  SXY         1    4    1    2
 -5  SYZ         1    4    2    3
 -5  SZX         1    4    3    1
 -1         1-1.71422E-07-1.71422E-07-5.42366E-23-5.19267E-25-4.57775E-24-1.25851E-24
 -1         2-8.57109E-08-8.57109E-08-6.98940E-23-5.17850E-25 4.51733E-24 1.90318E-23
 -1         3-8.57109E-08-8.57109E-08 2.06819E-16 1.42052E-16 1.09992E-22 2.76091E-17
 -1         4-8.57109E-08-8.57109E-08 2.39808E-16-3.09036E-16 9.21606E-23-1.89787E-16
 -1         5-8.57109E-08-8.57109E-08-4.69862E-17-3.20436E-16-4.43996E-22 9.57009E-16
 -1         6-1.71422E-07-1.71422E-07-1.19360E-16 7.49895E-16-4.75905E-22-1.39420E-15
 -1         7-8.57109E-08-8.57109E-08-1.38664E-22 1.46431E-24 7.46935E-23 1.05140E-24
 -1         8-5.71406E-08-5.71406E-08-7.77093E-23 8.04062E-25 4.82165E-23 5.39798E-24
 -1         9-5.71406E-08-5.71406E-08 4.45622E-17 1.49203E-17-4.03075E-17 3.10674E-16
 -1        10-5.71406E-08-5.71406E-08-9.84181E-17-9.38660E-17 2.14848E-17 7.76539E-17
 -1        11-5.71406E-08-5.71406E-08 3.26983E-16-1.91474E-16-7.22594E-17-5.81274E-17
 -1        12-8.57109E-08-8.57109E-08 1.85098E-16-9.25221E-17 6.81244E-17-1.44316E-16
 -1        13-8.57109E-08-8.57109E-08 8.62925E-17-1.41327E-16 2.15688E-16-1.11790E-23
 -1        14-5.71406E-08-5.71406E-08-1.18343E-16-8.55668E-17-3.13011E-17-1.27004E-19
 -1        15-5.71406E-08-5.71406E-08-3.21752E-16-1.04581E-16-3.88404E-16-1.45228E-16
 -1        16-5.71406E-08-5.71406E-08 8.68943E-17 9.18481E-17 2.24953E-16-8.90738E-17
 -1        17-5.71406E-08-5.71406E-08 2.18587E-17 2.31356E-16-2.25573E-18-7.99291E-17
 -1        18-8.57109E-08-8.57108E-08 7.98168E-16 2.63475E-16 3.63087E-16-1.19138E-15
 -1        19-8.57109E-08-8.57109E-08 2.01909E-17-1.39874E-16-3.19378E-16 8.83540E-23
 -1        20-5.71406E-08-5.71406E-08-9.24493E-17-8.45985E-17 5.59046E-16-9.32896E-18
 -1        21-5.71406E-08-5.71406E-08 1.91459E-16-7.34929E-18 3.37208E-17 1.08228E-16
 -1        22-5.71406E-08-5.71406E-08-1.44584E-17 2.80857E-16 2.87858E-17-1.34644E-16
 -1        23-5.71406E-08-5.71406E-08-2.98206E-16 4.18452E-16-2.76783E-16-4.47929E-16
 -1        24-8.57109E-08-8.57109E-08-8.21957E-16 2.32984E-17 7.38676E-17 1.22423E-15
 -1        25-8.57109E-08-8.57109E-08 4.20270E-16 9.16833E-18 3.92992E-16 1.15960E-22
 -1        26-5.71406E-08-5.71406E-08 3.10889E-16-2.98081E-17 3.59510E-16-9.74892E-19
 -1        27-5.71406E-08-5.71406E-08 2.55081E-16 2.47405E-16 2.32107E-16 1.32803E-16
 -1        28-5.71406E-08-5.71406E-08 8.02499E-16 3.85037E-16 2.59721E-17 5.59023E-19
 -1        29-5.71406E-08-5.71406E-08-3.13836E-16 1.26395E-16-7.17599E-16 2.23052E-16
 -1        30-8.57109E-08-8.57108E-08 2.41306E-16 1.97038E-16 5.21160E-16-4.01760E-16
 -1        31-1.71422E-07-1.71422E-07 1.41493E-15-4.90229E-18 6.73859E-16 1.08310E-21
 -1        32-8.57109E-08-8.57109E-08 1.38754E-16-5.63316E-17-3.72976E-16 5.09693E-18
 -1        33-8.57109E-08-8.57108E-08 4.34794E-16-2.93837E-16-2.60963E-16 2.73264E-16
 -1        34-8.57109E-08-8.57109E-08-5.24621E-16 5.02759E-17 3.14855E-16-9.78127E-17
 -1        35-8.57109E-08-8.57109E-08-1.89135E-16 3.07020E-16-1.08883E-16-4.39322E-16
 -1        36-1.71422E-07-1.71422E-07-8.20732E-16-3.72459E-16 3.37084E-18 5.82412E-16
 -1        37-1.71422E-07-1.71422E-07 4.31649E-22 6.46455E-25-6.10580E-23-2.48593E-23
 -1        38-8.57109E-08-8.57109E-08 7.91081E-23-1.84643E-24-3.21331E-23 7.23146E-24
 -1        39-8.57109E-08-8.57109E-08-3.81940E-16-1.18996E-16 5.76280E-17 2.61249E-16
 -1        40-8.57109E-08-8.57109E-08-1.54304E-16 3.84854E-16-4.13559E-17-1.13169E-17
 -1        41-8.57109E-08-8.57109E-08-5.17404E-16-7.75356E-16 9.88117E-17-3.13206E-16
 -1        42-1.71422E-07-1.71422E-07-3.18841E-16-3.40374E-16-3.65224E-17 8.02977E-17
 -1        43-8.57109E-08-8.57109E-08 1.03380E-23-1.13329E-23 4.64534E-23-9.21983E-24
 -1        44-5.71406E-08-5.71406E-08 4.84432E-24-9.00174E-24 2.37829E-23-1.44951E-24
 -1        45-5.71406E-08-5.71406E-08 2.67776E-16 3.38201E-17-1.88895E-18-3.03365E-16
 -1        46-5.71406E-08-5.71406E-08 2.54560E-16 5.80581E-17-6.08587E-18 1.67424E-16
 -1        47-5.71406E-08-5.71406E-08 2.18611E-16-4.92771E-16-6.38466E-18-2.60396E-16
 -1        48-8.57109E-08-8.57109E-08 3.93218E-16 5.20637E-16 4.98634E-17 3.15555E-16
 -1        49-8.57109E-08-8.57109E-08-3.59633E-16 9.71180E-17-1.28807E-16-1.61851E-17
 -1        50-5.71406E-08-5.71406E-08 1.48783E-16 6.05134E-17 9.83589E-17-1.09171E-17
 -1        51-5.71406E-08-5.71406E-08-1.95849E-16 5.03037E-16 1.73077E-16-3.00746E-16
 -1        52-5.71406E-08-5.71406E-08 1.70877E-16 4.32074E-16 3.14422E-17 4.65478E-16
 -1        53-5.71406E-08-5.71406E-08-8.47649E-16 4.00639E-16-3.46222E-18 3.46213E-16
 -1        54-8.57109E-08-8.57109E-08-7.90133E-17-1.57351E-16-5.79129E-16 3.11734E-16
 -1        55-8.57109E-08-8.57109E-08-4.54721E-16 2.16055E-17 1.40995E-16 2.57922E-17
 -1        56-5.71406E-08-5.71406E-08 1.55353E-16 1.01717E-17-1.89054E-17 7.86575E-18
 -1        57-5.71406E-08-5.71406E-08 4.03717E-16 7.91323E-18-5.98768E-18 1.29803E-17
 -1        58-5.71406E-08-5.71406E-08 1.11444E-16-8.97152E-19-2.53256E-17-2.90035E-16
 -1        59-5.71406E-08-5.71406E-08-1.13344E-16-1.69958E-16-8.13878E-18 4.27006E-16
 -1        60-8.57109E-08-8.57109E-08-3.17542E-16 6.87702E-16 2.91829E-16-6.87523E-16
 -1        61-8.57109E-08-8.57108E-08 8.69093E-16-4.76436E-16-8.06129E-17-7.85681E-17
 -1        62-5.71406E-08-5.71406E-08 2.65682E-16-3.47422E-16-3.13736E-16-5.33537E-17
 -1        63-5.71406E-08-5.71406E-08 9.28194E-17-3.06680E-17-5.56545E-16-7.01428E-17
 -1        64-5.71406E-08-5.71406E-08-2.05878E-16 1.64534E-16-6.95851E-17 5.87459E-17
 -1        65-5.71406E-08-5.71406E-08 4.00818E-16-2.92026E-16 1.61176E-17-9.77049E-17
 -1        66-8.57109E-08-8.57109E-08-1.23612E-15 3.51461E-16 1.27941E-18 7.08712E-17
 -1        67-1.71422E-07-1.71422E-07-4.38855E-15 2.55329E-16-1.06213E-15 7.22125E-17
 -1        68-8.57108E-08-8.57108E-08 9.86175E-16 8.29664E-17 8.90528E-17 4.12027E-17
 -1        69-8.57109E-08-8.57109E-08 1.92151E-16-4.96316E-16 5.18589E-16-1.51863E-16
 -1        70-8.57109E-08-8.57109E-08-3.68456E-17-1.10283E-16-3.54332E-16-4.23699E-17
 -1        71-8.57109E-08-8.57108E-08 4.88457E-16-1.18048E-15-7.00538E-16-1.00156E-16
 -1        72-1.71422E-07-1.71422E-07-8.31791E-16 5.27297E-16 9.11392E-16-3.10695E-17
 -3
    1PSTEP                         3           1           1          
  100CL  101 1.00000E-03          72                     0    1           1
 -4  TOSTRAIN    6    1
 -5  EXX         1    4    1    1
 -5  EYY         1    4    2    2
 -5  EZZ         1    4    3    3
 -5  EXY         1    4    1    2
 -5  EYZ         1    4    2    3
 -5  EZX         1    4    3    1
 -1         1-5.71406E-13-5.71406E-13 4.89776E-13-3.21451E-30-2.83384E-29-7.79079E-30
 -1         2-2.85703E-13-2.85703E-13 2.44888E-13-3.20574E-30 2.79644E-29 1.17816E-28
 -1         3-2.85703E-13-2.85703E-13 2.44888E-13 8.79369E-22 6.80905E-28 1.70913E-22
 -1         4-2.85703E-13-2.85703E-13 2.44888E-13-1.91308E-21 5.70518E-28-1.17487E-21
 -1         5-2.85703E-13-2.85703E-13 2.44888E-13-1.98365E-21-2.74854E-27 5.92434E-21
 -1         6-5.71406E-13-5.71406E-13 4.89776E-13 4.64221E-21-2.94608E-27-8.63077E-21
 -1         7-2.85703E-13-2.85703E-13 2.44888E-13 9.06477E-30 4.62388E-28 6.50867E-30
 -1         8-1.90469E-13-1.90469E-13 1.63259E-13 4.97752E-30 2.98483E-28 3.34160E-29
 -1         9-1.90469E-13-1.90469E-13 1.63259E-13 9.23639E-23-2.49523E-22 1.92322E-21
 -1        10-1.90469E-13-1.90469E-13 1.63259E-13-5.81075E-22 1.33001E-22 4.80715E-22
 -1        11-1.90469E-13-1.90469E-13 1.63259E-13-1.18532E-21-4.47320E-22-3.59836E-22
 -1        12-2.85703E-13-2.85703E-13 2.44888E-13-5.72756E-22 4.21723E-22-8.93382E-22
 -1        13-2.85703E-13-2.85703E-13 2.44888E-13-8.74879E-22 1.33521E-21-6.92034E-29
 -1        14-1.90469E-13-1.90469E-13 1.63259E-13-5.29699E-22-1.93769E-22-7.86218E-25
 -1        15-1.90469E-13-1.90469E-13 1.63259E-13-6.47409E-22-2.40441E-21-8.99031E-22
 -1        16-1.90469E-13-1.90469E-13 1.63259E-13 5.68583E-22 1.39257E-21-5.51409E-22
 -1        17-1.90469E-13-1.90469E-13 1.63259E-13 1.43221E-21-1.39641E-23-4.94799E-22
 -1        18-2.85703E-13-2.85703E-13 2.44888E-13 1.63103E-21 2.24768E-21-7.37519E-21
 -1        19-2.85703E-13-2.85703E-13 2.44888E-13-8.65888E-22-1.97710E-21 5.46953E-28
 -1        20-1.90469E-13-1.90469E-13 1.63259E-13-5.23705E-22 3.46076E-21-5.77507E-23
 -1        21-1.90469E-13-1.90469E-13 1.63259E-13-4.54956E-23 2.08748E-22 6.69980E-22
 -1        22-1.90469E-13-1.90469E-13 1.63259E-13 1.73864E-21 1.78198E-22-8.33514E-22
 -1        23-1.90469E-13-1.90469E-13 1.63259E-13 2.59042E-21-1.71342E-21-2.77289E-21
 -1        24-2.85703E-13-2.85703E-13 2.44888E-13 1.44228E-22 4.57276E-22 7.57857E-21
 -1        25-2.85703E-13-2.85703E-13 2.44888E-13 5.67563E-23 2.43281E-21 7.17850E-28
 -1        26-1.90469E-13-1.90469E-13 1.63259E-13-1.84526E-22 2.22554E-21-6.03505E-24
 -1        27-1.90469E-13-1.90469E-13 1.63259E-13 1.53155E-21 1.43685E-21 8.22115E-22
 -1        28-1.90469E-13-1.90469E-13 1.63259E-13 2.38356E-21 1.60780E-22 3.46062E-24
 -1        29-1.90469E-13-1.90469E-13 1.63259E-13 7.82447E-22-4.44228E-21 1.38080E-21
 -1        30-2.85703E-13-2.85703E-13 2.44888E-13 1.21976E-21 3.22623E-21-2.48709E-21
 -1        31-5.71406E-13-5.71406E-13 4.89776E-13-3.03475E-23 4.17151E-21 6.70490E-27
 -1        32-2.85703E-13-2.85703E-13 2.44888E-13-3.48719E-22-2.30890E-21 3.15524E-23
 -1        33-2.85703E-13-2.85703E-13 2.44888E-13-1.81899E-21-1.61548E-21 1.69163E-21
 -1        34-2.85703E-13-2.85703E-13 2.44888E-13 3.11232E-22 1.94910E-21-6.05507E-22
 -1        35-2.85703E-13-2.85703E-13 2.44888E-13 1.90060E-21-6.74036E-22-2.71961E-21
 -1        36-5.71406E-13-5.71406E-13 4.89776E-13-2.30570E-21 2.08671E-23 3.60540E-21
 -1        37-5.71406E-13-5.71406E-13 4.89776E-13 4.00186E-30-3.77978E-28-1.53891E-28
 -1        38-2.85703E-13-2.85703E-13 2.44888E-13-1.14303E-29-1.98919E-28 4.47662E-29
 -1        39-2.85703E-13-2.85703E-13 2.44888E-13-7.36640E-22 3.56745E-22 1.61725E-21
 -1        40-2.85703E-13-2.85703E-13 2.44888E-13 2.38243E-21-2.56013E-22-7.00569E-23
 -1        41-2.85703E-13-2.85703E-13 2.44888E-13-4.79982E-21 6.11691E-22-1.93890E-21
 -1        42-5.71406E-13-5.71406E-13 4.89776E-13-2.10708E-21-2.26091E-22 4.97081E-22
 -1        43-2.85703E-13-2.85703E-13 2.44888E-13-7.01563E-29 2.87569E-28-5.70752E-29
 -1        44-1.90469E-13-1.90469E-13 1.63259E-13-5.57250E-29 1.47227E-28-8.97318E-30
 -1        45-1.90469E-13-1.90469E-13 1.63259E-13 2.09362E-22-1.16935E-23-1.87797E-21
 -1        46-1.90469E-13-1.90469E-13 1.63259E-13 3.59407E-22-3.76744E-23 1.03644E-21
 -1        47-1.90469E-13-1.90469E-13 1.63259E-13-3.05049E-21-3.95241E-23-1.61198E-21
 -1        48-2.85703E-13-2.85703E-13 2.44888E-13 3.22299E-21 3.08678E-22 1.95344E-21
 -1        49-2.85703E-13-2.85703E-13 2.44888E-13 6.01207E-22-7.97376E-22-1.00193E-22
 -1        50-1.90469E-13-1.90469E-13 1.63259E-13 3.74607E-22 6.08888E-22-6.75819E-23
 -1        51-1.90469E-13-1.90469E-13 1.63259E-13 3.11404E-21 1.07143E-21-1.86176E-21
 -1        52-1.90469E-13-1.90469E-13 1.63259E-13 2.67474E-21 1.94642E-22 2.88153E-21
 -1        53-1.90469E-13-1.90469E-13 1.63259E-13 2.48015E-21-2.14328E-23 2.14322E-21
 -1        54-2.85703E-13-2.85703E-13 2.44888E-13-9.74075E-22-3.58508E-21 1.92978E-21
 -1        55-2.85703E-13-2.85703E-13 2.44888E-13 1.33748E-22 8.72825E-22 1.59666E-22
 -1        56-1.90469E-13-1.90469E-13 1.63259E-13 6.29680E-23-1.17033E-22 4.86927E-23
 -1        57-1.90469E-13-1.90469E-13 1.63259E-13 4.89867E-23-3.70666E-23 8.03545E-23
 -1        58-1.90469E-13-1.90469E-13 1.63259E-13-5.55380E-24-1.56778E-22-1.79546E-21
 -1        59-1.90469E-13-1.90469E-13 1.63259E-13-1.05212E-21-5.03829E-23 2.64337E-21
 -1        60-2.85703E-13-2.85703E-13 2.44888E-13 4.25720E-21 1.80656E-21-4.25610E-21
 -1        61-2.85703E-13-2.85703E-13 2.44888E-13-2.94936E-21-4.99032E-22-4.86374E-22
 -1        62-1.90469E-13-1.90469E-13 1.63259E-13-2.15071E-21-1.94218E-21-3.30285E-22
 -1        63-1.90469E-13-1.90469E-13 1.63259E-13-1.89850E-22-3.44528E-21-4.34218E-22
 -1        64-1.90469E-13-1.90469E-13 1.63259E-13 1.01854E-21-4.30765E-22 3.63665E-22
 -1        65-1.90469E-13-1.90469E-13 1.63259E-13-1.80778E-21 9.97758E-23-6.04840E-22
 -1        66-2.85703E-13-2.85703E-13 2.44888E-13 2.17571E-21 7.92018E-24 4.38726E-22
 -1        67-5.71406E-13-5.71406E-13 4.89776E-13 1.58061E-21-6.57507E-21 4.47030E-22
 -1        68-2.85703E-13-2.85703E-13 2.44888E-13 5.13602E-22 5.51279E-22 2.55064E-22
 -1        69-2.85703E-13-2.85703E-13 2.44888E-13-3.07243E-21 3.21031E-21-9.40107E-22
 -1        70-2.85703E-13-2.85703E-13 2.44888E-13-6.82706E-22-2.19348E-21-2.62290E-22
 -1        71-2.85703E-13-2.85703E-13 2.44888E-13-7.30770E-21-4.33666E-21-6.20015E-22
 -1        72-5.71406E-13-5.71406E-13 4.89776E-13 3.26422E-21 5.64195E-21-1.92335E-22
 -3
    1PSTEP                         4           2           1          
  100CL  102 2.00000E-03          72                     0    2           1
 -4  DISP        4    1
 -5  D1          1    2    1    0
 -5  D2          1    2    2    0
 -5  D3          1    2    3    0
 -5  ALL         1    2    0    0    1ALL
 -1         1 0.00000E+00 0.00000E+00 0.00000E+00
 -1         2-5.71429E-10 0.00000E+00 0.00000E+00
 -1         3-3.00000E-02 0.00000E+00 0.00000E+00
 -1         4-3.00000E-02 0.00000E+00 0.00000E+00
 -1         5-6.00000E-02 0.00000E+00 0.00000E+00
 -1         6-6.00000E-02 0.00000E+00 0.00000E+00
 -1         7 0.00000E+00-5.71429E-10 0.00000E+00
 -1         8-5.71429E-10-5.71429E-10 0.00000E+00
 -1         9-3.00000E-02-5.71429E-10 0.00000E+00
 -1        10-3.00000E-02-5.71429E-10 0.00000E+00
 -1        11-6.00000E-02-5.71429E-10 0.00000E+00
 -1        12-6.00000E-02-5.71429E-10 0.00000E+00
 -1        13 0.00000E+00-3.00000E-02 0.00000E+00
 -1        14-5.71429E-10-3.00000E-02 0.00000E+00
 -1        15-3.00000E-02-3.00000E-02 0.00000E+00
 -1        16-3.00000E-02-3.00000E-02 0.00000E+00
 -1        17-6.00000E-02-3.00000E-02 0.00000E+00
 -1        18-6.00000E-02-3.00000E-02 0.00000E+00
 -1        19 0.00000E+00-3.00000E-02 0.00000E+00
 -1        20-5.71429E-10-3.00000E-02 0.00000E+00
 -1        21-3.00000E-02-3.00000E-02 0.00000E+00
 -1        22-3.00000E-02-3.00000E-02 0.00000E+00
 -1        23-6.00000E-02-3.00000E-02 0.00000E+00
 -1        24-6.00000E-02-3.00000E-02 0.00000E+00
 -1        25 0.00000E+00-6.00000E-02 0.00000E+00
 -1        26-5.71429E-10-6.00000E-02 0.00000E+00
 -1        27-3.00000E-02-6.00000E-02 0.00000E+00
 -1        28-3.00000E-02-6.00000E-02 0.00000E+00
 -1        29-6.00000E-02-6.00000E-02 0.00000E+00
 -1        30-6.00000E-02-6.00000E-02 0.00000E+00
 -1        31 0.00000E+00-6.00000E-02 0.00000E+00
 -1        32-5.71429E-10-6.00000E-02 0.00000E+00
 -1        33-3.00000E-02-6.00000E-02 0.00000E+00
 -1        34-3.00000E-02-6.00000E-02 0.00000E+00
 -1        35-6.00000E-02-6.00000E-02 0.00000E+00
 -1        36-6.00000E-02-6.00000E-02 0.00000E+00
 -1        37 0.00000E+00 0.00000E+00 6.85714E-10
 -1        38-5.71429E-10 0.00000E+00 6.85714E-10
 -1        39-3.00000E-02 0.00000E+00 6.85714E-10
 -1        40-3.00000E-02 0.00000E+00 6.85714E-10
 -1        41-6.00000E-02 0.00000E+00 6.85714E-10
 -1        42-6.00000E-02 0.00000E+00 6.85714E-10
 -1        43 0.00000E+00-5.71429E-10 6.85714E-10
 -1        44-5.71429E-10-5.71429E-10 6.85714E-10
 -1        45-3.00000E-02-5.71429E-10 6.85714E-10
 -1        46-3.00000E-02-5.71429E-10 6.85714E-10
 -1        47-6.00000E-02-5.71429E-10 6.85714E-10
 -1        48-6.00000E-02-5.71429E-10 6.85714E-10
 -1        49 0.00000E+00-3.00000E-02 6.85714E-10
 -1        50-5.71429E-10-3.00000E-02 6.85714E-10
 -1        51-3.00000E-02-3.00000E-02 6.85714E-10
 -1        52-3.00000E-02-3.00000E-02 6.85714E-10
 -1        53-6.00000E-02-3.00000E-02 6.85714E-10
 -1        54-6.00000E-02-3.00000E-02 6.85714E-10
 -1        55 0.00000E+00-3.00000E-02 6.85714E-10
 -1        56-5.71429E-10-3.00000E-02 6.85714E-10
 -1        57-3.00000E-02-3.00000E-02 6.85714E-10
 -1        58-3.00000E-02-3.00000E-02 6.85714E-10
 -1        59-6.00000E-02-3.00000E-02 6.85714E-10
 -1        60-6.00000E-02-3.00000E-02 6.85714E-10
 -1        61 0.00000E+00-6.00000E-02 6.85714E-10
 -1        62-5.71429E-10-6.00000E-02 6.85714E-10
 -1        63-3.00000E-02-6.00000E-02 6.85714E-10
 -1        64-3.00000E-02-6.00000E-02 6.85714E-10
 -1        65-6.00000E-02-6.00000E-02 6.85714E-10
 -1        66-6.00000E-02-6.00000E-02 6.85714E-10
 -1        67 0.00000E+00-6.00000E-02 6.85714E-10
 -1        68-5.71429E-10-6.00000E-02 6.85714E-10
 -1        69-3.00000E-02-6.00000E-02 6.85714E-10
 -1        70-3.00000E-02-6.00000E-02 6.85714E-10
 -1        71-6.00000E-02-6.00000E-02 6.85714E-10
 -1        72-6.00000E-02-6.00000E-02 6.85714E-10
 -3
    1PSTEP                         5           2           1          
  100CL  102 2.00000E-03          72                     0    2           1
 -4  STRESS      6    1
 -5  SXX         1    4    1    1
 -5  SYY         1    4    2    2
 -5  SZZ         1    4    3    3
 -5  SXY         1    4    1    2
 -5  SYZ         1    4    2    3
 -5  SZX         1    4    3    1
 -1         1-3.42843E-07-3.42843E-07 7.49116E-23-1.27835E-24 3.16796E-24 7.14093E-24
 -1         2-1.71422E-07-1.71422E-07-7.71594E-23 3.14469E-23-5.91180E-24 2.23904E-23
 -1         3-1.71422E-07-1.71422E-07-3.65561E-16 1.17661E-16 5.86273E-23-1.94621E-16
 -1         4-1.71422E-07-1.71422E-07-2.27026E-16 3.48850E-17-4.22777E-22 9.47372E-17
 -1         5-1.71422E-07-1.71422E-07-1.82165E-16-6.40871E-16 7.33838E-23 1.91402E-15
 -1         6-3.42843E-07-3.42843E-07 7.11082E-17 1.49979E-15-1.21440E-21-2.78840E-15
 -1         7-1.71422E-07-1.71422E-07-1.23006E-22-7.57532E-24 2.27727E-23 1.50165E-24
 -1         8-1.14281E-07-1.14281E-07 5.59324E-24 1.33554E-23 1.01846E-23 2.91689E-24
 -1         9-1.14281E-07-1.14281E-07-2.31284E-16 1.67916E-17-4.44118E-17 1.01371E-15
 -1        10-1.14281E-07-1.14281E-07-5.58096E-16-4.17463E-17 3.37869E-17-6.79892E-16
 -1        11-1.14281E-07-1.14281E-07 5.56823E-16-2.88772E-16-4.20066E-17-1.16255E-16
 -1        12-1.71422E-07-1.71422E-07 3.88903E-16-4.37798E-17 1.08917E-17-2.88631E-16
 -1        13-1.71422E-07-1.71422E-07 4.78481E-16-1.36988E-16-9.05082E-16 1.36466E-22
 -1        14-1.14281E-07-1.14281E-07 4.84622E-16-6.74464E-17 4.54042E-16 1.34127E-17
 -1        15-1.14281E-07-1.14281E-07-6.38712E-16 1.80239E-16-2.41532E-16-1.41858E-16
 -1        16-1.14281E-07-1.14281E-07 2.13613E-16-5.29127E-16-3.13487E-16 2.24020E-16
 -1        17-1.14281E-07-1.14281E-07-4.22470E-16-1.95554E-16 4.71512E-16-5.00286E-16
 -1        18-1.71422E-07-1.71422E-07-2.91640E-16 5.33996E-16-8.37350E-16-2.24592E-15
 -1        19-1.71422E-07-1.71422E-07 5.20564E-16 4.52137E-17-1.19089E-17-9.36920E-24
 -1        20-1.14281E-07-1.14281E-07 5.28205E-16 5.40217E-17-2.36280E-16-2.07005E-17
 -1        21-1.14281E-07-1.14281E-07-1.16972E-15 4.18976E-16-4.75872E-16 2.18209E-16
 -1        22-1.14281E-07-1.14281E-07-5.10213E-16-1.06836E-16-1.41367E-16-1.85230E-16
 -1        23-1.14281E-07-1.14281E-07-8.82438E-16 2.03678E-16 3.50756E-16-8.04636E-16
 -1        24-1.71422E-07-1.71422E-07-8.30587E-16 9.12057E-17 3.16920E-16 2.41180E-15
 -1        25-1.71422E-07-1.71422E-07 1.45248E-15 1.02129E-15 1.34491E-15 5.68210E-22
 -1        26-1.14281E-07-1.14281E-07-5.80095E-17 6.48772E-16 1.33849E-16-3.42249E-17
 -1        27-1.14281E-07-1.14281E-07 4.72961E-16 1.15100E-16-9.64275E-16 1.85678E-16
 -1        28-1.14281E-07-1.14281E-07-2.72513E-16 1.81248E-16 4.34698E-16 1.78074E-16
 -1        29-1.14281E-07-1.14281E-07-3.95647E-16 2.65014E-16-6.87568E-16 4.46102E-16
 -1        30-1.71422E-07-1.71422E-07 1.77941E-16 4.12410E-16 7.41823E-16-8.03522E-16
 -1        31-3.42843E-07-3.42843E-07 2.77207E-15-5.47315E-16 1.23413E-15-5.11048E-23
 -1        32-1.71422E-07-1.71422E-07-8.28115E-16-3.21786E-16-8.57741E-16 4.98918E-17
 -1        33-1.71422E-07-1.71422E-07-2.67189E-16 3.35578E-16 1.34715E-15 1.44932E-16
 -1        34-1.71422E-07-1.71422E-07 4.61405E-17-3.36194E-16 1.28895E-16 4.50450E-16
 -1        35-1.71422E-07-1.71422E-07-1.05784E-16 6.09137E-16-8.65236E-16-8.78648E-16
 -1        36-3.42843E-07-3.42843E-07-1.51003E-15-7.54726E-16 3.53696E-16 1.16482E-15
 -1        37-3.42843E-07-3.42843E-07 6.26296E-23 1.22008E-24-4.89039E-23-3.62756E-23
 -1        38-1.71422E-07-1.71422E-07 8.33025E-23-7.08832E-26-9.01040E-24-3.79546E-24
 -1        39-1.71422E-07-1.71422E-07 2.18590E-16-3.98632E-16 1.44421E-16 1.13720E-16
 -1        40-1.71422E-07-1.71422E-07 6.03452E-16-2.81199E-16-1.07081E-16 1.11370E-15
 -1        41-1.71422E-07-1.71422E-07-8.00090E-16-1.55071E-15 1.74616E-16-6.13927E-16
 -1        42-3.42843E-07-3.42843E-07-8.54352E-16-6.80747E-16-1.82011E-16 1.85566E-16
 -1        43-1.71422E-07-1.71422E-07 3.74558E-23 1.42956E-24-3.26320E-24-9.39265E-24
 -1        44-1.14281E-07-1.14281E-07-5.14396E-23 1.16396E-23 8.11891E-24 6.79458E-24
 -1        45-1.14281E-07-1.14281E-07-3.03640E-16-2.55486E-16 5.18686E-17-3.56011E-16
 -1        46-1.14281E-07-1.14281E-07-4.66234E-16-2.80967E-18-3.76004E-17-9.46929E-17
 -1        47-1.14281E-07-1.14281E-07 5.55353E-16-1.15188E-15 7.44037E-17-5.33452E-16
 -1        48-1.71422E-07-1.71422E-07 5.41892E-16 7.91762E-16-8.01133E-17 6.12122E-16
 -1        49-1.71422E-07-1.71422E-07 5.54425E-16 5.19198E-16 1.44525E-16-2.96853E-18
 -1        50-1.14281E-07-1.14281E-07-1.31778E-16 3.22253E-16 1.13666E-16 1.14336E-17
 -1        51-1.14281E-07-1.14281E-07 1.62978E-16 3.17775E-16-4.39651E-16 1.72176E-17
 -1        52-1.14281E-07-1.14281E-07-2.48666E-16 2.70856E-16-5.29594E-17-1.12569E-16
 -1        53-1.14281E-07-1.14281E-07 3.38028E-17 1.06801E-15-3.16345E-16 1.06109E-16
 -1        54-1.71422E-07-1.71422E-07 1.58498E-15-1.38304E-15-6.48685E-16 3.91465E-16
 -1        55-1.71422E-07-1.71422E-07 4.89052E-16-5.81349E-16 8.39308E-17 6.34752E-18
 -1        56-1.14281E-07-1.14281E-07-1.59833E-16-4.11445E-16-1.46051E-16-1.64688E-17
 -1        57-1.14281E-07-1.14281E-07 6.25642E-16-1.83513E-16 5.53429E-16 2.22066E-18
 -1        58-1.14281E-07-1.14281E-07-6.76928E-17-1.06126E-16-2.53093E-16-8.17510E-18
 -1        59-1.14281E-07-1.14281E-07 2.66020E-16 2.02697E-17 3.16341E-16 1.01119E-15
 -1        60-1.71422E-07-1.71422E-07 8.47175E-17 4.47252E-16 6.58170E-16-1.31276E-15
 -1        61-1.71422E-07-1.71422E-07-2.18235E-15-2.73657E-16-1.14852E-16 1.19582E-16
 -1        62-1.14281E-07-1.14281E-07-3.26207E-16-1.20042E-16-4.18721E-16 4.54959E-17
 -1        63-1.14281E-07-1.14281E-07-1.55095E-15-4.31500E-16 1.01275E-16-6.97941E-16
 -1        64-1.14281E-07-1.14281E-07 4.97125E-16 3.52092E-16-3.10910E-16 2.24078E-16
 -1        65-1.14281E-07-1.14281E-07-1.44623E-15-1.21930E-15 4.94537E-16-4.10874E-17
 -1        66-1.71422E-07-1.71422E-07-6.69538E-16-2.49951E-16-3.07168E-16 3.73226E-16
 -1        67-3.42843E-07-3.42843E-07-4.07242E-15 1.46636E-16-2.14149E-15-3.00563E-16
 -1        68-1.71422E-07-1.71422E-07-1.01783E-15 1.66911E-16 1.10695E-15-1.00390E-16
 -1        69-1.71422E-07-1.71422E-07-1.42168E-15-6.90905E-16 1.41859E-16 8.13914E-16
 -1        70-1.71422E-07-1.71422E-07-1.45043E-15 6.91066E-16-2.38303E-16-6.85481E-16
 -1        71-1.71422E-07-1.71422E-07-1.56898E-15-2.10562E-15-2.33650E-16-1.51038E-16
 -1        72-3.42843E-07-3.42843E-07-4.04608E-15 1.56525E-15 9.49333E-16 3.64109E-17
 -3
    1PSTEP                         6           2           1          
  100CL  102 2.00000E-03          72                     0    2           1
 -4  TOSTRAIN    6    1
 -5  EXX         1    4    1    1
 -5  EYY         1    4    2    2
 -5  EZZ         1    4    3    3
 -5  EXY         1    4    1    2
 -5  EYZ         1    4    2    3
 -5  EZX         1    4    3    1
 -1         1-1.14281E-12-1.14281E-12 9.79553E-13-7.91361E-30 1.96112E-29 4.42057E-29
 -1         2-5.71406E-13-5.71406E-13 4.89776E-13 1.94671E-28-3.65968E-29 1.38607E-28
 -1         3-5.71406E-13-5.71406E-13 4.89776E-13 7.28376E-22 3.62931E-28-1.20479E-21
 -1         4-5.71406E-13-5.71406E-13 4.89776E-13 2.15955E-22-2.61719E-27 5.86469E-22
 -1         5-5.71406E-13-5.71406E-13 4.89776E-13-3.96730E-21 4.54281E-28 1.18487E-20
 -1         6-1.14281E-12-1.14281E-12 9.79553E-13 9.28444E-21-7.51769E-27-1.72615E-20
 -1         7-5.71406E-13-5.71406E-13 4.89776E-13-4.68948E-29 1.40974E-28 9.29594E-30
 -1         8-3.80937E-13-3.80937E-13 3.26518E-13 8.26765E-29 6.30478E-29 1.80569E-29
 -1         9-3.80937E-13-3.80937E-13 3.26518E-13 1.03948E-22-2.74930E-22 6.27538E-21
 -1        10-3.80937E-13-3.80937E-13 3.26518E-13-2.58430E-22 2.09157E-22-4.20885E-21
 -1        11-3.80937E-13-3.80937E-13 3.26518E-13-1.78764E-21-2.60041E-22-7.19672E-22
 -1        12-5.71406E-13-5.71406E-13 4.89776E-13-2.71017E-22 6.74246E-23-1.78676E-21
 -1        13-5.71406E-13-5.71406E-13 4.89776E-13-8.48023E-22-5.60289E-21 8.44787E-28
 -1        14-3.80937E-13-3.80937E-13 3.26518E-13-4.17525E-22 2.81074E-21 8.30312E-23
 -1        15-3.80937E-13-3.80937E-13 3.26518E-13 1.11577E-21-1.49520E-21-8.78167E-22
 -1        16-3.80937E-13-3.80937E-13 3.26518E-13-3.27555E-21-1.94063E-21 1.38679E-21
 -1        17-3.80937E-13-3.80937E-13 3.26518E-13-1.21057E-21 2.91888E-21-3.09701E-21
 -1        18-5.71406E-13-5.71406E-13 4.89776E-13 3.30569E-21-5.18359E-21-1.39033E-20
 -1        19-5.71406E-13-5.71406E-13 4.89776E-13 2.79894E-22-7.37216E-23-5.79998E-29
 -1        20-3.80937E-13-3.80937E-13 3.26518E-13 3.34420E-22-1.46268E-21-1.28146E-22
 -1        21-3.80937E-13-3.80937E-13 3.26518E-13 2.59366E-21-2.94587E-21 1.35082E-21
 -1        22-3.80937E-13-3.80937E-13 3.26518E-13-6.61366E-22-8.75127E-22-1.14666E-21
 -1        23-3.80937E-13-3.80937E-13 3.26518E-13 1.26086E-21 2.17134E-21-4.98108E-21
 -1        24-5.71406E-13-5.71406E-13 4.89776E-13 5.64607E-22 1.96188E-21 1.49302E-20
 -1        25-5.71406E-13-5.71406E-13 4.89776E-13 6.32225E-21 8.32561E-21 3.51749E-27
 -1        26-3.80937E-13-3.80937E-13 3.26518E-13 4.01621E-21 8.28592E-22-2.11868E-22
 -1        27-3.80937E-13-3.80937E-13 3.26518E-13 7.12521E-22-5.96932E-21 1.14943E-21
 -1        28-3.80937E-13-3.80937E-13 3.26518E-13 1.12201E-21 2.69099E-21 1.10236E-21
 -1        29-3.80937E-13-3.80937E-13 3.26518E-13 1.64056E-21-4.25637E-21 2.76159E-21
 -1        30-5.71406E-13-5.71406E-13 4.89776E-13 2.55302E-21 4.59224E-21-4.97419E-21
 -1        31-1.14281E-12-1.14281E-12 9.79553E-13-3.38814E-21 7.63985E-21-3.16363E-28
 -1        32-5.71406E-13-5.71406E-13 4.89776E-13-1.99201E-21-5.30983E-21 3.08854E-22
 -1        33-5.71406E-13-5.71406E-13 4.89776E-13 2.07739E-21 8.33949E-21 8.97200E-22
 -1        34-5.71406E-13-5.71406E-13 4.89776E-13-2.08120E-21 7.97920E-22 2.78850E-21
 -1        35-5.71406E-13-5.71406E-13 4.89776E-13 3.77085E-21-5.35623E-21-5.43925E-21
 -1        36-1.14281E-12-1.14281E-12 9.79553E-13-4.67212E-21 2.18954E-21 7.21078E-21
 -1        37-1.14281E-12-1.14281E-12 9.79553E-13 7.55286E-30-3.02739E-28-2.24563E-28
 -1        38-5.71406E-13-5.71406E-13 4.89776E-13-4.38801E-31-5.57787E-29-2.34957E-29
 -1        39-5.71406E-13-5.71406E-13 4.89776E-13-2.46772E-21 8.94033E-22 7.03979E-22
 -1        40-5.71406E-13-5.71406E-13 4.89776E-13-1.74076E-21-6.62884E-22 6.89432E-21
 -1        41-5.71406E-13-5.71406E-13 4.89776E-13-9.59964E-21 1.08095E-21-3.80050E-21
 -1        42-1.14281E-12-1.14281E-12 9.79553E-13-4.21415E-21-1.12674E-21 1.14874E-21
 -1        43-5.71406E-13-5.71406E-13 4.89776E-13 8.84963E-30-2.02008E-29-5.81450E-29
 -1        44-3.80937E-13-3.80937E-13 3.26518E-13 7.20550E-29 5.02599E-29 4.20617E-29
 -1        45-3.80937E-13-3.80937E-13 3.26518E-13-1.58158E-21 3.21091E-22-2.20388E-21
 -1        46-3.80937E-13-3.80937E-13 3.26518E-13-1.73932E-23-2.32764E-22-5.86194E-22
 -1        47-3.80937E-13-3.80937E-13 3.26518E-13-7.13070E-21 4.60594E-22-3.30232E-21
 -1        48-5.71406E-13-5.71406E-13 4.89776E-13 4.90139E-21-4.95940E-22 3.78932E-21
 -1        49-5.71406E-13-5.71406E-13 4.89776E-13 3.21408E-21 8.94676E-22-1.83766E-23
 -1        50-3.80937E-13-3.80937E-13 3.26518E-13 1.99490E-21 7.03649E-22 7.07796E-23
 -1        51-3.80937E-13-3.80937E-13 3.26518E-13 1.96718E-21-2.72165E-21 1.06585E-22
 -1        52-3.80937E-13-3.80937E-13 3.26518E-13 1.67673E-21-3.27844E-22-6.96854E-22
 -1        53-3.80937E-13-3.80937E-13 3.26518E-13 6.61149E-21-1.95833E-21 6.56863E-22
 -1        54-5.71406E-13-5.71406E-13 4.89776E-13-8.56165E-21-4.01567E-21 2.42335E-21
 -1        55-5.71406E-13-5.71406E-13 4.89776E-13-3.59883E-21 5.19572E-22 3.92942E-23
 -1        56-3.80937E-13-3.80937E-13 3.26518E-13-2.54704E-21-9.04126E-22-1.01950E-22
 -1        57-3.80937E-13-3.80937E-13 3.26518E-13-1.13604E-21 3.42599E-21 1.37470E-23
 -1        58-3.80937E-13-3.80937E-13 3.26518E-13-6.56973E-22-1.56677E-21-5.06078E-23
 -1        59-3.80937E-13-3.80937E-13 3.26518E-13 1.25479E-22 1.95830E-21 6.25977E-21
 -1        60-5.71406E-13-5.71406E-13 4.89776E-13 2.76870E-21 4.07439E-21-8.12662E-21
 -1        61-5.71406E-13-5.71406E-13 4.89776E-13-1.69407E-21-7.10987E-22 7.40268E-22
 -1        62-3.80937E-13-3.80937E-13 3.26518E-13-7.43119E-22-2.59208E-21 2.81641E-22
 -1        63-3.80937E-13-3.80937E-13 3.26518E-13-2.67119E-21 6.26939E-22-4.32058E-21
 -1        64-3.80937E-13-3.80937E-13 3.26518E-13 2.17962E-21-1.92468E-21 1.38715E-21
 -1        65-3.80937E-13-3.80937E-13 3.26518E-13-7.54805E-21 3.06142E-21-2.54350E-22
 -1        66-5.71406E-13-5.71406E-13 4.89776E-13-1.54732E-21-1.90152E-21 2.31045E-21
 -1        67-1.14281E-12-1.14281E-12 9.79553E-13 9.07747E-22-1.32569E-20-1.86063E-21
 -1        68-5.71406E-13-5.71406E-13 4.89776E-13 1.03326E-21 6.85258E-21-6.21460E-22
 -1        69-5.71406E-13-5.71406E-13 4.89776E-13-4.27703E-21 8.78176E-22 5.03852E-21
 -1        70-5.71406E-13-5.71406E-13 4.89776E-13 4.27803E-21-1.47521E-21-4.24345E-21
 -1        71-5.71406E-13-5.71406E-13 4.89776E-13-1.30348E-20-1.44641E-21-9.34995E-22
 -1        72-1.14281E-12-1.14281E-12 9.79553E-13 9.68963E-21 5.87682E-21 2.25401E-22
 -3
    1PSTEP                         7           3           1          
  100CL  103 3.50000E-03          72                     0    3           1
 -4  DISP        4    1
 -5  D1          1    2    1    0
 -5  D2          1    2    2    0
 -5  D3          1    2    3    0
 -5  ALL         1    2    0    0    1ALL
 -1         1 0.00000E+00 0.00000E+00 0.00000E+00
 -1         2-1.00000E-09 0.00000E+00 0.00000E+00
 -1         3-5.25000E-02 0.00000E+00 0.00000E+00
 -1         4-5.25000E-02 0.00000E+00 0.00000E+00
 -1         5-1.05000E-01 0.00000E+00 0.00000E+00
 -1         6-1.05000E-01 0.00000E+00 0.00000E+00
 -1         7 0.00000E+00-1.00000E-09 0.00000E+00
 -1         8-1.00000E-09-1.00000E-09 0.00000E+00
 -1         9-5.25000E-02-1.00000E-09 0.00000E+00
 -1        10-5.25000E-02-1.00000E-09 0.00000E+00
 -1        11-1.05000E-01-1.00000E-09 0.00000E+00
 -1        12-1.05000E-01-1.00000E-09 0.00000E+00
 -1        13 0.00000E+00-5.25000E-02 0.00000E+00
 -1        14-1.00000E-09-5.25000E-02 0.00000E+00
 -1        15-5.25000E-02-5.25000E-02 0.00000E+00
 -1        16-5.25000E-02-5.25000E-02 0.00000E+00
 -1        17-1.05000E-01-5.25000E-02 0.00000E+00
 -1        18-1.05000E-01-5.25000E-02 0.00000E+00
 -1        19 0.00000E+00-5.25000E-02 0.00000E+00
 -1        20-1.00000E-09-5.25000E-02 0.00000E+00
 -1        21-5.25000E-02-5.25000E-02 0.00000E+00
 -1        22-5.25000E-02-5.25000E-02 0.00000E+00
 -1        23-1.05000E-01-5.25000E-02 0.00000E+00
 -1        24-1.05000E-01-5.25000E-02 0.00000E+00
 -1        25 0.00000E+00-1.05000E-01 0.00000E+00
 -1        26-1.00000E-09-1.05000E-01 0.00000E+00
 -1        27-5.25000E-02-1.05000E-01 0.00000E+00
 -1        28-5.25000E-02-1.05000E-01 0.00000E+00
 -1        29-1.05000E-01-1.05000E-01 0.00000E+00
 -1        30-1.05000E-01-1.05000E-01 0.00000E+00
 -1        31 0.00000E+00-1.05000E-01 0.00000E+00
 -1        32-1.00000E-09-1.05000E-01 0.00000E+00
 -1        33-5.25000E-02-1.05000E-01 0.00000E+00
 -1        34-5.25000E-02-1.05000E-01 0.00000E+00
 -1        35-1.05000E-01-1.05000E-01 0.00000E+00
 -1        36-1.05000E-01-1.05000E-01 0.00000E+00
 -1        37 0.00000E+00 0.00000E+00 1.20000E-09
 -1        38-1.00000E-09 0.00000E+00 1.20000E-09
 -1        39-5.25000E-02 0.00000E+00 1.20000E-09
 -1        40-5.25000E-02 0.00000E+00 1.20000E-09
 -1        41-1.05000E-01 0.00000E+00 1.20000E-09
 -1        42-1.05000E-01 0.00000E+00 1.20000E-09
 -1        43 0.00000E+00-1.00000E-09 1.20000E-09
 -1        44-1.00000E-09-1.00000E-09 1.20000E-09
 -1        45-5.25000E-02-1.00000E-09 1.20000E-09
 -1        46-5.25000E-02-1.00000E-09 1.20000E-09
 -1        47-1.05000E-01-1.00000E-09 1.20000E-09
 -1        48-1.05000E-01-1.00000E-09 1.20000E-09
 -1        49 0.00000E+00-5.25000E-02 1.20000E-09
 -1        50-1.00000E-09-5.25000E-02 1.20000E-09
 -1        51-5.25000E-02-5.25000E-02 1.20000E-09
 -1        52-5.25000E-02-5.25000E-02 1.20000E-09
 -1        53-1.05000E-01-5.25000E-02 1.20000E-09
 -1        54-1.05000E-01-5.25000E-02 1.20000E-09
 -1        55 0.00000E+00-5.25000E-02 1.20000E-09
 -1        56-1.00000E-09-5.25000E-02 1.20000E-09
 -1        57-5.25000E-02-5.25000E-02 1.20000E-09
 -1        58-5.25000E-02-5.25000E-02 1.20000E-09
 -1        59-1.05000E-01-5.25000E-02 1.20000E-09
 -1        60-1.05000E-01-5.25000E-02 1.20000E-09
 -1        61 0.00000E+00-1.05000E-01 1.20000E-09
 -1        62-1.00000E-09-1.05000E-01 1.20000E-09
 -1        63-5.25000E-02-1.05000E-01 1.20000E-09
 -1        64-5.25000E-02-1.05000E-01 1.20000E-09
 -1        65-1.05000E-01-1.05000E-01 1.20000E-09
 -1        66-1.05000E-01-1.05000E-01 1.20000E-09
 -1        67 0.00000E+00-1.05000E-01 1.20000E-09
 -1        68-1.00000E-09-1.05000E-01 1.20000E-09
 -1        69-5.25000E-02-1.05000E-01 1.20000E-09
 -1        70-5.25000E-02-1.05000E-01 1.20000E-09
 -1        71-1.05000E-01-1.05000E-01 1.20000E-09
 -1        72-1.05000E-01-1.05000E-01 1.20000E-09
 -3
    1PSTEP                         8           3           1          
  100CL  103 3.50000E-03          72                     0    3           1
 -4  STRESS      6    1
 -5  SXX         1    4    1    1
 -5  SYY         1    4    2    2
 -5  SZZ         1    4    3    3
 -5  SXY         1    4    1    2
 -5  SYZ         1    4    2    3
 -5  SZX         1    4    3    1
 -1         1-5.99976E-07-5.99976E-07-3.35637E-23-1.72293E-23-3.60412E-24 5.23353E-24
 -1         2-2.99988E-07-2.99988E-07-6.26275E-23 3.04971E-23 2.50255E-24 5.64080E-23
 -1         3-2.99988E-07-2.99988E-07 1.86045E-15 9.15190E-16 2.93226E-22-8.76632E-16
 -1         4-2.99988E-07-2.99988E-07 1.80228E-15 1.07026E-15-1.37505E-22 1.02877E-15
 -1         5-2.99988E-07-2.99988E-07-1.08116E-15-8.90939E-16-2.00546E-21-1.41479E-15
 -1         6-5.99976E-07-5.99976E-07 8.96372E-17 6.64999E-15-1.52880E-21 4.25888E-15
 -1         7-2.99988E-07-2.99988E-07 1.29751E-22 1.86847E-23-3.26620E-23 4.81523E-24
 -1         8-1.99992E-07-1.99992E-07-1.11879E-23 3.85310E-23 4.64354E-25 1.42046E-23
 -1         9-1.99992E-07-1.99992E-07 3.91548E-16 8.39068E-16-4.22390E-17 6.40403E-16
 -1        10-1.99992E-07-1.99992E-07 3.33490E-17-4.59358E-16 1.33280E-18-8.94736E-16
 -1        11-1.99992E-07-1.99992E-07-4.56662E-16-1.26895E-16-1.02789E-16-1.45837E-15
 -1        12-2.99988E-07-2.99988E-07-1.85543E-16-8.80039E-16 4.45161E-16 1.23861E-15
 -1        13-2.99988E-07-2.99988E-07-4.92136E-16 3.20957E-19 1.17186E-15 3.54520E-22
 -1        14-1.99992E-07-1.99992E-07-1.06141E-15 8.52642E-18 6.64543E-16-1.14213E-17
 -1        15-1.99992E-07-1.99992E-07-2.10640E-16-7.79816E-16 4.11120E-16 7.67012E-16
 -1        16-1.99992E-07-1.99992E-07-6.40821E-18-2.40256E-16-1.31458E-16-4.46139E-16
 -1        17-1.99992E-07-1.99992E-07 1.64766E-15 1.88213E-15-4.13576E-16 2.20220E-16
 -1        18-2.99988E-07-2.99988E-07 2.45026E-15 2.92561E-16-5.77955E-17-2.20398E-15
 -1        19-2.99988E-07-2.99988E-07-1.75014E-16-1.71083E-17-3.97644E-16-1.95756E-22
 -1        20-1.99992E-07-1.99992E-07-3.93644E-16-3.09305E-18-6.63950E-16-5.78048E-17
 -1        21-1.99992E-07-1.99992E-07-5.61205E-16-6.14075E-16 6.12612E-17-3.81081E-16
 -1        22-1.99992E-07-1.99992E-07-9.10664E-17 1.99138E-16-6.04496E-16 7.74758E-16
 -1        23-1.99992E-07-1.99992E-07 2.49362E-16 1.29353E-15-4.84077E-18-4.59652E-16
 -1        24-2.99988E-07-2.99988E-07-2.11064E-15-1.09069E-15 6.62959E-16-4.50364E-16
 -1        25-2.99988E-07-2.99988E-07-1.49525E-15-2.58989E-15 7.85082E-16-9.67937E-22
 -1        26-1.99992E-07-1.99992E-07 3.17932E-16-1.36651E-15-1.27490E-15 2.76635E-16
 -1        27-1.99992E-07-1.99992E-07-1.08264E-15-6.56036E-16 1.51397E-15-1.85686E-16
 -1        28-1.99992E-07-1.99992E-07-2.62556E-15 2.44836E-15-2.61321E-15 6.29467E-16
 -1        29-1.99992E-07-1.99992E-07-1.51875E-15-2.53536E-16-8.40493E-16-2.19170E-15
 -1        30-2.99988E-07-2.99988E-07 7.43730E-16-4.76686E-16 2.82821E-16 1.84629E-15
 -1        31-5.99976E-07-5.99976E-07 8.40401E-17 1.38790E-15-4.20342E-15-1.89337E-21
 -1        32-2.99988E-07-2.99988E-07 1.91126E-15 1.23407E-15 1.88330E-15-2.56476E-16
 -1        33-2.99988E-07-2.99988E-07 1.34425E-15-4.78330E-16-2.25662E-15-1.04261E-16
 -1        34-2.99988E-07-2.99988E-07 7.66026E-16 1.78513E-15 1.51350E-15-7.87373E-16
 -1        35-2.99988E-07-2.99988E-07-4.55694E-16-4.65066E-16 3.37814E-16 2.04882E-15
 -1        36-5.99976E-07-5.99976E-07-3.20423E-15-3.20677E-16-1.51558E-16-4.89912E-15
 -1        37-5.99976E-07-5.99976E-07-1.25255E-22-4.47662E-24-3.72669E-25-4.56729E-23
 -1        38-2.99988E-07-2.99988E-07 2.67290E-22-3.95843E-23-3.52750E-24 2.42384E-23
 -1        39-2.99988E-07-2.99988E-07-2.06301E-16-1.44721E-15 1.22033E-16 2.82448E-17
 -1        40-2.99988E-07-2.99988E-07-1.27218E-16 9.15190E-16-6.96194E-17-2.17184E-15
 -1        41-2.99988E-07-2.99988E-07-4.51160E-16-7.21701E-16 6.13428E-17 1.20927E-15
 -1        42-5.99976E-07-5.99976E-07 3.86687E-15 5.38680E-15-3.78532E-16-3.24876E-15
 -1        43-2.99988E-07-2.99988E-07-1.67818E-23 7.55232E-23-3.10463E-23-3.80585E-23
 -1        44-1.99992E-07-1.99992E-07-4.17517E-23 2.54515E-23-3.55568E-24 2.33301E-24
 -1        45-1.99992E-07-1.99992E-07 3.47771E-16-1.05047E-15 3.91161E-17 8.92255E-17
 -1        46-1.99992E-07-1.99992E-07 8.10730E-17 9.00070E-16-4.50800E-17 6.75360E-16
 -1        47-1.99992E-07-1.99992E-07-2.41904E-16 6.95561E-16-6.18927E-17-2.28433E-16
 -1        48-2.99988E-07-2.99988E-07 1.39522E-15-1.51364E-15 2.55896E-16 1.14918E-15
 -1        49-2.99988E-07-2.99988E-07-1.49931E-15-1.71086E-17 9.17826E-16 9.06784E-17
 -1        50-1.99992E-07-1.99992E-07 1.33099E-15-6.80297E-17 3.60423E-16 4.90307E-17
 -1        51-1.99992E-07-1.99992E-07-1.21998E-15 1.20141E-16-1.51862E-15-3.36440E-16
 -1        52-1.99992E-07-1.99992E-07-1.65627E-15-2.98085E-16 6.95811E-16 4.43126E-16
 -1        53-1.99992E-07-1.99992E-07 3.39111E-16-1.87258E-15-4.98288E-17-8.93788E-16
 -1        54-2.99988E-07-2.99988E-07 1.73294E-15 9.33063E-16-3.75005E-16-6.91089E-16
 -1        55-2.99988E-07-2.99988E-07-4.26832E-16 8.89042E-16-1.17753E-15 3.90772E-18
 -1        56-1.99992E-07-1.99992E-07-3.41536E-16 5.36070E-16 3.40284E-16-5.51995E-17
 -1        57-1.99992E-07-1.99992E-07 9.70147E-16-3.98251E-16 5.73845E-16 7.03227E-17
 -1        58-1.99992E-07-1.99992E-07-1.51088E-15-5.42824E-16-4.75007E-16-8.69175E-16
 -1        59-1.99992E-07-1.99992E-07-1.04981E-15-6.73937E-16 2.59641E-16-9.80437E-17
 -1        60-2.99988E-07-2.99988E-07 7.31736E-15-2.57698E-16-6.97616E-17 1.32080E-15
 -1        61-2.99988E-07-2.99988E-07 1.89940E-15 2.58989E-15-5.02870E-15-3.62635E-16
 -1        62-1.99992E-07-1.99992E-07-3.13619E-15 1.46001E-15 2.69931E-15 3.48790E-17
 -1        63-1.99992E-07-1.99992E-07-1.01176E-15 3.60606E-16-2.05559E-15-6.95511E-16
 -1        64-1.99992E-07-1.99992E-07 1.51524E-15-1.34584E-15 4.28485E-16 1.00410E-15
 -1        65-1.99992E-07-1.99992E-07-3.85675E-16 7.22598E-16-7.77381E-16-6.12939E-16
 -1        66-2.99988E-07-2.99988E-07 2.52583E-15 3.03054E-15 1.15321E-15 1.14988E-15
 -1        67-5.99976E-07-5.99976E-07 4.47501E-16-1.38791E-15 7.59065E-15 6.34733E-16
 -1        68-2.99988E-07-2.99988E-07 2.04874E-15-1.09383E-15-2.84000E-15 6.08918E-17
 -1        69-2.99988E-07-2.99988E-07-2.91178E-15 2.95417E-16 3.27351E-15 9.26788E-16
 -1        70-2.99988E-07-2.99988E-07-5.12422E-17-1.10256E-15-1.52459E-15 1.48429E-16
 -1        71-2.99988E-07-2.99988E-07-2.06005E-15 2.42644E-15 7.32967E-16-1.35356E-15
 -1        72-5.99976E-07-5.99976E-07-4.11504E-15-3.95995E-15-6.53669E-16 2.42955E-15
 -3
    1PSTEP                         9           3           1          
  100CL  103 3.50000E-03          72                     0    3           1
 -4  TOSTRAIN    6    1
 -5  EXX         1    4    1    1
 -5  EYY         1    4    2    2
 -5  EZZ         1    4    3    3
 -5  EXY         1    4    1    2
 -5  EYZ         1    4    2    3
 -5  EZX         1    4    3    1
 -1         1-1.99992E-12-1.99992E-12 1.71422E-12-1.06658E-28-2.23112E-29 3.23981E-29
 -1         2-9.99960E-13-9.99960E-13 8.57108E-13 1.88792E-28 1.54920E-29 3.49192E-28
 -1         3-9.99960E-13-9.99960E-13 8.57108E-13 5.66546E-21 1.81521E-27-5.42677E-21
 -1         4-9.99960E-13-9.99960E-13 8.57108E-13 6.62542E-21-8.51222E-28 6.36857E-21
 -1         5-9.99960E-13-9.99960E-13 8.57108E-13-5.51534E-21-1.24148E-26-8.75819E-21
 -1         6-1.99992E-12-1.99992E-12 1.71422E-12 4.11666E-20-9.46401E-27 2.63645E-20
 -1         7-9.99960E-13-9.99960E-13 8.57108E-13 1.15667E-28-2.02194E-28 2.98086E-29
 -1         8-6.66640E-13-6.66640E-13 5.71406E-13 2.38525E-28 2.87457E-30 8.79334E-29
 -1         9-6.66640E-13-6.66640E-13 5.71406E-13 5.19423E-21-2.61479E-22 3.96440E-21
 -1        10-6.66640E-13-6.66640E-13 5.71406E-13-2.84365E-21 8.25070E-24-5.53884E-21
 -1        11-6.66640E-13-6.66640E-13 5.71406E-13-7.85539E-22-6.36315E-22-9.02802E-21
 -1        12-9.99960E-13-9.99960E-13 8.57108E-13-5.44786E-21 2.75576E-21 7.66756E-21
 -1        13-9.99960E-13-9.99960E-13 8.57108E-13 1.98688E-24 7.25440E-21 2.19465E-27
 -1        14-6.66640E-13-6.66640E-13 5.71406E-13 5.27826E-23 4.11384E-21-7.07031E-23
 -1        15-6.66640E-13-6.66640E-13 5.71406E-13-4.82743E-21 2.54503E-21 4.74817E-21
 -1        16-6.66640E-13-6.66640E-13 5.71406E-13-1.48730E-21-8.13790E-22-2.76181E-21
 -1        17-6.66640E-13-6.66640E-13 5.71406E-13 1.16513E-20-2.56023E-21 1.36327E-21
 -1        18-9.99960E-13-9.99960E-13 8.57108E-13 1.81109E-21-3.57782E-22-1.36437E-20
 -1        19-9.99960E-13-9.99960E-13 8.57108E-13-1.05908E-22-2.46160E-21-1.21182E-27
 -1        20-6.66640E-13-6.66640E-13 5.71406E-13-1.91475E-23-4.11017E-21-3.57839E-22
 -1        21-6.66640E-13-6.66640E-13 5.71406E-13-3.80142E-21 3.79236E-22-2.35907E-21
 -1        22-6.66640E-13-6.66640E-13 5.71406E-13 1.23276E-21-3.74212E-21 4.79612E-21
 -1        23-6.66640E-13-6.66640E-13 5.71406E-13 8.00754E-21-2.99667E-23-2.84546E-21
 -1        24-9.99960E-13-9.99960E-13 8.57108E-13-6.75189E-21 4.10403E-21-2.78797E-21
 -1        25-9.99960E-13-9.99960E-13 8.57108E-13-1.60326E-20 4.86003E-21-5.99199E-27
 -1        26-6.66640E-13-6.66640E-13 5.71406E-13-8.45934E-21-7.89221E-21 1.71250E-21
 -1        27-6.66640E-13-6.66640E-13 5.71406E-13-4.06117E-21 9.37221E-21-1.14949E-21
 -1        28-6.66640E-13-6.66640E-13 5.71406E-13 1.51565E-20-1.61770E-20 3.89670E-21
 -1        29-6.66640E-13-6.66640E-13 5.71406E-13-1.56951E-21-5.20305E-21-1.35676E-20
 -1        30-9.99960E-13-9.99960E-13 8.57108E-13-2.95091E-21 1.75080E-21 1.14294E-20
 -1        31-1.99992E-12-1.99992E-12 1.71422E-12 8.59177E-21-2.60212E-20-1.17209E-26
 -1        32-9.99960E-13-9.99960E-13 8.57108E-13 7.63950E-21 1.16585E-20-1.58771E-21
 -1        33-9.99960E-13-9.99960E-13 8.57108E-13-2.96109E-21-1.39695E-20-6.45423E-22
 -1        34-9.99960E-13-9.99960E-13 8.57108E-13 1.10508E-20 9.36930E-21-4.87421E-21
 -1        35-9.99960E-13-9.99960E-13 8.57108E-13-2.87898E-21 2.09123E-21 1.26832E-20
 -1        36-1.99992E-12-1.99992E-12 1.71422E-12-1.98514E-21-9.38214E-22-3.03279E-20
 -1        37-1.99992E-12-1.99992E-12 1.71422E-12-2.77124E-29-2.30700E-30-2.82737E-28
 -1        38-9.99960E-13-9.99960E-13 8.57108E-13-2.45046E-28-2.18369E-29 1.50047E-28
 -1        39-9.99960E-13-9.99960E-13 8.57108E-13-8.95890E-21 7.55442E-22 1.74849E-22
 -1        40-9.99960E-13-9.99960E-13 8.57108E-13 5.66546E-21-4.30977E-22-1.34447E-20
 -1        41-9.99960E-13-9.99960E-13 8.57108E-13-4.46768E-21 3.79741E-22 7.48598E-21
 -1        42-1.99992E-12-1.99992E-12 1.71422E-12 3.33468E-20-2.34329E-21-2.01113E-20
 -1        43-9.99960E-13-9.99960E-13 8.57108E-13 4.67525E-28-1.92192E-28-2.35600E-28
 -1        44-6.66640E-13-6.66640E-13 5.71406E-13 1.57557E-28-2.20114E-29 1.44424E-29
 -1        45-6.66640E-13-6.66640E-13 5.71406E-13-6.50291E-21 2.42147E-22 5.52349E-22
 -1        46-6.66640E-13-6.66640E-13 5.71406E-13 5.57186E-21-2.79067E-22 4.18080E-21
 -1        47-6.66640E-13-6.66640E-13 5.71406E-13 4.30585E-21-3.83145E-22-1.41411E-21
 -1        48-9.99960E-13-9.99960E-13 8.57108E-13-9.37015E-21 1.58412E-21 7.11395E-21
 -1        49-9.99960E-13-9.99960E-13 8.57108E-13-1.05910E-22 5.68178E-21 5.61342E-22
 -1        50-6.66640E-13-6.66640E-13 5.71406E-13-4.21136E-22 2.23119E-21 3.03524E-22
 -1        51-6.66640E-13-6.66640E-13 5.71406E-13 7.43729E-22-9.40095E-21-2.08272E-21
 -1        52-6.66640E-13-6.66640E-13 5.71406E-13-1.84529E-21 4.30740E-21 2.74316E-21
 -1        53-6.66640E-13-6.66640E-13 5.71406E-13-1.15922E-20-3.08464E-22-5.53297E-21
 -1        54-9.99960E-13-9.99960E-13 8.57108E-13 5.77610E-21-2.32146E-21-4.27817E-21
 -1        55-9.99960E-13-9.99960E-13 8.57108E-13 5.50359E-21-7.28948E-21 2.41907E-23
 -1        56-6.66640E-13-6.66640E-13 5.71406E-13 3.31853E-21 2.10652E-21-3.41711E-22
 -1        57-6.66640E-13-6.66640E-13 5.71406E-13-2.46536E-21 3.55237E-21 4.35331E-22
 -1        58-6.66640E-13-6.66640E-13 5.71406E-13-3.36034E-21-2.94052E-21-5.38061E-21
 -1        59-6.66640E-13-6.66640E-13 5.71406E-13-4.17199E-21 1.60730E-21-6.06937E-22
 -1        60-9.99960E-13-9.99960E-13 8.57108E-13-1.59528E-21-4.31858E-22 8.17637E-21
 -1        61-9.99960E-13-9.99960E-13 8.57108E-13 1.60326E-20-3.11300E-20-2.24488E-21
 -1        62-6.66640E-13-6.66640E-13 5.71406E-13 9.03813E-21 1.67100E-20 2.15918E-22
 -1        63-6.66640E-13-6.66640E-13 5.71406E-13 2.23232E-21-1.27251E-20-4.30554E-21
 -1        64-6.66640E-13-6.66640E-13 5.71406E-13-8.33142E-21 2.65252E-21 6.21586E-21
 -1        65-6.66640E-13-6.66640E-13 5.71406E-13 4.47323E-21-4.81236E-21-3.79438E-21
 -1        66-9.99960E-13-9.99960E-13 8.57108E-13 1.87605E-20 7.13892E-21 7.11833E-21
 -1        67-1.99992E-12-1.99992E-12 1.71422E-12-8.59180E-21 4.69897E-20 3.92930E-21
 -1        68-9.99960E-13-9.99960E-13 8.57108E-13-6.77132E-21-1.75809E-20 3.76949E-22
 -1        69-9.99960E-13-9.99960E-13 8.57108E-13 1.82877E-21 2.02646E-20 5.73726E-21
 -1        70-9.99960E-13-9.99960E-13 8.57108E-13-6.82539E-21-9.43793E-21 9.18847E-22
 -1        71-9.99960E-13-9.99960E-13 8.57108E-13 1.50208E-20 4.53742E-21-8.37920E-21
 -1        72-1.99992E-12-1.99992E-12 1.71422E-12-2.45140E-20-4.04652E-21 1.50400E-20
 -3
    1PSTEP                        10           4           1          
  100CL  104 5.75000E-03          72                     0    4           1
 -4  DISP        4    1
 -5  D1          1    2    1    0
 -5  D2          1    2    2    0
 -5  D3          1    2    3    0
 -5  ALL         1    2    0    0    1ALL
 -1         1 0.00000E+00 0.00000E+00 0.00000E+00
 -1         2-1.64286E-09 0.00000E+00 0.00000E+00
 -1         3-8.62500E-02 0.00000E+00 0.00000E+00
 -1         4-8.62500E-02 0.00000E+00 0.00000E+00
 -1         5-1.72500E-01 0.00000E+00 0.00000E+00
 -1         6-1.72500E-01 0.00000E+00 0.00000E+00
 -1         7 0.00000E+00-1.64286E-09 0.00000E+00
 -1         8-1.64286E-09-1.64286E-09 0.00000E+00
 -1         9-8.62500E-02-1.64286E-09 0.00000E+00
 -1        10-8.62500E-02-1.64286E-09 0.00000E+00
 -1        11-1.72500E-01-1.64286E-09 0.00000E+00
 -1        12-1.72500E-01-1.64286E-09 0.00000E+00
 -1        13 0.00000E+00-8.62500E-02 0.00000E+00
 -1        14-1.64286E-09-8.62500E-02 0.00000E+00
 -1        15-8.62500E-02-8.62500E-02 0.00000E+00
 -1        16-8.62500E-02-8.62500E-02 0.00000E+00
 -1        17-1.72500E-01-8.62500E-02 0.00000E+00
 -1        18-1.72500E-01-8.62500E-02 0.00000E+00
 -1        19 0.00000E+00-8.62500E-02 0.00000E+00
 -1        20-1.64286E-09-8.62500E-02 0.00000E+00
 -1        21-8.62500E-02-8.62500E-02 0.00000E+00
 -1        22-8.62500E-02-8.62500E-02 0.00000E+00
 -1        23-1.72500E-01-8.62500E-02 0.00000E+00
 -1        24-1.72500E-01-8.62500E-02 0.00000E+00
 -1        25 0.00000E+00-1.72500E-01 0.00000E+00
 -1        26-1.64286E-09-1.72500E-01 0.00000E+00
 -1        27-8.62500E-02-1.72500E-01 0.00000E+00
 -1        28-8.62500E-02-1.72500E-01 0.00000E+00
 -1        29-1.72500E-01-1.72500E-01 0.00000E+00
 -1        30-1.72500E-01-1.72500E-01 0.00000E+00
 -1        31 0.00000E+00-1.72500E-01 0.00000E+00
 -1        32-1.64286E-09-1.72500E-01 0.00000E+00
 -1        33-8.62500E-02-1.72500E-01 0.00000E+00
 -1        34-8.62500E-02-1.72500E-01 0.00000E+00
 -1        35-1.72500E-01-1.72500E-01 0.00000E+00
 -1        36-1.72500E-01-1.72500E-01 0.00000E+00
 -1        37 0.00000E+00 0.00000E+00 1.97143E-09
 -1        38-1.64286E-09 0.00000E+00 1.97143E-09
 -1        39-8.62500E-02 0.00000E+00 1.97143E-09
 -1        40-8.62500E-02 0.00000E+00 1.97143E-09
 -1        41-1.72500E-01 0.00000E+00 1.97143E-09
 -1        42-1.72500E-01 0.00000E+00 1.97143E-09
 -1        43 0.00000E+00-1.64286E-09 1.97143E-09
 -1        44-1.64286E-09-1.64286E-09 1.97143E-09
 -1        45-8.62500E-02-1.64286E-09 1.97143E-09
 -1        46-8.62500E-02-1.64286E-09 1.97143E-09
 -1        47-1.72500E-01-1.64286E-09 1.97143E-09
 -1        48-1.72500E-01-1.64286E-09 1.97143E-09
 -1        49 0.00000E+00-8.62500E-02 1.97143E-09
 -1        50-1.64286E-09-8.62500E-02 1.97143E-09
 -1        51-8.62500E-02-8.62500E-02 1.97143E-09
 -1        52-8.62500E-02-8.62500E-02 1.97143E-09
 -1        53-1.72500E-01-8.62500E-02 1.97143E-09
 -1        54-1.72500E-01-8.62500E-02 1.97143E-09
 -1        55 0.00000E+00-8.62500E-02 1.97143E-09
 -1        56-1.64286E-09-8.62500E-02 1.97143E-09
 -1        57-8.62500E-02-8.62500E-02 1.97143E-09
 -1        58-8.62500E-02-8.62500E-02 1.97143E-09
 -1        59-1.72500E-01-8.62500E-02 1.97143E-09
 -1        60-1.72500E-01-8.62500E-02 1.97143E-09
 -1        61 0.00000E+00-1.72500E-01 1.97143E-09
 -1        62-1.64286E-09-1.72500E-01 1.97143E-09
 -1        63-8.62500E-02-1.72500E-01 1.97143E-09
 -1        64-8.62500E-02-1.72500E-01 1.97143E-09
 -1        65-1.72500E-01-1.72500E-01 1.97143E-09
 -1        66-1.72500E-01-1.72500E-01 1.97143E-09
 -1        67 0.00000E+00-1.72500E-01 1.97143E-09
 -1        68-1.64286E-09-1.72500E-01 1.97143E-09
 -1        69-8.62500E-02-1.72500E-01 1.97143E-09
 -1        70-8.62500E-02-1.72500E-01 1.97143E-09
 -1        71-1.72500E-01-1.72500E-01 1.97143E-09
 -1        72-1.72500E-01-1.72500E-01 1.97143E-09
 -3
    1PSTEP                        11           4           1          
  100CL  104 5.75000E-03          72                     0    4           1
 -4  STRESS      6    1
 -5  SXX         1    4    1    1
 -5  SYY         1    4    2    2
 -5  SZZ         1    4    3    3
 -5  SXY         1    4    1    2
 -5  SYZ         1    4    2    3
 -5  SZX         1    4    3    1
 -1         1-9.85675E-07-9.85675E-07 1.41836E-23-1.23730E-23 1.19057E-23-3.53668E-24
 -1         2-4.92837E-07-4.92837E-07 7.09178E-24-2.42947E-23-4.81450E-24-6.01359E-23
 -1         3-4.92837E-07-4.92837E-07 1.89339E-15 8.35021E-16-1.14722E-21-1.19598E-16
 -1         4-4.92837E-07-4.92837E-07 2.03844E-15 2.06333E-15-7.09097E-22-9.11186E-17
 -1         5-4.92837E-07-4.92837E-07 6.07839E-16 2.45800E-15-5.05977E-21 1.12209E-15
 -1         6-9.85675E-07-9.85675E-07-1.65284E-15 3.38859E-15 1.85869E-21-9.52886E-16
 -1         7-4.92837E-07-4.92837E-07-2.64698E-23 4.44659E-23 2.77881E-23 1.44517E-24
 -1         8-3.28558E-07-3.28558E-07-1.76465E-23 1.75719E-23 1.52784E-23 5.42742E-23
 -1         9-3.28558E-07-3.28558E-07 7.26811E-16 1.22009E-15 4.04866E-17 5.95534E-17
 -1        10-3.28558E-07-3.28558E-07 1.22489E-15-1.05172E-15-3.76364E-17-9.27535E-16
 -1        11-3.28558E-07-3.28558E-07 3.68647E-16 1.51911E-15-1.30648E-16 1.23839E-16
 -1        12-4.92837E-07-4.92837E-07 1.65872E-15-2.87953E-16 4.81764E-16-1.68776E-15
 -1        13-4.92837E-07-4.92837E-07 1.99729E-15-6.41532E-17 1.99966E-15 7.64395E-22
 -1        14-3.28558E-07-3.28558E-07 3.94449E-16-1.26059E-16-1.57904E-16-8.07661E-17
 -1        15-3.28558E-07-3.28558E-07 3.57268E-15-2.34756E-16 1.30061E-15-5.13370E-17
 -1        16-3.28558E-07-3.28558E-07-1.09924E-16 2.61613E-15-7.53300E-16 4.65252E-16
 -1        17-3.28558E-07-3.28558E-07-1.44496E-15-1.04858E-15-1.07406E-16-1.84687E-15
 -1        18-4.92837E-07-4.92837E-07-4.37846E-16 1.31752E-15-2.60011E-16 2.44232E-15
 -1        19-4.92837E-07-4.92837E-07 1.45098E-15 3.42100E-17 2.26784E-15-1.14072E-22
 -1        20-3.28558E-07-3.28558E-07-9.34987E-16-6.04830E-17-1.50816E-16 1.36434E-16
 -1        21-3.28558E-07-3.28558E-07 3.65759E-15-1.64613E-15-1.64758E-15 1.15790E-15
 -1        22-3.28558E-07-3.28558E-07-2.35857E-16-9.97886E-16 1.25827E-15 7.85115E-16
 -1        23-3.28558E-07-3.28558E-07-1.90733E-15 1.84934E-16-1.86715E-15 2.94640E-15
 -1        24-4.92837E-07-4.92837E-07-6.20828E-17-9.37012E-16 1.71159E-15-5.40667E-15
 -1        25-4.92837E-07-4.92837E-07-1.38130E-15 1.73497E-16-2.56820E-15-3.22026E-21
 -1        26-3.28558E-07-3.28558E-07-1.39823E-15-1.42685E-16-1.74954E-15-7.63852E-17
 -1        27-3.28558E-07-3.28558E-07-8.76300E-16 6.27510E-16-4.39838E-16-4.66235E-16
 -1        28-3.28558E-07-3.28558E-07-1.30705E-16 7.33353E-16-1.05574E-15-2.44744E-16
 -1        29-3.28558E-07-3.28558E-07-3.37856E-15-2.69004E-15-1.71962E-15-1.98906E-15
 -1        30-4.92837E-07-4.92837E-07 2.50006E-15 8.67493E-17-3.92393E-15 1.74387E-16
 -1        31-9.85675E-07-9.85675E-07 2.68169E-16-1.04091E-15-2.16152E-15-2.63571E-21
 -1        32-4.92837E-07-4.92837E-07-6.18037E-16-9.07978E-16-1.66671E-15 4.42220E-16
 -1        33-4.92837E-07-4.92837E-07-5.64398E-16-1.15991E-15-2.94598E-15 1.70376E-16
 -1        34-4.92837E-07-4.92837E-07 2.99485E-15-2.99435E-17-1.70068E-15 1.61876E-16
 -1        35-4.92837E-07-4.92837E-07 2.72107E-15 1.50870E-15-1.44632E-15 2.94937E-15
 -1        36-9.85675E-07-9.85675E-07-1.30237E-14 1.24851E-15 4.92182E-15 1.80247E-15
 -1        37-9.85675E-07-9.85675E-07-5.29396E-23-3.78780E-24-6.01083E-23-6.49566E-23
 -1        38-4.92837E-07-4.92837E-07-2.64698E-23 1.91022E-22 4.83342E-24-8.86071E-23
 -1        39-4.92837E-07-4.92837E-07-3.89661E-16 1.25088E-15-6.80130E-17-4.24184E-16
 -1        40-4.92837E-07-4.92837E-07-4.90707E-16 5.11285E-16 1.72818E-16-3.65518E-16
 -1        41-4.92837E-07-4.92837E-07 1.46260E-15-3.28254E-15-5.28471E-16-2.51774E-15
 -1        42-9.85675E-07-9.85675E-07 2.90316E-15-7.59351E-15 9.75074E-16 5.58428E-15
 -1        43-4.92837E-07-4.92837E-07 9.87852E-23-1.54660E-23 2.52027E-23 1.57904E-23
 -1        44-3.28558E-07-3.28558E-07 6.58568E-23 1.18300E-22 1.57402E-23 5.82674E-23
 -1        45-3.28558E-07-3.28558E-07 6.41453E-16 4.86499E-16-4.85460E-18 1.33703E-15
 -1        46-3.28558E-07-3.28558E-07 9.75473E-16 1.16855E-15 7.75762E-17-6.96385E-16
 -1        47-3.28558E-07-3.28558E-07-1.93487E-15-2.87731E-15-4.82959E-16 5.17352E-16
 -1        48-4.92837E-07-4.92837E-07-3.73318E-16 1.89849E-15 9.69300E-16 2.25609E-15
 -1        49-4.92837E-07-4.92837E-07-5.89884E-16 3.42117E-17-3.18406E-15 2.28663E-16
 -1        50-3.28558E-07-3.28558E-07 1.54302E-15 2.43600E-16-1.35125E-16 7.16751E-17
 -1        51-3.28558E-07-3.28558E-07-1.77778E-16-4.84405E-16-1.14047E-16 2.71975E-16
 -1        52-3.28558E-07-3.28558E-07 3.74530E-16 1.39528E-15-6.28417E-16-5.79701E-16
 -1        53-3.28558E-07-3.28558E-07 1.41367E-15-1.50690E-16-1.74922E-15-1.53930E-15
 -1        54-4.92837E-07-4.92837E-07 2.22831E-15 4.30627E-15 1.44615E-15 1.00013E-15
 -1        55-4.92837E-07-4.92837E-07-4.52010E-16-8.93624E-16-1.12103E-15-3.50476E-16
 -1        56-3.28558E-07-3.28558E-07 6.69709E-16-3.74958E-16-7.08885E-16-9.72160E-17
 -1        57-3.28558E-07-3.28558E-07 4.47730E-16-2.67275E-16 1.35022E-15 2.50214E-16
 -1        58-3.28558E-07-3.28558E-07 1.14468E-15 1.20730E-16-8.40074E-16-1.49084E-15
 -1        59-3.28558E-07-3.28558E-07-1.29891E-16-1.48619E-16 7.28208E-16-4.99173E-16
 -1        60-4.92837E-07-4.92837E-07-8.41671E-17 2.04578E-16 1.06418E-15 1.38527E-15
 -1        61-4.92837E-07-4.92837E-07-5.83669E-15-1.94240E-15-3.13869E-15-2.24628E-17
 -1        62-3.28558E-07-3.28558E-07 2.19919E-15-1.03361E-15 2.15939E-15-9.13582E-17
 -1        63-3.28558E-07-3.28558E-07 1.28297E-15-5.72942E-16-4.03228E-15-6.72252E-17
 -1        64-3.28558E-07-3.28558E-07-3.04743E-15 7.27675E-16-6.02887E-16-1.16750E-15
 -1        65-3.28558E-07-3.28558E-07 2.59266E-15-6.89805E-16-8.63846E-16 2.66232E-16
 -1        66-4.92837E-07-4.92837E-07-7.24773E-16-1.09820E-15 2.77516E-15 3.27696E-15
 -1        67-9.85675E-07-9.85675E-07-6.30406E-15 1.29497E-15 5.07886E-15-7.37825E-17
 -1        68-4.92837E-07-4.92837E-07 5.94736E-15 1.03947E-15 2.11252E-16 4.05330E-16
 -1        69-4.92837E-07-4.92837E-07 3.98845E-15-2.81035E-15 8.40654E-15 4.27396E-16
 -1        70-4.92837E-07-4.92837E-07 1.00014E-15-5.99182E-16-1.34339E-15 1.99107E-15
 -1        71-4.92837E-07-4.92837E-07-5.42952E-15 3.23758E-16-4.52399E-16-7.62508E-16
 -1        72-9.85675E-07-9.85675E-07-2.49864E-15-9.60382E-16 4.94317E-15-5.47105E-15
 -3
    1PSTEP                        12           4           1          
  100CL  104 5.75000E-03          72                     0    4           1
 -4  TOSTRAIN    6    1
 -5  EXX         1    4    1    1
 -5  EYY         1    4    2    2
 -5  EZZ         1    4    3    3
 -5  EXY         1    4    1    2
 -5  EYZ         1    4    2    3
 -5  EZX         1    4    3    1
 -1         1-3.28558E-12-3.28558E-12 2.81621E-12-7.65950E-29 7.37021E-29-2.18937E-29
 -1         2-1.64279E-12-1.64279E-12 1.40811E-12-1.50396E-28-2.98041E-29-3.72270E-28
 -1         3-1.64279E-12-1.64279E-12 1.40811E-12 5.16918E-21-7.10185E-27-7.40369E-22
 -1         4-1.64279E-12-1.64279E-12 1.40811E-12 1.27730E-20-4.38965E-27-5.64068E-22
 -1         5-1.64279E-12-1.64279E-12 1.40811E-12 1.52162E-20-3.13224E-26 6.94627E-21
 -1         6-3.28558E-12-3.28558E-12 2.81621E-12 2.09770E-20 1.15062E-26-5.89882E-21
 -1         7-1.64279E-12-1.64279E-12 1.40811E-12 2.75265E-28 1.72021E-28 8.94631E-30
 -1         8-1.09519E-12-1.09519E-12 9.38738E-13 1.08778E-28 9.45805E-29 3.35983E-28
 -1         9-1.09519E-12-1.09519E-12 9.38738E-13 7.55293E-21 2.50631E-22 3.68664E-22
 -1        10-1.09519E-12-1.09519E-12 9.38738E-13-6.51066E-21-2.32987E-22-5.74188E-21
 -1        11-1.09519E-12-1.09519E-12 9.38738E-13 9.40401E-21-8.08776E-22 7.66621E-22
 -1        12-1.64279E-12-1.64279E-12 1.40811E-12-1.78257E-21 2.98235E-21-1.04480E-20
 -1        13-1.64279E-12-1.64279E-12 1.40811E-12-3.97139E-22 1.23789E-20 4.73197E-27
 -1        14-1.09519E-12-1.09519E-12 9.38738E-13-7.80362E-22-9.77501E-22-4.99981E-22
 -1        15-1.09519E-12-1.09519E-12 9.38738E-13-1.45325E-21 8.05138E-21-3.17800E-22
 -1        16-1.09519E-12-1.09519E-12 9.38738E-13 1.61951E-20-4.66329E-21 2.88013E-21
 -1        17-1.09519E-12-1.09519E-12 9.38738E-13-6.49119E-21-6.64892E-22-1.14330E-20
 -1        18-1.64279E-12-1.64279E-12 1.40811E-12 8.15608E-21-1.60959E-21 1.51191E-20
 -1        19-1.64279E-12-1.64279E-12 1.40811E-12 2.11776E-22 1.40390E-20-7.06162E-28
 -1        20-1.09519E-12-1.09519E-12 9.38738E-13-3.74419E-22-9.33625E-22 8.44595E-22
 -1        21-1.09519E-12-1.09519E-12 9.38738E-13-1.01903E-20-1.01993E-20 7.16794E-21
 -1        22-1.09519E-12-1.09519E-12 9.38738E-13-6.17739E-21 7.78929E-21 4.86023E-21
 -1        23-1.09519E-12-1.09519E-12 9.38738E-13 1.14483E-21-1.15585E-20 1.82396E-20
 -1        24-1.64279E-12-1.64279E-12 1.40811E-12-5.80055E-21 1.05956E-20-3.34698E-20
 -1        25-1.64279E-12-1.64279E-12 1.40811E-12 1.07403E-21-1.58984E-20-1.99350E-26
 -1        26-1.09519E-12-1.09519E-12 9.38738E-13-8.83290E-22-1.08305E-20-4.72861E-22
 -1        27-1.09519E-12-1.09519E-12 9.38738E-13 3.88458E-21-2.72281E-21-2.88622E-21
 -1        28-1.09519E-12-1.09519E-12 9.38738E-13 4.53980E-21-6.53555E-21-1.51508E-21
 -1        29-1.09519E-12-1.09519E-12 9.38738E-13-1.66526E-20-1.06452E-20-1.23132E-20
 -1        30-1.64279E-12-1.64279E-12 1.40811E-12 5.37019E-22-2.42910E-20 1.07954E-21
 -1        31-3.28558E-12-3.28558E-12 2.81621E-12-6.44370E-21-1.33808E-20-1.63163E-26
 -1        32-1.64279E-12-1.64279E-12 1.40811E-12-5.62082E-21-1.03177E-20 2.73755E-21
 -1        33-1.64279E-12-1.64279E-12 1.40811E-12-7.18040E-21-1.82370E-20 1.05471E-21
 -1        34-1.64279E-12-1.64279E-12 1.40811E-12-1.85365E-22-1.05280E-20 1.00209E-21
 -1        35-1.64279E-12-1.64279E-12 1.40811E-12 9.33959E-21-8.95342E-21 1.82580E-20
 -1        36-3.28558E-12-3.28558E-12 2.81621E-12 7.72887E-21 3.04684E-20 1.11581E-20
 -1        37-3.28558E-12-3.28558E-12 2.81621E-12-2.34483E-29-3.72099E-28-4.02112E-28
 -1        38-1.64279E-12-1.64279E-12 1.40811E-12 1.18251E-27 2.99212E-29-5.48520E-28
 -1        39-1.64279E-12-1.64279E-12 1.40811E-12 7.74356E-21-4.21033E-22-2.62590E-21
 -1        40-1.64279E-12-1.64279E-12 1.40811E-12 3.16510E-21 1.06983E-21-2.26273E-21
 -1        41-1.64279E-12-1.64279E-12 1.40811E-12-2.03205E-20-3.27149E-21-1.55860E-20
 -1        42-3.28558E-12-3.28558E-12 2.81621E-12-4.70074E-20 6.03617E-21 3.45694E-20
 -1        43-1.64279E-12-1.64279E-12 1.40811E-12-9.57420E-29 1.56017E-28 9.77501E-29
 -1        44-1.09519E-12-1.09519E-12 9.38738E-13 7.32331E-28 9.74394E-29 3.60703E-28
 -1        45-1.09519E-12-1.09519E-12 9.38738E-13 3.01166E-21-3.00523E-23 8.27683E-21
 -1        46-1.09519E-12-1.09519E-12 9.38738E-13 7.23385E-21 4.80233E-22-4.31096E-21
 -1        47-1.09519E-12-1.09519E-12 9.38738E-13-1.78119E-20-2.98975E-21 3.20266E-21
 -1        48-1.64279E-12-1.64279E-12 1.40811E-12 1.17526E-20 6.00043E-21 1.39663E-20
 -1        49-1.64279E-12-1.64279E-12 1.40811E-12 2.11786E-22-1.97108E-20 1.41553E-21
 -1        50-1.09519E-12-1.09519E-12 9.38738E-13 1.50800E-21-8.36489E-22 4.43703E-22
 -1        51-1.09519E-12-1.09519E-12 9.38738E-13-2.99870E-21-7.06003E-22 1.68366E-21
 -1        52-1.09519E-12-1.09519E-12 9.38738E-13 8.63742E-21-3.89020E-21-3.58863E-21
 -1        53-1.09519E-12-1.09519E-12 9.38738E-13-9.32843E-22-1.08285E-20-9.52901E-21
 -1        54-1.64279E-12-1.64279E-12 1.40811E-12 2.66579E-20 8.95236E-21 6.19129E-21
 -1        55-1.64279E-12-1.64279E-12 1.40811E-12-5.53196E-21-6.93970E-21-2.16961E-21
 -1        56-1.09519E-12-1.09519E-12 9.38738E-13-2.32117E-21-4.38833E-21-6.01814E-22
 -1        57-1.09519E-12-1.09519E-12 9.38738E-13-1.65456E-21 8.35849E-21 1.54894E-21
 -1        58-1.09519E-12-1.09519E-12 9.38738E-13 7.47377E-22-5.20046E-21-9.22898E-21
 -1        59-1.09519E-12-1.09519E-12 9.38738E-13-9.20025E-22 4.50795E-21-3.09012E-21
 -1        60-1.64279E-12-1.64279E-12 1.40811E-12 1.26643E-21 6.58777E-21 8.57547E-21
 -1        61-1.64279E-12-1.64279E-12 1.40811E-12-1.20244E-20-1.94300E-20-1.39055E-22
 -1        62-1.09519E-12-1.09519E-12 9.38738E-13-6.39854E-21 1.33676E-20-5.65551E-22
 -1        63-1.09519E-12-1.09519E-12 9.38738E-13-3.54679E-21-2.49618E-20-4.16156E-22
 -1        64-1.09519E-12-1.09519E-12 9.38738E-13 4.50466E-21-3.73216E-21-7.22741E-21
 -1        65-1.09519E-12-1.09519E-12 9.38738E-13-4.27022E-21-5.34762E-21 1.64811E-21
 -1        66-1.64279E-12-1.64279E-12 1.40811E-12-6.79835E-21 1.71796E-20 2.02860E-20
 -1        67-3.28558E-12-3.28558E-12 2.81621E-12 8.01647E-21 3.14406E-20-4.56749E-22
 -1        68-1.64279E-12-1.64279E-12 1.40811E-12 6.43483E-21 1.30775E-21 2.50918E-21
 -1        69-1.64279E-12-1.64279E-12 1.40811E-12-1.73974E-20 5.20405E-20 2.64578E-21
 -1        70-1.64279E-12-1.64279E-12 1.40811E-12-3.70922E-21-8.31623E-21 1.23257E-20
 -1        71-1.64279E-12-1.64279E-12 1.40811E-12 2.00422E-21-2.80057E-21-4.72029E-21
 -1        72-3.28558E-12-3.28558E-12 2.81621E-12-5.94522E-21 3.06005E-20-3.38684E-20
 -3
    1PSTEP                        13           5           1          
  100CL  105 9.12500E-03          72                     0    5           1
 -4  DISP        4    1
 -5  D1          1    2    1    0
 -5  D2          1    2    2    0
 -5  D3          1    2    3    0
 -5  ALL         1    2    0    0    1ALL
 -1         1 0.00000E+00 0.00000E+00 0.00000E+00
 -1         2-2.60714E-09 0.00000E+00 0.00000E+00
 -1         3-1.36875E-01 0.00000E+00 0.00000E+00
 -1         4-1.36875E-01 0.00000E+00 0.00000E+00
 -1         5-2.73750E-01 0.00000E+00 0.00000E+00
 -1         6-2.73750E-01 0.00000E+00 0.00000E+00
 -1         7 0.00000E+00-2.60714E-09 0.00000E+00
 -1         8-2.60714E-09-2.60714E-09 0.00000E+00
 -1         9-1.36875E-01-2.60714E-09 0.00000E+00
 -1        10-1.36875E-01-2.60714E-09 0.00000E+00
 -1        11-2.73750E-01-2.60714E-09 0.00000E+00
 -1        12-2.73750E-01-2.60714E-09 0.00000E+00
 -1        13 0.00000E+00-1.36875E-01 0.00000E+00
 -1        14-2.60714E-09-1.36875E-01 0.00000E+00
 -1        15-1.36875E-01-1.36875E-01 0.00000E+00
 -1        16-1.36875E-01-1.36875E-01 0.00000E+00
 -1        17-2.73750E-01-1.36875E-01 0.00000E+00
 -1        18-2.73750E-01-1.36875E-01 0.00000E+00
 -1        19 0.00000E+00-1.36875E-01 0.00000E+00
 -1        20-2.60714E-09-1.36875E-01 0.00000E+00
 -1        21-1.36875E-01-1.36875E-01 0.00000E+00
 -1        22-1.36875E-01-1.36875E-01 0.00000E+00
 -1        23-2.73750E-01-1.36875E-01 0.00000E+00
 -1        24-2.73750E-01-1.36875E-01 0.00000E+00
 -1        25 0.00000E+00-2.73750E-01 0.00000E+00
 -1        26-2.60714E-09-2.73750E-01 0.00000E+00
 -1        27-1.36875E-01-2.73750E-01 0.00000E+00
 -1        28-1.36875E-01-2.73750E-01 0.00000E+00
 -1        29-2.73750E-01-2.73750E-01 0.00000E+00
 -1        30-2.73750E-01-2.73750E-01 0.00000E+00
 -1        31 0.00000E+00-2.73750E-01 0.00000E+00
 -1        32-2.60714E-09-2.73750E-01 0.00000E+00
 -1        33-1.36875E-01-2.73750E-01 0.00000E+00
 -1        34-1.36875E-01-2.73750E-01 0.00000E+00
 -1        35-2.73750E-01-2.73750E-01 0.00000E+00
 -1        36-2.73750E-01-2.73750E-01 0.00000E+00
 -1        37 0.00000E+00 0.00000E+00 3.12857E-09
 -1        38-2.60714E-09 0.00000E+00 3.12857E-09
 -1        39-1.36875E-01 0.00000E+00 3.12857E-09
 -1        40-1.36875E-01 0.00000E+00 3.12857E-09
 -1        41-2.73750E-01 0.00000E+00 3.12857E-09
 -1        42-2.73750E-01 0.00000E+00 3.12857E-09
 -1        43 0.00000E+00-2.60714E-09 3.12857E-09
 -1        44-2.60714E-09-2.60714E-09 3.12857E-09
 -1        45-1.36875E-01-2.60714E-09 3.12857E-09
 -1        46-1.36875E-01-2.60714E-09 3.12857E-09
 -1        47-2.73750E-01-2.60714E-09 3.12857E-09
 -1        48-2.73750E-01-2.60714E-09 3.12857E-09
 -1        49 0.00000E+00-1.36875E-01 3.12857E-09
 -1        50-2.60714E-09-1.36875E-01 3.12857E-09
 -1        51-1.36875E-01-1.36875E-01 3.12857E-09
 -1        52-1.36875E-01-1.36875E-01 3.12857E-09
 -1        53-2.73750E-01-1.36875E-01 3.12857E-09
 -1        54-2.73750E-01-1.36875E-01 3.12857E-09
 -1        55 0.00000E+00-1.36875E-01 3.12857E-09
 -1        56-2.60714E-09-1.36875E-01 3.12857E-09
 -1        57-1.36875E-01-1.36875E-01 3.12857E-09
 -1        58-1.36875E-01-1.36875E-01 3.12857E-09
 -1        59-2.73750E-01-1.36875E-01 3.12857E-09
 -1        60-2.73750E-01-1.36875E-01 3.12857E-09
 -1        61 0.00000E+00-2.73750E-01 3.12857E-09
 -1        62-2.60714E-09-2.73750E-01 3.12857E-09
 -1        63-1.36875E-01-2.73750E-01 3.12857E-09
 -1        64-1.36875E-01-2.73750E-01 3.12857E-09
 -1        65-2.73750E-01-2.73750E-01 3.12857E-09
 -1        66-2.73750E-01-2.73750E-01 3.12857E-09
 -1        67 0.00000E+00-2.73750E-01 3.12857E-09
 -1        68-2.60714E-09-2.73750E-01 3.12857E-09
 -1        69-1.36875E-01-2.73750E-01 3.12857E-09
 -1        70-1.36875E-01-2.73750E-01 3.12857E-09
 -1        71-2.73750E-01-2.73750E-01 3.12857E-09
 -1        72-2.73750E-01-2.73750E-01 3.12857E-09
 -3
    1PSTEP                        14           5           1          
  100CL  105 9.12500E-03          72                     0    5           1
 -4  STRESS      6    1
 -5  SXX         1    4    1    1
 -5  SYY         1    4    2    2
 -5  SZZ         1    4    3    3
 -5  SXY         1    4    1    2
 -5  SYZ         1    4    2    3
 -5  SZX         1    4    3    1
 -1         1-1.56422E-06-1.56422E-06-3.35620E-22-1.99992E-23-1.15842E-23-7.20956E-24
 -1         2-7.82111E-07-7.82111E-07-5.81276E-23 1.35575E-22-7.80477E-26-3.51213E-24
 -1         3-7.82111E-07-7.82111E-07 7.13496E-16 1.60794E-15 9.25290E-22 1.40764E-15
 -1         4-7.82111E-07-7.82111E-07 1.30736E-15 9.47696E-16-1.68000E-21-4.20537E-16
 -1         5-7.82111E-07-7.82111E-07-4.47320E-16 2.85773E-16-4.97778E-21 2.15539E-16
 -1         6-1.56422E-06-1.56422E-06 1.25908E-15 5.45085E-15-5.07714E-22-1.83501E-14
 -1         7-7.82111E-07-7.82111E-07-5.81276E-23 1.84532E-22 1.37776E-22 1.25063E-23
 -1         8-5.21408E-07-5.21408E-07 2.66889E-22 2.20072E-22-7.79375E-23-2.53154E-23
 -1         9-5.21408E-07-5.21408E-07-1.39883E-15 6.46195E-16-2.56656E-16-1.03007E-15
 -1        10-5.21408E-07-5.21408E-07-3.22346E-15 9.40248E-16 1.40541E-16-9.54645E-18
 -1        11-5.21408E-07-5.21408E-07 3.40520E-15-5.17959E-16-7.63596E-16 6.88797E-17
 -1        12-7.82111E-07-7.82111E-07 3.58259E-15 6.21766E-16 1.21481E-15 1.85745E-15
 -1        13-7.82111E-07-7.82111E-07 2.07292E-15-2.28126E-21-2.22275E-15 3.14998E-23
 -1        14-5.21408E-07-5.21408E-07 3.07378E-15-2.37132E-16 5.81902E-16-2.48006E-16
 -1        15-5.21408E-07-5.21408E-07 2.76047E-15 7.23198E-16-2.59555E-15 9.36341E-16
 -1        16-5.21408E-07-5.21408E-07 4.20496E-15-1.63744E-15 2.29504E-15-1.65222E-15
 -1        17-5.21408E-07-5.21408E-07-2.63925E-16 2.76124E-15-1.74913E-15 3.94682E-15
 -1        18-7.82111E-07-7.82111E-07-1.70960E-15-1.42734E-15-9.19564E-19-8.54413E-15
 -1        19-7.82111E-07-7.82111E-07 1.89589E-15-2.28126E-21-1.21981E-15-3.64353E-22
 -1        20-5.21408E-07-5.21408E-07 1.77803E-15-2.37132E-16-8.18871E-16 1.38532E-16
 -1        21-5.21408E-07-5.21408E-07 4.59732E-16 5.82769E-16 4.81160E-15 7.50762E-16
 -1        22-5.21408E-07-5.21408E-07 7.82340E-16-8.56750E-16-2.62654E-15-1.10624E-15
 -1        23-5.21408E-07-5.21408E-07 7.15027E-16 1.33783E-15 8.54941E-16-2.30488E-15
 -1        24-7.82111E-07-7.82111E-07-7.14149E-15 1.88653E-15 1.12170E-15-2.10346E-15
 -1        25-7.82111E-07-7.82111E-07 3.08085E-15-1.44308E-20-5.13375E-15-4.83184E-21
 -1        26-5.21408E-07-5.21408E-07 6.32188E-16 3.27194E-16-1.03978E-15-4.90752E-17
 -1        27-5.21408E-07-5.21408E-07 2.39967E-15 2.16659E-15-5.67487E-15-1.43015E-15
 -1        28-5.21408E-07-5.21408E-07-3.09346E-15 1.34847E-15-2.06791E-15-4.12462E-16
 -1        29-5.21408E-07-5.21408E-07 3.59050E-15 5.84874E-15-4.23910E-16-3.92595E-15
 -1        30-7.82111E-07-7.82111E-07-1.22731E-14 9.71258E-15-5.65067E-15-2.88007E-15
 -1        31-1.56422E-06-1.56422E-06 8.59364E-15-2.88615E-20 1.90342E-14-8.98057E-21
 -1        32-7.82111E-07-7.82111E-07 1.34313E-15 4.90791E-16-6.47927E-16 3.55165E-16
 -1        33-7.82111E-07-7.82111E-07 6.27578E-15-2.16262E-15 4.93885E-15 3.59217E-15
 -1        34-7.82111E-07-7.82111E-07-2.83638E-15-2.28848E-15 2.28717E-15 2.04010E-15
 -1        35-7.82111E-07-7.82111E-07 9.67177E-15-1.24797E-15 2.41328E-15-1.19788E-15
 -1        36-1.56422E-06-1.56422E-06 8.87841E-15-3.82035E-15-5.77777E-16 9.12716E-15
 -1        37-1.56422E-06-1.56422E-06-4.83029E-22-3.69971E-24-1.06679E-22 2.29349E-23
 -1        38-7.82111E-07-7.82111E-07 2.16946E-22 3.97425E-23-5.24870E-24 1.60377E-23
 -1        39-7.82111E-07-7.82111E-07 1.30399E-16 1.63854E-15 7.75893E-16 1.82948E-15
 -1        40-7.82111E-07-7.82111E-07 1.97544E-15-1.40945E-15-5.56435E-16-1.36025E-15
 -1        41-7.82111E-07-7.82111E-07 1.10191E-15-3.54635E-15 6.40224E-16 9.54788E-17
 -1        42-1.56422E-06-1.56422E-06 1.42704E-14-1.83241E-15-8.01196E-16 6.16211E-15
 -1        43-7.82111E-07-7.82111E-07 2.16946E-22-2.59948E-22 1.57072E-22 5.65226E-23
 -1        44-5.21408E-07-5.21408E-07-4.17514E-22-1.45570E-22-9.33248E-23-7.11175E-24
 -1        45-5.21408E-07-5.21408E-07-1.37708E-15 1.27276E-15 2.60605E-16-4.92362E-16
 -1        46-5.21408E-07-5.21408E-07-2.36759E-15-2.62014E-16-2.30414E-16-6.16533E-16
 -1        47-5.21408E-07-5.21408E-07-1.30869E-15-4.69201E-16-3.36776E-16 7.04394E-16
 -1        48-7.82111E-07-7.82111E-07 1.46818E-15-1.95847E-15 8.14217E-16-2.58727E-15
 -1        49-7.82111E-07-7.82111E-07-2.26319E-15 5.78726E-22 1.16571E-15 4.46317E-16
 -1        50-5.21408E-07-5.21408E-07 1.83040E-16 3.04024E-16-7.94228E-16 4.95381E-17
 -1        51-5.21408E-07-5.21408E-07 6.95289E-16 1.03919E-15-8.47781E-16-1.62912E-15
 -1        52-5.21408E-07-5.21408E-07-3.51707E-15 1.92572E-15 4.24123E-16 2.12377E-15
 -1        53-5.21408E-07-5.21408E-07-3.31700E-15-5.77301E-15-1.03706E-15 5.02443E-15
 -1        54-7.82111E-07-7.82111E-07-8.68482E-16 8.04994E-15-1.59150E-16-4.24485E-15
 -1        55-7.82111E-07-7.82111E-07-1.22262E-15 5.78726E-22-5.24971E-16-2.60317E-16
 -1        56-5.21408E-07-5.21408E-07-3.00975E-16 3.04024E-16-6.72907E-16-3.50129E-17
 -1        57-5.21408E-07-5.21408E-07 3.20494E-15-1.87444E-15 1.07197E-15 1.05923E-15
 -1        58-5.21408E-07-5.21408E-07 3.59080E-16-5.40759E-16 4.42644E-16-1.80298E-15
 -1        59-5.21408E-07-5.21408E-07 8.65292E-16 3.55122E-15 1.21644E-15-1.68442E-15
 -1        60-7.82111E-07-7.82111E-07 4.90333E-15-2.42383E-16 2.92600E-15 4.35395E-15
 -1        61-7.82111E-07-7.82111E-07-3.07985E-16-1.23238E-20 4.87618E-15 2.98476E-16
 -1        62-5.21408E-07-5.21408E-07-3.95593E-16 7.27387E-16-4.61010E-16 1.49912E-16
 -1        63-5.21408E-07-5.21408E-07-1.48827E-15-1.64415E-15 6.15170E-15 6.08640E-16
 -1        64-5.21408E-07-5.21408E-07 9.67960E-16-7.70269E-16-6.30766E-15-1.55931E-17
 -1        65-5.21408E-07-5.21408E-07 7.78395E-16-3.88036E-15 1.86172E-15 4.07009E-15
 -1        66-7.82111E-07-7.82111E-07 8.72512E-15-2.78843E-15-5.92435E-16-2.50018E-15
 -1        67-1.56422E-06-1.56422E-06 3.61685E-15-2.46476E-20-1.38739E-14-5.99506E-17
 -1        68-7.82111E-07-7.82111E-07 7.01890E-16 1.09108E-15 5.74972E-15 3.25194E-16
 -1        69-7.82111E-07-7.82111E-07 3.61383E-16-1.23594E-15-3.03404E-15 3.33786E-15
 -1        70-7.82111E-07-7.82111E-07 2.10681E-15 8.20721E-16-1.34657E-15-6.77085E-16
 -1        71-7.82111E-07-7.82111E-07 1.11547E-15-2.25554E-15 2.40765E-15-1.50085E-15
 -1        72-1.56422E-06-1.56422E-06 1.67355E-15-5.91599E-15 4.09246E-15-1.90974E-15
 -3
    1PSTEP                        15           5           1          
  100CL  105 9.12500E-03          72                     0    5           1
 -4  TOSTRAIN    6    1
 -5  EXX         1    4    1    1
 -5  EYY         1    4    2    2
 -5  EZZ         1    4    3    3
 -5  EXY         1    4    1    2
 -5  EYZ         1    4    2    3
 -5  EZX         1    4    3    1
 -1         1-5.21408E-12-5.21408E-12 4.46921E-12-1.23805E-28-7.17119E-29-4.46306E-29
 -1         2-2.60704E-12-2.60704E-12 2.23460E-12 8.39276E-28-4.83152E-31-2.17418E-29
 -1         3-2.60704E-12-2.60704E-12 2.23460E-12 9.95390E-21 5.72798E-27 8.71395E-21
 -1         4-2.60704E-12-2.60704E-12 2.23460E-12 5.86669E-21-1.04000E-26-2.60332E-21
 -1         5-2.60704E-12-2.60704E-12 2.23460E-12 1.76907E-21-3.08148E-26 1.33429E-21
 -1         6-5.21408E-12-5.21408E-12 4.46921E-12 3.37433E-20-3.14299E-27-1.13596E-19
 -1         7-2.60704E-12-2.60704E-12 2.23460E-12 1.14234E-27 8.52897E-28 7.74199E-29
 -1         8-1.73803E-12-1.73803E-12 1.48974E-12 1.36235E-27-4.82470E-28-1.56714E-28
 -1         9-1.73803E-12-1.73803E-12 1.48974E-12 4.00026E-21-1.58882E-21-6.37662E-21
 -1        10-1.73803E-12-1.73803E-12 1.48974E-12 5.82059E-21 8.70017E-22-5.90971E-23
 -1        11-1.73803E-12-1.73803E-12 1.48974E-12-3.20641E-21-4.72702E-21 4.26398E-22
 -1        12-2.60704E-12-2.60704E-12 2.23460E-12 3.84903E-21 7.52028E-21 1.14985E-20
 -1        13-2.60704E-12-2.60704E-12 2.23460E-12-1.41221E-26-1.37599E-20 1.94998E-28
 -1        14-1.73803E-12-1.73803E-12 1.48974E-12-1.46796E-21 3.60225E-21-1.53528E-21
 -1        15-1.73803E-12-1.73803E-12 1.48974E-12 4.47694E-21-1.60677E-20 5.79640E-21
 -1        16-1.73803E-12-1.73803E-12 1.48974E-12-1.01365E-20 1.42074E-20-1.02280E-20
 -1        17-1.73803E-12-1.73803E-12 1.48974E-12 1.70934E-20-1.08279E-20 2.44327E-20
 -1        18-2.60704E-12-2.60704E-12 2.23460E-12-8.83594E-21-5.69254E-24-5.28923E-20
 -1        19-2.60704E-12-2.60704E-12 2.23460E-12-1.41221E-26-7.55120E-21-2.25552E-27
 -1        20-1.73803E-12-1.73803E-12 1.48974E-12-1.46796E-21-5.06920E-21 8.57577E-22
 -1        21-1.73803E-12-1.73803E-12 1.48974E-12 3.60761E-21 2.97861E-20 4.64757E-21
 -1        22-1.73803E-12-1.73803E-12 1.48974E-12-5.30369E-21-1.62595E-20-6.84817E-21
 -1        23-1.73803E-12-1.73803E-12 1.48974E-12 8.28179E-21 5.29249E-21-1.42683E-20
 -1        24-2.60704E-12-2.60704E-12 2.23460E-12 1.16785E-20 6.94384E-21-1.30214E-20
 -1        25-2.60704E-12-2.60704E-12 2.23460E-12-8.93334E-26-3.17804E-20-2.99114E-26
 -1        26-1.73803E-12-1.73803E-12 1.48974E-12 2.02549E-21-6.43671E-21-3.03799E-22
 -1        27-1.73803E-12-1.73803E-12 1.48974E-12 1.34122E-20-3.51302E-20-8.85330E-21
 -1        28-1.73803E-12-1.73803E-12 1.48974E-12 8.34769E-21-1.28014E-20-2.55334E-21
 -1        29-1.73803E-12-1.73803E-12 1.48974E-12 3.62065E-20-2.62421E-21-2.43035E-20
 -1        30-2.60704E-12-2.60704E-12 2.23460E-12 6.01255E-20-3.49803E-20-1.78290E-20
 -1        31-5.21408E-12-5.21408E-12 4.46921E-12-1.78667E-25 1.17830E-19-5.55940E-26
 -1        32-2.60704E-12-2.60704E-12 2.23460E-12 3.03823E-21-4.01098E-21 2.19864E-21
 -1        33-2.60704E-12-2.60704E-12 2.23460E-12-1.33876E-20 3.05738E-20 2.22372E-20
 -1        34-2.60704E-12-2.60704E-12 2.23460E-12-1.41668E-20 1.41587E-20 1.26292E-20
 -1        35-2.60704E-12-2.60704E-12 2.23460E-12-7.72552E-21 1.49393E-20-7.41547E-21
 -1        36-5.21408E-12-5.21408E-12 4.46921E-12-2.36498E-20-3.57671E-21 5.65015E-20
 -1        37-5.21408E-12-5.21408E-12 4.46921E-12-2.29030E-29-6.60396E-28 1.41978E-28
 -1        38-2.60704E-12-2.60704E-12 2.23460E-12 2.46025E-28-3.24920E-29 9.92809E-29
 -1        39-2.60704E-12-2.60704E-12 2.23460E-12 1.01434E-20 4.80315E-21 1.13254E-20
 -1        40-2.60704E-12-2.60704E-12 2.23460E-12-8.72519E-21-3.44460E-21-8.42059E-21
 -1        41-2.60704E-12-2.60704E-12 2.23460E-12-2.19536E-20 3.96329E-21 5.91059E-22
 -1        42-5.21408E-12-5.21408E-12 4.46921E-12-1.13435E-20-4.95979E-21 3.81464E-20
 -1        43-2.60704E-12-2.60704E-12 2.23460E-12-1.60920E-27 9.72348E-28 3.49902E-28
 -1        44-1.73803E-12-1.73803E-12 1.48974E-12-9.01151E-28-5.77725E-28-4.40251E-29
 -1        45-1.73803E-12-1.73803E-12 1.48974E-12 7.87898E-21 1.61327E-21-3.04796E-21
 -1        46-1.73803E-12-1.73803E-12 1.48974E-12-1.62199E-21-1.42637E-21-3.81663E-21
 -1        47-1.73803E-12-1.73803E-12 1.48974E-12-2.90458E-21-2.08481E-21 4.36053E-21
 -1        48-2.60704E-12-2.60704E-12 2.23460E-12-1.21239E-20 5.04039E-21-1.60164E-20
 -1        49-2.60704E-12-2.60704E-12 2.23460E-12 3.58259E-27 7.21629E-21 2.76291E-21
 -1        50-1.73803E-12-1.73803E-12 1.48974E-12 1.88205E-21-4.91665E-21 3.06664E-22
 -1        51-1.73803E-12-1.73803E-12 1.48974E-12 6.43308E-21-5.24817E-21-1.00850E-20
 -1        52-1.73803E-12-1.73803E-12 1.48974E-12 1.19211E-20 2.62552E-21 1.31471E-20
 -1        53-1.73803E-12-1.73803E-12 1.48974E-12-3.57377E-20-6.41993E-21 3.11036E-20
 -1        54-2.60704E-12-2.60704E-12 2.23460E-12 4.98329E-20-9.85217E-22-2.62776E-20
 -1        55-2.60704E-12-2.60704E-12 2.23460E-12 3.58259E-27-3.24982E-21-1.61149E-21
 -1        56-1.73803E-12-1.73803E-12 1.48974E-12 1.88205E-21-4.16561E-21-2.16747E-22
 -1        57-1.73803E-12-1.73803E-12 1.48974E-12-1.16037E-20 6.63602E-21 6.55713E-21
 -1        58-1.73803E-12-1.73803E-12 1.48974E-12-3.34755E-21 2.74018E-21-1.11613E-20
 -1        59-1.73803E-12-1.73803E-12 1.48974E-12 2.19837E-20 7.53033E-21-1.04274E-20
 -1        60-2.60704E-12-2.60704E-12 2.23460E-12-1.50047E-21 1.81133E-20 2.69531E-20
 -1        61-2.60704E-12-2.60704E-12 2.23460E-12-7.62902E-26 3.01859E-20 1.84771E-21
 -1        62-1.73803E-12-1.73803E-12 1.48974E-12 4.50287E-21-2.85387E-21 9.28027E-22
 -1        63-1.73803E-12-1.73803E-12 1.48974E-12-1.01781E-20 3.80820E-20 3.76777E-21
 -1        64-1.73803E-12-1.73803E-12 1.48974E-12-4.76833E-21-3.90474E-20-9.65285E-23
 -1        65-1.73803E-12-1.73803E-12 1.48974E-12-2.40213E-20 1.15250E-20 2.51958E-20
 -1        66-2.60704E-12-2.60704E-12 2.23460E-12-1.72617E-20-3.66746E-21-1.54773E-20
 -1        67-5.21408E-12-5.21408E-12 4.46921E-12-1.52580E-25-8.58861E-20-3.71123E-22
 -1        68-2.60704E-12-2.60704E-12 2.23460E-12 6.75431E-21 3.55935E-20 2.01311E-21
 -1        69-2.60704E-12-2.60704E-12 2.23460E-12-7.65103E-21-1.87822E-20 2.06630E-20
 -1        70-2.60704E-12-2.60704E-12 2.23460E-12 5.08066E-21-8.33590E-21-4.19148E-21
 -1        71-2.60704E-12-2.60704E-12 2.23460E-12-1.39629E-20 1.49045E-20-9.29097E-21
 -1        72-5.21408E-12-5.21408E-12 4.46921E-12-3.66228E-20 2.53343E-20-1.18222E-20
 -3
    1PSTEP                        16           6           1          
  100CL  106 1.41875E-02          72                     0    6           1
 -4  DISP        4    1
 -5  D1          1    2    1    0
 -5  D2          1    2    2    0
 -5  D3          1    2    3    0
 -5  ALL         1    2    0    0    1ALL
 -1         1 0.00000E+00 0.00000E+00 0.00000E+00
 -1         2-4.05357E-09 0.00000E+00 0.00000E+00
 -1         3-2.12812E-01 0.00000E+00 0.00000E+00
 -1         4-2.12812E-01 0.00000E+00 0.00000E+00
 -1         5-4.25625E-01 0.00000E+00 0.00000E+00
 -1         6-4.25625E-01 0.00000E+00 0.00000E+00
 -1         7 0.00000E+00-4.05357E-09 0.00000E+00
 -1         8-4.05357E-09-4.05357E-09 0.00000E+00
 -1         9-2.12812E-01-4.05357E-09 0.00000E+00
 -1        10-2.12812E-01-4.05357E-09 0.00000E+00
 -1        11-4.25625E-01-4.05357E-09 0.00000E+00
 -1        12-4.25625E-01-4.05357E-09 0.00000E+00
 -1        13 0.00000E+00-2.12812E-01 0.00000E+00
 -1        14-4.05357E-09-2.12812E-01 0.00000E+00
 -1        15-2.12812E-01-2.12812E-01 0.00000E+00
 -1        16-2.12812E-01-2.12812E-01 0.00000E+00
 -1        17-4.25625E-01-2.12812E-01 0.00000E+00
 -1        18-4.25625E-01-2.12812E-01 0.00000E+00
 -1        19 0.00000E+00-2.12812E-01 0.00000E+00
 -1        20-4.05357E-09-2.12812E-01 0.00000E+00
 -1        21-2.12812E-01-2.12812E-01 0.00000E+00
 -1        22-2.12812E-01-2.12812E-01 0.00000E+00
 -1        23-4.25625E-01-2.12812E-01 0.00000E+00
 -1        24-4.25625E-01-2.12812E-01 0.00000E+00
 -1        25 0.00000E+00-4.25625E-01 0.00000E+00
 -1        26-4.05357E-09-4.25625E-01 0.00000E+00
 -1        27-2.12812E-01-4.25625E-01 0.00000E+00
 -1        28-2.12812E-01-4.25625E-01 0.00000E+00
 -1        29-4.25625E-01-4.25625E-01 0.00000E+00
 -1        30-4.25625E-01-4.25625E-01 0.00000E+00
 -1        31 0.00000E+00-4.25625E-01 0.00000E+00
 -1        32-4.05357E-09-4.25625E-01 0.00000E+00
 -1        33-2.12812E-01-4.25625E-01 0.00000E+00
 -1        34-2.12812E-01-4.25625E-01 0.00000E+00
 -1        35-4.25625E-01-4.25625E-01 0.00000E+00
 -1        36-4.25625E-01-4.25625E-01 0.00000E+00
 -1        37 0.00000E+00 0.00000E+00 4.86429E-09
 -1        38-4.05357E-09 0.00000E+00 4.86429E-09
 -1        39-2.12812E-01 0.00000E+00 4.86429E-09
 -1        40-2.12812E-01 0.00000E+00 4.86429E-09
 -1        41-4.25625E-01 0.00000E+00 4.86429E-09
 -1        42-4.25625E-01 0.00000E+00 4.86429E-09
 -1        43 0.00000E+00-4.05357E-09 4.86429E-09
 -1        44-4.05357E-09-4.05357E-09 4.86429E-09
 -1        45-2.12812E-01-4.05357E-09 4.86429E-09
 -1        46-2.12812E-01-4.05357E-09 4.86429E-09
 -1        47-4.25625E-01-4.05357E-09 4.86429E-09
 -1        48-4.25625E-01-4.05357E-09 4.86429E-09
 -1        49 0.00000E+00-2.12812E-01 4.86429E-09
 -1        50-4.05357E-09-2.12812E-01 4.86429E-09
 -1        51-2.12812E-01-2.12812E-01 4.86429E-09
 -1        52-2.12812E-01-2.12812E-01 4.86429E-09
 -1        53-4.25625E-01-2.12812E-01 4.86429E-09
 -1        54-4.25625E-01-2.12812E-01 4.86429E-09
 -1        55 0.00000E+00-2.12812E-01 4.86429E-09
 -1        56-4.05357E-09-2.12812E-01 4.86429E-09
 -1        57-2.12812E-01-2.12812E-01 4.86429E-09
 -1        58-2.12812E-01-2.12812E-01 4.86429E-09
 -1        59-4.25625E-01-2.12812E-01 4.86429E-09
 -1        60-4.25625E-01-2.12812E-01 4.86429E-09
 -1        61 0.00000E+00-4.25625E-01 4.86429E-09
 -1        62-4.05357E-09-4.25625E-01 4.86429E-09
 -1        63-2.12812E-01-4.25625E-01 4.86429E-09
 -1        64-2.12812E-01-4.25625E-01 4.86429E-09
 -1        65-4.25625E-01-4.25625E-01 4.86429E-09
 -1        66-4.25625E-01-4.25625E-01 4.86429E-09
 -1        67 0.00000E+00-4.25625E-01 4.86429E-09
 -1        68-4.05357E-09-4.25625E-01 4.86429E-09
 -1        69-2.12812E-01-4.25625E-01 4.86429E-09
 -1        70-2.12812E-01-4.25625E-01 4.86429E-09
 -1        71-4.25625E-01-4.25625E-01 4.86429E-09
 -1        72-4.25625E-01-4.25625E-01 4.86429E-09
 -3
    1PSTEP                        17           6           1          
  100CL  106 1.41875E-02          72                     0    6           1
 -4  STRESS      6    1
 -5  SXX         1    4    1    1
 -5  SYY         1    4    2    2
 -5  SZZ         1    4    3    3
 -5  SXY         1    4    1    2
 -5  SYZ         1    4    2    3
 -5  SZX         1    4    3    1
 -1         1-2.43205E-06-2.43205E-06 3.45996E-22-6.50922E-23 4.65913E-23-6.43960E-25
 -1         2-1.21602E-06-1.21602E-06 8.57401E-22-2.85844E-22 1.74804E-23-2.85472E-22
 -1         3-1.21602E-06-1.21602E-06 4.98764E-15 9.16229E-16-3.03066E-21-3.39789E-15
 -1         4-1.21602E-06-1.21602E-06 2.97551E-15 1.18497E-16 1.98610E-21-1.21623E-15
 -1         5-1.21602E-06-1.21602E-06-3.05233E-15-1.77014E-16 5.57585E-21 1.30168E-15
 -1         6-2.43205E-06-2.43205E-06 7.82846E-15 1.64893E-14-8.84216E-21-2.13191E-15
 -1         7-1.21602E-06-1.21602E-06-7.79906E-22 3.70966E-22 4.09219E-22-2.22511E-23
 -1         8-8.10682E-07-8.10682E-07 2.04830E-22 7.84452E-23-6.92246E-23 1.59878E-22
 -1         9-8.10682E-07-8.10682E-07-2.22372E-15 1.82826E-15 1.99955E-16 2.74254E-15
 -1        10-8.10682E-07-8.10682E-07-1.31656E-16-3.48266E-15-2.17995E-16-1.68983E-16
 -1        11-8.10682E-07-8.10682E-07 1.15322E-15 6.00011E-16-6.30628E-16 5.68802E-16
 -1        12-1.21602E-06-1.21602E-06-3.27558E-15-3.17524E-15 1.01019E-15 6.07712E-16
 -1        13-1.21602E-06-1.21602E-06 1.54088E-15-1.83338E-17 5.53101E-16-2.44878E-21
 -1        14-8.10682E-07-8.10682E-07 6.03165E-16-9.11574E-17 1.21371E-15 3.85190E-17
 -1        15-8.10682E-07-8.10682E-07-2.01267E-16 1.01356E-15 2.63903E-15-2.99535E-16
 -1        16-8.10682E-07-8.10682E-07-2.45083E-15 4.71934E-16 2.40639E-15-1.23216E-16
 -1        17-8.10682E-07-8.10682E-07-3.83562E-16 6.93081E-16-3.67320E-15 9.68831E-16
 -1        18-1.21602E-06-1.21602E-06 9.37470E-15 7.73168E-16-4.64208E-15-8.80033E-15
 -1        19-1.21602E-06-1.21602E-06 2.03741E-15 4.90509E-18-2.81862E-15-1.85077E-21
 -1        20-8.10682E-07-8.10682E-07 1.12770E-15-7.56647E-17 3.37749E-16 7.71290E-17
 -1        21-8.10682E-07-8.10682E-07-1.29320E-15-1.65532E-15-1.96913E-16 1.65192E-15
 -1        22-8.10682E-07-8.10682E-07 1.49004E-15-7.28522E-16-2.54903E-15-2.62712E-15
 -1        23-8.10682E-07-8.10682E-07 4.23873E-15 3.04444E-15 2.28746E-15 7.74137E-15
 -1        24-1.21602E-06-1.21602E-06-7.04513E-15-4.51037E-15 5.32373E-15-1.73764E-15
 -1        25-1.21602E-06-1.21602E-06 2.30705E-15 1.46681E-16 9.61741E-16-4.60505E-21
 -1        26-8.10682E-07-8.10682E-07-4.56634E-15 1.74750E-16-1.86823E-15 4.84374E-16
 -1        27-8.10682E-07-8.10682E-07-2.87118E-15 1.00276E-14 2.61582E-15-1.39738E-15
 -1        28-8.10682E-07-8.10682E-07 1.16713E-15 7.26573E-15-4.64467E-15 8.86856E-15
 -1        29-8.10682E-07-8.10682E-07-5.07319E-15-3.82726E-16 5.15055E-15-1.07437E-14
 -1        30-1.21602E-06-1.21602E-06-3.37094E-15 5.93452E-15-7.35198E-15 1.06829E-14
 -1        31-2.43205E-06-2.43205E-06 5.89770E-15-7.84602E-17-8.87932E-15-1.31517E-20
 -1        32-1.21602E-06-1.21602E-06 1.49710E-16 7.62134E-17-6.39284E-15 4.99021E-16
 -1        33-1.21602E-06-1.21602E-06 4.49562E-15 1.62645E-15 1.95356E-15 6.51912E-15
 -1        34-1.21602E-06-1.21602E-06-7.17199E-16-3.13671E-16-4.53987E-15-1.02592E-14
 -1        35-1.21602E-06-1.21602E-06 7.42579E-15 5.14762E-15-1.44419E-15 5.45204E-15
 -1        36-2.43205E-06-2.43205E-06 4.35200E-14-4.56823E-15-1.73868E-14-3.08433E-14
 -1        37-2.43205E-06-2.43205E-06 1.71480E-21 9.32218E-24-1.51171E-22-1.47695E-23
 -1        38-1.21602E-06-1.21602E-06-5.96515E-22 4.48658E-22-9.93112E-23-2.83579E-22
 -1        39-1.21602E-06-1.21602E-06 4.02126E-15-1.03241E-15-9.84450E-16-2.31161E-15
 -1        40-1.21602E-06-1.21602E-06 6.92574E-16 2.90512E-15 1.07565E-15-3.39505E-15
 -1        41-1.21602E-06-1.21602E-06-1.17676E-14-5.64034E-15 2.32924E-15 1.13325E-15
 -1        42-2.43205E-06-2.43205E-06-1.38621E-15-1.45054E-14-4.91912E-15-1.50832E-15
 -1        43-1.21602E-06-1.21602E-06 3.07244E-22-2.64656E-22 2.43494E-22 4.10782E-24
 -1        44-8.10682E-07-8.10682E-07 2.37587E-22 1.19561E-22-1.35145E-22 1.55170E-22
 -1        45-8.10682E-07-8.10682E-07 3.28922E-15-4.56622E-16-4.56343E-16-1.44141E-15
 -1        46-8.10682E-07-8.10682E-07 4.50359E-15-7.14789E-16 4.99103E-16 2.47591E-15
 -1        47-8.10682E-07-8.10682E-07-1.37309E-15-4.62199E-15 9.22196E-16-3.23682E-15
 -1        48-1.21602E-06-1.21602E-06-2.95716E-15 3.13058E-15-1.44937E-15-1.06567E-15
 -1        49-1.21602E-06-1.21602E-06-5.32675E-15 9.52874E-16-1.29739E-15-1.83834E-17
 -1        50-8.10682E-07-8.10682E-07 1.29542E-16 6.10368E-16 4.71518E-16 2.62650E-17
 -1        51-8.10682E-07-8.10682E-07-8.87463E-15-1.59749E-15-2.50025E-15-7.72463E-16
 -1        52-8.10682E-07-8.10682E-07 8.11981E-16-9.44346E-16-3.07183E-16 1.92665E-15
 -1        53-8.10682E-07-8.10682E-07-8.52973E-15-2.37494E-15 4.55218E-15 4.69476E-15
 -1        54-1.21602E-06-1.21602E-06-3.44830E-15 7.88456E-15-1.73358E-15-4.25516E-15
 -1        55-1.21602E-06-1.21602E-06-4.70860E-15-2.55326E-16 1.08299E-15 9.77249E-17
 -1        56-8.10682E-07-8.10682E-07 7.35155E-16-1.95099E-16 8.23412E-16 1.42280E-16
 -1        57-8.10682E-07-8.10682E-07 2.79057E-15-1.97699E-15 4.80265E-16-3.24646E-15
 -1        58-8.10682E-07-8.10682E-07-5.95189E-15-3.29391E-16 4.10868E-15-3.34379E-15
 -1        59-8.10682E-07-8.10682E-07-7.59377E-15-3.43442E-15-2.48660E-15-5.09184E-15
 -1        60-1.21602E-06-1.21602E-06 6.59584E-15 3.28634E-16 3.30785E-15 4.27457E-15
 -1        61-1.21602E-06-1.21602E-06-1.14461E-14-7.62298E-15-1.56697E-15-1.10557E-16
 -1        62-8.10682E-07-8.10682E-07 1.65224E-14-5.21739E-15-6.13206E-15 4.10672E-16
 -1        63-8.10682E-07-8.10682E-07-2.20674E-15-1.08738E-14-4.62288E-15 5.65803E-16
 -1        64-8.10682E-07-8.10682E-07-8.86242E-15-6.42046E-15 7.48074E-15-2.54696E-15
 -1        65-8.10682E-07-8.10682E-07-5.49280E-15 8.27283E-15-2.38406E-15 5.10142E-15
 -1        66-1.21602E-06-1.21602E-06 2.97713E-16-1.14417E-14-5.55090E-15 3.24261E-16
 -1        67-2.43205E-06-2.43205E-06-8.14098E-15 4.08524E-15 1.02090E-14-9.04518E-16
 -1        68-1.21602E-06-1.21602E-06 4.39029E-15 1.83951E-15 1.20817E-14 4.67692E-17
 -1        69-1.21602E-06-1.21602E-06 1.76569E-15-1.31561E-14 8.29047E-16-1.96401E-15
 -1        70-1.21602E-06-1.21602E-06 3.97378E-15-4.98449E-15 6.30863E-16 9.53534E-15
 -1        71-1.21602E-06-1.21602E-06-1.21994E-15-4.01899E-15-8.12697E-16-1.03047E-14
 -1        72-2.43205E-06-2.43205E-06-2.91623E-14 1.69540E-15 2.14577E-14 5.89594E-15
 -3
    1PSTEP                        18           6           1          
  100CL  106 1.41875E-02          72                     0    6           1
 -4  TOSTRAIN    6    1
 -5  EXX         1    4    1    1
 -5  EYY         1    4    2    2
 -5  EZZ         1    4    3    3
 -5  EXY         1    4    1    2
 -5  EYZ         1    4    2    3
 -5  EZX         1    4    3    1
 -1         1-8.10682E-12-8.10682E-12 6.94870E-12-4.02952E-28 2.88423E-28-3.98642E-30
 -1         2-4.05341E-12-4.05341E-12 3.47435E-12-1.76951E-27 1.08212E-28-1.76721E-27
 -1         3-4.05341E-12-4.05341E-12 3.47435E-12 5.67189E-21-1.87613E-26-2.10345E-20
 -1         4-4.05341E-12-4.05341E-12 3.47435E-12 7.33554E-22 1.22949E-26-7.52903E-21
 -1         5-4.05341E-12-4.05341E-12 3.47435E-12-1.09580E-21 3.45172E-26 8.05801E-21
 -1         6-8.10682E-12-8.10682E-12 6.94870E-12 1.02076E-19-5.47372E-26-1.31976E-20
 -1         7-4.05341E-12-4.05341E-12 3.47435E-12 2.29646E-27 2.53326E-27-1.37745E-28
 -1         8-2.70227E-12-2.70227E-12 2.31623E-12 4.85613E-28-4.28533E-28 9.89722E-28
 -1         9-2.70227E-12-2.70227E-12 2.31623E-12 1.13178E-20 1.23782E-21 1.69776E-20
 -1        10-2.70227E-12-2.70227E-12 2.31623E-12-2.15593E-20-1.34949E-21-1.04608E-21
 -1        11-2.70227E-12-2.70227E-12 2.31623E-12 3.71435E-21-3.90389E-21 3.52116E-21
 -1        12-4.05341E-12-4.05341E-12 3.47435E-12-1.96562E-20 6.25354E-21 3.76202E-21
 -1        13-4.05341E-12-4.05341E-12 3.47435E-12-1.13495E-22 3.42396E-21-1.51591E-26
 -1        14-2.70227E-12-2.70227E-12 2.31623E-12-5.64308E-22 7.51344E-21 2.38451E-22
 -1        15-2.70227E-12-2.70227E-12 2.31623E-12 6.27444E-21 1.63369E-20-1.85426E-21
 -1        16-2.70227E-12-2.70227E-12 2.31623E-12 2.92150E-21 1.48967E-20-7.62765E-22
 -1        17-2.70227E-12-2.70227E-12 2.31623E-12 4.29050E-21-2.27389E-20 5.99753E-21
 -1        18-4.05341E-12-4.05341E-12 3.47435E-12 4.78628E-21-2.87367E-20-5.44783E-20
 -1        19-4.05341E-12-4.05341E-12 3.47435E-12 3.03649E-23-1.74486E-20-1.14572E-26
 -1        20-2.70227E-12-2.70227E-12 2.31623E-12-4.68401E-22 2.09083E-21 4.77466E-22
 -1        21-2.70227E-12-2.70227E-12 2.31623E-12-1.02472E-20-1.21898E-21 1.02262E-20
 -1        22-2.70227E-12-2.70227E-12 2.31623E-12-4.50990E-21-1.57797E-20-1.62631E-20
 -1        23-2.70227E-12-2.70227E-12 2.31623E-12 1.88465E-20 1.41605E-20 4.79228E-20
 -1        24-4.05341E-12-4.05341E-12 3.47435E-12-2.79213E-20 3.29564E-20-1.07568E-20
 -1        25-4.05341E-12-4.05341E-12 3.47435E-12 9.08028E-22 5.95363E-21-2.85074E-26
 -1        26-2.70227E-12-2.70227E-12 2.31623E-12 1.08179E-21-1.15652E-20 2.99850E-21
 -1        27-2.70227E-12-2.70227E-12 2.31623E-12 6.20754E-20 1.61932E-20-8.65043E-21
 -1        28-2.70227E-12-2.70227E-12 2.31623E-12 4.49783E-20-2.87527E-20 5.49006E-20
 -1        29-2.70227E-12-2.70227E-12 2.31623E-12-2.36925E-21 3.18843E-20-6.65088E-20
 -1        30-4.05341E-12-4.05341E-12 3.47435E-12 3.67375E-20-4.55122E-20 6.61322E-20
 -1        31-8.10682E-12-8.10682E-12 6.94870E-12-4.85706E-22-5.49672E-20-8.14151E-26
 -1        32-4.05341E-12-4.05341E-12 3.47435E-12 4.71797E-22-3.95747E-20 3.08918E-21
 -1        33-4.05341E-12-4.05341E-12 3.47435E-12 1.00685E-20 1.20935E-20 4.03564E-20
 -1        34-4.05341E-12-4.05341E-12 3.47435E-12-1.94177E-21-2.81040E-20-6.35092E-20
 -1        35-4.05341E-12-4.05341E-12 3.47435E-12 3.18662E-20-8.94022E-21 3.37507E-20
 -1        36-8.10682E-12-8.10682E-12 6.94870E-12-2.82795E-20-1.07632E-19-1.90935E-19
 -1        37-8.10682E-12-8.10682E-12 6.94870E-12 5.77087E-29-9.35821E-28-9.14301E-29
 -1        38-4.05341E-12-4.05341E-12 3.47435E-12 2.77741E-27-6.14783E-28-1.75549E-27
 -1        39-4.05341E-12-4.05341E-12 3.47435E-12-6.39113E-21-6.09422E-21-1.43099E-20
 -1        40-4.05341E-12-4.05341E-12 3.47435E-12 1.79841E-20 6.65877E-21-2.10169E-20
 -1        41-4.05341E-12-4.05341E-12 3.47435E-12-3.49164E-20 1.44191E-20 7.01537E-21
 -1        42-8.10682E-12-8.10682E-12 6.94870E-12-8.97956E-20-3.04517E-20-9.33721E-21
 -1        43-4.05341E-12-4.05341E-12 3.47435E-12-1.63834E-27 1.50734E-27 2.54293E-29
 -1        44-2.70227E-12-2.70227E-12 2.31623E-12 7.40139E-28-8.36614E-28 9.60574E-28
 -1        45-2.70227E-12-2.70227E-12 2.31623E-12-2.82671E-21-2.82498E-21-8.92302E-21
 -1        46-2.70227E-12-2.70227E-12 2.31623E-12-4.42489E-21 3.08968E-21 1.53270E-20
 -1        47-2.70227E-12-2.70227E-12 2.31623E-12-2.86123E-20 5.70883E-21-2.00375E-20
 -1        48-4.05341E-12-4.05341E-12 3.47435E-12 1.93798E-20-8.97228E-21-6.59700E-21
 -1        49-4.05341E-12-4.05341E-12 3.47435E-12 5.89875E-21-8.03147E-21-1.13802E-22
 -1        50-2.70227E-12-2.70227E-12 2.31623E-12 3.77847E-21 2.91892E-21 1.62593E-22
 -1        51-2.70227E-12-2.70227E-12 2.31623E-12-9.88923E-21-1.54778E-20-4.78191E-21
 -1        52-2.70227E-12-2.70227E-12 2.31623E-12-5.84595E-21-1.90161E-21 1.19269E-20
 -1        53-2.70227E-12-2.70227E-12 2.31623E-12-1.47020E-20 2.81802E-20 2.90628E-20
 -1        54-4.05341E-12-4.05341E-12 3.47435E-12 4.88092E-20-1.07317E-20-2.63415E-20
 -1        55-4.05341E-12-4.05341E-12 3.47435E-12-1.58059E-21 6.70420E-21 6.04964E-22
 -1        56-2.70227E-12-2.70227E-12 2.31623E-12-1.20775E-21 5.09731E-21 8.80782E-22
 -1        57-2.70227E-12-2.70227E-12 2.31623E-12-1.22385E-20 2.97307E-21-2.00971E-20
 -1        58-2.70227E-12-2.70227E-12 2.31623E-12-2.03909E-21 2.54347E-20-2.06997E-20
 -1        59-2.70227E-12-2.70227E-12 2.31623E-12-2.12607E-20-1.53933E-20-3.15209E-20
 -1        60-4.05341E-12-4.05341E-12 3.47435E-12 2.03440E-21 2.04772E-20 2.64616E-20
 -1        61-4.05341E-12-4.05341E-12 3.47435E-12-4.71899E-20-9.70031E-21-6.84403E-22
 -1        62-2.70227E-12-2.70227E-12 2.31623E-12-3.22982E-20-3.79604E-20 2.54225E-21
 -1        63-2.70227E-12-2.70227E-12 2.31623E-12-6.73138E-20-2.86178E-20 3.50259E-21
 -1        64-2.70227E-12-2.70227E-12 2.31623E-12-3.97457E-20 4.63093E-20-1.57669E-20
 -1        65-2.70227E-12-2.70227E-12 2.31623E-12 5.12127E-20-1.47585E-20 3.15802E-20
 -1        66-4.05341E-12-4.05341E-12 3.47435E-12-7.08294E-20-3.43627E-20 2.00733E-21
 -1        67-8.10682E-12-8.10682E-12 6.94870E-12 2.52896E-20 6.31988E-20-5.59940E-21
 -1        68-4.05341E-12-4.05341E-12 3.47435E-12 1.13874E-20 7.47914E-20 2.89524E-22
 -1        69-4.05341E-12-4.05341E-12 3.47435E-12-8.14427E-20 5.13220E-21-1.21581E-20
 -1        70-4.05341E-12-4.05341E-12 3.47435E-12-3.08564E-20 3.90534E-21 5.90283E-20
 -1        71-4.05341E-12-4.05341E-12 3.47435E-12-2.48795E-20-5.03098E-21-6.37910E-20
 -1        72-8.10682E-12-8.10682E-12 6.94870E-12 1.04953E-20 1.32833E-19 3.64987E-20
 -3
    1PSTEP                        19           7           1          
  100CL  107 2.17813E-02          72                     0    7           1
 -4  DISP        4    1
 -5  D1          1    2    1    0
 -5  D2          1    2    2    0
 -5  D3          1    2    3    0
 -5  ALL         1    2    0    0    1ALL
 -1         1 0.00000E+00 0.00000E+00 0.00000E+00
 -1         2-6.22321E-09 0.00000E+00 0.00000E+00
 -1         3-3.26719E-01 0.00000E+00 0.00000E+00
 -1         4-3.26719E-01 0.00000E+00 0.00000E+00
 -1         5-6.53437E-01 0.00000E+00 0.00000E+00
 -1         6-6.53437E-01 0.00000E+00 0.00000E+00
 -1         7 0.00000E+00-6.22321E-09 0.00000E+00
 -1         8-6.22321E-09-6.22321E-09 0.00000E+00
 -1         9-3.26719E-01-6.22321E-09 0.00000E+00
 -1        10-3.26719E-01-6.22321E-09 0.00000E+00
 -1        11-6.53437E-01-6.22321E-09 0.00000E+00
 -1        12-6.53437E-01-6.22321E-09 0.00000E+00
 -1        13 0.00000E+00-3.26719E-01 0.00000E+00
 -1        14-6.22321E-09-3.26719E-01 0.00000E+00
 -1        15-3.26719E-01-3.26719E-01 0.00000E+00
 -1        16-3.26719E-01-3.26719E-01 0.00000E+00
 -1        17-6.53437E-01-3.26719E-01 0.00000E+00
 -1        18-6.53437E-01-3.26719E-01 0.00000E+00
 -1        19 0.00000E+00-3.26719E-01 0.00000E+00
 -1        20-6.22321E-09-3.26719E-01 0.00000E+00
 -1        21-3.26719E-01-3.26719E-01 0.00000E+00
 -1        22-3.26719E-01-3.26719E-01 0.00000E+00
 -1        23-6.53437E-01-3.26719E-01 0.00000E+00
 -1        24-6.53437E-01-3.26719E-01 0.00000E+00
 -1        25 0.00000E+00-6.53437E-01 0.00000E+00
 -1        26-6.22321E-09-6.53437E-01 0.00000E+00
 -1        27-3.26719E-01-6.53437E-01 0.00000E+00
 -1        28-3.26719E-01-6.53437E-01 0.00000E+00
 -1        29-6.53437E-01-6.53437E-01 0.00000E+00
 -1        30-6.53437E-01-6.53437E-01 0.00000E+00
 -1        31 0.00000E+00-6.53437E-01 0.00000E+00
 -1        32-6.22321E-09-6.53437E-01 0.00000E+00
 -1        33-3.26719E-01-6.53437E-01 0.00000E+00
 -1        34-3.26719E-01-6.53437E-01 0.00000E+00
 -1        35-6.53437E-01-6.53437E-01 0.00000E+00
 -1        36-6.53437E-01-6.53437E-01 0.00000E+00
 -1        37 0.00000E+00 0.00000E+00 7.46786E-09
 -1        38-6.22321E-09 0.00000E+00 7.46786E-09
 -1        39-3.26719E-01 0.00000E+00 7.46786E-09
 -1        40-3.26719E-01 0.00000E+00 7.46786E-09
 -1        41-6.53437E-01 0.00000E+00 7.46786E-09
 -1        42-6.53437E-01 0.00000E+00 7.46786E-09
 -1        43 0.00000E+00-6.22321E-09 7.46786E-09
 -1        44-6.22321E-09-6.22321E-09 7.46786E-09
 -1        45-3.26719E-01-6.22321E-09 7.46786E-09
 -1        46-3.26719E-01-6.22321E-09 7.46786E-09
 -1        47-6.53437E-01-6.22321E-09 7.46786E-09
 -1        48-6.53437E-01-6.22321E-09 7.46786E-09
 -1        49 0.00000E+00-3.26719E-01 7.46786E-09
 -1        50-6.22321E-09-3.26719E-01 7.46786E-09
 -1        51-3.26719E-01-3.26719E-01 7.46786E-09
 -1        52-3.26719E-01-3.26719E-01 7.46786E-09
 -1        53-6.53437E-01-3.26719E-01 7.46786E-09
 -1        54-6.53437E-01-3.26719E-01 7.46786E-09
 -1        55 0.00000E+00-3.26719E-01 7.46786E-09
 -1        56-6.22321E-09-3.26719E-01 7.46786E-09
 -1        57-3.26719E-01-3.26719E-01 7.46786E-09
 -1        58-3.26719E-01-3.26719E-01 7.46786E-09
 -1        59-6.53437E-01-3.26719E-01 7.46786E-09
 -1        60-6.53437E-01-3.26719E-01 7.46786E-09
 -1        61 0.00000E+00-6.53437E-01 7.46786E-09
 -1        62-6.22321E-09-6.53437E-01 7.46786E-09
 -1        63-3.26719E-01-6.53437E-01 7.46786E-09
 -1        64-3.26719E-01-6.53437E-01 7.46786E-09
 -1        65-6.53437E-01-6.53437E-01 7.46786E-09
 -1        66-6.53437E-01-6.53437E-01 7.46786E-09
 -1        67 0.00000E+00-6.53437E-01 7.46786E-09
 -1        68-6.22321E-09-6.53437E-01 7.46786E-09
 -1        69-3.26719E-01-6.53437E-01 7.46786E-09
 -1        70-3.26719E-01-6.53437E-01 7.46786E-09
 -1        71-6.53437E-01-6.53437E-01 7.46786E-09
 -1        72-6.53437E-01-6.53437E-01 7.46786E-09
 -3
    1PSTEP                        20           7           1          
  100CL  107 2.17813E-02          72                     0    7           1
 -4  STRESS      6    1
 -5  SXX         1    4    1    1
 -5  SYY         1    4    2    2
 -5  SZZ         1    4    3    3
 -5  SXY         1    4    1    2
 -5  SYZ         1    4    2    3
 -5  SZX         1    4    3    1
 -1         1-3.73378E-06-3.73378E-06 1.58055E-21-1.28037E-23-2.85453E-23 4.58344E-24
 -1         2-1.86689E-06-1.86689E-06-8.11051E-22 1.05220E-22-7.02459E-24 1.90913E-22
 -1         3-1.86689E-06-1.86689E-06 6.57035E-15 5.30497E-15-4.32325E-21-9.10728E-16
 -1         4-1.86689E-06-1.86689E-06 6.05143E-15 1.68267E-15-5.22861E-21 5.54917E-15
 -1         5-1.86689E-06-1.86689E-06 2.94563E-16 1.30810E-14-1.43528E-20 3.19807E-15
 -1         6-3.73378E-06-3.73378E-06 1.42212E-14-2.48485E-14-6.59730E-21-8.70314E-15
 -1         7-1.86689E-06-1.86689E-06-5.78524E-22-2.00749E-22-1.39190E-22 4.55442E-24
 -1         8-1.24459E-06-1.24459E-06 4.37351E-22-5.94181E-23 8.33040E-23 1.79902E-22
 -1         9-1.24459E-06-1.24459E-06 7.79304E-15 3.02169E-15-4.17361E-16 2.33532E-15
 -1        10-1.24459E-06-1.24459E-06 5.50695E-15 5.79981E-16 1.73390E-16-5.89431E-15
 -1        11-1.24459E-06-1.24459E-06 1.48941E-15 6.60369E-16-1.99455E-15 1.70871E-15
 -1        12-1.86689E-06-1.86689E-06 1.13772E-15 1.25735E-14 3.31683E-15-1.98172E-15
 -1        13-1.86689E-06-1.86689E-06-4.98730E-15-4.08516E-15-1.36193E-14-5.20296E-21
 -1        14-1.24459E-06-1.24459E-06-3.00957E-15-2.78101E-15 2.12927E-15-4.08631E-16
 -1        15-1.24459E-06-1.24459E-06-6.10882E-15-1.47647E-15-3.00519E-15-3.96950E-15
 -1        16-1.24459E-06-1.24459E-06 3.44892E-15 4.75445E-15 6.22156E-15 3.31484E-15
 -1        17-1.24459E-06-1.24459E-06-7.00455E-15-4.77820E-15 1.25468E-15 7.70175E-15
 -1        18-1.86689E-06-1.86689E-06 5.54877E-15 8.94802E-15 3.68273E-15-3.75874E-15
 -1        19-1.86689E-06-1.86689E-06-7.38352E-15 1.09461E-15 6.77203E-15 1.49346E-21
 -1        20-1.24459E-06-1.24459E-06-3.46907E-15 6.72179E-16 4.16728E-16 4.03778E-16
 -1        21-1.24459E-06-1.24459E-06-6.19570E-16 3.79927E-15-1.89201E-15-2.62292E-16
 -1        22-1.24459E-06-1.24459E-06-1.14826E-14-1.58492E-15 1.98867E-15 8.55016E-16
 -1        23-1.24459E-06-1.24459E-06-9.21626E-15 1.44961E-15-3.37208E-15-1.88214E-15
 -1        24-1.86689E-06-1.86689E-06 1.68856E-14 6.59228E-15-1.93472E-15-8.93640E-18
 -1        25-1.86689E-06-1.86689E-06-2.31939E-14-1.63406E-14 1.48438E-15-6.40049E-21
 -1        26-1.24459E-06-1.24459E-06 1.45518E-14-1.06355E-14-8.74920E-15 3.51777E-17
 -1        27-1.24459E-06-1.24459E-06 7.01115E-15 8.51932E-15-5.47306E-15-2.91896E-15
 -1        28-1.24459E-06-1.24459E-06 2.16286E-14 1.22516E-15 1.21856E-15 4.28068E-15
 -1        29-1.24459E-06-1.24459E-06-2.20280E-14-7.77270E-15 2.80334E-15 2.95599E-15
 -1        30-1.86689E-06-1.86689E-06-1.23405E-14 7.11746E-15 1.68316E-16-1.19463E-15
 -1        31-3.73378E-06-3.73378E-06-2.88781E-14 8.75696E-15-2.00269E-14-1.89523E-20
 -1        32-1.86689E-06-1.86689E-06 2.40703E-14 4.76579E-15 3.51653E-15 1.77173E-15
 -1        33-1.86689E-06-1.86689E-06 1.75376E-14 5.33073E-15-4.39919E-16 3.39120E-15
 -1        34-1.86689E-06-1.86689E-06-2.59615E-14-6.25173E-15-2.54003E-16 3.13720E-15
 -1        35-1.86689E-06-1.86689E-06-8.46370E-16-8.93312E-15-5.42653E-15-2.11776E-15
 -1        36-3.73378E-06-3.73378E-06 1.43775E-14-6.11200E-15-1.30531E-15 2.68113E-14
 -1        37-3.73378E-06-3.73378E-06-8.88555E-22 4.77592E-23 4.75925E-22 3.11753E-23
 -1        38-1.86689E-06-1.86689E-06 1.55007E-22 2.08901E-22-1.46253E-22 1.95253E-22
 -1        39-1.86689E-06-1.86689E-06 3.48755E-15-4.86637E-15 1.04859E-15 3.15057E-15
 -1        40-1.86689E-06-1.86689E-06 4.82950E-15-7.29810E-16-1.15507E-16-1.80523E-15
 -1        41-1.86689E-06-1.86689E-06-1.17458E-14-1.68263E-14 1.94126E-15-2.86532E-15
 -1        42-3.73378E-06-3.73378E-06 1.66368E-14 1.00682E-15-2.44740E-15 1.47343E-14
 -1        43-1.86689E-06-1.86689E-06 1.02280E-21 1.47597E-22 1.13045E-22-3.45869E-22
 -1        44-1.24459E-06-1.24459E-06 3.78285E-23 2.21746E-22-9.51510E-24-3.14326E-23
 -1        45-1.24459E-06-1.24459E-06 1.22256E-15-3.23264E-15 2.81699E-16-3.61733E-15
 -1        46-1.24459E-06-1.24459E-06 1.77046E-16 9.20161E-16 9.63894E-17-2.86822E-15
 -1        47-1.24459E-06-1.24459E-06-4.07460E-15-6.17808E-15-7.00371E-16-2.44029E-15
 -1        48-1.86689E-06-1.86689E-06 6.03986E-15-6.03876E-15 2.09313E-15-4.64240E-15
 -1        49-1.86689E-06-1.86689E-06 1.87622E-15 1.09462E-15 6.47255E-15-2.27196E-16
 -1        50-1.24459E-06-1.24459E-06-1.71773E-15 1.80955E-15-1.24331E-15-5.60092E-16
 -1        51-1.24459E-06-1.24459E-06 3.34362E-15-3.79691E-15-5.25839E-15-5.23060E-15
 -1        52-1.24459E-06-1.24459E-06-7.57241E-16-1.50540E-16-4.02786E-15-1.92406E-15
 -1        53-1.24459E-06-1.24459E-06-3.36742E-15 7.55465E-15-5.59678E-15-3.16562E-15
 -1        54-1.86689E-06-1.86689E-06 1.85019E-14-6.69343E-16-2.32687E-15 3.81256E-15
 -1        55-1.86689E-06-1.86689E-06 2.03907E-15-2.93282E-16-2.01064E-16 4.55597E-16
 -1        56-1.24459E-06-1.24459E-06-4.71184E-16 8.84283E-16 2.22574E-15 7.07508E-16
 -1        57-1.24459E-06-1.24459E-06 6.66770E-15-6.30513E-15 8.29617E-15 4.71036E-15
 -1        58-1.24459E-06-1.24459E-06 9.87372E-15 1.84136E-15 2.28473E-15-4.60470E-17
 -1        59-1.24459E-06-1.24459E-06 2.29249E-15-1.12560E-14 3.51995E-15 5.67596E-15
 -1        60-1.86689E-06-1.86689E-06 3.25400E-15-7.68664E-16 5.84495E-16-1.17232E-14
 -1        61-1.86689E-06-1.86689E-06 9.83582E-15 4.37849E-15-1.76239E-14 8.59589E-16
 -1        62-1.24459E-06-1.24459E-06-4.47638E-15 4.78157E-15 5.93294E-15 6.08241E-16
 -1        63-1.24459E-06-1.24459E-06 1.66113E-14 2.38895E-15 2.29167E-15-4.72342E-16
 -1        64-1.24459E-06-1.24459E-06-2.33842E-14 6.16075E-15-3.36587E-15-2.83090E-15
 -1        65-1.24459E-06-1.24459E-06-4.67325E-15 1.40780E-14-6.43347E-15-1.13816E-14
 -1        66-1.86689E-06-1.86689E-06-4.78000E-15-1.65167E-14-1.40488E-15 2.14378E-14
 -1        67-3.73378E-06-3.73378E-06 4.44011E-14-2.34623E-15 1.77359E-14-3.49063E-15
 -1        68-1.86689E-06-1.86689E-06-8.62100E-16 1.62076E-15 8.07406E-15 2.64279E-17
 -1        69-1.86689E-06-1.86689E-06-1.98113E-14-4.91652E-15 1.12072E-14 3.75464E-15
 -1        70-1.86689E-06-1.86689E-06-2.32557E-15 5.07671E-15-7.13066E-15-5.14893E-15
 -1        71-1.86689E-06-1.86689E-06 7.94558E-15 1.42274E-14-8.82925E-15-6.42650E-16
 -1        72-3.73378E-06-3.73378E-06-4.98173E-15 1.83922E-14 1.07656E-14-3.55294E-14
 -3
    1PSTEP                        21           7           1          
  100CL  107 2.17813E-02          72                     0    7           1
 -4  TOSTRAIN    6    1
 -5  EXX         1    4    1    1
 -5  EYY         1    4    2    2
 -5  EZZ         1    4    3    3
 -5  EXY         1    4    1    2
 -5  EYZ         1    4    2    3
 -5  EZX         1    4    3    1
 -1         1-1.24459E-11-1.24459E-11 1.06679E-11-7.92607E-29-1.76709E-28 2.83737E-29
 -1         2-6.22296E-12-6.22296E-12 5.33397E-12 6.51360E-28-4.34856E-29 1.18184E-27
 -1         3-6.22296E-12-6.22296E-12 5.33397E-12 3.28403E-20-2.67630E-26-5.63784E-21
 -1         4-6.22296E-12-6.22296E-12 5.33397E-12 1.04165E-20-3.23676E-26 3.43520E-20
 -1         5-6.22296E-12-6.22296E-12 5.33397E-12 8.09776E-20-8.88506E-26 1.97976E-20
 -1         6-1.24459E-11-1.24459E-11 1.06679E-11-1.53824E-19-4.08405E-26-5.38766E-20
 -1         7-6.22296E-12-6.22296E-12 5.33397E-12-1.24273E-27-8.61654E-28 2.81940E-29
 -1         8-4.14864E-12-4.14864E-12 3.55598E-12-3.67826E-28 5.15691E-28 1.11368E-27
 -1         9-4.14864E-12-4.14864E-12 3.55598E-12 1.87057E-20-2.58366E-21 1.44567E-20
 -1        10-4.14864E-12-4.14864E-12 3.55598E-12 3.59036E-21 1.07337E-21-3.64886E-20
 -1        11-4.14864E-12-4.14864E-12 3.55598E-12 4.08800E-21-1.23472E-20 1.05777E-20
 -1        12-6.22296E-12-6.22296E-12 5.33397E-12 7.78361E-20 2.05328E-20-1.22678E-20
 -1        13-6.22296E-12-6.22296E-12 5.33397E-12-2.52891E-20-8.43099E-20-3.22088E-26
 -1        14-4.14864E-12-4.14864E-12 3.55598E-12-1.72157E-20 1.31812E-20-2.52962E-21
 -1        15-4.14864E-12-4.14864E-12 3.55598E-12-9.14005E-21-1.86036E-20-2.45731E-20
 -1        16-4.14864E-12-4.14864E-12 3.55598E-12 2.94323E-20 3.85144E-20 2.05204E-20
 -1        17-4.14864E-12-4.14864E-12 3.55598E-12-2.95793E-20 7.76709E-21 4.76775E-20
 -1        18-6.22296E-12-6.22296E-12 5.33397E-12 5.53925E-20 2.27979E-20-2.32684E-20
 -1        19-6.22296E-12-6.22296E-12 5.33397E-12 6.77617E-21 4.19221E-20 9.24523E-27
 -1        20-4.14864E-12-4.14864E-12 3.55598E-12 4.16111E-21 2.57975E-21 2.49958E-21
 -1        21-4.14864E-12-4.14864E-12 3.55598E-12 2.35193E-20-1.17125E-20-1.62371E-21
 -1        22-4.14864E-12-4.14864E-12 3.55598E-12-9.81140E-21 1.23108E-20 5.29296E-21
 -1        23-4.14864E-12-4.14864E-12 3.55598E-12 8.97376E-21-2.08748E-20-1.16514E-20
 -1        24-6.22296E-12-6.22296E-12 5.33397E-12 4.08094E-20-1.19768E-20-5.53205E-23
 -1        25-6.22296E-12-6.22296E-12 5.33397E-12-1.01156E-19 9.18905E-21-3.96221E-26
 -1        26-4.14864E-12-4.14864E-12 3.55598E-12-6.58391E-20-5.41617E-20 2.17766E-22
 -1        27-4.14864E-12-4.14864E-12 3.55598E-12 5.27386E-20-3.38808E-20-1.80698E-20
 -1        28-4.14864E-12-4.14864E-12 3.55598E-12 7.58433E-21 7.54349E-21 2.64994E-20
 -1        29-4.14864E-12-4.14864E-12 3.55598E-12-4.81167E-20 1.73540E-20 1.82990E-20
 -1        30-6.22296E-12-6.22296E-12 5.33397E-12 4.40605E-20 1.04196E-21-7.39534E-21
 -1        31-1.24459E-11-1.24459E-11 1.06679E-11 5.42097E-20-1.23976E-19-1.17324E-25
 -1        32-6.22296E-12-6.22296E-12 5.33397E-12 2.95025E-20 2.17690E-20 1.09679E-20
 -1        33-6.22296E-12-6.22296E-12 5.33397E-12 3.29998E-20-2.72331E-21 2.09932E-20
 -1        34-6.22296E-12-6.22296E-12 5.33397E-12-3.87012E-20-1.57240E-21 1.94208E-20
 -1        35-6.22296E-12-6.22296E-12 5.33397E-12-5.53003E-20-3.35928E-20-1.31100E-20
 -1        36-1.24459E-11-1.24459E-11 1.06679E-11-3.78362E-20-8.08048E-21 1.65974E-19
 -1        37-1.24459E-11-1.24459E-11 1.06679E-11 2.95652E-28 2.94621E-27 1.92990E-28
 -1        38-6.22296E-12-6.22296E-12 5.33397E-12 1.29319E-27-9.05377E-28 1.20871E-27
 -1        39-6.22296E-12-6.22296E-12 5.33397E-12-3.01251E-20 6.49125E-21 1.95035E-20
 -1        40-6.22296E-12-6.22296E-12 5.33397E-12-4.51787E-21-7.15042E-22-1.11753E-20
 -1        41-6.22296E-12-6.22296E-12 5.33397E-12-1.04163E-19 1.20173E-20-1.77377E-20
 -1        42-1.24459E-11-1.24459E-11 1.06679E-11 6.23270E-21-1.51505E-20 9.12126E-20
 -1        43-6.22296E-12-6.22296E-12 5.33397E-12 9.13697E-28 6.99803E-28-2.14109E-27
 -1        44-4.14864E-12-4.14864E-12 3.55598E-12 1.37271E-27-5.89030E-29-1.94583E-28
 -1        45-4.14864E-12-4.14864E-12 3.55598E-12-2.00116E-20 1.74385E-21-2.23930E-20
 -1        46-4.14864E-12-4.14864E-12 3.55598E-12 5.69623E-21 5.96696E-22-1.77557E-20
 -1        47-4.14864E-12-4.14864E-12 3.55598E-12-3.82452E-20-4.33563E-21-1.51065E-20
 -1        48-6.22296E-12-6.22296E-12 5.33397E-12-3.73828E-20 1.29575E-20-2.87386E-20
 -1        49-6.22296E-12-6.22296E-12 5.33397E-12 6.77620E-21 4.00682E-20-1.40645E-21
 -1        50-4.14864E-12-4.14864E-12 3.55598E-12 1.12020E-20-7.69665E-21-3.46723E-21
 -1        51-4.14864E-12-4.14864E-12 3.55598E-12-2.35047E-20-3.25520E-20-3.23799E-20
 -1        52-4.14864E-12-4.14864E-12 3.55598E-12-9.31917E-22-2.49344E-20-1.19109E-20
 -1        53-4.14864E-12-4.14864E-12 3.55598E-12 4.67669E-20-3.46468E-20-1.95967E-20
 -1        54-6.22296E-12-6.22296E-12 5.33397E-12-4.14355E-21-1.44045E-20 2.36016E-20
 -1        55-6.22296E-12-6.22296E-12 5.33397E-12-1.81556E-21-1.24468E-21 2.82036E-21
 -1        56-4.14864E-12-4.14864E-12 3.55598E-12 5.47413E-21 1.37784E-20 4.37981E-21
 -1        57-4.14864E-12-4.14864E-12 3.55598E-12-3.90318E-20 5.13573E-20 2.91593E-20
 -1        58-4.14864E-12-4.14864E-12 3.55598E-12 1.13989E-20 1.41436E-20-2.85053E-22
 -1        59-4.14864E-12-4.14864E-12 3.55598E-12-6.96799E-20 2.17901E-20 3.51369E-20
 -1        60-6.22296E-12-6.22296E-12 5.33397E-12-4.75839E-21 3.61830E-21-7.25720E-20
 -1        61-6.22296E-12-6.22296E-12 5.33397E-12 2.71049E-20-1.09100E-19 5.32127E-21
 -1        62-4.14864E-12-4.14864E-12 3.55598E-12 2.96002E-20 3.67277E-20 3.76530E-21
 -1        63-4.14864E-12-4.14864E-12 3.55598E-12 1.47888E-20 1.41865E-20-2.92402E-21
 -1        64-4.14864E-12-4.14864E-12 3.55598E-12 3.81380E-20-2.08364E-20-1.75246E-20
 -1        65-4.14864E-12-4.14864E-12 3.55598E-12 8.71497E-20-3.98262E-20-7.04577E-20
 -1        66-6.22296E-12-6.22296E-12 5.33397E-12-1.02246E-19-8.69685E-21 1.32710E-19
 -1        67-1.24459E-11-1.24459E-11 1.06679E-11-1.45243E-20 1.09794E-19-2.16087E-20
 -1        68-6.22296E-12-6.22296E-12 5.33397E-12 1.00333E-20 4.99823E-20 1.63601E-22
 -1        69-6.22296E-12-6.22296E-12 5.33397E-12-3.04356E-20 6.93777E-20 2.32430E-20
 -1        70-6.22296E-12-6.22296E-12 5.33397E-12 3.14273E-20-4.41422E-20-3.18743E-20
 -1        71-6.22296E-12-6.22296E-12 5.33397E-12 8.80744E-20-5.46573E-20-3.97831E-21
 -1        72-1.24459E-11-1.24459E-11 1.06679E-11 1.13856E-19 6.66439E-20-2.19944E-19
 -3
    1PSTEP                        22           8           1          
  100CL  108 3.07813E-02          72                     0    8           1
 -4  DISP        4    1
 -5  D1          1    2    1    0
 -5  D2          1    2    2    0
 -5  D3          1    2    3    0
 -5  ALL         1    2    0    0    1ALL
 -1         1 0.00000E+00 0.00000E+00 0.00000E+00
 -1         2-8.79464E-09 0.00000E+00 0.00000E+00
 -1         3-4.61719E-01 0.00000E+00 0.00000E+00
 -1         4-4.61719E-01 0.00000E+00 0.00000E+00
 -1         5-9.23437E-01 0.00000E+00 0.00000E+00
 -1         6-9.23437E-01 0.00000E+00 0.00000E+00
 -1         7 0.00000E+00-8.79464E-09 0.00000E+00
 -1         8-8.79464E-09-8.79464E-09 0.00000E+00
 -1         9-4.61719E-01-8.79464E-09 0.00000E+00
 -1        10-4.61719E-01-8.79464E-09 0.00000E+00
 -1        11-9.23437E-01-8.79464E-09 0.00000E+00
 -1        12-9.23437E-01-8.79464E-09 0.00000E+00
 -1        13 0.00000E+00-4.61719E-01 0.00000E+00
 -1        14-8.79464E-09-4.61719E-01 0.00000E+00
 -1        15-4.61719E-01-4.61719E-01 0.00000E+00
 -1        16-4.61719E-01-4.61719E-01 0.00000E+00
 -1        17-9.23437E-01-4.61719E-01 0.00000E+00
 -1        18-9.23437E-01-4.61719E-01 0.00000E+00
 -1        19 0.00000E+00-4.61719E-01 0.00000E+00
 -1        20-8.79464E-09-4.61719E-01 0.00000E+00
 -1        21-4.61719E-01-4.61719E-01 0.00000E+00
 -1        22-4.61719E-01-4.61719E-01 0.00000E+00
 -1        23-9.23437E-01-4.61719E-01 0.00000E+00
 -1        24-9.23437E-01-4.61719E-01 0.00000E+00
 -1        25 0.00000E+00-9.23437E-01 0.00000E+00
 -1        26-8.79464E-09-9.23437E-01 0.00000E+00
 -1        27-4.61719E-01-9.23437E-01 0.00000E+00
 -1        28-4.61719E-01-9.23437E-01 0.00000E+00
 -1        29-9.23437E-01-9.23437E-01 0.00000E+00
 -1        30-9.23437E-01-9.23437E-01 0.00000E+00
 -1        31 0.00000E+00-9.23437E-01 0.00000E+00
 -1        32-8.79464E-09-9.23437E-01 0.00000E+00
 -1        33-4.61719E-01-9.23437E-01 0.00000E+00
 -1        34-4.61719E-01-9.23437E-01 0.00000E+00
 -1        35-9.23437E-01-9.23437E-01 0.00000E+00
 -1        36-9.23437E-01-9.23437E-01 0.00000E+00
 -1        37 0.00000E+00 0.00000E+00 1.05536E-08
 -1        38-8.79464E-09 0.00000E+00 1.05536E-08
 -1        39-4.61719E-01 0.00000E+00 1.05536E-08
 -1        40-4.61719E-01 0.00000E+00 1.05536E-08
 -1        41-9.23437E-01 0.00000E+00 1.05536E-08
 -1        42-9.23437E-01 0.00000E+00 1.05536E-08
 -1        43 0.00000E+00-8.79464E-09 1.05536E-08
 -1        44-8.79464E-09-8.79464E-09 1.05536E-08
 -1        45-4.61719E-01-8.79464E-09 1.05536E-08
 -1        46-4.61719E-01-8.79464E-09 1.05536E-08
 -1        47-9.23437E-01-8.79464E-09 1.05536E-08
 -1        48-9.23437E-01-8.79464E-09 1.05536E-08
 -1        49 0.00000E+00-4.61719E-01 1.05536E-08
 -1        50-8.79464E-09-4.61719E-01 1.05536E-08
 -1        51-4.61719E-01-4.61719E-01 1.05536E-08
 -1        52-4.61719E-01-4.61719E-01 1.05536E-08
 -1        53-9.23437E-01-4.61719E-01 1.05536E-08
 -1        54-9.23437E-01-4.61719E-01 1.05536E-08
 -1        55 0.00000E+00-4.61719E-01 1.05536E-08
 -1        56-8.79464E-09-4.61719E-01 1.05536E-08
 -1        57-4.61719E-01-4.61719E-01 1.05536E-08
 -1        58-4.61719E-01-4.61719E-01 1.05536E-08
 -1        59-9.23437E-01-4.61719E-01 1.05536E-08
 -1        60-9.23437E-01-4.61719E-01 1.05536E-08
 -1        61 0.00000E+00-9.23437E-01 1.05536E-08
 -1        62-8.79464E-09-9.23437E-01 1.05536E-08
 -1        63-4.61719E-01-9.23437E-01 1.05536E-08
 -1        64-4.61719E-01-9.23437E-01 1.05536E-08
 -1        65-9.23437E-01-9.23437E-01 1.05536E-08
 -1        66-9.23437E-01-9.23437E-01 1.05536E-08
 -1        67 0.00000E+00-9.23437E-01 1.05536E-08
 -1        68-8.79464E-09-9.23437E-01 1.05536E-08
 -1        69-4.61719E-01-9.23437E-01 1.05536E-08
 -1        70-4.61719E-01-9.23437E-01 1.05536E-08
 -1        71-9.23437E-01-9.23437E-01 1.05536E-08
 -1        72-9.23437E-01-9.23437E-01 1.05536E-08
 -3
    1PSTEP                        23           8           1          
  100CL  108 3.07813E-02          72                     0    8           1
 -4  STRESS      6    1
 -5  SXX         1    4    1    1
 -5  SYY         1    4    2    2
 -5  SZZ         1    4    3    3
 -5  SXY         1    4    1    2
 -5  SYZ         1    4    2    3
 -5  SZX         1    4    3    1
 -1         1-5.27657E-06-5.27657E-06 1.58056E-21 6.31198E-23 4.04662E-23-7.77719E-23
 -1         2-2.63829E-06-2.63829E-06 1.05877E-21 2.59651E-22 7.21804E-24 3.08075E-22
 -1         3-2.63829E-06-2.63829E-06 2.90651E-16 9.98074E-16-3.62302E-21-1.31046E-14
 -1         4-2.63829E-06-2.63829E-06 1.21819E-15 3.85901E-15-1.63502E-21 1.95881E-14
 -1         5-2.63829E-06-2.63829E-06 1.10766E-15 3.14451E-15-1.19805E-20 1.66679E-14
 -1         6-5.27657E-06-5.27657E-06 8.17731E-15 8.89731E-15-1.52770E-20-1.77676E-14
 -1         7-2.63829E-06-2.63829E-06-1.48229E-21 8.57140E-22 2.49757E-22-2.81747E-23
 -1         8-1.75886E-06-1.75886E-06 3.78228E-23 7.23487E-22-2.98880E-22 1.42910E-22
 -1         9-1.75886E-06-1.75886E-06 4.40699E-15 1.05376E-15-5.02993E-16 6.53338E-15
 -1        10-1.75886E-06-1.75886E-06 3.93974E-15-2.85900E-15 2.91473E-16-1.67993E-14
 -1        11-1.75886E-06-1.75886E-06-1.87570E-15 1.06881E-15-1.63572E-15-1.23209E-14
 -1        12-2.63829E-06-2.63829E-06-5.95133E-15 1.37998E-14 1.20742E-15 2.84154E-14
 -1        13-2.63829E-06-2.63829E-06 2.44695E-15 8.77193E-16-2.91006E-15-1.74592E-21
 -1        14-1.75886E-06-1.75886E-06-1.92422E-15 7.54540E-16 4.08035E-15 8.68841E-16
 -1        15-1.75886E-06-1.75886E-06-1.15231E-14-5.70021E-15 7.70956E-16-3.82706E-15
 -1        16-1.75886E-06-1.75886E-06-6.42752E-15 4.93294E-15 2.82718E-15 8.70238E-15
 -1        17-1.75886E-06-1.75886E-06 8.99213E-15 5.69905E-15-1.05758E-15 3.52175E-15
 -1        18-2.63829E-06-2.63829E-06 1.21441E-14 1.59087E-15-7.02865E-15 2.20627E-15
 -1        19-2.63829E-06-2.63829E-06-8.95607E-16 3.42060E-15 8.71041E-15-1.30033E-21
 -1        20-1.75886E-06-1.75886E-06-5.69067E-16 2.45015E-15-1.06070E-16-4.83377E-16
 -1        21-1.75886E-06-1.75886E-06-9.92922E-15 1.84943E-15-4.80413E-15 2.86379E-15
 -1        22-1.75886E-06-1.75886E-06 2.77060E-16 3.45735E-15 1.23359E-15-9.19275E-15
 -1        23-1.75886E-06-1.75886E-06 2.05894E-15-2.94820E-15 1.70014E-15-6.67678E-15
 -1        24-2.63829E-06-2.63829E-06 2.50895E-16 1.58567E-14-1.23939E-15-4.38297E-15
 -1        25-2.63829E-06-2.63829E-06-1.80471E-14-2.93347E-16-2.03211E-14-1.08303E-20
 -1        26-1.75886E-06-1.75886E-06-2.48730E-14 1.40997E-16-4.03625E-16 1.10056E-15
 -1        27-1.75886E-06-1.75886E-06 5.34637E-15-1.27890E-14 1.24182E-14 5.34908E-15
 -1        28-1.75886E-06-1.75886E-06-5.95213E-15 9.99230E-15 3.94028E-15 4.10177E-15
 -1        29-1.75886E-06-1.75886E-06 3.39228E-14 7.01376E-15 4.46056E-16-8.96107E-16
 -1        30-2.63829E-06-2.63829E-06 4.54404E-14 1.73422E-14 6.98283E-15 1.50039E-14
 -1        31-5.27657E-06-5.27657E-06-4.21339E-15 1.56953E-16-9.28426E-15-2.51975E-20
 -1        32-2.63829E-06-2.63829E-06-1.87073E-14 5.83319E-16 1.92217E-15 9.46117E-17
 -1        33-2.63829E-06-2.63829E-06 4.40787E-14-1.63226E-14-3.28118E-15-1.04088E-15
 -1        34-2.63829E-06-2.63829E-06 3.73041E-14 4.31146E-15-7.96549E-15-2.26785E-15
 -1        35-2.63829E-06-2.63829E-06 6.09237E-15 1.43805E-14 9.30033E-17-9.49146E-15
 -1        36-5.27657E-06-5.27657E-06-1.80857E-14 5.87377E-15 1.34575E-14 3.21823E-14
 -1        37-5.27657E-06-5.27657E-06 1.58056E-21 2.33341E-23 3.74686E-22-2.49311E-22
 -1        38-2.63829E-06-2.63829E-06-1.48229E-21 1.29659E-22 5.19956E-23 2.40216E-22
 -1        39-2.63829E-06-2.63829E-06-5.10889E-15-9.42497E-15 6.41288E-16-1.19841E-14
 -1        40-2.63829E-06-2.63829E-06-1.67878E-15 6.87181E-15-1.00735E-17 7.61068E-15
 -1        41-2.63829E-06-2.63829E-06-8.34795E-15-2.53535E-14 2.42788E-15 7.34834E-15
 -1        42-5.27657E-06-5.27657E-06 4.64226E-15-2.95975E-14-3.92432E-17-3.92826E-14
 -1        43-2.63829E-06-2.63829E-06 1.05877E-21 5.38594E-24 4.16867E-22-2.42833E-22
 -1        44-1.75886E-06-1.75886E-06 3.78228E-23 8.22519E-23-2.69028E-22-4.47582E-23
 -1        45-1.75886E-06-1.75886E-06 1.62826E-15-4.58237E-15-7.54660E-17 1.17969E-14
 -1        46-1.75886E-06-1.75886E-06 2.82939E-15-4.85847E-16 2.84758E-16-2.25662E-15
 -1        47-1.75886E-06-1.75886E-06 9.88167E-15-1.49136E-14-1.71205E-17-5.79964E-15
 -1        48-2.63829E-06-2.63829E-06 1.93728E-14 1.92068E-15 1.18781E-15-3.05475E-15
 -1        49-2.63829E-06-2.63829E-06-3.36656E-15 3.42059E-15-1.25505E-14-1.27269E-15
 -1        50-1.75886E-06-1.75886E-06 3.23066E-15 5.57034E-16 4.66719E-15 2.03848E-17
 -1        51-1.75886E-06-1.75886E-06 3.91083E-15 3.93128E-15-9.50993E-15-4.91309E-16
 -1        52-1.75886E-06-1.75886E-06 1.14693E-14-4.31231E-15 3.82621E-15-2.96998E-15
 -1        53-1.75886E-06-1.75886E-06-4.13539E-15-1.72397E-16-3.45052E-15 2.92595E-15
 -1        54-2.63829E-06-2.63829E-06-3.77921E-17 3.17354E-16-1.48355E-15-1.21448E-14
 -1        55-2.63829E-06-2.63829E-06-1.09686E-14 5.14304E-15 4.15671E-15 8.77427E-16
 -1        56-1.75886E-06-1.75886E-06 1.74616E-15 1.70533E-15-1.81579E-15 1.01575E-16
 -1        57-1.75886E-06-1.75886E-06-2.70487E-15-2.80838E-16 9.14682E-15-2.87843E-15
 -1        58-1.75886E-06-1.75886E-06 9.96429E-15-3.33034E-15-1.05058E-14 1.12929E-14
 -1        59-1.75886E-06-1.75886E-06-6.88328E-15 7.69623E-15-1.78024E-15-2.22570E-15
 -1        60-2.63829E-06-2.63829E-06-1.20517E-14-1.18326E-14-5.14608E-15 5.89947E-15
 -1        61-2.63829E-06-2.63829E-06-7.88882E-15 1.52460E-14-2.37614E-14-7.12298E-16
 -1        62-1.75886E-06-1.75886E-06-3.32358E-15 9.04807E-15 2.92774E-15 6.25698E-16
 -1        63-1.75886E-06-1.75886E-06-1.96754E-15 5.24418E-15-6.36516E-15-9.77480E-15
 -1        64-1.75886E-06-1.75886E-06 3.14308E-14-9.45972E-15 6.31611E-16-7.41260E-16
 -1        65-1.75886E-06-1.75886E-06-8.08248E-15 1.32584E-15-3.66044E-15-7.32285E-15
 -1        66-2.63829E-06-2.63829E-06-1.94350E-14-2.25902E-14 6.88187E-15 2.36289E-14
 -1        67-5.27657E-06-5.27657E-06 9.56697E-15-8.17046E-15 4.12703E-14 7.04846E-16
 -1        68-2.63829E-06-2.63829E-06 1.03487E-14-5.75910E-15-7.02113E-15 4.47047E-16
 -1        69-2.63829E-06-2.63829E-06-2.05280E-14 6.21983E-15 8.59377E-15 1.42627E-14
 -1        70-2.63829E-06-2.63829E-06-3.27759E-14-8.04489E-15-7.00481E-15-5.66940E-15
 -1        71-2.63829E-06-2.63829E-06-2.43027E-14-2.56502E-15-9.02859E-15-1.15489E-14
 -1        72-5.27657E-06-5.27657E-06 2.82999E-14-1.11900E-14-2.67945E-14-1.50305E-14
 -3
    1PSTEP                        24           8           1          
  100CL  108 3.07813E-02          72                     0    8           1
 -4  TOSTRAIN    6    1
 -5  EXX         1    4    1    1
 -5  EYY         1    4    2    2
 -5  EZZ         1    4    3    3
 -5  EXY         1    4    1    2
 -5  EYZ         1    4    2    3
 -5  EZX         1    4    3    1
 -1         1-1.75886E-11-1.75886E-11 1.50759E-11 3.90742E-28 2.50505E-28-4.81445E-28
 -1         2-8.79429E-12-8.79429E-12 7.53796E-12 1.60736E-27 4.46831E-29 1.90713E-27
 -1         3-8.79429E-12-8.79429E-12 7.53796E-12 6.17856E-21-2.24282E-26-8.11234E-20
 -1         4-8.79429E-12-8.79429E-12 7.53796E-12 2.38891E-20-1.01216E-26 1.21260E-19
 -1         5-8.79429E-12-8.79429E-12 7.53796E-12 1.94660E-20-7.41649E-26 1.03183E-19
 -1         6-1.75886E-11-1.75886E-11 1.50759E-11 5.50786E-20-9.45720E-26-1.09990E-19
 -1         7-8.79429E-12-8.79429E-12 7.53796E-12 5.30610E-27 1.54612E-27-1.74415E-28
 -1         8-5.86286E-12-5.86286E-12 5.02531E-12 4.47873E-27-1.85021E-27 8.84678E-28
 -1         9-5.86286E-12-5.86286E-12 5.02531E-12 6.52325E-21-3.11377E-21 4.04447E-20
 -1        10-5.86286E-12-5.86286E-12 5.02531E-12-1.76985E-20 1.80435E-21-1.03996E-19
 -1        11-5.86286E-12-5.86286E-12 5.02531E-12 6.61646E-21-1.01259E-20-7.62721E-20
 -1        12-8.79429E-12-8.79429E-12 7.53796E-12 8.54274E-20 7.47453E-21 1.75905E-19
 -1        13-8.79429E-12-8.79429E-12 7.53796E-12 5.43024E-21-1.80147E-20-1.08081E-26
 -1        14-5.86286E-12-5.86286E-12 5.02531E-12 4.67096E-21 2.52593E-20 5.37854E-21
 -1        15-5.86286E-12-5.86286E-12 5.02531E-12-3.52870E-20 4.77258E-21-2.36913E-20
 -1        16-5.86286E-12-5.86286E-12 5.02531E-12 3.05372E-20 1.75016E-20 5.38719E-20
 -1        17-5.86286E-12-5.86286E-12 5.02531E-12 3.52798E-20-6.54694E-21 2.18013E-20
 -1        18-8.79429E-12-8.79429E-12 7.53796E-12 9.84821E-21-4.35107E-20 1.36578E-20
 -1        19-8.79429E-12-8.79429E-12 7.53796E-12 2.11752E-20 5.39216E-20-8.04967E-27
 -1        20-5.86286E-12-5.86286E-12 5.02531E-12 1.51676E-20-6.56621E-22-2.99233E-21
 -1        21-5.86286E-12-5.86286E-12 5.02531E-12 1.14489E-20-2.97398E-20 1.77282E-20
 -1        22-5.86286E-12-5.86286E-12 5.02531E-12 2.14026E-20 7.63652E-21-5.69075E-20
 -1        23-5.86286E-12-5.86286E-12 5.02531E-12-1.82507E-20 1.05247E-20-4.13324E-20
 -1        24-8.79429E-12-8.79429E-12 7.53796E-12 9.81604E-20-7.67244E-21-2.71327E-20
 -1        25-8.79429E-12-8.79429E-12 7.53796E-12-1.81596E-21-1.25797E-19-6.70445E-26
 -1        26-5.86286E-12-5.86286E-12 5.02531E-12 8.72839E-22-2.49863E-21 6.81297E-21
 -1        27-5.86286E-12-5.86286E-12 5.02531E-12-7.91698E-20 7.68748E-20 3.31134E-20
 -1        28-5.86286E-12-5.86286E-12 5.02531E-12 6.18571E-20 2.43922E-20 2.53919E-20
 -1        29-5.86286E-12-5.86286E-12 5.02531E-12 4.34185E-20 2.76130E-21-5.54733E-21
 -1        30-8.79429E-12-8.79429E-12 7.53796E-12 1.07356E-19 4.32270E-20 9.28810E-20
 -1        31-1.75886E-11-1.75886E-11 1.50759E-11 9.71614E-22-5.74740E-20-1.55985E-25
 -1        32-8.79429E-12-8.79429E-12 7.53796E-12 3.61102E-21 1.18991E-20 5.85691E-22
 -1        33-8.79429E-12-8.79429E-12 7.53796E-12-1.01045E-19-2.03120E-20-6.44355E-21
 -1        34-8.79429E-12-8.79429E-12 7.53796E-12 2.66900E-20-4.93102E-20-1.40391E-20
 -1        35-8.79429E-12-8.79429E-12 7.53796E-12 8.90219E-20 5.75735E-22-5.87567E-20
 -1        36-1.75886E-11-1.75886E-11 1.50759E-11 3.63614E-20 8.33082E-20 1.99223E-19
 -1        37-1.75886E-11-1.75886E-11 1.50759E-11 1.44449E-28 2.31949E-27-1.54335E-27
 -1        38-8.79429E-12-8.79429E-12 7.53796E-12 8.02651E-28 3.21877E-28 1.48705E-27
 -1        39-8.79429E-12-8.79429E-12 7.53796E-12-5.83451E-20 3.96988E-21-7.41872E-20
 -1        40-8.79429E-12-8.79429E-12 7.53796E-12 4.25398E-20-6.23595E-23 4.71137E-20
 -1        41-8.79429E-12-8.79429E-12 7.53796E-12-1.56950E-19 1.50297E-20 4.54897E-20
 -1        42-1.75886E-11-1.75886E-11 1.50759E-11-1.83223E-19-2.42934E-22-2.43178E-19
 -1        43-8.79429E-12-8.79429E-12 7.53796E-12 3.33415E-29 2.58061E-27-1.50325E-27
 -1        44-5.86286E-12-5.86286E-12 5.02531E-12 5.09178E-28-1.66541E-27-2.77075E-28
 -1        45-5.86286E-12-5.86286E-12 5.02531E-12-2.83670E-20-4.67170E-22 7.30282E-20
 -1        46-5.86286E-12-5.86286E-12 5.02531E-12-3.00763E-21 1.76279E-21-1.39695E-20
 -1        47-5.86286E-12-5.86286E-12 5.02531E-12-9.23220E-20-1.05984E-22-3.59025E-20
 -1        48-8.79429E-12-8.79429E-12 7.53796E-12 1.18899E-20 7.35311E-21-1.89104E-20
 -1        49-8.79429E-12-8.79429E-12 7.53796E-12 2.11751E-20-7.76937E-20-7.87854E-21
 -1        50-5.86286E-12-5.86286E-12 5.02531E-12 3.44831E-21 2.88921E-20 1.26191E-22
 -1        51-5.86286E-12-5.86286E-12 5.02531E-12 2.43365E-20-5.88710E-20-3.04144E-21
 -1        52-5.86286E-12-5.86286E-12 5.02531E-12-2.66953E-20 2.36861E-20-1.83856E-20
 -1        53-5.86286E-12-5.86286E-12 5.02531E-12-1.06722E-21-2.13604E-20 1.81130E-20
 -1        54-8.79429E-12-8.79429E-12 7.53796E-12 1.96457E-21-9.18388E-21-7.51820E-20
 -1        55-8.79429E-12-8.79429E-12 7.53796E-12 3.18379E-20 2.57320E-20 5.43169E-21
 -1        56-5.86286E-12-5.86286E-12 5.02531E-12 1.05568E-20-1.12406E-20 6.28797E-22
 -1        57-5.86286E-12-5.86286E-12 5.02531E-12-1.73852E-21 5.66232E-20-1.78188E-20
 -1        58-5.86286E-12-5.86286E-12 5.02531E-12-2.06164E-20-6.50357E-20 6.99086E-20
 -1        59-5.86286E-12-5.86286E-12 5.02531E-12 4.76433E-20-1.10205E-20-1.37782E-20
 -1        60-8.79429E-12-8.79429E-12 7.53796E-12-7.32492E-20-3.18567E-20 3.65206E-20
 -1        61-8.79429E-12-8.79429E-12 7.53796E-12 9.43798E-20-1.47094E-19-4.40946E-21
 -1        62-5.86286E-12-5.86286E-12 5.02531E-12 5.60119E-20 1.81241E-20 3.87337E-21
 -1        63-5.86286E-12-5.86286E-12 5.02531E-12 3.24640E-20-3.94033E-20-6.05106E-20
 -1        64-5.86286E-12-5.86286E-12 5.02531E-12-5.85602E-20 3.90997E-21-4.58876E-21
 -1        65-5.86286E-12-5.86286E-12 5.02531E-12 8.20759E-21-2.26599E-20-4.53320E-20
 -1        66-8.79429E-12-8.79429E-12 7.53796E-12-1.39844E-19 4.26020E-20 1.46274E-19
 -1        67-1.75886E-11-1.75886E-11 1.50759E-11-5.05790E-20 2.55483E-19 4.36333E-21
 -1        68-8.79429E-12-8.79429E-12 7.53796E-12-3.56516E-20-4.34641E-20 2.76744E-21
 -1        69-8.79429E-12-8.79429E-12 7.53796E-12 3.85037E-20 5.31996E-20 8.82927E-20
 -1        70-8.79429E-12-8.79429E-12 7.53796E-12-4.98017E-20-4.33631E-20-3.50963E-20
 -1        71-8.79429E-12-8.79429E-12 7.53796E-12-1.58787E-20-5.58913E-20-7.14929E-20
 -1        72-1.75886E-11-1.75886E-11 1.50759E-11-6.92713E-20-1.65871E-19-9.30457E-20
 -3
    1PSTEP                        25           9           1          
  100CL  109 3.97813E-02          72                     0    9           1
 -4  DISP        4    1
 -5  D1          1    2    1    0
 -5  D2          1    2    2    0
 -5  D3          1    2    3    0
 -5  ALL         1    2    0    0    1ALL
 -1         1 0.00000E+00 0.00000E+00 0.00000E+00
 -1         2-1.13661E-08 0.00000E+00 0.00000E+00
 -1         3-5.96719E-01 0.00000E+00 0.00000E+00
 -1         4-5.96719E-01 0.00000E+00 0.00000E+00
 -1         5-1.19344E+00 0.00000E+00 0.00000E+00
 -1         6-1.19344E+00 0.00000E+00 0.00000E+00
 -1         7 0.00000E+00-1.13661E-08 0.00000E+00
 -1         8-1.13661E-08-1.13661E-08 0.00000E+00
 -1         9-5.96719E-01-1.13661E-08 0.00000E+00
 -1        10-5.96719E-01-1.13661E-08 0.00000E+00
 -1        11-1.19344E+00-1.13661E-08 0.00000E+00
 -1        12-1.19344E+00-1.13661E-08 0.00000E+00
 -1        13 0.00000E+00-5.96719E-01 0.00000E+00
 -1        14-1.13661E-08-5.96719E-01 0.00000E+00
 -1        15-5.96719E-01-5.96719E-01 0.00000E+00
 -1        16-5.96719E-01-5.96719E-01 0.00000E+00
 -1        17-1.19344E+00-5.96719E-01 0.00000E+00
 -1        18-1.19344E+00-5.96719E-01 0.00000E+00
 -1        19 0.00000E+00-5.96719E-01 0.00000E+00
 -1        20-1.13661E-08-5.96719E-01 0.00000E+00
 -1        21-5.96719E-01-5.96719E-01 0.00000E+00
 -1        22-5.96719E-01-5.96719E-01 0.00000E+00
 -1        23-1.19344E+00-5.96719E-01 0.00000E+00
 -1        24-1.19344E+00-5.96719E-01 0.00000E+00
 -1        25 0.00000E+00-1.19344E+00 0.00000E+00
 -1        26-1.13661E-08-1.19344E+00 0.00000E+00
 -1        27-5.96719E-01-1.19344E+00 0.00000E+00
 -1        28-5.96719E-01-1.19344E+00 0.00000E+00
 -1        29-1.19344E+00-1.19344E+00 0.00000E+00
 -1        30-1.19344E+00-1.19344E+00 0.00000E+00
 -1        31 0.00000E+00-1.19344E+00 0.00000E+00
 -1        32-1.13661E-08-1.19344E+00 0.00000E+00
 -1        33-5.96719E-01-1.19344E+00 0.00000E+00
 -1        34-5.96719E-01-1.19344E+00 0.00000E+00
 -1        35-1.19344E+00-1.19344E+00 0.00000E+00
 -1        36-1.19344E+00-1.19344E+00 0.00000E+00
 -1        37 0.00000E+00 0.00000E+00 1.36393E-08
 -1        38-1.13661E-08 0.00000E+00 1.36393E-08
 -1        39-5.96719E-01 0.00000E+00 1.36393E-08
 -1        40-5.96719E-01 0.00000E+00 1.36393E-08
 -1        41-1.19344E+00 0.00000E+00 1.36393E-08
 -1        42-1.19344E+00 0.00000E+00 1.36393E-08
 -1        43 0.00000E+00-1.13661E-08 1.36393E-08
 -1        44-1.13661E-08-1.13661E-08 1.36393E-08
 -1        45-5.96719E-01-1.13661E-08 1.36393E-08
 -1        46-5.96719E-01-1.13661E-08 1.36393E-08
 -1        47-1.19344E+00-1.13661E-08 1.36393E-08
 -1        48-1.19344E+00-1.13661E-08 1.36393E-08
 -1        49 0.00000E+00-5.96719E-01 1.36393E-08
 -1        50-1.13661E-08-5.96719E-01 1.36393E-08
 -1        51-5.96719E-01-5.96719E-01 1.36393E-08
 -1        52-5.96719E-01-5.96719E-01 1.36393E-08
 -1        53-1.19344E+00-5.96719E-01 1.36393E-08
 -1        54-1.19344E+00-5.96719E-01 1.36393E-08
 -1        55 0.00000E+00-5.96719E-01 1.36393E-08
 -1        56-1.13661E-08-5.96719E-01 1.36393E-08
 -1        57-5.96719E-01-5.96719E-01 1.36393E-08
 -1        58-5.96719E-01-5.96719E-01 1.36393E-08
 -1        59-1.19344E+00-5.96719E-01 1.36393E-08
 -1        60-1.19344E+00-5.96719E-01 1.36393E-08
 -1        61 0.00000E+00-1.19344E+00 1.36393E-08
 -1        62-1.13661E-08-1.19344E+00 1.36393E-08
 -1        63-5.96719E-01-1.19344E+00 1.36393E-08
 -1        64-5.96719E-01-1.19344E+00 1.36393E-08
 -1        65-1.19344E+00-1.19344E+00 1.36393E-08
 -1        66-1.19344E+00-1.19344E+00 1.36393E-08
 -1        67 0.00000E+00-1.19344E+00 1.36393E-08
 -1        68-1.13661E-08-1.19344E+00 1.36393E-08
 -1        69-5.96719E-01-1.19344E+00 1.36393E-08
 -1        70-5.96719E-01-1.19344E+00 1.36393E-08
 -1        71-1.19344E+00-1.19344E+00 1.36393E-08
 -1        72-1.19344E+00-1.19344E+00 1.36393E-08
 -3
    1PSTEP                        26           9           1          
  100CL  109 3.97813E-02          72                     0    9           1
 -4  STRESS      6    1
 -5  SXX         1    4    1    1
 -5  SYY         1    4    2    2
 -5  SZZ         1    4    3    3
 -5  SXY         1    4    1    2
 -5  SYZ         1    4    2    3
 -5  SZX         1    4    3    1
 -1         1-6.81937E-06-6.81937E-06 2.73761E-21 1.44831E-22-3.13084E-22-1.60921E-22
 -1         2-3.40968E-06-3.40968E-06-6.35258E-22-2.68086E-22 8.32283E-23-6.13183E-22
 -1         3-3.40968E-06-3.40968E-06-1.44381E-14-8.99022E-15-3.50602E-21 9.76405E-15
 -1         4-3.40968E-06-3.40968E-06-9.99921E-15 1.28333E-14-8.80839E-21-1.06153E-15
 -1         5-3.40968E-06-3.40968E-06 1.69739E-14-2.74746E-14 2.48604E-20-2.28496E-14
 -1         6-6.81937E-06-6.81937E-06 6.61926E-14 4.83916E-14-8.18687E-20-5.55059E-16
 -1         7-3.40968E-06-3.40968E-06 9.03767E-22-6.98142E-22-4.27798E-22 8.00940E-23
 -1         8-2.27312E-06-2.27312E-06-1.13480E-22-6.92429E-22 6.89026E-22 2.20200E-22
 -1         9-2.27312E-06-2.27312E-06 1.02980E-14-8.62085E-15-8.13558E-16-2.48797E-15
 -1        10-2.27312E-06-2.27312E-06 6.77948E-15 1.10543E-14 7.89218E-16 2.96536E-15
 -1        11-2.27312E-06-2.27312E-06-1.53202E-15-5.80505E-15 2.88563E-16 4.32960E-15
 -1        12-3.40968E-06-3.40968E-06-3.11766E-14-2.37796E-15-1.39157E-16 3.19964E-14
 -1        13-3.40968E-06-3.40968E-06 2.95831E-15-8.26167E-21-4.55379E-17 6.49692E-21
 -1        14-2.27312E-06-2.27312E-06 4.83459E-15-2.31431E-16-1.48935E-15-5.01330E-16
 -1        15-2.27312E-06-2.27312E-06-8.35617E-15 1.02934E-14-2.07229E-15-1.64902E-15
 -1        16-2.27312E-06-2.27312E-06-1.60241E-14 1.27116E-15-2.96428E-15 1.20117E-14
 -1        17-2.27312E-06-2.27312E-06-3.15471E-14-8.48148E-15 1.63770E-14 1.42373E-14
 -1        18-3.40968E-06-3.40968E-06-1.54032E-14-2.36237E-14-2.78126E-14-3.03079E-14
 -1        19-3.40968E-06-3.40968E-06 3.69238E-15-8.26167E-21-3.32141E-15-3.82502E-21
 -1        20-2.27312E-06-2.27312E-06-1.18765E-15-2.31431E-16 2.28280E-15 1.58427E-16
 -1        21-2.27312E-06-2.27312E-06-1.48662E-14 9.19575E-15-9.76966E-17-1.03685E-15
 -1        22-2.27312E-06-2.27312E-06 1.77249E-15 9.30612E-15 3.23146E-15-1.52138E-14
 -1        23-2.27312E-06-2.27312E-06-2.68880E-14-1.21432E-14-3.15732E-15 5.05733E-15
 -1        24-3.40968E-06-3.40968E-06 1.40744E-14 2.42302E-14 5.62614E-16 1.09964E-14
 -1        25-3.40968E-06-3.40968E-06 1.67042E-14 4.96498E-15 1.72957E-14 3.25510E-20
 -1        26-2.27312E-06-2.27312E-06 4.13652E-15 3.57673E-15-3.44479E-15 2.77784E-15
 -1        27-2.27312E-06-2.27312E-06 1.40447E-14 6.07041E-15 1.43923E-14-7.85037E-16
 -1        28-2.27312E-06-2.27312E-06-5.37901E-15 4.38314E-15-1.41251E-14 4.40903E-15
 -1        29-2.27312E-06-2.27312E-06-6.25126E-16-5.42291E-15 6.50576E-15-2.98373E-14
 -1        30-3.40968E-06-3.40968E-06-3.57368E-14-2.24557E-14 1.53780E-14 3.20854E-14
 -1        31-6.81937E-06-6.81937E-06 3.44526E-14-1.07892E-14-5.07068E-14 1.52416E-20
 -1        32-3.40968E-06-3.40968E-06 7.15419E-15-4.99445E-15 6.93610E-15-3.08254E-15
 -1        33-3.40968E-06-3.40968E-06 2.65990E-14 8.24147E-15-5.14026E-15 1.03032E-14
 -1        34-3.40968E-06-3.40968E-06-1.59981E-14 1.15593E-14 3.27324E-15-1.98148E-14
 -1        35-3.40968E-06-3.40968E-06 1.27939E-14-1.10801E-14 1.77323E-14 2.57717E-14
 -1        36-6.81937E-06-6.81937E-06 7.01743E-15 7.51210E-14-5.50317E-14-1.49630E-14
 -1        37-6.81937E-06-6.81937E-06-4.74169E-21-4.31661E-23 4.28484E-22 6.60599E-22
 -1        38-3.40968E-06-3.40968E-06 1.63730E-21 7.14442E-22-1.59408E-22-2.02423E-22
 -1        39-3.40968E-06-3.40968E-06 4.22636E-15-1.24677E-15 2.32563E-15 1.11683E-14
 -1        40-3.40968E-06-3.40968E-06 1.37140E-14-1.60659E-14-1.56106E-15 8.67587E-15
 -1        41-3.40968E-06-3.40968E-06-1.90231E-14 4.18602E-14 9.32875E-15-2.06129E-14
 -1        42-6.81937E-06-6.81937E-06-8.20354E-15-2.18385E-14-1.73434E-14 1.96297E-14
 -1        43-3.40968E-06-3.40968E-06-6.35275E-22 1.11625E-21 2.10360E-22-3.16540E-22
 -1        44-2.27312E-06-2.27312E-06-6.55152E-23 1.23485E-21 4.79508E-22-4.42232E-23
 -1        45-2.27312E-06-2.27312E-06 9.60565E-15-1.01434E-15 7.36867E-16 8.65193E-16
 -1        46-2.27312E-06-2.27312E-06 9.45293E-15-6.71565E-15-2.51480E-16-1.18249E-14
 -1        47-2.27312E-06-2.27312E-06 5.66645E-15 1.07518E-14 6.50771E-15 1.65714E-14
 -1        48-3.40968E-06-3.40968E-06-2.15800E-14 4.79435E-16-8.81083E-15-1.00380E-14
 -1        49-3.40968E-06-3.40968E-06-5.34964E-15-3.43933E-21 1.31936E-15 2.13381E-15
 -1        50-2.27312E-06-2.27312E-06 2.57980E-15 6.92242E-16 1.67738E-15 9.21205E-16
 -1        51-2.27312E-06-2.27312E-06-9.05465E-15-1.01272E-14-8.30758E-15 7.54930E-15
 -1        52-2.27312E-06-2.27312E-06-1.36373E-14 3.66586E-15 5.04255E-15-6.08039E-15
 -1        53-2.27312E-06-2.27312E-06-9.02943E-15 4.46193E-15-1.33673E-14-1.45688E-14
 -1        54-3.40968E-06-3.40968E-06 1.93716E-14-1.48970E-14 4.84474E-15-2.33685E-14
 -1        55-3.40968E-06-3.40968E-06-2.53730E-15-3.43933E-21 1.27243E-14-1.77318E-15
 -1        56-2.27312E-06-2.27312E-06-2.05694E-15 6.92242E-16-1.03581E-14-1.02369E-15
 -1        57-2.27312E-06-2.27312E-06-9.19550E-15-6.47066E-15 4.45583E-15-6.37138E-15
 -1        58-2.27312E-06-2.27312E-06-7.95655E-15-3.45212E-15-8.30743E-15 6.19468E-15
 -1        59-2.27312E-06-2.27312E-06 1.10724E-14 3.52613E-15 5.00216E-15 2.38430E-14
 -1        60-3.40968E-06-3.40968E-06-2.63811E-15-5.61228E-15-8.03760E-15-1.58995E-14
 -1        61-3.40968E-06-3.40968E-06 1.09559E-14 9.77289E-15-7.78830E-15-1.81306E-15
 -1        62-2.27312E-06-2.27312E-06 1.01559E-14 1.60194E-17 8.78579E-15 1.56912E-15
 -1        63-2.27312E-06-2.27312E-06-6.57224E-15 1.18141E-14-1.37614E-14 8.93254E-16
 -1        64-2.27312E-06-2.27312E-06 8.32331E-15 1.40260E-14 3.64680E-15 1.06488E-15
 -1        65-2.27312E-06-2.27312E-06 1.86848E-16 3.23727E-15 5.20869E-15-1.11945E-14
 -1        66-3.40968E-06-3.40968E-06 2.53793E-14-3.97067E-15-2.72168E-14 4.13830E-15
 -1        67-6.81937E-06-6.81937E-06-7.49086E-15 2.50974E-14 1.51977E-14-3.28435E-15
 -1        68-3.40968E-06-3.40968E-06 9.59709E-16 2.79983E-15-4.84159E-15-4.72472E-15
 -1        69-3.40968E-06-3.40968E-06 3.57840E-16 1.36080E-15 1.36703E-14-1.97040E-14
 -1        70-3.40968E-06-3.40968E-06 2.20370E-14-9.37971E-15-1.14069E-14-6.16622E-15
 -1        71-3.40968E-06-3.40968E-06 2.35792E-17 7.40496E-15 1.08929E-14 2.11784E-14
 -1        72-6.81937E-06-6.81937E-06-6.93588E-14-5.32389E-14 2.06229E-14-1.08423E-14
 -3
    1PSTEP                        27           9           1          
  100CL  109 3.97813E-02          72                     0    9           1
 -4  TOSTRAIN    6    1
 -5  EXX         1    4    1    1
 -5  EYY         1    4    2    2
 -5  EZZ         1    4    3    3
 -5  EXY         1    4    1    2
 -5  EYZ         1    4    2    3
 -5  EZX         1    4    3    1
 -1         1-2.27312E-11-2.27312E-11 1.94839E-11 8.96570E-28-1.93814E-27-9.96179E-28
 -1         2-1.13656E-11-1.13656E-11 9.74196E-12-1.65958E-27 5.15223E-28-3.79589E-27
 -1         3-1.13656E-11-1.13656E-11 9.74196E-12-5.56538E-20-2.17039E-26 6.04441E-20
 -1         4-1.13656E-11-1.13656E-11 9.74196E-12 7.94443E-20-5.45281E-26-6.57137E-21
 -1         5-1.13656E-11-1.13656E-11 9.74196E-12-1.70081E-19 1.53898E-25-1.41450E-19
 -1         6-2.27312E-11-2.27312E-11 1.94839E-11 2.99567E-19-5.06806E-25-3.43608E-21
 -1         7-1.13656E-11-1.13656E-11 9.74196E-12-4.32183E-27-2.64827E-27 4.95820E-28
 -1         8-7.57708E-12-7.57708E-12 6.49464E-12-4.28647E-27 4.26540E-27 1.36314E-27
 -1         9-7.57708E-12-7.57708E-12 6.49464E-12-5.33672E-20-5.03631E-21-1.54017E-20
 -1        10-7.57708E-12-7.57708E-12 6.49464E-12 6.84311E-20 4.88564E-21 1.83570E-20
 -1        11-7.57708E-12-7.57708E-12 6.49464E-12-3.59360E-20 1.78634E-21 2.68023E-20
 -1        12-1.13656E-11-1.13656E-11 9.74196E-12-1.47207E-20-8.61449E-22 1.98073E-19
 -1        13-1.13656E-11-1.13656E-11 9.74196E-12-5.11437E-26-2.81901E-22 4.02190E-26
 -1        14-7.57708E-12-7.57708E-12 6.49464E-12-1.43267E-21-9.21976E-21-3.10347E-21
 -1        15-7.57708E-12-7.57708E-12 6.49464E-12 6.37208E-20-1.28284E-20-1.02082E-20
 -1        16-7.57708E-12-7.57708E-12 6.49464E-12 7.86909E-21-1.83503E-20 7.43578E-20
 -1        17-7.57708E-12-7.57708E-12 6.49464E-12-5.25044E-20 1.01382E-19 8.81358E-20
 -1        18-1.13656E-11-1.13656E-11 9.74196E-12-1.46242E-19-1.72173E-19-1.87621E-19
 -1        19-1.13656E-11-1.13656E-11 9.74196E-12-5.11437E-26-2.05611E-20-2.36787E-26
 -1        20-7.57708E-12-7.57708E-12 6.49464E-12-1.43267E-21 1.41316E-20 9.80736E-22
 -1        21-7.57708E-12-7.57708E-12 6.49464E-12 5.69261E-20-6.04789E-22-6.41862E-21
 -1        22-7.57708E-12-7.57708E-12 6.49464E-12 5.76093E-20 2.00043E-20-9.41809E-20
 -1        23-7.57708E-12-7.57708E-12 6.49464E-12-7.51720E-20-1.95453E-20 3.13073E-20
 -1        24-1.13656E-11-1.13656E-11 9.74196E-12 1.49996E-19 3.48285E-21 6.80732E-20
 -1        25-1.13656E-11-1.13656E-11 9.74196E-12 3.07356E-20 1.07068E-19 2.01506E-25
 -1        26-7.57708E-12-7.57708E-12 6.49464E-12 2.21417E-20-2.13249E-20 1.71962E-20
 -1        27-7.57708E-12-7.57708E-12 6.49464E-12 3.75787E-20 8.90949E-20-4.85975E-21
 -1        28-7.57708E-12-7.57708E-12 6.49464E-12 2.71337E-20-8.74411E-20 2.72940E-20
 -1        29-7.57708E-12-7.57708E-12 6.49464E-12-3.35704E-20 4.02738E-20-1.84707E-19
 -1        30-1.13656E-11-1.13656E-11 9.74196E-12-1.39012E-19 9.51974E-20 1.98624E-19
 -1        31-2.27312E-11-2.27312E-11 1.94839E-11-6.67900E-20-3.13899E-19 9.43529E-26
 -1        32-1.13656E-11-1.13656E-11 9.74196E-12-3.09180E-20 4.29378E-20-1.90824E-20
 -1        33-1.13656E-11-1.13656E-11 9.74196E-12 5.10186E-20-3.18207E-20 6.37819E-20
 -1        34-1.13656E-11-1.13656E-11 9.74196E-12 7.15575E-20 2.02629E-20-1.22663E-19
 -1        35-1.13656E-11-1.13656E-11 9.74196E-12-6.85911E-20 1.09771E-19 1.59539E-19
 -1        36-2.27312E-11-2.27312E-11 1.94839E-11 4.65035E-19-3.40672E-19-9.26279E-20
 -1        37-2.27312E-11-2.27312E-11 1.94839E-11-2.67218E-28 2.65252E-27 4.08942E-27
 -1        38-1.13656E-11-1.13656E-11 9.74196E-12 4.42273E-27-9.86813E-28-1.25309E-27
 -1        39-1.13656E-11-1.13656E-11 9.74196E-12-7.71813E-21 1.43968E-20 6.91373E-20
 -1        40-1.13656E-11-1.13656E-11 9.74196E-12-9.94557E-20-9.66368E-21 5.37077E-20
 -1        41-1.13656E-11-1.13656E-11 9.74196E-12 2.59135E-19 5.77494E-20-1.27603E-19
 -1        42-2.27312E-11-2.27312E-11 1.94839E-11-1.35191E-19-1.07364E-19 1.21517E-19
 -1        43-1.13656E-11-1.13656E-11 9.74196E-12 6.91010E-27 1.30223E-27-1.95954E-27
 -1        44-7.57708E-12-7.57708E-12 6.49464E-12 7.64429E-27 2.96838E-27-2.73763E-28
 -1        45-7.57708E-12-7.57708E-12 6.49464E-12-6.27925E-21 4.56155E-21 5.35596E-21
 -1        46-7.57708E-12-7.57708E-12 6.49464E-12-4.15731E-20-1.55678E-21-7.32019E-20
 -1        47-7.57708E-12-7.57708E-12 6.49464E-12 6.65587E-20 4.02859E-20 1.02585E-19
 -1        48-1.13656E-11-1.13656E-11 9.74196E-12 2.96793E-21-5.45432E-20-6.21403E-20
 -1        49-1.13656E-11-1.13656E-11 9.74196E-12-2.12911E-26 8.16745E-21 1.32093E-20
 -1        50-7.57708E-12-7.57708E-12 6.49464E-12 4.28531E-21 1.03838E-20 5.70270E-21
 -1        51-7.57708E-12-7.57708E-12 6.49464E-12-6.26920E-20-5.14279E-20 4.67337E-20
 -1        52-7.57708E-12-7.57708E-12 6.49464E-12 2.26934E-20 3.12158E-20-3.76405E-20
 -1        53-7.57708E-12-7.57708E-12 6.49464E-12 2.76215E-20-8.27501E-20-9.01879E-20
 -1        54-1.13656E-11-1.13656E-11 9.74196E-12-9.22197E-20 2.99913E-20-1.44662E-19
 -1        55-1.13656E-11-1.13656E-11 9.74196E-12-2.12911E-26 7.87694E-20-1.09768E-20
 -1        56-7.57708E-12-7.57708E-12 6.49464E-12 4.28531E-21-6.41213E-20-6.33713E-21
 -1        57-7.57708E-12-7.57708E-12 6.49464E-12-4.00565E-20 2.75837E-20-3.94419E-20
 -1        58-7.57708E-12-7.57708E-12 6.49464E-12-2.13703E-20-5.14270E-20 3.83480E-20
 -1        59-7.57708E-12-7.57708E-12 6.49464E-12 2.18284E-20 3.09657E-20 1.47599E-19
 -1        60-1.13656E-11-1.13656E-11 9.74196E-12-3.47427E-20-4.97566E-20-9.84252E-20
 -1        61-1.13656E-11-1.13656E-11 9.74196E-12 6.04989E-20-4.82133E-20-1.12237E-20
 -1        62-7.57708E-12-7.57708E-12 6.49464E-12 9.91676E-23 5.43882E-20 9.71357E-21
 -1        63-7.57708E-12-7.57708E-12 6.49464E-12 7.31349E-20-8.51898E-20 5.52967E-21
 -1        64-7.57708E-12-7.57708E-12 6.49464E-12 8.68275E-20 2.25754E-20 6.59210E-21
 -1        65-7.57708E-12-7.57708E-12 6.49464E-12 2.00402E-20 3.22443E-20-6.92995E-20
 -1        66-1.13656E-11-1.13656E-11 9.74196E-12-2.45804E-20-1.68485E-19 2.56181E-20
 -1        67-2.27312E-11-2.27312E-11 1.94839E-11 1.55365E-19 9.40808E-20-2.03317E-20
 -1        68-1.13656E-11-1.13656E-11 9.74196E-12 1.73323E-20-2.99717E-20-2.92483E-20
 -1        69-1.13656E-11-1.13656E-11 9.74196E-12 8.42398E-21 8.46254E-20-1.21977E-19
 -1        70-1.13656E-11-1.13656E-11 9.74196E-12-5.80649E-20-7.06144E-20-3.81718E-20
 -1        71-1.13656E-11-1.13656E-11 9.74196E-12 4.58402E-20 6.74321E-20 1.31104E-19
 -1        72-2.27312E-11-2.27312E-11 1.94839E-11-3.29574E-19 1.27665E-19-6.71189E-20
 -3
    1PSTEP                        28          10           1          
  100CL  110 4.87813E-02          72                     0   10           1
 -4  DISP        4    1
 -5  D1          1    2    1    0
 -5  D2          1    2    2    0
 -5  D3          1    2    3    0
 -5  ALL         1    2    0    0    1ALL
 -1         1 0.00000E+00 0.00000E+00 0.00000E+00
 -1         2-1.39375E-08 0.00000E+00 0.00000E+00
 -1         3-7.31719E-01 0.00000E+00 0.00000E+00
 -1         4-7.31719E-01 0.00000E+00 0.00000E+00
 -1         5-1.46344E+00 0.00000E+00 0.00000E+00
 -1         6-1.46344E+00 0.00000E+00 0.00000E+00
 -1         7 0.00000E+00-1.39375E-08 0.00000E+00
 -1         8-1.39375E-08-1.39375E-08 0.00000E+00
 -1         9-7.31719E-01-1.39375E-08 0.00000E+00
 -1        10-7.31719E-01-1.39375E-08 0.00000E+00
 -1        11-1.46344E+00-1.39375E-08 0.00000E+00
 -1        12-1.46344E+00-1.39375E-08 0.00000E+00
 -1        13 0.00000E+00-7.31719E-01 0.00000E+00
 -1        14-1.39375E-08-7.31719E-01 0.00000E+00
 -1        15-7.31719E-01-7.31719E-01 0.00000E+00
 -1        16-7.31719E-01-7.31719E-01 0.00000E+00
 -1        17-1.46344E+00-7.31719E-01 0.00000E+00
 -1        18-1.46344E+00-7.31719E-01 0.00000E+00
 -1        19 0.00000E+00-7.31719E-01 0.00000E+00
 -1        20-1.39375E-08-7.31719E-01 0.00000E+00
 -1        21-7.31719E-01-7.31719E-01 0.00000E+00
 -1        22-7.31719E-01-7.31719E-01 0.00000E+00
 -1        23-1.46344E+00-7.31719E-01 0.00000E+00
 -1        24-1.46344E+00-7.31719E-01 0.00000E+00
 -1        25 0.00000E+00-1.46344E+00 0.00000E+00
 -1        26-1.39375E-08-1.46344E+00 0.00000E+00
 -1        27-7.31719E-01-1.46344E+00 0.00000E+00
 -1        28-7.31719E-01-1.46344E+00 0.00000E+00
 -1        29-1.46344E+00-1.46344E+00 0.00000E+00
 -1        30-1.46344E+00-1.46344E+00 0.00000E+00
 -1        31 0.00000E+00-1.46344E+00 0.00000E+00
 -1        32-1.39375E-08-1.46344E+00 0.00000E+00
 -1        33-7.31719E-01-1.46344E+00 0.00000E+00
 -1        34-7.31719E-01-1.46344E+00 0.00000E+00
 -1        35-1.46344E+00-1.46344E+00 0.00000E+00
 -1        36-1.46344E+00-1.46344E+00 0.00000E+00
 -1        37 0.00000E+00 0.00000E+00 1.67250E-08
 -1        38-1.39375E-08 0.00000E+00 1.67250E-08
 -1        39-7.31719E-01 0.00000E+00 1.67250E-08
 -1        40-7.31719E-01 0.00000E+00 1.67250E-08
 -1        41-1.46344E+00 0.00000E+00 1.67250E-08
 -1        42-1.46344E+00 0.00000E+00 1.67250E-08
 -1        43 0.00000E+00-1.39375E-08 1.67250E-08
 -1        44-1.39375E-08-1.39375E-08 1.67250E-08
 -1        45-7.31719E-01-1.39375E-08 1.67250E-08
 -1        46-7.31719E-01-1.39375E-08 1.67250E-08
 -1        47-1.46344E+00-1.39375E-08 1.67250E-08
 -1        48-1.46344E+00-1.39375E-08 1.67250E-08
 -1        49 0.00000E+00-7.31719E-01 1.67250E-08
 -1        50-1.39375E-08-7.31719E-01 1.67250E-08
 -1        51-7.31719E-01-7.31719E-01 1.67250E-08
 -1        52-7.31719E-01-7.31719E-01 1.67250E-08
 -1        53-1.46344E+00-7.31719E-01 1.67250E-08
 -1        54-1.46344E+00-7.31719E-01 1.67250E-08
 -1        55 0.00000E+00-7.31719E-01 1.67250E-08
 -1        56-1.39375E-08-7.31719E-01 1.67250E-08
 -1        57-7.31719E-01-7.31719E-01 1.67250E-08
 -1        58-7.31719E-01-7.31719E-01 1.67250E-08
 -1        59-1.46344E+00-7.31719E-01 1.67250E-08
 -1        60-1.46344E+00-7.31719E-01 1.67250E-08
 -1        61 0.00000E+00-1.46344E+00 1.67250E-08
 -1        62-1.39375E-08-1.46344E+00 1.67250E-08
 -1        63-7.31719E-01-1.46344E+00 1.67250E-08
 -1        64-7.31719E-01-1.46344E+00 1.67250E-08
 -1        65-1.46344E+00-1.46344E+00 1.67250E-08
 -1        66-1.46344E+00-1.46344E+00 1.67250E-08
 -1        67 0.00000E+00-1.46344E+00 1.67250E-08
 -1        68-1.39375E-08-1.46344E+00 1.67250E-08
 -1        69-7.31719E-01-1.46344E+00 1.67250E-08
 -1        70-7.31719E-01-1.46344E+00 1.67250E-08
 -1        71-1.46344E+00-1.46344E+00 1.67250E-08
 -1        72-1.46344E+00-1.46344E+00 1.67250E-08
 -3
    1PSTEP                        29          10           1          
  100CL  110 4.87813E-02          72                     0   10           1
 -4  STRESS      6    1
 -5  SXX         1    4    1    1
 -5  SYY         1    4    2    2
 -5  SZZ         1    4    3    3
 -5  SXY         1    4    1    2
 -5  SYZ         1    4    2    3
 -5  SZX         1    4    3    1
 -1         1-8.36216E-06-8.36216E-06 1.04358E-21 6.53871E-23-4.25501E-23-1.57490E-22
 -1         2-4.18108E-06-4.18108E-06 5.67512E-23-4.62177E-22 5.66955E-23-1.94570E-22
 -1         3-4.18108E-06-4.18108E-06-1.37326E-14 5.90060E-15 5.21881E-21-1.01217E-14
 -1         4-4.18108E-06-4.18108E-06-1.38962E-15-7.36173E-15-1.59536E-20-4.17093E-15
 -1         5-4.18108E-06-4.18108E-06 3.68306E-15 2.20678E-14-1.14586E-20 8.01972E-15
 -1         6-8.36216E-06-8.36216E-06 1.10306E-14-1.91372E-14-4.50347E-20-3.15579E-14
 -1         7-4.18108E-06-4.18108E-06-2.21582E-21 1.15603E-21 5.55763E-22 4.73247E-23
 -1         8-2.78739E-06-2.78739E-06 5.26855E-22 4.40771E-22-5.13050E-22 3.86575E-22
 -1         9-2.78739E-06-2.78739E-06-3.25494E-16 1.07740E-15-7.55109E-16-4.38631E-16
 -1        10-2.78739E-06-2.78739E-06-4.96060E-15-1.08914E-15 3.69264E-16-8.38358E-15
 -1        11-2.78739E-06-2.78739E-06 1.07759E-14 1.57908E-14-1.61775E-15-1.88136E-14
 -1        12-4.18108E-06-4.18108E-06-4.70997E-15-1.45178E-14 3.54222E-15 2.97549E-14
 -1        13-4.18108E-06-4.18108E-06-6.62484E-15-1.46667E-16 1.12020E-14-2.19904E-21
 -1        14-2.78739E-06-2.78739E-06-3.21911E-15 4.13775E-16-7.15201E-15 9.83104E-16
 -1        15-2.78739E-06-2.78739E-06-5.69190E-15 8.36110E-15-6.05842E-16-1.05939E-14
 -1        16-2.78739E-06-2.78739E-06-2.30510E-14 1.07878E-14-1.28159E-14 1.55192E-15
 -1        17-2.78739E-06-2.78739E-06-2.09208E-14 7.51212E-15-1.32778E-14 2.18039E-14
 -1        18-4.18108E-06-4.18108E-06 2.34391E-14-4.96505E-15 2.37847E-14-7.73423E-15
 -1        19-4.18108E-06-4.18108E-06-1.60628E-14 7.62300E-15 8.32432E-15-6.68289E-22
 -1        20-2.78739E-06-2.78739E-06-5.67199E-15 5.59355E-15 1.51757E-14-2.51960E-16
 -1        21-2.78739E-06-2.78739E-06-1.29295E-15-1.40619E-14-1.99371E-15 8.26622E-15
 -1        22-2.78739E-06-2.78739E-06-2.46409E-14-5.76149E-15 1.14803E-14 9.66255E-15
 -1        23-2.78739E-06-2.78739E-06-1.01007E-14 9.39581E-15-7.66939E-15-1.36075E-14
 -1        24-4.18108E-06-4.18108E-06 1.55333E-14-2.60063E-14 1.09759E-14 7.07934E-15
 -1        25-4.18108E-06-4.18108E-06-1.21812E-14 4.24985E-20-2.17311E-14-2.80302E-20
 -1        26-2.78739E-06-2.78739E-06-2.06151E-14-8.87119E-16-1.56727E-14 2.03032E-15
 -1        27-2.78739E-06-2.78739E-06-1.72984E-14-1.01997E-14-1.48690E-14-5.33918E-15
 -1        28-2.78739E-06-2.78739E-06-2.80948E-14 1.34517E-15-6.84686E-15-2.94961E-15
 -1        29-2.78739E-06-2.78739E-06-4.56264E-14 1.64385E-14 1.93559E-14-1.23868E-14
 -1        30-4.18108E-06-4.18108E-06-1.56528E-14 5.05068E-14-2.40926E-14 1.41245E-14
 -1        31-8.36216E-06-8.36216E-06-4.22540E-15 8.49970E-20 2.79026E-14-4.06716E-21
 -1        32-4.18108E-06-4.18108E-06 1.00355E-15-1.33068E-15-4.80384E-15 1.65007E-15
 -1        33-4.18108E-06-4.18108E-06 8.63640E-15-7.46194E-15-5.32613E-15 1.53808E-14
 -1        34-4.18108E-06-4.18108E-06 2.06238E-14-9.62177E-16 2.57023E-14-5.28267E-15
 -1        35-4.18108E-06-4.18108E-06 2.76833E-14-9.70488E-15-2.04433E-14-2.28528E-14
 -1        36-8.36216E-06-8.36216E-06-4.68744E-14-3.46764E-14 6.89720E-14 5.66202E-14
 -1        37-8.36216E-06-8.36216E-06 1.13502E-22-3.37682E-23 8.62239E-22-2.95238E-22
 -1        38-4.18108E-06-4.18108E-06-7.48743E-22 7.60503E-22 9.66756E-23-2.63444E-22
 -1        39-4.18108E-06-4.18108E-06 1.90131E-16-8.47075E-15 4.46503E-15 2.66846E-15
 -1        40-4.18108E-06-4.18108E-06 1.60750E-14 1.41478E-15-3.25326E-15-2.23843E-14
 -1        41-4.18108E-06-4.18108E-06-7.10065E-15-3.56037E-14 4.99231E-15 2.94014E-14
 -1        42-8.36216E-06-8.36216E-06 1.45324E-14 1.65764E-14-8.18027E-15-4.19799E-14
 -1        43-4.18108E-06-4.18108E-06 7.90282E-22-5.32806E-22 4.73410E-22-3.64080E-22
 -1        44-2.78739E-06-2.78739E-06-6.30193E-22 1.63054E-22-3.90874E-22 1.12305E-22
 -1        45-2.78739E-06-2.78739E-06 2.38869E-15-5.72742E-15 2.22157E-15-7.87490E-15
 -1        46-2.78739E-06-2.78739E-06 1.14794E-16 1.85022E-15-1.79957E-15 1.47007E-14
 -1        47-2.78739E-06-2.78739E-06 3.58676E-15-1.70859E-14 1.71046E-15-1.30180E-14
 -1        48-4.18108E-06-4.18108E-06-2.95908E-15 1.16954E-14-5.47898E-16 2.89188E-14
 -1        49-4.18108E-06-4.18108E-06 2.07846E-14 3.92358E-17-1.79686E-14-1.61243E-15
 -1        50-2.78739E-06-2.78739E-06 1.01281E-14-1.19138E-15-3.00648E-15-9.18460E-17
 -1        51-2.78739E-06-2.78739E-06-1.11073E-14-1.30292E-14 1.20999E-14 1.24439E-14
 -1        52-2.78739E-06-2.78739E-06 1.42235E-14-3.63424E-15-1.34098E-15 1.25219E-15
 -1        53-2.78739E-06-2.78739E-06 1.84604E-14-9.06060E-16-7.55120E-15-1.95467E-14
 -1        54-4.18108E-06-4.18108E-06-2.20730E-14 4.06368E-14-1.34780E-14-1.82946E-15
 -1        55-4.18108E-06-4.18108E-06 7.45615E-15-2.04261E-15 7.31339E-15 6.91035E-16
 -1        56-2.78739E-06-2.78739E-06 5.08157E-15-2.57928E-15-9.30339E-15 2.08731E-16
 -1        57-2.78739E-06-2.78739E-06 3.14318E-15-6.59165E-15-8.20734E-16-1.23807E-14
 -1        58-2.78739E-06-2.78739E-06 2.24851E-14 6.78116E-15 3.83882E-15 3.59626E-15
 -1        59-2.78739E-06-2.78739E-06 2.68765E-14-8.36590E-15 2.05791E-14 2.42604E-14
 -1        60-4.18108E-06-4.18108E-06-1.65214E-14-5.79522E-15-2.80521E-14 1.23697E-14
 -1        61-4.18108E-06-4.18108E-06-1.56371E-14 3.55447E-20-1.60934E-14-5.83113E-15
 -1        62-2.78739E-06-2.78739E-06-9.78369E-15-2.18953E-15 8.86705E-15-1.85709E-15
 -1        63-2.78739E-06-2.78739E-06-1.86614E-14 7.57415E-15-1.45302E-14-6.93324E-15
 -1        64-2.78739E-06-2.78739E-06-1.27166E-14-5.60648E-15 3.47136E-15 1.15822E-14
 -1        65-2.78739E-06-2.78739E-06-1.09419E-14-2.41985E-14-9.64850E-15 2.90609E-15
 -1        66-4.18108E-06-4.18108E-06 3.04822E-14-7.80881E-15-3.68422E-14-1.83644E-14
 -1        67-8.36216E-06-8.36216E-06-1.69981E-14 7.10893E-20-1.34403E-15 5.82396E-15
 -1        68-4.18108E-06-4.18108E-06 1.43202E-14-3.28429E-15-1.66938E-14 4.56205E-15
 -1        69-4.18108E-06-4.18108E-06-1.01652E-14-1.78894E-14 5.02995E-14 1.67333E-14
 -1        70-4.18108E-06-4.18108E-06 1.33922E-15 2.71170E-15-4.02084E-14 1.45709E-14
 -1        71-4.18108E-06-4.18108E-06-9.91962E-15-2.53306E-14 2.93286E-14-9.49649E-15
 -1        72-8.36216E-06-8.36216E-06-3.14845E-14 7.60459E-15 3.09592E-14 4.64166E-14
 -3
    1PSTEP                        30          10           1          
  100CL  110 4.87813E-02          72                     0   10           1
 -4  TOSTRAIN    6    1
 -5  EXX         1    4    1    1
 -5  EYY         1    4    2    2
 -5  EZZ         1    4    3    3
 -5  EXY         1    4    1    2
 -5  EYZ         1    4    2    3
 -5  EZX         1    4    3    1
 -1         1-2.78739E-11-2.78739E-11 2.38919E-11 4.04777E-28-2.63405E-28-9.74938E-28
 -1         2-1.39369E-11-1.39369E-11 1.19459E-11-2.86110E-27 3.50972E-28-1.20448E-27
 -1         3-1.39369E-11-1.39369E-11 1.19459E-11 3.65275E-20 3.23069E-26-6.26580E-20
 -1         4-1.39369E-11-1.39369E-11 1.19459E-11-4.55726E-20-9.87605E-26-2.58200E-20
 -1         5-1.39369E-11-1.39369E-11 1.19459E-11 1.36610E-19-7.09340E-26 4.96459E-20
 -1         6-2.78739E-11-2.78739E-11 2.38919E-11-1.18469E-19-2.78786E-25-1.95359E-19
 -1         7-1.39369E-11-1.39369E-11 1.19459E-11 7.15636E-27 3.44044E-27 2.92962E-28
 -1         8-9.29129E-12-9.29129E-12 7.96397E-12 2.72858E-27-3.17602E-27 2.39308E-27
 -1         9-9.29129E-12-9.29129E-12 7.96397E-12 6.66962E-21-4.67448E-21-2.71533E-21
 -1        10-9.29129E-12-9.29129E-12 7.96397E-12-6.74232E-21 2.28592E-21-5.18984E-20
 -1        11-9.29129E-12-9.29129E-12 7.96397E-12 9.77528E-20-1.00147E-20-1.16465E-19
 -1        12-1.39369E-11-1.39369E-11 1.19459E-11-8.98722E-20 2.19280E-20 1.84197E-19
 -1        13-1.39369E-11-1.39369E-11 1.19459E-11-9.07936E-22 6.93457E-20-1.36131E-26
 -1        14-9.29129E-12-9.29129E-12 7.96397E-12 2.56146E-21-4.42743E-20 6.08588E-21
 -1        15-9.29129E-12-9.29129E-12 7.96397E-12 5.17592E-20-3.75045E-21-6.55813E-20
 -1        16-9.29129E-12-9.29129E-12 7.96397E-12 6.67815E-20-7.93366E-20 9.60710E-21
 -1        17-9.29129E-12-9.29129E-12 7.96397E-12 4.65036E-20-8.21961E-20 1.34977E-19
 -1        18-1.39369E-11-1.39369E-11 1.19459E-11-3.07361E-20 1.47239E-19-4.78785E-20
 -1        19-1.39369E-11-1.39369E-11 1.19459E-11 4.71900E-20 5.15315E-20-4.13703E-27
 -1        20-9.29129E-12-9.29129E-12 7.96397E-12 3.46267E-20 9.39448E-20-1.55975E-21
 -1        21-9.29129E-12-9.29129E-12 7.96397E-12-8.70498E-20-1.23420E-20 5.11718E-20
 -1        22-9.29129E-12-9.29129E-12 7.96397E-12-3.56664E-20 7.10684E-20 5.98158E-20
 -1        23-9.29129E-12-9.29129E-12 7.96397E-12 5.81646E-20-4.74772E-20-8.42371E-20
 -1        24-1.39369E-11-1.39369E-11 1.19459E-11-1.60992E-19 6.79462E-20 4.38245E-20
 -1        25-1.39369E-11-1.39369E-11 1.19459E-11 2.63086E-25-1.34526E-19-1.73520E-25
 -1        26-9.29129E-12-9.29129E-12 7.96397E-12-5.49169E-21-9.70217E-20 1.25686E-20
 -1        27-9.29129E-12-9.29129E-12 7.96397E-12-6.31409E-20-9.20465E-20-3.30521E-20
 -1        28-9.29129E-12-9.29129E-12 7.96397E-12 8.32722E-21-4.23853E-20-1.82595E-20
 -1        29-9.29129E-12-9.29129E-12 7.96397E-12 1.01762E-19 1.19822E-19-7.66804E-20
 -1        30-1.39369E-11-1.39369E-11 1.19459E-11 3.12661E-19-1.49144E-19 8.74377E-20
 -1        31-2.78739E-11-2.78739E-11 2.38919E-11 5.26172E-25 1.72730E-19-2.51776E-26
 -1        32-1.39369E-11-1.39369E-11 1.19459E-11-8.23754E-21-2.97381E-20 1.02147E-20
 -1        33-1.39369E-11-1.39369E-11 1.19459E-11-4.61930E-20-3.29713E-20 9.52143E-20
 -1        34-1.39369E-11-1.39369E-11 1.19459E-11-5.95633E-21 1.59110E-19-3.27023E-20
 -1        35-1.39369E-11-1.39369E-11 1.19459E-11-6.00778E-20-1.26554E-19-1.41469E-19
 -1        36-2.78739E-11-2.78739E-11 2.38919E-11-2.14663E-19 4.26970E-19 3.50506E-19
 -1        37-2.78739E-11-2.78739E-11 2.38919E-11-2.09041E-28 5.33767E-27-1.82766E-27
 -1        38-1.39369E-11-1.39369E-11 1.19459E-11 4.70788E-27 5.98468E-28-1.63084E-27
 -1        39-1.39369E-11-1.39369E-11 1.19459E-11-5.24380E-20 2.76407E-20 1.65190E-20
 -1        40-1.39369E-11-1.39369E-11 1.19459E-11 8.75818E-21-2.01393E-20-1.38570E-19
 -1        41-1.39369E-11-1.39369E-11 1.19459E-11-2.20404E-19 3.09047E-20 1.82009E-19
 -1        42-2.78739E-11-2.78739E-11 2.38919E-11 1.02616E-19-5.06398E-20-2.59876E-19
 -1        43-1.39369E-11-1.39369E-11 1.19459E-11-3.29832E-27 2.93064E-27-2.25383E-27
 -1        44-9.29129E-12-9.29129E-12 7.96397E-12 1.00938E-27-2.41970E-27 6.95220E-28
 -1        45-9.29129E-12-9.29129E-12 7.96397E-12-3.54554E-20 1.37526E-20-4.87494E-20
 -1        46-9.29129E-12-9.29129E-12 7.96397E-12 1.14538E-20-1.11402E-20 9.10042E-20
 -1        47-9.29129E-12-9.29129E-12 7.96397E-12-1.05770E-19 1.05886E-20-8.05875E-20
 -1        48-1.39369E-11-1.39369E-11 1.19459E-11 7.24001E-20-3.39175E-21 1.79021E-19
 -1        49-1.39369E-11-1.39369E-11 1.19459E-11 2.42888E-22-1.11234E-19-9.98169E-21
 -1        50-9.29129E-12-9.29129E-12 7.96397E-12-7.37522E-21-1.86115E-20-5.68570E-22
 -1        51-9.29129E-12-9.29129E-12 7.96397E-12-8.06572E-20 7.49041E-20 7.70337E-20
 -1        52-9.29129E-12-9.29129E-12 7.96397E-12-2.24976E-20-8.30131E-21 7.75163E-21
 -1        53-9.29129E-12-9.29129E-12 7.96397E-12-5.60894E-21-4.67455E-20-1.21004E-19
 -1        54-1.39369E-11-1.39369E-11 1.19459E-11 2.51561E-19-8.34349E-20-1.13252E-20
 -1        55-1.39369E-11-1.39369E-11 1.19459E-11-1.26448E-20 4.52734E-20 4.27783E-21
 -1        56-9.29129E-12-9.29129E-12 7.96397E-12-1.59670E-20-5.75924E-20 1.29214E-21
 -1        57-9.29129E-12-9.29129E-12 7.96397E-12-4.08055E-20-5.08074E-21-7.66425E-20
 -1        58-9.29129E-12-9.29129E-12 7.96397E-12 4.19786E-20 2.37641E-20 2.22625E-20
 -1        59-9.29129E-12-9.29129E-12 7.96397E-12-5.17889E-20 1.27395E-19 1.50183E-19
 -1        60-1.39369E-11-1.39369E-11 1.19459E-11-3.58752E-20-1.73656E-19 7.65742E-20
 -1        61-1.39369E-11-1.39369E-11 1.19459E-11 2.20038E-25-9.96260E-20-3.60975E-20
 -1        62-9.29129E-12-9.29129E-12 7.96397E-12-1.35542E-20 5.48913E-20-1.14962E-20
 -1        63-9.29129E-12-9.29129E-12 7.96397E-12 4.68876E-20-8.99491E-20-4.29201E-20
 -1        64-9.29129E-12-9.29129E-12 7.96397E-12-3.47068E-20 2.14894E-20 7.16993E-20
 -1        65-9.29129E-12-9.29129E-12 7.96397E-12-1.49800E-19-5.97288E-20 1.79901E-20
 -1        66-1.39369E-11-1.39369E-11 1.19459E-11-4.83402E-20-2.28071E-19-1.13684E-19
 -1        67-2.78739E-11-2.78739E-11 2.38919E-11 4.40077E-25-8.32016E-21 3.60531E-20
 -1        68-1.39369E-11-1.39369E-11 1.19459E-11-2.03313E-20-1.03342E-19 2.82413E-20
 -1        69-1.39369E-11-1.39369E-11 1.19459E-11-1.10744E-19 3.11378E-19 1.03587E-19
 -1        70-1.39369E-11-1.39369E-11 1.19459E-11 1.67867E-20-2.48909E-19 9.02008E-20
 -1        71-1.39369E-11-1.39369E-11 1.19459E-11-1.56808E-19 1.81558E-19-5.87878E-20
 -1        72-2.78739E-11-2.78739E-11 2.38919E-11 4.70761E-20 1.91652E-19 2.87341E-19
 -3
    1PSTEP                        31          11           1          
  100CL  111 5.77813E-02          72                     0   11           1
 -4  DISP        4    1
 -5  D1          1    2    1    0
 -5  D2          1    2    2    0
 -5  D3          1    2    3    0
 -5  ALL         1    2    0    0    1ALL
 -1         1 0.00000E+00 0.00000E+00 0.00000E+00
 -1         2-1.65089E-08 0.00000E+00 0.00000E+00
 -1         3-8.66719E-01 0.00000E+00 0.00000E+00
 -1         4-8.66719E-01 0.00000E+00 0.00000E+00
 -1         5-1.73344E+00 0.00000E+00 0.00000E+00
 -1         6-1.73344E+00 0.00000E+00 0.00000E+00
 -1         7 0.00000E+00-1.65089E-08 0.00000E+00
 -1         8-1.65089E-08-1.65089E-08 0.00000E+00
 -1         9-8.66719E-01-1.65089E-08 0.00000E+00
 -1        10-8.66719E-01-1.65089E-08 0.00000E+00
 -1        11-1.73344E+00-1.65089E-08 0.00000E+00
 -1        12-1.73344E+00-1.65089E-08 0.00000E+00
 -1        13 0.00000E+00-8.66719E-01 0.00000E+00
 -1        14-1.65089E-08-8.66719E-01 0.00000E+00
 -1        15-8.66719E-01-8.66719E-01 0.00000E+00
 -1        16-8.66719E-01-8.66719E-01 0.00000E+00
 -1        17-1.73344E+00-8.66719E-01 0.00000E+00
 -1        18-1.73344E+00-8.66719E-01 0.00000E+00
 -1        19 0.00000E+00-8.66719E-01 0.00000E+00
 -1        20-1.65089E-08-8.66719E-01 0.00000E+00
 -1        21-8.66719E-01-8.66719E-01 0.00000E+00
 -1        22-8.66719E-01-8.66719E-01 0.00000E+00
 -1        23-1.73344E+00-8.66719E-01 0.00000E+00
 -1        24-1.73344E+00-8.66719E-01 0.00000E+00
 -1        25 0.00000E+00-1.73344E+00 0.00000E+00
 -1        26-1.65089E-08-1.73344E+00 0.00000E+00
 -1        27-8.66719E-01-1.73344E+00 0.00000E+00
 -1        28-8.66719E-01-1.73344E+00 0.00000E+00
 -1        29-1.73344E+00-1.73344E+00 0.00000E+00
 -1        30-1.73344E+00-1.73344E+00 0.00000E+00
 -1        31 0.00000E+00-1.73344E+00 0.00000E+00
 -1        32-1.65089E-08-1.73344E+00 0.00000E+00
 -1        33-8.66719E-01-1.73344E+00 0.00000E+00
 -1        34-8.66719E-01-1.73344E+00 0.00000E+00
 -1        35-1.73344E+00-1.73344E+00 0.00000E+00
 -1        36-1.73344E+00-1.73344E+00 0.00000E+00
 -1        37 0.00000E+00 0.00000E+00 1.98107E-08
 -1        38-1.65089E-08 0.00000E+00 1.98107E-08
 -1        39-8.66719E-01 0.00000E+00 1.98107E-08
 -1        40-8.66719E-01 0.00000E+00 1.98107E-08
 -1        41-1.73344E+00 0.00000E+00 1.98107E-08
 -1        42-1.73344E+00 0.00000E+00 1.98107E-08
 -1        43 0.00000E+00-1.65089E-08 1.98107E-08
 -1        44-1.65089E-08-1.65089E-08 1.98107E-08
 -1        45-8.66719E-01-1.65089E-08 1.98107E-08
 -1        46-8.66719E-01-1.65089E-08 1.98107E-08
 -1        47-1.73344E+00-1.65089E-08 1.98107E-08
 -1        48-1.73344E+00-1.65089E-08 1.98107E-08
 -1        49 0.00000E+00-8.66719E-01 1.98107E-08
 -1        50-1.65089E-08-8.66719E-01 1.98107E-08
 -1        51-8.66719E-01-8.66719E-01 1.98107E-08
 -1        52-8.66719E-01-8.66719E-01 1.98107E-08
 -1        53-1.73344E+00-8.66719E-01 1.98107E-08
 -1        54-1.73344E+00-8.66719E-01 1.98107E-08
 -1        55 0.00000E+00-8.66719E-01 1.98107E-08
 -1        56-1.65089E-08-8.66719E-01 1.98107E-08
 -1        57-8.66719E-01-8.66719E-01 1.98107E-08
 -1        58-8.66719E-01-8.66719E-01 1.98107E-08
 -1        59-1.73344E+00-8.66719E-01 1.98107E-08
 -1        60-1.73344E+00-8.66719E-01 1.98107E-08
 -1        61 0.00000E+00-1.73344E+00 1.98107E-08
 -1        62-1.65089E-08-1.73344E+00 1.98107E-08
 -1        63-8.66719E-01-1.73344E+00 1.98107E-08
 -1        64-8.66719E-01-1.73344E+00 1.98107E-08
 -1        65-1.73344E+00-1.73344E+00 1.98107E-08
 -1        66-1.73344E+00-1.73344E+00 1.98107E-08
 -1        67 0.00000E+00-1.73344E+00 1.98107E-08
 -1        68-1.65089E-08-1.73344E+00 1.98107E-08
 -1        69-8.66719E-01-1.73344E+00 1.98107E-08
 -1        70-8.66719E-01-1.73344E+00 1.98107E-08
 -1        71-1.73344E+00-1.73344E+00 1.98107E-08
 -1        72-1.73344E+00-1.73344E+00 1.98107E-08
 -3
    1PSTEP                        32          11           1          
  100CL  111 5.77813E-02          72                     0   11           1
 -4  STRESS      6    1
 -5  SXX         1    4    1    1
 -5  SYY         1    4    2    2
 -5  SZZ         1    4    3    3
 -5  SXY         1    4    1    2
 -5  SYZ         1    4    2    3
 -5  SZX         1    4    3    1
 -1         1-9.90496E-06-9.90496E-06 1.46706E-21-1.42236E-24-4.60801E-22 3.86158E-23
 -1         2-4.95248E-06-4.95248E-06-2.73761E-21-8.15306E-22 9.91128E-23 6.15268E-22
 -1         3-4.95248E-06-4.95248E-06-6.65239E-15-3.20729E-14 9.74138E-21-7.23930E-15
 -1         4-4.95248E-06-4.95248E-06-4.44117E-15 6.48731E-15-1.27185E-21 2.97934E-14
 -1         5-4.95248E-06-4.95248E-06 2.95315E-14 1.29348E-14 1.15009E-20 1.04649E-14
 -1         6-9.90496E-06-9.90496E-06 3.04290E-14-3.99430E-14 1.55908E-20 8.28407E-15
 -1         7-4.95248E-06-4.95248E-06-1.96546E-22 8.50995E-22-1.36195E-23-9.85941E-23
 -1         8-3.30165E-06-3.30165E-06 4.89020E-22 2.42667E-23-3.90567E-22 9.91587E-22
 -1         9-3.30165E-06-3.30165E-06 5.42506E-15-2.36130E-14-4.24561E-16 3.60628E-15
 -1        10-3.30165E-06-3.30165E-06-1.15895E-15 7.96757E-15 6.83581E-16-2.03655E-14
 -1        11-3.30165E-06-3.30165E-06 1.89413E-15 7.35980E-16-9.85188E-16 2.05187E-14
 -1        12-4.95248E-06-4.95248E-06-1.58993E-14 2.58688E-14-7.29778E-16-2.13574E-14
 -1        13-4.95248E-06-4.95248E-06 3.65568E-14 1.60573E-20-2.08753E-15-1.42707E-22
 -1        14-3.30165E-06-3.30165E-06 1.03946E-14 6.30439E-16 3.71478E-15 1.14123E-15
 -1        15-3.30165E-06-3.30165E-06-1.19179E-14-1.10286E-14-1.54086E-14-1.56718E-14
 -1        16-3.30165E-06-3.30165E-06 9.37585E-15 1.14684E-14 2.96550E-15 1.11017E-14
 -1        17-3.30165E-06-3.30165E-06 4.52743E-14 1.46925E-14 1.82616E-14-2.39648E-14
 -1        18-4.95248E-06-4.95248E-06 1.51990E-14 2.81848E-14-3.45708E-14 2.47378E-14
 -1        19-4.95248E-06-4.95248E-06 2.73104E-14 1.60573E-20-8.87056E-15 2.72014E-21
 -1        20-3.30165E-06-3.30165E-06 9.41957E-15 6.30439E-16 9.64525E-15-3.48826E-16
 -1        21-3.30165E-06-3.30165E-06-2.16997E-14 4.62401E-15 1.49753E-14-3.69000E-15
 -1        22-3.30165E-06-3.30165E-06-1.06642E-15 2.66019E-15 6.57441E-15-1.02772E-14
 -1        23-3.30165E-06-3.30165E-06 1.06552E-15-4.76271E-15-7.11546E-15 3.20146E-14
 -1        24-4.95248E-06-4.95248E-06-1.08005E-13 1.63012E-14 2.17046E-14-2.55876E-14
 -1        25-4.95248E-06-4.95248E-06-1.95030E-14-3.48881E-20-8.93783E-15-2.69212E-20
 -1        26-3.30165E-06-3.30165E-06-1.70104E-14 2.15650E-15 1.88503E-14 7.97429E-16
 -1        27-3.30165E-06-3.30165E-06-4.74518E-14-2.43140E-14-2.26806E-14 9.70188E-16
 -1        28-3.30165E-06-3.30165E-06 1.47936E-14-4.09696E-15 2.73618E-14 6.98680E-15
 -1        29-3.30165E-06-3.30165E-06 2.50807E-14 3.45786E-16 4.43802E-15 1.85488E-14
 -1        30-4.95248E-06-4.95248E-06 8.88699E-14 1.60085E-14 1.34465E-14-2.99340E-14
 -1        31-9.90496E-06-9.90496E-06-8.70541E-14-6.97762E-20-6.49512E-14 2.96707E-20
 -1        32-4.95248E-06-4.95248E-06-1.66021E-14 3.23475E-15-6.90563E-15-1.90435E-16
 -1        33-4.95248E-06-4.95248E-06-2.41109E-14 1.14325E-14 1.69717E-14 5.84248E-15
 -1        34-4.95248E-06-4.95248E-06-8.66071E-15 1.46824E-14 1.22253E-14-9.41234E-15
 -1        35-4.95248E-06-4.95248E-06 2.79370E-14-5.39184E-14 2.43141E-14-2.27221E-14
 -1        36-9.90496E-06-9.90496E-06-1.10342E-13 3.91292E-14-5.84592E-14 9.15330E-14
 -1        37-9.90496E-06-9.90496E-06-1.46706E-21-4.02065E-23 1.70996E-21-9.52221E-22
 -1        38-4.95248E-06-4.95248E-06 2.73761E-21 4.13094E-22-8.42461E-23 1.55670E-22
 -1        39-4.95248E-06-4.95248E-06 1.86173E-15 1.20141E-14 1.97540E-15-2.70407E-15
 -1        40-4.95248E-06-4.95248E-06 7.56363E-15-1.45015E-14-2.85951E-15 8.13289E-15
 -1        41-4.95248E-06-4.95248E-06-3.81395E-15-1.97849E-15 1.42073E-15-3.63037E-14
 -1        42-9.90496E-06-9.90496E-06-3.31202E-14-4.01010E-16-6.97383E-16 7.01638E-15
 -1        43-4.95248E-06-4.95248E-06 1.96546E-22 6.11404E-22 5.37016E-22-6.56058E-22
 -1        44-3.30165E-06-3.30165E-06-4.89020E-22 6.96401E-22-4.17284E-22 5.30820E-22
 -1        45-3.30165E-06-3.30165E-06-2.03421E-15 7.73043E-15 8.92366E-16 4.55108E-15
 -1        46-3.30165E-06-3.30165E-06-6.29111E-15-5.96879E-15-1.22276E-15-8.62293E-16
 -1        47-3.30165E-06-3.30165E-06-2.36200E-14-2.89902E-15-3.80449E-17 1.56327E-14
 -1        48-4.95248E-06-4.95248E-06-5.25996E-14 1.52865E-14-1.07848E-15 8.91668E-15
 -1        49-4.95248E-06-4.95248E-06 1.47982E-14 4.92036E-21 1.12698E-17-2.22604E-15
 -1        50-3.30165E-06-3.30165E-06 4.09836E-15-1.45565E-15-5.89199E-15-3.42800E-16
 -1        51-3.30165E-06-3.30165E-06 1.42691E-14 9.92773E-15-1.33241E-14-2.83607E-15
 -1        52-3.30165E-06-3.30165E-06 4.15714E-17-5.17144E-15 1.49873E-14 7.54319E-15
 -1        53-3.30165E-06-3.30165E-06-6.20809E-15-4.30008E-15-2.38855E-15 1.10898E-14
 -1        54-4.95248E-06-4.95248E-06-3.73479E-14 1.37113E-14-5.96653E-15-1.59269E-14
 -1        55-4.95248E-06-4.95248E-06 8.58058E-16 4.92036E-21 1.05489E-14 8.87528E-16
 -1        56-3.30165E-06-3.30165E-06-5.75288E-18-1.45565E-15 8.74172E-15 2.42858E-16
 -1        57-3.30165E-06-3.30165E-06 1.98655E-14-6.54278E-15 8.34589E-15 8.11879E-15
 -1        58-3.30165E-06-3.30165E-06 2.13368E-15 1.26704E-14-2.14002E-14 3.14849E-15
 -1        59-3.30165E-06-3.30165E-06-2.76928E-15-1.66009E-14 3.38458E-15-6.77605E-15
 -1        60-4.95248E-06-4.95248E-06 3.88935E-14 2.39346E-14-1.52985E-14 7.83098E-15
 -1        61-4.95248E-06-4.95248E-06-2.32366E-14-4.17636E-20-4.40509E-14-6.73222E-15
 -1        62-3.30165E-06-3.30165E-06 2.03557E-16 8.62314E-16 8.50345E-15-3.69070E-15
 -1        63-3.30165E-06-3.30165E-06-1.73644E-14 1.95839E-14-2.06822E-14-1.76918E-14
 -1        64-3.30165E-06-3.30165E-06 1.32447E-14 1.29936E-14 1.42227E-14 1.42809E-14
 -1        65-3.30165E-06-3.30165E-06 1.73108E-14-4.00431E-14 3.96119E-14-9.47842E-15
 -1        66-4.95248E-06-4.95248E-06-1.47004E-14-2.92715E-14-4.78814E-14 8.29728E-15
 -1        67-9.90496E-06-9.90496E-06-1.00345E-13-8.35273E-20 1.20662E-13 1.28857E-14
 -1        68-4.95248E-06-4.95248E-06 6.30699E-15 1.29347E-15-2.57297E-15 6.25240E-15
 -1        69-4.95248E-06-4.95248E-06-2.88973E-14-2.36827E-14 2.71810E-14 2.62716E-14
 -1        70-4.95248E-06-4.95248E-06-6.94333E-14-1.79858E-14-3.43982E-14-4.10527E-14
 -1        71-4.95248E-06-4.95248E-06 3.76590E-14-1.05348E-14-3.25159E-14 2.41466E-14
 -1        72-9.90496E-06-9.90496E-06-1.04097E-13 4.27484E-14 7.74725E-14-4.09506E-14
 -3
    1PSTEP                        33          11           1          
  100CL  111 5.77813E-02          72                     0   11           1
 -4  TOSTRAIN    6    1
 -5  EXX         1    4    1    1
 -5  EYY         1    4    2    2
 -5  EZZ         1    4    3    3
 -5  EXY         1    4    1    2
 -5  EYZ         1    4    2    3
 -5  EZX         1    4    3    1
 -1         1-3.30165E-11-3.30165E-11 2.82999E-11-8.80510E-30-2.85258E-27 2.39050E-28
 -1         2-1.65083E-11-1.65083E-11 1.41499E-11-5.04713E-27 6.13556E-28 3.80880E-27
 -1         3-1.65083E-11-1.65083E-11 1.41499E-11-1.98547E-19 6.03038E-26-4.48147E-20
 -1         4-1.65083E-11-1.65083E-11 1.41499E-11 4.01595E-20-7.87334E-27 1.84435E-19
 -1         5-1.65083E-11-1.65083E-11 1.41499E-11 8.00728E-20 7.11960E-26 6.47825E-20
 -1         6-3.30165E-11-3.30165E-11 2.82999E-11-2.47266E-19 9.65148E-26 5.12823E-20
 -1         7-1.65083E-11-1.65083E-11 1.41499E-11 5.26806E-27-8.43114E-29-6.10345E-28
 -1         8-1.10055E-11-1.10055E-11 9.43330E-12 1.50223E-28-2.41780E-27 6.13840E-27
 -1         9-1.10055E-11-1.10055E-11 9.43330E-12-1.46176E-19-2.62823E-21 2.23246E-20
 -1        10-1.10055E-11-1.10055E-11 9.43330E-12 4.93231E-20 4.23169E-21-1.26072E-19
 -1        11-1.10055E-11-1.10055E-11 9.43330E-12 4.55607E-21-6.09878E-21 1.27021E-19
 -1        12-1.65083E-11-1.65083E-11 1.41499E-11 1.60140E-19-4.51767E-21-1.32213E-19
 -1        13-1.65083E-11-1.65083E-11 1.41499E-11 9.94020E-26-1.29228E-20-8.83426E-28
 -1        14-1.10055E-11-1.10055E-11 9.43330E-12 3.90272E-21 2.29963E-20 7.06475E-21
 -1        15-1.10055E-11-1.10055E-11 9.43330E-12-6.82723E-20-9.53868E-20-9.70156E-20
 -1        16-1.10055E-11-1.10055E-11 9.43330E-12 7.09949E-20 1.83579E-20 6.87249E-20
 -1        17-1.10055E-11-1.10055E-11 9.43330E-12 9.09534E-20 1.13048E-19-1.48353E-19
 -1        18-1.65083E-11-1.65083E-11 1.41499E-11 1.74477E-19-2.14010E-19 1.53139E-19
 -1        19-1.65083E-11-1.65083E-11 1.41499E-11 9.94020E-26-5.49130E-20 1.68390E-26
 -1        20-1.10055E-11-1.10055E-11 9.43330E-12 3.90272E-21 5.97087E-20-2.15940E-21
 -1        21-1.10055E-11-1.10055E-11 9.43330E-12 2.86248E-20 9.27040E-20-2.28428E-20
 -1        22-1.10055E-11-1.10055E-11 9.43330E-12 1.64679E-20 4.06988E-20-6.36210E-20
 -1        23-1.10055E-11-1.10055E-11 9.43330E-12-2.94834E-20-4.40481E-20 1.98186E-19
 -1        24-1.65083E-11-1.65083E-11 1.41499E-11 1.00912E-19 1.34362E-19-1.58400E-19
 -1        25-1.65083E-11-1.65083E-11 1.41499E-11-2.15974E-25-5.53294E-20-1.66655E-25
 -1        26-1.10055E-11-1.10055E-11 9.43330E-12 1.33497E-20 1.16692E-19 4.93647E-21
 -1        27-1.10055E-11-1.10055E-11 9.43330E-12-1.50516E-19-1.40403E-19 6.00593E-21
 -1        28-1.10055E-11-1.10055E-11 9.43330E-12-2.53621E-20 1.69383E-19 4.32516E-20
 -1        29-1.10055E-11-1.10055E-11 9.43330E-12 2.14058E-21 2.74735E-20 1.14826E-19
 -1        30-1.65083E-11-1.65083E-11 1.41499E-11 9.91004E-20 8.32401E-20-1.85306E-19
 -1        31-3.30165E-11-3.30165E-11 2.82999E-11-4.31948E-25-4.02079E-19 1.83676E-25
 -1        32-1.65083E-11-1.65083E-11 1.41499E-11 2.00246E-20-4.27492E-20-1.17888E-21
 -1        33-1.65083E-11-1.65083E-11 1.41499E-11 7.07725E-20 1.05063E-19 3.61677E-20
 -1        34-1.65083E-11-1.65083E-11 1.41499E-11 9.08912E-20 7.56804E-20-5.82669E-20
 -1        35-1.65083E-11-1.65083E-11 1.41499E-11-3.33781E-19 1.50516E-19-1.40661E-19
 -1        36-3.30165E-11-3.30165E-11 2.82999E-11 2.42228E-19-3.61891E-19 5.66633E-19
 -1        37-3.30165E-11-3.30165E-11 2.82999E-11-2.48898E-28 1.05855E-26-5.89470E-27
 -1        38-1.65083E-11-1.65083E-11 1.41499E-11 2.55725E-27-5.21524E-28 9.63673E-28
 -1        39-1.65083E-11-1.65083E-11 1.41499E-11 7.43728E-20 1.22287E-20-1.67395E-20
 -1        40-1.65083E-11-1.65083E-11 1.41499E-11-8.97709E-20-1.77017E-20 5.03465E-20
 -1        41-1.65083E-11-1.65083E-11 1.41499E-11-1.22478E-20 8.79497E-21-2.24737E-19
 -1        42-3.30165E-11-3.30165E-11 2.82999E-11-2.48244E-21-4.31714E-21 4.34348E-20
 -1        43-1.65083E-11-1.65083E-11 1.41499E-11 3.78488E-27 3.32439E-27-4.06131E-27
 -1        44-1.10055E-11-1.10055E-11 9.43330E-12 4.31105E-27-2.58319E-27 3.28603E-27
 -1        45-1.10055E-11-1.10055E-11 9.43330E-12 4.78550E-20 5.52417E-21 2.81734E-20
 -1        46-1.10055E-11-1.10055E-11 9.43330E-12-3.69497E-20-7.56946E-21-5.33801E-21
 -1        47-1.10055E-11-1.10055E-11 9.43330E-12-1.79463E-20-2.35516E-22 9.67741E-20
 -1        48-1.65083E-11-1.65083E-11 1.41499E-11 9.46309E-20-6.67629E-21 5.51985E-20
 -1        49-1.65083E-11-1.65083E-11 1.41499E-11 3.04594E-26 6.97656E-23-1.37803E-20
 -1        50-1.10055E-11-1.10055E-11 9.43330E-12-9.01116E-21-3.64742E-20-2.12209E-21
 -1        51-1.10055E-11-1.10055E-11 9.43330E-12 6.14574E-20-8.24827E-20-1.75566E-20
 -1        52-1.10055E-11-1.10055E-11 9.43330E-12-3.20137E-20 9.27784E-20 4.66959E-20
 -1        53-1.10055E-11-1.10055E-11 9.43330E-12-2.66195E-20-1.47862E-20 6.86511E-20
 -1        54-1.65083E-11-1.65083E-11 1.41499E-11 8.48795E-20-3.69357E-20-9.85950E-20
 -1        55-1.65083E-11-1.65083E-11 1.41499E-11 3.04594E-26 6.53027E-20 5.49422E-21
 -1        56-1.10055E-11-1.10055E-11 9.43330E-12-9.01116E-21 5.41154E-20 1.50340E-21
 -1        57-1.10055E-11-1.10055E-11 9.43330E-12-4.05029E-20 5.16651E-20 5.02592E-20
 -1        58-1.10055E-11-1.10055E-11 9.43330E-12 7.84358E-20-1.32477E-19 1.94906E-20
 -1        59-1.10055E-11-1.10055E-11 9.43330E-12-1.02768E-19 2.09521E-20-4.19470E-20
 -1        60-1.65083E-11-1.65083E-11 1.41499E-11 1.48167E-19-9.47052E-20 4.84775E-20
 -1        61-1.65083E-11-1.65083E-11 1.41499E-11-2.58537E-25-2.72696E-19-4.16757E-20
 -1        62-1.10055E-11-1.10055E-11 9.43330E-12 5.33814E-21 5.26404E-20-2.28472E-20
 -1        63-1.10055E-11-1.10055E-11 9.43330E-12 1.21233E-19-1.28032E-19-1.09521E-19
 -1        64-1.10055E-11-1.10055E-11 9.43330E-12 8.04365E-20 8.80450E-20 8.84053E-20
 -1        65-1.10055E-11-1.10055E-11 9.43330E-12-2.47886E-19 2.45216E-19-5.86759E-20
 -1        66-1.65083E-11-1.65083E-11 1.41499E-11-1.81204E-19-2.96409E-19 5.13641E-20
 -1        67-3.30165E-11-3.30165E-11 2.82999E-11-5.17074E-25 7.46957E-19 7.97686E-20
 -1        68-1.65083E-11-1.65083E-11 1.41499E-11 8.00720E-21-1.59279E-20 3.87053E-20
 -1        69-1.65083E-11-1.65083E-11 1.41499E-11-1.46607E-19 1.68263E-19 1.62634E-19
 -1        70-1.65083E-11-1.65083E-11 1.41499E-11-1.11341E-19-2.12941E-19-2.54136E-19
 -1        71-1.65083E-11-1.65083E-11 1.41499E-11-6.52156E-20-2.01289E-19 1.49479E-19
 -1        72-3.30165E-11-3.30165E-11 2.82999E-11 2.64633E-19 4.79592E-19-2.53503E-19
 -3
    1PSTEP                        34          12           1          
  100CL  112 6.67813E-02          72                     0   12           1
 -4  DISP        4    1
 -5  D1          1    2    1    0
 -5  D2          1    2    2    0
 -5  D3          1    2    3    0
 -5  ALL         1    2    0    0    1ALL
 -1         1 0.00000E+00 0.00000E+00 0.00000E+00
 -1         2-1.90804E-08 0.00000E+00 0.00000E+00
 -1         3-1.00172E+00 0.00000E+00 0.00000E+00
 -1         4-1.00172E+00 0.00000E+00 0.00000E+00
 -1         5-2.00344E+00 0.00000E+00 0.00000E+00
 -1         6-2.00344E+00 0.00000E+00 0.00000E+00
 -1         7 0.00000E+00-1.90804E-08 0.00000E+00
 -1         8-1.90804E-08-1.90804E-08 0.00000E+00
 -1         9-1.00172E+00-1.90804E-08 0.00000E+00
 -1        10-1.00172E+00-1.90804E-08 0.00000E+00
 -1        11-2.00344E+00-1.90804E-08 0.00000E+00
 -1        12-2.00344E+00-1.90804E-08 0.00000E+00
 -1        13 0.00000E+00-1.00172E+00 0.00000E+00
 -1        14-1.90804E-08-1.00172E+00 0.00000E+00
 -1        15-1.00172E+00-1.00172E+00 0.00000E+00
 -1        16-1.00172E+00-1.00172E+00 0.00000E+00
 -1        17-2.00344E+00-1.00172E+00 0.00000E+00
 -1        18-2.00344E+00-1.00172E+00 0.00000E+00
 -1        19 0.00000E+00-1.00172E+00 0.00000E+00
 -1        20-1.90804E-08-1.00172E+00 0.00000E+00
 -1        21-1.00172E+00-1.00172E+00 0.00000E+00
 -1        22-1.00172E+00-1.00172E+00 0.00000E+00
 -1        23-2.00344E+00-1.00172E+00 0.00000E+00
 -1        24-2.00344E+00-1.00172E+00 0.00000E+00
 -1        25 0.00000E+00-2.00344E+00 0.00000E+00
 -1        26-1.90804E-08-2.00344E+00 0.00000E+00
 -1        27-1.00172E+00-2.00344E+00 0.00000E+00
 -1        28-1.00172E+00-2.00344E+00 0.00000E+00
 -1        29-2.00344E+00-2.00344E+00 0.00000E+00
 -1        30-2.00344E+00-2.00344E+00 0.00000E+00
 -1        31 0.00000E+00-2.00344E+00 0.00000E+00
 -1        32-1.90804E-08-2.00344E+00 0.00000E+00
 -1        33-1.00172E+00-2.00344E+00 0.00000E+00
 -1        34-1.00172E+00-2.00344E+00 0.00000E+00
 -1        35-2.00344E+00-2.00344E+00 0.00000E+00
 -1        36-2.00344E+00-2.00344E+00 0.00000E+00
 -1        37 0.00000E+00 0.00000E+00 2.28964E-08
 -1        38-1.90804E-08 0.00000E+00 2.28964E-08
 -1        39-1.00172E+00 0.00000E+00 2.28964E-08
 -1        40-1.00172E+00 0.00000E+00 2.28964E-08
 -1        41-2.00344E+00 0.00000E+00 2.28964E-08
 -1        42-2.00344E+00 0.00000E+00 2.28964E-08
 -1        43 0.00000E+00-1.90804E-08 2.28964E-08
 -1        44-1.90804E-08-1.90804E-08 2.28964E-08
 -1        45-1.00172E+00-1.90804E-08 2.28964E-08
 -1        46-1.00172E+00-1.90804E-08 2.28964E-08
 -1        47-2.00344E+00-1.90804E-08 2.28964E-08
 -1        48-2.00344E+00-1.90804E-08 2.28964E-08
 -1        49 0.00000E+00-1.00172E+00 2.28964E-08
 -1        50-1.90804E-08-1.00172E+00 2.28964E-08
 -1        51-1.00172E+00-1.00172E+00 2.28964E-08
 -1        52-1.00172E+00-1.00172E+00 2.28964E-08
 -1        53-2.00344E+00-1.00172E+00 2.28964E-08
 -1        54-2.00344E+00-1.00172E+00 2.28964E-08
 -1        55 0.00000E+00-1.00172E+00 2.28964E-08
 -1        56-1.90804E-08-1.00172E+00 2.28964E-08
 -1        57-1.00172E+00-1.00172E+00 2.28964E-08
 -1        58-1.00172E+00-1.00172E+00 2.28964E-08
 -1        59-2.00344E+00-1.00172E+00 2.28964E-08
 -1        60-2.00344E+00-1.00172E+00 2.28964E-08
 -1        61 0.00000E+00-2.00344E+00 2.28964E-08
 -1        62-1.90804E-08-2.00344E+00 2.28964E-08
 -1        63-1.00172E+00-2.00344E+00 2.28964E-08
 -1        64-1.00172E+00-2.00344E+00 2.28964E-08
 -1        65-2.00344E+00-2.00344E+00 2.28964E-08
 -1        66-2.00344E+00-2.00344E+00 2.28964E-08
 -1        67 0.00000E+00-2.00344E+00 2.28964E-08
 -1        68-1.90804E-08-2.00344E+00 2.28964E-08
 -1        69-1.00172E+00-2.00344E+00 2.28964E-08
 -1        70-1.00172E+00-2.00344E+00 2.28964E-08
 -1        71-2.00344E+00-2.00344E+00 2.28964E-08
 -1        72-2.00344E+00-2.00344E+00 2.28964E-08
 -3
    1PSTEP                        35          12           1          
  100CL  112 6.67813E-02          72                     0   12           1
 -4  STRESS      6    1
 -5  SXX         1    4    1    1
 -5  SYY         1    4    2    2
 -5  SZZ         1    4    3    3
 -5  SXY         1    4    1    2
 -5  SYZ         1    4    2    3
 -5  SZX         1    4    3    1
 -1         1-1.14478E-05-1.14478E-05 8.94636E-21-1.90769E-22-2.73533E-23-1.41189E-24
 -1         2-5.72388E-06-5.72388E-06 2.27256E-21-1.98522E-21-1.65455E-23-8.47159E-22
 -1         3-5.72388E-06-5.72388E-06-9.73457E-15 3.47170E-15-1.16253E-21-8.45670E-15
 -1         4-5.72388E-06-5.72388E-06-6.07488E-15 2.21095E-15-1.43976E-20 7.28444E-15
 -1         5-5.72388E-06-5.72388E-06-9.22816E-15 2.55805E-14 5.15779E-22 2.42962E-14
 -1         6-1.14478E-05-1.14478E-05 5.30946E-14 3.54856E-14-8.41716E-20 4.22976E-14
 -1         7-5.72388E-06-5.72388E-06 1.73557E-21-3.49101E-22-1.12566E-21-1.60385E-23
 -1         8-3.81592E-06-3.81592E-06 3.10014E-22-1.49262E-21 3.42830E-22 1.38233E-21
 -1         9-3.81592E-06-3.81592E-06 1.99885E-14-6.41055E-16-1.28674E-15 7.92107E-15
 -1        10-3.81592E-06-3.81592E-06 1.11616E-14 4.82148E-15 6.84449E-16 1.44947E-14
 -1        11-3.81592E-06-3.81592E-06 2.58943E-14 1.01751E-14-4.75904E-15-2.64138E-14
 -1        12-5.72388E-06-5.72388E-06 8.05262E-15-5.38843E-15 7.53814E-15 1.28211E-14
 -1        13-5.72388E-06-5.72388E-06 2.39646E-14 2.80093E-14-1.01291E-14 4.68875E-21
 -1        14-3.81592E-06-3.81592E-06-5.51192E-15 1.68081E-14 2.87953E-15-1.33467E-15
 -1        15-3.81592E-06-3.81592E-06 6.22177E-15 9.53010E-15-2.92121E-16-2.19485E-14
 -1        16-3.81592E-06-3.81592E-06-1.32927E-15 1.29770E-14 9.84674E-15 3.40641E-14
 -1        17-3.81592E-06-3.81592E-06-1.75763E-14 1.08491E-15-9.52961E-18-1.03594E-14
 -1        18-5.72388E-06-5.72388E-06 3.94289E-15 2.56982E-14-1.03058E-14 4.52299E-14
 -1        19-5.72388E-06-5.72388E-06 1.59502E-14-7.50550E-15 3.01501E-14-1.58160E-23
 -1        20-3.81592E-06-3.81592E-06-2.26202E-14-6.86842E-15-3.67139E-15 2.47588E-15
 -1        21-3.81592E-06-3.81592E-06 3.31936E-14 5.19072E-16 8.13161E-16 1.63644E-14
 -1        22-3.81592E-06-3.81592E-06 5.68175E-15-1.40845E-14 1.21327E-14 4.28900E-15
 -1        23-3.81592E-06-3.81592E-06-1.49104E-14 2.27020E-15 3.48907E-15 1.58447E-14
 -1        24-5.72388E-06-5.72388E-06-1.69963E-14 1.33748E-14-7.13978E-15-1.35071E-14
 -1        25-5.72388E-06-5.72388E-06 1.55349E-14 5.39437E-15-3.42409E-14 6.17785E-20
 -1        26-3.81592E-06-3.81592E-06 1.07029E-14 1.21861E-15 5.76888E-15 2.47883E-16
 -1        27-3.81592E-06-3.81592E-06 2.08845E-16 2.22938E-16 3.17175E-15-3.07780E-15
 -1        28-3.81592E-06-3.81592E-06-8.96235E-15 9.27915E-15-4.05702E-14 1.59887E-14
 -1        29-3.81592E-06-3.81592E-06-3.91975E-14-6.98749E-15-2.05498E-14-2.39646E-14
 -1        30-5.72388E-06-5.72388E-06 1.97646E-15 1.48778E-14-4.34018E-14-4.04686E-14
 -1        31-1.14478E-05-1.14478E-05 7.39853E-14 1.22760E-14 3.96126E-14-1.36546E-21
 -1        32-5.72388E-06-5.72388E-06-9.11534E-15 2.57156E-15 4.90072E-14 1.38002E-15
 -1        33-5.72388E-06-5.72388E-06 6.73904E-14 1.71593E-14 1.02738E-14 1.90572E-14
 -1        34-5.72388E-06-5.72388E-06-8.06928E-15 3.66794E-15 2.57491E-14-2.03917E-14
 -1        35-5.72388E-06-5.72388E-06-2.04698E-14 1.87690E-14-4.50372E-15 2.11805E-14
 -1        36-1.14478E-05-1.14478E-05-4.46152E-14 2.15912E-14 1.34442E-14 4.05737E-14
 -1        37-1.14478E-05-1.14478E-05-3.47121E-21 1.55411E-22 1.98904E-21 1.91742E-22
 -1        38-5.72388E-06-5.72388E-06-4.65089E-22 2.51844E-21-1.79223E-22-7.50582E-22
 -1        39-5.72388E-06-5.72388E-06-1.85445E-15-1.92453E-14 4.28818E-15-1.08814E-14
 -1        40-5.72388E-06-5.72388E-06 8.01453E-15 1.52192E-14-2.47181E-15 3.90481E-15
 -1        41-5.72388E-06-5.72388E-06 1.07444E-14-1.03740E-14 1.43430E-14-2.57230E-14
 -1        42-1.14478E-05-1.14478E-05 1.54682E-13 1.67619E-14-2.45656E-14-1.22392E-14
 -1        43-5.72388E-06-5.72388E-06 1.53899E-21 1.29198E-21-6.52206E-22-1.04492E-21
 -1        44-3.81592E-06-3.81592E-06-4.41090E-22 2.48848E-21 3.29901E-22 6.96404E-22
 -1        45-3.81592E-06-3.81592E-06 5.53885E-15-7.81765E-15 1.57205E-15 2.85266E-14
 -1        46-3.81592E-06-3.81592E-06 8.51531E-16-3.18508E-15-9.63417E-16-9.14222E-15
 -1        47-3.81592E-06-3.81592E-06 9.65480E-15 2.30754E-15 4.80294E-15-1.41803E-14
 -1        48-5.72388E-06-5.72388E-06 1.45145E-14-7.66023E-15-4.74462E-15 8.42054E-15
 -1        49-5.72388E-06-5.72388E-06-1.02774E-14 2.28295E-14-3.99017E-16 2.53480E-15
 -1        50-3.81592E-06-3.81592E-06-5.35303E-15 1.86897E-14 3.00016E-15 3.55193E-16
 -1        51-3.81592E-06-3.81592E-06 1.87469E-14 7.66955E-16-1.15002E-14 1.34122E-14
 -1        52-3.81592E-06-3.81592E-06 2.32903E-14-2.69719E-14 8.01378E-15-1.17985E-14
 -1        53-3.81592E-06-3.81592E-06-2.22820E-14 1.33403E-14-8.84218E-15-1.04039E-14
 -1        54-5.72388E-06-5.72388E-06-7.80001E-15-1.27100E-14-1.14081E-14-2.00416E-14
 -1        55-5.72388E-06-5.72388E-06-6.28848E-15-6.11757E-15-8.58348E-15-4.52441E-15
 -1        56-3.81592E-06-3.81592E-06-1.44591E-14-6.08358E-16 1.34338E-14-5.40399E-16
 -1        57-3.81592E-06-3.81592E-06-1.60732E-14-4.40228E-15 2.03403E-14 3.87232E-15
 -1        58-3.81592E-06-3.81592E-06-3.43345E-14-2.17530E-14-2.15301E-14-3.18717E-16
 -1        59-3.81592E-06-3.81592E-06-1.39405E-15 5.12466E-15 4.21462E-15 1.51914E-15
 -1        60-5.72388E-06-5.72388E-06-1.42035E-14 1.20548E-14 4.07497E-16-9.19665E-15
 -1        61-5.72388E-06-5.72388E-06-2.82205E-14 2.88893E-14 2.46555E-14 6.64667E-15
 -1        62-3.81592E-06-3.81592E-06 1.43710E-14 1.78229E-14 3.00380E-14 4.67896E-15
 -1        63-3.81592E-06-3.81592E-06-3.77845E-14 2.10886E-14-5.16929E-14-6.38264E-16
 -1        64-3.81592E-06-3.81592E-06-4.58782E-15 1.42836E-14 4.30030E-14 4.80621E-15
 -1        65-3.81592E-06-3.81592E-06-3.18676E-14 3.18439E-14-3.02427E-14-4.36255E-14
 -1        66-5.72388E-06-5.72388E-06 3.05175E-14 1.02379E-14 4.61064E-14 8.14408E-14
 -1        67-1.14478E-05-1.14478E-05-9.29083E-15-1.95463E-14-2.76054E-14-2.40088E-14
 -1        68-5.72388E-06-5.72388E-06-1.49587E-15-1.19280E-14-3.55331E-14-1.06244E-14
 -1        69-5.72388E-06-5.72388E-06 2.52873E-15-1.30982E-14 7.47417E-14-1.23530E-14
 -1        70-5.72388E-06-5.72388E-06 1.62156E-14-7.72349E-15-5.47652E-14 2.44564E-14
 -1        71-5.72388E-06-5.72388E-06 2.77742E-14-5.81153E-14 2.77468E-14 2.95881E-14
 -1        72-1.14478E-05-1.14478E-05-3.24770E-14 2.64349E-14-3.24725E-14-1.40330E-13
 -3
    1PSTEP                        36          12           1          
  100CL  112 6.67813E-02          72                     0   12           1
 -4  TOSTRAIN    6    1
 -5  EXX         1    4    1    1
 -5  EYY         1    4    2    2
 -5  EZZ         1    4    3    3
 -5  EXY         1    4    1    2
 -5  EYZ         1    4    2    3
 -5  EZX         1    4    3    1
 -1         1-3.81592E-11-3.81592E-11 3.27079E-11-1.18095E-27-1.69330E-28-8.74028E-30
 -1         2-1.90796E-11-1.90796E-11 1.63539E-11-1.22894E-26-1.02424E-28-5.24432E-27
 -1         3-1.90796E-11-1.90796E-11 1.63539E-11 2.14915E-20-7.19661E-27-5.23510E-20
 -1         4-1.90796E-11-1.90796E-11 1.63539E-11 1.36868E-20-8.91279E-26 4.50941E-20
 -1         5-1.90796E-11-1.90796E-11 1.63539E-11 1.58356E-19 3.19292E-27 1.50405E-19
 -1         6-3.81592E-11-3.81592E-11 3.27079E-11 2.19673E-19-5.21062E-25 2.61842E-19
 -1         7-1.90796E-11-1.90796E-11 1.63539E-11-2.16110E-27-6.96835E-27-9.92860E-29
 -1         8-1.27197E-11-1.27197E-11 1.09026E-11-9.24004E-27 2.12228E-27 8.55725E-27
 -1         9-1.27197E-11-1.27197E-11 1.09026E-11-3.96844E-21-7.96555E-21 4.90352E-20
 -1        10-1.27197E-11-1.27197E-11 1.09026E-11 2.98473E-20 4.23706E-21 8.97292E-20
 -1        11-1.27197E-11-1.27197E-11 1.09026E-11 6.29886E-20-2.94607E-20-1.63514E-19
 -1        12-1.90796E-11-1.90796E-11 1.63539E-11-3.33570E-20 4.66647E-20 7.93689E-20
 -1        13-1.90796E-11-1.90796E-11 1.63539E-11 1.73391E-19-6.27040E-20 2.90256E-26
 -1        14-1.27197E-11-1.27197E-11 1.09026E-11 1.04050E-19 1.78257E-20-8.26227E-21
 -1        15-1.27197E-11-1.27197E-11 1.09026E-11 5.89959E-20-1.80837E-21-1.35872E-19
 -1        16-1.27197E-11-1.27197E-11 1.09026E-11 8.03341E-20 6.09560E-20 2.10873E-19
 -1        17-1.27197E-11-1.27197E-11 1.09026E-11 6.71609E-21-5.89928E-23-6.41297E-20
 -1        18-1.90796E-11-1.90796E-11 1.63539E-11 1.59084E-19-6.37978E-20 2.79995E-19
 -1        19-1.90796E-11-1.90796E-11 1.63539E-11-4.64626E-20 1.86643E-19-9.79084E-29
 -1        20-1.27197E-11-1.27197E-11 1.09026E-11-4.25188E-20-2.27277E-20 1.53268E-20
 -1        21-1.27197E-11-1.27197E-11 1.09026E-11 3.21331E-21 5.03385E-21 1.01303E-19
 -1        22-1.27197E-11-1.27197E-11 1.09026E-11-8.71895E-20 7.51070E-20 2.65509E-20
 -1        23-1.27197E-11-1.27197E-11 1.09026E-11 1.40536E-20 2.15990E-20 9.80865E-20
 -1        24-1.90796E-11-1.90796E-11 1.63539E-11 8.27964E-20-4.41987E-20-8.36151E-20
 -1        25-1.90796E-11-1.90796E-11 1.63539E-11 3.33937E-20-2.11968E-19 3.82438E-25
 -1        26-1.27197E-11-1.27197E-11 1.09026E-11 7.54377E-21 3.57121E-20 1.53451E-21
 -1        27-1.27197E-11-1.27197E-11 1.09026E-11 1.38010E-21 1.96346E-20-1.90531E-20
 -1        28-1.27197E-11-1.27197E-11 1.09026E-11 5.74424E-20-2.51149E-19 9.89777E-20
 -1        29-1.27197E-11-1.27197E-11 1.09026E-11-4.32559E-20-1.27213E-19-1.48353E-19
 -1        30-1.90796E-11-1.90796E-11 1.63539E-11 9.21005E-20-2.68678E-19-2.50520E-19
 -1        31-3.81592E-11-3.81592E-11 3.27079E-11 7.59945E-20 2.45221E-19-8.45282E-27
 -1        32-1.90796E-11-1.90796E-11 1.63539E-11 1.59192E-20 3.03378E-19 8.54298E-21
 -1        33-1.90796E-11-1.90796E-11 1.63539E-11 1.06224E-19 6.35994E-20 1.17973E-19
 -1        34-1.90796E-11-1.90796E-11 1.63539E-11 2.27063E-20 1.59399E-19-1.26234E-19
 -1        35-1.90796E-11-1.90796E-11 1.63539E-11 1.16189E-19-2.78801E-20 1.31118E-19
 -1        36-3.81592E-11-3.81592E-11 3.27079E-11 1.33660E-19 8.32261E-20 2.51170E-19
 -1        37-3.81592E-11-3.81592E-11 3.27079E-11 9.62065E-28 1.23131E-26 1.18697E-27
 -1        38-1.90796E-11-1.90796E-11 1.63539E-11 1.55904E-26-1.10948E-27-4.64646E-27
 -1        39-1.90796E-11-1.90796E-11 1.63539E-11-1.19138E-19 2.65459E-20-6.73612E-20
 -1        40-1.90796E-11-1.90796E-11 1.63539E-11 9.42139E-20-1.53017E-20 2.41726E-20
 -1        41-1.90796E-11-1.90796E-11 1.63539E-11-6.42203E-20 8.87898E-20-1.59238E-19
 -1        42-3.81592E-11-3.81592E-11 3.27079E-11 1.03764E-19-1.52073E-19-7.57663E-20
 -1        43-1.90796E-11-1.90796E-11 1.63539E-11 7.99796E-27-4.03746E-27-6.46856E-27
 -1        44-1.27197E-11-1.27197E-11 1.09026E-11 1.54049E-26 2.04224E-27 4.31107E-27
 -1        45-1.27197E-11-1.27197E-11 1.09026E-11-4.83949E-20 9.73171E-21 1.76594E-19
 -1        46-1.27197E-11-1.27197E-11 1.09026E-11-1.97172E-20-5.96401E-21-5.65947E-20
 -1        47-1.27197E-11-1.27197E-11 1.09026E-11 1.42848E-20 2.97325E-20-8.77825E-20
 -1        48-1.90796E-11-1.90796E-11 1.63539E-11-4.74205E-20-2.93715E-20 5.21272E-20
 -1        49-1.90796E-11-1.90796E-11 1.63539E-11 1.41326E-19-2.47011E-21 1.56916E-20
 -1        50-1.27197E-11-1.27197E-11 1.09026E-11 1.15698E-19 1.85724E-20 2.19881E-21
 -1        51-1.27197E-11-1.27197E-11 1.09026E-11 4.74781E-21-7.11918E-20 8.30280E-20
 -1        52-1.27197E-11-1.27197E-11 1.09026E-11-1.66969E-19 4.96091E-20-7.30383E-20
 -1        53-1.27197E-11-1.27197E-11 1.09026E-11 8.25826E-20-5.47373E-20-6.44049E-20
 -1        54-1.90796E-11-1.90796E-11 1.63539E-11-7.86808E-20-7.06215E-20-1.24067E-19
 -1        55-1.90796E-11-1.90796E-11 1.63539E-11-3.78707E-20-5.31358E-20-2.80083E-20
 -1        56-1.27197E-11-1.27197E-11 1.09026E-11-3.76603E-21 8.31614E-20-3.34533E-21
 -1        57-1.27197E-11-1.27197E-11 1.09026E-11-2.72522E-20 1.25916E-19 2.39715E-20
 -1        58-1.27197E-11-1.27197E-11 1.09026E-11-1.34661E-19-1.33281E-19-1.97301E-21
 -1        59-1.27197E-11-1.27197E-11 1.09026E-11 3.17241E-20 2.60905E-20 9.40423E-21
 -1        60-1.90796E-11-1.90796E-11 1.63539E-11 7.46251E-20 2.52260E-21-5.69317E-20
 -1        61-1.90796E-11-1.90796E-11 1.63539E-11 1.78838E-19 1.52629E-19 4.11461E-20
 -1        62-1.27197E-11-1.27197E-11 1.09026E-11 1.10332E-19 1.85950E-19 2.89650E-20
 -1        63-1.27197E-11-1.27197E-11 1.09026E-11 1.30548E-19-3.20004E-19-3.95116E-21
 -1        64-1.27197E-11-1.27197E-11 1.09026E-11 8.84220E-20 2.66209E-19 2.97527E-20
 -1        65-1.27197E-11-1.27197E-11 1.09026E-11 1.97129E-19-1.87217E-19-2.70062E-19
 -1        66-1.90796E-11-1.90796E-11 1.63539E-11 6.33773E-20 2.85420E-19 5.04157E-19
 -1        67-3.81592E-11-3.81592E-11 3.27079E-11-1.21001E-19-1.70890E-19-1.48626E-19
 -1        68-1.90796E-11-1.90796E-11 1.63539E-11-7.38402E-20-2.19967E-19-6.57699E-20
 -1        69-1.90796E-11-1.90796E-11 1.63539E-11-8.10842E-20 4.62687E-19-7.64709E-20
 -1        70-1.90796E-11-1.90796E-11 1.63539E-11-4.78121E-20-3.39023E-19 1.51397E-19
 -1        71-1.90796E-11-1.90796E-11 1.63539E-11-3.59761E-19 1.71766E-19 1.83165E-19
 -1        72-3.81592E-11-3.81592E-11 3.27079E-11 1.63645E-19-2.01020E-19-8.68708E-19
 -3
    1PSTEP                        37          13           1          
  100CL  113 7.57812E-02          72                     0   13           1
 -4  DISP        4    1
 -5  D1          1    2    1    0
 -5  D2          1    2    2    0
 -5  D3          1    2    3    0
 -5  ALL         1    2    0    0    1ALL
 -1         1 0.00000E+00 0.00000E+00 0.00000E+00
 -1         2-2.16518E-08 0.00000E+00 0.00000E+00
 -1         3-1.13672E+00 0.00000E+00 0.00000E+00
 -1         4-1.13672E+00 0.00000E+00 0.00000E+00
 -1         5-2.27344E+00 0.00000E+00 0.00000E+00
 -1         6-2.27344E+00 0.00000E+00 0.00000E+00
 -1         7 0.00000E+00-2.16518E-08 0.00000E+00
 -1         8-2.16518E-08-2.16518E-08 0.00000E+00
 -1         9-1.13672E+00-2.16518E-08 0.00000E+00
 -1        10-1.13672E+00-2.16518E-08 0.00000E+00
 -1        11-2.27344E+00-2.16518E-08 0.00000E+00
 -1        12-2.27344E+00-2.16518E-08 0.00000E+00
 -1        13 0.00000E+00-1.13672E+00 0.00000E+00
 -1        14-2.16518E-08-1.13672E+00 0.00000E+00
 -1        15-1.13672E+00-1.13672E+00 0.00000E+00
 -1        16-1.13672E+00-1.13672E+00 0.00000E+00
 -1        17-2.27344E+00-1.13672E+00 0.00000E+00
 -1        18-2.27344E+00-1.13672E+00 0.00000E+00
 -1        19 0.00000E+00-1.13672E+00 0.00000E+00
 -1        20-2.16518E-08-1.13672E+00 0.00000E+00
 -1        21-1.13672E+00-1.13672E+00 0.00000E+00
 -1        22-1.13672E+00-1.13672E+00 0.00000E+00
 -1        23-2.27344E+00-1.13672E+00 0.00000E+00
 -1        24-2.27344E+00-1.13672E+00 0.00000E+00
 -1        25 0.00000E+00-2.27344E+00 0.00000E+00
 -1        26-2.16518E-08-2.27344E+00 0.00000E+00
 -1        27-1.13672E+00-2.27344E+00 0.00000E+00
 -1        28-1.13672E+00-2.27344E+00 0.00000E+00
 -1        29-2.27344E+00-2.27344E+00 0.00000E+00
 -1        30-2.27344E+00-2.27344E+00 0.00000E+00
 -1        31 0.00000E+00-2.27344E+00 0.00000E+00
 -1        32-2.16518E-08-2.27344E+00 0.00000E+00
 -1        33-1.13672E+00-2.27344E+00 0.00000E+00
 -1        34-1.13672E+00-2.27344E+00 0.00000E+00
 -1        35-2.27344E+00-2.27344E+00 0.00000E+00
 -1        36-2.27344E+00-2.27344E+00 0.00000E+00
 -1        37 0.00000E+00 0.00000E+00 2.59821E-08
 -1        38-2.16518E-08 0.00000E+00 2.59821E-08
 -1        39-1.13672E+00 0.00000E+00 2.59821E-08
 -1        40-1.13672E+00 0.00000E+00 2.59821E-08
 -1        41-2.27344E+00 0.00000E+00 2.59821E-08
 -1        42-2.27344E+00 0.00000E+00 2.59821E-08
 -1        43 0.00000E+00-2.16518E-08 2.59821E-08
 -1        44-2.16518E-08-2.16518E-08 2.59821E-08
 -1        45-1.13672E+00-2.16518E-08 2.59821E-08
 -1        46-1.13672E+00-2.16518E-08 2.59821E-08
 -1        47-2.27344E+00-2.16518E-08 2.59821E-08
 -1        48-2.27344E+00-2.16518E-08 2.59821E-08
 -1        49 0.00000E+00-1.13672E+00 2.59821E-08
 -1        50-2.16518E-08-1.13672E+00 2.59821E-08
 -1        51-1.13672E+00-1.13672E+00 2.59821E-08
 -1        52-1.13672E+00-1.13672E+00 2.59821E-08
 -1        53-2.27344E+00-1.13672E+00 2.59821E-08
 -1        54-2.27344E+00-1.13672E+00 2.59821E-08
 -1        55 0.00000E+00-1.13672E+00 2.59821E-08
 -1        56-2.16518E-08-1.13672E+00 2.59821E-08
 -1        57-1.13672E+00-1.13672E+00 2.59821E-08
 -1        58-1.13672E+00-1.13672E+00 2.59821E-08
 -1        59-2.27344E+00-1.13672E+00 2.59821E-08
 -1        60-2.27344E+00-1.13672E+00 2.59821E-08
 -1        61 0.00000E+00-2.27344E+00 2.59821E-08
 -1        62-2.16518E-08-2.27344E+00 2.59821E-08
 -1        63-1.13672E+00-2.27344E+00 2.59821E-08
 -1        64-1.13672E+00-2.27344E+00 2.59821E-08
 -1        65-2.27344E+00-2.27344E+00 2.59821E-08
 -1        66-2.27344E+00-2.27344E+00 2.59821E-08
 -1        67 0.00000E+00-2.27344E+00 2.59821E-08
 -1        68-2.16518E-08-2.27344E+00 2.59821E-08
 -1        69-1.13672E+00-2.27344E+00 2.59821E-08
 -1        70-1.13672E+00-2.27344E+00 2.59821E-08
 -1        71-2.27344E+00-2.27344E+00 2.59821E-08
 -1        72-2.27344E+00-2.27344E+00 2.59821E-08
 -3
    1PSTEP                        38          13           1          
  100CL  113 7.57812E-02          72                     0   13           1
 -4  STRESS      6    1
 -5  SXX         1    4    1    1
 -5  SYY         1    4    2    2
 -5  SZZ         1    4    3    3
 -5  SXY         1    4    1    2
 -5  SYZ         1    4    2    3
 -5  SZX         1    4    3    1
 -1         1-1.29906E-05-1.29906E-05 4.85519E-21 2.75879E-22 1.23542E-22-9.81831E-23
 -1         2-6.49528E-06-6.49528E-06-2.65453E-21 4.88782E-22-5.69705E-23 9.28085E-22
 -1         3-6.49528E-06-6.49528E-06-1.99703E-14 3.55035E-15 1.07318E-20 1.55501E-14
 -1         4-6.49528E-06-6.49528E-06-6.62734E-15 1.91760E-15-1.02581E-20-1.00288E-14
 -1         5-6.49528E-06-6.49528E-06-6.87240E-15 1.81735E-15-4.20744E-20 6.78515E-14
 -1         6-1.29906E-05-1.29906E-05-3.71390E-15 4.71052E-14-1.09629E-19 2.92683E-14
 -1         7-6.49528E-06-6.49528E-06 9.60501E-22-1.61885E-21-1.65772E-21 9.99264E-23
 -1         8-4.33018E-06-4.33018E-06-1.05371E-21-8.21456E-22 5.79627E-22-2.25625E-22
 -1         9-4.33018E-06-4.33018E-06 6.73556E-16-3.31333E-16-1.07740E-15-8.64380E-15
 -1        10-4.33018E-06-4.33018E-06-7.21254E-15-1.52716E-15 1.68399E-15 1.08625E-14
 -1        11-4.33018E-06-4.33018E-06 7.18262E-14 1.21815E-15-3.44441E-15 2.45272E-14
 -1        12-6.49528E-06-6.49528E-06 8.43445E-14 1.52349E-14 2.50889E-15-6.55342E-14
 -1        13-6.49528E-06-6.49528E-06-3.05612E-14-3.26812E-14 5.16536E-15-1.62667E-20
 -1        14-4.33018E-06-4.33018E-06 1.51976E-14-2.02590E-14-7.54781E-15 1.40040E-15
 -1        15-4.33018E-06-4.33018E-06 1.05606E-14 1.11168E-14 3.82887E-15 1.43791E-15
 -1        16-4.33018E-06-4.33018E-06-3.22449E-14 3.21352E-14-3.13074E-14 1.78734E-15
 -1        17-4.33018E-06-4.33018E-06-3.08071E-14-1.59724E-14-1.73351E-14-3.93257E-15
 -1        18-6.49528E-06-6.49528E-06-1.64575E-15 1.76651E-14 1.00039E-14-4.42071E-14
 -1        19-6.49528E-06-6.49528E-06-3.53536E-14 8.75703E-15-3.41586E-15-3.66397E-21
 -1        20-4.33018E-06-4.33018E-06 2.32900E-14 7.36650E-15 7.07839E-15-8.04254E-16
 -1        21-4.33018E-06-4.33018E-06 1.45299E-14-1.97822E-14-1.67553E-14-9.14220E-15
 -1        22-4.33018E-06-4.33018E-06-7.39446E-15-1.68142E-14 1.92443E-14 1.93812E-14
 -1        23-4.33018E-06-4.33018E-06-3.20477E-14-2.34583E-15 1.14362E-14-1.56011E-14
 -1        24-6.49528E-06-6.49528E-06 3.84313E-15-7.39679E-15-2.23546E-15 6.66179E-14
 -1        25-6.49528E-06-6.49528E-06-2.49132E-14-3.26812E-14-9.49812E-14-2.39605E-20
 -1        26-4.33018E-06-4.33018E-06 2.61255E-14-2.14128E-14-2.14322E-14 1.62631E-15
 -1        27-4.33018E-06-4.33018E-06-1.45361E-14 8.56266E-15-7.12384E-14 1.37866E-14
 -1        28-4.33018E-06-4.33018E-06 8.46196E-15-6.67712E-15-8.04150E-15 1.55131E-14
 -1        29-4.33018E-06-4.33018E-06 1.68430E-14-3.86503E-14 1.25680E-15-3.04311E-15
 -1        30-6.49528E-06-6.49528E-06-1.37379E-14 4.78381E-14-5.32822E-14 2.33296E-14
 -1        31-1.29906E-05-1.29906E-05 7.54267E-14 1.75140E-14 8.74779E-14-1.32903E-20
 -1        32-6.49528E-06-6.49528E-06 5.54758E-14 9.31896E-15 8.39070E-14 2.81118E-15
 -1        33-6.49528E-06-6.49528E-06 3.57848E-14-6.65774E-16 1.28164E-13 1.79537E-14
 -1        34-6.49528E-06-6.49528E-06-2.22943E-14-5.09932E-15-4.26682E-14-2.21463E-14
 -1        35-6.49528E-06-6.49528E-06 1.52242E-13-2.94738E-14-1.03199E-14 4.59814E-14
 -1        36-1.29906E-05-1.29906E-05 1.12622E-14 1.00138E-13 1.01814E-13 7.37470E-14
 -1        37-1.29906E-05-1.29906E-05-2.26937E-22-3.73743E-22 2.07790E-21 9.05212E-22
 -1        38-6.49528E-06-6.49528E-06 2.42760E-21-8.27801E-22-1.03871E-22 1.28650E-21
 -1        39-6.49528E-06-6.49528E-06-2.51671E-14-1.57468E-14 4.56319E-15 6.54292E-15
 -1        40-6.49528E-06-6.49528E-06-3.12574E-15 2.16247E-15-5.50566E-15 3.41605E-14
 -1        41-6.49528E-06-6.49528E-06-7.44275E-15-3.23094E-14 9.88107E-15-2.17158E-14
 -1        42-1.29906E-05-1.29906E-05 2.73826E-14 1.47380E-14-2.96603E-15 4.74638E-14
 -1        43-6.49528E-06-6.49528E-06-4.12163E-21 1.95787E-21-1.21529E-21-5.69252E-22
 -1        44-4.33018E-06-4.33018E-06 6.40334E-22 7.88835E-22 6.43882E-22-3.15246E-22
 -1        45-4.33018E-06-4.33018E-06-6.07482E-15-1.05321E-14 1.96472E-15 1.73870E-14
 -1        46-4.33018E-06-4.33018E-06-8.16198E-15 6.98783E-15-1.98644E-15-2.81256E-14
 -1        47-4.33018E-06-4.33018E-06-2.37854E-14-1.11640E-14 3.14300E-15-2.29574E-14
 -1        48-6.49528E-06-6.49528E-06-4.29542E-14-8.14611E-15 1.02594E-15 6.99708E-14
 -1        49-6.49528E-06-6.49528E-06-5.92637E-15 8.75701E-15-4.29172E-14-3.24106E-15
 -1        50-4.33018E-06-4.33018E-06 3.70815E-15 4.27996E-15-8.17321E-15-7.60293E-16
 -1        51-4.33018E-06-4.33018E-06 2.73858E-14 1.69965E-14-2.32723E-14-1.75700E-14
 -1        52-4.33018E-06-4.33018E-06-2.68130E-15 1.33968E-14 1.29194E-14 1.20480E-14
 -1        53-4.33018E-06-4.33018E-06 4.75996E-14 4.68909E-14 5.22983E-15 5.34499E-15
 -1        54-6.49528E-06-6.49528E-06 9.44749E-14 4.06536E-15-6.24858E-15-4.78140E-16
 -1        55-6.49528E-06-6.49528E-06-1.76635E-14-2.34619E-15 5.29281E-15 3.53137E-15
 -1        56-4.33018E-06-4.33018E-06 7.17077E-15-3.12218E-15 1.01875E-14 1.55000E-15
 -1        57-4.33018E-06-4.33018E-06 9.61322E-15-1.11553E-14 1.08602E-14 1.55406E-14
 -1        58-4.33018E-06-4.33018E-06-3.65430E-14-4.36682E-15-1.64217E-14-8.19144E-15
 -1        59-4.33018E-06-4.33018E-06 2.71069E-14 2.25206E-14-2.26328E-14 2.03664E-14
 -1        60-6.49528E-06-6.49528E-06-9.52802E-14 1.30118E-14 1.88473E-14-3.73133E-14
 -1        61-6.49528E-06-6.49528E-06 5.06189E-14 8.75701E-15 4.15474E-15-3.98758E-15
 -1        62-4.33018E-06-4.33018E-06-4.67192E-15 6.55956E-15-1.33974E-14-1.03206E-15
 -1        63-4.33018E-06-4.33018E-06 1.57802E-14-3.71541E-15 1.71044E-14-1.58277E-14
 -1        64-4.33018E-06-4.33018E-06 4.32987E-15 3.27349E-14-3.48398E-15 1.21696E-14
 -1        65-4.33018E-06-4.33018E-06-4.33690E-14 4.98108E-14-7.40363E-15 2.18947E-16
 -1        66-6.49528E-06-6.49528E-06-8.36451E-14 9.18662E-14 4.82458E-15-2.84825E-14
 -1        67-1.29906E-05-1.29906E-05-2.02583E-13-4.69239E-15 3.02544E-14 1.10841E-15
 -1        68-6.49528E-06-6.49528E-06 6.77536E-14-1.26386E-15-4.88516E-14 3.36539E-15
 -1        69-6.49528E-06-6.49528E-06-6.89285E-14-3.51371E-14-5.74908E-14-1.13043E-14
 -1        70-6.49528E-06-6.49528E-06-5.07063E-14-1.03811E-14 3.27649E-14-1.19982E-14
 -1        71-6.49528E-06-6.49528E-06-3.09573E-14-4.12710E-14 3.06910E-14 5.06713E-14
 -1        72-1.29906E-05-1.29906E-05-4.13042E-14-1.00783E-13-6.07347E-14-5.30345E-14
 -3
    1PSTEP                        39          13           1          
  100CL  113 7.57812E-02          72                     0   13           1
 -4  TOSTRAIN    6    1
 -5  EXX         1    4    1    1
 -5  EYY         1    4    2    2
 -5  EZZ         1    4    3    3
 -5  EXY         1    4    1    2
 -5  EYZ         1    4    2    3
 -5  EZX         1    4    3    1
 -1         1-4.33018E-11-4.33018E-11 3.71159E-11 1.70782E-27 7.64787E-28-6.07800E-28
 -1         2-2.16509E-11-2.16509E-11 1.85579E-11 3.02579E-27-3.52675E-28 5.74529E-27
 -1         3-2.16509E-11-2.16509E-11 1.85579E-11 2.19783E-20 6.64350E-26 9.62627E-20
 -1         4-2.16509E-11-2.16509E-11 1.85579E-11 1.18709E-20-6.35023E-26-6.20831E-20
 -1         5-2.16509E-11-2.16509E-11 1.85579E-11 1.12503E-20-2.60461E-25 4.20033E-19
 -1         6-4.33018E-11-4.33018E-11 3.71159E-11 2.91604E-19-6.78656E-25 1.81185E-19
 -1         7-2.16509E-11-2.16509E-11 1.85579E-11-1.00214E-26-1.02621E-26 6.18592E-28
 -1         8-1.44339E-11-1.44339E-11 1.23720E-11-5.08521E-27 3.58817E-27-1.39673E-27
 -1         9-1.44339E-11-1.44339E-11 1.23720E-11-2.05111E-21-6.66963E-21-5.35093E-20
 -1        10-1.44339E-11-1.44339E-11 1.23720E-11-9.45386E-21 1.04247E-20 6.72440E-20
 -1        11-1.44339E-11-1.44339E-11 1.23720E-11 7.54091E-21-2.13226E-20 1.51835E-19
 -1        12-2.16509E-11-2.16509E-11 1.85579E-11 9.43114E-20 1.55312E-20-4.05688E-19
 -1        13-2.16509E-11-2.16509E-11 1.85579E-11-2.02312E-19 3.19760E-20-1.00699E-25
 -1        14-1.44339E-11-1.44339E-11 1.23720E-11-1.25413E-19-4.67246E-20 8.66917E-21
 -1        15-1.44339E-11-1.44339E-11 1.23720E-11 6.88182E-20 2.37025E-20 8.90133E-21
 -1        16-1.44339E-11-1.44339E-11 1.23720E-11 1.98932E-19-1.93808E-19 1.10645E-20
 -1        17-1.44339E-11-1.44339E-11 1.23720E-11-9.88769E-20-1.07313E-19-2.43445E-20
 -1        18-2.16509E-11-2.16509E-11 1.85579E-11 1.09356E-19 6.19290E-20-2.73663E-19
 -1        19-2.16509E-11-2.16509E-11 1.85579E-11 5.42102E-20-2.11458E-20-2.26817E-26
 -1        20-1.44339E-11-1.44339E-11 1.23720E-11 4.56021E-20 4.38186E-20-4.97871E-21
 -1        21-1.44339E-11-1.44339E-11 1.23720E-11-1.22461E-19-1.03724E-19-5.65946E-20
 -1        22-1.44339E-11-1.44339E-11 1.23720E-11-1.04088E-19 1.19131E-19 1.19979E-19
 -1        23-1.44339E-11-1.44339E-11 1.23720E-11-1.45218E-20 7.07954E-20-9.65780E-20
 -1        24-2.16509E-11-2.16509E-11 1.85579E-11-4.57897E-20-1.38386E-20 4.12397E-19
 -1        25-2.16509E-11-2.16509E-11 1.85579E-11-2.02312E-19-5.87979E-19-1.48327E-25
 -1        26-1.44339E-11-1.44339E-11 1.23720E-11-1.32556E-19-1.32675E-19 1.00677E-20
 -1        27-1.44339E-11-1.44339E-11 1.23720E-11 5.30069E-20-4.41000E-19 8.53453E-20
 -1        28-1.44339E-11-1.44339E-11 1.23720E-11-4.13346E-20-4.97807E-20 9.60338E-20
 -1        29-1.44339E-11-1.44339E-11 1.23720E-11-2.39264E-19 7.78017E-21-1.88383E-20
 -1        30-2.16509E-11-2.16509E-11 1.85579E-11 2.96141E-19-3.29842E-19 1.44421E-19
 -1        31-4.33018E-11-4.33018E-11 3.71159E-11 1.08420E-19 5.41530E-19-8.22732E-26
 -1        32-2.16509E-11-2.16509E-11 1.85579E-11 5.76888E-20 5.19424E-19 1.74025E-20
 -1        33-2.16509E-11-2.16509E-11 1.85579E-11-4.12146E-21 7.93393E-19 1.11142E-19
 -1        34-2.16509E-11-2.16509E-11 1.85579E-11-3.15672E-20-2.64137E-19-1.37096E-19
 -1        35-2.16509E-11-2.16509E-11 1.85579E-11-1.82457E-19-6.38848E-20 2.84647E-19
 -1        36-4.33018E-11-4.33018E-11 3.71159E-11 6.19902E-19 6.30278E-19 4.56529E-19
 -1        37-4.33018E-11-4.33018E-11 3.71159E-11-2.31365E-27 1.28632E-26 5.60370E-27
 -1        38-2.16509E-11-2.16509E-11 1.85579E-11-5.12449E-27-6.43012E-28 7.96404E-27
 -1        39-2.16509E-11-2.16509E-11 1.85579E-11-9.74803E-20 2.82483E-20 4.05038E-20
 -1        40-2.16509E-11-2.16509E-11 1.85579E-11 1.33867E-20-3.40826E-20 2.11469E-19
 -1        41-2.16509E-11-2.16509E-11 1.85579E-11-2.00011E-19 6.11685E-20-1.34431E-19
 -1        42-4.33018E-11-4.33018E-11 3.71159E-11 9.12351E-20-1.83611E-20 2.93824E-19
 -1        43-2.16509E-11-2.16509E-11 1.85579E-11 1.21201E-26-7.52320E-27-3.52394E-27
 -1        44-1.44339E-11-1.44339E-11 1.23720E-11 4.88326E-27 3.98593E-27-1.95152E-27
 -1        45-1.44339E-11-1.44339E-11 1.23720E-11-6.51986E-20 1.21625E-20 1.07634E-19
 -1        46-1.44339E-11-1.44339E-11 1.23720E-11 4.32580E-20-1.22970E-20-1.74111E-19
 -1        47-1.44339E-11-1.44339E-11 1.23720E-11-6.91106E-20 1.94566E-20-1.42117E-19
 -1        48-2.16509E-11-2.16509E-11 1.85579E-11-5.04283E-20 6.35103E-21 4.33152E-19
 -1        49-2.16509E-11-2.16509E-11 1.85579E-11 5.42101E-20-2.65678E-19-2.00637E-20
 -1        50-1.44339E-11-1.44339E-11 1.23720E-11 2.64950E-20-5.05961E-20-4.70657E-21
 -1        51-1.44339E-11-1.44339E-11 1.23720E-11 1.05217E-19-1.44067E-19-1.08767E-19
 -1        52-1.44339E-11-1.44339E-11 1.23720E-11 8.29327E-20 7.99775E-20 7.45830E-20
 -1        53-1.44339E-11-1.44339E-11 1.23720E-11 2.90277E-19 3.23752E-20 3.30880E-20
 -1        54-2.16509E-11-2.16509E-11 1.85579E-11 2.51665E-20-3.86817E-20-2.95991E-21
 -1        55-2.16509E-11-2.16509E-11 1.85579E-11-1.45240E-20 3.27650E-20 2.18609E-20
 -1        56-1.44339E-11-1.44339E-11 1.23720E-11-1.93278E-20 6.30652E-20 9.59524E-21
 -1        57-1.44339E-11-1.44339E-11 1.23720E-11-6.90564E-20 6.72296E-20 9.62037E-20
 -1        58-1.44339E-11-1.44339E-11 1.23720E-11-2.70327E-20-1.01658E-19-5.07089E-20
 -1        59-1.44339E-11-1.44339E-11 1.23720E-11 1.39413E-19-1.40108E-19 1.26078E-19
 -1        60-2.16509E-11-2.16509E-11 1.85579E-11 8.05493E-20 1.16674E-19-2.30987E-19
 -1        61-2.16509E-11-2.16509E-11 1.85579E-11 5.42100E-20 2.57198E-20-2.46850E-20
 -1        62-1.44339E-11-1.44339E-11 1.23720E-11 4.06068E-20-8.29360E-20-6.38893E-21
 -1        63-1.44339E-11-1.44339E-11 1.23720E-11-2.30002E-20 1.05884E-19-9.79810E-20
 -1        64-1.44339E-11-1.44339E-11 1.23720E-11 2.02645E-19-2.15675E-20 7.53356E-20
 -1        65-1.44339E-11-1.44339E-11 1.23720E-11 3.08353E-19-4.58320E-20 1.35538E-21
 -1        66-2.16509E-11-2.16509E-11 1.85579E-11 5.68695E-19 2.98664E-20-1.76320E-19
 -1        67-4.33018E-11-4.33018E-11 3.71159E-11-2.90481E-20 1.87289E-19 6.86159E-21
 -1        68-2.16509E-11-2.16509E-11 1.85579E-11-7.82391E-21-3.02415E-19 2.08334E-20
 -1        69-2.16509E-11-2.16509E-11 1.85579E-11-2.17515E-19-3.55896E-19-6.99789E-20
 -1        70-2.16509E-11-2.16509E-11 1.85579E-11-6.42638E-20 2.02831E-19-7.42748E-20
 -1        71-2.16509E-11-2.16509E-11 1.85579E-11-2.55487E-19 1.89992E-19 3.13680E-19
 -1        72-4.33018E-11-4.33018E-11 3.71159E-11-6.23898E-19-3.75977E-19-3.28309E-19
 -3
    1PSTEP                        40          14           1          
  100CL  114 8.47812E-02          72                     0   14           1
 -4  DISP        4    1
 -5  D1          1    2    1    0
 -5  D2          1    2    2    0
 -5  D3          1    2    3    0
 -5  ALL         1    2    0    0    1ALL
 -1         1 0.00000E+00 0.00000E+00 0.00000E+00
 -1         2-2.42232E-08 0.00000E+00 0.00000E+00
 -1         3-1.27172E+00 0.00000E+00 0.00000E+00
 -1         4-1.27172E+00 0.00000E+00 0.00000E+00
 -1         5-2.54344E+00 0.00000E+00 0.00000E+00
 -1         6-2.54344E+00 0.00000E+00 0.00000E+00
 -1         7 0.00000E+00-2.42232E-08 0.00000E+00
 -1         8-2.42232E-08-2.42232E-08 0.00000E+00
 -1         9-1.27172E+00-2.42232E-08 0.00000E+00
 -1        10-1.27172E+00-2.42232E-08 0.00000E+00
 -1        11-2.54344E+00-2.42232E-08 0.00000E+00
 -1        12-2.54344E+00-2.42232E-08 0.00000E+00
 -1        13 0.00000E+00-1.27172E+00 0.00000E+00
 -1        14-2.42232E-08-1.27172E+00 0.00000E+00
 -1        15-1.27172E+00-1.27172E+00 0.00000E+00
 -1        16-1.27172E+00-1.27172E+00 0.00000E+00
 -1        17-2.54344E+00-1.27172E+00 0.00000E+00
 -1        18-2.54344E+00-1.27172E+00 0.00000E+00
 -1        19 0.00000E+00-1.27172E+00 0.00000E+00
 -1        20-2.42232E-08-1.27172E+00 0.00000E+00
 -1        21-1.27172E+00-1.27172E+00 0.00000E+00
 -1        22-1.27172E+00-1.27172E+00 0.00000E+00
 -1        23-2.54344E+00-1.27172E+00 0.00000E+00
 -1        24-2.54344E+00-1.27172E+00 0.00000E+00
 -1        25 0.00000E+00-2.54344E+00 0.00000E+00
 -1        26-2.42232E-08-2.54344E+00 0.00000E+00
 -1        27-1.27172E+00-2.54344E+00 0.00000E+00
 -1        28-1.27172E+00-2.54344E+00 0.00000E+00
 -1        29-2.54344E+00-2.54344E+00 0.00000E+00
 -1        30-2.54344E+00-2.54344E+00 0.00000E+00
 -1        31 0.00000E+00-2.54344E+00 0.00000E+00
 -1        32-2.42232E-08-2.54344E+00 0.00000E+00
 -1        33-1.27172E+00-2.54344E+00 0.00000E+00
 -1        34-1.27172E+00-2.54344E+00 0.00000E+00
 -1        35-2.54344E+00-2.54344E+00 0.00000E+00
 -1        36-2.54344E+00-2.54344E+00 0.00000E+00
 -1        37 0.00000E+00 0.00000E+00 2.90679E-08
 -1        38-2.42232E-08 0.00000E+00 2.90679E-08
 -1        39-1.27172E+00 0.00000E+00 2.90679E-08
 -1        40-1.27172E+00 0.00000E+00 2.90679E-08
 -1        41-2.54344E+00 0.00000E+00 2.90679E-08
 -1        42-2.54344E+00 0.00000E+00 2.90679E-08
 -1        43 0.00000E+00-2.42232E-08 2.90679E-08
 -1        44-2.42232E-08-2.42232E-08 2.90679E-08
 -1        45-1.27172E+00-2.42232E-08 2.90679E-08
 -1        46-1.27172E+00-2.42232E-08 2.90679E-08
 -1        47-2.54344E+00-2.42232E-08 2.90679E-08
 -1        48-2.54344E+00-2.42232E-08 2.90679E-08
 -1        49 0.00000E+00-1.27172E+00 2.90679E-08
 -1        50-2.42232E-08-1.27172E+00 2.90679E-08
 -1        51-1.27172E+00-1.27172E+00 2.90679E-08
 -1        52-1.27172E+00-1.27172E+00 2.90679E-08
 -1        53-2.54344E+00-1.27172E+00 2.90679E-08
 -1        54-2.54344E+00-1.27172E+00 2.90679E-08
 -1        55 0.00000E+00-1.27172E+00 2.90679E-08
 -1        56-2.42232E-08-1.27172E+00 2.90679E-08
 -1        57-1.27172E+00-1.27172E+00 2.90679E-08
 -1        58-1.27172E+00-1.27172E+00 2.90679E-08
 -1        59-2.54344E+00-1.27172E+00 2.90679E-08
 -1        60-2.54344E+00-1.27172E+00 2.90679E-08
 -1        61 0.00000E+00-2.54344E+00 2.90679E-08
 -1        62-2.42232E-08-2.54344E+00 2.90679E-08
 -1        63-1.27172E+00-2.54344E+00 2.90679E-08
 -1        64-1.27172E+00-2.54344E+00 2.90679E-08
 -1        65-2.54344E+00-2.54344E+00 2.90679E-08
 -1        66-2.54344E+00-2.54344E+00 2.90679E-08
 -1        67 0.00000E+00-2.54344E+00 2.90679E-08
 -1        68-2.42232E-08-2.54344E+00 2.90679E-08
 -1        69-1.27172E+00-2.54344E+00 2.90679E-08
 -1        70-1.27172E+00-2.54344E+00 2.90679E-08
 -1        71-2.54344E+00-2.54344E+00 2.90679E-08
 -1        72-2.54344E+00-2.54344E+00 2.90679E-08
 -3
    1PSTEP                        41          14           1          
  100CL  114 8.47812E-02          72                     0   14           1
 -4  STRESS      6    1
 -5  SXX         1    4    1    1
 -5  SYY         1    4    2    2
 -5  SZZ         1    4    3    3
 -5  SXY         1    4    1    2
 -5  SYZ         1    4    2    3
 -5  SZX         1    4    3    1
 -1         1-1.45333E-05-1.45333E-05 1.38398E-21-1.13615E-22-2.09128E-22 1.79328E-22
 -1         2-7.26667E-06-7.26667E-06 1.42552E-21-8.17401E-23 1.33916E-22-6.44976E-22
 -1         3-7.26667E-06-7.26667E-06-8.63137E-15-8.85600E-16 3.00415E-21 1.21435E-15
 -1         4-7.26667E-06-7.26667E-06-2.00655E-15-3.71164E-14 2.12591E-21-5.54851E-15
 -1         5-7.26667E-06-7.26667E-06 5.24607E-14 2.04616E-14-6.42325E-20 7.43591E-14
 -1         6-1.45333E-05-1.45333E-05 5.25045E-14 8.58892E-14-5.69350E-20-3.59568E-14
 -1         7-7.26667E-06-7.26667E-06 8.88537E-22-5.66156E-23 1.84462E-21-1.04875E-22
 -1         8-4.84445E-06-4.84445E-06 4.61328E-22-5.43655E-23 2.30654E-22 1.09075E-22
 -1         9-4.84445E-06-4.84445E-06-1.93616E-15-3.59761E-15-1.58353E-15 1.01426E-14
 -1        10-4.84445E-06-4.84445E-06-4.81381E-15-2.78588E-14 1.16918E-15-2.64362E-15
 -1        11-4.84445E-06-4.84445E-06 1.49242E-14 3.82384E-14-3.66860E-15-3.30103E-14
 -1        12-7.26667E-06-7.26667E-06-8.48667E-15-9.89720E-15 6.50792E-15 1.01696E-14
 -1        13-7.26667E-06-7.26667E-06 9.30272E-16 1.02643E-15 8.95559E-15-6.84704E-22
 -1        14-4.84445E-06-4.84445E-06 5.58746E-15-6.67886E-16-2.06795E-14-2.35548E-16
 -1        15-4.84445E-06-4.84445E-06 4.90803E-15-1.70668E-14-2.79569E-14-2.14417E-14
 -1        16-4.84445E-06-4.84445E-06-2.10778E-14-1.52662E-14 4.44296E-15 2.61920E-14
 -1        17-4.84445E-06-4.84445E-06 9.92567E-15 2.32085E-14-2.04568E-14 1.14949E-15
 -1        18-7.26667E-06-7.26667E-06-1.85567E-14 2.05615E-14 5.74348E-15-1.19872E-14
 -1        19-7.26667E-06-7.26667E-06 1.31197E-14-5.47384E-16-4.88448E-14-3.67991E-21
 -1        20-4.84445E-06-4.84445E-06 1.02617E-14-1.71709E-15 3.82222E-14 5.49382E-16
 -1        21-4.84445E-06-4.84445E-06-5.14159E-15 1.63222E-15 1.26133E-14 6.73693E-15
 -1        22-4.84445E-06-4.84445E-06 2.30037E-15 3.96214E-15-7.48567E-15-2.35401E-14
 -1        23-4.84445E-06-4.84445E-06-5.53335E-15 2.06140E-14 6.15874E-15-8.20627E-15
 -1        24-7.26667E-06-7.26667E-06 4.16125E-14-1.21770E-14 3.31324E-14 4.74255E-14
 -1        25-7.26667E-06-7.26667E-06 4.54377E-14 1.29972E-19-7.33073E-14 3.65546E-20
 -1        26-4.84445E-06-4.84445E-06 1.49772E-14 4.96625E-15 2.40408E-14 6.65498E-15
 -1        27-4.84445E-06-4.84445E-06 3.82913E-14 1.96712E-14-2.06927E-14-8.89315E-15
 -1        28-4.84445E-06-4.84445E-06-6.71540E-14 1.38324E-15-5.21435E-14-1.53368E-14
 -1        29-4.84445E-06-4.84445E-06-1.26395E-13-8.91172E-15-5.28708E-14 2.04905E-14
 -1        30-7.26667E-06-7.26667E-06-6.29981E-14 2.97176E-14-1.68407E-14 3.64239E-14
 -1        31-1.45333E-05-1.45333E-05 1.64739E-13 2.59822E-19 1.82831E-13-9.03388E-20
 -1        32-7.26667E-06-7.26667E-06 4.64883E-14 7.44938E-15 9.56909E-15-7.90676E-15
 -1        33-7.26667E-06-7.26667E-06 1.21155E-13-1.59614E-14 6.14032E-14 4.96478E-14
 -1        34-7.26667E-06-7.26667E-06-3.66200E-14-2.43232E-14 4.84746E-15 1.10718E-14
 -1        35-7.26667E-06-7.26667E-06-1.24003E-13 2.30634E-14 4.77206E-14-7.26239E-14
 -1        36-1.45333E-05-1.45333E-05 3.68800E-13 7.46037E-14-3.46955E-14 4.07521E-14
 -1        37-1.45333E-05-1.45333E-05 2.85104E-21-1.63096E-22-2.69824E-21 1.29463E-22
 -1        38-7.26667E-06-7.26667E-06-1.31209E-21 1.21471E-21-3.41133E-23-6.69908E-22
 -1        39-7.26667E-06-7.26667E-06-1.37589E-14-3.58215E-14 2.34663E-15 8.52110E-15
 -1        40-7.26667E-06-7.26667E-06 1.53692E-15 3.94372E-14-2.02989E-15-7.37433E-15
 -1        41-7.26667E-06-7.26667E-06 2.89306E-15 3.13463E-14 3.17487E-15 2.40541E-14
 -1        42-1.45333E-05-1.45333E-05 3.81452E-15-1.44061E-13 2.61816E-15-2.95519E-14
 -1        43-7.26667E-06-7.26667E-06 6.91992E-22-2.08761E-21 6.00068E-22 1.19138E-21
 -1        44-4.84445E-06-4.84445E-06 9.50348E-22-5.27567E-22 1.18635E-22 9.73247E-22
 -1        45-4.84445E-06-4.84445E-06-4.28769E-16-2.42363E-14-1.91077E-17 9.29150E-15
 -1        46-4.84445E-06-4.84445E-06 2.47426E-15 3.15165E-14-1.84086E-16 3.68830E-15
 -1        47-4.84445E-06-4.84445E-06-1.48370E-14-6.22293E-14-1.55198E-15-3.43084E-14
 -1        48-7.26667E-06-7.26667E-06-2.79059E-14 6.04925E-14 7.81703E-15 1.05402E-14
 -1        49-7.26667E-06-7.26667E-06-3.44963E-14-5.47378E-16-1.98295E-15 9.28338E-16
 -1        50-4.84445E-06-4.84445E-06 1.67276E-15-6.18182E-16 2.32035E-14 3.83343E-16
 -1        51-4.84445E-06-4.84445E-06-1.43963E-15 2.92411E-14 6.50295E-15-1.34103E-14
 -1        52-4.84445E-06-4.84445E-06-1.62110E-14 8.58418E-15-1.39054E-14-2.09211E-15
 -1        53-4.84445E-06-4.84445E-06-3.77900E-15 9.57708E-15-1.35073E-14 5.45895E-14
 -1        54-7.26667E-06-7.26667E-06-1.40499E-14-2.21647E-14 7.24789E-15 6.98187E-15
 -1        55-7.26667E-06-7.26667E-06-1.98344E-14 1.42980E-14 9.19943E-15-1.14289E-15
 -1        56-4.84445E-06-4.84445E-06 7.99537E-15 9.27874E-15-2.73708E-14-2.12538E-16
 -1        57-4.84445E-06-4.84445E-06 1.36713E-15-2.15858E-14-2.07503E-14 1.09818E-14
 -1        58-4.84445E-06-4.84445E-06 5.80422E-15 7.58019E-15 2.00971E-14 1.26418E-14
 -1        59-4.84445E-06-4.84445E-06 5.68082E-15-1.66270E-14-8.38335E-15-1.39482E-14
 -1        60-7.26667E-06-7.26667E-06-7.00710E-14 4.61879E-14-4.44451E-16-2.80660E-14
 -1        61-7.26667E-06-7.26667E-06-6.91404E-14 4.14520E-20 4.45182E-14 1.80034E-15
 -1        62-4.84445E-06-4.84445E-06-2.85698E-14-1.17303E-14-3.92739E-14 7.85518E-15
 -1        63-4.84445E-06-4.84445E-06-9.23128E-15-7.68351E-15 1.54099E-14-2.79688E-14
 -1        64-4.84445E-06-4.84445E-06 2.92543E-14 8.63423E-15-2.54687E-14 1.41799E-14
 -1        65-4.84445E-06-4.84445E-06 1.14770E-14-8.76248E-14-3.10774E-14-1.04031E-14
 -1        66-7.26667E-06-7.26667E-06 8.29317E-14-6.79411E-14-6.51807E-14 5.15095E-15
 -1        67-1.45333E-05-1.45333E-05-1.39552E-13 8.33559E-20-3.61925E-14-6.72680E-15
 -1        68-7.26667E-06-7.26667E-06-5.63994E-14-1.75955E-14 1.71481E-14-1.12701E-14
 -1        69-7.26667E-06-7.26667E-06 1.20911E-14 1.29762E-14-8.75673E-15 7.06462E-15
 -1        70-7.26667E-06-7.26667E-06 2.75544E-14-2.59491E-14 1.15493E-14 7.25067E-15
 -1        71-7.26667E-06-7.26667E-06 1.25367E-13-1.23853E-13-5.36907E-14-3.76901E-14
 -1        72-1.45333E-05-1.45333E-05 6.32568E-14 9.46038E-14 1.23692E-13-6.40037E-14
 -3
    1PSTEP                        42          14           1          
  100CL  114 8.47812E-02          72                     0   14           1
 -4  TOSTRAIN    6    1
 -5  EXX         1    4    1    1
 -5  EYY         1    4    2    2
 -5  EZZ         1    4    3    3
 -5  EXY         1    4    1    2
 -5  EYZ         1    4    2    3
 -5  EZX         1    4    3    1
 -1         1-4.84445E-11-4.84445E-11 4.15238E-11-7.03330E-28-1.29460E-27 1.11013E-27
 -1         2-2.42222E-11-2.42222E-11 2.07619E-11-5.06010E-28 8.29002E-28-3.99271E-27
 -1         3-2.42222E-11-2.42222E-11 2.07619E-11-5.48229E-21 1.85971E-26 7.51744E-21
 -1         4-2.42222E-11-2.42222E-11 2.07619E-11-2.29768E-19 1.31604E-26-3.43479E-20
 -1         5-2.42222E-11-2.42222E-11 2.07619E-11 1.26667E-19-3.97630E-25 4.60318E-19
 -1         6-4.84445E-11-4.84445E-11 4.15238E-11 5.31695E-19-3.52455E-25-2.22590E-19
 -1         7-2.42222E-11-2.42222E-11 2.07619E-11-3.50477E-28 1.14191E-26-6.49224E-28
 -1         8-1.61482E-11-1.61482E-11 1.38413E-11-3.36548E-28 1.42786E-27 6.75225E-28
 -1         9-1.61482E-11-1.61482E-11 1.38413E-11-2.22709E-20-9.80280E-21 6.27872E-20
 -1        10-1.61482E-11-1.61482E-11 1.38413E-11-1.72459E-19 7.23777E-21-1.63653E-20
 -1        11-1.61482E-11-1.61482E-11 1.38413E-11 2.36714E-19-2.27104E-20-2.04349E-19
 -1        12-2.42222E-11-2.42222E-11 2.07619E-11-6.12684E-20 4.02872E-20 6.29548E-20
 -1        13-2.42222E-11-2.42222E-11 2.07619E-11 6.35407E-21 5.54394E-20-4.23865E-27
 -1        14-1.61482E-11-1.61482E-11 1.38413E-11-4.13453E-21-1.28016E-19-1.45816E-21
 -1        15-1.61482E-11-1.61482E-11 1.38413E-11-1.05652E-19-1.73067E-19-1.32735E-19
 -1        16-1.61482E-11-1.61482E-11 1.38413E-11-9.45048E-20 2.75040E-20 1.62141E-19
 -1        17-1.61482E-11-1.61482E-11 1.38413E-11 1.43672E-19-1.26637E-19 7.11591E-21
 -1        18-2.42222E-11-2.42222E-11 2.07619E-11 1.27285E-19 3.55549E-20-7.42067E-20
 -1        19-2.42222E-11-2.42222E-11 2.07619E-11-3.38857E-21-3.02372E-19-2.27804E-26
 -1        20-1.61482E-11-1.61482E-11 1.38413E-11-1.06296E-20 2.36614E-19 3.40094E-21
 -1        21-1.61482E-11-1.61482E-11 1.38413E-11 1.01042E-20 7.80821E-20 4.17048E-20
 -1        22-1.61482E-11-1.61482E-11 1.38413E-11 2.45275E-20-4.63399E-20-1.45725E-19
 -1        23-1.61482E-11-1.61482E-11 1.38413E-11 1.27611E-19 3.81256E-20-5.08007E-20
 -1        24-2.42222E-11-2.42222E-11 2.07619E-11-7.53813E-20 2.05105E-19 2.93586E-19
 -1        25-2.42222E-11-2.42222E-11 2.07619E-11 8.04586E-25-4.53807E-19 2.26290E-25
 -1        26-1.61482E-11-1.61482E-11 1.38413E-11 3.07435E-20 1.48824E-19 4.11975E-20
 -1        27-1.61482E-11-1.61482E-11 1.38413E-11 1.21774E-19-1.28098E-19-5.50529E-20
 -1        28-1.61482E-11-1.61482E-11 1.38413E-11 8.56294E-21-3.22793E-19-9.49421E-20
 -1        29-1.61482E-11-1.61482E-11 1.38413E-11-5.51678E-20-3.27295E-19 1.26846E-19
 -1        30-2.42222E-11-2.42222E-11 2.07619E-11 1.83966E-19-1.04252E-19 2.25481E-19
 -1        31-4.84445E-11-4.84445E-11 4.15238E-11 1.60842E-24 1.13181E-18-5.59240E-25
 -1        32-2.42222E-11-2.42222E-11 2.07619E-11 4.61152E-20 5.92372E-20-4.89466E-20
 -1        33-2.42222E-11-2.42222E-11 2.07619E-11-9.88086E-20 3.80115E-19 3.07344E-19
 -1        34-2.42222E-11-2.42222E-11 2.07619E-11-1.50572E-19 3.00081E-20 6.85396E-20
 -1        35-2.42222E-11-2.42222E-11 2.07619E-11 1.42773E-19 2.95414E-19-4.49576E-19
 -1        36-4.84445E-11-4.84445E-11 4.15238E-11 4.61832E-19-2.14782E-19 2.52275E-19
 -1        37-4.84445E-11-4.84445E-11 4.15238E-11-1.00964E-27-1.67034E-26 8.01436E-28
 -1        38-2.42222E-11-2.42222E-11 2.07619E-11 7.51963E-27-2.11177E-28-4.14705E-27
 -1        39-2.42222E-11-2.42222E-11 2.07619E-11-2.21752E-19 1.45268E-20 5.27497E-20
 -1        40-2.42222E-11-2.42222E-11 2.07619E-11 2.44135E-19-1.25660E-20-4.56506E-20
 -1        41-2.42222E-11-2.42222E-11 2.07619E-11 1.94049E-19 1.96539E-20 1.48907E-19
 -1        42-4.84445E-11-4.84445E-11 4.15238E-11-8.91808E-19 1.62077E-20-1.82941E-19
 -1        43-2.42222E-11-2.42222E-11 2.07619E-11-1.29233E-26 3.71471E-27 7.37523E-27
 -1        44-1.61482E-11-1.61482E-11 1.38413E-11-3.26589E-27 7.34408E-28 6.02486E-27
 -1        45-1.61482E-11-1.61482E-11 1.38413E-11-1.50035E-19-1.18286E-22 5.75188E-20
 -1        46-1.61482E-11-1.61482E-11 1.38413E-11 1.95102E-19-1.13958E-21 2.28324E-20
 -1        47-1.61482E-11-1.61482E-11 1.38413E-11-3.85229E-19-9.60747E-21-2.12385E-19
 -1        48-2.42222E-11-2.42222E-11 2.07619E-11 3.74478E-19 4.83912E-20 6.52492E-20
 -1        49-2.42222E-11-2.42222E-11 2.07619E-11-3.38853E-21-1.22754E-20 5.74685E-21
 -1        50-1.61482E-11-1.61482E-11 1.38413E-11-3.82684E-21 1.43641E-19 2.37308E-21
 -1        51-1.61482E-11-1.61482E-11 1.38413E-11 1.81016E-19 4.02564E-20-8.30163E-20
 -1        52-1.61482E-11-1.61482E-11 1.38413E-11 5.31402E-20-8.60809E-20-1.29511E-20
 -1        53-1.61482E-11-1.61482E-11 1.38413E-11 5.92867E-20-8.36165E-20 3.37935E-19
 -1        54-2.42222E-11-2.42222E-11 2.07619E-11-1.37210E-19 4.48679E-20 4.32211E-20
 -1        55-2.42222E-11-2.42222E-11 2.07619E-11 8.85114E-20 5.69489E-20-7.07501E-21
 -1        56-1.61482E-11-1.61482E-11 1.38413E-11 5.74398E-20-1.69439E-19-1.31571E-21
 -1        57-1.61482E-11-1.61482E-11 1.38413E-11-1.33626E-19-1.28454E-19 6.79823E-20
 -1        58-1.61482E-11-1.61482E-11 1.38413E-11 4.69250E-20 1.24411E-19 7.82589E-20
 -1        59-1.61482E-11-1.61482E-11 1.38413E-11-1.02929E-19-5.18969E-20-8.63457E-20
 -1        60-2.42222E-11-2.42222E-11 2.07619E-11 2.85925E-19-2.75136E-21-1.73742E-19
 -1        61-2.42222E-11-2.42222E-11 2.07619E-11 2.56607E-25 2.75589E-19 1.11450E-20
 -1        62-1.61482E-11-1.61482E-11 1.38413E-11-7.26164E-20-2.43124E-19 4.86273E-20
 -1        63-1.61482E-11-1.61482E-11 1.38413E-11-4.75646E-20 9.53949E-20-1.73140E-19
 -1        64-1.61482E-11-1.61482E-11 1.38413E-11 5.34500E-20-1.57663E-19 8.77801E-20
 -1        65-1.61482E-11-1.61482E-11 1.38413E-11-5.42439E-19-1.92384E-19-6.43999E-20
 -1        66-2.42222E-11-2.42222E-11 2.07619E-11-4.20588E-19-4.03499E-19 3.18868E-20
 -1        67-4.84445E-11-4.84445E-11 4.15238E-11 5.16013E-25-2.24049E-19-4.16421E-20
 -1        68-2.42222E-11-2.42222E-11 2.07619E-11-1.08925E-19 1.06155E-19-6.97674E-20
 -1        69-2.42222E-11-2.42222E-11 2.07619E-11 8.03288E-20-5.42083E-20 4.37334E-20
 -1        70-2.42222E-11-2.42222E-11 2.07619E-11-1.60637E-19 7.14959E-20 4.48851E-20
 -1        71-2.42222E-11-2.42222E-11 2.07619E-11-7.66708E-19-3.32371E-19-2.33320E-19
 -1        72-4.84445E-11-4.84445E-11 4.15238E-11 5.85643E-19 7.65714E-19-3.96214E-19
 -3
    1PSTEP                        43          15           1          
  100CL  115 9.37812E-02          72                     0   15           1
 -4  DISP        4    1
 -5  D1          1    2    1    0
 -5  D2          1    2    2    0
 -5  D3          1    2    3    0
 -5  ALL         1    2    0    0    1ALL
 -1         1 0.00000E+00 0.00000E+00 0.00000E+00
 -1         2-2.67946E-08 0.00000E+00 0.00000E+00
 -1         3-1.40672E+00 0.00000E+00 0.00000E+00
 -1         4-1.40672E+00 0.00000E+00 0.00000E+00
 -1         5-2.81344E+00 0.00000E+00 0.00000E+00
 -1         6-2.81344E+00 0.00000E+00 0.00000E+00
 -1         7 0.00000E+00-2.67946E-08 0.00000E+00
 -1         8-2.67946E-08-2.67946E-08 0.00000E+00
 -1         9-1.40672E+00-2.67946E-08 0.00000E+00
 -1        10-1.40672E+00-2.67946E-08 0.00000E+00
 -1        11-2.81344E+00-2.67946E-08 0.00000E+00
 -1        12-2.81344E+00-2.67946E-08 0.00000E+00
 -1        13 0.00000E+00-1.40672E+00 0.00000E+00
 -1        14-2.67946E-08-1.40672E+00 0.00000E+00
 -1        15-1.40672E+00-1.40672E+00 0.00000E+00
 -1        16-1.40672E+00-1.40672E+00 0.00000E+00
 -1        17-2.81344E+00-1.40672E+00 0.00000E+00
 -1        18-2.81344E+00-1.40672E+00 0.00000E+00
 -1        19 0.00000E+00-1.40672E+00 0.00000E+00
 -1        20-2.67946E-08-1.40672E+00 0.00000E+00
 -1        21-1.40672E+00-1.40672E+00 0.00000E+00
 -1        22-1.40672E+00-1.40672E+00 0.00000E+00
 -1        23-2.81344E+00-1.40672E+00 0.00000E+00
 -1        24-2.81344E+00-1.40672E+00 0.00000E+00
 -1        25 0.00000E+00-2.81344E+00 0.00000E+00
 -1        26-2.67946E-08-2.81344E+00 0.00000E+00
 -1        27-1.40672E+00-2.81344E+00 0.00000E+00
 -1        28-1.40672E+00-2.81344E+00 0.00000E+00
 -1        29-2.81344E+00-2.81344E+00 0.00000E+00
 -1        30-2.81344E+00-2.81344E+00 0.00000E+00
 -1        31 0.00000E+00-2.81344E+00 0.00000E+00
 -1        32-2.67946E-08-2.81344E+00 0.00000E+00
 -1        33-1.40672E+00-2.81344E+00 0.00000E+00
 -1        34-1.40672E+00-2.81344E+00 0.00000E+00
 -1        35-2.81344E+00-2.81344E+00 0.00000E+00
 -1        36-2.81344E+00-2.81344E+00 0.00000E+00
 -1        37 0.00000E+00 0.00000E+00 3.21536E-08
 -1        38-2.67946E-08 0.00000E+00 3.21536E-08
 -1        39-1.40672E+00 0.00000E+00 3.21536E-08
 -1        40-1.40672E+00 0.00000E+00 3.21536E-08
 -1        41-2.81344E+00 0.00000E+00 3.21536E-08
 -1        42-2.81344E+00 0.00000E+00 3.21536E-08
 -1        43 0.00000E+00-2.67946E-08 3.21536E-08
 -1        44-2.67946E-08-2.67946E-08 3.21536E-08
 -1        45-1.40672E+00-2.67946E-08 3.21536E-08
 -1        46-1.40672E+00-2.67946E-08 3.21536E-08
 -1        47-2.81344E+00-2.67946E-08 3.21536E-08
 -1        48-2.81344E+00-2.67946E-08 3.21536E-08
 -1        49 0.00000E+00-1.40672E+00 3.21536E-08
 -1        50-2.67946E-08-1.40672E+00 3.21536E-08
 -1        51-1.40672E+00-1.40672E+00 3.21536E-08
 -1        52-1.40672E+00-1.40672E+00 3.21536E-08
 -1        53-2.81344E+00-1.40672E+00 3.21536E-08
 -1        54-2.81344E+00-1.40672E+00 3.21536E-08
 -1        55 0.00000E+00-1.40672E+00 3.21536E-08
 -1        56-2.67946E-08-1.40672E+00 3.21536E-08
 -1        57-1.40672E+00-1.40672E+00 3.21536E-08
 -1        58-1.40672E+00-1.40672E+00 3.21536E-08
 -1        59-2.81344E+00-1.40672E+00 3.21536E-08
 -1        60-2.81344E+00-1.40672E+00 3.21536E-08
 -1        61 0.00000E+00-2.81344E+00 3.21536E-08
 -1        62-2.67946E-08-2.81344E+00 3.21536E-08
 -1        63-1.40672E+00-2.81344E+00 3.21536E-08
 -1        64-1.40672E+00-2.81344E+00 3.21536E-08
 -1        65-2.81344E+00-2.81344E+00 3.21536E-08
 -1        66-2.81344E+00-2.81344E+00 3.21536E-08
 -1        67 0.00000E+00-2.81344E+00 3.21536E-08
 -1        68-2.67946E-08-2.81344E+00 3.21536E-08
 -1        69-1.40672E+00-2.81344E+00 3.21536E-08
 -1        70-1.40672E+00-2.81344E+00 3.21536E-08
 -1        71-2.81344E+00-2.81344E+00 3.21536E-08
 -1        72-2.81344E+00-2.81344E+00 3.21536E-08
 -3
    1PSTEP                        44          15           1          
  100CL  115 9.37812E-02          72                     0   15           1
 -4  STRESS      6    1
 -5  SXX         1    4    1    1
 -5  SYY         1    4    2    2
 -5  SZZ         1    4    3    3
 -5  SXY         1    4    1    2
 -5  SYZ         1    4    2    3
 -5  SZX         1    4    3    1
 -1         1-1.60761E-05-1.60761E-05 1.55021E-21-3.60869E-22 1.82892E-22-7.07124E-23
 -1         2-8.03807E-06-8.03807E-06 5.78557E-22-1.65525E-21 5.01792E-23-8.88642E-22
 -1         3-8.03807E-06-8.03807E-06 1.25680E-14-1.32572E-14 1.72049E-21 1.46752E-14
 -1         4-8.03807E-06-8.03807E-06 4.18910E-15 7.02199E-15-2.28533E-21 8.20719E-16
 -1         5-8.03807E-06-8.03807E-06 3.05569E-14-5.41546E-15-4.08446E-20-4.93647E-14
 -1         6-1.60761E-05-1.60761E-05 6.66446E-14 4.04221E-14 1.58768E-20 7.28465E-14
 -1         7-8.03807E-06-8.03807E-06 4.15724E-23 1.29716E-21 2.72407E-22 7.19155E-23
 -1         8-5.35871E-06-5.35871E-06 5.16735E-22-1.18443E-22-4.16791E-22 6.55823E-22
 -1         9-5.35871E-06-5.35871E-06 3.54547E-15-7.71184E-15-6.90831E-16 1.17534E-14
 -1        10-5.35871E-06-5.35871E-06-5.39939E-15 7.19553E-15-1.36516E-16-1.87672E-14
 -1        11-5.35871E-06-5.35871E-06-2.73162E-14 9.01604E-15 5.97451E-16 4.50676E-14
 -1        12-8.03807E-06-8.03807E-06 1.04098E-15-8.58303E-15-9.36942E-16-3.06777E-14
 -1        13-8.03807E-06-8.03807E-06 3.98484E-15 1.73987E-21-1.13200E-14-1.29751E-20
 -1        14-5.35871E-06-5.35871E-06-1.28112E-14 2.45834E-16-3.59147E-15 1.26197E-15
 -1        15-5.35871E-06-5.35871E-06-7.76587E-15-1.06650E-14-1.72898E-14-4.65032E-15
 -1        16-5.35871E-06-5.35871E-06 5.53043E-15-1.17473E-14 1.55048E-14-9.34482E-15
 -1        17-5.35871E-06-5.35871E-06 2.54329E-15 2.35996E-14-5.13100E-15-3.88412E-14
 -1        18-8.03807E-06-8.03807E-06 3.85548E-14-3.06492E-14-3.64821E-14-1.93460E-14
 -1        19-8.03807E-06-8.03807E-06 2.69937E-15 1.80043E-21-5.66608E-15-9.09304E-21
 -1        20-5.35871E-06-5.35871E-06-1.09046E-14 2.45834E-16 2.26067E-14 8.89551E-16
 -1        21-5.35871E-06-5.35871E-06-5.35740E-15-1.90832E-14-4.05766E-15 2.79462E-14
 -1        22-5.35871E-06-5.35871E-06-4.30878E-14-9.80599E-15-6.74865E-15-1.44505E-15
 -1        23-5.35871E-06-5.35871E-06-1.32550E-14-9.82537E-15-8.30716E-15 2.60706E-14
 -1        24-8.03807E-06-8.03807E-06-4.34030E-14 1.11608E-14 4.47455E-14 2.25824E-14
 -1        25-8.03807E-06-8.03807E-06 1.89901E-14 5.86655E-16-3.88049E-14 5.23037E-21
 -1        26-5.35871E-06-5.35871E-06 1.02909E-14 8.27674E-16-1.53080E-14-2.11627E-15
 -1        27-5.35871E-06-5.35871E-06 2.87356E-15 6.16932E-15-1.78002E-14-2.53514E-14
 -1        28-5.35871E-06-5.35871E-06-4.19397E-15 1.40343E-14-2.52024E-14 1.61154E-14
 -1        29-5.35871E-06-5.35871E-06 9.44309E-15 1.14664E-14-2.44918E-14-3.94349E-14
 -1        30-8.03807E-06-8.03807E-06 6.34196E-15 3.66306E-14-1.19908E-14 7.47295E-15
 -1        31-1.60761E-05-1.60761E-05 1.44954E-13-3.13983E-16 1.80598E-13-4.45821E-20
 -1        32-8.03807E-06-8.03807E-06-1.78453E-14 4.97865E-16-4.95044E-15 6.64362E-16
 -1        33-8.03807E-06-8.03807E-06 7.18139E-14 1.90623E-15 8.44790E-14 9.44541E-15
 -1        34-8.03807E-06-8.03807E-06 2.89904E-14 4.84741E-14 4.71050E-14 1.55303E-14
 -1        35-8.03807E-06-8.03807E-06 6.03014E-14-2.62704E-14-3.03059E-14-3.26271E-14
 -1        36-1.60761E-05-1.60761E-05 4.24242E-14-1.48729E-15 1.90167E-14 7.07443E-14
 -1        37-1.60761E-05-1.60761E-05-5.78523E-21 3.22712E-22 6.14237E-22-1.01547E-23
 -1        38-8.03807E-06-8.03807E-06-2.15909E-21 9.86387E-22 3.14785E-22-1.00165E-21
 -1        39-8.03807E-06-8.03807E-06 4.70402E-15 3.92406E-15 1.65035E-15 1.36701E-14
 -1        40-8.03807E-06-8.03807E-06-1.92873E-15-3.26943E-15-3.65023E-16-1.73337E-14
 -1        41-8.03807E-06-8.03807E-06 8.02601E-16-2.26776E-15-6.85750E-15-1.40282E-14
 -1        42-1.60761E-05-1.60761E-05-5.63327E-16 1.69271E-14 1.76851E-14 7.74987E-14
 -1        43-8.03807E-06-8.03807E-06-1.55007E-22-8.07704E-22 4.88080E-22-4.10886E-23
 -1        44-5.35871E-06-5.35871E-06-1.92841E-21 1.15514E-23-2.40387E-22 9.36985E-22
 -1        45-5.35871E-06-5.35871E-06-1.69715E-15 3.71706E-15 4.09402E-16-3.88230E-15
 -1        46-5.35871E-06-5.35871E-06-9.47794E-15 4.10115E-15-3.79862E-16 1.86251E-14
 -1        47-5.35871E-06-5.35871E-06-1.17873E-15 1.26087E-14-3.97419E-15-1.73487E-14
 -1        48-8.03807E-06-8.03807E-06 3.63976E-14-4.08401E-14 7.90558E-15-3.21826E-14
 -1        49-8.03807E-06-8.03807E-06-3.35278E-14-1.01006E-21-4.26997E-15-1.78602E-15
 -1        50-5.35871E-06-5.35871E-06 2.12894E-14-2.75563E-16-6.00625E-15 7.13030E-17
 -1        51-5.35871E-06-5.35871E-06-6.85168E-14-1.86537E-14-1.28301E-14-8.37581E-15
 -1        52-5.35871E-06-5.35871E-06 4.21057E-15 1.25158E-14-8.69523E-15 7.11202E-15
 -1        53-5.35871E-06-5.35871E-06 1.68306E-14-1.43206E-16-8.27330E-15 4.46684E-14
 -1        54-8.03807E-06-8.03807E-06-3.42156E-14-7.15431E-15-1.93111E-14-2.83330E-14
 -1        55-8.03807E-06-8.03807E-06-3.59864E-14-1.23607E-21 3.83087E-15-1.27853E-16
 -1        56-5.35871E-06-5.35871E-06 2.24140E-14-2.75562E-16-6.61541E-15 8.04323E-16
 -1        57-5.35871E-06-5.35871E-06 1.30258E-14-7.95546E-15-5.59693E-17-7.88016E-15
 -1        58-5.35871E-06-5.35871E-06 1.76633E-14 2.59898E-14 1.21992E-14-3.81775E-15
 -1        59-5.35871E-06-5.35871E-06-2.65951E-15-2.04328E-14 2.28916E-14 3.27900E-16
 -1        60-8.03807E-06-8.03807E-06-2.26897E-15 5.43587E-14-6.01420E-15 3.28547E-15
 -1        61-8.03807E-06-8.03807E-06 2.88285E-14-3.04920E-14-2.01606E-14 7.57561E-15
 -1        62-5.35871E-06-5.35871E-06-1.90938E-15-1.63085E-14 9.44311E-15 2.93413E-15
 -1        63-5.35871E-06-5.35871E-06 5.83535E-15 1.98133E-15-1.69511E-14 2.82503E-14
 -1        64-5.35871E-06-5.35871E-06 2.32786E-14 1.77020E-14 7.16417E-15 7.13080E-15
 -1        65-5.35871E-06-5.35871E-06-3.85624E-14-2.57747E-14-5.31361E-15-3.71842E-14
 -1        66-8.03807E-06-8.03807E-06 1.30656E-13-2.62707E-14 1.56797E-14 8.93907E-15
 -1        67-1.60761E-05-1.60761E-05-2.49881E-13 1.63409E-14-4.29814E-15-8.10910E-15
 -1        68-8.03807E-06-8.03807E-06 2.96092E-14 1.41996E-14-5.04777E-14-3.39016E-15
 -1        69-8.03807E-06-8.03807E-06 3.91364E-14 1.72593E-14-1.93301E-14-4.21351E-14
 -1        70-8.03807E-06-8.03807E-06-1.04717E-15-2.67685E-14-9.42799E-15-2.75506E-14
 -1        71-8.03807E-06-8.03807E-06 2.69913E-14 2.90465E-14 4.63671E-14 3.47708E-14
 -1        72-1.60761E-05-1.60761E-05 9.54379E-14-8.69400E-14-3.45890E-14-5.99149E-14
 -3
    1PSTEP                        45          15           1          
  100CL  115 9.37812E-02          72                     0   15           1
 -4  TOSTRAIN    6    1
 -5  EXX         1    4    1    1
 -5  EYY         1    4    2    2
 -5  EZZ         1    4    3    3
 -5  EXY         1    4    1    2
 -5  EYZ         1    4    2    3
 -5  EZX         1    4    3    1
 -1         1-5.35871E-11-5.35871E-11 4.59318E-11-2.23395E-27 1.13219E-27-4.37743E-28
 -1         2-2.67936E-11-2.67936E-11 2.29659E-11-1.02468E-26 3.10633E-28-5.50111E-27
 -1         3-2.67936E-11-2.67936E-11 2.29659E-11-8.20682E-20 1.06507E-26 9.08467E-20
 -1         4-2.67936E-11-2.67936E-11 2.29659E-11 4.34694E-20-1.41473E-26 5.08064E-21
 -1         5-2.67936E-11-2.67936E-11 2.29659E-11-3.35243E-20-2.52848E-25-3.05591E-19
 -1         6-5.35871E-11-5.35871E-11 4.59318E-11 2.50232E-19 9.82849E-26 4.50954E-19
 -1         7-2.67936E-11-2.67936E-11 2.29659E-11 8.03001E-27 1.68633E-27 4.45191E-28
 -1         8-1.78624E-11-1.78624E-11 1.53106E-11-7.33218E-28-2.58014E-27 4.05985E-27
 -1         9-1.78624E-11-1.78624E-11 1.53106E-11-4.77399E-20-4.27657E-21 7.27593E-20
 -1        10-1.78624E-11-1.78624E-11 1.53106E-11 4.45437E-20-8.45097E-22-1.16178E-19
 -1        11-1.78624E-11-1.78624E-11 1.53106E-11 5.58136E-20 3.69850E-21 2.78990E-19
 -1        12-2.67936E-11-2.67936E-11 2.29659E-11-5.31330E-20-5.80012E-21-1.89910E-19
 -1        13-2.67936E-11-2.67936E-11 2.29659E-11 1.07707E-26-7.00762E-20-8.03219E-26
 -1        14-1.78624E-11-1.78624E-11 1.53106E-11 1.52183E-21-2.22329E-20 7.81222E-21
 -1        15-1.78624E-11-1.78624E-11 1.53106E-11-6.60214E-20-1.07032E-19-2.87877E-20
 -1        16-1.78624E-11-1.78624E-11 1.53106E-11-7.27214E-20 9.59823E-20-5.78489E-20
 -1        17-1.78624E-11-1.78624E-11 1.53106E-11 1.46093E-19-3.17633E-20-2.40446E-19
 -1        18-2.67936E-11-2.67936E-11 2.29659E-11-1.89733E-19-2.25842E-19-1.19761E-19
 -1        19-2.67936E-11-2.67936E-11 2.29659E-11 1.11455E-26-3.50757E-20-5.62902E-26
 -1        20-1.78624E-11-1.78624E-11 1.53106E-11 1.52183E-21 1.39946E-19 5.50674E-21
 -1        21-1.78624E-11-1.78624E-11 1.53106E-11-1.18134E-19-2.51189E-20 1.73000E-19
 -1        22-1.78624E-11-1.78624E-11 1.53106E-11-6.07038E-20-4.17773E-20-8.94554E-21
 -1        23-1.78624E-11-1.78624E-11 1.53106E-11-6.08237E-20-5.14253E-20 1.61390E-19
 -1        24-2.67936E-11-2.67936E-11 2.29659E-11 6.90908E-20 2.76996E-19 1.39796E-19
 -1        25-2.67936E-11-2.67936E-11 2.29659E-11 3.63167E-21-2.40221E-19 3.23785E-26
 -1        26-1.78624E-11-1.78624E-11 1.53106E-11 5.12370E-21-9.47637E-20-1.31007E-20
 -1        27-1.78624E-11-1.78624E-11 1.53106E-11 3.81910E-20-1.10192E-19-1.56937E-19
 -1        28-1.78624E-11-1.78624E-11 1.53106E-11 8.68793E-20-1.56015E-19 9.97620E-20
 -1        29-1.78624E-11-1.78624E-11 1.53106E-11 7.09827E-20-1.51616E-19-2.44121E-19
 -1        30-2.67936E-11-2.67936E-11 2.29659E-11 2.26761E-19-7.42289E-20 4.62611E-20
 -1        31-5.35871E-11-5.35871E-11 4.59318E-11-1.94371E-21 1.11799E-18-2.75985E-25
 -1        32-2.67936E-11-2.67936E-11 2.29659E-11 3.08202E-21-3.06456E-20 4.11272E-21
 -1        33-2.67936E-11-2.67936E-11 2.29659E-11 1.18004E-20 5.22965E-19 5.84716E-20
 -1        34-2.67936E-11-2.67936E-11 2.29659E-11 3.00078E-19 2.91602E-19 9.61399E-20
 -1        35-2.67936E-11-2.67936E-11 2.29659E-11-1.62626E-19-1.87608E-19-2.01977E-19
 -1        36-5.35871E-11-5.35871E-11 4.59318E-11-9.20704E-21 1.17723E-19 4.37941E-19
 -1        37-5.35871E-11-5.35871E-11 4.59318E-11 1.99774E-27 3.80242E-27-6.28624E-29
 -1        38-2.67936E-11-2.67936E-11 2.29659E-11 6.10620E-27 1.94867E-27-6.20066E-27
 -1        39-2.67936E-11-2.67936E-11 2.29659E-11 2.42918E-20 1.02165E-20 8.46243E-20
 -1        40-2.67936E-11-2.67936E-11 2.29659E-11-2.02393E-20-2.25966E-21-1.07304E-19
 -1        41-2.67936E-11-2.67936E-11 2.29659E-11-1.40385E-20-4.24512E-20-8.68410E-20
 -1        42-5.35871E-11-5.35871E-11 4.59318E-11 1.04787E-19 1.09479E-19 4.79754E-19
 -1        43-2.67936E-11-2.67936E-11 2.29659E-11-5.00007E-27 3.02145E-27-2.54358E-28
 -1        44-1.78624E-11-1.78624E-11 1.53106E-11 7.15086E-29-1.48811E-27 5.80038E-27
 -1        45-1.78624E-11-1.78624E-11 1.53106E-11 2.30104E-20 2.53440E-21-2.40333E-20
 -1        46-1.78624E-11-1.78624E-11 1.53106E-11 2.53881E-20-2.35153E-21 1.15298E-19
 -1        47-1.78624E-11-1.78624E-11 1.53106E-11 7.80541E-20-2.46021E-20-1.07397E-19
 -1        48-2.67936E-11-2.67936E-11 2.29659E-11-2.52820E-19 4.89393E-20-1.99225E-19
 -1        49-2.67936E-11-2.67936E-11 2.29659E-11-6.25277E-27-2.64331E-20-1.10563E-20
 -1        50-1.78624E-11-1.78624E-11 1.53106E-11-1.70586E-21-3.71815E-20 4.41400E-22
 -1        51-1.78624E-11-1.78624E-11 1.53106E-11-1.15475E-19-7.94244E-20-5.18503E-20
 -1        52-1.78624E-11-1.78624E-11 1.53106E-11 7.74785E-20-5.38276E-20 4.40268E-20
 -1        53-1.78624E-11-1.78624E-11 1.53106E-11-8.86516E-22-5.12157E-20 2.76519E-19
 -1        54-2.67936E-11-2.67936E-11 2.29659E-11-4.42886E-20-1.19545E-19-1.75395E-19
 -1        55-2.67936E-11-2.67936E-11 2.29659E-11-7.65187E-27 2.37149E-20-7.91469E-22
 -1        56-1.78624E-11-1.78624E-11 1.53106E-11-1.70586E-21-4.09526E-20 4.97914E-21
 -1        57-1.78624E-11-1.78624E-11 1.53106E-11-4.92481E-20-3.46477E-22-4.87820E-20
 -1        58-1.78624E-11-1.78624E-11 1.53106E-11 1.60889E-19 7.55188E-20-2.36337E-20
 -1        59-1.78624E-11-1.78624E-11 1.53106E-11-1.26489E-19 1.41710E-19 2.02986E-21
 -1        60-2.67936E-11-2.67936E-11 2.29659E-11 3.36507E-19-3.72308E-20 2.03386E-20
 -1        61-2.67936E-11-2.67936E-11 2.29659E-11-1.88760E-19-1.24804E-19 4.68966E-20
 -1        62-1.78624E-11-1.78624E-11 1.53106E-11-1.00958E-19 5.84574E-20 1.81637E-20
 -1        63-1.78624E-11-1.78624E-11 1.53106E-11 1.22654E-20-1.04935E-19 1.74883E-19
 -1        64-1.78624E-11-1.78624E-11 1.53106E-11 1.09584E-19 4.43496E-20 4.41431E-20
 -1        65-1.78624E-11-1.78624E-11 1.53106E-11-1.59558E-19-3.28938E-20-2.30188E-19
 -1        66-2.67936E-11-2.67936E-11 2.29659E-11-1.62628E-19 9.70649E-20 5.53371E-20
 -1        67-5.35871E-11-5.35871E-11 4.59318E-11 1.01158E-19-2.66076E-20-5.01992E-20
 -1        68-2.67936E-11-2.67936E-11 2.29659E-11 8.79022E-20-3.12481E-19-2.09867E-20
 -1        69-2.67936E-11-2.67936E-11 2.29659E-11 1.06843E-19-1.19663E-19-2.60836E-19
 -1        70-2.67936E-11-2.67936E-11 2.29659E-11-1.65709E-19-5.83638E-20-1.70551E-19
 -1        71-2.67936E-11-2.67936E-11 2.29659E-11 1.79812E-19 2.87035E-19 2.15248E-19
 -1        72-5.35871E-11-5.35871E-11 4.59318E-11-5.38200E-19-2.14122E-19-3.70902E-19
 -3
    1PSTEP                        46          16           1          
  100CL  116 1.02781E-01          72                     0   16           1
 -4  DISP        4    1
 -5  D1          1    2    1    0
 -5  D2          1    2    2    0
 -5  D3          1    2    3    0
 -5  ALL         1    2    0    0    1ALL
 -1         1 0.00000E+00 0.00000E+00 0.00000E+00
 -1         2-2.93661E-08 0.00000E+00 0.00000E+00
 -1         3-1.54172E+00 0.00000E+00 0.00000E+00
 -1         4-1.54172E+00 0.00000E+00 0.00000E+00
 -1         5-3.08344E+00 0.00000E+00 0.00000E+00
 -1         6-3.08344E+00 0.00000E+00 0.00000E+00
 -1         7 0.00000E+00-2.93661E-08 0.00000E+00
 -1         8-2.93661E-08-2.93661E-08 0.00000E+00
 -1         9-1.54172E+00-2.93661E-08 0.00000E+00
 -1        10-1.54172E+00-2.93661E-08 0.00000E+00
 -1        11-3.08344E+00-2.93661E-08 0.00000E+00
 -1        12-3.08344E+00-2.93661E-08 0.00000E+00
 -1        13 0.00000E+00-1.54172E+00 0.00000E+00
 -1        14-2.93661E-08-1.54172E+00 0.00000E+00
 -1        15-1.54172E+00-1.54172E+00 0.00000E+00
 -1        16-1.54172E+00-1.54172E+00 0.00000E+00
 -1        17-3.08344E+00-1.54172E+00 0.00000E+00
 -1        18-3.08344E+00-1.54172E+00 0.00000E+00
 -1        19 0.00000E+00-1.54172E+00 0.00000E+00
 -1        20-2.93661E-08-1.54172E+00 0.00000E+00
 -1        21-1.54172E+00-1.54172E+00 0.00000E+00
 -1        22-1.54172E+00-1.54172E+00 0.00000E+00
 -1        23-3.08344E+00-1.54172E+00 0.00000E+00
 -1        24-3.08344E+00-1.54172E+00 0.00000E+00
 -1        25 0.00000E+00-3.08344E+00 0.00000E+00
 -1        26-2.93661E-08-3.08344E+00 0.00000E+00
 -1        27-1.54172E+00-3.08344E+00 0.00000E+00
 -1        28-1.54172E+00-3.08344E+00 0.00000E+00
 -1        29-3.08344E+00-3.08344E+00 0.00000E+00
 -1        30-3.08344E+00-3.08344E+00 0.00000E+00
 -1        31 0.00000E+00-3.08344E+00 0.00000E+00
 -1        32-2.93661E-08-3.08344E+00 0.00000E+00
 -1        33-1.54172E+00-3.08344E+00 0.00000E+00
 -1        34-1.54172E+00-3.08344E+00 0.00000E+00
 -1        35-3.08344E+00-3.08344E+00 0.00000E+00
 -1        36-3.08344E+00-3.08344E+00 0.00000E+00
 -1        37 0.00000E+00 0.00000E+00 3.52393E-08
 -1        38-2.93661E-08 0.00000E+00 3.52393E-08
 -1        39-1.54172E+00 0.00000E+00 3.52393E-08
 -1        40-1.54172E+00 0.00000E+00 3.52393E-08
 -1        41-3.08344E+00 0.00000E+00 3.52393E-08
 -1        42-3.08344E+00 0.00000E+00 3.52393E-08
 -1        43 0.00000E+00-2.93661E-08 3.52393E-08
 -1        44-2.93661E-08-2.93661E-08 3.52393E-08
 -1        45-1.54172E+00-2.93661E-08 3.52393E-08
 -1        46-1.54172E+00-2.93661E-08 3.52393E-08
 -1        47-3.08344E+00-2.93661E-08 3.52393E-08
 -1        48-3.08344E+00-2.93661E-08 3.52393E-08
 -1        49 0.00000E+00-1.54172E+00 3.52393E-08
 -1        50-2.93661E-08-1.54172E+00 3.52393E-08
 -1        51-1.54172E+00-1.54172E+00 3.52393E-08
 -1        52-1.54172E+00-1.54172E+00 3.52393E-08
 -1        53-3.08344E+00-1.54172E+00 3.52393E-08
 -1        54-3.08344E+00-1.54172E+00 3.52393E-08
 -1        55 0.00000E+00-1.54172E+00 3.52393E-08
 -1        56-2.93661E-08-1.54172E+00 3.52393E-08
 -1        57-1.54172E+00-1.54172E+00 3.52393E-08
 -1        58-1.54172E+00-1.54172E+00 3.52393E-08
 -1        59-3.08344E+00-1.54172E+00 3.52393E-08
 -1        60-3.08344E+00-1.54172E+00 3.52393E-08
 -1        61 0.00000E+00-3.08344E+00 3.52393E-08
 -1        62-2.93661E-08-3.08344E+00 3.52393E-08
 -1        63-1.54172E+00-3.08344E+00 3.52393E-08
 -1        64-1.54172E+00-3.08344E+00 3.52393E-08
 -1        65-3.08344E+00-3.08344E+00 3.52393E-08
 -1        66-3.08344E+00-3.08344E+00 3.52393E-08
 -1        67 0.00000E+00-3.08344E+00 3.52393E-08
 -1        68-2.93661E-08-3.08344E+00 3.52393E-08
 -1        69-1.54172E+00-3.08344E+00 3.52393E-08
 -1        70-1.54172E+00-3.08344E+00 3.52393E-08
 -1        71-3.08344E+00-3.08344E+00 3.52393E-08
 -1        72-3.08344E+00-3.08344E+00 3.52393E-08
 -3
    1PSTEP                        47          16           1          
  100CL  116 1.02781E-01          72                     0   16           1
 -4  STRESS      6    1
 -5  SXX         1    4    1    1
 -5  SYY         1    4    2    2
 -5  SZZ         1    4    3    3
 -5  SXY         1    4    1    2
 -5  SYZ         1    4    2    3
 -5  SZX         1    4    3    1
 -1         1-1.76189E-05-1.76189E-05 2.31409E-21 9.58238E-23 2.17879E-22 4.71486E-23
 -1         2-8.80947E-06-8.80947E-06 1.15705E-21 9.87979E-22 8.27148E-23 4.83911E-22
 -1         3-8.80947E-06-8.80947E-06 4.88348E-15 1.01304E-14 1.58346E-21 2.30552E-14
 -1         4-8.80947E-06-8.80947E-06 1.01276E-14 7.69479E-15-1.69154E-20-3.04545E-14
 -1         5-8.80947E-06-8.80947E-06-2.76004E-14 3.37967E-14-8.18727E-20 8.06401E-14
 -1         6-1.76189E-05-1.76189E-05-1.46893E-13-2.58419E-14 9.90834E-20-1.36868E-13
 -1         7-8.80947E-06-8.80947E-06-3.10048E-22-1.69982E-22 3.59691E-22-5.22740E-24
 -1         8-5.87298E-06-5.87298E-06-2.06699E-22 5.13390E-22 5.83497E-22-1.68441E-22
 -1         9-5.87298E-06-5.87298E-06-3.91372E-15 1.43686E-14-2.17609E-15 1.23399E-15
 -1        10-5.87298E-06-5.87298E-06-2.00935E-14 2.91463E-15 2.17328E-15 2.04922E-14
 -1        11-5.87298E-06-5.87298E-06 2.94579E-14-1.41353E-14-9.45429E-15-1.68486E-14
 -1        12-8.80947E-06-8.80947E-06 1.60759E-14 6.21450E-14 1.59622E-14 3.86016E-15
 -1        13-8.80947E-06-8.80947E-06 1.13932E-15 5.86664E-16 1.57809E-14-4.85839E-21
 -1        14-5.87298E-06-5.87298E-06-7.89543E-15 2.52226E-15-1.53390E-14 1.00874E-15
 -1        15-5.87298E-06-5.87298E-06-6.68730E-15-7.43094E-15-5.41940E-15-3.39904E-14
 -1        16-5.87298E-06-5.87298E-06-3.94342E-14-1.28025E-15-6.90408E-15 8.76898E-15
 -1        17-5.87298E-06-5.87298E-06-4.33257E-14 2.82835E-14 1.77320E-14 7.63941E-14
 -1        18-8.80947E-06-8.80947E-06-5.36774E-14 2.80381E-14-2.85081E-14-1.38337E-13
 -1        19-8.80947E-06-8.80947E-06-6.10761E-15-1.56982E-16 2.95265E-14 6.29680E-21
 -1        20-5.87298E-06-5.87298E-06-7.95339E-15 2.02649E-15 1.58243E-14 1.13938E-15
 -1        21-5.87298E-06-5.87298E-06-5.90614E-15-2.97647E-14 1.19933E-14 3.90794E-14
 -1        22-5.87298E-06-5.87298E-06-1.34994E-14 9.54136E-16-2.46200E-15-5.68758E-15
 -1        23-5.87298E-06-5.87298E-06 1.73658E-14 3.53469E-14-1.82494E-14-7.91557E-14
 -1        24-8.80947E-06-8.80947E-06-5.15744E-16-4.91504E-14 3.06622E-14 4.00420E-14
 -1        25-8.80947E-06-8.80947E-06-1.03394E-14-9.92984E-15-4.13701E-14-1.38501E-19
 -1        26-5.87298E-06-5.87298E-06-2.60952E-14-7.36380E-15-5.39323E-14 2.75197E-15
 -1        27-5.87298E-06-5.87298E-06-9.55324E-15-1.22196E-14-5.32975E-14 2.34673E-16
 -1        28-5.87298E-06-5.87298E-06-9.39354E-17-1.47021E-14-1.32049E-14 1.47003E-15
 -1        29-5.87298E-06-5.87298E-06-1.21598E-13-2.48162E-14-5.57998E-14 2.30628E-14
 -1        30-8.80947E-06-8.80947E-06 1.03565E-13-1.16615E-14 4.45114E-14-5.73347E-14
 -1        31-1.76189E-05-1.76189E-05 9.60902E-14 2.15785E-14-6.66541E-14-1.65142E-19
 -1        32-8.80947E-06-8.80947E-06 4.06787E-14 9.67340E-15 5.42092E-15 1.14255E-14
 -1        33-8.80947E-06-8.80947E-06 1.08930E-13-1.33400E-15 3.74794E-14-2.96854E-14
 -1        34-8.80947E-06-8.80947E-06 7.46513E-14 1.25634E-14 5.04648E-14-3.91627E-16
 -1        35-8.80947E-06-8.80947E-06-1.29513E-14 8.74979E-14-2.21316E-14-7.71244E-14
 -1        36-1.76189E-05-1.76189E-05 1.34129E-13-6.48326E-14 9.85764E-14 3.99427E-14
 -1        37-1.76189E-05-1.76189E-05 2.31409E-21-2.67937E-22 1.18545E-21 3.42225E-22
 -1        38-8.80947E-06-8.80947E-06 1.15705E-21-1.10229E-21-2.61843E-22 5.59807E-22
 -1        39-8.80947E-06-8.80947E-06-1.72317E-14 4.32446E-15 6.35282E-15 5.60185E-15
 -1        40-8.80947E-06-8.80947E-06 1.71301E-15 1.01304E-14-5.45272E-15 5.25503E-14
 -1        41-8.80947E-06-8.80947E-06 9.13578E-14 1.76130E-14-3.47929E-15-1.88254E-14
 -1        42-1.76189E-05-1.76189E-05 2.17626E-13-1.92139E-13 7.22978E-15 1.40477E-14
 -1        43-8.80947E-06-8.80947E-06-3.10048E-22 1.21399E-21 3.08731E-22-9.56924E-22
 -1        44-5.87298E-06-5.87298E-06-2.06699E-22 1.63782E-22 4.49314E-22-6.24656E-22
 -1        45-5.87298E-06-5.87298E-06-1.53733E-14-3.04599E-14 2.05912E-15 1.25780E-14
 -1        46-5.87298E-06-5.87298E-06-2.24194E-14 2.04577E-14-1.46185E-15-4.71767E-14
 -1        47-5.87298E-06-5.87298E-06-5.54285E-14-6.40607E-15-1.17738E-14-8.00322E-14
 -1        48-8.80947E-06-8.80947E-06-4.79525E-14 7.50268E-14 1.95770E-14 9.53836E-14
 -1        49-8.80947E-06-8.80947E-06-3.50892E-14-3.04920E-14-1.46161E-15-3.08132E-15
 -1        50-5.87298E-06-5.87298E-06 2.04937E-14-1.80140E-14-1.60604E-14-1.04547E-15
 -1        51-5.87298E-06-5.87298E-06-7.54837E-15-1.73730E-14-2.91647E-14 5.17625E-15
 -1        52-5.87298E-06-5.87298E-06 2.93953E-14 2.64812E-14-2.32575E-15 1.07614E-14
 -1        53-5.87298E-06-5.87298E-06 9.79183E-15-3.65589E-14-1.77609E-14 4.93774E-14
 -1        54-8.80947E-06-8.80947E-06 1.92702E-14 6.62919E-14-1.68575E-14-4.30007E-14
 -1        55-8.80947E-06-8.80947E-06-4.19246E-14 8.17042E-15-1.21838E-14-2.17318E-16
 -1        56-5.87298E-06-5.87298E-06 2.07100E-14 7.76098E-15-6.89671E-15 9.94499E-16
 -1        57-5.87298E-06-5.87298E-06 8.26264E-14-1.07602E-14 2.45350E-14-2.92843E-14
 -1        58-5.87298E-06-5.87298E-06 4.80324E-14-6.79871E-15-8.99448E-15 2.52896E-15
 -1        59-5.87298E-06-5.87298E-06-1.60984E-14-1.79627E-14-3.49009E-15-7.26582E-15
 -1        60-8.80947E-06-8.80947E-06-4.89091E-14 1.77780E-14 9.62434E-15 4.48538E-14
 -1        61-8.80947E-06-8.80947E-06-2.23398E-14-1.95457E-14-1.12750E-13-5.52887E-15
 -1        62-5.87298E-06-5.87298E-06-4.06632E-14-6.96337E-15-2.82937E-14-9.33852E-16
 -1        63-5.87298E-06-5.87298E-06 4.46166E-15-3.63200E-15-7.34790E-14-1.90251E-14
 -1        64-5.87298E-06-5.87298E-06-3.57446E-14-5.31320E-15-8.40400E-15 3.78794E-15
 -1        65-5.87298E-06-5.87298E-06 2.27908E-14 1.50432E-14-5.81878E-14 2.08589E-14
 -1        66-8.80947E-06-8.80947E-06-1.19114E-13-5.40194E-15-4.79780E-14 2.33013E-14
 -1        67-1.76189E-05-1.76189E-05 1.02739E-13-5.01946E-14 2.42684E-13 6.09199E-15
 -1        68-8.80947E-06-8.80947E-06 3.41515E-14-1.59967E-14 8.29247E-15 1.44716E-14
 -1        69-8.80947E-06-8.80947E-06 2.58992E-14-1.35214E-14 1.20962E-13 4.19994E-14
 -1        70-8.80947E-06-8.80947E-06 3.65646E-14-4.10980E-15-5.60884E-14 1.26560E-14
 -1        71-8.80947E-06-8.80947E-06 1.06571E-14-7.04344E-14 1.60103E-14-6.80106E-14
 -1        72-1.76189E-05-1.76189E-05-8.29047E-14 8.10162E-14 9.94246E-14 1.46426E-13
 -3
    1PSTEP                        48          16           1          
  100CL  116 1.02781E-01          72                     0   16           1
 -4  TOSTRAIN    6    1
 -5  EXX         1    4    1    1
 -5  EYY         1    4    2    2
 -5  EZZ         1    4    3    3
 -5  EXY         1    4    1    2
 -5  EYZ         1    4    2    3
 -5  EZX         1    4    3    1
 -1         1-5.87298E-11-5.87298E-11 5.03398E-11 5.93195E-28 1.34877E-27 2.91872E-28
 -1         2-2.93649E-11-2.93649E-11 2.51699E-11 6.11606E-27 5.12044E-28 2.99564E-27
 -1         3-2.93649E-11-2.93649E-11 2.51699E-11 6.27119E-20 9.80238E-27 1.42723E-19
 -1         4-2.93649E-11-2.93649E-11 2.51699E-11 4.76344E-20-1.04714E-25-1.88528E-19
 -1         5-2.93649E-11-2.93649E-11 2.51699E-11 2.09218E-19-5.06831E-25 4.99201E-19
 -1         6-5.87298E-11-5.87298E-11 5.03398E-11-1.59974E-19 6.13373E-25-8.47279E-19
 -1         7-2.93649E-11-2.93649E-11 2.51699E-11-1.05227E-27 2.22666E-27-3.23601E-29
 -1         8-1.95766E-11-1.95766E-11 1.67799E-11 3.17813E-27 3.61212E-27-1.04273E-27
 -1         9-1.95766E-11-1.95766E-11 1.67799E-11 8.89484E-20-1.34710E-20 7.63899E-21
 -1        10-1.95766E-11-1.95766E-11 1.67799E-11 1.80430E-20 1.34537E-20 1.26857E-19
 -1        11-1.95766E-11-1.95766E-11 1.67799E-11-8.75041E-20-5.85266E-20-1.04301E-19
 -1        12-2.93649E-11-2.93649E-11 2.51699E-11 3.84707E-19 9.88133E-20 2.38963E-20
 -1        13-2.93649E-11-2.93649E-11 2.51699E-11 3.63173E-21 9.76914E-20-3.00758E-26
 -1        14-1.95766E-11-1.95766E-11 1.67799E-11 1.56140E-20-9.49555E-20 6.24461E-21
 -1        15-1.95766E-11-1.95766E-11 1.67799E-11-4.60011E-20-3.35487E-20-2.10417E-19
 -1        16-1.95766E-11-1.95766E-11 1.67799E-11-7.92534E-21-4.27396E-20 5.42842E-20
 -1        17-1.95766E-11-1.95766E-11 1.67799E-11 1.75088E-19 1.09770E-19 4.72916E-19
 -1        18-2.93649E-11-2.93649E-11 2.51699E-11 1.73569E-19-1.76479E-19-8.56373E-19
 -1        19-2.93649E-11-2.93649E-11 2.51699E-11-9.71796E-22 1.82783E-19 3.89802E-26
 -1        20-1.95766E-11-1.95766E-11 1.67799E-11 1.25450E-20 9.79602E-20 7.05332E-21
 -1        21-1.95766E-11-1.95766E-11 1.67799E-11-1.84258E-19 7.42445E-20 2.41920E-19
 -1        22-1.95766E-11-1.95766E-11 1.67799E-11 5.90656E-21-1.52409E-20-3.52089E-20
 -1        23-1.95766E-11-1.95766E-11 1.67799E-11 2.18814E-19-1.12973E-19-4.90012E-19
 -1        24-2.93649E-11-2.93649E-11 2.51699E-11-3.04265E-19 1.89814E-19 2.47879E-19
 -1        25-2.93649E-11-2.93649E-11 2.51699E-11-6.14705E-20-2.56101E-19-8.57390E-25
 -1        26-1.95766E-11-1.95766E-11 1.67799E-11-4.55854E-20-3.33867E-19 1.70360E-20
 -1        27-1.95766E-11-1.95766E-11 1.67799E-11-7.56450E-20-3.29937E-19 1.45274E-21
 -1        28-1.95766E-11-1.95766E-11 1.67799E-11-9.10128E-20-8.17448E-20 9.10016E-21
 -1        29-1.95766E-11-1.95766E-11 1.67799E-11-1.53624E-19-3.45427E-19 1.42770E-19
 -1        30-2.93649E-11-2.93649E-11 2.51699E-11-7.21900E-20 2.75547E-19-3.54929E-19
 -1        31-5.87298E-11-5.87298E-11 5.03398E-11 1.33581E-19-4.12620E-19-1.02231E-24
 -1        32-2.93649E-11-2.93649E-11 2.51699E-11 5.98830E-20 3.35581E-20 7.07294E-20
 -1        33-2.93649E-11-2.93649E-11 2.51699E-11-8.25809E-21 2.32015E-19-1.83767E-19
 -1        34-2.93649E-11-2.93649E-11 2.51699E-11 7.77734E-20 3.12401E-19-2.42436E-21
 -1        35-2.93649E-11-2.93649E-11 2.51699E-11 5.41654E-19-1.37005E-19-4.77437E-19
 -1        36-5.87298E-11-5.87298E-11 5.03398E-11-4.01345E-19 6.10235E-19 2.47265E-19
 -1        37-5.87298E-11-5.87298E-11 5.03398E-11-1.65866E-27 7.33851E-27 2.11854E-27
 -1        38-2.93649E-11-2.93649E-11 2.51699E-11-6.82369E-27-1.62093E-27 3.46547E-27
 -1        39-2.93649E-11-2.93649E-11 2.51699E-11 2.67705E-20 3.93270E-20 3.46781E-20
 -1        40-2.93649E-11-2.93649E-11 2.51699E-11 6.27121E-20-3.37549E-20 3.25312E-19
 -1        41-2.93649E-11-2.93649E-11 2.51699E-11 1.09033E-19-2.15385E-20-1.16538E-19
 -1        42-5.87298E-11-5.87298E-11 5.03398E-11-1.18943E-18 4.47558E-20 8.69617E-20
 -1        43-2.93649E-11-2.93649E-11 2.51699E-11 7.51519E-27 1.91119E-27-5.92381E-27
 -1        44-1.95766E-11-1.95766E-11 1.67799E-11 1.01389E-27 2.78146E-27-3.86692E-27
 -1        45-1.95766E-11-1.95766E-11 1.67799E-11-1.88562E-19 1.27469E-20 7.78636E-20
 -1        46-1.95766E-11-1.95766E-11 1.67799E-11 1.26643E-19-9.04955E-21-2.92046E-19
 -1        47-1.95766E-11-1.95766E-11 1.67799E-11-3.96566E-20-7.28852E-20-4.95437E-19
 -1        48-2.93649E-11-2.93649E-11 2.51699E-11 4.64451E-19 1.21191E-19 5.90470E-19
 -1        49-2.93649E-11-2.93649E-11 2.51699E-11-1.88760E-19-9.04808E-21-1.90749E-20
 -1        50-1.95766E-11-1.95766E-11 1.67799E-11-1.11515E-19-9.94217E-20-6.47194E-21
 -1        51-1.95766E-11-1.95766E-11 1.67799E-11-1.07547E-19-1.80543E-19 3.20435E-20
 -1        52-1.95766E-11-1.95766E-11 1.67799E-11 1.63931E-19-1.43975E-20 6.66183E-20
 -1        53-1.95766E-11-1.95766E-11 1.67799E-11-2.26317E-19-1.09948E-19 3.05669E-19
 -1        54-2.93649E-11-2.93649E-11 2.51699E-11 4.10379E-19-1.04356E-19-2.66195E-19
 -1        55-2.93649E-11-2.93649E-11 2.51699E-11 5.05788E-20-7.54236E-20-1.34530E-21
 -1        56-1.95766E-11-1.95766E-11 1.67799E-11 4.80441E-20-4.26939E-20 6.15642E-21
 -1        57-1.95766E-11-1.95766E-11 1.67799E-11-6.66107E-20 1.51883E-19-1.81284E-19
 -1        58-1.95766E-11-1.95766E-11 1.67799E-11-4.20873E-20-5.56801E-20 1.56555E-20
 -1        59-1.95766E-11-1.95766E-11 1.67799E-11-1.11198E-19-2.16053E-20-4.49789E-20
 -1        60-2.93649E-11-2.93649E-11 2.51699E-11 1.10054E-19 5.95792E-20 2.77666E-19
 -1        61-2.93649E-11-2.93649E-11 2.51699E-11-1.20997E-19-6.97977E-19-3.42263E-20
 -1        62-1.95766E-11-1.95766E-11 1.67799E-11-4.31066E-20-1.75151E-19-5.78099E-21
 -1        63-1.95766E-11-1.95766E-11 1.67799E-11-2.24838E-20-4.54870E-19-1.17774E-19
 -1        64-1.95766E-11-1.95766E-11 1.67799E-11-3.28913E-20-5.20248E-20 2.34492E-20
 -1        65-1.95766E-11-1.95766E-11 1.67799E-11 9.31247E-20-3.60210E-19 1.29126E-19
 -1        66-2.93649E-11-2.93649E-11 2.51699E-11-3.34406E-20-2.97007E-19 1.44246E-19
 -1        67-5.87298E-11-5.87298E-11 5.03398E-11-3.10729E-19 1.50233E-18 3.77123E-20
 -1        68-2.93649E-11-2.93649E-11 2.51699E-11-9.90269E-20 5.13343E-20 8.95861E-20
 -1        69-2.93649E-11-2.93649E-11 2.51699E-11-8.37039E-20 7.48811E-19 2.59996E-19
 -1        70-2.93649E-11-2.93649E-11 2.51699E-11-2.54416E-20-3.47214E-19 7.83466E-20
 -1        71-2.93649E-11-2.93649E-11 2.51699E-11-4.36023E-19 9.91112E-20-4.21018E-19
 -1        72-5.87298E-11-5.87298E-11 5.03398E-11 5.01529E-19 6.15485E-19 9.06447E-19
 -3
    1PSTEP                        49          17           1          
  100CL  117 1.11781E-01          72                     0   17           1
 -4  DISP        4    1
 -5  D1          1    2    1    0
 -5  D2          1    2    2    0
 -5  D3          1    2    3    0
 -5  ALL         1    2    0    0    1ALL
 -1         1 0.00000E+00 0.00000E+00 0.00000E+00
 -1         2-3.19375E-08 0.00000E+00 0.00000E+00
 -1         3-1.67672E+00 0.00000E+00 0.00000E+00
 -1         4-1.67672E+00 0.00000E+00 0.00000E+00
 -1         5-3.35344E+00 0.00000E+00 0.00000E+00
 -1         6-3.35344E+00 0.00000E+00 0.00000E+00
 -1         7 0.00000E+00-3.19375E-08 0.00000E+00
 -1         8-3.19375E-08-3.19375E-08 0.00000E+00
 -1         9-1.67672E+00-3.19375E-08 0.00000E+00
 -1        10-1.67672E+00-3.19375E-08 0.00000E+00
 -1        11-3.35344E+00-3.19375E-08 0.00000E+00
 -1        12-3.35344E+00-3.19375E-08 0.00000E+00
 -1        13 0.00000E+00-1.67672E+00 0.00000E+00
 -1        14-3.19375E-08-1.67672E+00 0.00000E+00
 -1        15-1.67672E+00-1.67672E+00 0.00000E+00
 -1        16-1.67672E+00-1.67672E+00 0.00000E+00
 -1        17-3.35344E+00-1.67672E+00 0.00000E+00
 -1        18-3.35344E+00-1.67672E+00 0.00000E+00
 -1        19 0.00000E+00-1.67672E+00 0.00000E+00
 -1        20-3.19375E-08-1.67672E+00 0.00000E+00
 -1        21-1.67672E+00-1.67672E+00 0.00000E+00
 -1        22-1.67672E+00-1.67672E+00 0.00000E+00
 -1        23-3.35344E+00-1.67672E+00 0.00000E+00
 -1        24-3.35344E+00-1.67672E+00 0.00000E+00
 -1        25 0.00000E+00-3.35344E+00 0.00000E+00
 -1        26-3.19375E-08-3.35344E+00 0.00000E+00
 -1        27-1.67672E+00-3.35344E+00 0.00000E+00
 -1        28-1.67672E+00-3.35344E+00 0.00000E+00
 -1        29-3.35344E+00-3.35344E+00 0.00000E+00
 -1        30-3.35344E+00-3.35344E+00 0.00000E+00
 -1        31 0.00000E+00-3.35344E+00 0.00000E+00
 -1        32-3.19375E-08-3.35344E+00 0.00000E+00
 -1        33-1.67672E+00-3.35344E+00 0.00000E+00
 -1        34-1.67672E+00-3.35344E+00 0.00000E+00
 -1        35-3.35344E+00-3.35344E+00 0.00000E+00
 -1        36-3.35344E+00-3.35344E+00 0.00000E+00
 -1        37 0.00000E+00 0.00000E+00 3.83250E-08
 -1        38-3.19375E-08 0.00000E+00 3.83250E-08
 -1        39-1.67672E+00 0.00000E+00 3.83250E-08
 -1        40-1.67672E+00 0.00000E+00 3.83250E-08
 -1        41-3.35344E+00 0.00000E+00 3.83250E-08
 -1        42-3.35344E+00 0.00000E+00 3.83250E-08
 -1        43 0.00000E+00-3.19375E-08 3.83250E-08
 -1        44-3.19375E-08-3.19375E-08 3.83250E-08
 -1        45-1.67672E+00-3.19375E-08 3.83250E-08
 -1        46-1.67672E+00-3.19375E-08 3.83250E-08
 -1        47-3.35344E+00-3.19375E-08 3.83250E-08
 -1        48-3.35344E+00-3.19375E-08 3.83250E-08
 -1        49 0.00000E+00-1.67672E+00 3.83250E-08
 -1        50-3.19375E-08-1.67672E+00 3.83250E-08
 -1        51-1.67672E+00-1.67672E+00 3.83250E-08
 -1        52-1.67672E+00-1.67672E+00 3.83250E-08
 -1        53-3.35344E+00-1.67672E+00 3.83250E-08
 -1        54-3.35344E+00-1.67672E+00 3.83250E-08
 -1        55 0.00000E+00-1.67672E+00 3.83250E-08
 -1        56-3.19375E-08-1.67672E+00 3.83250E-08
 -1        57-1.67672E+00-1.67672E+00 3.83250E-08
 -1        58-1.67672E+00-1.67672E+00 3.83250E-08
 -1        59-3.35344E+00-1.67672E+00 3.83250E-08
 -1        60-3.35344E+00-1.67672E+00 3.83250E-08
 -1        61 0.00000E+00-3.35344E+00 3.83250E-08
 -1        62-3.19375E-08-3.35344E+00 3.83250E-08
 -1        63-1.67672E+00-3.35344E+00 3.83250E-08
 -1        64-1.67672E+00-3.35344E+00 3.83250E-08
 -1        65-3.35344E+00-3.35344E+00 3.83250E-08
 -1        66-3.35344E+00-3.35344E+00 3.83250E-08
 -1        67 0.00000E+00-3.35344E+00 3.83250E-08
 -1        68-3.19375E-08-3.35344E+00 3.83250E-08
 -1        69-1.67672E+00-3.35344E+00 3.83250E-08
 -1        70-1.67672E+00-3.35344E+00 3.83250E-08
 -1        71-3.35344E+00-3.35344E+00 3.83250E-08
 -1        72-3.35344E+00-3.35344E+00 3.83250E-08
 -3
    1PSTEP                        50          17           1          
  100CL  117 1.11781E-01          72                     0   17           1
 -4  STRESS      6    1
 -5  SXX         1    4    1    1
 -5  SYY         1    4    2    2
 -5  SZZ         1    4    3    3
 -5  SXY         1    4    1    2
 -5  SYZ         1    4    2    3
 -5  SZX         1    4    3    1
 -1         1-1.91617E-05-1.91617E-05-1.51248E-20-6.78052E-23 5.23112E-22 1.18302E-22
 -1         2-9.58087E-06-9.58087E-06 2.31409E-21 6.52526E-23-4.99502E-23 2.13326E-22
 -1         3-9.58087E-06-9.58087E-06-1.20123E-14-1.32072E-14 3.92644E-21 5.77740E-15
 -1         4-9.58087E-06-9.58087E-06 2.84207E-15 3.81867E-14-1.05366E-20-5.43999E-14
 -1         5-9.58087E-06-9.58087E-06 8.52203E-15 3.69198E-15 4.62179E-23-5.10572E-14
 -1         6-1.91617E-05-1.91617E-05 5.79256E-15-2.75586E-14-2.87263E-20-1.51397E-14
 -1         7-9.58087E-06-9.58087E-06-1.69407E-21 1.66120E-21 1.58893E-22-9.91724E-24
 -1         8-6.38724E-06-6.38724E-06-4.13352E-22 1.17357E-21-3.88425E-23 9.46688E-22
 -1         9-6.38724E-06-6.38724E-06 3.98943E-15 5.86622E-15-4.56688E-15 2.69564E-14
 -1        10-6.38724E-06-6.38724E-06-1.16944E-14-1.75497E-14 2.95404E-15 1.37816E-14
 -1        11-6.38724E-06-6.38724E-06 8.09072E-15-1.73392E-14-7.48928E-15 5.55223E-15
 -1        12-9.58087E-06-9.58087E-06-4.95928E-14 6.54667E-14 7.21204E-15-1.64592E-14
 -1        13-9.58087E-06-9.58087E-06 3.30970E-14 1.33857E-20-1.25413E-14-5.95274E-21
 -1        14-6.38724E-06-6.38724E-06 3.09852E-14-4.10536E-15 5.54850E-16-1.76647E-15
 -1        15-6.38724E-06-6.38724E-06 1.79801E-14-9.13821E-15-7.06137E-15 1.48438E-14
 -1        16-6.38724E-06-6.38724E-06 1.75958E-15 1.56329E-14-1.94958E-15-1.96939E-14
 -1        17-6.38724E-06-6.38724E-06 7.25286E-14 4.31984E-14 3.01627E-14 5.29636E-14
 -1        18-9.58087E-06-9.58087E-06-9.38448E-14 1.49321E-14-4.52837E-14-1.57758E-13
 -1        19-9.58087E-06-9.58087E-06 5.83791E-14 1.33857E-20-1.94901E-14-2.96981E-20
 -1        20-6.38724E-06-6.38724E-06 2.58511E-14-4.10536E-15-5.29239E-16 2.46328E-15
 -1        21-6.38724E-06-6.38724E-06-7.00923E-16-1.42063E-14 2.32150E-15-5.94316E-15
 -1        22-6.38724E-06-6.38724E-06-2.52187E-15 1.35554E-14-1.08027E-15-1.30295E-14
 -1        23-6.38724E-06-6.38724E-06 3.19050E-14 1.34079E-14-2.62733E-14 9.36995E-15
 -1        24-9.58087E-06-9.58087E-06 7.31127E-15-6.69278E-14 4.21959E-14 5.39184E-14
 -1        25-9.58087E-06-9.58087E-06-1.42310E-13-8.28764E-14-1.69472E-13 6.36394E-21
 -1        26-6.38724E-06-6.38724E-06 6.24003E-14-5.09953E-14 4.56380E-14 4.05110E-15
 -1        27-6.38724E-06-6.38724E-06-7.22092E-14-2.52532E-15-1.03347E-13-1.84773E-14
 -1        28-6.38724E-06-6.38724E-06-8.39070E-15 2.45919E-14 9.68236E-15 3.18989E-14
 -1        29-6.38724E-06-6.38724E-06 6.37656E-14 3.77230E-14-4.45983E-15-6.84263E-15
 -1        30-9.58087E-06-9.58087E-06 7.98197E-14 1.52460E-14-7.38221E-14-1.83008E-14
 -1        31-1.91617E-05-1.91617E-05-2.71406E-13 4.44128E-14 7.89205E-14-1.35405E-19
 -1        32-9.58087E-06-9.58087E-06 7.00973E-14 2.85898E-14 3.86462E-15-2.85354E-15
 -1        33-9.58087E-06-9.58087E-06-6.45474E-14 1.19185E-14 4.41148E-14 7.68950E-14
 -1        34-9.58087E-06-9.58087E-06-7.57666E-14-1.46924E-14-1.35061E-14-5.67624E-14
 -1        35-9.58087E-06-9.58087E-06 1.38482E-13 5.63123E-14-1.54069E-14 1.98038E-14
 -1        36-1.91617E-05-1.91617E-05-1.62111E-13 3.25236E-14 2.44865E-13 1.69611E-13
 -1        37-1.91617E-05-1.91617E-05 4.62819E-21-9.55082E-23-5.68549E-22-7.19653E-22
 -1        38-9.58087E-06-9.58087E-06-1.69400E-21 7.85396E-22 5.26162E-22-3.48935E-22
 -1        39-9.58087E-06-9.58087E-06-8.79975E-14 8.54573E-15 9.08715E-15 1.35050E-14
 -1        40-9.58087E-06-9.58087E-06-4.94522E-14 9.54407E-15-6.26490E-15 4.46422E-14
 -1        41-9.58087E-06-9.58087E-06-8.76311E-17 9.97706E-17 1.36540E-14 1.22751E-13
 -1        42-1.91617E-05-1.91617E-05 6.60464E-14-7.44465E-16-1.75745E-14-2.24403E-13
 -1        43-9.58087E-06-9.58087E-06-6.20028E-22 1.64735E-21 1.47809E-22-7.18977E-22
 -1        44-6.38724E-06-6.38724E-06 2.78288E-21 1.65366E-21 2.49710E-22 8.30479E-22
 -1        45-6.38724E-06-6.38724E-06-1.38290E-14-2.89703E-14 1.49122E-15-1.90491E-14
 -1        46-6.38724E-06-6.38724E-06-1.37189E-14 3.15631E-14-1.22255E-15-2.63290E-14
 -1        47-6.38724E-06-6.38724E-06 8.91862E-15 2.63289E-14 1.61337E-15-1.56757E-14
 -1        48-9.58087E-06-9.58087E-06-9.61436E-15-5.67900E-14-1.57521E-15 4.29607E-14
 -1        49-9.58087E-06-9.58087E-06-7.07589E-14 4.45921E-20 1.15918E-14 7.12937E-15
 -1        50-6.38724E-06-6.38724E-06-1.52652E-14 1.81633E-15-7.21194E-15 2.98644E-15
 -1        51-6.38724E-06-6.38724E-06-2.12584E-14-2.24410E-15-7.94402E-15-3.95474E-15
 -1        52-6.38724E-06-6.38724E-06-7.23992E-14 1.67607E-14 1.69201E-14 2.39865E-14
 -1        53-6.38724E-06-6.38724E-06-4.56763E-14-6.48422E-14 2.71703E-14 1.41133E-14
 -1        54-9.58087E-06-9.58087E-06-7.18912E-15-5.95171E-14 1.48702E-15 2.49112E-14
 -1        55-9.58087E-06-9.58087E-06-3.21531E-14 4.45921E-20-2.94404E-14-6.06396E-15
 -1        56-6.38724E-06-6.38724E-06-1.15168E-14 1.81633E-15-6.37144E-15-1.57935E-15
 -1        57-6.38724E-06-6.38724E-06 2.03716E-14-3.93493E-14 8.24987E-15 2.22186E-14
 -1        58-6.38724E-06-6.38724E-06-2.20574E-14-2.11458E-14-7.63000E-15 1.50462E-14
 -1        59-6.38724E-06-6.38724E-06-5.80972E-14-4.06033E-14-2.07899E-15-2.16782E-14
 -1        60-9.58087E-06-9.58087E-06-1.72976E-14 5.34215E-14-1.07108E-15 9.40594E-15
 -1        61-9.58087E-06-9.58087E-06 1.41980E-13 8.28764E-14-5.70446E-14 6.22862E-15
 -1        62-6.38724E-06-6.38724E-06-3.04828E-14 5.11717E-14 1.55901E-14 8.20351E-15
 -1        63-6.38724E-06-6.38724E-06 1.06071E-13 4.51871E-14-2.69002E-14-2.60399E-14
 -1        64-6.38724E-06-6.38724E-06-3.38805E-14 1.86895E-14-2.80878E-14 7.45177E-15
 -1        65-6.38724E-06-6.38724E-06-4.60264E-14-9.38198E-15 2.99137E-14-2.22946E-14
 -1        66-9.58087E-06-9.58087E-06-9.59439E-14-8.14981E-15-9.27727E-15-4.72526E-14
 -1        67-1.91617E-05-1.91617E-05 2.59669E-13-4.44128E-14 7.19745E-14-1.16314E-14
 -1        68-9.58087E-06-9.58087E-06-8.79805E-14-2.83252E-14-1.05918E-13-8.66919E-15
 -1        69-9.58087E-06-9.58087E-06 6.46937E-14-1.33542E-14 1.04321E-14-9.01898E-15
 -1        70-9.58087E-06-9.58087E-06-6.44855E-14-3.50713E-14-1.37559E-14 1.40040E-14
 -1        71-9.58087E-06-9.58087E-06-6.68366E-14 7.81998E-17-2.81493E-14-5.66465E-14
 -1        72-1.91617E-05-1.91617E-05-1.17129E-13-1.21927E-13-1.62858E-14 1.53043E-13
 -3
    1PSTEP                        51          17           1          
  100CL  117 1.11781E-01          72                     0   17           1
 -4  TOSTRAIN    6    1
 -5  EXX         1    4    1    1
 -5  EYY         1    4    2    2
 -5  EZZ         1    4    3    3
 -5  EXY         1    4    1    2
 -5  EYZ         1    4    2    3
 -5  EZX         1    4    3    1
 -1         1-6.38724E-11-6.38724E-11 5.47478E-11-4.19746E-28 3.23832E-27 7.32346E-28
 -1         2-3.19362E-11-3.19362E-11 2.73739E-11 4.03945E-28-3.09215E-28 1.32059E-27
 -1         3-3.19362E-11-3.19362E-11 2.73739E-11-8.17591E-20 2.43065E-26 3.57649E-20
 -1         4-3.19362E-11-3.19362E-11 2.73739E-11 2.36394E-19-6.52266E-26-3.36761E-19
 -1         5-3.19362E-11-3.19362E-11 2.73739E-11 2.28551E-20 2.86111E-28-3.16068E-19
 -1         6-6.38724E-11-6.38724E-11 5.47478E-11-1.70601E-19-1.77830E-25-9.37219E-20
 -1         7-3.19362E-11-3.19362E-11 2.73739E-11 1.02836E-26 9.83622E-28-6.13924E-29
 -1         8-2.12908E-11-2.12908E-11 1.82493E-11 7.26495E-27-2.40453E-28 5.86045E-27
 -1         9-2.12908E-11-2.12908E-11 1.82493E-11 3.63147E-20-2.82711E-20 1.66873E-19
 -1        10-2.12908E-11-2.12908E-11 1.82493E-11-1.08641E-19 1.82869E-20 8.53148E-20
 -1        11-2.12908E-11-2.12908E-11 1.82493E-11-1.07338E-19-4.63622E-20 3.43710E-20
 -1        12-3.19362E-11-3.19362E-11 2.73739E-11 4.05270E-19 4.46460E-20-1.01890E-19
 -1        13-3.19362E-11-3.19362E-11 2.73739E-11 8.28636E-26-7.76364E-20-3.68503E-26
 -1        14-2.12908E-11-2.12908E-11 1.82493E-11-2.54141E-20 3.43479E-21-1.09353E-20
 -1        15-2.12908E-11-2.12908E-11 1.82493E-11-5.65699E-20-4.37132E-20 9.18903E-20
 -1        16-2.12908E-11-2.12908E-11 1.82493E-11 9.67753E-20-1.20688E-20-1.21915E-19
 -1        17-2.12908E-11-2.12908E-11 1.82493E-11 2.67418E-19 1.86722E-19 3.27870E-19
 -1        18-3.19362E-11-3.19362E-11 2.73739E-11 9.24369E-20-2.80327E-19-9.76594E-19
 -1        19-3.19362E-11-3.19362E-11 2.73739E-11 8.28636E-26-1.20653E-19-1.83845E-25
 -1        20-2.12908E-11-2.12908E-11 1.82493E-11-2.54141E-20-3.27624E-21 1.52489E-20
 -1        21-2.12908E-11-2.12908E-11 1.82493E-11-8.79438E-20 1.43712E-20-3.67910E-20
 -1        22-2.12908E-11-2.12908E-11 1.82493E-11 8.39142E-20-6.68741E-21-8.06591E-20
 -1        23-2.12908E-11-2.12908E-11 1.82493E-11 8.30015E-20-1.62644E-19 5.80045E-20
 -1        24-3.19362E-11-3.19362E-11 2.73739E-11-4.14315E-19 2.61213E-19 3.33781E-19
 -1        25-3.19362E-11-3.19362E-11 2.73739E-11-5.13044E-19-1.04911E-18 3.93958E-26
 -1        26-2.12908E-11-2.12908E-11 1.82493E-11-3.15685E-19 2.82521E-19 2.50782E-20
 -1        27-2.12908E-11-2.12908E-11 1.82493E-11-1.56329E-20-6.39767E-19-1.14384E-19
 -1        28-2.12908E-11-2.12908E-11 1.82493E-11 1.52236E-19 5.99384E-20 1.97470E-19
 -1        29-2.12908E-11-2.12908E-11 1.82493E-11 2.33523E-19-2.76085E-20-4.23591E-20
 -1        30-3.19362E-11-3.19362E-11 2.73739E-11 9.43798E-20-4.56994E-19-1.13291E-19
 -1        31-6.38724E-11-6.38724E-11 5.47478E-11 2.74937E-19 4.88555E-19-8.38222E-25
 -1        32-3.19362E-11-3.19362E-11 2.73739E-11 1.76984E-19 2.39238E-20-1.76648E-20
 -1        33-3.19362E-11-3.19362E-11 2.73739E-11 7.37813E-20 2.73092E-19 4.76016E-19
 -1        34-3.19362E-11-3.19362E-11 2.73739E-11-9.09529E-20-8.36092E-20-3.51387E-19
 -1        35-3.19362E-11-3.19362E-11 2.73739E-11 3.48600E-19-9.53759E-20 1.22595E-19
 -1        36-6.38724E-11-6.38724E-11 5.47478E-11 2.01336E-19 1.51583E-18 1.04997E-18
 -1        37-6.38724E-11-6.38724E-11 5.47478E-11-5.91241E-28-3.51959E-27-4.45500E-27
 -1        38-3.19362E-11-3.19362E-11 2.73739E-11 4.86198E-27 3.25719E-27-2.16007E-27
 -1        39-3.19362E-11-3.19362E-11 2.73739E-11 5.29021E-20 5.62538E-20 8.36023E-20
 -1        40-3.19362E-11-3.19362E-11 2.73739E-11 5.90824E-20-3.87827E-20 2.76357E-19
 -1        41-3.19362E-11-3.19362E-11 2.73739E-11 6.17628E-22 8.45247E-20 7.59890E-19
 -1        42-6.38724E-11-6.38724E-11 5.47478E-11-4.60859E-21-1.08795E-19-1.38916E-18
 -1        43-3.19362E-11-3.19362E-11 2.73739E-11 1.01979E-26 9.15008E-28-4.45081E-27
 -1        44-2.12908E-11-2.12908E-11 1.82493E-11 1.02370E-26 1.54583E-27 5.14106E-27
 -1        45-2.12908E-11-2.12908E-11 1.82493E-11-1.79340E-19 9.23138E-21-1.17923E-19
 -1        46-2.12908E-11-2.12908E-11 1.82493E-11 1.95390E-19-7.56815E-21-1.62989E-19
 -1        47-2.12908E-11-2.12908E-11 1.82493E-11 1.62989E-19 9.98756E-21-9.70398E-20
 -1        48-3.19362E-11-3.19362E-11 2.73739E-11-3.51557E-19-9.75133E-21 2.65947E-19
 -1        49-3.19362E-11-3.19362E-11 2.73739E-11 2.76046E-25 7.17586E-20 4.41342E-20
 -1        50-2.12908E-11-2.12908E-11 1.82493E-11 1.12440E-20-4.46454E-20 1.84875E-20
 -1        51-2.12908E-11-2.12908E-11 1.82493E-11-1.38921E-20-4.91773E-20-2.44817E-20
 -1        52-2.12908E-11-2.12908E-11 1.82493E-11 1.03757E-19 1.04744E-19 1.48488E-19
 -1        53-2.12908E-11-2.12908E-11 1.82493E-11-4.01404E-19 1.68197E-19 8.73679E-20
 -1        54-3.19362E-11-3.19362E-11 2.73739E-11-3.68439E-19 9.20539E-21 1.54212E-19
 -1        55-3.19362E-11-3.19362E-11 2.73739E-11 2.76046E-25-1.82250E-19-3.75388E-20
 -1        56-2.12908E-11-2.12908E-11 1.82493E-11 1.12440E-20-3.94423E-20-9.77691E-21
 -1        57-2.12908E-11-2.12908E-11 1.82493E-11-2.43591E-19 5.10706E-20 1.37544E-19
 -1        58-2.12908E-11-2.12908E-11 1.82493E-11-1.30903E-19-4.72333E-20 9.31433E-20
 -1        59-2.12908E-11-2.12908E-11 1.82493E-11-2.51354E-19-1.28699E-20-1.34198E-19
 -1        60-3.19362E-11-3.19362E-11 2.73739E-11 3.30704E-19-6.63047E-21 5.82272E-20
 -1        61-3.19362E-11-3.19362E-11 2.73739E-11 5.13044E-19-3.53133E-19 3.85581E-20
 -1        62-2.12908E-11-2.12908E-11 1.82493E-11 3.16777E-19 9.65104E-20 5.07836E-20
 -1        63-2.12908E-11-2.12908E-11 1.82493E-11 2.79729E-19-1.66525E-19-1.61199E-19
 -1        64-2.12908E-11-2.12908E-11 1.82493E-11 1.15697E-19-1.73877E-19 4.61300E-20
 -1        65-2.12908E-11-2.12908E-11 1.82493E-11-5.80789E-20 1.85180E-19-1.38014E-19
 -1        66-3.19362E-11-3.19362E-11 2.73739E-11-5.04512E-20-5.74307E-20-2.92516E-19
 -1        67-6.38724E-11-6.38724E-11 5.47478E-11-2.74937E-19 4.45556E-19-7.20041E-20
 -1        68-3.19362E-11-3.19362E-11 2.73739E-11-1.75346E-19-6.55682E-19-5.36664E-20
 -1        69-3.19362E-11-3.19362E-11 2.73739E-11-8.26688E-20 6.45799E-20-5.58318E-20
 -1        70-3.19362E-11-3.19362E-11 2.73739E-11-2.17108E-19-8.51558E-20 8.66915E-20
 -1        71-3.19362E-11-3.19362E-11 2.73739E-11 4.84094E-22-1.74258E-19-3.50669E-19
 -1        72-6.38724E-11-6.38724E-11 5.47478E-11-7.54785E-19-1.00817E-19 9.47411E-19
 -3
    1PSTEP                        52          18           1          
  100CL  118 1.20781E-01          72                     0   18           1
 -4  DISP        4    1
 -5  D1          1    2    1    0
 -5  D2          1    2    2    0
 -5  D3          1    2    3    0
 -5  ALL         1    2    0    0    1ALL
 -1         1 0.00000E+00 0.00000E+00 0.00000E+00
 -1         2-3.45089E-08 0.00000E+00 0.00000E+00
 -1         3-1.81172E+00 0.00000E+00 0.00000E+00
 -1         4-1.81172E+00 0.00000E+00 0.00000E+00
 -1         5-3.62344E+00 0.00000E+00 0.00000E+00
 -1         6-3.62344E+00 0.00000E+00 0.00000E+00
 -1         7 0.00000E+00-3.45089E-08 0.00000E+00
 -1         8-3.45089E-08-3.45089E-08 0.00000E+00
 -1         9-1.81172E+00-3.45089E-08 0.00000E+00
 -1        10-1.81172E+00-3.45089E-08 0.00000E+00
 -1        11-3.62344E+00-3.45089E-08 0.00000E+00
 -1        12-3.62344E+00-3.45089E-08 0.00000E+00
 -1        13 0.00000E+00-1.81172E+00 0.00000E+00
 -1        14-3.45089E-08-1.81172E+00 0.00000E+00
 -1        15-1.81172E+00-1.81172E+00 0.00000E+00
 -1        16-1.81172E+00-1.81172E+00 0.00000E+00
 -1        17-3.62344E+00-1.81172E+00 0.00000E+00
 -1        18-3.62344E+00-1.81172E+00 0.00000E+00
 -1        19 0.00000E+00-1.81172E+00 0.00000E+00
 -1        20-3.45089E-08-1.81172E+00 0.00000E+00
 -1        21-1.81172E+00-1.81172E+00 0.00000E+00
 -1        22-1.81172E+00-1.81172E+00 0.00000E+00
 -1        23-3.62344E+00-1.81172E+00 0.00000E+00
 -1        24-3.62344E+00-1.81172E+00 0.00000E+00
 -1        25 0.00000E+00-3.62344E+00 0.00000E+00
 -1        26-3.45089E-08-3.62344E+00 0.00000E+00
 -1        27-1.81172E+00-3.62344E+00 0.00000E+00
 -1        28-1.81172E+00-3.62344E+00 0.00000E+00
 -1        29-3.62344E+00-3.62344E+00 0.00000E+00
 -1        30-3.62344E+00-3.62344E+00 0.00000E+00
 -1        31 0.00000E+00-3.62344E+00 0.00000E+00
 -1        32-3.45089E-08-3.62344E+00 0.00000E+00
 -1        33-1.81172E+00-3.62344E+00 0.00000E+00
 -1        34-1.81172E+00-3.62344E+00 0.00000E+00
 -1        35-3.62344E+00-3.62344E+00 0.00000E+00
 -1        36-3.62344E+00-3.62344E+00 0.00000E+00
 -1        37 0.00000E+00 0.00000E+00 4.14107E-08
 -1        38-3.45089E-08 0.00000E+00 4.14107E-08
 -1        39-1.81172E+00 0.00000E+00 4.14107E-08
 -1        40-1.81172E+00 0.00000E+00 4.14107E-08
 -1        41-3.62344E+00 0.00000E+00 4.14107E-08
 -1        42-3.62344E+00 0.00000E+00 4.14107E-08
 -1        43 0.00000E+00-3.45089E-08 4.14107E-08
 -1        44-3.45089E-08-3.45089E-08 4.14107E-08
 -1        45-1.81172E+00-3.45089E-08 4.14107E-08
 -1        46-1.81172E+00-3.45089E-08 4.14107E-08
 -1        47-3.62344E+00-3.45089E-08 4.14107E-08
 -1        48-3.62344E+00-3.45089E-08 4.14107E-08
 -1        49 0.00000E+00-1.81172E+00 4.14107E-08
 -1        50-3.45089E-08-1.81172E+00 4.14107E-08
 -1        51-1.81172E+00-1.81172E+00 4.14107E-08
 -1        52-1.81172E+00-1.81172E+00 4.14107E-08
 -1        53-3.62344E+00-1.81172E+00 4.14107E-08
 -1        54-3.62344E+00-1.81172E+00 4.14107E-08
 -1        55 0.00000E+00-1.81172E+00 4.14107E-08
 -1        56-3.45089E-08-1.81172E+00 4.14107E-08
 -1        57-1.81172E+00-1.81172E+00 4.14107E-08
 -1        58-1.81172E+00-1.81172E+00 4.14107E-08
 -1        59-3.62344E+00-1.81172E+00 4.14107E-08
 -1        60-3.62344E+00-1.81172E+00 4.14107E-08
 -1        61 0.00000E+00-3.62344E+00 4.14107E-08
 -1        62-3.45089E-08-3.62344E+00 4.14107E-08
 -1        63-1.81172E+00-3.62344E+00 4.14107E-08
 -1        64-1.81172E+00-3.62344E+00 4.14107E-08
 -1        65-3.62344E+00-3.62344E+00 4.14107E-08
 -1        66-3.62344E+00-3.62344E+00 4.14107E-08
 -1        67 0.00000E+00-3.62344E+00 4.14107E-08
 -1        68-3.45089E-08-3.62344E+00 4.14107E-08
 -1        69-1.81172E+00-3.62344E+00 4.14107E-08
 -1        70-1.81172E+00-3.62344E+00 4.14107E-08
 -1        71-3.62344E+00-3.62344E+00 4.14107E-08
 -1        72-3.62344E+00-3.62344E+00 4.14107E-08
 -3
    1PSTEP                        53          18           1          
  100CL  118 1.20781E-01          72                     0   18           1
 -4  STRESS      6    1
 -5  SXX         1    4    1    1
 -5  SYY         1    4    2    2
 -5  SZZ         1    4    3    3
 -5  SXY         1    4    1    2
 -5  SYZ         1    4    2    3
 -5  SZX         1    4    3    1
 -1         1-2.07045E-05-2.07045E-05-8.01632E-21-3.41497E-22-7.68272E-23 2.27746E-22
 -1         2-1.03523E-05-1.03523E-05-5.08213E-21 1.62131E-21-1.13025E-22 7.08087E-22
 -1         3-1.03523E-05-1.03523E-05-3.30771E-14-2.85407E-15-6.04771E-21-1.79698E-14
 -1         4-1.03523E-05-1.03523E-05-2.49949E-14 4.30203E-14 1.90449E-20 1.60095E-14
 -1         5-1.03523E-05-1.03523E-05-8.07097E-14 1.39775E-13-3.82341E-20 1.33228E-13
 -1         6-2.07045E-05-2.07045E-05-2.06041E-13-1.29478E-13 1.88164E-20-1.21654E-13
 -1         7-1.03523E-05-1.03523E-05 4.00816E-21 9.01526E-22 1.30806E-21-1.16204E-22
 -1         8-6.90151E-06-6.90151E-06 5.34421E-21 1.79572E-21 3.05036E-22-1.91242E-21
 -1         9-6.90151E-06-6.90151E-06 3.17046E-14-4.91432E-15-1.22429E-16-1.79721E-15
 -1        10-6.90151E-06-6.90151E-06 4.73906E-14 3.44255E-14 5.67797E-16 3.00600E-15
 -1        11-6.90151E-06-6.90151E-06 1.04757E-13 2.79681E-14-1.64626E-14-5.58514E-14
 -1        12-1.03523E-05-1.03523E-05 5.35636E-14 8.73544E-14 2.13708E-14 1.37215E-14
 -1        13-1.03523E-05-1.03523E-05 4.60316E-14-5.86706E-16 5.81687E-14-4.19861E-21
 -1        14-6.90151E-06-6.90151E-06 1.35892E-14 1.77922E-15 4.61956E-15 1.00469E-15
 -1        15-6.90151E-06-6.90151E-06 8.96996E-15-1.95817E-14 2.76586E-14-4.71595E-15
 -1        16-6.90151E-06-6.90151E-06-7.89383E-15-7.94580E-15 9.12768E-15 2.06235E-14
 -1        17-6.90151E-06-6.90151E-06-7.93984E-14-4.82880E-15-8.12628E-15 3.71120E-14
 -1        18-1.03523E-05-1.03523E-05-6.62590E-15 1.34742E-13-7.54554E-16-1.18040E-13
 -1        19-1.03523E-05-1.03523E-05 1.13674E-16 1.56941E-16-4.29725E-14 1.61604E-20
 -1        20-6.90151E-06-6.90151E-06 1.98999E-14 2.27498E-15 3.18728E-14-2.26557E-15
 -1        21-6.90151E-06-6.90151E-06-2.22914E-14-1.58351E-14-2.28929E-14-3.36285E-15
 -1        22-6.90151E-06-6.90151E-06 1.25375E-14 1.07534E-14 2.96908E-14-1.39023E-14
 -1        23-6.90151E-06-6.90151E-06 4.43579E-14-9.44672E-15-2.58772E-14-6.46989E-14
 -1        24-1.03523E-05-1.03523E-05 8.95503E-14-8.36385E-14 3.29411E-14 8.95223E-14
 -1        25-1.03523E-05-1.03523E-05-5.78581E-14-1.17327E-15-2.66741E-14-2.33511E-20
 -1        26-6.90151E-06-6.90151E-06-3.29232E-14 6.98375E-16-3.77244E-14 6.58968E-15
 -1        27-6.90151E-06-6.90151E-06-1.43571E-14 1.61450E-14-5.91680E-15 4.63252E-15
 -1        28-6.90151E-06-6.90151E-06-7.92172E-14 7.04706E-14-4.69828E-14 1.08328E-14
 -1        29-6.90151E-06-6.90151E-06-1.38568E-13 2.37048E-14-2.43318E-14 5.42491E-14
 -1        30-1.03523E-05-1.03523E-05-1.62814E-13 9.77866E-14-2.52763E-14-8.26943E-15
 -1        31-2.07045E-05-2.07045E-05 1.14733E-13 6.28040E-16 5.71152E-14-8.22223E-20
 -1        32-1.03523E-05-1.03523E-05 8.93934E-14 2.53486E-15 5.06507E-14-4.52467E-15
 -1        33-1.03523E-05-1.03523E-05 1.47950E-13-5.76429E-14 7.39520E-14 9.14211E-15
 -1        34-1.03523E-05-1.03523E-05-1.62812E-14 1.90378E-14 7.73219E-14-1.21100E-14
 -1        35-1.03523E-05-1.03523E-05 1.23063E-13 8.89144E-14-6.21918E-14-1.52560E-13
 -1        36-2.07045E-05-2.07045E-05 4.32962E-13-2.02696E-13-2.34287E-14-1.41088E-14
 -1        37-2.07045E-05-2.07045E-05 4.29588E-21-3.71477E-23-3.27976E-22-1.99931E-22
 -1        38-1.03523E-05-1.03523E-05 1.07397E-21-3.36448E-21 1.13856E-21 2.79324E-22
 -1        39-1.03523E-05-1.03523E-05 3.39738E-14-4.90008E-14-3.82149E-15-3.19752E-14
 -1        40-1.03523E-05-1.03523E-05 4.42301E-14-3.59649E-14 2.35725E-15 6.22513E-14
 -1        41-1.03523E-05-1.03523E-05 1.26621E-13-9.51476E-14 1.87644E-14 3.93871E-14
 -1        42-2.07045E-05-2.07045E-05 4.02091E-13 4.49981E-14-2.74796E-14-1.46560E-13
 -1        43-1.03523E-05-1.03523E-05-5.08213E-21 1.23974E-22 1.12994E-22 1.21662E-21
 -1        44-6.90151E-06-6.90151E-06-7.15980E-22-2.14795E-21 1.33047E-21-4.89121E-22
 -1        45-6.90151E-06-6.90151E-06-2.86776E-14-3.47125E-14-2.67008E-15 3.53390E-14
 -1        46-6.90151E-06-6.90151E-06-1.15422E-14-1.72650E-14 2.13928E-15-3.72393E-14
 -1        47-6.90151E-06-6.90151E-06-7.22714E-14-5.03958E-14-3.95302E-15 1.05030E-14
 -1        48-1.03523E-05-1.03523E-05-1.15243E-13 4.17087E-14 7.63106E-15 5.81357E-14
 -1        49-1.03523E-05-1.03523E-05-3.77935E-14 3.04919E-14-2.50023E-14-4.71288E-15
 -1        50-6.90151E-06-6.90151E-06-1.64954E-14 1.79199E-14-8.17952E-15-2.13723E-15
 -1        51-6.90151E-06-6.90151E-06-1.14951E-14-1.76856E-14-5.39181E-14-1.14097E-14
 -1        52-6.90151E-06-6.90151E-06-3.04408E-14 1.76597E-14 2.21457E-14 1.74569E-14
 -1        53-6.90151E-06-6.90151E-06 4.68620E-14-7.72871E-15-2.38454E-14 5.34013E-14
 -1        54-1.03523E-05-1.03523E-05 2.08359E-13 5.02921E-14-1.00323E-14-4.20082E-14
 -1        55-1.03523E-05-1.03523E-05 9.24581E-14-8.17048E-15-7.10929E-15 5.90205E-15
 -1        56-6.90151E-06-6.90151E-06 1.62580E-14-7.85503E-15-7.74102E-15 1.66912E-15
 -1        57-6.90151E-06-6.90151E-06-5.43233E-15-1.86895E-14 3.23218E-14 2.78969E-14
 -1        58-6.90151E-06-6.90151E-06 2.16270E-14 1.26494E-14-1.19866E-14-1.13459E-14
 -1        59-6.90151E-06-6.90151E-06-6.06498E-15 1.52546E-14 1.94161E-14-2.06105E-14
 -1        60-1.03523E-05-1.03523E-05-1.16788E-14-5.84338E-14-7.10416E-15 2.52452E-14
 -1        61-1.03523E-05-1.03523E-05-8.88486E-14 6.09840E-14-8.47050E-14-5.48810E-15
 -1        62-6.90151E-06-6.90151E-06-3.38805E-14 2.86880E-14 3.24057E-14 2.93097E-15
 -1        63-6.90151E-06-6.90151E-06-7.08403E-14-2.47573E-15-4.23301E-14-3.66337E-14
 -1        64-6.90151E-06-6.90151E-06-5.65885E-14-2.57890E-14-5.07530E-15-2.56257E-14
 -1        65-6.90151E-06-6.90151E-06 1.47569E-14-4.48150E-14-2.53196E-14 4.29408E-14
 -1        66-1.03523E-05-1.03523E-05 9.76936E-14-2.10485E-14-6.17972E-14-6.59260E-14
 -1        67-2.07045E-05-2.07045E-05-7.76641E-15-3.26817E-14-9.09203E-16 7.86660E-15
 -1        68-1.03523E-05-1.03523E-05 5.76982E-14-3.42929E-14-7.67709E-14-5.91322E-16
 -1        69-1.03523E-05-1.03523E-05-5.94685E-14 1.47010E-14 2.19081E-14 4.30890E-14
 -1        70-1.03523E-05-1.03523E-05 2.19168E-13-2.32569E-15 6.25370E-15-5.07781E-15
 -1        71-1.03523E-05-1.03523E-05-1.09006E-13-9.55976E-14 7.73816E-14-9.40489E-14
 -1        72-2.07045E-05-2.07045E-05-7.25133E-14 1.69700E-13-3.04938E-14 1.58030E-13
 -3
    1PSTEP                        54          18           1          
  100CL  118 1.20781E-01          72                     0   18           1
 -4  TOSTRAIN    6    1
 -5  EXX         1    4    1    1
 -5  EYY         1    4    2    2
 -5  EZZ         1    4    3    3
 -5  EXY         1    4    1    2
 -5  EYZ         1    4    2    3
 -5  EZX         1    4    3    1
 -1         1-6.90151E-11-6.90151E-11 5.91558E-11-2.11403E-27-4.75597E-28 1.40986E-27
 -1         2-3.45075E-11-3.45075E-11 2.95779E-11 1.00367E-26-6.99679E-28 4.38339E-27
 -1         3-3.45075E-11-3.45075E-11 2.95779E-11-1.76681E-20-3.74382E-26-1.11242E-19
 -1         4-3.45075E-11-3.45075E-11 2.95779E-11 2.66316E-19 1.17897E-25 9.91066E-20
 -1         5-3.45075E-11-3.45075E-11 2.95779E-11 8.65271E-19-2.36687E-25 8.24746E-19
 -1         6-6.90151E-11-6.90151E-11 5.91558E-11-8.01532E-19 1.16483E-25-7.53095E-19
 -1         7-3.45075E-11-3.45075E-11 2.95779E-11 5.58088E-27 8.09752E-27-7.19356E-28
 -1         8-2.30050E-11-2.30050E-11 1.97186E-11 1.11164E-26 1.88832E-27-1.18388E-26
 -1         9-2.30050E-11-2.30050E-11 1.97186E-11-3.04220E-20-7.57893E-22-1.11256E-20
 -1        10-2.30050E-11-2.30050E-11 1.97186E-11 2.13110E-19 3.51494E-21 1.86086E-20
 -1        11-2.30050E-11-2.30050E-11 1.97186E-11 1.73136E-19-1.01912E-19-3.45747E-19
 -1        12-3.45075E-11-3.45075E-11 2.95779E-11 5.40765E-19 1.32296E-19 8.49424E-20
 -1        13-3.45075E-11-3.45075E-11 2.95779E-11-3.63199E-21 3.60092E-19-2.59914E-26
 -1        14-2.30050E-11-2.30050E-11 1.97186E-11 1.10142E-20 2.85973E-20 6.21953E-21
 -1        15-2.30050E-11-2.30050E-11 1.97186E-11-1.21220E-19 1.71220E-19-2.91940E-20
 -1        16-2.30050E-11-2.30050E-11 1.97186E-11-4.91883E-20 5.65047E-20 1.27669E-19
 -1        17-2.30050E-11-2.30050E-11 1.97186E-11-2.98925E-20-5.03056E-20 2.29741E-19
 -1        18-3.45075E-11-3.45075E-11 2.95779E-11 8.34117E-19-4.67105E-21-7.30722E-19
 -1        19-3.45075E-11-3.45075E-11 2.95779E-11 9.71538E-22-2.66020E-19 1.00040E-25
 -1        20-2.30050E-11-2.30050E-11 1.97186E-11 1.40832E-20 1.97308E-19-1.40250E-20
 -1        21-2.30050E-11-2.30050E-11 1.97186E-11-9.80269E-20-1.41718E-19-2.08177E-20
 -1        22-2.30050E-11-2.30050E-11 1.97186E-11 6.65684E-20 1.83800E-19-8.60619E-20
 -1        23-2.30050E-11-2.30050E-11 1.97186E-11-5.84797E-20-1.60192E-19-4.00517E-19
 -1        24-3.45075E-11-3.45075E-11 2.95779E-11-5.17762E-19 2.03921E-19 5.54186E-19
 -1        25-3.45075E-11-3.45075E-11 2.95779E-11-7.26312E-21-1.65125E-19-1.44555E-25
 -1        26-2.30050E-11-2.30050E-11 1.97186E-11 4.32327E-21-2.33532E-19 4.07933E-20
 -1        27-2.30050E-11-2.30050E-11 1.97186E-11 9.99454E-20-3.66278E-20 2.86775E-20
 -1        28-2.30050E-11-2.30050E-11 1.97186E-11 4.36247E-19-2.90846E-19 6.70599E-20
 -1        29-2.30050E-11-2.30050E-11 1.97186E-11 1.46744E-19-1.50625E-19 3.35828E-19
 -1        30-3.45075E-11-3.45075E-11 2.95779E-11 6.05346E-19-1.56473E-19-5.11917E-20
 -1        31-6.90151E-11-6.90151E-11 5.91558E-11 3.88787E-21 3.53570E-19-5.08995E-25
 -1        32-3.45075E-11-3.45075E-11 2.95779E-11 1.56920E-20 3.13552E-19-2.80098E-20
 -1        33-3.45075E-11-3.45075E-11 2.95779E-11-3.56837E-19 4.57798E-19 5.65940E-20
 -1        34-3.45075E-11-3.45075E-11 2.95779E-11 1.17853E-19 4.78659E-19-7.49667E-20
 -1        35-3.45075E-11-3.45075E-11 2.95779E-11 5.50422E-19-3.84997E-19-9.44417E-19
 -1        36-6.90151E-11-6.90151E-11 5.91558E-11-1.25478E-18-1.45035E-19-8.73403E-20
 -1        37-6.90151E-11-6.90151E-11 5.91558E-11-2.29962E-28-2.03032E-27-1.23767E-27
 -1        38-3.45075E-11-3.45075E-11 2.95779E-11-2.08277E-26 7.04821E-27 1.72915E-27
 -1        39-3.45075E-11-3.45075E-11 2.95779E-11-3.03339E-19-2.36568E-20-1.97942E-19
 -1        40-3.45075E-11-3.45075E-11 2.95779E-11-2.22640E-19 1.45925E-20 3.85365E-19
 -1        41-3.45075E-11-3.45075E-11 2.95779E-11-5.89009E-19 1.16160E-19 2.43825E-19
 -1        42-6.90151E-11-6.90151E-11 5.91558E-11 2.78559E-19-1.70112E-19-9.07276E-19
 -1        43-3.45075E-11-3.45075E-11 2.95779E-11 7.67457E-28 6.99484E-28 7.53146E-27
 -1        44-2.30050E-11-2.30050E-11 1.97186E-11-1.32969E-26 8.23623E-27-3.02789E-27
 -1        45-2.30050E-11-2.30050E-11 1.97186E-11-2.14887E-19-1.65291E-20 2.18765E-19
 -1        46-2.30050E-11-2.30050E-11 1.97186E-11-1.06879E-19 1.32432E-20-2.30529E-19
 -1        47-2.30050E-11-2.30050E-11 1.97186E-11-3.11974E-19-2.44711E-20 6.50187E-20
 -1        48-3.45075E-11-3.45075E-11 2.95779E-11 2.58197E-19 4.72399E-20 3.59888E-19
 -1        49-3.45075E-11-3.45075E-11 2.95779E-11 1.88760E-19-1.54776E-19-2.91750E-20
 -1        50-2.30050E-11-2.30050E-11 1.97186E-11 1.10933E-19-5.06351E-20-1.32304E-20
 -1        51-2.30050E-11-2.30050E-11 1.97186E-11-1.09483E-19-3.33779E-19-7.06314E-20
 -1        52-2.30050E-11-2.30050E-11 1.97186E-11 1.09322E-19 1.37093E-19 1.08067E-19
 -1        53-2.30050E-11-2.30050E-11 1.97186E-11-4.78444E-20-1.47614E-19 3.30580E-19
 -1        54-3.45075E-11-3.45075E-11 2.95779E-11 3.11332E-19-6.21047E-20-2.60051E-19
 -1        55-3.45075E-11-3.45075E-11 2.95779E-11-5.05792E-20-4.40099E-20 3.65365E-20
 -1        56-2.30050E-11-2.30050E-11 1.97186E-11-4.86264E-20-4.79206E-20 1.03326E-20
 -1        57-2.30050E-11-2.30050E-11 1.97186E-11-1.15697E-19 2.00087E-19 1.72695E-19
 -1        58-2.30050E-11-2.30050E-11 1.97186E-11 7.83056E-20-7.42025E-20-7.02363E-20
 -1        59-2.30050E-11-2.30050E-11 1.97186E-11 9.44335E-20 1.20195E-19-1.27589E-19
 -1        60-3.45075E-11-3.45075E-11 2.95779E-11-3.61733E-19-4.39782E-20 1.56280E-19
 -1        61-3.45075E-11-3.45075E-11 2.95779E-11 3.77520E-19-5.24365E-19-3.39739E-20
 -1        62-2.30050E-11-2.30050E-11 1.97186E-11 1.77592E-19 2.00607E-19 1.81441E-20
 -1        63-2.30050E-11-2.30050E-11 1.97186E-11-1.53259E-20-2.62043E-19-2.26780E-19
 -1        64-2.30050E-11-2.30050E-11 1.97186E-11-1.59646E-19-3.14185E-20-1.58635E-19
 -1        65-2.30050E-11-2.30050E-11 1.97186E-11-2.77426E-19-1.56740E-19 2.65824E-19
 -1        66-3.45075E-11-3.45075E-11 2.95779E-11-1.30301E-19-3.82554E-19-4.08113E-19
 -1        67-6.90151E-11-6.90151E-11 5.91558E-11-2.02315E-19-5.62840E-21 4.86980E-20
 -1        68-3.45075E-11-3.45075E-11 2.95779E-11-2.12289E-19-4.75248E-19-3.66056E-21
 -1        69-3.45075E-11-3.45075E-11 2.95779E-11 9.10063E-20 1.35621E-19 2.66741E-19
 -1        70-3.45075E-11-3.45075E-11 2.95779E-11-1.43971E-20 3.87134E-20-3.14341E-20
 -1        71-3.45075E-11-3.45075E-11 2.95779E-11-5.91794E-19 4.79029E-19-5.82207E-19
 -1        72-6.90151E-11-6.90151E-11 5.91558E-11 1.05052E-18-1.88771E-19 9.78281E-19
 -3
    1PSTEP                        55          19           1          
  100CL  119 1.29781E-01          72                     0   19           1
 -4  DISP        4    1
 -5  D1          1    2    1    0
 -5  D2          1    2    2    0
 -5  D3          1    2    3    0
 -5  ALL         1    2    0    0    1ALL
 -1         1 0.00000E+00 0.00000E+00 0.00000E+00
 -1         2-3.70804E-08 0.00000E+00 0.00000E+00
 -1         3-1.94672E+00 0.00000E+00 0.00000E+00
 -1         4-1.94672E+00 0.00000E+00 0.00000E+00
 -1         5-3.89344E+00 0.00000E+00 0.00000E+00
 -1         6-3.89344E+00 0.00000E+00 0.00000E+00
 -1         7 0.00000E+00-3.70804E-08 0.00000E+00
 -1         8-3.70804E-08-3.70804E-08 0.00000E+00
 -1         9-1.94672E+00-3.70804E-08 0.00000E+00
 -1        10-1.94672E+00-3.70804E-08 0.00000E+00
 -1        11-3.89344E+00-3.70804E-08 0.00000E+00
 -1        12-3.89344E+00-3.70804E-08 0.00000E+00
 -1        13 0.00000E+00-1.94672E+00 0.00000E+00
 -1        14-3.70804E-08-1.94672E+00 0.00000E+00
 -1        15-1.94672E+00-1.94672E+00 0.00000E+00
 -1        16-1.94672E+00-1.94672E+00 0.00000E+00
 -1        17-3.89344E+00-1.94672E+00 0.00000E+00
 -1        18-3.89344E+00-1.94672E+00 0.00000E+00
 -1        19 0.00000E+00-1.94672E+00 0.00000E+00
 -1        20-3.70804E-08-1.94672E+00 0.00000E+00
 -1        21-1.94672E+00-1.94672E+00 0.00000E+00
 -1        22-1.94672E+00-1.94672E+00 0.00000E+00
 -1        23-3.89344E+00-1.94672E+00 0.00000E+00
 -1        24-3.89344E+00-1.94672E+00 0.00000E+00
 -1        25 0.00000E+00-3.89344E+00 0.00000E+00
 -1        26-3.70804E-08-3.89344E+00 0.00000E+00
 -1        27-1.94672E+00-3.89344E+00 0.00000E+00
 -1        28-1.94672E+00-3.89344E+00 0.00000E+00
 -1        29-3.89344E+00-3.89344E+00 0.00000E+00
 -1        30-3.89344E+00-3.89344E+00 0.00000E+00
 -1        31 0.00000E+00-3.89344E+00 0.00000E+00
 -1        32-3.70804E-08-3.89344E+00 0.00000E+00
 -1        33-1.94672E+00-3.89344E+00 0.00000E+00
 -1        34-1.94672E+00-3.89344E+00 0.00000E+00
 -1        35-3.89344E+00-3.89344E+00 0.00000E+00
 -1        36-3.89344E+00-3.89344E+00 0.00000E+00
 -1        37 0.00000E+00 0.00000E+00 4.44964E-08
 -1        38-3.70804E-08 0.00000E+00 4.44964E-08
 -1        39-1.94672E+00 0.00000E+00 4.44964E-08
 -1        40-1.94672E+00 0.00000E+00 4.44964E-08
 -1        41-3.89344E+00 0.00000E+00 4.44964E-08
 -1        42-3.89344E+00 0.00000E+00 4.44964E-08
 -1        43 0.00000E+00-3.70804E-08 4.44964E-08
 -1        44-3.70804E-08-3.70804E-08 4.44964E-08
 -1        45-1.94672E+00-3.70804E-08 4.44964E-08
 -1        46-1.94672E+00-3.70804E-08 4.44964E-08
 -1        47-3.89344E+00-3.70804E-08 4.44964E-08
 -1        48-3.89344E+00-3.70804E-08 4.44964E-08
 -1        49 0.00000E+00-1.94672E+00 4.44964E-08
 -1        50-3.70804E-08-1.94672E+00 4.44964E-08
 -1        51-1.94672E+00-1.94672E+00 4.44964E-08
 -1        52-1.94672E+00-1.94672E+00 4.44964E-08
 -1        53-3.89344E+00-1.94672E+00 4.44964E-08
 -1        54-3.89344E+00-1.94672E+00 4.44964E-08
 -1        55 0.00000E+00-1.94672E+00 4.44964E-08
 -1        56-3.70804E-08-1.94672E+00 4.44964E-08
 -1        57-1.94672E+00-1.94672E+00 4.44964E-08
 -1        58-1.94672E+00-1.94672E+00 4.44964E-08
 -1        59-3.89344E+00-1.94672E+00 4.44964E-08
 -1        60-3.89344E+00-1.94672E+00 4.44964E-08
 -1        61 0.00000E+00-3.89344E+00 4.44964E-08
 -1        62-3.70804E-08-3.89344E+00 4.44964E-08
 -1        63-1.94672E+00-3.89344E+00 4.44964E-08
 -1        64-1.94672E+00-3.89344E+00 4.44964E-08
 -1        65-3.89344E+00-3.89344E+00 4.44964E-08
 -1        66-3.89344E+00-3.89344E+00 4.44964E-08
 -1        67 0.00000E+00-3.89344E+00 4.44964E-08
 -1        68-3.70804E-08-3.89344E+00 4.44964E-08
 -1        69-1.94672E+00-3.89344E+00 4.44964E-08
 -1        70-1.94672E+00-3.89344E+00 4.44964E-08
 -1        71-3.89344E+00-3.89344E+00 4.44964E-08
 -1        72-3.89344E+00-3.89344E+00 4.44964E-08
 -3
    1PSTEP                        56          19           1          
  100CL  119 1.29781E-01          72                     0   19           1
 -4  STRESS      6    1
 -5  SXX         1    4    1    1
 -5  SYY         1    4    2    2
 -5  SZZ         1    4    3    3
 -5  SXY         1    4    1    2
 -5  SYZ         1    4    2    3
 -5  SZX         1    4    3    1
 -1         1-2.22473E-05-2.22473E-05 9.42239E-21 1.68569E-22 6.79136E-22 7.94160E-24
 -1         2-1.11237E-05-1.11237E-05 3.53199E-21-1.84256E-21-9.28747E-23-8.24572E-22
 -1         3-1.11237E-05-1.11237E-05-1.02016E-14 7.90193E-15 4.49595E-21 5.15484E-15
 -1         4-1.11237E-05-1.11237E-05-1.07435E-15 2.71150E-14-1.07545E-20 1.36000E-14
 -1         5-1.11237E-05-1.11237E-05 2.78823E-14 3.58290E-14 3.40780E-20 8.01859E-14
 -1         6-2.22473E-05-2.22473E-05 1.30431E-13 7.22017E-14-3.69235E-20-1.34574E-13
 -1         7-1.11237E-05-1.11237E-05-1.35746E-20 3.72859E-21 1.96747E-21 7.83718E-24
 -1         8-7.41577E-06-7.41577E-06 6.52888E-21 1.20116E-21-1.26019E-21 1.26456E-21
 -1         9-7.41577E-06-7.41577E-06 1.33108E-14 1.37539E-14-9.49122E-16 7.52170E-15
 -1        10-7.41577E-06-7.41577E-06 1.43755E-14-9.53833E-15-1.78276E-15-1.17309E-14
 -1        11-7.41577E-06-7.41577E-06 5.65516E-14 2.61957E-14-4.33456E-15 2.37762E-14
 -1        12-1.11237E-05-1.11237E-05 5.88386E-14-3.34952E-14 4.00141E-15 9.18338E-14
 -1        13-1.11237E-05-1.11237E-05 5.36227E-14 3.38546E-14 3.57294E-14 1.55440E-20
 -1        14-7.41577E-06-7.41577E-06-4.42729E-14 2.38396E-14-3.06203E-15 6.28986E-16
 -1        15-7.41577E-06-7.41577E-06 1.21224E-14 4.93896E-15-5.60021E-14 9.22228E-15
 -1        16-7.41577E-06-7.41577E-06-1.85412E-14-9.84698E-16 2.79020E-14 3.00198E-14
 -1        17-7.41577E-06-7.41577E-06-1.78314E-14-2.60421E-14-2.01255E-14 7.61508E-14
 -1        18-1.11237E-05-1.11237E-05 1.22827E-13-4.95589E-14 8.79609E-15-1.29395E-13
 -1        19-1.11237E-05-1.11237E-05 5.80126E-14-3.94059E-14 9.55839E-15-2.54302E-21
 -1        20-7.41577E-06-7.41577E-06-4.58874E-14-2.50007E-14 1.06830E-15-1.01512E-15
 -1        21-7.41577E-06-7.41577E-06-2.05518E-14 3.92227E-14 2.24743E-14 4.36887E-15
 -1        22-7.41577E-06-7.41577E-06 2.54259E-15-5.79242E-15-3.53493E-14-3.35707E-14
 -1        23-7.41577E-06-7.41577E-06 4.69290E-14 7.04420E-15 2.21757E-16-7.08778E-15
 -1        24-1.11237E-05-1.11237E-05 1.12326E-13-2.55560E-14 7.35853E-15 6.52041E-14
 -1        25-1.11237E-05-1.11237E-05 5.29625E-14 6.65357E-14-1.44747E-13-6.51739E-20
 -1        26-7.41577E-06-7.41577E-06-4.45350E-14 4.20379E-14 3.78848E-14-3.87403E-15
 -1        27-7.41577E-06-7.41577E-06 1.88737E-14 5.14230E-14-8.85708E-14-1.93644E-14
 -1        28-7.41577E-06-7.41577E-06 5.86112E-14 3.68546E-14 2.31035E-14-3.88265E-15
 -1        29-7.41577E-06-7.41577E-06-7.87149E-14-4.13142E-14-9.56063E-14-1.05937E-14
 -1        30-1.11237E-05-1.11237E-05 1.21134E-13-4.76842E-14 8.36563E-14-6.07487E-14
 -1        31-2.22473E-05-2.22473E-05 1.05301E-13-3.56560E-14 3.26198E-13-1.83946E-20
 -1        32-1.11237E-05-1.11237E-05-6.14831E-14-2.13069E-14-1.00728E-14 7.84480E-15
 -1        33-1.11237E-05-1.11237E-05 5.84227E-14-1.50168E-14 1.39539E-13 6.17856E-14
 -1        34-1.11237E-05-1.11237E-05-2.88254E-14-1.72087E-17-5.02214E-15-3.89136E-15
 -1        35-1.11237E-05-1.11237E-05 5.23580E-14 5.66550E-14 5.23053E-14 9.69491E-14
 -1        36-2.22473E-05-2.22473E-05 2.38400E-13 1.37063E-14-7.14994E-14 4.81206E-14
 -1        37-2.22473E-05-2.22473E-05-9.52336E-22 2.13278E-22 6.16590E-23 1.20946E-22
 -1        38-1.11237E-05-1.11237E-05 2.56326E-21 4.79643E-22-1.01495E-23-8.39712E-22
 -1        39-1.11237E-05-1.11237E-05 7.62713E-15-1.37377E-15 3.73975E-15 8.98242E-15
 -1        40-1.11237E-05-1.11237E-05 1.41285E-14-1.00414E-14 7.27636E-16-1.33289E-14
 -1        41-1.11237E-05-1.11237E-05-5.34676E-14-2.56150E-15 1.34545E-14-9.27034E-14
 -1        42-2.22473E-05-2.22473E-05 1.18447E-14-7.18882E-14-2.37487E-14 2.02775E-13
 -1        43-1.11237E-05-1.11237E-05 1.08673E-20-1.72956E-21 1.65873E-21-2.03034E-22
 -1        44-7.41577E-06-7.41577E-06-3.70553E-21-9.04367E-22-1.20504E-21 1.30222E-21
 -1        45-7.41577E-06-7.41577E-06-4.04801E-14-5.61645E-15 1.54404E-15 2.47779E-14
 -1        46-7.41577E-06-7.41577E-06-4.11660E-14 9.38149E-15-1.29766E-15-1.11873E-14
 -1        47-7.41577E-06-7.41577E-06-1.73847E-14-1.20313E-14 4.63507E-15 9.87859E-15
 -1        48-1.11237E-05-1.11237E-05-3.00090E-14 3.47663E-14-7.87292E-15-5.38427E-14
 -1        49-1.11237E-05-1.11237E-05-8.75218E-14-3.94059E-14-5.36787E-15 1.27456E-15
 -1        50-7.41577E-06-7.41577E-06 6.19448E-14-2.73025E-14 2.43640E-15 1.47868E-15
 -1        51-7.41577E-06-7.41577E-06-4.32993E-14-1.46404E-14-1.91406E-14-1.53278E-14
 -1        52-7.41577E-06-7.41577E-06 8.86306E-15 3.83207E-15-8.90361E-15 3.65248E-15
 -1        53-7.41577E-06-7.41577E-06-4.97953E-14 2.21454E-14-4.89584E-15 6.61989E-15
 -1        54-1.11237E-05-1.11237E-05 2.34671E-14 6.93403E-14-1.68980E-14 8.57656E-14
 -1        55-1.11237E-05-1.11237E-05-8.83108E-14 1.86871E-14 7.39530E-15-1.45008E-15
 -1        56-7.41577E-06-7.41577E-06 5.68778E-14 1.14262E-14-2.81463E-14-1.98184E-15
 -1        57-7.41577E-06-7.41577E-06-5.55405E-14-3.25834E-14-1.39055E-15 4.46681E-15
 -1        58-7.41577E-06-7.41577E-06-4.63115E-14 7.46664E-15 3.01668E-14-1.63309E-14
 -1        59-7.41577E-06-7.41577E-06-4.22980E-14 1.62551E-14 2.26057E-14 1.80269E-14
 -1        60-1.11237E-05-1.11237E-05-1.32650E-13 7.51614E-16 3.77141E-15-3.26855E-14
 -1        61-1.11237E-05-1.11237E-05-1.41698E-13-7.84980E-14 8.09960E-14 5.05008E-17
 -1        62-7.41577E-06-7.41577E-06 4.24248E-14-4.19058E-14-8.18411E-14-3.84031E-15
 -1        63-7.41577E-06-7.41577E-06-1.00869E-13-6.38411E-14 1.73160E-14-4.00080E-14
 -1        64-7.41577E-06-7.41577E-06 1.44604E-14-1.44353E-14-1.36000E-14 3.77638E-15
 -1        65-7.41577E-06-7.41577E-06 1.33247E-13 5.89186E-14 5.30171E-15-1.60490E-14
 -1        66-1.11237E-05-1.11237E-05-1.86039E-15 3.20084E-14 1.05581E-15 1.46883E-14
 -1        67-2.22473E-05-2.22473E-05-2.26666E-13 4.20665E-14-1.81974E-13 4.60630E-15
 -1        68-1.11237E-05-1.11237E-05 9.76336E-14 3.66725E-14 4.71632E-14 1.01480E-14
 -1        69-1.11237E-05-1.11237E-05-1.65428E-13 1.64149E-14 1.25673E-14 4.66756E-14
 -1        70-1.11237E-05-1.11237E-05 1.16660E-13 3.06845E-14-5.01177E-14-2.20492E-14
 -1        71-1.11237E-05-1.11237E-05 6.72852E-14-3.44120E-14-1.29383E-14 2.36756E-14
 -1        72-2.22473E-05-2.22473E-05-1.69976E-13-1.39792E-14 1.26158E-14 2.33116E-14
 -3
    1PSTEP                        57          19           1          
  100CL  119 1.29781E-01          72                     0   19           1
 -4  TOSTRAIN    6    1
 -5  EXX         1    4    1    1
 -5  EYY         1    4    2    2
 -5  EZZ         1    4    3    3
 -5  EXY         1    4    1    2
 -5  EYZ         1    4    2    3
 -5  EZX         1    4    3    1
 -1         1-7.41577E-11-7.41577E-11 6.35638E-11 1.04352E-27 4.20418E-27 4.91623E-29
 -1         2-3.70789E-11-3.70789E-11 3.17819E-11-1.14063E-26-5.74939E-28-5.10450E-27
 -1         3-3.70789E-11-3.70789E-11 3.17819E-11 4.89167E-20 2.78320E-26 3.19109E-20
 -1         4-3.70789E-11-3.70789E-11 3.17819E-11 1.67855E-19-6.65755E-26 8.41906E-20
 -1         5-3.70789E-11-3.70789E-11 3.17819E-11 2.21799E-19 2.10959E-25 4.96389E-19
 -1         6-7.41577E-11-7.41577E-11 6.35638E-11 4.46963E-19-2.28574E-25-8.33075E-19
 -1         7-3.70789E-11-3.70789E-11 3.17819E-11 2.30817E-26 1.21796E-26 4.85159E-29
 -1         8-2.47192E-11-2.47192E-11 2.11879E-11 7.43575E-27-7.80117E-27 7.82820E-27
 -1         9-2.47192E-11-2.47192E-11 2.11879E-11 8.51430E-20-5.87552E-21 4.65629E-20
 -1        10-2.47192E-11-2.47192E-11 2.11879E-11-5.90468E-20-1.10361E-20-7.26202E-20
 -1        11-2.47192E-11-2.47192E-11 2.11879E-11 1.62164E-19-2.68330E-20 1.47186E-19
 -1        12-3.70789E-11-3.70789E-11 3.17819E-11-2.07351E-19 2.47706E-20 5.68495E-19
 -1        13-3.70789E-11-3.70789E-11 3.17819E-11 2.09576E-19 2.21182E-19 9.62246E-26
 -1        14-2.47192E-11-2.47192E-11 2.11879E-11 1.47579E-19-1.89554E-20 3.89373E-21
 -1        15-2.47192E-11-2.47192E-11 2.11879E-11 3.05745E-20-3.46680E-19 5.70903E-20
 -1        16-2.47192E-11-2.47192E-11 2.11879E-11-6.09575E-21 1.72727E-19 1.85837E-19
 -1        17-2.47192E-11-2.47192E-11 2.11879E-11-1.61213E-19-1.24586E-19 4.71410E-19
 -1        18-3.70789E-11-3.70789E-11 3.17819E-11-3.06793E-19 5.44520E-20-8.01014E-19
 -1        19-3.70789E-11-3.70789E-11 3.17819E-11-2.43941E-19 5.91710E-20-1.57425E-26
 -1        20-2.47192E-11-2.47192E-11 2.11879E-11-1.54766E-19 6.61330E-21-6.28406E-21
 -1        21-2.47192E-11-2.47192E-11 2.11879E-11 2.42807E-19 1.39127E-19 2.70454E-20
 -1        22-2.47192E-11-2.47192E-11 2.11879E-11-3.58578E-20-2.18829E-19-2.07818E-19
 -1        23-2.47192E-11-2.47192E-11 2.11879E-11 4.36070E-20 1.37278E-21-4.38767E-20
 -1        24-3.70789E-11-3.70789E-11 3.17819E-11-1.58204E-19 4.55528E-20 4.03644E-19
 -1        25-3.70789E-11-3.70789E-11 3.17819E-11 4.11888E-19-8.96053E-19-4.03458E-25
 -1        26-2.47192E-11-2.47192E-11 2.11879E-11 2.60235E-19 2.34525E-19-2.39821E-20
 -1        27-2.47192E-11-2.47192E-11 2.11879E-11 3.18333E-19-5.48296E-19-1.19875E-19
 -1        28-2.47192E-11-2.47192E-11 2.11879E-11 2.28148E-19 1.43021E-19-2.40354E-20
 -1        29-2.47192E-11-2.47192E-11 2.11879E-11-2.55754E-19-5.91848E-19-6.55798E-20
 -1        30-3.70789E-11-3.70789E-11 3.17819E-11-2.95188E-19 5.17872E-19-3.76063E-19
 -1        31-7.41577E-11-7.41577E-11 6.35638E-11-2.20728E-19 2.01932E-18-1.13871E-25
 -1        32-3.70789E-11-3.70789E-11 3.17819E-11-1.31900E-19-6.23555E-20 4.85630E-20
 -1        33-3.70789E-11-3.70789E-11 3.17819E-11-9.29614E-20 8.63814E-19 3.82482E-19
 -1        34-3.70789E-11-3.70789E-11 3.17819E-11-1.06530E-22-3.10894E-20-2.40894E-20
 -1        35-3.70789E-11-3.70789E-11 3.17819E-11 3.50722E-19 3.23795E-19 6.00161E-19
 -1        36-7.41577E-11-7.41577E-11 6.35638E-11 8.48486E-20-4.42615E-19 2.97890E-19
 -1        37-7.41577E-11-7.41577E-11 6.35638E-11 1.32029E-27 3.81698E-28 7.48712E-28
 -1        38-3.70789E-11-3.70789E-11 3.17819E-11 2.96922E-27-6.28301E-29-5.19822E-27
 -1        39-3.70789E-11-3.70789E-11 3.17819E-11-8.50427E-21 2.31508E-20 5.56054E-20
 -1        40-3.70789E-11-3.70789E-11 3.17819E-11-6.21609E-20 4.50441E-21-8.25122E-20
 -1        41-3.70789E-11-3.70789E-11 3.17819E-11-1.58569E-20 8.32896E-20-5.73878E-19
 -1        42-7.41577E-11-7.41577E-11 6.35638E-11-4.45022E-19-1.47016E-19 1.25527E-18
 -1        43-3.70789E-11-3.70789E-11 3.17819E-11-1.07068E-26 1.02683E-26-1.25688E-27
 -1        44-2.47192E-11-2.47192E-11 2.11879E-11-5.59846E-27-7.45977E-27 8.06138E-27
 -1        45-2.47192E-11-2.47192E-11 2.11879E-11-3.47685E-20 9.55833E-21 1.53387E-19
 -1        46-2.47192E-11-2.47192E-11 2.11879E-11 5.80759E-20-8.03316E-21-6.92547E-20
 -1        47-2.47192E-11-2.47192E-11 2.11879E-11-7.44792E-20 2.86933E-20 6.11532E-20
 -1        48-3.70789E-11-3.70789E-11 3.17819E-11 2.15220E-19-4.87371E-20-3.33312E-19
 -1        49-3.70789E-11-3.70789E-11 3.17819E-11-2.43941E-19-3.32297E-20 7.89011E-21
 -1        50-2.47192E-11-2.47192E-11 2.11879E-11-1.69015E-19 1.50825E-20 9.15373E-21
 -1        51-2.47192E-11-2.47192E-11 2.11879E-11-9.06308E-20-1.18489E-19-9.48866E-20
 -1        52-2.47192E-11-2.47192E-11 2.11879E-11 2.37223E-20-5.51176E-20 2.26106E-20
 -1        53-2.47192E-11-2.47192E-11 2.11879E-11 1.37091E-19-3.03076E-20 4.09803E-20
 -1        54-3.70789E-11-3.70789E-11 3.17819E-11 4.29249E-19-1.04606E-19 5.30930E-19
 -1        55-3.70789E-11-3.70789E-11 3.17819E-11 1.15682E-19 4.57805E-20-8.97671E-21
 -1        56-2.47192E-11-2.47192E-11 2.11879E-11 7.07337E-20-1.74239E-19-1.22685E-20
 -1        57-2.47192E-11-2.47192E-11 2.11879E-11-2.01707E-19-8.60814E-21 2.76517E-20
 -1        58-2.47192E-11-2.47192E-11 2.11879E-11 4.62221E-20 1.86747E-19-1.01096E-19
 -1        59-2.47192E-11-2.47192E-11 2.11879E-11 1.00627E-19 1.39940E-19 1.11595E-19
 -1        60-3.70789E-11-3.70789E-11 3.17819E-11 4.65285E-21 2.33468E-20-2.02339E-19
 -1        61-3.70789E-11-3.70789E-11 3.17819E-11-4.85940E-19 5.01404E-19 3.12624E-22
 -1        62-2.47192E-11-2.47192E-11 2.11879E-11-2.59417E-19-5.06635E-19-2.37734E-20
 -1        63-2.47192E-11-2.47192E-11 2.11879E-11-3.95207E-19 1.07194E-19-2.47669E-19
 -1        64-2.47192E-11-2.47192E-11 2.11879E-11-8.93616E-20-8.41905E-20 2.33776E-20
 -1        65-2.47192E-11-2.47192E-11 2.11879E-11 3.64734E-19 3.28201E-20-9.93507E-20
 -1        66-3.70789E-11-3.70789E-11 3.17819E-11 1.98147E-19 6.53594E-21 9.09274E-20
 -1        67-7.41577E-11-7.41577E-11 6.35638E-11 2.60412E-19-1.12650E-18 2.85152E-20
 -1        68-3.70789E-11-3.70789E-11 3.17819E-11 2.27020E-19 2.91963E-19 6.28207E-20
 -1        69-3.70789E-11-3.70789E-11 3.17819E-11 1.01616E-19 7.77978E-20 2.88944E-19
 -1        70-3.70789E-11-3.70789E-11 3.17819E-11 1.89951E-19-3.10252E-19-1.36495E-19
 -1        71-3.70789E-11-3.70789E-11 3.17819E-11-2.13027E-19-8.00941E-20 1.46563E-19
 -1        72-7.41577E-11-7.41577E-11 6.35638E-11-8.65378E-20 7.80980E-20 1.44310E-19
 -3
    1PSTEP                        58          20           1          
  100CL  120 1.38781E-01          72                     0   20           1
 -4  DISP        4    1
 -5  D1          1    2    1    0
 -5  D2          1    2    2    0
 -5  D3          1    2    3    0
 -5  ALL         1    2    0    0    1ALL
 -1         1 0.00000E+00 0.00000E+00 0.00000E+00
 -1         2-3.96518E-08 0.00000E+00 0.00000E+00
 -1         3-2.08172E+00 0.00000E+00 0.00000E+00
 -1         4-2.08172E+00 0.00000E+00 0.00000E+00
 -1         5-4.16344E+00 0.00000E+00 0.00000E+00
 -1         6-4.16344E+00 0.00000E+00 0.00000E+00
 -1         7 0.00000E+00-3.96518E-08 0.00000E+00
 -1         8-3.96518E-08-3.96518E-08 0.00000E+00
 -1         9-2.08172E+00-3.96518E-08 0.00000E+00
 -1        10-2.08172E+00-3.96518E-08 0.00000E+00
 -1        11-4.16344E+00-3.96518E-08 0.00000E+00
 -1        12-4.16344E+00-3.96518E-08 0.00000E+00
 -1        13 0.00000E+00-2.08172E+00 0.00000E+00
 -1        14-3.96518E-08-2.08172E+00 0.00000E+00
 -1        15-2.08172E+00-2.08172E+00 0.00000E+00
 -1        16-2.08172E+00-2.08172E+00 0.00000E+00
 -1        17-4.16344E+00-2.08172E+00 0.00000E+00
 -1        18-4.16344E+00-2.08172E+00 0.00000E+00
 -1        19 0.00000E+00-2.08172E+00 0.00000E+00
 -1        20-3.96518E-08-2.08172E+00 0.00000E+00
 -1        21-2.08172E+00-2.08172E+00 0.00000E+00
 -1        22-2.08172E+00-2.08172E+00 0.00000E+00
 -1        23-4.16344E+00-2.08172E+00 0.00000E+00
 -1        24-4.16344E+00-2.08172E+00 0.00000E+00
 -1        25 0.00000E+00-4.16344E+00 0.00000E+00
 -1        26-3.96518E-08-4.16344E+00 0.00000E+00
 -1        27-2.08172E+00-4.16344E+00 0.00000E+00
 -1        28-2.08172E+00-4.16344E+00 0.00000E+00
 -1        29-4.16344E+00-4.16344E+00 0.00000E+00
 -1        30-4.16344E+00-4.16344E+00 0.00000E+00
 -1        31 0.00000E+00-4.16344E+00 0.00000E+00
 -1        32-3.96518E-08-4.16344E+00 0.00000E+00
 -1        33-2.08172E+00-4.16344E+00 0.00000E+00
 -1        34-2.08172E+00-4.16344E+00 0.00000E+00
 -1        35-4.16344E+00-4.16344E+00 0.00000E+00
 -1        36-4.16344E+00-4.16344E+00 0.00000E+00
 -1        37 0.00000E+00 0.00000E+00 4.75821E-08
 -1        38-3.96518E-08 0.00000E+00 4.75821E-08
 -1        39-2.08172E+00 0.00000E+00 4.75821E-08
 -1        40-2.08172E+00 0.00000E+00 4.75821E-08
 -1        41-4.16344E+00 0.00000E+00 4.75821E-08
 -1        42-4.16344E+00 0.00000E+00 4.75821E-08
 -1        43 0.00000E+00-3.96518E-08 4.75821E-08
 -1        44-3.96518E-08-3.96518E-08 4.75821E-08
 -1        45-2.08172E+00-3.96518E-08 4.75821E-08
 -1        46-2.08172E+00-3.96518E-08 4.75821E-08
 -1        47-4.16344E+00-3.96518E-08 4.75821E-08
 -1        48-4.16344E+00-3.96518E-08 4.75821E-08
 -1        49 0.00000E+00-2.08172E+00 4.75821E-08
 -1        50-3.96518E-08-2.08172E+00 4.75821E-08
 -1        51-2.08172E+00-2.08172E+00 4.75821E-08
 -1        52-2.08172E+00-2.08172E+00 4.75821E-08
 -1        53-4.16344E+00-2.08172E+00 4.75821E-08
 -1        54-4.16344E+00-2.08172E+00 4.75821E-08
 -1        55 0.00000E+00-2.08172E+00 4.75821E-08
 -1        56-3.96518E-08-2.08172E+00 4.75821E-08
 -1        57-2.08172E+00-2.08172E+00 4.75821E-08
 -1        58-2.08172E+00-2.08172E+00 4.75821E-08
 -1        59-4.16344E+00-2.08172E+00 4.75821E-08
 -1        60-4.16344E+00-2.08172E+00 4.75821E-08
 -1        61 0.00000E+00-4.16344E+00 4.75821E-08
 -1        62-3.96518E-08-4.16344E+00 4.75821E-08
 -1        63-2.08172E+00-4.16344E+00 4.75821E-08
 -1        64-2.08172E+00-4.16344E+00 4.75821E-08
 -1        65-4.16344E+00-4.16344E+00 4.75821E-08
 -1        66-4.16344E+00-4.16344E+00 4.75821E-08
 -1        67 0.00000E+00-4.16344E+00 4.75821E-08
 -1        68-3.96518E-08-4.16344E+00 4.75821E-08
 -1        69-2.08172E+00-4.16344E+00 4.75821E-08
 -1        70-2.08172E+00-4.16344E+00 4.75821E-08
 -1        71-4.16344E+00-4.16344E+00 4.75821E-08
 -1        72-4.16344E+00-4.16344E+00 4.75821E-08
 -3
    1PSTEP                        59          20           1          
  100CL  120 1.38781E-01          72                     0   20           1
 -4  STRESS      6    1
 -5  SXX         1    4    1    1
 -5  SYY         1    4    2    2
 -5  SZZ         1    4    3    3
 -5  SXY         1    4    1    2
 -5  SYZ         1    4    2    3
 -5  SZX         1    4    3    1
 -1         1-2.37901E-05-2.37901E-05-4.00816E-21-6.15470E-23 1.01364E-22 1.04810E-23
 -1         2-1.18951E-05-1.18951E-05 5.37019E-22 1.97326E-21-2.37374E-23 2.79632E-22
 -1         3-1.18951E-05-1.18951E-05 3.05070E-14-6.79686E-15-2.12518E-21-1.75280E-14
 -1         4-1.18951E-05-1.18951E-05 4.92167E-14-2.92072E-14-3.59451E-21 1.63941E-14
 -1         5-1.18951E-05-1.18951E-05-4.55370E-15-4.16814E-14 1.09986E-20-9.53460E-14
 -1         6-2.37901E-05-2.37901E-05 9.17518E-14 8.46937E-14-7.84884E-20 1.56722E-13
 -1         7-1.18951E-05-1.18951E-05-4.54511E-21 2.85534E-21 1.60471E-21-4.36616E-24
 -1         8-7.93004E-06-7.93004E-06 3.29218E-21 3.23958E-21-5.08351E-22-1.75513E-21
 -1         9-7.93004E-06-7.93004E-06 5.34921E-14-1.67736E-14-3.50316E-15 1.96532E-14
 -1        10-7.93004E-06-7.93004E-06 5.36028E-14 1.61120E-15 1.10554E-15-1.67412E-14
 -1        11-7.93004E-06-7.93004E-06 1.94007E-14-2.99771E-14 3.60150E-16-1.62781E-14
 -1        12-1.18951E-05-1.18951E-05 3.84569E-14 1.08600E-14 2.64340E-15-1.65339E-14
 -1        13-1.18951E-05-1.18951E-05 3.84518E-15-5.39427E-15 1.14291E-14-3.13648E-20
 -1        14-7.93004E-06-7.93004E-06-1.09703E-14 5.16077E-15 2.49639E-14 6.71282E-15
 -1        15-7.93004E-06-7.93004E-06-1.15102E-14 3.89223E-15 1.96600E-14 2.40632E-15
 -1        16-7.93004E-06-7.93004E-06 2.10087E-14-5.80225E-15-2.45890E-15-3.42599E-14
 -1        17-7.93004E-06-7.93004E-06-7.46954E-14 1.53102E-15-2.16046E-14 1.15994E-14
 -1        18-1.18951E-05-1.18951E-05-4.20335E-16-5.79496E-15 2.92156E-15 9.67549E-14
 -1        19-1.18951E-05-1.18951E-05-1.42420E-14-6.13792E-15-3.80660E-15 1.01282E-20
 -1        20-7.93004E-06-7.93004E-06 2.79829E-14 4.66500E-15-1.76597E-14-5.83951E-15
 -1        21-7.93004E-06-7.93004E-06-1.59648E-14 1.17115E-14-1.48837E-14-5.83313E-15
 -1        22-7.93004E-06-7.93004E-06 1.00790E-14 1.80240E-15-2.41245E-14 1.57233E-14
 -1        23-7.93004E-06-7.93004E-06 6.20885E-15-4.10120E-16 2.52857E-14-3.83412E-15
 -1        24-1.18951E-05-1.18951E-05-8.35003E-14 1.55288E-15 6.69253E-14-9.87871E-14
 -1        25-1.18951E-05-1.18951E-05-5.15641E-14 1.98596E-14 2.23504E-14 4.24686E-20
 -1        26-7.93004E-06-7.93004E-06-1.72128E-14 1.54439E-14-5.66004E-14 5.05471E-15
 -1        27-7.93004E-06-7.93004E-06-9.63527E-18 1.11564E-14 4.37276E-14-3.05826E-14
 -1        28-7.93004E-06-7.93004E-06-3.41210E-14 7.56726E-15-9.41324E-14 5.24749E-14
 -1        29-7.93004E-06-7.93004E-06 1.11799E-14-1.08993E-14-1.88544E-14-1.97417E-14
 -1        30-1.18951E-05-1.18951E-05 1.76008E-15 4.17805E-14-4.35488E-14-1.21460E-13
 -1        31-2.37901E-05-2.37901E-05 9.16646E-14-4.31571E-14 2.36651E-13-1.81406E-19
 -1        32-1.18951E-05-1.18951E-05 7.66953E-15-1.82723E-14-7.71809E-14-4.64715E-15
 -1        33-1.18951E-05-1.18951E-05 6.64673E-14-1.02849E-14-4.16673E-14 4.48578E-14
 -1        34-1.18951E-05-1.18951E-05 2.39116E-14 2.11836E-14 1.27749E-13-1.83148E-14
 -1        35-1.18951E-05-1.18951E-05 4.10869E-14-5.18273E-14 2.72084E-14 5.35822E-15
 -1        36-2.37901E-05-2.37901E-05 1.03376E-13-4.38010E-14-1.23182E-13 8.43214E-14
 -1        37-2.37901E-05-2.37901E-05-4.79434E-21-2.25846E-22 5.70292E-23 4.59063E-23
 -1        38-1.18951E-05-1.18951E-05-3.07805E-21-5.06609E-22 8.41921E-22-6.08630E-23
 -1        39-1.18951E-05-1.18951E-05 4.36176E-14-3.81291E-14 5.68402E-15 1.26469E-14
 -1        40-1.18951E-05-1.18951E-05 7.68448E-14 5.18410E-14-1.73348E-15-1.23901E-14
 -1        41-1.18951E-05-1.18951E-05-3.39402E-14 1.82077E-14 7.46925E-15 9.26045E-14
 -1        42-2.37901E-05-2.37901E-05 4.18124E-14-7.52342E-14-1.79206E-14-2.32491E-13
 -1        43-1.18951E-05-1.18951E-05 2.00408E-21-4.56387E-22 5.13050E-22 7.31665E-22
 -1        44-7.93004E-06-7.93004E-06-3.57967E-22-5.66715E-22 2.59798E-22-3.73200E-22
 -1        45-7.93004E-06-7.93004E-06 1.29750E-14-1.75876E-14 2.86187E-16 2.08636E-15
 -1        46-7.93004E-06-7.93004E-06 2.27640E-14 1.12567E-14-5.01127E-17-1.56958E-15
 -1        47-7.93004E-06-7.93004E-06 6.37735E-15-2.51133E-15 5.33964E-15 3.56829E-14
 -1        48-1.18951E-05-1.18951E-05 2.33387E-14 1.45846E-14-6.31685E-15-2.63718E-15
 -1        49-1.18951E-05-1.18951E-05-6.50480E-14-2.88893E-14 8.63649E-15-1.53322E-14
 -1        50-7.93004E-06-7.93004E-06-2.40608E-14-2.80759E-14 1.97971E-14-3.50865E-15
 -1        51-7.93004E-06-7.93004E-06 9.74849E-15 4.16171E-14-2.93857E-14-4.97480E-14
 -1        52-7.93004E-06-7.93004E-06 1.52028E-14 9.81565E-15 2.78427E-14 4.62421E-14
 -1        53-7.93004E-06-7.93004E-06-7.09715E-14-2.80356E-14 2.90348E-14-4.51517E-16
 -1        54-1.18951E-05-1.18951E-05 7.46090E-14 1.26561E-14-3.10921E-14-1.19984E-13
 -1        55-1.18951E-05-1.18951E-05-1.22675E-13 9.77314E-15 5.26401E-16 1.52746E-14
 -1        56-7.93004E-06-7.93004E-06-1.14675E-14-2.30092E-15 8.83089E-16 4.34355E-15
 -1        57-7.93004E-06-7.93004E-06 1.21621E-15-7.69815E-15 3.65177E-14 3.16768E-14
 -1        58-7.93004E-06-7.93004E-06-7.37451E-14-2.83388E-14 4.24506E-15-3.78278E-14
 -1        59-7.93004E-06-7.93004E-06-3.24352E-14 7.51212E-15 4.32440E-14 2.99618E-14
 -1        60-1.18951E-05-1.18951E-05-9.76176E-14-3.39098E-15 2.93918E-14 7.17570E-14
 -1        61-1.18951E-05-1.18951E-05 3.76419E-15 3.90914E-14-6.86447E-14 1.27366E-14
 -1        62-7.93004E-06-7.93004E-06-3.28686E-14 1.68513E-14 8.26995E-14 1.35458E-14
 -1        63-7.93004E-06-7.93004E-06 1.19243E-14 1.98105E-14-7.20505E-14-8.86359E-15
 -1        64-7.93004E-06-7.93004E-06 6.40089E-14 3.42218E-14 1.12043E-13-7.19415E-15
 -1        65-7.93004E-06-7.93004E-06 1.07716E-14 3.72217E-14-4.02322E-14-8.18810E-15
 -1        66-1.18951E-05-1.18951E-05-3.27207E-14 6.94720E-15 5.99722E-15 8.36294E-14
 -1        67-2.37901E-05-2.37901E-05 1.50959E-13 1.00389E-13-6.93087E-14-2.56532E-14
 -1        68-1.18951E-05-1.18951E-05-4.14953E-14 3.63801E-14-9.84421E-15-1.74737E-14
 -1        69-1.18951E-05-1.18951E-05 1.49627E-13-2.94122E-14 1.08330E-13-1.67337E-14
 -1        70-1.18951E-05-1.18951E-05-2.51928E-15-6.76343E-14-1.49360E-13 2.76974E-15
 -1        71-1.18951E-05-1.18951E-05 7.55667E-14 5.12606E-14 6.98902E-15-8.76496E-15
 -1        72-2.37901E-05-2.37901E-05-1.34286E-13 1.53103E-13 1.36110E-13 2.20765E-14
 -3
    1PSTEP                        60          20           1          
  100CL  120 1.38781E-01          72                     0   20           1
 -4  TOSTRAIN    6    1
 -5  EXX         1    4    1    1
 -5  EYY         1    4    2    2
 -5  EZZ         1    4    3    3
 -5  EXY         1    4    1    2
 -5  EYZ         1    4    2    3
 -5  EZX         1    4    3    1
 -1         1-7.93004E-11-7.93004E-11 6.79718E-11-3.81005E-28 6.27494E-28 6.48821E-29
 -1         2-3.96502E-11-3.96502E-11 3.39859E-11 1.22154E-26-1.46946E-28 1.73105E-27
 -1         3-3.96502E-11-3.96502E-11 3.39859E-11-4.20758E-20-1.31559E-26-1.08507E-19
 -1         4-3.96502E-11-3.96502E-11 3.39859E-11-1.80807E-19-2.22517E-26 1.01487E-19
 -1         5-3.96502E-11-3.96502E-11 3.39859E-11-2.58028E-19 6.80866E-26-5.90237E-19
 -1         6-7.93004E-11-7.93004E-11 6.79718E-11 5.24295E-19-4.85880E-25 9.70186E-19
 -1         7-3.96502E-11-3.96502E-11 3.39859E-11 1.76759E-26 9.93393E-27-2.70286E-29
 -1         8-2.64335E-11-2.64335E-11 2.26573E-11 2.00546E-26-3.14694E-27-1.08651E-26
 -1         9-2.64335E-11-2.64335E-11 2.26573E-11-1.03837E-19-2.16862E-20 1.21662E-19
 -1        10-2.64335E-11-2.64335E-11 2.26573E-11 9.97407E-21 6.84382E-21-1.03636E-19
 -1        11-2.64335E-11-2.64335E-11 2.26573E-11-1.85573E-19 2.22950E-21-1.00769E-19
 -1        12-3.96502E-11-3.96502E-11 3.39859E-11 6.72283E-20 1.63639E-20-1.02353E-19
 -1        13-3.96502E-11-3.96502E-11 3.39859E-11-3.33931E-20 7.07517E-20-1.94163E-25
 -1        14-2.64335E-11-2.64335E-11 2.26573E-11 3.19476E-20 1.54538E-19 4.15555E-20
 -1        15-2.64335E-11-2.64335E-11 2.26573E-11 2.40948E-20 1.21705E-19 1.48963E-20
 -1        16-2.64335E-11-2.64335E-11 2.26573E-11-3.59187E-20-1.52217E-20-2.12085E-19
 -1        17-2.64335E-11-2.64335E-11 2.26573E-11 9.47774E-21-1.33743E-19 7.18060E-20
 -1        18-3.96502E-11-3.96502E-11 3.39859E-11-3.58735E-20 1.80859E-20 5.98959E-19
 -1        19-3.96502E-11-3.96502E-11 3.39859E-11-3.79967E-20-2.35647E-20 6.26982E-26
 -1        20-2.64335E-11-2.64335E-11 2.26573E-11 2.88786E-20-1.09322E-19-3.61493E-20
 -1        21-2.64335E-11-2.64335E-11 2.26573E-11 7.25001E-20-9.21372E-20-3.61099E-20
 -1        22-2.64335E-11-2.64335E-11 2.26573E-11 1.11577E-20-1.49342E-19 9.73345E-20
 -1        23-2.64335E-11-2.64335E-11 2.26573E-11-2.53884E-21 1.56531E-19-2.37350E-20
 -1        24-3.96502E-11-3.96502E-11 3.39859E-11 9.61308E-21 4.14299E-19-6.11539E-19
 -1        25-3.96502E-11-3.96502E-11 3.39859E-11 1.22941E-19 1.38360E-19 2.62901E-25
 -1        26-2.64335E-11-2.64335E-11 2.26573E-11 9.56053E-20-3.50383E-19 3.12910E-20
 -1        27-2.64335E-11-2.64335E-11 2.26573E-11 6.90635E-20 2.70695E-19-1.89321E-19
 -1        28-2.64335E-11-2.64335E-11 2.26573E-11 4.68449E-20-5.82724E-19 3.24845E-19
 -1        29-2.64335E-11-2.64335E-11 2.26573E-11-6.74717E-20-1.16718E-19-1.22210E-19
 -1        30-3.96502E-11-3.96502E-11 3.39859E-11 2.58641E-19-2.69588E-19-7.51894E-19
 -1        31-7.93004E-11-7.93004E-11 6.79718E-11-2.67163E-19 1.46498E-18-1.12299E-24
 -1        32-3.96502E-11-3.96502E-11 3.39859E-11-1.13114E-19-4.77786E-19-2.87681E-20
 -1        33-3.96502E-11-3.96502E-11 3.39859E-11-6.36684E-20-2.57941E-19 2.77691E-19
 -1        34-3.96502E-11-3.96502E-11 3.39859E-11 1.31137E-19 7.90825E-19-1.13377E-19
 -1        35-3.96502E-11-3.96502E-11 3.39859E-11-3.20835E-19 1.68433E-19 3.31699E-20
 -1        36-7.93004E-11-7.93004E-11 6.79718E-11-2.71149E-19-7.62558E-19 5.21990E-19
 -1        37-7.93004E-11-7.93004E-11 6.79718E-11-1.39810E-27 3.53038E-28 2.84182E-28
 -1        38-3.96502E-11-3.96502E-11 3.39859E-11-3.13615E-27 5.21189E-27-3.76771E-28
 -1        39-3.96502E-11-3.96502E-11 3.39859E-11-2.36037E-19 3.51868E-20 7.82904E-20
 -1        40-3.96502E-11-3.96502E-11 3.39859E-11 3.20921E-19-1.07311E-20-7.67006E-20
 -1        41-3.96502E-11-3.96502E-11 3.39859E-11 1.12715E-19 4.62382E-20 5.73266E-19
 -1        42-7.93004E-11-7.93004E-11 6.79718E-11-4.65736E-19-1.10937E-19-1.43923E-18
 -1        43-3.96502E-11-3.96502E-11 3.39859E-11-2.82525E-27 3.17602E-27 4.52936E-27
 -1        44-2.64335E-11-2.64335E-11 2.26573E-11-3.50823E-27 1.60827E-27-2.31028E-27
 -1        45-2.64335E-11-2.64335E-11 2.26573E-11-1.08876E-19 1.77163E-21 1.29155E-20
 -1        46-2.64335E-11-2.64335E-11 2.26573E-11 6.96842E-20-3.10221E-22-9.71645E-21
 -1        47-2.64335E-11-2.64335E-11 2.26573E-11-1.55463E-20 3.30549E-20 2.20894E-19
 -1        48-3.96502E-11-3.96502E-11 3.39859E-11 9.02854E-20-3.91043E-20-1.63254E-20
 -1        49-3.96502E-11-3.96502E-11 3.39859E-11-1.78838E-19 5.34640E-20-9.49138E-20
 -1        50-2.64335E-11-2.64335E-11 2.26573E-11-1.73803E-19 1.22554E-19-2.17202E-20
 -1        51-2.64335E-11-2.64335E-11 2.26573E-11 2.57629E-19-1.81912E-19-3.07964E-19
 -1        52-2.64335E-11-2.64335E-11 2.26573E-11 6.07636E-20 1.72359E-19 2.86260E-19
 -1        53-2.64335E-11-2.64335E-11 2.26573E-11-1.73554E-19 1.79739E-19-2.79510E-21
 -1        54-3.96502E-11-3.96502E-11 3.39859E-11 7.83472E-20-1.92475E-19-7.42758E-19
 -1        55-3.96502E-11-3.96502E-11 3.39859E-11 6.05004E-20 3.25867E-21 9.45570E-20
 -1        56-2.64335E-11-2.64335E-11 2.26573E-11-1.42438E-20 5.46674E-21 2.68886E-20
 -1        57-2.64335E-11-2.64335E-11 2.26573E-11-4.76552E-20 2.26062E-19 1.96094E-19
 -1        58-2.64335E-11-2.64335E-11 2.26573E-11-1.75430E-19 2.62790E-20-2.34172E-19
 -1        59-2.64335E-11-2.64335E-11 2.26573E-11 4.65036E-20 2.67701E-19 1.85478E-19
 -1        60-3.96502E-11-3.96502E-11 3.39859E-11-2.09918E-20 1.81949E-19 4.44210E-19
 -1        61-3.96502E-11-3.96502E-11 3.39859E-11 2.41994E-19-4.24944E-19 7.88457E-20
 -1        62-2.64335E-11-2.64335E-11 2.26573E-11 1.04318E-19 5.11949E-19 8.38547E-20
 -1        63-2.64335E-11-2.64335E-11 2.26573E-11 1.22636E-19-4.46027E-19-5.48698E-20
 -1        64-2.64335E-11-2.64335E-11 2.26573E-11 2.11849E-19 6.93599E-19-4.45352E-20
 -1        65-2.64335E-11-2.64335E-11 2.26573E-11 2.30420E-19-2.49057E-19-5.06882E-20
 -1        66-3.96502E-11-3.96502E-11 3.39859E-11 4.30065E-20 3.71257E-20 5.17706E-19
 -1        67-7.93004E-11-7.93004E-11 6.79718E-11 6.21457E-19-4.29054E-19-1.58806E-19
 -1        68-3.96502E-11-3.96502E-11 3.39859E-11 2.25210E-19-6.09404E-20-1.08170E-19
 -1        69-3.96502E-11-3.96502E-11 3.39859E-11-1.82075E-19 6.70615E-19-1.03590E-19
 -1        70-3.96502E-11-3.96502E-11 3.39859E-11-4.18688E-19-9.24609E-19 1.71460E-20
 -1        71-3.96502E-11-3.96502E-11 3.39859E-11 3.17328E-19 4.32653E-20-5.42593E-20
 -1        72-7.93004E-11-7.93004E-11 6.79718E-11 9.47782E-19 8.42584E-19 1.36664E-19
 -3
    1PSTEP                        61          21           1          
  100CL  121 1.47781E-01          72                     0   21           1
 -4  DISP        4    1
 -5  D1          1    2    1    0
 -5  D2          1    2    2    0
 -5  D3          1    2    3    0
 -5  ALL         1    2    0    0    1ALL
 -1         1 0.00000E+00 0.00000E+00 0.00000E+00
 -1         2-4.22232E-08 0.00000E+00 0.00000E+00
 -1         3-2.21672E+00 0.00000E+00 0.00000E+00
 -1         4-2.21672E+00 0.00000E+00 0.00000E+00
 -1         5-4.43344E+00 0.00000E+00 0.00000E+00
 -1         6-4.43344E+00 0.00000E+00 0.00000E+00
 -1         7 0.00000E+00-4.22232E-08 0.00000E+00
 -1         8-4.22232E-08-4.22232E-08 0.00000E+00
 -1         9-2.21672E+00-4.22232E-08 0.00000E+00
 -1        10-2.21672E+00-4.22232E-08 0.00000E+00
 -1        11-4.43344E+00-4.22232E-08 0.00000E+00
 -1        12-4.43344E+00-4.22232E-08 0.00000E+00
 -1        13 0.00000E+00-2.21672E+00 0.00000E+00
 -1        14-4.22232E-08-2.21672E+00 0.00000E+00
 -1        15-2.21672E+00-2.21672E+00 0.00000E+00
 -1        16-2.21672E+00-2.21672E+00 0.00000E+00
 -1        17-4.43344E+00-2.21672E+00 0.00000E+00
 -1        18-4.43344E+00-2.21672E+00 0.00000E+00
 -1        19 0.00000E+00-2.21672E+00 0.00000E+00
 -1        20-4.22232E-08-2.21672E+00 0.00000E+00
 -1        21-2.21672E+00-2.21672E+00 0.00000E+00
 -1        22-2.21672E+00-2.21672E+00 0.00000E+00
 -1        23-4.43344E+00-2.21672E+00 0.00000E+00
 -1        24-4.43344E+00-2.21672E+00 0.00000E+00
 -1        25 0.00000E+00-4.43344E+00 0.00000E+00
 -1        26-4.22232E-08-4.43344E+00 0.00000E+00
 -1        27-2.21672E+00-4.43344E+00 0.00000E+00
 -1        28-2.21672E+00-4.43344E+00 0.00000E+00
 -1        29-4.43344E+00-4.43344E+00 0.00000E+00
 -1        30-4.43344E+00-4.43344E+00 0.00000E+00
 -1        31 0.00000E+00-4.43344E+00 0.00000E+00
 -1        32-4.22232E-08-4.43344E+00 0.00000E+00
 -1        33-2.21672E+00-4.43344E+00 0.00000E+00
 -1        34-2.21672E+00-4.43344E+00 0.00000E+00
 -1        35-4.43344E+00-4.43344E+00 0.00000E+00
 -1        36-4.43344E+00-4.43344E+00 0.00000E+00
 -1        37 0.00000E+00 0.00000E+00 5.06679E-08
 -1        38-4.22232E-08 0.00000E+00 5.06679E-08
 -1        39-2.21672E+00 0.00000E+00 5.06679E-08
 -1        40-2.21672E+00 0.00000E+00 5.06679E-08
 -1        41-4.43344E+00 0.00000E+00 5.06679E-08
 -1        42-4.43344E+00 0.00000E+00 5.06679E-08
 -1        43 0.00000E+00-4.22232E-08 5.06679E-08
 -1        44-4.22232E-08-4.22232E-08 5.06679E-08
 -1        45-2.21672E+00-4.22232E-08 5.06679E-08
 -1        46-2.21672E+00-4.22232E-08 5.06679E-08
 -1        47-4.43344E+00-4.22232E-08 5.06679E-08
 -1        48-4.43344E+00-4.22232E-08 5.06679E-08
 -1        49 0.00000E+00-2.21672E+00 5.06679E-08
 -1        50-4.22232E-08-2.21672E+00 5.06679E-08
 -1        51-2.21672E+00-2.21672E+00 5.06679E-08
 -1        52-2.21672E+00-2.21672E+00 5.06679E-08
 -1        53-4.43344E+00-2.21672E+00 5.06679E-08
 -1        54-4.43344E+00-2.21672E+00 5.06679E-08
 -1        55 0.00000E+00-2.21672E+00 5.06679E-08
 -1        56-4.22232E-08-2.21672E+00 5.06679E-08
 -1        57-2.21672E+00-2.21672E+00 5.06679E-08
 -1        58-2.21672E+00-2.21672E+00 5.06679E-08
 -1        59-4.43344E+00-2.21672E+00 5.06679E-08
 -1        60-4.43344E+00-2.21672E+00 5.06679E-08
 -1        61 0.00000E+00-4.43344E+00 5.06679E-08
 -1        62-4.22232E-08-4.43344E+00 5.06679E-08
 -1        63-2.21672E+00-4.43344E+00 5.06679E-08
 -1        64-2.21672E+00-4.43344E+00 5.06679E-08
 -1        65-4.43344E+00-4.43344E+00 5.06679E-08
 -1        66-4.43344E+00-4.43344E+00 5.06679E-08
 -1        67 0.00000E+00-4.43344E+00 5.06679E-08
 -1        68-4.22232E-08-4.43344E+00 5.06679E-08
 -1        69-2.21672E+00-4.43344E+00 5.06679E-08
 -1        70-2.21672E+00-4.43344E+00 5.06679E-08
 -1        71-4.43344E+00-4.43344E+00 5.06679E-08
 -1        72-4.43344E+00-4.43344E+00 5.06679E-08
 -3
    1PSTEP                        62          21           1          
  100CL  121 1.47781E-01          72                     0   21           1
 -4  STRESS      6    1
 -5  SXX         1    4    1    1
 -5  SYY         1    4    2    2
 -5  SZZ         1    4    3    3
 -5  SXY         1    4    1    2
 -5  SYZ         1    4    2    3
 -5  SZX         1    4    3    1
 -1         1-2.53329E-05-2.53329E-05 8.63635E-21-2.10768E-23 2.17813E-22 1.96345E-22
 -1         2-1.26665E-05-1.26665E-05-1.15705E-21 1.60628E-21-7.55418E-23 5.61281E-22
 -1         3-1.26665E-05-1.26665E-05 1.17631E-14-1.73445E-15-2.83069E-20 2.44728E-15
 -1         4-1.26665E-05-1.26665E-05-1.46464E-14 1.05394E-14-7.93213E-22 3.43374E-14
 -1         5-1.26665E-05-1.26665E-05 8.32142E-14 1.82865E-14-2.19300E-20 1.24156E-13
 -1         6-2.53329E-05-2.53329E-05 1.53939E-13-1.51513E-14-1.36655E-20-2.03043E-13
 -1         7-1.26665E-05-1.26665E-05-2.23102E-21 1.51801E-21-1.37863E-21-4.25371E-23
 -1         8-8.44430E-06-8.44430E-06 2.87878E-21 2.04213E-21-1.67125E-21-1.11083E-22
 -1         9-8.44430E-06-8.44430E-06 7.88036E-15 2.32140E-15 2.18345E-15 2.89059E-14
 -1        10-8.44430E-06-8.44430E-06 1.40214E-14 1.02893E-14-2.14235E-15-1.99466E-14
 -1        11-8.44430E-06-8.44430E-06 9.75281E-14-6.15480E-15-7.16796E-15-5.35050E-14
 -1        12-1.26665E-05-1.26665E-05 9.26218E-14 8.47554E-15 1.24996E-14 1.25644E-13
 -1        13-1.26665E-05-1.26665E-05 3.32349E-14 3.32679E-14 1.14435E-14 7.41676E-21
 -1        14-8.44430E-06-8.44430E-06-2.54284E-14 1.91272E-14-3.48825E-14-2.20028E-15
 -1        15-8.44430E-06-8.44430E-06 4.09452E-14 4.35849E-14 2.22408E-14-4.47002E-14
 -1        16-8.44430E-06-8.44430E-06 1.67459E-15 5.36180E-14 2.36609E-16 1.95767E-14
 -1        17-8.44430E-06-8.44430E-06-4.48630E-14-7.15200E-14-3.16252E-14-4.47949E-15
 -1        18-1.26665E-05-1.26665E-05 1.12868E-13-4.13674E-14-8.80459E-14 5.84411E-15
 -1        19-1.26665E-05-1.26665E-05 2.78194E-14-8.91398E-15-1.21373E-14-2.60656E-21
 -1        20-8.44430E-06-8.44430E-06-4.72052E-14-8.99406E-15 6.27421E-15 3.26327E-15
 -1        21-8.44430E-06-8.44430E-06 5.69493E-14-2.55574E-14 1.57514E-14-2.55295E-14
 -1        22-8.44430E-06-8.44430E-06-9.56533E-15-6.98206E-15-2.98049E-14 1.33927E-14
 -1        23-8.44430E-06-8.44430E-06 4.23329E-15-3.99208E-14 4.49891E-14-9.37191E-15
 -1        24-1.26665E-05-1.26665E-05 6.23998E-14 1.21374E-13 6.78056E-14-1.93099E-14
 -1        25-1.26665E-05-1.26665E-05-1.17540E-13-1.19936E-13-9.54750E-14-5.27430E-20
 -1        26-8.44430E-06-8.44430E-06 5.55579E-14-8.27074E-14 4.24493E-14-6.87779E-16
 -1        27-8.44430E-06-8.44430E-06-6.68278E-14-2.29055E-14-8.18320E-14 2.69718E-15
 -1        28-8.44430E-06-8.44430E-06-1.12887E-13-9.84852E-15 5.50552E-14 3.13720E-14
 -1        29-8.44430E-06-8.44430E-06 1.03215E-14-3.18274E-14-3.31859E-14 4.04605E-14
 -1        30-1.26665E-05-1.26665E-05 4.10037E-14 1.24210E-14-1.19456E-13 3.98575E-15
 -1        31-2.53329E-05-2.53329E-05-6.15006E-14-2.67321E-14-9.02025E-14-1.94889E-19
 -1        32-1.26665E-05-1.26665E-05 1.23481E-13-1.74910E-14-4.03566E-14 5.04309E-15
 -1        33-1.26665E-05-1.26665E-05 2.92852E-14-3.58508E-14 3.58655E-14-3.69707E-14
 -1        34-1.26665E-05-1.26665E-05 9.55347E-15-2.16408E-15-3.32304E-14-2.22250E-14
 -1        35-1.26665E-05-1.26665E-05 8.90464E-14-7.00835E-14-6.62701E-14-8.39710E-14
 -1        36-2.53329E-05-2.53329E-05 1.14970E-13 1.91611E-13 2.37897E-13 8.29180E-14
 -1        37-2.53329E-05-2.53329E-05-1.66154E-22 1.37019E-22 1.65368E-21-1.68933E-21
 -1        38-1.26665E-05-1.26665E-05-3.69815E-21-1.42016E-21 2.09632E-21-3.81557E-22
 -1        39-1.26665E-05-1.26665E-05 1.17080E-14-5.13327E-14-6.30434E-15 4.77338E-15
 -1        40-1.26665E-05-1.26665E-05-2.83279E-14-1.96778E-14 7.94409E-15 1.35906E-14
 -1        41-1.26665E-05-1.26665E-05-1.04720E-13-5.85302E-14 9.46871E-15 8.86315E-14
 -1        42-2.53329E-05-2.53329E-05-1.24273E-13-1.59682E-14-1.90032E-14-6.77022E-14
 -1        43-1.26665E-05-1.26665E-05 3.10014E-22-8.23364E-22 1.47829E-21 1.06981E-21
 -1        44-8.44430E-06-8.44430E-06-5.53847E-23-1.36311E-21-6.05429E-22 6.30482E-22
 -1        45-8.44430E-06-8.44430E-06-1.51433E-14-3.92041E-14-2.01942E-15-3.88630E-15
 -1        46-8.44430E-06-8.44430E-06-1.80865E-14-6.94008E-15 3.15371E-15-2.64107E-14
 -1        47-8.44430E-06-8.44430E-06-8.03029E-14-3.72671E-14-8.55473E-16 3.15031E-14
 -1        48-1.26665E-05-1.26665E-05-1.25296E-13 4.95908E-14 2.99808E-15-7.66364E-15
 -1        49-1.26665E-05-1.26665E-05-7.63003E-14-3.92490E-14 4.30427E-15 4.52777E-15
 -1        50-8.44430E-06-8.44430E-06 9.91480E-15-2.15684E-14 7.77942E-15 8.18238E-16
 -1        51-8.44430E-06-8.44430E-06-3.95954E-14-4.30049E-14-1.02335E-14 1.92566E-14
 -1        52-8.44430E-06-8.44430E-06 1.60433E-14-3.75649E-14 1.44427E-14 3.84758E-14
 -1        53-8.44430E-06-8.44430E-06 7.65028E-14 4.67892E-14 1.39071E-14 4.78779E-14
 -1        54-1.26665E-05-1.26665E-05 1.54355E-13-7.69450E-14-7.04666E-15-1.23898E-13
 -1        55-1.26665E-05-1.26665E-05-6.45056E-14 1.05167E-14 4.30525E-14-6.37212E-15
 -1        56-8.44430E-06-8.44430E-06-3.88541E-16 1.16087E-14-2.32657E-14-9.84809E-16
 -1        57-8.44430E-06-8.44430E-06-3.70486E-14-2.91713E-14-4.46534E-14 2.85745E-14
 -1        58-8.44430E-06-8.44430E-06 8.40919E-15-3.81362E-15 5.76417E-15-6.47728E-14
 -1        59-8.44430E-06-8.44430E-06-2.72173E-14 5.45789E-14 1.49145E-14-3.03543E-15
 -1        60-1.26665E-05-1.26665E-05-1.59463E-13-2.95463E-14 1.26436E-14 1.45931E-13
 -1        61-1.26665E-05-1.26665E-05-4.49090E-14 1.53477E-13-1.07442E-13 1.17546E-14
 -1        62-8.44430E-06-8.44430E-06-6.02132E-14 1.05238E-13 4.16932E-14 7.14866E-15
 -1        63-8.44430E-06-8.44430E-06-5.77247E-15 1.05650E-14-5.40489E-14-1.40777E-14
 -1        64-8.44430E-06-8.44430E-06 2.77968E-14 3.74013E-14-4.17415E-14 3.29697E-14
 -1        65-8.44430E-06-8.44430E-06 8.85987E-14-2.08149E-14 2.68970E-14 4.19154E-14
 -1        66-1.26665E-05-1.26665E-05-4.00929E-14-4.92284E-14 3.91322E-14-2.84302E-14
 -1        67-2.53329E-05-2.53329E-05 1.09276E-13-5.78621E-14 2.20688E-13-1.38072E-14
 -1        68-1.26665E-05-1.26665E-05-3.74183E-14-2.45513E-14-4.47107E-14-1.86040E-15
 -1        69-1.26665E-05-1.26665E-05 8.79985E-15-5.36397E-14 4.61175E-14 7.00882E-15
 -1        70-1.26665E-05-1.26665E-05-1.30374E-13-5.04735E-14 6.31628E-14-1.89395E-14
 -1        71-1.26665E-05-1.26665E-05 1.36019E-13-4.63532E-14 2.90756E-15-5.98151E-14
 -1        72-2.53329E-05-2.53329E-05 6.65050E-13 1.44825E-14-2.83102E-13 1.65314E-14
 -3
    1PSTEP                        63          21           1          
  100CL  121 1.47781E-01          72                     0   21           1
 -4  TOSTRAIN    6    1
 -5  EXX         1    4    1    1
 -5  EYY         1    4    2    2
 -5  EZZ         1    4    3    3
 -5  EXY         1    4    1    2
 -5  EYZ         1    4    2    3
 -5  EZX         1    4    3    1
 -1         1-8.44430E-11-8.44430E-11 7.23797E-11-1.30475E-28 1.34837E-27 1.21547E-27
 -1         2-4.22215E-11-4.22215E-11 3.61899E-11 9.94363E-27-4.67640E-28 3.47459E-27
 -1         3-4.22215E-11-4.22215E-11 3.61899E-11-1.07371E-20-1.75233E-25 1.51498E-20
 -1         4-4.22215E-11-4.22215E-11 3.61899E-11 6.52438E-20-4.91037E-27 2.12565E-19
 -1         5-4.22215E-11-4.22215E-11 3.61899E-11 1.13202E-19-1.35757E-25 7.68587E-19
 -1         6-8.44430E-11-8.44430E-11 7.23797E-11-9.37935E-20-8.45961E-26-1.25693E-18
 -1         7-4.22215E-11-4.22215E-11 3.61899E-11 9.39722E-27-8.53438E-27-2.63325E-28
 -1         8-2.81477E-11-2.81477E-11 2.41266E-11 1.26417E-26-1.03458E-26-6.87659E-28
 -1         9-2.81477E-11-2.81477E-11 2.41266E-11 1.43706E-20 1.35166E-20 1.78941E-19
 -1        10-2.81477E-11-2.81477E-11 2.41266E-11 6.36956E-20-1.32622E-20-1.23479E-19
 -1        11-2.81477E-11-2.81477E-11 2.41266E-11-3.81012E-20-4.43731E-20-3.31222E-19
 -1        12-4.22215E-11-4.22215E-11 3.61899E-11 5.24676E-20 7.73788E-20 7.77794E-19
 -1        13-4.22215E-11-4.22215E-11 3.61899E-11 2.05944E-19 7.08408E-20 4.59133E-26
 -1        14-2.81477E-11-2.81477E-11 2.41266E-11 1.18406E-19-2.15940E-19-1.36208E-20
 -1        15-2.81477E-11-2.81477E-11 2.41266E-11 2.69811E-19 1.37681E-19-2.76716E-19
 -1        16-2.81477E-11-2.81477E-11 2.41266E-11 3.31921E-19 1.46472E-21 1.21189E-19
 -1        17-2.81477E-11-2.81477E-11 2.41266E-11-4.42743E-19-1.95775E-19-2.77302E-20
 -1        18-4.22215E-11-4.22215E-11 3.61899E-11-2.56084E-19-5.45046E-19 3.61778E-20
 -1        19-4.22215E-11-4.22215E-11 3.61899E-11-5.51818E-20-7.51354E-20-1.61359E-26
 -1        20-2.81477E-11-2.81477E-11 2.41266E-11-5.56775E-20 3.88404E-20 2.02012E-20
 -1        21-2.81477E-11-2.81477E-11 2.41266E-11-1.58212E-19 9.75088E-20-1.58040E-19
 -1        22-2.81477E-11-2.81477E-11 2.41266E-11-4.32223E-20-1.84507E-19 8.29074E-20
 -1        23-2.81477E-11-2.81477E-11 2.41266E-11-2.47129E-19 2.78504E-19-5.80166E-20
 -1        24-4.22215E-11-4.22215E-11 3.61899E-11 7.51361E-19 4.19749E-19-1.19537E-19
 -1        25-4.22215E-11-4.22215E-11 3.61899E-11-7.42462E-19-5.91035E-19-3.26504E-25
 -1        26-2.81477E-11-2.81477E-11 2.41266E-11-5.11998E-19 2.62781E-19-4.25768E-21
 -1        27-2.81477E-11-2.81477E-11 2.41266E-11-1.41796E-19-5.06579E-19 1.66969E-20
 -1        28-2.81477E-11-2.81477E-11 2.41266E-11-6.09670E-20 3.40818E-19 1.94208E-19
 -1        29-2.81477E-11-2.81477E-11 2.41266E-11-1.97027E-19-2.05436E-19 2.50470E-19
 -1        30-4.22215E-11-4.22215E-11 3.61899E-11 7.68922E-20-7.39488E-19 2.46737E-20
 -1        31-8.44430E-11-8.44430E-11 7.23797E-11-1.65484E-19-5.58397E-19-1.20646E-24
 -1        32-4.22215E-11-4.22215E-11 3.61899E-11-1.08277E-19-2.49827E-19 3.12191E-20
 -1        33-4.22215E-11-4.22215E-11 3.61899E-11-2.21934E-19 2.22024E-19-2.28866E-19
 -1        34-4.22215E-11-4.22215E-11 3.61899E-11-1.33967E-20-2.05712E-19-1.37583E-19
 -1        35-4.22215E-11-4.22215E-11 3.61899E-11-4.33851E-19-4.10243E-19-5.19820E-19
 -1        36-8.44430E-11-8.44430E-11 7.23797E-11 1.18616E-18 1.47270E-18 5.13302E-19
 -1        37-8.44430E-11-8.44430E-11 7.23797E-11 8.48216E-28 1.02371E-26-1.04578E-26
 -1        38-4.22215E-11-4.22215E-11 3.61899E-11-8.79147E-27 1.29772E-26-2.36202E-27
 -1        39-4.22215E-11-4.22215E-11 3.61899E-11-3.17774E-19-3.90268E-20 2.95495E-20
 -1        40-4.22215E-11-4.22215E-11 3.61899E-11-1.21815E-19 4.91777E-20 8.41326E-20
 -1        41-4.22215E-11-4.22215E-11 3.61899E-11-3.62330E-19 5.86158E-20 5.48671E-19
 -1        42-8.44430E-11-8.44430E-11 7.23797E-11-9.88510E-20-1.17639E-19-4.19109E-19
 -1        43-4.22215E-11-4.22215E-11 3.61899E-11-5.09702E-27 9.15132E-27 6.62264E-27
 -1        44-2.81477E-11-2.81477E-11 2.41266E-11-8.43828E-27-3.74789E-27 3.90298E-27
 -1        45-2.81477E-11-2.81477E-11 2.41266E-11-2.42692E-19-1.25012E-20-2.40580E-20
 -1        46-2.81477E-11-2.81477E-11 2.41266E-11-4.29624E-20 1.95230E-20-1.63495E-19
 -1        47-2.81477E-11-2.81477E-11 2.41266E-11-2.30701E-19-5.29579E-21 1.95019E-19
 -1        48-4.22215E-11-4.22215E-11 3.61899E-11 3.06991E-19 1.85596E-20-4.74416E-20
 -1        49-4.22215E-11-4.22215E-11 3.61899E-11-2.42970E-19 2.66455E-20 2.80291E-20
 -1        50-2.81477E-11-2.81477E-11 2.41266E-11-1.33519E-19 4.81583E-20 5.06528E-21
 -1        51-2.81477E-11-2.81477E-11 2.41266E-11-2.66221E-19-6.33500E-20 1.19207E-19
 -1        52-2.81477E-11-2.81477E-11 2.41266E-11-2.32545E-19 8.94073E-20 2.38183E-19
 -1        53-2.81477E-11-2.81477E-11 2.41266E-11 2.89647E-19 8.60914E-20 2.96387E-19
 -1        54-4.22215E-11-4.22215E-11 3.61899E-11-4.76326E-19-4.36222E-20-7.66986E-19
 -1        55-4.22215E-11-4.22215E-11 3.61899E-11 6.51031E-20 2.66516E-19-3.94464E-20
 -1        56-2.81477E-11-2.81477E-11 2.41266E-11 7.18632E-20-1.44026E-19-6.09643E-21
 -1        57-2.81477E-11-2.81477E-11 2.41266E-11-1.80584E-19-2.76426E-19 1.76890E-19
 -1        58-2.81477E-11-2.81477E-11 2.41266E-11-2.36081E-20 3.56829E-20-4.00974E-19
 -1        59-2.81477E-11-2.81477E-11 2.41266E-11 3.37869E-19 9.23279E-20-1.87907E-20
 -1        60-4.22215E-11-4.22215E-11 3.61899E-11-1.82905E-19 7.82698E-20 9.03385E-19
 -1        61-4.22215E-11-4.22215E-11 3.61899E-11 9.50093E-19-6.65115E-19 7.27666E-20
 -1        62-2.81477E-11-2.81477E-11 2.41266E-11 6.51471E-19 2.58101E-19 4.42536E-20
 -1        63-2.81477E-11-2.81477E-11 2.41266E-11 6.54025E-20-3.34588E-19-8.71474E-20
 -1        64-2.81477E-11-2.81477E-11 2.41266E-11 2.31532E-19-2.58400E-19 2.04098E-19
 -1        65-2.81477E-11-2.81477E-11 2.41266E-11-1.28854E-19 1.66505E-19 2.59476E-19
 -1        66-4.22215E-11-4.22215E-11 3.61899E-11-3.04747E-19 2.42247E-19-1.75996E-19
 -1        67-8.44430E-11-8.44430E-11 7.23797E-11-3.58194E-19 1.36616E-18-8.54730E-20
 -1        68-4.22215E-11-4.22215E-11 3.61899E-11-1.51984E-19-2.76781E-19-1.15168E-20
 -1        69-4.22215E-11-4.22215E-11 3.61899E-11-3.32055E-19 2.85490E-19 4.33879E-20
 -1        70-4.22215E-11-4.22215E-11 3.61899E-11-3.12455E-19 3.91008E-19-1.17244E-19
 -1        71-4.22215E-11-4.22215E-11 3.61899E-11-2.86948E-19 1.79992E-20-3.70284E-19
 -1        72-8.44430E-11-8.44430E-11 7.23797E-11 8.96538E-20-1.75254E-18 1.02338E-19
 -3
    1PSTEP                        64          22           1          
  100CL  122 1.56781E-01          72                     0   22           1
 -4  DISP        4    1
 -5  D1          1    2    1    0
 -5  D2          1    2    2    0
 -5  D3          1    2    3    0
 -5  ALL         1    2    0    0    1ALL
 -1         1 0.00000E+00 0.00000E+00 0.00000E+00
 -1         2-4.47946E-08 0.00000E+00 0.00000E+00
 -1         3-2.35172E+00 0.00000E+00 0.00000E+00
 -1         4-2.35172E+00 0.00000E+00 0.00000E+00
 -1         5-4.70344E+00 0.00000E+00 0.00000E+00
 -1         6-4.70344E+00 0.00000E+00 0.00000E+00
 -1         7 0.00000E+00-4.47946E-08 0.00000E+00
 -1         8-4.47946E-08-4.47946E-08 0.00000E+00
 -1         9-2.35172E+00-4.47946E-08 0.00000E+00
 -1        10-2.35172E+00-4.47946E-08 0.00000E+00
 -1        11-4.70344E+00-4.47946E-08 0.00000E+00
 -1        12-4.70344E+00-4.47946E-08 0.00000E+00
 -1        13 0.00000E+00-2.35172E+00 0.00000E+00
 -1        14-4.47946E-08-2.35172E+00 0.00000E+00
 -1        15-2.35172E+00-2.35172E+00 0.00000E+00
 -1        16-2.35172E+00-2.35172E+00 0.00000E+00
 -1        17-4.70344E+00-2.35172E+00 0.00000E+00
 -1        18-4.70344E+00-2.35172E+00 0.00000E+00
 -1        19 0.00000E+00-2.35172E+00 0.00000E+00
 -1        20-4.47946E-08-2.35172E+00 0.00000E+00
 -1        21-2.35172E+00-2.35172E+00 0.00000E+00
 -1        22-2.35172E+00-2.35172E+00 0.00000E+00
 -1        23-4.70344E+00-2.35172E+00 0.00000E+00
 -1        24-4.70344E+00-2.35172E+00 0.00000E+00
 -1        25 0.00000E+00-4.70344E+00 0.00000E+00
 -1        26-4.47946E-08-4.70344E+00 0.00000E+00
 -1        27-2.35172E+00-4.70344E+00 0.00000E+00
 -1        28-2.35172E+00-4.70344E+00 0.00000E+00
 -1        29-4.70344E+00-4.70344E+00 0.00000E+00
 -1        30-4.70344E+00-4.70344E+00 0.00000E+00
 -1        31 0.00000E+00-4.70344E+00 0.00000E+00
 -1        32-4.47946E-08-4.70344E+00 0.00000E+00
 -1        33-2.35172E+00-4.70344E+00 0.00000E+00
 -1        34-2.35172E+00-4.70344E+00 0.00000E+00
 -1        35-4.70344E+00-4.70344E+00 0.00000E+00
 -1        36-4.70344E+00-4.70344E+00 0.00000E+00
 -1        37 0.00000E+00 0.00000E+00 5.37536E-08
 -1        38-4.47946E-08 0.00000E+00 5.37536E-08
 -1        39-2.35172E+00 0.00000E+00 5.37536E-08
 -1        40-2.35172E+00 0.00000E+00 5.37536E-08
 -1        41-4.70344E+00 0.00000E+00 5.37536E-08
 -1        42-4.70344E+00 0.00000E+00 5.37536E-08
 -1        43 0.00000E+00-4.47946E-08 5.37536E-08
 -1        44-4.47946E-08-4.47946E-08 5.37536E-08
 -1        45-2.35172E+00-4.47946E-08 5.37536E-08
 -1        46-2.35172E+00-4.47946E-08 5.37536E-08
 -1        47-4.70344E+00-4.47946E-08 5.37536E-08
 -1        48-4.70344E+00-4.47946E-08 5.37536E-08
 -1        49 0.00000E+00-2.35172E+00 5.37536E-08
 -1        50-4.47946E-08-2.35172E+00 5.37536E-08
 -1        51-2.35172E+00-2.35172E+00 5.37536E-08
 -1        52-2.35172E+00-2.35172E+00 5.37536E-08
 -1        53-4.70344E+00-2.35172E+00 5.37536E-08
 -1        54-4.70344E+00-2.35172E+00 5.37536E-08
 -1        55 0.00000E+00-2.35172E+00 5.37536E-08
 -1        56-4.47946E-08-2.35172E+00 5.37536E-08
 -1        57-2.35172E+00-2.35172E+00 5.37536E-08
 -1        58-2.35172E+00-2.35172E+00 5.37536E-08
 -1        59-4.70344E+00-2.35172E+00 5.37536E-08
 -1        60-4.70344E+00-2.35172E+00 5.37536E-08
 -1        61 0.00000E+00-4.70344E+00 5.37536E-08
 -1        62-4.47946E-08-4.70344E+00 5.37536E-08
 -1        63-2.35172E+00-4.70344E+00 5.37536E-08
 -1        64-2.35172E+00-4.70344E+00 5.37536E-08
 -1        65-4.70344E+00-4.70344E+00 5.37536E-08
 -1        66-4.70344E+00-4.70344E+00 5.37536E-08
 -1        67 0.00000E+00-4.70344E+00 5.37536E-08
 -1        68-4.47946E-08-4.70344E+00 5.37536E-08
 -1        69-2.35172E+00-4.70344E+00 5.37536E-08
 -1        70-2.35172E+00-4.70344E+00 5.37536E-08
 -1        71-4.70344E+00-4.70344E+00 5.37536E-08
 -1        72-4.70344E+00-4.70344E+00 5.37536E-08
 -3
    1PSTEP                        65          22           1          
  100CL  122 1.56781E-01          72                     0   22           1
 -4  STRESS      6    1
 -5  SXX         1    4    1    1
 -5  SYY         1    4    2    2
 -5  SZZ         1    4    3    3
 -5  SXY         1    4    1    2
 -5  SYZ         1    4    2    3
 -5  SZX         1    4    3    1
 -1         1-2.68757E-05-2.68757E-05 2.12809E-20-1.58007E-22 1.87550E-22 7.05347E-22
 -1         2-1.34379E-05-1.34379E-05 2.23108E-21-7.23024E-21-1.23933E-22-7.13591E-21
 -1         3-1.34379E-05-1.34379E-05 3.90878E-14-1.91698E-14 9.88615E-21-2.56381E-14
 -1         4-1.34379E-05-1.34379E-05 2.17733E-14-4.36993E-14 1.52246E-20 5.22120E-14
 -1         5-1.34379E-05-1.34379E-05 3.91493E-14 3.29820E-14 2.21816E-20-9.75644E-14
 -1         6-2.68757E-05-2.68757E-05 1.93441E-13 9.34501E-14-1.77686E-19 3.27929E-13
 -1         7-1.34379E-05-1.34379E-05-5.78523E-21-1.56213E-21 5.33975E-22 3.09257E-24
 -1         8-8.95857E-06-8.95857E-06-2.35466E-21-5.80892E-21 7.70107E-22 3.21527E-21
 -1         9-8.95857E-06-8.95857E-06-1.75531E-14-1.45741E-14-1.84152E-17 5.67579E-14
 -1        10-8.95857E-06-8.95857E-06-2.66319E-14-3.11418E-14-7.45944E-17-3.83069E-14
 -1        11-8.95857E-06-8.95857E-06-3.81995E-14 3.04558E-14-8.47985E-15 7.31654E-15
 -1        12-1.34379E-05-1.34379E-05-1.34961E-13-3.53965E-14 9.83885E-15 1.26723E-14
 -1        13-1.34379E-05-1.34379E-05 2.38986E-14 3.26812E-14-2.64319E-15 4.87115E-22
 -1        14-8.95857E-06-8.95857E-06 2.02057E-14 2.20217E-14-1.96933E-14-1.88107E-16
 -1        15-8.95857E-06-8.95857E-06-2.67905E-14 2.34744E-15-4.82947E-14 2.61372E-14
 -1        16-8.95857E-06-8.95857E-06-3.80957E-14-1.75824E-14 1.73274E-14-2.57722E-14
 -1        17-8.95857E-06-8.95857E-06 4.42930E-14 1.35977E-14-4.93221E-14-1.59965E-14
 -1        18-1.34379E-05-1.34379E-05 7.43149E-14-6.92671E-15 3.17436E-14 3.29456E-14
 -1        19-1.34379E-05-1.34379E-05 2.40602E-14-8.75701E-15 7.54857E-15 5.31132E-21
 -1        20-8.95857E-06-8.95857E-06 2.39224E-14-5.60378E-15 1.39011E-14-7.35075E-16
 -1        21-8.95857E-06-8.95857E-06-2.51589E-14 7.82927E-15 6.22764E-14-1.83369E-14
 -1        22-8.95857E-06-8.95857E-06-6.01280E-14 5.05485E-16-2.30155E-14-2.08527E-14
 -1        23-8.95857E-06-8.95857E-06-1.19811E-13-3.12689E-14 2.82503E-14 5.72884E-14
 -1        24-1.34379E-05-1.34379E-05-7.00309E-14 4.11157E-14 1.24128E-14-1.84431E-14
 -1        25-1.34379E-05-1.34379E-05-1.19681E-15-3.21773E-20-7.90631E-14 7.61562E-20
 -1        26-8.95857E-06-8.95857E-06-1.06516E-14 4.31718E-15 9.09030E-14 1.51733E-15
 -1        27-8.95857E-06-8.95857E-06 6.92677E-15 2.36121E-15-8.57145E-14 3.63823E-14
 -1        28-8.95857E-06-8.95857E-06-3.30999E-14-9.80328E-15 1.03581E-13-2.20738E-14
 -1        29-8.95857E-06-8.95857E-06 1.05703E-13 8.28144E-14 2.10437E-14-5.44546E-14
 -1        30-1.34379E-05-1.34379E-05-6.23825E-14 7.21162E-14-1.01149E-13 8.95219E-14
 -1        31-2.68757E-05-2.68757E-05-8.35091E-14-6.43546E-20 1.47452E-13 1.36676E-19
 -1        32-1.34379E-05-1.34379E-05-4.84896E-14 6.47576E-15-2.24574E-14-3.11379E-15
 -1        33-1.34379E-05-1.34379E-05 1.55115E-14 1.03320E-15 3.48488E-14 2.42386E-14
 -1        34-1.34379E-05-1.34379E-05 2.93317E-14 1.69558E-15-4.31185E-14-3.10790E-14
 -1        35-1.34379E-05-1.34379E-05 3.87242E-14-5.99552E-14 5.88530E-14 8.70186E-14
 -1        36-2.68757E-05-2.68757E-05-2.42725E-13 1.60413E-13-2.78737E-14-1.13797E-13
 -1        37-2.68757E-05-2.68757E-05-2.17347E-20 2.02301E-22 1.18024E-21 5.29506E-21
 -1        38-1.34379E-05-1.34379E-05 1.55014E-21 8.60847E-21-2.26294E-21-4.91270E-21
 -1        39-1.34379E-05-1.34379E-05 2.26538E-14 4.23119E-14-1.41559E-15 4.57408E-15
 -1        40-1.34379E-05-1.34379E-05 5.16234E-15-2.19456E-14 6.29302E-17-3.29404E-14
 -1        41-1.34379E-05-1.34379E-05-6.91631E-14-2.99554E-14 3.04629E-14-1.28636E-13
 -1        42-2.68757E-05-2.68757E-05 7.15630E-14 1.32583E-13-4.72605E-14 3.51009E-14
 -1        43-1.34379E-05-1.34379E-05 3.69808E-21 1.35827E-21-3.91724E-23-8.07537E-22
 -1        44-8.95857E-06-8.95857E-06 2.47243E-22 6.57706E-21-4.64851E-22 2.85310E-21
 -1        45-8.95857E-06-8.95857E-06 1.41808E-14 2.39311E-14-9.62152E-16-1.21386E-15
 -1        46-8.95857E-06-8.95857E-06 4.98401E-15-7.74642E-15-3.26511E-17 3.53616E-14
 -1        47-8.95857E-06-8.95857E-06 9.31902E-14 2.07705E-14 1.18288E-14 9.37720E-15
 -1        48-1.34379E-05-1.34379E-05 1.09497E-13-4.70486E-14-1.37913E-14-1.99509E-14
 -1        49-1.34379E-05-1.34379E-05 2.63661E-15-8.75702E-15 1.78614E-14-5.43851E-16
 -1        50-8.95857E-06-8.95857E-06-5.36575E-16-6.36954E-15-3.47000E-14-5.50674E-16
 -1        51-8.95857E-06-8.95857E-06 5.42217E-15 1.88331E-14 6.00843E-15-3.02004E-15
 -1        52-8.95857E-06-8.95857E-06-1.30087E-14 3.12123E-14-1.62815E-14 2.73026E-14
 -1        53-8.95857E-06-8.95857E-06-6.07890E-14 1.85630E-14 1.38414E-14-3.19212E-14
 -1        54-1.34379E-05-1.34379E-05 1.11514E-14-9.43021E-14-1.41418E-14-8.00131E-14
 -1        55-1.34379E-05-1.34379E-05 1.07526E-15 2.34618E-15-4.01136E-14 1.62149E-15
 -1        56-8.95857E-06-8.95857E-06 2.03141E-15 1.03259E-15 2.74370E-15 3.45916E-16
 -1        57-8.95857E-06-8.95857E-06-6.63956E-15-3.97019E-14 1.60177E-14-2.70459E-14
 -1        58-8.95857E-06-8.95857E-06-7.71729E-14-6.40102E-14 2.86129E-14 2.61276E-14
 -1        59-8.95857E-06-8.95857E-06 1.27058E-13 7.24835E-14 1.40896E-14 3.99867E-14
 -1        60-1.34379E-05-1.34379E-05 8.75945E-14 2.22928E-14-3.57044E-14-5.38391E-14
 -1        61-1.34379E-05-1.34379E-05-3.16597E-14-5.90420E-20 6.72692E-15-5.46600E-15
 -1        62-8.95857E-06-8.95857E-06 8.44580E-15-7.13306E-16-5.31137E-14-2.12672E-15
 -1        63-8.95857E-06-8.95857E-06-7.54775E-14-7.65363E-16-4.11486E-15-2.36020E-15
 -1        64-8.95857E-06-8.95857E-06 8.18702E-14 5.44069E-14-5.31728E-14 3.95735E-14
 -1        65-8.95857E-06-8.95857E-06 5.18109E-14 4.17762E-15-8.39757E-15-1.88462E-14
 -1        66-1.34379E-05-1.34379E-05 3.96443E-14 1.20157E-13-2.77957E-14-4.74003E-14
 -1        67-2.68757E-05-2.68757E-05-1.67072E-13-1.18084E-19 5.04846E-14-4.49557E-15
 -1        68-1.34379E-05-1.34379E-05-3.11620E-14-1.06996E-15 1.40095E-14-5.36165E-15
 -1        69-1.34379E-05-1.34379E-05-9.06347E-15-6.68435E-14-1.06423E-15-1.68312E-14
 -1        70-1.34379E-05-1.34379E-05-7.45716E-14-3.91165E-14 6.39584E-14-1.25678E-14
 -1        71-1.34379E-05-1.34379E-05 2.09712E-13 2.09242E-14 7.46162E-14 3.39575E-14
 -1        72-2.68757E-05-2.68757E-05 2.26095E-13-2.33122E-13-7.98288E-14 8.19387E-14
 -3
    1PSTEP                        66          22           1          
  100CL  122 1.56781E-01          72                     0   22           1
 -4  TOSTRAIN    6    1
 -5  EXX         1    4    1    1
 -5  EYY         1    4    2    2
 -5  EZZ         1    4    3    3
 -5  EXY         1    4    1    2
 -5  EYZ         1    4    2    3
 -5  EZX         1    4    3    1
 -1         1-8.95857E-11-8.95857E-11 7.67877E-11-9.78140E-28 1.16103E-27 4.36643E-27
 -1         2-4.47928E-11-4.47928E-11 3.83939E-11-4.47586E-26-7.67202E-28-4.41747E-26
 -1         3-4.47928E-11-4.47928E-11 3.83939E-11-1.18670E-19 6.12000E-26-1.58712E-19
 -1         4-4.47928E-11-4.47928E-11 3.83939E-11-2.70519E-19 9.42474E-26 3.23217E-19
 -1         5-4.47928E-11-4.47928E-11 3.83939E-11 2.04174E-19 1.37314E-25-6.03970E-19
 -1         6-8.95857E-11-8.95857E-11 7.67877E-11 5.78501E-19-1.09996E-24 2.03003E-18
 -1         7-4.47928E-11-4.47928E-11 3.83939E-11-9.67036E-27 3.30556E-27 1.91445E-29
 -1         8-2.98619E-11-2.98619E-11 2.55959E-11-3.59600E-26 4.76733E-27 1.99041E-26
 -1         9-2.98619E-11-2.98619E-11 2.55959E-11-9.02208E-20-1.13999E-22 3.51359E-19
 -1        10-2.98619E-11-2.98619E-11 2.55959E-11-1.92782E-19-4.61775E-22-2.37138E-19
 -1        11-2.98619E-11-2.98619E-11 2.55959E-11 1.88536E-19-5.24943E-20 4.52928E-20
 -1        12-4.47928E-11-4.47928E-11 3.83939E-11-2.19121E-19 6.09072E-20 7.84474E-20
 -1        13-4.47928E-11-4.47928E-11 3.83939E-11 2.02312E-19-1.63626E-20 3.01548E-27
 -1        14-2.98619E-11-2.98619E-11 2.55959E-11 1.36325E-19-1.21911E-19-1.16447E-21
 -1        15-2.98619E-11-2.98619E-11 2.55959E-11 1.45317E-20-2.98967E-19 1.61801E-19
 -1        16-2.98619E-11-2.98619E-11 2.55959E-11-1.08844E-19 1.07265E-19-1.59542E-19
 -1        17-2.98619E-11-2.98619E-11 2.55959E-11 8.41764E-20-3.05327E-19-9.90260E-20
 -1        18-4.47928E-11-4.47928E-11 3.83939E-11-4.28797E-20 1.96508E-19 2.03949E-19
 -1        19-4.47928E-11-4.47928E-11 3.83939E-11-5.42101E-20 4.67293E-20 3.28796E-26
 -1        20-2.98619E-11-2.98619E-11 2.55959E-11-3.46901E-20 8.60547E-20-4.55047E-21
 -1        21-2.98619E-11-2.98619E-11 2.55959E-11 4.84669E-20 3.85521E-19-1.13514E-19
 -1        22-2.98619E-11-2.98619E-11 2.55959E-11 3.12919E-21-1.42477E-19-1.29088E-19
 -1        23-2.98619E-11-2.98619E-11 2.55959E-11-1.93569E-19 1.74883E-19 3.54642E-19
 -1        24-4.47928E-11-4.47928E-11 3.83939E-11 2.54526E-19 7.68412E-20-1.14172E-19
 -1        25-4.47928E-11-4.47928E-11 3.83939E-11-1.99193E-25-4.89438E-19 4.71443E-25
 -1        26-2.98619E-11-2.98619E-11 2.55959E-11 2.67254E-20 5.62733E-19 9.39300E-21
 -1        27-2.98619E-11-2.98619E-11 2.55959E-11 1.46170E-20-5.30614E-19 2.25223E-19
 -1        28-2.98619E-11-2.98619E-11 2.55959E-11-6.06870E-20 6.41215E-19-1.36647E-19
 -1        29-2.98619E-11-2.98619E-11 2.55959E-11 5.12660E-19 1.30271E-19-3.37100E-19
 -1        30-4.47928E-11-4.47928E-11 3.83939E-11 4.46434E-19-6.26163E-19 5.54183E-19
 -1        31-8.95857E-11-8.95857E-11 7.67877E-11-3.98386E-25 9.12797E-19 8.46089E-25
 -1        32-4.47928E-11-4.47928E-11 3.83939E-11 4.00881E-20-1.39022E-19-1.92759E-20
 -1        33-4.47928E-11-4.47928E-11 3.83939E-11 6.39599E-21 2.15731E-19 1.50048E-19
 -1        34-4.47928E-11-4.47928E-11 3.83939E-11 1.04964E-20-2.66924E-19-1.92394E-19
 -1        35-4.47928E-11-4.47928E-11 3.83939E-11-3.71151E-19 3.64328E-19 5.38686E-19
 -1        36-8.95857E-11-8.95857E-11 7.67877E-11 9.93031E-19-1.72552E-19-7.04456E-19
 -1        37-8.95857E-11-8.95857E-11 7.67877E-11 1.25234E-27 7.30627E-27 3.27790E-26
 -1        38-4.47928E-11-4.47928E-11 3.83939E-11 5.32905E-26-1.40087E-26-3.04119E-26
 -1        39-4.47928E-11-4.47928E-11 3.83939E-11 2.61931E-19-8.76321E-21 2.83158E-20
 -1        40-4.47928E-11-4.47928E-11 3.83939E-11-1.35854E-19 3.89568E-22-2.03917E-19
 -1        41-4.47928E-11-4.47928E-11 3.83939E-11-1.85438E-19 1.88580E-19-7.96317E-19
 -1        42-8.95857E-11-8.95857E-11 7.67877E-11 8.20754E-19-2.92565E-19 2.17291E-19
 -1        43-4.47928E-11-4.47928E-11 3.83939E-11 8.40832E-27-2.42496E-28-4.99904E-27
 -1        44-2.98619E-11-2.98619E-11 2.55959E-11 4.07151E-26-2.87765E-27 1.76621E-26
 -1        45-2.98619E-11-2.98619E-11 2.55959E-11 1.48145E-19-5.95618E-21-7.51434E-21
 -1        46-2.98619E-11-2.98619E-11 2.55959E-11-4.79540E-20-2.02126E-22 2.18905E-19
 -1        47-2.98619E-11-2.98619E-11 2.55959E-11 1.28580E-19 7.32256E-20 5.80493E-20
 -1        48-4.47928E-11-4.47928E-11 3.83939E-11-2.91253E-19-8.53749E-20-1.23506E-19
 -1        49-4.47928E-11-4.47928E-11 3.83939E-11-5.42101E-20 1.10570E-19-3.36670E-21
 -1        50-2.98619E-11-2.98619E-11 2.55959E-11-3.94305E-20-2.14809E-19-3.40893E-21
 -1        51-2.98619E-11-2.98619E-11 2.55959E-11 1.16586E-19 3.71951E-20-1.86955E-20
 -1        52-2.98619E-11-2.98619E-11 2.55959E-11 1.93219E-19-1.00790E-19 1.69016E-19
 -1        53-2.98619E-11-2.98619E-11 2.55959E-11 1.14914E-19 8.56848E-20-1.97608E-19
 -1        54-4.47928E-11-4.47928E-11 3.83939E-11-5.83775E-19-8.75447E-20-4.95319E-19
 -1        55-4.47928E-11-4.47928E-11 3.83939E-11 1.45240E-20-2.48322E-19 1.00378E-20
 -1        56-2.98619E-11-2.98619E-11 2.55959E-11 6.39222E-21 1.69848E-20 2.14139E-21
 -1        57-2.98619E-11-2.98619E-11 2.55959E-11-2.45774E-19 9.91574E-20-1.67427E-19
 -1        58-2.98619E-11-2.98619E-11 2.55959E-11-3.96254E-19 1.77128E-19 1.61742E-19
 -1        59-2.98619E-11-2.98619E-11 2.55959E-11 4.48707E-19 8.72211E-20 2.47537E-19
 -1        60-4.47928E-11-4.47928E-11 3.83939E-11 1.38003E-19-2.21027E-19-3.33290E-19
 -1        61-4.47928E-11-4.47928E-11 3.83939E-11-3.65498E-25 4.16428E-20-3.38371E-20
 -1        62-2.98619E-11-2.98619E-11 2.55959E-11-4.41570E-21-3.28799E-19-1.31654E-20
 -1        63-2.98619E-11-2.98619E-11 2.55959E-11-4.73796E-21-2.54729E-20-1.46108E-20
 -1        64-2.98619E-11-2.98619E-11 2.55959E-11 3.36804E-19-3.29165E-19 2.44979E-19
 -1        65-2.98619E-11-2.98619E-11 2.55959E-11 2.58615E-20-5.19850E-20-1.16667E-19
 -1        66-4.47928E-11-4.47928E-11 3.83939E-11 7.43830E-19-1.72069E-19-2.93431E-19
 -1        67-8.95857E-11-8.95857E-11 7.67877E-11-7.30996E-25 3.12524E-19-2.78297E-20
 -1        68-4.47928E-11-4.47928E-11 3.83939E-11-6.62355E-21 8.67252E-20-3.31911E-20
 -1        69-4.47928E-11-4.47928E-11 3.83939E-11-4.13793E-19-6.58808E-21-1.04193E-19
 -1        70-4.47928E-11-4.47928E-11 3.83939E-11-2.42150E-19 3.95933E-19-7.78006E-20
 -1        71-4.47928E-11-4.47928E-11 3.83939E-11 1.29531E-19 4.61910E-19 2.10213E-19
 -1        72-8.95857E-11-8.95857E-11 7.67877E-11-1.44313E-18-4.94178E-19 5.07240E-19
 -3
    1PSTEP                        67          23           1          
  100CL  123 1.65781E-01          72                     0   23           1
 -4  DISP        4    1
 -5  D1          1    2    1    0
 -5  D2          1    2    2    0
 -5  D3          1    2    3    0
 -5  ALL         1    2    0    0    1ALL
 -1         1 0.00000E+00 0.00000E+00 0.00000E+00
 -1         2-4.73661E-08 0.00000E+00 0.00000E+00
 -1         3-2.48672E+00 0.00000E+00 0.00000E+00
 -1         4-2.48672E+00 0.00000E+00 0.00000E+00
 -1         5-4.97344E+00 0.00000E+00 0.00000E+00
 -1         6-4.97344E+00 0.00000E+00 0.00000E+00
 -1         7 0.00000E+00-4.73661E-08 0.00000E+00
 -1         8-4.73661E-08-4.73661E-08 0.00000E+00
 -1         9-2.48672E+00-4.73661E-08 0.00000E+00
 -1        10-2.48672E+00-4.73661E-08 0.00000E+00
 -1        11-4.97344E+00-4.73661E-08 0.00000E+00
 -1        12-4.97344E+00-4.73661E-08 0.00000E+00
 -1        13 0.00000E+00-2.48672E+00 0.00000E+00
 -1        14-4.73661E-08-2.48672E+00 0.00000E+00
 -1        15-2.48672E+00-2.48672E+00 0.00000E+00
 -1        16-2.48672E+00-2.48672E+00 0.00000E+00
 -1        17-4.97344E+00-2.48672E+00 0.00000E+00
 -1        18-4.97344E+00-2.48672E+00 0.00000E+00
 -1        19 0.00000E+00-2.48672E+00 0.00000E+00
 -1        20-4.73661E-08-2.48672E+00 0.00000E+00
 -1        21-2.48672E+00-2.48672E+00 0.00000E+00
 -1        22-2.48672E+00-2.48672E+00 0.00000E+00
 -1        23-4.97344E+00-2.48672E+00 0.00000E+00
 -1        24-4.97344E+00-2.48672E+00 0.00000E+00
 -1        25 0.00000E+00-4.97344E+00 0.00000E+00
 -1        26-4.73661E-08-4.97344E+00 0.00000E+00
 -1        27-2.48672E+00-4.97344E+00 0.00000E+00
 -1        28-2.48672E+00-4.97344E+00 0.00000E+00
 -1        29-4.97344E+00-4.97344E+00 0.00000E+00
 -1        30-4.97344E+00-4.97344E+00 0.00000E+00
 -1        31 0.00000E+00-4.97344E+00 0.00000E+00
 -1        32-4.73661E-08-4.97344E+00 0.00000E+00
 -1        33-2.48672E+00-4.97344E+00 0.00000E+00
 -1        34-2.48672E+00-4.97344E+00 0.00000E+00
 -1        35-4.97344E+00-4.97344E+00 0.00000E+00
 -1        36-4.97344E+00-4.97344E+00 0.00000E+00
 -1        37 0.00000E+00 0.00000E+00 5.68393E-08
 -1        38-4.73661E-08 0.00000E+00 5.68393E-08
 -1        39-2.48672E+00 0.00000E+00 5.68393E-08
 -1        40-2.48672E+00 0.00000E+00 5.68393E-08
 -1        41-4.97344E+00 0.00000E+00 5.68393E-08
 -1        42-4.97344E+00 0.00000E+00 5.68393E-08
 -1        43 0.00000E+00-4.73661E-08 5.68393E-08
 -1        44-4.73661E-08-4.73661E-08 5.68393E-08
 -1        45-2.48672E+00-4.73661E-08 5.68393E-08
 -1        46-2.48672E+00-4.73661E-08 5.68393E-08
 -1        47-4.97344E+00-4.73661E-08 5.68393E-08
 -1        48-4.97344E+00-4.73661E-08 5.68393E-08
 -1        49 0.00000E+00-2.48672E+00 5.68393E-08
 -1        50-4.73661E-08-2.48672E+00 5.68393E-08
 -1        51-2.48672E+00-2.48672E+00 5.68393E-08
 -1        52-2.48672E+00-2.48672E+00 5.68393E-08
 -1        53-4.97344E+00-2.48672E+00 5.68393E-08
 -1        54-4.97344E+00-2.48672E+00 5.68393E-08
 -1        55 0.00000E+00-2.48672E+00 5.68393E-08
 -1        56-4.73661E-08-2.48672E+00 5.68393E-08
 -1        57-2.48672E+00-2.48672E+00 5.68393E-08
 -1        58-2.48672E+00-2.48672E+00 5.68393E-08
 -1        59-4.97344E+00-2.48672E+00 5.68393E-08
 -1        60-4.97344E+00-2.48672E+00 5.68393E-08
 -1        61 0.00000E+00-4.97344E+00 5.68393E-08
 -1        62-4.73661E-08-4.97344E+00 5.68393E-08
 -1        63-2.48672E+00-4.97344E+00 5.68393E-08
 -1        64-2.48672E+00-4.97344E+00 5.68393E-08
 -1        65-4.97344E+00-4.97344E+00 5.68393E-08
 -1        66-4.97344E+00-4.97344E+00 5.68393E-08
 -1        67 0.00000E+00-4.97344E+00 5.68393E-08
 -1        68-4.73661E-08-4.97344E+00 5.68393E-08
 -1        69-2.48672E+00-4.97344E+00 5.68393E-08
 -1        70-2.48672E+00-4.97344E+00 5.68393E-08
 -1        71-4.97344E+00-4.97344E+00 5.68393E-08
 -1        72-4.97344E+00-4.97344E+00 5.68393E-08
 -3
    1PSTEP                        68          23           1          
  100CL  123 1.65781E-01          72                     0   23           1
 -4  STRESS      6    1
 -5  SXX         1    4    1    1
 -5  SYY         1    4    2    2
 -5  SZZ         1    4    3    3
 -5  SXY         1    4    1    2
 -5  SYZ         1    4    2    3
 -5  SZX         1    4    3    1
 -1         1-2.84185E-05-2.84185E-05 4.62819E-21-9.35349E-24 2.93644E-22 2.19024E-22
 -1         2-1.42093E-05-1.42093E-05 5.24828E-21-7.07802E-23-1.86850E-22-7.21418E-22
 -1         3-1.42093E-05-1.42093E-05 1.11713E-14-1.51423E-14-3.13949E-20 1.28669E-14
 -1         4-1.42093E-05-1.42093E-05 2.59915E-14 3.43059E-14-4.53063E-20-1.97176E-14
 -1         5-1.42093E-05-1.42093E-05-3.25473E-14 3.78816E-14-3.77874E-20-6.27663E-14
 -1         6-2.84185E-05-2.84185E-05-2.40291E-14-1.69545E-13-1.64262E-19 2.67575E-14
 -1         7-1.42093E-05-1.42093E-05-3.55429E-21 3.09603E-22 1.97487E-21-1.89628E-22
 -1         8-9.47283E-06-9.47283E-06-4.13397E-22 1.62333E-22 1.38773E-21-1.44582E-21
 -1         9-9.47283E-06-9.47283E-06 5.98819E-15 5.40790E-15-2.53465E-15-1.30682E-15
 -1        10-9.47283E-06-9.47283E-06-1.89618E-15 1.25173E-14 1.86075E-15-1.78973E-16
 -1        11-9.47283E-06-9.47283E-06 5.85039E-14-2.60205E-14-1.47333E-14-3.24038E-14
 -1        12-1.42093E-05-1.42093E-05-5.04960E-14 5.80964E-14 2.88645E-14-4.65093E-14
 -1        13-1.42093E-05-1.42093E-05-5.25183E-14 9.76256E-15-1.95173E-14 1.26900E-21
 -1        14-9.47283E-06-9.47283E-06-1.87538E-14 5.70139E-15 6.26230E-15-1.26769E-16
 -1        15-9.47283E-06-9.47283E-06-8.09421E-15 4.12169E-14-1.11965E-14-5.17265E-15
 -1        16-9.47283E-06-9.47283E-06-9.95881E-14 3.93905E-14-3.55381E-14 2.70699E-14
 -1        17-9.47283E-06-9.47283E-06-4.07506E-14-4.10466E-14 3.61312E-15-3.76754E-14
 -1        18-1.42093E-05-1.42093E-05-1.22733E-14 8.71463E-15-6.09199E-14 1.32099E-13
 -1        19-1.42093E-05-1.42093E-05-5.88580E-14-9.65516E-15-5.12978E-15-4.81048E-21
 -1        20-9.47283E-06-9.47283E-06-3.13080E-14-7.24376E-15-1.54510E-15 2.00290E-15
 -1        21-9.47283E-06-9.47283E-06 4.10783E-14 1.05342E-14 4.35506E-15 3.92555E-14
 -1        22-9.47283E-06-9.47283E-06-3.00993E-15-1.41579E-14 4.46683E-15-2.72465E-14
 -1        23-9.47283E-06-9.47283E-06 8.35581E-16 2.38193E-14 1.87596E-14 1.97460E-14
 -1        24-1.42093E-05-1.42093E-05 3.35611E-14 2.81836E-15 1.09713E-14-1.24979E-14
 -1        25-1.42093E-05-1.42093E-05-7.80870E-14 2.37526E-19-8.42561E-14-3.11917E-20
 -1        26-9.47283E-06-9.47283E-06-4.24311E-14-6.99383E-15-4.54061E-14 4.69803E-15
 -1        27-9.47283E-06-9.47283E-06 8.24016E-14 8.96556E-14-8.68108E-14-2.15393E-14
 -1        28-9.47283E-06-9.47283E-06 1.71714E-13 4.14141E-14 5.14308E-14 9.47260E-15
 -1        29-9.47283E-06-9.47283E-06-8.51867E-14-2.49155E-14 1.09612E-14-7.14146E-14
 -1        30-1.42093E-05-1.42093E-05-2.73269E-14 8.12932E-15-5.02592E-14 1.67813E-13
 -1        31-2.84185E-05-2.84185E-05-4.68451E-14 4.75052E-19 5.76385E-14 5.85096E-20
 -1        32-1.42093E-05-1.42093E-05 4.42669E-14-1.04907E-14 7.18809E-14 2.84762E-15
 -1        33-1.42093E-05-1.42093E-05 1.70006E-13 4.51074E-14 5.41226E-14 2.73442E-14
 -1        34-1.42093E-05-1.42093E-05-1.97741E-13 3.50171E-15-1.55176E-14-3.50848E-14
 -1        35-1.42093E-05-1.42093E-05-5.47499E-15-9.61520E-15-1.00669E-13 3.12794E-14
 -1        36-2.84185E-05-2.84185E-05 1.12350E-13 1.92332E-14 1.71276E-13-1.09161E-13
 -1        37-2.84185E-05-2.84185E-05 4.62819E-21 3.49713E-23-2.95623E-21-9.47251E-22
 -1        38-1.42093E-05-1.42093E-05 5.24828E-21-5.37948E-22-5.39529E-22-1.37620E-21
 -1        39-1.42093E-05-1.42093E-05 1.48417E-14 2.49754E-14 8.11330E-15 2.41680E-14
 -1        40-1.42093E-05-1.42093E-05 4.35075E-14-1.03343E-14-2.54541E-15-1.35463E-14
 -1        41-1.42093E-05-1.42093E-05-1.56845E-14 1.65187E-14 3.19126E-14 8.42185E-15
 -1        42-2.84185E-05-2.84185E-05 2.23748E-13-1.53634E-13-6.32026E-14-2.67941E-13
 -1        43-1.42093E-05-1.42093E-05-3.55429E-21-3.53297E-22 3.49932E-22 9.17181E-22
 -1        44-9.47283E-06-9.47283E-06-4.13397E-22-6.05820E-22 1.15261E-21-5.29695E-22
 -1        45-9.47283E-06-9.47283E-06-1.41639E-15-5.97940E-14 2.87424E-15-6.48767E-15
 -1        46-9.47283E-06-9.47283E-06-7.03884E-17 2.35237E-14 1.63840E-16 1.77630E-14
 -1        47-9.47283E-06-9.47283E-06-2.22017E-14 1.37149E-14 6.54176E-15-3.72473E-14
 -1        48-1.42093E-05-1.42093E-05-6.45288E-14 1.01516E-13-2.73670E-15 1.71331E-13
 -1        49-1.42093E-05-1.42093E-05 1.10654E-13 2.82636E-14-5.53171E-14 1.20451E-15
 -1        50-9.47283E-06-9.47283E-06 4.64789E-15 2.10170E-14 1.85855E-14 6.76237E-16
 -1        51-9.47283E-06-9.47283E-06-3.05049E-14-1.79503E-14 8.97804E-15 2.33910E-14
 -1        52-9.47283E-06-9.47283E-06 4.01112E-14-5.13993E-14-2.36566E-14 2.03765E-14
 -1        53-9.47283E-06-9.47283E-06 1.27355E-13 8.27713E-14 1.32053E-14 7.39080E-15
 -1        54-1.42093E-05-1.42093E-05-6.56735E-14-4.01071E-14-9.38903E-14-1.09843E-13
 -1        55-1.42093E-05-1.42093E-05 1.11023E-13-3.38440E-14 5.11900E-14-3.79211E-15
 -1        56-9.47283E-06-9.47283E-06-3.43395E-15-2.03881E-14-1.12289E-14-5.25167E-16
 -1        57-9.47283E-06-9.47283E-06-7.20779E-14-6.93095E-14-5.74762E-15-4.83472E-14
 -1        58-9.47283E-06-9.47283E-06 4.02561E-14 3.29769E-15 5.03031E-15 1.67337E-14
 -1        59-9.47283E-06-9.47283E-06-9.05898E-14-7.00268E-14 1.07806E-14-8.33054E-14
 -1        60-1.42093E-05-1.42093E-05 3.45065E-14-8.48502E-15 1.42092E-14 1.49034E-13
 -1        61-1.42093E-05-1.42093E-05-3.84550E-14 2.16397E-19 3.34850E-15-1.55328E-14
 -1        62-9.47283E-06-9.47283E-06-2.25775E-14-1.09134E-14-2.49153E-14-5.65713E-15
 -1        63-9.47283E-06-9.47283E-06-9.15568E-14-3.11604E-14 5.05154E-14 1.81891E-14
 -1        64-9.47283E-06-9.47283E-06-4.04071E-14 1.55361E-14-1.02299E-14-5.91640E-15
 -1        65-9.47283E-06-9.47283E-06-9.27705E-14-2.39239E-14-4.78548E-14 4.61669E-14
 -1        66-1.42093E-05-1.42093E-05-1.89995E-14 3.58873E-14 1.21334E-13-1.21692E-13
 -1        67-2.84185E-05-2.84185E-05 1.47810E-14 4.32794E-19-1.54360E-14 1.15339E-14
 -1        68-1.42093E-05-1.42093E-05 6.52285E-14-1.63701E-14-5.56512E-14 8.61455E-15
 -1        69-1.42093E-05-1.42093E-05-1.51801E-14-2.98318E-14-6.28644E-14-5.00555E-14
 -1        70-1.42093E-05-1.42093E-05 1.57041E-13 6.52817E-14-2.14686E-14 9.59765E-15
 -1        71-1.42093E-05-1.42093E-05-3.65537E-14-1.13211E-13 1.29792E-13 1.12901E-14
 -1        72-2.84185E-05-2.84185E-05 8.95988E-14-1.35416E-13-3.72479E-13 3.39001E-14
 -3
    1PSTEP                        69          23           1          
  100CL  123 1.65781E-01          72                     0   23           1
 -4  TOSTRAIN    6    1
 -5  EXX         1    4    1    1
 -5  EYY         1    4    2    2
 -5  EZZ         1    4    3    3
 -5  EXY         1    4    1    2
 -5  EYZ         1    4    2    3
 -5  EZX         1    4    3    1
 -1         1-9.47283E-11-9.47283E-11 8.11957E-11-5.79026E-29 1.81779E-27 1.35587E-27
 -1         2-4.73642E-11-4.73642E-11 4.05979E-11-4.38163E-28-1.15669E-27-4.46592E-27
 -1         3-4.73642E-11-4.73642E-11 4.05979E-11-9.37381E-20-1.94349E-25 7.96524E-20
 -1         4-4.73642E-11-4.73642E-11 4.05979E-11 2.12370E-19-2.80468E-25-1.22061E-19
 -1         5-4.73642E-11-4.73642E-11 4.05979E-11 2.34505E-19-2.33922E-25-3.88553E-19
 -1         6-9.47283E-11-9.47283E-11 8.11957E-11-1.04956E-18-1.01686E-24 1.65642E-19
 -1         7-4.73642E-11-4.73642E-11 4.05979E-11 1.91659E-27 1.22254E-26-1.17389E-27
 -1         8-3.15761E-11-3.15761E-11 2.70652E-11 1.00492E-27 8.59071E-27-8.95029E-27
 -1         9-3.15761E-11-3.15761E-11 2.70652E-11 3.34775E-20-1.56907E-20-8.08983E-21
 -1        10-3.15761E-11-3.15761E-11 2.70652E-11 7.74878E-20 1.15189E-20-1.10793E-21
 -1        11-3.15761E-11-3.15761E-11 2.70652E-11-1.61079E-19-9.12064E-20-2.00595E-19
 -1        12-4.73642E-11-4.73642E-11 4.05979E-11 3.59644E-19 1.78685E-19-2.87915E-19
 -1        13-4.73642E-11-4.73642E-11 4.05979E-11 6.04349E-20-1.20821E-19 7.85569E-27
 -1        14-3.15761E-11-3.15761E-11 2.70652E-11 3.52943E-20 3.87666E-20-7.84760E-22
 -1        15-3.15761E-11-3.15761E-11 2.70652E-11 2.55153E-19-6.93114E-20-3.20212E-20
 -1        16-3.15761E-11-3.15761E-11 2.70652E-11 2.43846E-19-2.19998E-19 1.67576E-19
 -1        17-3.15761E-11-3.15761E-11 2.70652E-11-2.54098E-19 2.23669E-20-2.33229E-19
 -1        18-4.73642E-11-4.73642E-11 4.05979E-11 5.39477E-20-3.77123E-19 8.17756E-19
 -1        19-4.73642E-11-4.73642E-11 4.05979E-11-5.97701E-20-3.17558E-20-2.97792E-26
 -1        20-3.15761E-11-3.15761E-11 2.70652E-11-4.48423E-20-9.56493E-21 1.23989E-20
 -1        21-3.15761E-11-3.15761E-11 2.70652E-11 6.52115E-20 2.69599E-20 2.43010E-19
 -1        22-3.15761E-11-3.15761E-11 2.70652E-11-8.76444E-20 2.76518E-20-1.68669E-19
 -1        23-3.15761E-11-3.15761E-11 2.70652E-11 1.47453E-19 1.16131E-19 1.22237E-19
 -1        24-4.73642E-11-4.73642E-11 4.05979E-11 1.74470E-20 6.79177E-20-7.73678E-20
 -1        25-4.73642E-11-4.73642E-11 4.05979E-11 1.47040E-24-5.21585E-19-1.93092E-25
 -1        26-3.15761E-11-3.15761E-11 2.70652E-11-4.32952E-20-2.81085E-19 2.90831E-20
 -1        27-3.15761E-11-3.15761E-11 2.70652E-11 5.55011E-19-5.37400E-19-1.33338E-19
 -1        28-3.15761E-11-3.15761E-11 2.70652E-11 2.56373E-19 3.18381E-19 5.86399E-20
 -1        29-3.15761E-11-3.15761E-11 2.70652E-11-1.54239E-19 6.78548E-20-4.42091E-19
 -1        30-4.73642E-11-4.73642E-11 4.05979E-11 5.03243E-20-3.11129E-19 1.03884E-18
 -1        31-9.47283E-11-9.47283E-11 8.11957E-11 2.94080E-24 3.56810E-19 3.62202E-25
 -1        32-4.73642E-11-4.73642E-11 4.05979E-11-6.49427E-20 4.44977E-19 1.76281E-20
 -1        33-4.73642E-11-4.73642E-11 4.05979E-11 2.79237E-19 3.35044E-19 1.69273E-19
 -1        34-4.73642E-11-4.73642E-11 4.05979E-11 2.16772E-20-9.60616E-20-2.17192E-19
 -1        35-4.73642E-11-4.73642E-11 4.05979E-11-5.95227E-20-6.23190E-19 1.93634E-19
 -1        36-9.47283E-11-9.47283E-11 8.11957E-11 1.19063E-19 1.06028E-18-6.75759E-19
 -1        37-9.47283E-11-9.47283E-11 8.11957E-11 2.16489E-28-1.83005E-26-5.86393E-27
 -1        38-4.73642E-11-4.73642E-11 4.05979E-11-3.33015E-27-3.33994E-27-8.51931E-27
 -1        39-4.73642E-11-4.73642E-11 4.05979E-11 1.54609E-19 5.02252E-20 1.49611E-19
 -1        40-4.73642E-11-4.73642E-11 4.05979E-11-6.39743E-20-1.57573E-20-8.38582E-20
 -1        41-4.73642E-11-4.73642E-11 4.05979E-11 1.02258E-19 1.97554E-19 5.21353E-20
 -1        42-9.47283E-11-9.47283E-11 8.11957E-11-9.51066E-19-3.91254E-19-1.65868E-18
 -1        43-4.73642E-11-4.73642E-11 4.05979E-11-2.18708E-27 2.16625E-27 5.67779E-27
 -1        44-3.15761E-11-3.15761E-11 2.70652E-11-3.75032E-27 7.13521E-27-3.27907E-27
 -1        45-3.15761E-11-3.15761E-11 2.70652E-11-3.70153E-19 1.77929E-20-4.01618E-20
 -1        46-3.15761E-11-3.15761E-11 2.70652E-11 1.45623E-19 1.01425E-21 1.09962E-19
 -1        47-3.15761E-11-3.15761E-11 2.70652E-11 8.49016E-20 4.04966E-20-2.30579E-19
 -1        48-4.73642E-11-4.73642E-11 4.05979E-11 6.28433E-19-1.69415E-20 1.06062E-18
 -1        49-4.73642E-11-4.73642E-11 4.05979E-11 1.74965E-19-3.42439E-19 7.45649E-21
 -1        50-3.15761E-11-3.15761E-11 2.70652E-11 1.30105E-19 1.15053E-19 4.18623E-21
 -1        51-3.15761E-11-3.15761E-11 2.70652E-11-1.11121E-19 5.55783E-20 1.44801E-19
 -1        52-3.15761E-11-3.15761E-11 2.70652E-11-3.18186E-19-1.46445E-19 1.26140E-19
 -1        53-3.15761E-11-3.15761E-11 2.70652E-11 5.12394E-19 8.17471E-20 4.57526E-20
 -1        54-4.73642E-11-4.73642E-11 4.05979E-11-2.48282E-19-5.81226E-19-6.79979E-19
 -1        55-4.73642E-11-4.73642E-11 4.05979E-11-2.09510E-19 3.16890E-19-2.34750E-20
 -1        56-3.15761E-11-3.15761E-11 2.70652E-11-1.26212E-19-6.95123E-20-3.25103E-21
 -1        57-3.15761E-11-3.15761E-11 2.70652E-11-4.29059E-19-3.55805E-20-2.99292E-19
 -1        58-3.15761E-11-3.15761E-11 2.70652E-11 2.04143E-20 3.11400E-20 1.03590E-19
 -1        59-3.15761E-11-3.15761E-11 2.70652E-11-4.33499E-19 6.67372E-20-5.15700E-19
 -1        60-4.73642E-11-4.73642E-11 4.05979E-11-5.25263E-20 8.79616E-20 9.22591E-19
 -1        61-4.73642E-11-4.73642E-11 4.05979E-11 1.33960E-24 2.07288E-20-9.61553E-20
 -1        62-3.15761E-11-3.15761E-11 2.70652E-11-6.75590E-20-1.54238E-19-3.50203E-20
 -1        63-3.15761E-11-3.15761E-11 2.70652E-11-1.92898E-19 3.12714E-19 1.12599E-19
 -1        64-3.15761E-11-3.15761E-11 2.70652E-11 9.61758E-20-6.33280E-20-3.66253E-20
 -1        65-3.15761E-11-3.15761E-11 2.70652E-11-1.48101E-19-2.96244E-19 2.85795E-19
 -1        66-4.73642E-11-4.73642E-11 4.05979E-11 2.22160E-19 7.51114E-19-7.53334E-19
 -1        67-9.47283E-11-9.47283E-11 8.11957E-11 2.67920E-24-9.55563E-20 7.14005E-20
 -1        68-4.73642E-11-4.73642E-11 4.05979E-11-1.01338E-19-3.44507E-19 5.33282E-20
 -1        69-4.73642E-11-4.73642E-11 4.05979E-11-1.84673E-19-3.89161E-19-3.09867E-19
 -1        70-4.73642E-11-4.73642E-11 4.05979E-11 4.04125E-19-1.32901E-19 5.94140E-20
 -1        71-4.73642E-11-4.73642E-11 4.05979E-11-7.00828E-19 8.03473E-19 6.98913E-20
 -1        72-9.47283E-11-9.47283E-11 8.11957E-11-8.38292E-19-2.30582E-18 2.09858E-19
 -3
    1PSTEP                        70          24           1          
  100CL  124 1.74781E-01          72                     0   24           1
 -4  DISP        4    1
 -5  D1          1    2    1    0
 -5  D2          1    2    2    0
 -5  D3          1    2    3    0
 -5  ALL         1    2    0    0    1ALL
 -1         1 0.00000E+00 0.00000E+00 0.00000E+00
 -1         2-4.99375E-08 0.00000E+00 0.00000E+00
 -1         3-2.62172E+00 0.00000E+00 0.00000E+00
 -1         4-2.62172E+00 0.00000E+00 0.00000E+00
 -1         5-5.24344E+00 0.00000E+00 0.00000E+00
 -1         6-5.24344E+00 0.00000E+00 0.00000E+00
 -1         7 0.00000E+00-4.99375E-08 0.00000E+00
 -1         8-4.99375E-08-4.99375E-08 0.00000E+00
 -1         9-2.62172E+00-4.99375E-08 0.00000E+00
 -1        10-2.62172E+00-4.99375E-08 0.00000E+00
 -1        11-5.24344E+00-4.99375E-08 0.00000E+00
 -1        12-5.24344E+00-4.99375E-08 0.00000E+00
 -1        13 0.00000E+00-2.62172E+00 0.00000E+00
 -1        14-4.99375E-08-2.62172E+00 0.00000E+00
 -1        15-2.62172E+00-2.62172E+00 0.00000E+00
 -1        16-2.62172E+00-2.62172E+00 0.00000E+00
 -1        17-5.24344E+00-2.62172E+00 0.00000E+00
 -1        18-5.24344E+00-2.62172E+00 0.00000E+00
 -1        19 0.00000E+00-2.62172E+00 0.00000E+00
 -1        20-4.99375E-08-2.62172E+00 0.00000E+00
 -1        21-2.62172E+00-2.62172E+00 0.00000E+00
 -1        22-2.62172E+00-2.62172E+00 0.00000E+00
 -1        23-5.24344E+00-2.62172E+00 0.00000E+00
 -1        24-5.24344E+00-2.62172E+00 0.00000E+00
 -1        25 0.00000E+00-5.24344E+00 0.00000E+00
 -1        26-4.99375E-08-5.24344E+00 0.00000E+00
 -1        27-2.62172E+00-5.24344E+00 0.00000E+00
 -1        28-2.62172E+00-5.24344E+00 0.00000E+00
 -1        29-5.24344E+00-5.24344E+00 0.00000E+00
 -1        30-5.24344E+00-5.24344E+00 0.00000E+00
 -1        31 0.00000E+00-5.24344E+00 0.00000E+00
 -1        32-4.99375E-08-5.24344E+00 0.00000E+00
 -1        33-2.62172E+00-5.24344E+00 0.00000E+00
 -1        34-2.62172E+00-5.24344E+00 0.00000E+00
 -1        35-5.24344E+00-5.24344E+00 0.00000E+00
 -1        36-5.24344E+00-5.24344E+00 0.00000E+00
 -1        37 0.00000E+00 0.00000E+00 5.99250E-08
 -1        38-4.99375E-08 0.00000E+00 5.99250E-08
 -1        39-2.62172E+00 0.00000E+00 5.99250E-08
 -1        40-2.62172E+00 0.00000E+00 5.99250E-08
 -1        41-5.24344E+00 0.00000E+00 5.99250E-08
 -1        42-5.24344E+00 0.00000E+00 5.99250E-08
 -1        43 0.00000E+00-4.99375E-08 5.99250E-08
 -1        44-4.99375E-08-4.99375E-08 5.99250E-08
 -1        45-2.62172E+00-4.99375E-08 5.99250E-08
 -1        46-2.62172E+00-4.99375E-08 5.99250E-08
 -1        47-5.24344E+00-4.99375E-08 5.99250E-08
 -1        48-5.24344E+00-4.99375E-08 5.99250E-08
 -1        49 0.00000E+00-2.62172E+00 5.99250E-08
 -1        50-4.99375E-08-2.62172E+00 5.99250E-08
 -1        51-2.62172E+00-2.62172E+00 5.99250E-08
 -1        52-2.62172E+00-2.62172E+00 5.99250E-08
 -1        53-5.24344E+00-2.62172E+00 5.99250E-08
 -1        54-5.24344E+00-2.62172E+00 5.99250E-08
 -1        55 0.00000E+00-2.62172E+00 5.99250E-08
 -1        56-4.99375E-08-2.62172E+00 5.99250E-08
 -1        57-2.62172E+00-2.62172E+00 5.99250E-08
 -1        58-2.62172E+00-2.62172E+00 5.99250E-08
 -1        59-5.24344E+00-2.62172E+00 5.99250E-08
 -1        60-5.24344E+00-2.62172E+00 5.99250E-08
 -1        61 0.00000E+00-5.24344E+00 5.99250E-08
 -1        62-4.99375E-08-5.24344E+00 5.99250E-08
 -1        63-2.62172E+00-5.24344E+00 5.99250E-08
 -1        64-2.62172E+00-5.24344E+00 5.99250E-08
 -1        65-5.24344E+00-5.24344E+00 5.99250E-08
 -1        66-5.24344E+00-5.24344E+00 5.99250E-08
 -1        67 0.00000E+00-5.24344E+00 5.99250E-08
 -1        68-4.99375E-08-5.24344E+00 5.99250E-08
 -1        69-2.62172E+00-5.24344E+00 5.99250E-08
 -1        70-2.62172E+00-5.24344E+00 5.99250E-08
 -1        71-5.24344E+00-5.24344E+00 5.99250E-08
 -1        72-5.24344E+00-5.24344E+00 5.99250E-08
 -3
    1PSTEP                        71          24           1          
  100CL  124 1.74781E-01          72                     0   24           1
 -4  STRESS      6    1
 -5  SXX         1    4    1    1
 -5  SYY         1    4    2    2
 -5  SZZ         1    4    3    3
 -5  SXY         1    4    1    2
 -5  SYZ         1    4    2    3
 -5  SZX         1    4    3    1
 -1         1-2.99613E-05-2.99613E-05 1.43387E-20 4.47632E-22 5.72016E-23 3.93471E-22
 -1         2-1.49806E-05-1.49806E-05-9.93726E-21-9.39484E-22-1.81361E-22 5.14889E-22
 -1         3-1.49806E-05-1.49806E-05 6.69652E-15 5.53725E-15-2.07138E-20 2.60450E-15
 -1         4-1.49806E-05-1.49806E-05-4.29914E-15 9.66959E-15-2.44048E-20-3.39579E-14
 -1         5-1.49806E-05-1.49806E-05-8.31850E-15 1.38001E-14-5.39395E-20-1.08667E-13
 -1         6-2.99613E-05-2.99613E-05-4.25998E-14 1.83314E-14-1.94560E-20-5.90941E-14
 -1         7-1.49806E-05-1.49806E-05 1.01035E-20-5.98419E-21-5.77613E-21-2.67655E-22
 -1         8-9.98710E-06-9.98710E-06-4.66871E-21-4.38291E-21 1.32197E-21 2.32766E-21
 -1         9-9.98710E-06-9.98710E-06 2.48718E-15 9.57829E-15 4.02295E-15 3.35708E-14
 -1        10-9.98710E-06-9.98710E-06 1.67578E-14 1.21185E-14-5.30716E-15 3.81594E-16
 -1        11-9.98710E-06-9.98710E-06-1.58181E-14-1.39421E-14-6.95687E-15 6.89779E-14
 -1        12-1.49806E-05-1.49806E-05-4.15586E-14 5.58406E-14 4.04621E-15 9.44593E-14
 -1        13-1.49806E-05-1.49806E-05-8.16818E-14-2.29186E-14-7.06060E-15-2.36960E-20
 -1        14-9.98710E-06-9.98710E-06 5.43519E-14-1.49959E-14 1.75689E-14 1.57406E-16
 -1        15-9.98710E-06-9.98710E-06-1.17020E-14-1.38874E-14-7.80578E-15-2.53618E-14
 -1        16-9.98710E-06-9.98710E-06-1.96374E-15 1.03880E-14-9.46577E-15 3.57006E-14
 -1        17-9.98710E-06-9.98710E-06-5.13038E-14-4.61101E-14-2.59756E-14-1.20860E-14
 -1        18-1.49806E-05-1.49806E-05 1.99420E-14-5.37987E-14-2.16280E-14 6.98909E-15
 -1        19-1.49806E-05-1.49806E-05-9.61110E-14 3.70206E-14 5.42346E-14-2.89671E-20
 -1        20-9.98710E-06-9.98710E-06 3.85989E-14 2.49636E-14-3.92389E-14 1.53659E-15
 -1        21-9.98710E-06-9.98710E-06 2.63952E-15 2.82736E-14 1.82505E-14 1.49239E-14
 -1        22-9.98710E-06-9.98710E-06 8.58642E-14 7.30533E-14-1.33573E-14-1.42586E-14
 -1        23-9.98710E-06-9.98710E-06-1.05193E-14 4.21941E-14-6.58695E-15 3.99839E-14
 -1        24-1.49806E-05-1.49806E-05-2.57551E-14-1.68096E-14-6.19136E-14 2.58996E-15
 -1        25-1.49806E-05-1.49806E-05 5.61697E-14-1.17339E-15-1.74439E-13-4.70409E-20
 -1        26-9.98710E-06-9.98710E-06-1.62465E-14-8.14861E-15 5.08885E-15 5.11376E-15
 -1        27-9.98710E-06-9.98710E-06 5.80742E-14 4.72388E-14-1.25850E-13-2.65308E-14
 -1        28-9.98710E-06-9.98710E-06-1.14296E-13 8.92186E-14 2.59556E-14 3.31704E-15
 -1        29-9.98710E-06-9.98710E-06 1.22770E-14 1.22766E-14-1.39227E-14-9.16211E-15
 -1        30-1.49806E-05-1.49806E-05 2.35091E-14-8.05505E-15 6.27722E-14 3.61226E-14
 -1        31-2.99613E-05-2.99613E-05 3.04891E-13 6.27805E-16-8.85276E-14-1.38992E-19
 -1        32-1.49806E-05-1.49806E-05 3.27503E-14-1.07356E-14 5.04966E-14 1.71545E-14
 -1        33-1.49806E-05-1.49806E-05 1.23600E-13-1.02954E-13 2.09295E-13 5.11174E-15
 -1        34-1.49806E-05-1.49807E-05-1.74198E-13-1.84453E-15-2.85738E-14-1.90771E-14
 -1        35-1.49806E-05-1.49806E-05 5.95955E-14 4.67173E-14 1.53150E-15-3.40896E-14
 -1        36-2.99613E-05-2.99613E-05-1.69803E-13-2.27364E-13-3.30431E-15 2.62581E-13
 -1        37-2.99613E-05-2.99613E-05-1.98745E-20-9.43973E-22 4.41795E-21 2.59082E-22
 -1        38-1.49806E-05-1.49806E-05-1.63321E-21 2.26529E-21 5.23993E-22 8.05902E-22
 -1        39-1.49806E-05-1.49806E-05 4.10838E-15-3.51390E-14-4.18263E-15 8.92797E-15
 -1        40-1.49806E-05-1.49806E-05-3.62771E-14 1.79289E-14 8.77797E-15 1.83409E-15
 -1        41-1.49806E-05-1.49806E-05 7.50034E-15-8.21117E-14 6.04487E-15 8.27108E-14
 -1        42-2.99613E-05-2.99613E-05 4.98600E-14 1.60044E-13 8.20980E-15-3.64883E-14
 -1        43-1.49806E-05-1.49806E-05-7.00307E-21 5.04986E-21-2.52626E-21-2.42329E-21
 -1        44-9.98710E-06-9.98710E-06 8.67317E-22 3.76543E-21 1.60116E-21-6.79870E-25
 -1        45-9.98710E-06-9.98710E-06 4.04561E-15-3.30053E-14 1.23454E-15-3.24426E-14
 -1        46-9.98710E-06-9.98710E-06-1.27704E-15 1.35341E-14 5.44837E-16-4.27616E-15
 -1        47-9.98710E-06-9.98710E-06 1.29549E-15-4.51361E-14-2.92692E-15-6.92691E-14
 -1        48-1.49806E-05-1.49806E-05 1.45229E-14 3.93119E-14 8.15112E-15-3.13510E-14
 -1        49-1.49806E-05-1.49806E-05 1.41319E-14-8.98146E-16-2.98107E-14 2.13029E-15
 -1        50-9.98710E-06-9.98710E-06 3.28479E-14 1.61527E-15-4.29919E-14 1.57762E-15
 -1        51-9.98710E-06-9.98710E-06-3.41310E-14-8.47198E-15-2.88352E-14-1.80047E-16
 -1        52-9.98710E-06-9.98710E-06-4.04572E-15 1.87939E-14 4.26898E-14 1.00435E-14
 -1        53-9.98710E-06-9.98710E-06-9.72775E-14 9.01704E-15-9.08574E-15 6.62396E-15
 -1        54-1.49806E-05-1.49806E-05 7.90511E-14 2.53722E-14 1.11203E-14-5.40176E-14
 -1        55-1.49806E-05-1.49806E-05 4.04714E-15-3.61902E-14-3.37185E-15-1.54977E-15
 -1        56-9.98710E-06-9.98710E-06 1.99913E-14-2.19128E-14-1.30745E-14 5.03433E-16
 -1        57-9.98710E-06-9.98710E-06 1.04090E-14-1.80511E-14 3.95177E-14-1.26832E-14
 -1        58-9.98710E-06-9.98710E-06 7.98544E-14 2.59273E-14 5.25853E-15-2.82437E-14
 -1        59-9.98710E-06-9.98710E-06-4.99253E-14 6.65148E-14 2.53555E-14 2.42301E-14
 -1        60-1.49806E-05-1.49806E-05 4.32055E-14-2.93502E-14 7.30417E-14-3.04841E-14
 -1        61-1.49806E-05-1.49806E-05-6.22967E-14 6.09840E-14-8.64032E-15-1.13718E-15
 -1        62-9.98710E-06-9.98710E-06-2.95473E-14 4.21412E-14-1.87048E-14 4.35567E-15
 -1        63-9.98710E-06-9.98710E-06-4.17924E-14-7.13790E-14 5.27523E-14-1.97681E-15
 -1        64-9.98710E-06-9.98710E-06-7.68900E-15-1.49185E-14-1.03431E-13 1.03572E-14
 -1        65-9.98710E-06-9.98710E-06-1.64974E-14-5.55651E-14-1.14492E-14-2.88654E-14
 -1        66-1.49806E-05-1.49806E-05 4.01644E-14 8.46366E-14-7.12821E-14-6.83804E-14
 -1        67-2.99613E-05-2.99613E-05 1.07790E-13-3.26817E-14 1.47258E-13-3.35989E-14
 -1        68-1.49806E-05-1.49806E-05 3.27153E-14-1.41129E-14 6.92794E-14 3.55132E-16
 -1        69-1.49806E-05-1.49806E-05-2.18267E-15-3.58592E-14-2.77848E-14 3.24012E-14
 -1        70-1.49806E-05-1.49806E-05 1.29171E-13-7.79723E-14 4.58932E-14-1.80584E-14
 -1        71-1.49806E-05-1.49806E-05-2.56131E-15-8.38921E-14 1.69170E-14 4.69191E-14
 -1        72-2.99613E-05-2.99613E-05 9.85286E-14 1.73336E-13 1.38703E-13-1.34814E-13
 -3
    1PSTEP                        72          24           1          
  100CL  124 1.74781E-01          72                     0   24           1
 -4  TOSTRAIN    6    1
 -5  EXX         1    4    1    1
 -5  EYY         1    4    2    2
 -5  EZZ         1    4    3    3
 -5  EXY         1    4    1    2
 -5  EYZ         1    4    2    3
 -5  EZX         1    4    3    1
 -1         1-9.98710E-11-9.98710E-11 8.56037E-11 2.77106E-27 3.54105E-28 2.43577E-27
 -1         2-4.99355E-11-4.99355E-11 4.28019E-11-5.81586E-27-1.12271E-27 3.18741E-27
 -1         3-4.99355E-11-4.99355E-11 4.28019E-11 3.42782E-20-1.28228E-25 1.61231E-20
 -1         4-4.99355E-11-4.99355E-11 4.28019E-11 5.98594E-20-1.51077E-25-2.10216E-19
 -1         5-4.99355E-11-4.99355E-11 4.28019E-11 8.54292E-20-3.33911E-25-6.72703E-19
 -1         6-9.98710E-11-9.98710E-11 8.56037E-11 1.13480E-19-1.20442E-25-3.65820E-19
 -1         7-4.99355E-11-4.99355E-11 4.28019E-11-3.70450E-26-3.57570E-26-1.65691E-27
 -1         8-3.32903E-11-3.32903E-11 2.85346E-11-2.71323E-26 8.18364E-27 1.44093E-26
 -1         9-3.32903E-11-3.32903E-11 2.85346E-11 5.92942E-20 2.49040E-20 2.07819E-19
 -1        10-3.32903E-11-3.32903E-11 2.85346E-11 7.50194E-20-3.28538E-20 2.36225E-21
 -1        11-3.32903E-11-3.32903E-11 2.85346E-11-8.63080E-20-4.30663E-20 4.27006E-19
 -1        12-4.99355E-11-4.99355E-11 4.28019E-11 3.45680E-19 2.50480E-20 5.84748E-19
 -1        13-4.99355E-11-4.99355E-11 4.28019E-11-1.41877E-19-4.37085E-20-1.46690E-25
 -1        14-3.32903E-11-3.32903E-11 2.85346E-11-9.28319E-20 1.08760E-19 9.74420E-22
 -1        15-3.32903E-11-3.32903E-11 2.85346E-11-8.59695E-20-4.83215E-20-1.57002E-19
 -1        16-3.32903E-11-3.32903E-11 2.85346E-11 6.43067E-20-5.85976E-20 2.21004E-19
 -1        17-3.32903E-11-3.32903E-11 2.85346E-11-2.85443E-19-1.60802E-19-7.48182E-20
 -1        18-4.99355E-11-4.99355E-11 4.28019E-11-3.33039E-19-1.33888E-19 4.32658E-20
 -1        19-4.99355E-11-4.99355E-11 4.28019E-11 2.29175E-19 3.35738E-19-1.79320E-25
 -1        20-3.32903E-11-3.32903E-11 2.85346E-11 1.54536E-19-2.42908E-19 9.51225E-21
 -1        21-3.32903E-11-3.32903E-11 2.85346E-11 1.75027E-19 1.12979E-19 9.23859E-20
 -1        22-3.32903E-11-3.32903E-11 2.85346E-11 4.52235E-19-8.26882E-20-8.82675E-20
 -1        23-3.32903E-11-3.32903E-11 2.85346E-11 2.61202E-19-4.07764E-20 2.47519E-19
 -1        24-4.99355E-11-4.99355E-11 4.28019E-11-1.04060E-19-3.83275E-19 1.60331E-20
 -1        25-4.99355E-11-4.99355E-11 4.28019E-11-7.26384E-21-1.07986E-18-2.91205E-25
 -1        26-3.32903E-11-3.32903E-11 2.85346E-11-5.04438E-20 3.15024E-20 3.16566E-20
 -1        27-3.32903E-11-3.32903E-11 2.85346E-11 2.92431E-19-7.79071E-19-1.64238E-19
 -1        28-3.32903E-11-3.32903E-11 2.85346E-11 5.52306E-19 1.60677E-19 2.05340E-20
 -1        29-3.32903E-11-3.32903E-11 2.85346E-11 7.59982E-20-8.61880E-20-5.67179E-20
 -1        30-4.99355E-11-4.99355E-11 4.28019E-11-4.98646E-20 3.88590E-19 2.23616E-19
 -1        31-9.98710E-11-9.98710E-11 8.56037E-11 3.88641E-21-5.48028E-19-8.60429E-25
 -1        32-4.99355E-11-4.99355E-11 4.28019E-11-6.64587E-20 3.12598E-19 1.06195E-19
 -1        33-4.99355E-11-4.99355E-11 4.28019E-11-6.37337E-19 1.29564E-18 3.16441E-20
 -1        34-4.99355E-11-4.99355E-11 4.28019E-11-1.14185E-20-1.76885E-19-1.18096E-19
 -1        35-4.99355E-11-4.99355E-11 4.28019E-11 2.89202E-19 9.48069E-21-2.11031E-19
 -1        36-9.98710E-11-9.98710E-11 8.56037E-11-1.40749E-18-2.04552E-20 1.62550E-18
 -1        37-9.98710E-11-9.98710E-11 8.56037E-11-5.84364E-27 2.73492E-26 1.60384E-27
 -1        38-4.99355E-11-4.99355E-11 4.28019E-11 1.40232E-26 3.24377E-27 4.98892E-27
 -1        39-4.99355E-11-4.99355E-11 4.28019E-11-2.17527E-19-2.58925E-20 5.52684E-20
 -1        40-4.99355E-11-4.99355E-11 4.28019E-11 1.10988E-19 5.43398E-20 1.13539E-20
 -1        41-4.99355E-11-4.99355E-11 4.28019E-11-5.08310E-19 3.74206E-20 5.12019E-19
 -1        42-9.98710E-11-9.98710E-11 8.56037E-11 9.90746E-19 5.08226E-20-2.25880E-19
 -1        43-4.99355E-11-4.99355E-11 4.28019E-11 3.12610E-26-1.56387E-26-1.50013E-26
 -1        44-3.32903E-11-3.32903E-11 2.85346E-11 2.33098E-26 9.91197E-27-4.20872E-30
 -1        45-3.32903E-11-3.32903E-11 2.85346E-11-2.04318E-19 7.64242E-21-2.00835E-19
 -1        46-3.32903E-11-3.32903E-11 2.85346E-11 8.37827E-20 3.37280E-21-2.64715E-20
 -1        47-3.32903E-11-3.32903E-11 2.85346E-11-2.79414E-19-1.81190E-20-4.28809E-19
 -1        48-4.99355E-11-4.99355E-11 4.28019E-11 2.43360E-19 5.04593E-20-1.94077E-19
 -1        49-4.99355E-11-4.99355E-11 4.28019E-11-5.55995E-21-1.84542E-19 1.31875E-20
 -1        50-3.32903E-11-3.32903E-11 2.85346E-11 9.99930E-21-2.66140E-19 9.76620E-21
 -1        51-3.32903E-11-3.32903E-11 2.85346E-11-5.24456E-20-1.78503E-19-1.11458E-21
 -1        52-3.32903E-11-3.32903E-11 2.85346E-11 1.16343E-19 2.64270E-19 6.21743E-20
 -1        53-3.32903E-11-3.32903E-11 2.85346E-11 5.58198E-20-5.62451E-20 4.10055E-20
 -1        54-4.99355E-11-4.99355E-11 4.28019E-11 1.57066E-19 6.88402E-20-3.34395E-19
 -1        55-4.99355E-11-4.99355E-11 4.28019E-11-2.24035E-19-2.08734E-20-9.59381E-21
 -1        56-3.32903E-11-3.32903E-11 2.85346E-11-1.35650E-19-8.09374E-20 3.11649E-21
 -1        57-3.32903E-11-3.32903E-11 2.85346E-11-1.11745E-19 2.44634E-19-7.85153E-20
 -1        58-3.32903E-11-3.32903E-11 2.85346E-11 1.60503E-19 3.25528E-20-1.74842E-19
 -1        59-3.32903E-11-3.32903E-11 2.85346E-11 4.11758E-19 1.56963E-19 1.49996E-19
 -1        60-4.99355E-11-4.99355E-11 4.28019E-11-1.81692E-19 4.52163E-19-1.88711E-19
 -1        61-4.99355E-11-4.99355E-11 4.28019E-11 3.77520E-19-5.34877E-20-7.03969E-21
 -1        62-3.32903E-11-3.32903E-11 2.85346E-11 2.60874E-19-1.15792E-19 2.69637E-20
 -1        63-3.32903E-11-3.32903E-11 2.85346E-11-4.41870E-19 3.26562E-19-1.22374E-20
 -1        64-3.32903E-11-3.32903E-11 2.85346E-11-9.23525E-20-6.40289E-19 6.41161E-20
 -1        65-3.32903E-11-3.32903E-11 2.85346E-11-3.43975E-19-7.08762E-20-1.78690E-19
 -1        66-4.99355E-11-4.99355E-11 4.28019E-11 5.23941E-19-4.41270E-19-4.23307E-19
 -1        67-9.98710E-11-9.98710E-11 8.56037E-11-2.02315E-19 9.11598E-19-2.07993E-19
 -1        68-4.99355E-11-4.99355E-11 4.28019E-11-8.73659E-20 4.28873E-19 2.19844E-21
 -1        69-4.99355E-11-4.99355E-11 4.28019E-11-2.21985E-19-1.72001E-19 2.00579E-19
 -1        70-4.99355E-11-4.99355E-11 4.28019E-11-4.82685E-19 2.84101E-19-1.11790E-19
 -1        71-4.99355E-11-4.99355E-11 4.28019E-11-5.19332E-19 1.04724E-19 2.90452E-19
 -1        72-9.98710E-11-9.98710E-11 8.56037E-11 1.07303E-18 8.58639E-19-8.34563E-19
 -3
    1PSTEP                        73          25           1          
  100CL  125 1.83781E-01          72                     0   25           1
 -4  DISP        4    1
 -5  D1          1    2    1    0
 -5  D2          1    2    2    0
 -5  D3          1    2    3    0
 -5  ALL         1    2    0    0    1ALL
 -1         1 0.00000E+00 0.00000E+00 0.00000E+00
 -1         2-5.25089E-08 0.00000E+00 0.00000E+00
 -1         3-2.75672E+00 0.00000E+00 0.00000E+00
 -1         4-2.75672E+00 0.00000E+00 0.00000E+00
 -1         5-5.51344E+00 0.00000E+00 0.00000E+00
 -1         6-5.51344E+00 0.00000E+00 0.00000E+00
 -1         7 0.00000E+00-5.25089E-08 0.00000E+00
 -1         8-5.25089E-08-5.25089E-08 0.00000E+00
 -1         9-2.75672E+00-5.25089E-08 0.00000E+00
 -1        10-2.75672E+00-5.25089E-08 0.00000E+00
 -1        11-5.51344E+00-5.25089E-08 0.00000E+00
 -1        12-5.51344E+00-5.25089E-08 0.00000E+00
 -1        13 0.00000E+00-2.75672E+00 0.00000E+00
 -1        14-5.25089E-08-2.75672E+00 0.00000E+00
 -1        15-2.75672E+00-2.75672E+00 0.00000E+00
 -1        16-2.75672E+00-2.75672E+00 0.00000E+00
 -1        17-5.51344E+00-2.75672E+00 0.00000E+00
 -1        18-5.51344E+00-2.75672E+00 0.00000E+00
 -1        19 0.00000E+00-2.75672E+00 0.00000E+00
 -1        20-5.25089E-08-2.75672E+00 0.00000E+00
 -1        21-2.75672E+00-2.75672E+00 0.00000E+00
 -1        22-2.75672E+00-2.75672E+00 0.00000E+00
 -1        23-5.51344E+00-2.75672E+00 0.00000E+00
 -1        24-5.51344E+00-2.75672E+00 0.00000E+00
 -1        25 0.00000E+00-5.51344E+00 0.00000E+00
 -1        26-5.25089E-08-5.51344E+00 0.00000E+00
 -1        27-2.75672E+00-5.51344E+00 0.00000E+00
 -1        28-2.75672E+00-5.51344E+00 0.00000E+00
 -1        29-5.51344E+00-5.51344E+00 0.00000E+00
 -1        30-5.51344E+00-5.51344E+00 0.00000E+00
 -1        31 0.00000E+00-5.51344E+00 0.00000E+00
 -1        32-5.25089E-08-5.51344E+00 0.00000E+00
 -1        33-2.75672E+00-5.51344E+00 0.00000E+00
 -1        34-2.75672E+00-5.51344E+00 0.00000E+00
 -1        35-5.51344E+00-5.51344E+00 0.00000E+00
 -1        36-5.51344E+00-5.51344E+00 0.00000E+00
 -1        37 0.00000E+00 0.00000E+00 6.30107E-08
 -1        38-5.25089E-08 0.00000E+00 6.30107E-08
 -1        39-2.75672E+00 0.00000E+00 6.30107E-08
 -1        40-2.75672E+00 0.00000E+00 6.30107E-08
 -1        41-5.51344E+00 0.00000E+00 6.30107E-08
 -1        42-5.51344E+00 0.00000E+00 6.30107E-08
 -1        43 0.00000E+00-5.25089E-08 6.30107E-08
 -1        44-5.25089E-08-5.25089E-08 6.30107E-08
 -1        45-2.75672E+00-5.25089E-08 6.30107E-08
 -1        46-2.75672E+00-5.25089E-08 6.30107E-08
 -1        47-5.51344E+00-5.25089E-08 6.30107E-08
 -1        48-5.51344E+00-5.25089E-08 6.30107E-08
 -1        49 0.00000E+00-2.75672E+00 6.30107E-08
 -1        50-5.25089E-08-2.75672E+00 6.30107E-08
 -1        51-2.75672E+00-2.75672E+00 6.30107E-08
 -1        52-2.75672E+00-2.75672E+00 6.30107E-08
 -1        53-5.51344E+00-2.75672E+00 6.30107E-08
 -1        54-5.51344E+00-2.75672E+00 6.30107E-08
 -1        55 0.00000E+00-2.75672E+00 6.30107E-08
 -1        56-5.25089E-08-2.75672E+00 6.30107E-08
 -1        57-2.75672E+00-2.75672E+00 6.30107E-08
 -1        58-2.75672E+00-2.75672E+00 6.30107E-08
 -1        59-5.51344E+00-2.75672E+00 6.30107E-08
 -1        60-5.51344E+00-2.75672E+00 6.30107E-08
 -1        61 0.00000E+00-5.51344E+00 6.30107E-08
 -1        62-5.25089E-08-5.51344E+00 6.30107E-08
 -1        63-2.75672E+00-5.51344E+00 6.30107E-08
 -1        64-2.75672E+00-5.51344E+00 6.30107E-08
 -1        65-5.51344E+00-5.51344E+00 6.30107E-08
 -1        66-5.51344E+00-5.51344E+00 6.30107E-08
 -1        67 0.00000E+00-5.51344E+00 6.30107E-08
 -1        68-5.25089E-08-5.51344E+00 6.30107E-08
 -1        69-2.75672E+00-5.51344E+00 6.30107E-08
 -1        70-2.75672E+00-5.51344E+00 6.30107E-08
 -1        71-5.51344E+00-5.51344E+00 6.30107E-08
 -1        72-5.51344E+00-5.51344E+00 6.30107E-08
 -3
    1PSTEP                        74          25           1          
  100CL  125 1.83781E-01          72                     0   25           1
 -4  STRESS      6    1
 -5  SXX         1    4    1    1
 -5  SYY         1    4    2    2
 -5  SZZ         1    4    3    3
 -5  SXY         1    4    1    2
 -5  SYZ         1    4    2    3
 -5  SZX         1    4    3    1
 -1         1-3.15041E-05-3.15041E-05 1.46709E-20-3.03472E-22 7.72270E-22 5.83341E-23
 -1         2-1.57520E-05-1.57520E-05 4.68904E-21-1.25487E-21-4.05705E-23-4.64606E-22
 -1         3-1.57520E-05-1.57520E-05 2.67274E-14 2.63778E-14-8.30033E-21-4.64140E-14
 -1         4-1.57520E-05-1.57520E-05 1.44538E-14 1.47665E-14 3.14460E-21 9.23774E-14
 -1         5-1.57520E-05-1.57520E-05-4.28843E-14-2.33372E-14-2.11329E-19-3.75177E-14
 -1         6-3.15041E-05-3.15041E-05-2.59349E-13 1.74194E-13 1.20593E-19-2.09090E-13
 -1         7-1.57520E-05-1.57520E-05-1.05574E-20 2.46739E-21 1.63292E-21-1.69527E-22
 -1         8-1.05014E-05-1.05014E-05-2.93421E-21 9.09503E-22-7.99025E-22 2.36329E-21
 -1         9-1.05014E-05-1.05014E-05 2.27584E-14 1.70028E-14 9.21988E-16 6.38073E-14
 -1        10-1.05014E-05-1.05014E-05 2.30154E-14 1.20378E-14-3.49673E-16-1.02353E-13
 -1        11-1.05014E-05-1.05014E-05 1.07917E-15-3.23917E-14-1.72978E-14-6.94979E-14
 -1        12-1.57520E-05-1.57520E-05-2.75200E-14-5.46206E-15 2.77476E-14 3.42556E-14
 -1        13-1.57520E-05-1.57520E-05 3.26943E-14 7.58362E-15 3.79327E-14-1.19660E-20
 -1        14-1.05014E-05-1.05014E-05 4.19413E-15 8.70192E-15-8.29115E-14 3.48359E-15
 -1        15-1.05014E-05-1.05014E-05-8.87978E-15 1.90827E-14-3.73983E-14-1.47119E-14
 -1        16-1.05014E-05-1.05014E-05-8.58998E-14-3.01481E-15 3.41269E-14 1.76639E-14
 -1        17-1.05014E-05-1.05014E-05-1.41204E-14-2.20735E-14 3.93605E-16-3.68646E-14
 -1        18-1.57520E-05-1.57520E-05-7.18139E-14 1.79438E-14-1.71412E-16-1.06994E-13
 -1        19-1.57520E-05-1.57520E-05-2.03319E-14-2.03228E-15-2.55301E-14 1.36865E-20
 -1        20-1.05014E-05-1.05014E-05-3.11989E-15 2.29132E-15 8.60911E-14-2.89396E-15
 -1        21-1.05014E-05-1.05014E-05 8.75383E-15-3.59440E-14-7.49298E-15 9.98936E-15
 -1        22-1.05014E-05-1.05014E-05 1.75169E-14 1.67364E-14 1.18053E-14-5.29448E-14
 -1        23-1.05014E-05-1.05014E-05 7.71857E-14-3.95873E-14-1.67605E-14-2.78591E-14
 -1        24-1.57520E-05-1.57520E-05 1.59340E-13-3.45976E-14-1.18013E-14 1.62997E-13
 -1        25-1.57520E-05-1.57520E-05 1.60478E-13 6.77091E-14-8.01495E-14-1.97996E-19
 -1        26-1.05014E-05-1.05014E-05-1.02071E-13 5.02508E-14-5.56233E-14 7.29078E-15
 -1        27-1.05014E-05-1.05014E-05 3.03559E-14 3.92677E-14-8.72025E-14-1.92857E-14
 -1        28-1.05014E-05-1.05014E-05 9.81773E-14 2.19115E-14-3.91061E-14-3.38331E-14
 -1        29-1.05014E-05-1.05014E-05-8.02660E-14-6.16608E-14-2.77114E-15-3.02393E-14
 -1        30-1.57520E-05-1.57520E-05-1.80978E-13 3.58863E-14-9.21480E-14-3.64227E-14
 -1        31-3.15041E-05-3.15041E-05 3.16586E-13 8.50563E-14 5.36438E-13 6.74626E-21
 -1        32-1.57520E-05-1.57520E-05-1.00457E-14 5.01952E-14-3.72238E-14 9.94968E-15
 -1        33-1.57520E-05-1.57520E-05 2.55598E-13-4.05663E-14 1.45285E-13-2.00062E-14
 -1        34-1.57520E-05-1.57520E-05-1.91157E-13 1.19117E-14 1.78495E-13 7.87310E-14
 -1        35-1.57520E-05-1.57520E-05-3.11908E-15 1.21926E-14-1.85156E-14-1.15400E-14
 -1        36-3.15041E-05-3.15041E-05 5.26892E-13 7.47499E-14 1.95903E-13 1.96375E-13
 -1        37-3.15041E-05-3.15041E-05 8.80264E-21 4.68375E-22-7.01964E-22 1.32653E-21
 -1        38-1.57520E-05-1.57520E-05-4.68904E-21 5.68808E-21-2.35058E-21 1.69493E-22
 -1        39-1.57520E-05-1.57520E-05-4.69495E-14-1.03887E-14-2.80548E-15 1.12420E-14
 -1        40-1.57520E-05-1.57520E-05-6.32288E-14 8.43451E-15 2.25817E-15-4.09676E-14
 -1        41-1.57520E-05-1.57520E-05 5.80214E-14 4.91787E-14-7.95431E-15 6.16091E-15
 -1        42-3.15041E-05-3.15041E-05 1.67977E-13-3.67076E-13 3.02132E-14 1.44838E-13
 -1        43-1.57520E-05-1.57520E-05 1.05574E-20-4.19304E-21 1.96529E-21-1.19915E-21
 -1        44-1.05014E-05-1.05014E-05-4.89029E-21 8.40565E-22-2.53007E-21 1.67688E-21
 -1        45-1.05014E-05-1.05014E-05-8.88449E-17-1.08912E-14-9.48324E-16-5.01735E-14
 -1        46-1.05014E-05-1.05014E-05-2.50234E-15 1.20171E-14 1.15577E-15 6.20571E-14
 -1        47-1.05014E-05-1.05014E-05-6.30039E-14 2.11941E-14-2.26005E-14-8.06370E-14
 -1        48-1.57520E-05-1.57520E-05-1.08871E-14 5.02781E-14 4.28542E-14 4.84534E-14
 -1        49-1.57520E-05-1.57520E-05 2.81283E-14 2.83027E-14-1.95380E-14-8.89578E-15
 -1        50-1.05014E-05-1.05014E-05 1.42855E-14 1.35860E-14 2.90560E-14-2.44693E-15
 -1        51-1.05014E-05-1.05014E-05-7.62726E-15-4.51967E-14-2.44487E-14-2.79951E-14
 -1        52-1.05014E-05-1.05014E-05 1.05515E-13 5.12682E-14 2.13639E-15 5.13704E-14
 -1        53-1.05014E-05-1.05014E-05-5.62757E-14-3.82326E-14 3.58591E-15 4.10259E-14
 -1        54-1.57520E-05-1.57520E-05-1.18125E-15-6.29472E-15 4.35697E-14-2.94983E-15
 -1        55-1.57520E-05-1.57520E-05-4.49872E-14-7.58393E-15-5.50119E-14 7.92631E-15
 -1        56-1.05014E-05-1.05014E-05-6.42143E-15-1.03384E-14-3.73339E-14 2.39024E-15
 -1        57-1.05014E-05-1.05014E-05 3.13883E-15 6.65020E-14-2.48780E-14 2.90904E-14
 -1        58-1.05014E-05-1.05014E-05-1.40690E-14-1.25154E-14 1.01494E-14-2.02134E-15
 -1        59-1.05014E-05-1.05014E-05-2.67824E-14-3.20495E-15-6.35655E-15 2.30438E-14
 -1        60-1.57520E-05-1.57520E-05-1.69884E-13 1.99760E-14-8.43216E-15-2.36994E-14
 -1        61-1.57520E-05-1.57520E-05-2.39165E-13-2.00152E-13 3.50332E-14-3.37444E-14
 -1        62-1.05014E-05-1.05014E-05-4.01163E-14-1.29244E-13-4.52149E-14-1.52053E-14
 -1        63-1.05014E-05-1.05014E-05-5.09610E-14-2.61852E-14 1.28214E-14-1.46296E-14
 -1        64-1.05014E-05-1.05014E-05-5.17365E-14 5.25847E-14-5.67165E-14-2.10492E-14
 -1        65-1.05014E-05-1.05014E-05 3.00935E-15 4.51390E-14-8.39318E-14-5.05484E-14
 -1        66-1.57520E-05-1.57520E-05 9.87279E-14-1.69816E-13 1.22559E-13 7.98786E-14
 -1        67-3.15041E-05-3.15041E-05-4.86846E-13 7.47483E-14-1.13354E-13 4.87086E-14
 -1        68-1.57520E-05-1.57520E-05 8.08142E-14 4.36598E-14 4.70383E-15 3.43040E-14
 -1        69-1.57520E-05-1.57520E-05-8.67860E-15 1.20111E-14 1.33827E-14 2.58442E-14
 -1        70-1.57520E-05-1.57520E-05 2.18188E-14-7.45546E-15-3.88547E-14-4.52343E-14
 -1        71-1.57520E-05-1.57520E-05-7.80678E-14-9.61485E-15 7.07694E-14 3.31535E-14
 -1        72-3.15041E-05-3.15041E-05-4.05463E-13 2.73597E-14-2.03930E-13-1.25986E-13
 -3
    1PSTEP                        75          25           1          
  100CL  125 1.83781E-01          72                     0   25           1
 -4  TOSTRAIN    6    1
 -5  EXX         1    4    1    1
 -5  EYY         1    4    2    2
 -5  EZZ         1    4    3    3
 -5  EXY         1    4    1    2
 -5  EYZ         1    4    2    3
 -5  EZX         1    4    3    1
 -1         1-1.05014E-10-1.05014E-10 9.00117E-11-1.87864E-27 4.78072E-27 3.61116E-28
 -1         2-5.25068E-11-5.25068E-11 4.50058E-11-7.76823E-27-2.51151E-28-2.87613E-27
 -1         3-5.25068E-11-5.25068E-11 4.50058E-11 1.63291E-19-5.13830E-26-2.87324E-19
 -1         4-5.25068E-11-5.25068E-11 4.50058E-11 9.14120E-20 1.94666E-26 5.71860E-19
 -1         5-5.25068E-11-5.25068E-11 4.50058E-11-1.44468E-19-1.30823E-24-2.32252E-19
 -1         6-1.05014E-10-1.05014E-10 9.00117E-11 1.07835E-18 7.46529E-25-1.29437E-18
 -1         7-5.25068E-11-5.25068E-11 4.50058E-11 1.52743E-26 1.01085E-26-1.04945E-27
 -1         8-3.50045E-11-3.50045E-11 3.00039E-11 5.63026E-27-4.94635E-27 1.46299E-26
 -1         9-3.50045E-11-3.50045E-11 3.00039E-11 1.05255E-19 5.70754E-21 3.94998E-19
 -1        10-3.50045E-11-3.50045E-11 3.00039E-11 7.45197E-20-2.16464E-21-6.33611E-19
 -1        11-3.50045E-11-3.50045E-11 3.00039E-11-2.00520E-19-1.07082E-19-4.30225E-19
 -1        12-5.25068E-11-5.25068E-11 4.50058E-11-3.38128E-20 1.71771E-19 2.12059E-19
 -1        13-5.25068E-11-5.25068E-11 4.50058E-11 4.69462E-20 2.34822E-19-7.40752E-26
 -1        14-3.50045E-11-3.50045E-11 3.00039E-11 5.38690E-20-5.13262E-19 2.15651E-20
 -1        15-3.50045E-11-3.50045E-11 3.00039E-11 1.18131E-19-2.31513E-19-9.10736E-20
 -1        16-3.50045E-11-3.50045E-11 3.00039E-11-1.86631E-20 2.11261E-19 1.09348E-19
 -1        17-3.50045E-11-3.50045E-11 3.00039E-11-1.36646E-19 2.43660E-21-2.28209E-19
 -1        18-5.25068E-11-5.25068E-11 4.50058E-11 1.11081E-19-1.06112E-21-6.62345E-19
 -1        19-5.25068E-11-5.25068E-11 4.50058E-11-1.25808E-20-1.58043E-19 8.47258E-26
 -1        20-3.50045E-11-3.50045E-11 3.00039E-11 1.41844E-20 5.32945E-19-1.79150E-20
 -1        21-3.50045E-11-3.50045E-11 3.00039E-11-2.22510E-19-4.63851E-20 6.18389E-20
 -1        22-3.50045E-11-3.50045E-11 3.00039E-11 1.03606E-19 7.30806E-20-3.27753E-19
 -1        23-3.50045E-11-3.50045E-11 3.00039E-11-2.45064E-19-1.03756E-19-1.72461E-19
 -1        24-5.25068E-11-5.25068E-11 4.50058E-11-2.14175E-19-7.30554E-20 1.00903E-18
 -1        25-5.25068E-11-5.25068E-11 4.50058E-11 4.19152E-19-4.96164E-19-1.22569E-24
 -1        26-3.50045E-11-3.50045E-11 3.00039E-11 3.11076E-19-3.44335E-19 4.51334E-20
 -1        27-3.50045E-11-3.50045E-11 3.00039E-11 2.43086E-19-5.39825E-19-1.19388E-19
 -1        28-3.50045E-11-3.50045E-11 3.00039E-11 1.35643E-19-2.42085E-19-2.09443E-19
 -1        29-3.50045E-11-3.50045E-11 3.00039E-11-3.81710E-19-1.71547E-20-1.87195E-19
 -1        30-5.25068E-11-5.25068E-11 4.50058E-11 2.22153E-19-5.70440E-19-2.25474E-19
 -1        31-1.05014E-10-1.05014E-10 9.00117E-11 5.26539E-19 3.32081E-18 4.17626E-26
 -1        32-5.25068E-11-5.25068E-11 4.50058E-11 3.10732E-19-2.30433E-19 6.15933E-20
 -1        33-5.25068E-11-5.25068E-11 4.50058E-11-2.51125E-19 8.99384E-19-1.23848E-19
 -1        34-5.25068E-11-5.25068E-11 4.50058E-11 7.37393E-20 1.10497E-18 4.87382E-19
 -1        35-5.25068E-11-5.25068E-11 4.50058E-11 7.54778E-20-1.14620E-19-7.14382E-20
 -1        36-1.05014E-10-1.05014E-10 9.00117E-11 4.62738E-19 1.21273E-18 1.21565E-18
 -1        37-1.05014E-10-1.05014E-10 9.00117E-11 2.89946E-27-4.34549E-27 8.21187E-27
 -1        38-5.25068E-11-5.25068E-11 4.50058E-11 3.52119E-26-1.45512E-26 1.04924E-27
 -1        39-5.25068E-11-5.25068E-11 4.50058E-11-6.43110E-20-1.73672E-20 6.95934E-20
 -1        40-5.25068E-11-5.25068E-11 4.50058E-11 5.22137E-20 1.39791E-20-2.53609E-19
 -1        41-5.25068E-11-5.25068E-11 4.50058E-11 3.04440E-19-4.92410E-20 3.81389E-20
 -1        42-1.05014E-10-1.05014E-10 9.00117E-11-2.27238E-18 1.87034E-19 8.96616E-19
 -1        43-5.25068E-11-5.25068E-11 4.50058E-11-2.59569E-26 1.21661E-26-7.42331E-27
 -1        44-3.50045E-11-3.50045E-11 3.00039E-11 5.20350E-27-1.56624E-26 1.03807E-26
 -1        45-3.50045E-11-3.50045E-11 3.00039E-11-6.74214E-20-5.87058E-21-3.10598E-19
 -1        46-3.50045E-11-3.50045E-11 3.00039E-11 7.43919E-20 7.15475E-21 3.84163E-19
 -1        47-3.50045E-11-3.50045E-11 3.00039E-11 1.31202E-19-1.39908E-19-4.99181E-19
 -1        48-5.25068E-11-5.25068E-11 4.50058E-11 3.11245E-19 2.65288E-19 2.99950E-19
 -1        49-5.25068E-11-5.25068E-11 4.50058E-11 1.75207E-19-1.20950E-19-5.50691E-20
 -1        50-3.50045E-11-3.50045E-11 3.00039E-11 8.41040E-20 1.79871E-19-1.51476E-20
 -1        51-3.50045E-11-3.50045E-11 3.00039E-11-2.79789E-19-1.51349E-19-1.73303E-19
 -1        52-3.50045E-11-3.50045E-11 3.00039E-11 3.17375E-19 1.32252E-20 3.18007E-19
 -1        53-3.50045E-11-3.50046E-11 3.00039E-11-2.36678E-19 2.21985E-20 2.53970E-19
 -1        54-5.25068E-11-5.25068E-11 4.50058E-11-3.89673E-20 2.69717E-19-1.82608E-20
 -1        55-5.25068E-11-5.25068E-11 4.50058E-11-4.69481E-20-3.40550E-19 4.90676E-20
 -1        56-3.50045E-11-3.50045E-11 3.00039E-11-6.39994E-20-2.31115E-19 1.47967E-20
 -1        57-3.50045E-11-3.50045E-11 3.00039E-11 4.11679E-19-1.54006E-19 1.80083E-19
 -1        58-3.50045E-11-3.50045E-11 3.00039E-11-7.74760E-20 6.28297E-20-1.25131E-20
 -1        59-3.50045E-11-3.50045E-11 3.00039E-11-1.98402E-20-3.93500E-20 1.42652E-19
 -1        60-5.25068E-11-5.25068E-11 4.50058E-11 1.23661E-19-5.21991E-20-1.46710E-19
 -1        61-5.25068E-11-5.25068E-11 4.50058E-11-1.23904E-18 2.16872E-19-2.08894E-19
 -1        62-3.50045E-11-3.50045E-11 3.00039E-11-8.00083E-19-2.79902E-19-9.41282E-20
 -1        63-3.50045E-11-3.50045E-11 3.00039E-11-1.62099E-19 7.93707E-20-9.05640E-20
 -1        64-3.50045E-11-3.50045E-11 3.00039E-11 3.25524E-19-3.51102E-19-1.30305E-19
 -1        65-3.50045E-11-3.50045E-11 3.00039E-11 2.79432E-19-5.19578E-19-3.12919E-19
 -1        66-5.25068E-11-5.25068E-11 4.50058E-11-1.05124E-18 7.58702E-19 4.94486E-19
 -1        67-1.05014E-10-1.05014E-10 9.00117E-11 4.62727E-19-7.01714E-19 3.01530E-19
 -1        68-5.25068E-11-5.25068E-11 4.50058E-11 2.70275E-19 2.91190E-20 2.12358E-19
 -1        69-5.25068E-11-5.25068E-11 4.50058E-11 7.43546E-20 8.28452E-20 1.59988E-19
 -1        70-5.25068E-11-5.25068E-11 4.50058E-11-4.61529E-20-2.40529E-19-2.80022E-19
 -1        71-5.25068E-11-5.25068E-11 4.50058E-11-5.95205E-20 4.38096E-19 2.05236E-19
 -1        72-1.05014E-10-1.05014E-10 9.00117E-11 1.69370E-19-1.26242E-18-7.79915E-19
 -3
    1PSTEP                        76          26           1          
  100CL  126 1.92781E-01          72                     0   26           1
 -4  DISP        4    1
 -5  D1          1    2    1    0
 -5  D2          1    2    2    0
 -5  D3          1    2    3    0
 -5  ALL         1    2    0    0    1ALL
 -1         1 0.00000E+00 0.00000E+00 0.00000E+00
 -1         2-5.50804E-08 0.00000E+00 0.00000E+00
 -1         3-2.89172E+00 0.00000E+00 0.00000E+00
 -1         4-2.89172E+00 0.00000E+00 0.00000E+00
 -1         5-5.78344E+00 0.00000E+00 0.00000E+00
 -1         6-5.78344E+00 0.00000E+00 0.00000E+00
 -1         7 0.00000E+00-5.50804E-08 0.00000E+00
 -1         8-5.50804E-08-5.50804E-08 0.00000E+00
 -1         9-2.89172E+00-5.50804E-08 0.00000E+00
 -1        10-2.89172E+00-5.50804E-08 0.00000E+00
 -1        11-5.78344E+00-5.50804E-08 0.00000E+00
 -1        12-5.78344E+00-5.50804E-08 0.00000E+00
 -1        13 0.00000E+00-2.89172E+00 0.00000E+00
 -1        14-5.50804E-08-2.89172E+00 0.00000E+00
 -1        15-2.89172E+00-2.89172E+00 0.00000E+00
 -1        16-2.89172E+00-2.89172E+00 0.00000E+00
 -1        17-5.78344E+00-2.89172E+00 0.00000E+00
 -1        18-5.78344E+00-2.89172E+00 0.00000E+00
 -1        19 0.00000E+00-2.89172E+00 0.00000E+00
 -1        20-5.50804E-08-2.89172E+00 0.00000E+00
 -1        21-2.89172E+00-2.89172E+00 0.00000E+00
 -1        22-2.89172E+00-2.89172E+00 0.00000E+00
 -1        23-5.78344E+00-2.89172E+00 0.00000E+00
 -1        24-5.78344E+00-2.89172E+00 0.00000E+00
 -1        25 0.00000E+00-5.78344E+00 0.00000E+00
 -1        26-5.50804E-08-5.78344E+00 0.00000E+00
 -1        27-2.89172E+00-5.78344E+00 0.00000E+00
 -1        28-2.89172E+00-5.78344E+00 0.00000E+00
 -1        29-5.78344E+00-5.78344E+00 0.00000E+00
 -1        30-5.78344E+00-5.78344E+00 0.00000E+00
 -1        31 0.00000E+00-5.78344E+00 0.00000E+00
 -1        32-5.50804E-08-5.78344E+00 0.00000E+00
 -1        33-2.89172E+00-5.78344E+00 0.00000E+00
 -1        34-2.89172E+00-5.78344E+00 0.00000E+00
 -1        35-5.78344E+00-5.78344E+00 0.00000E+00
 -1        36-5.78344E+00-5.78344E+00 0.00000E+00
 -1        37 0.00000E+00 0.00000E+00 6.60964E-08
 -1        38-5.50804E-08 0.00000E+00 6.60964E-08
 -1        39-2.89172E+00 0.00000E+00 6.60964E-08
 -1        40-2.89172E+00 0.00000E+00 6.60964E-08
 -1        41-5.78344E+00 0.00000E+00 6.60964E-08
 -1        42-5.78344E+00 0.00000E+00 6.60964E-08
 -1        43 0.00000E+00-5.50804E-08 6.60964E-08
 -1        44-5.50804E-08-5.50804E-08 6.60964E-08
 -1        45-2.89172E+00-5.50804E-08 6.60964E-08
 -1        46-2.89172E+00-5.50804E-08 6.60964E-08
 -1        47-5.78344E+00-5.50804E-08 6.60964E-08
 -1        48-5.78344E+00-5.50804E-08 6.60964E-08
 -1        49 0.00000E+00-2.89172E+00 6.60964E-08
 -1        50-5.50804E-08-2.89172E+00 6.60964E-08
 -1        51-2.89172E+00-2.89172E+00 6.60964E-08
 -1        52-2.89172E+00-2.89172E+00 6.60964E-08
 -1        53-5.78344E+00-2.89172E+00 6.60964E-08
 -1        54-5.78344E+00-2.89172E+00 6.60964E-08
 -1        55 0.00000E+00-2.89172E+00 6.60964E-08
 -1        56-5.50804E-08-2.89172E+00 6.60964E-08
 -1        57-2.89172E+00-2.89172E+00 6.60964E-08
 -1        58-2.89172E+00-2.89172E+00 6.60964E-08
 -1        59-5.78344E+00-2.89172E+00 6.60964E-08
 -1        60-5.78344E+00-2.89172E+00 6.60964E-08
 -1        61 0.00000E+00-5.78344E+00 6.60964E-08
 -1        62-5.50804E-08-5.78344E+00 6.60964E-08
 -1        63-2.89172E+00-5.78344E+00 6.60964E-08
 -1        64-2.89172E+00-5.78344E+00 6.60964E-08
 -1        65-5.78344E+00-5.78344E+00 6.60964E-08
 -1        66-5.78344E+00-5.78344E+00 6.60964E-08
 -1        67 0.00000E+00-5.78344E+00 6.60964E-08
 -1        68-5.50804E-08-5.78344E+00 6.60964E-08
 -1        69-2.89172E+00-5.78344E+00 6.60964E-08
 -1        70-2.89172E+00-5.78344E+00 6.60964E-08
 -1        71-5.78344E+00-5.78344E+00 6.60964E-08
 -1        72-5.78344E+00-5.78344E+00 6.60964E-08
 -3
    1PSTEP                        77          26           1          
  100CL  126 1.92781E-01          72                     0   26           1
 -4  STRESS      6    1
 -5  SXX         1    4    1    1
 -5  SYY         1    4    2    2
 -5  SZZ         1    4    3    3
 -5  SXY         1    4    1    2
 -5  SYZ         1    4    2    3
 -5  SZX         1    4    3    1
 -1         1-3.30469E-05-3.30469E-05-1.86022E-21 8.80247E-22 6.82712E-22 1.40738E-22
 -1         2-1.65234E-05-1.65234E-05-9.33952E-21 2.59537E-21-2.65035E-22 3.39981E-21
 -1         3-1.65234E-05-1.65234E-05-3.14395E-14 9.72350E-15 1.29999E-20-8.73170E-15
 -1         4-1.65234E-05-1.65234E-05-2.31831E-14-5.95191E-15-4.43010E-20 4.36915E-14
 -1         5-1.65234E-05-1.65234E-05-6.14435E-15 4.05372E-14 1.14667E-19 9.41510E-14
 -1         6-3.30469E-05-3.30469E-05 1.98182E-13 3.70596E-14-1.72155E-19-2.99481E-13
 -1         7-1.65234E-05-1.65234E-05-4.54511E-21 1.48007E-22-3.79523E-22 9.78751E-23
 -1         8-1.10156E-05-1.10156E-05-6.20073E-22 1.53550E-21 3.81940E-22 2.38743E-21
 -1         9-1.10156E-05-1.10156E-05 3.54645E-15-1.71792E-15-3.40667E-15 3.41034E-15
 -1        10-1.10156E-05-1.10156E-05-2.93427E-14 1.45318E-14 9.86492E-16-4.03530E-14
 -1        11-1.10156E-05-1.10156E-05-3.16455E-15 4.25537E-14 3.81456E-17-5.75301E-14
 -1        12-1.65234E-05-1.65234E-05-4.30157E-14-5.36441E-14 8.37577E-16 2.68032E-13
 -1        13-1.65234E-05-1.65234E-05 4.11048E-14 2.20977E-15-3.43086E-14-2.39121E-20
 -1        14-1.10156E-05-1.10156E-05 5.79390E-15 2.50136E-15 2.98100E-15 3.78937E-16
 -1        15-1.10156E-05-1.10156E-05-7.97628E-14 1.88683E-14-4.12159E-14-1.15679E-15
 -1        16-1.10156E-05-1.10156E-05 9.35613E-14-1.90013E-14-8.29910E-16-1.77571E-14
 -1        17-1.10156E-05-1.10156E-05 5.86644E-14 1.74603E-15 5.49067E-14 8.22085E-14
 -1        18-1.65234E-05-1.65234E-05 8.93076E-14-4.22088E-15-3.24746E-14-8.02304E-14
 -1        19-1.65234E-05-1.65234E-05 4.00133E-14-9.26525E-15 4.92981E-15 9.94656E-22
 -1        20-1.10156E-05-1.10156E-05 2.27171E-14-5.14866E-15 9.80891E-15-1.98178E-15
 -1        21-1.10156E-05-1.10156E-05-8.48511E-14 5.30369E-14-5.51385E-15-2.31185E-14
 -1        22-1.10156E-05-1.10156E-05 6.92212E-14 3.26811E-14 6.20163E-14-3.50316E-15
 -1        23-1.10156E-05-1.10156E-05 2.87365E-14-7.06554E-14-3.09685E-14-6.20133E-14
 -1        24-1.65234E-05-1.65234E-05-6.47437E-14 1.06958E-13 2.27795E-14 9.14902E-14
 -1        25-1.65234E-05-1.65234E-05-7.68149E-14-1.17325E-15 2.38296E-14 2.37716E-19
 -1        26-1.10156E-05-1.10156E-05 6.99691E-15-8.07163E-15-7.58123E-14 2.59685E-15
 -1        27-1.10156E-05-1.10156E-05 4.63528E-14 8.76280E-15-6.42982E-14 9.27676E-15
 -1        28-1.10156E-05-1.10156E-05-2.21106E-14-1.11219E-14 3.47556E-14-2.72200E-14
 -1        29-1.10156E-05-1.10156E-05-3.22693E-14 9.97786E-15 1.31545E-14 3.73926E-14
 -1        30-1.65234E-05-1.65234E-05 7.91223E-14-8.76840E-14 7.54581E-14-5.31933E-14
 -1        31-3.30469E-05-3.30469E-05-5.52774E-14 6.28083E-16-2.07262E-13-1.81620E-19
 -1        32-1.65234E-05-1.65234E-05-1.71814E-13-1.06202E-14 1.06308E-13 3.50402E-15
 -1        33-1.65234E-05-1.65234E-05-4.55644E-14 1.32803E-14 1.42321E-13-4.25898E-14
 -1        34-1.65234E-05-1.65234E-05-1.63536E-13-1.71908E-14 4.85863E-14 1.17511E-13
 -1        35-1.65234E-05-1.65234E-05-2.41511E-14-3.21680E-14-6.59564E-14 1.71917E-14
 -1        36-3.30469E-05-3.30469E-05-1.63813E-13 4.00698E-13-7.92444E-15 2.08336E-13
 -1        37-3.30469E-05-3.30469E-05 6.94242E-21-3.65789E-22 3.54783E-22-2.72580E-21
 -1        38-1.65234E-05-1.65234E-05-3.07805E-21 3.53821E-21-4.36031E-22 1.67997E-21
 -1        39-1.65234E-05-1.65234E-05-6.92814E-15-1.79718E-14 1.42575E-14 1.00499E-15
 -1        40-1.65234E-05-1.65234E-05 1.51668E-14-4.61385E-14-8.77863E-15-1.86663E-14
 -1        41-1.65234E-05-1.65234E-05 4.05935E-14-2.64279E-14 2.74144E-14-8.98885E-14
 -1        42-3.30469E-05-3.30469E-05 2.94936E-13 1.06255E-13-5.99750E-14 8.22756E-14
 -1        43-1.65234E-05-1.65234E-05 6.79849E-21-9.64341E-22 5.26007E-22-2.30702E-21
 -1        44-1.10156E-05-1.10156E-05 2.31414E-21 1.83784E-21 7.68985E-23 1.49716E-21
 -1        45-1.10156E-05-1.10156E-05-1.95187E-14-9.22317E-15 6.09831E-15 1.43471E-14
 -1        46-1.10156E-05-1.10156E-05-4.31822E-14-2.40519E-14-4.86590E-15-5.43477E-15
 -1        47-1.10156E-05-1.10156E-05-1.14120E-14 5.04923E-15 1.83144E-14 2.26976E-14
 -1        48-1.65234E-05-1.65234E-05-5.37477E-14-5.38396E-14-2.91498E-14-7.84918E-14
 -1        49-1.65234E-05-1.65234E-05 7.05610E-15-1.68152E-15-1.22439E-14-3.41889E-15
 -1        50-1.10156E-05-1.10156E-05 2.25009E-14-3.39785E-15-1.64721E-14-1.90031E-15
 -1        51-1.10156E-05-1.10156E-05-4.02572E-14 2.34606E-15 1.69107E-14-2.36492E-14
 -1        52-1.10156E-05-1.10156E-05-1.24832E-13 7.83161E-14 4.67950E-14 6.16429E-14
 -1        53-1.10156E-05-1.10156E-05-1.19343E-13 3.08589E-14-4.89356E-15-6.04062E-14
 -1        54-1.65234E-05-1.65234E-05 7.07742E-14-1.74237E-13-1.11374E-13 2.82241E-14
 -1        55-1.65234E-05-1.65234E-05-1.47169E-15 5.90879E-14 7.84947E-15 7.17164E-15
 -1        56-1.10156E-05-1.10156E-05 3.44665E-14 3.71151E-14-3.44853E-15 2.79932E-15
 -1        57-1.10156E-05-1.10156E-05 8.42480E-14-9.48389E-14 4.25401E-14 7.68945E-15
 -1        58-1.10156E-05-1.10156E-05-4.23298E-14-1.35500E-15-1.01398E-13-1.11000E-14
 -1        59-1.10156E-05-1.10156E-05 1.01761E-13 1.74093E-14 6.69702E-14 1.35594E-13
 -1        60-1.65234E-05-1.65234E-05 3.19635E-15-2.01320E-14 5.53582E-14-1.31506E-13
 -1        61-1.65234E-05-1.65234E-05-7.69628E-14 6.09841E-14-1.06347E-13 3.82553E-14
 -1        62-1.10156E-05-1.10156E-05 3.31691E-14 3.30017E-14 2.95350E-15 2.81002E-14
 -1        63-1.10156E-05-1.10156E-05-9.30560E-14-2.28363E-14-1.21176E-13-2.01721E-14
 -1        64-1.10156E-05-1.10156E-05 6.04936E-14-6.06641E-14 1.32403E-13 1.21278E-14
 -1        65-1.10156E-05-1.10156E-05-2.26536E-14 6.78417E-14-7.00723E-14-4.34087E-14
 -1        66-1.65234E-05-1.65234E-05-1.37611E-13 2.02926E-13 2.12094E-14 6.78370E-14
 -1        67-3.30469E-05-3.30469E-05-5.72150E-14-3.26815E-14 8.28700E-14-1.08678E-13
 -1        68-1.65234E-05-1.65234E-05-1.33376E-13-2.78222E-14 6.74323E-14-5.08350E-14
 -1        69-1.65234E-05-1.65234E-05-1.58094E-13-4.13300E-14 1.36505E-13 3.73650E-14
 -1        70-1.65234E-05-1.65234E-05 1.59333E-13-6.45894E-14-2.25963E-13-6.33539E-14
 -1        71-1.65234E-05-1.65234E-05 1.92582E-13-4.26502E-15 3.87721E-14-7.61988E-15
 -1        72-3.30469E-05-3.30469E-05-5.61535E-14-3.18914E-13-8.95515E-14 2.89030E-14
 -3
    1PSTEP                        78          26           1          
  100CL  126 1.92781E-01          72                     0   26           1
 -4  TOSTRAIN    6    1
 -5  EXX         1    4    1    1
 -5  EYY         1    4    2    2
 -5  EZZ         1    4    3    3
 -5  EXY         1    4    1    2
 -5  EYZ         1    4    2    3
 -5  EZX         1    4    3    1
 -1         1-1.10156E-10-1.10156E-10 9.44197E-11 5.44915E-27 4.22631E-27 8.71237E-28
 -1         2-5.50782E-11-5.50782E-11 4.72098E-11 1.60666E-26-1.64069E-27 2.10464E-26
 -1         3-5.50782E-11-5.50782E-11 4.72098E-11 6.01931E-20 8.04754E-26-5.40534E-20
 -1         4-5.50782E-11-5.50782E-11 4.72098E-11-3.68452E-20-2.74244E-25 2.70471E-19
 -1         5-5.50781E-11-5.50782E-11 4.72098E-11 2.50945E-19 7.09843E-25 5.82839E-19
 -1         6-1.10156E-10-1.10156E-10 9.44197E-11 2.29416E-19-1.06572E-24-1.85393E-18
 -1         7-5.50782E-11-5.50782E-11 4.72098E-11 9.16231E-28-2.34943E-27 6.05893E-28
 -1         8-3.67188E-11-3.67188E-11 3.14732E-11 9.50549E-27 2.36439E-27 1.47793E-26
 -1         9-3.67188E-11-3.67188E-11 3.14732E-11-1.06348E-20-2.10889E-20 2.11116E-20
 -1        10-3.67188E-11-3.67188E-11 3.14732E-11 8.99590E-20 6.10686E-21-2.49804E-19
 -1        11-3.67188E-11-3.67188E-11 3.14732E-11 2.63428E-19 2.36139E-22-3.56139E-19
 -1        12-5.50782E-11-5.50782E-11 4.72098E-11-3.32082E-19 5.18500E-21 1.65925E-18
 -1        13-5.50782E-11-5.50781E-11 4.72098E-11 1.36795E-20-2.12387E-19-1.48027E-25
 -1        14-3.67188E-11-3.67188E-11 3.14732E-11 1.54846E-20 1.84538E-20 2.34580E-21
 -1        15-3.67188E-11-3.67188E-11 3.14732E-11 1.16804E-19-2.55146E-19-7.16109E-21
 -1        16-3.67188E-11-3.67188E-11 3.14732E-11-1.17627E-19-5.13754E-21-1.09925E-19
 -1        17-3.67188E-11-3.67188E-11 3.14732E-11 1.08088E-20 3.39899E-19 5.08910E-19
 -1        18-5.50781E-11-5.50782E-11 4.72098E-11-2.61293E-20-2.01033E-19-4.96664E-19
 -1        19-5.50782E-11-5.50781E-11 4.72098E-11-5.73563E-20 3.05179E-20 6.15739E-27
 -1        20-3.67188E-11-3.67188E-11 3.14732E-11-3.18726E-20 6.07218E-20-1.22681E-20
 -1        21-3.67188E-11-3.67188E-11 3.14732E-11 3.28324E-19-3.41334E-20-1.43115E-19
 -1        22-3.67188E-11-3.67188E-11 3.14732E-11 2.02311E-19 3.83910E-19-2.16862E-20
 -1        23-3.67188E-11-3.67188E-11 3.14732E-11-4.37390E-19-1.91710E-19-3.83892E-19
 -1        24-5.50782E-11-5.50782E-11 4.72098E-11 6.62122E-19 1.41016E-19 5.66368E-19
 -1        25-5.50782E-11-5.50782E-11 4.72098E-11-7.26298E-21 1.47516E-19 1.47157E-24
 -1        26-3.67188E-11-3.67188E-11 3.14732E-11-4.99672E-20-4.69314E-19 1.60757E-20
 -1        27-3.67188E-11-3.67188E-11 3.14732E-11 5.42459E-20-3.98037E-19 5.74276E-20
 -1        28-3.67188E-11-3.67188E-11 3.14732E-11-6.88501E-20 2.15154E-19-1.68505E-19
 -1        29-3.67188E-11-3.67188E-11 3.14732E-11 6.17677E-20 8.14329E-20 2.31478E-19
 -1        30-5.50781E-11-5.50782E-11 4.72098E-11-5.42806E-19 4.67122E-19-3.29292E-19
 -1        31-1.10156E-10-1.10156E-10 9.44197E-11 3.88814E-21-1.28305E-18-1.12431E-24
 -1        32-5.50782E-11-5.50782E-11 4.72098E-11-6.57438E-20 6.58098E-19 2.16916E-20
 -1        33-5.50782E-11-5.50782E-11 4.72098E-11 8.22113E-20 8.81036E-19-2.63651E-19
 -1        34-5.50782E-11-5.50782E-11 4.72098E-11-1.06419E-19 3.00773E-19 7.27447E-19
 -1        35-5.50782E-11-5.50782E-11 4.72098E-11-1.99135E-19-4.08301E-19 1.06425E-19
 -1        36-1.10156E-10-1.10156E-10 9.44197E-11 2.48051E-18-4.90561E-20 1.28970E-18
 -1        37-1.10156E-10-1.10156E-10 9.44197E-11-2.26441E-27 2.19628E-27-1.68740E-26
 -1        38-5.50782E-11-5.50782E-11 4.72098E-11 2.19032E-26-2.69924E-27 1.03998E-26
 -1        39-5.50782E-11-5.50782E-11 4.72098E-11-1.11254E-19 8.82606E-20 6.22136E-21
 -1        40-5.50782E-11-5.50782E-11 4.72098E-11-2.85619E-19-5.43439E-20-1.15554E-19
 -1        41-5.50781E-11-5.50782E-11 4.72098E-11-1.63601E-19 1.69708E-19-5.56453E-19
 -1        42-1.10156E-10-1.10156E-10 9.44197E-11 6.57772E-19-3.71274E-19 5.09325E-19
 -1        43-5.50782E-11-5.50782E-11 4.72098E-11-5.96973E-27 3.25623E-27-1.42816E-26
 -1        44-3.67188E-11-3.67188E-11 3.14732E-11 1.13771E-26 4.76038E-28 9.26815E-27
 -1        45-3.67188E-11-3.67188E-11 3.14732E-11-5.70958E-20 3.77515E-20 8.88152E-20
 -1        46-3.67188E-11-3.67188E-11 3.14732E-11-1.48893E-19-3.01222E-20-3.36438E-20
 -1        47-3.67188E-11-3.67188E-11 3.14732E-11 3.12572E-20 1.13375E-19 1.40509E-19
 -1        48-5.50782E-11-5.50782E-11 4.72098E-11-3.33293E-19-1.80451E-19-4.85902E-19
 -1        49-5.50782E-11-5.50782E-11 4.72098E-11-1.04094E-20-7.57956E-20-2.11646E-20
 -1        50-3.67188E-11-3.67188E-11 3.14732E-11-2.10343E-20-1.01970E-19-1.17638E-20
 -1        51-3.67188E-11-3.67188E-11 3.14732E-11 1.45232E-20 1.04685E-19-1.46400E-19
 -1        52-3.67188E-11-3.67188E-11 3.14732E-11 4.84814E-19 2.89683E-19 3.81599E-19
 -1        53-3.67188E-11-3.67188E-11 3.14732E-11 1.91031E-19-3.02934E-20-3.73943E-19
 -1        54-5.50782E-11-5.50781E-11 4.72098E-11-1.07861E-18-6.89461E-19 1.74720E-19
 -1        55-5.50782E-11-5.50782E-11 4.72098E-11 3.65782E-19 4.85920E-20 4.43959E-20
 -1        56-3.67188E-11-3.67188E-11 3.14732E-11 2.29760E-19-2.13481E-20 1.73291E-20
 -1        57-3.67188E-11-3.67188E-11 3.14732E-11-5.87098E-19 2.63343E-19 4.76014E-20
 -1        58-3.67188E-11-3.67188E-11 3.14732E-11-8.38811E-21-6.27701E-19-6.87146E-20
 -1        59-3.67188E-11-3.67188E-11 3.14732E-11 1.07772E-19 4.14577E-19 8.39389E-19
 -1        60-5.50781E-11-5.50782E-11 4.72098E-11-1.24627E-19 3.42693E-19-8.14087E-19
 -1        61-5.50782E-11-5.50782E-11 4.72098E-11 3.77520E-19-6.58339E-19 2.36819E-19
 -1        62-3.67188E-11-3.67188E-11 3.14732E-11 2.04296E-19 1.82836E-20 1.73954E-19
 -1        63-3.67188E-11-3.67188E-11 3.14732E-11-1.41367E-19-7.50136E-19-1.24875E-19
 -1        64-3.67188E-11-3.67188E-11 3.14732E-11-3.75540E-19 8.19636E-19 7.50771E-20
 -1        65-3.67188E-11-3.67188E-11 3.14732E-11 4.19972E-19-4.33781E-19-2.68721E-19
 -1        66-5.50782E-11-5.50782E-11 4.72098E-11 1.25621E-18 1.31296E-19 4.19944E-19
 -1        67-1.10156E-10-1.10156E-10 9.44197E-11-2.02314E-19 5.13005E-19-6.72769E-19
 -1        68-5.50782E-11-5.50782E-11 4.72098E-11-1.72233E-19 4.17438E-19-3.14693E-19
 -1        69-5.50782E-11-5.50782E-11 4.72098E-11-2.55852E-19 8.45033E-19 2.31307E-19
 -1        70-5.50782E-11-5.50781E-11 4.72098E-11-3.99839E-19-1.39882E-18-3.92191E-19
 -1        71-5.50781E-11-5.50781E-11 4.72098E-11-2.64025E-20 2.40018E-19-4.71707E-20
 -1        72-1.10156E-10-1.10156E-10 9.44197E-11-1.97423E-18-5.54366E-19 1.78923E-19
 -3
    1PSTEP                        79          27           1          
  100CL  127 2.01781E-01          72                     0   27           1
 -4  DISP        4    1
 -5  D1          1    2    1    0
 -5  D2          1    2    2    0
 -5  D3          1    2    3    0
 -5  ALL         1    2    0    0    1ALL
 -1         1 0.00000E+00 0.00000E+00 0.00000E+00
 -1         2-5.76518E-08 0.00000E+00 0.00000E+00
 -1         3-3.02672E+00 0.00000E+00 0.00000E+00
 -1         4-3.02672E+00 0.00000E+00 0.00000E+00
 -1         5-6.05344E+00 0.00000E+00 0.00000E+00
 -1         6-6.05344E+00 0.00000E+00 0.00000E+00
 -1         7 0.00000E+00-5.76518E-08 0.00000E+00
 -1         8-5.76518E-08-5.76518E-08 0.00000E+00
 -1         9-3.02672E+00-5.76518E-08 0.00000E+00
 -1        10-3.02672E+00-5.76518E-08 0.00000E+00
 -1        11-6.05344E+00-5.76518E-08 0.00000E+00
 -1        12-6.05344E+00-5.76518E-08 0.00000E+00
 -1        13 0.00000E+00-3.02672E+00 0.00000E+00
 -1        14-5.76518E-08-3.02672E+00 0.00000E+00
 -1        15-3.02672E+00-3.02672E+00 0.00000E+00
 -1        16-3.02672E+00-3.02672E+00 0.00000E+00
 -1        17-6.05344E+00-3.02672E+00 0.00000E+00
 -1        18-6.05344E+00-3.02672E+00 0.00000E+00
 -1        19 0.00000E+00-3.02672E+00 0.00000E+00
 -1        20-5.76518E-08-3.02672E+00 0.00000E+00
 -1        21-3.02672E+00-3.02672E+00 0.00000E+00
 -1        22-3.02672E+00-3.02672E+00 0.00000E+00
 -1        23-6.05344E+00-3.02672E+00 0.00000E+00
 -1        24-6.05344E+00-3.02672E+00 0.00000E+00
 -1        25 0.00000E+00-6.05344E+00 0.00000E+00
 -1        26-5.76518E-08-6.05344E+00 0.00000E+00
 -1        27-3.02672E+00-6.05344E+00 0.00000E+00
 -1        28-3.02672E+00-6.05344E+00 0.00000E+00
 -1        29-6.05344E+00-6.05344E+00 0.00000E+00
 -1        30-6.05344E+00-6.05344E+00 0.00000E+00
 -1        31 0.00000E+00-6.05344E+00 0.00000E+00
 -1        32-5.76518E-08-6.05344E+00 0.00000E+00
 -1        33-3.02672E+00-6.05344E+00 0.00000E+00
 -1        34-3.02672E+00-6.05344E+00 0.00000E+00
 -1        35-6.05344E+00-6.05344E+00 0.00000E+00
 -1        36-6.05344E+00-6.05344E+00 0.00000E+00
 -1        37 0.00000E+00 0.00000E+00 6.91821E-08
 -1        38-5.76518E-08 0.00000E+00 6.91821E-08
 -1        39-3.02672E+00 0.00000E+00 6.91821E-08
 -1        40-3.02672E+00 0.00000E+00 6.91821E-08
 -1        41-6.05344E+00 0.00000E+00 6.91821E-08
 -1        42-6.05344E+00 0.00000E+00 6.91821E-08
 -1        43 0.00000E+00-5.76518E-08 6.91821E-08
 -1        44-5.76518E-08-5.76518E-08 6.91821E-08
 -1        45-3.02672E+00-5.76518E-08 6.91821E-08
 -1        46-3.02672E+00-5.76518E-08 6.91821E-08
 -1        47-6.05344E+00-5.76518E-08 6.91821E-08
 -1        48-6.05344E+00-5.76518E-08 6.91821E-08
 -1        49 0.00000E+00-3.02672E+00 6.91821E-08
 -1        50-5.76518E-08-3.02672E+00 6.91821E-08
 -1        51-3.02672E+00-3.02672E+00 6.91821E-08
 -1        52-3.02672E+00-3.02672E+00 6.91821E-08
 -1        53-6.05344E+00-3.02672E+00 6.91821E-08
 -1        54-6.05344E+00-3.02672E+00 6.91821E-08
 -1        55 0.00000E+00-3.02672E+00 6.91821E-08
 -1        56-5.76518E-08-3.02672E+00 6.91821E-08
 -1        57-3.02672E+00-3.02672E+00 6.91821E-08
 -1        58-3.02672E+00-3.02672E+00 6.91821E-08
 -1        59-6.05344E+00-3.02672E+00 6.91821E-08
 -1        60-6.05344E+00-3.02672E+00 6.91821E-08
 -1        61 0.00000E+00-6.05344E+00 6.91821E-08
 -1        62-5.76518E-08-6.05344E+00 6.91821E-08
 -1        63-3.02672E+00-6.05344E+00 6.91821E-08
 -1        64-3.02672E+00-6.05344E+00 6.91821E-08
 -1        65-6.05344E+00-6.05344E+00 6.91821E-08
 -1        66-6.05344E+00-6.05344E+00 6.91821E-08
 -1        67 0.00000E+00-6.05344E+00 6.91821E-08
 -1        68-5.76518E-08-6.05344E+00 6.91821E-08
 -1        69-3.02672E+00-6.05344E+00 6.91821E-08
 -1        70-3.02672E+00-6.05344E+00 6.91821E-08
 -1        71-6.05344E+00-6.05344E+00 6.91821E-08
 -1        72-6.05344E+00-6.05344E+00 6.91821E-08
 -3
    1PSTEP                        80          27           1          
  100CL  127 2.01781E-01          72                     0   27           1
 -4  STRESS      6    1
 -5  SXX         1    4    1    1
 -5  SYY         1    4    2    2
 -5  SZZ         1    4    3    3
 -5  SXY         1    4    1    2
 -5  SYZ         1    4    2    3
 -5  SZX         1    4    3    1
 -1         1-3.45897E-05-3.45897E-05-6.32225E-21 5.68786E-25 3.13696E-23 3.15247E-22
 -1         2-1.72948E-05-1.72948E-05-6.09532E-21-1.48928E-22-2.09955E-22 1.52994E-21
 -1         3-1.72948E-05-1.72948E-05-2.31562E-14-1.67206E-14-1.45166E-20-2.28761E-14
 -1         4-1.72948E-05-1.72948E-05-3.60612E-14 9.85944E-15-5.50039E-20 2.50047E-15
 -1         5-1.72948E-05-1.72948E-05-4.56380E-14 8.79957E-15-9.21971E-21 4.14257E-16
 -1         6-3.45897E-05-3.45897E-05-1.47345E-13 1.77003E-13 5.44027E-20-1.52588E-13
 -1         7-1.72948E-05-1.72948E-05-2.26937E-22 3.50684E-21 2.49667E-21-2.42346E-22
 -1         8-1.15299E-05-1.15299E-05 1.28067E-21 2.23842E-21-1.34734E-21 2.48462E-21
 -1         9-1.15299E-05-1.15299E-05 1.88491E-14-1.84066E-14-6.60286E-15 6.92188E-14
 -1        10-1.15299E-05-1.15299E-05-3.62758E-14 2.28082E-14 4.35423E-15-5.21289E-14
 -1        11-1.15299E-05-1.15299E-05 9.37901E-14-1.80611E-14-1.62252E-14 1.15386E-13
 -1        12-1.72948E-05-1.72948E-05 3.59154E-14 1.15721E-14 1.68130E-14 2.51976E-14
 -1        13-1.72948E-05-1.72948E-05 7.07804E-14 3.70802E-14 8.31838E-14-1.34107E-20
 -1        14-1.15299E-05-1.15299E-05-7.38876E-14 2.40983E-14 7.99147E-15-5.58023E-16
 -1        15-1.15299E-05-1.15299E-05 6.63868E-14 2.58463E-14-5.52076E-14-5.84036E-14
 -1        16-1.15299E-05-1.15299E-05 3.96438E-15-1.27916E-14 6.01465E-14 2.28697E-14
 -1        17-1.15299E-05-1.15299E-05-5.03134E-14-3.70738E-14-1.79084E-15-2.75306E-14
 -1        18-1.72948E-05-1.72948E-05 3.51935E-14 7.22235E-14 5.14649E-14 1.72261E-13
 -1        19-1.72948E-05-1.72948E-05 7.47989E-14-1.10251E-14-5.46559E-14-1.33754E-21
 -1        20-1.15299E-05-1.15299E-05-6.53209E-14-7.97193E-15-1.73089E-14-5.61753E-16
 -1        21-1.15299E-05-1.15299E-05 9.57366E-14 3.45786E-14 2.71179E-14 2.44060E-14
 -1        22-1.15299E-05-1.15299E-05-1.95495E-14-4.48867E-15 7.94115E-15 5.60414E-15
 -1        23-1.15299E-05-1.15299E-05 1.05579E-13-1.59742E-14-1.41917E-14-1.42988E-14
 -1        24-1.72948E-05-1.72948E-05-3.89555E-14-1.78650E-14-7.52032E-14-7.86699E-14
 -1        25-1.72948E-05-1.72948E-05 7.81786E-14 8.05299E-14 7.79801E-15 2.43775E-20
 -1        26-1.15299E-05-1.15299E-05 4.45375E-14 2.92098E-14-1.05980E-13 1.52246E-15
 -1        27-1.15299E-05-1.15299E-05 1.05451E-13-4.47805E-15-6.29678E-14-1.59476E-14
 -1        28-1.15299E-05-1.15299E-05 5.55169E-14-4.05217E-14-6.04880E-14 6.97581E-15
 -1        29-1.15299E-05-1.15299E-05 5.19126E-14-1.07604E-14 1.37781E-15-1.75427E-14
 -1        30-1.72948E-05-1.72948E-05-1.45103E-13 1.40141E-13-6.22577E-15 7.19367E-14
 -1        31-3.45897E-05-3.45897E-05 4.12552E-13-4.31567E-14-1.53674E-13 2.04766E-19
 -1        32-1.72948E-05-1.72948E-05 2.01876E-13-5.82935E-14 1.11394E-13 2.14047E-14
 -1        33-1.72948E-05-1.72948E-05 4.31717E-14 3.32228E-14 7.15012E-14 2.90146E-14
 -1        34-1.72948E-05-1.72948E-05 3.28321E-13 1.43996E-14 1.39010E-13-1.02409E-14
 -1        35-1.72948E-05-1.72948E-05 2.75700E-13 1.88013E-14 8.42086E-14 1.12532E-13
 -1        36-3.45897E-05-3.45897E-05 5.60333E-13-1.62545E-13-2.09007E-13-2.51690E-13
 -1        37-3.45897E-05-3.45897E-05 9.71039E-21-5.17178E-22 4.43345E-21-2.03870E-21
 -1        38-1.72948E-05-1.72948E-05-3.16113E-21 3.50684E-21-4.41499E-22 2.09684E-22
 -1        39-1.72948E-05-1.72948E-05-1.39920E-14-6.28304E-14 1.76872E-14 1.16094E-14
 -1        40-1.72948E-05-1.72948E-05 7.61791E-15 3.83979E-14-1.02258E-14-3.57748E-14
 -1        41-1.72948E-05-1.72948E-05-2.39575E-15-9.55406E-14 1.85877E-14 9.75981E-14
 -1        42-3.45897E-05-3.45897E-05 1.11973E-13-1.92566E-13-2.42129E-14-1.00566E-13
 -1        43-1.72948E-05-1.72948E-05 2.70725E-21-2.91759E-21 2.55872E-21-1.46474E-21
 -1        44-1.15299E-05-1.15299E-05-1.51291E-22 5.65223E-22-1.11962E-21 2.02619E-21
 -1        45-1.15299E-05-1.15299E-05 3.80939E-14-3.22040E-14 5.18858E-15-4.93403E-14
 -1        46-1.15299E-05-1.15299E-05 5.97900E-15 5.11928E-14-2.46294E-15 3.10649E-14
 -1        47-1.15299E-05-1.15299E-05 4.40008E-15-9.40865E-14-3.83338E-15-1.24173E-13
 -1        48-1.72948E-05-1.72948E-05-1.17532E-14 1.35602E-13 4.70647E-15 1.17958E-13
 -1        49-1.72948E-05-1.72948E-05-1.56855E-13-2.61926E-14-3.04315E-14-4.94541E-16
 -1        50-1.15299E-05-1.15299E-05-1.54791E-14-1.80888E-14 3.38500E-15-8.87709E-16
 -1        51-1.15299E-05-1.15299E-05 2.88760E-14 2.71102E-14 7.35375E-14 3.21304E-14
 -1        52-1.15299E-05-1.15299E-05-4.33340E-14 7.12335E-14-9.90396E-14-1.73206E-14
 -1        53-1.15299E-05-1.15299E-05 5.51775E-14 1.33693E-14 2.00328E-14 5.55515E-14
 -1        54-1.72948E-05-1.72948E-05-1.21868E-15 1.04962E-13-6.85455E-14-2.23466E-13
 -1        55-1.72948E-05-1.72948E-05-1.52849E-13 6.36233E-14 1.69977E-14 3.03809E-15
 -1        56-1.15299E-05-1.15299E-05-6.92030E-15 4.17884E-14 1.43855E-14 1.46364E-15
 -1        57-1.15299E-05-1.15299E-05-2.38062E-14-6.96697E-14 8.19683E-15 1.68996E-14
 -1        58-1.15299E-05-1.15299E-05 2.17518E-14-3.22480E-15-1.45248E-14-1.12883E-14
 -1        59-1.15299E-05-1.15299E-05 6.16013E-14 1.02301E-14 1.22103E-14 3.14267E-14
 -1        60-1.72948E-05-1.72948E-05-7.77494E-14-6.69862E-14 2.77876E-14 1.29344E-13
 -1        61-1.72948E-05-1.72948E-05 2.14134E-14 3.90918E-14 5.56343E-14-1.69804E-14
 -1        62-1.15299E-05-1.15299E-05-1.95767E-14 1.94306E-14-1.07020E-14-9.79780E-15
 -1        63-1.15299E-05-1.15299E-05 8.59744E-14 1.19564E-13-4.46033E-14-3.59595E-15
 -1        64-1.15299E-05-1.15299E-05-6.61228E-14 1.24529E-13 6.37232E-14-4.94694E-14
 -1        65-1.15299E-05-1.15299E-05 3.41679E-14-1.87923E-14-4.80625E-15 3.63278E-14
 -1        66-1.72948E-05-1.72948E-05 6.99958E-14-4.94502E-14-1.91124E-13-1.77318E-13
 -1        67-3.45897E-05-3.45897E-05-2.51167E-13-2.09501E-14-4.77208E-15-2.83825E-14
 -1        68-1.72948E-05-1.72948E-05-1.69389E-13-2.04209E-14 3.06653E-14 7.21338E-15
 -1        69-1.72948E-05-1.72948E-05 1.85812E-13-1.46100E-13 4.46189E-14-7.88903E-14
 -1        70-1.72948E-05-1.72948E-05-2.62431E-13-1.14786E-13-9.31166E-14 1.42673E-13
 -1        71-1.72948E-05-1.72948E-05-2.57916E-13-1.70790E-13 4.55696E-14-5.96807E-14
 -1        72-3.45897E-05-3.45897E-05 1.13039E-13 2.86232E-13 3.86262E-13 3.13577E-13
 -3
    1PSTEP                        81          27           1          
  100CL  127 2.01781E-01          72                     0   27           1
 -4  TOSTRAIN    6    1
 -5  EXX         1    4    1    1
 -5  EYY         1    4    2    2
 -5  EZZ         1    4    3    3
 -5  EXY         1    4    1    2
 -5  EYZ         1    4    2    3
 -5  EZX         1    4    3    1
 -1         1-1.15299E-10-1.15299E-10 9.88277E-11 3.52106E-30 1.94193E-28 1.95153E-27
 -1         2-5.76495E-11-5.76495E-11 4.94138E-11-9.21935E-28-1.29972E-27 9.47106E-27
 -1         3-5.76495E-11-5.76495E-11 4.94138E-11-1.03508E-19-8.98648E-26-1.41614E-19
 -1         4-5.76495E-11-5.76495E-11 4.94138E-11 6.10346E-20-3.40501E-25 1.54791E-20
 -1         5-5.76495E-11-5.76495E-11 4.94138E-11 5.44735E-20-5.70744E-26 2.56445E-21
 -1         6-1.15299E-10-1.15299E-10 9.88277E-11 1.09573E-18 3.36779E-25-9.44593E-19
 -1         7-5.76495E-11-5.76495E-11 4.94138E-11 2.17090E-26 1.54555E-26-1.50023E-27
 -1         8-3.84330E-11-3.84330E-11 3.29426E-11 1.38569E-26-8.34069E-27 1.53810E-26
 -1         9-3.84330E-11-3.84330E-11 3.29426E-11-1.13946E-19-4.08749E-20 4.28497E-19
 -1        10-3.84330E-11-3.84330E-11 3.29426E-11 1.41194E-19 2.69547E-20-3.22703E-19
 -1        11-3.84330E-11-3.84330E-11 3.29426E-11-1.11807E-19-1.00441E-19 7.14293E-19
 -1        12-5.76495E-11-5.76495E-11 4.94138E-11 7.16365E-20 1.04080E-19 1.55985E-19
 -1        13-5.76495E-11-5.76495E-11 4.94138E-11 2.29544E-19 5.14947E-19-8.30187E-26
 -1        14-3.84330E-11-3.84330E-11 3.29426E-11 1.49180E-19 4.94710E-20-3.45443E-21
 -1        15-3.84330E-11-3.84330E-11 3.29426E-11 1.60001E-19-3.41761E-19-3.61546E-19
 -1        16-3.84330E-11-3.84330E-11 3.29426E-11-7.91862E-20 3.72335E-19 1.41574E-19
 -1        17-3.84330E-11-3.84330E-11 3.29426E-11-2.29505E-19-1.10862E-20-1.70428E-19
 -1        18-5.76495E-11-5.76495E-11 4.94138E-11 4.47098E-19 3.18592E-19 1.06638E-18
 -1        19-5.76495E-11-5.76495E-11 4.94138E-11-6.82504E-20-3.38346E-19-8.28004E-27
 -1        20-3.84330E-11-3.84330E-11 3.29426E-11-4.93501E-20-1.07150E-19-3.47752E-21
 -1        21-3.84330E-11-3.84330E-11 3.29426E-11 2.14058E-19 1.67873E-19 1.51085E-19
 -1        22-3.84330E-11-3.84330E-11 3.29426E-11-2.77870E-20 4.91595E-20 3.46923E-20
 -1        23-3.84330E-11-3.84330E-11 3.29426E-11-9.88879E-20-8.78533E-20-8.85164E-20
 -1        24-5.76495E-11-5.76495E-11 4.94138E-11-1.10593E-19-4.65544E-19-4.87004E-19
 -1        25-5.76495E-11-5.76495E-11 4.94138E-11 4.98518E-19 4.82734E-20 1.50908E-25
 -1        26-3.84330E-11-3.84330E-11 3.29426E-11 1.80822E-19-6.56066E-19 9.42476E-21
 -1        27-3.84330E-11-3.84330E-11 3.29426E-11-2.77213E-20-3.89801E-19-9.87230E-20
 -1        28-3.84330E-11-3.84330E-11 3.29426E-11-2.50849E-19-3.74449E-19 4.31836E-20
 -1        29-3.84330E-11-3.84330E-11 3.29426E-11-6.66119E-20 8.52928E-21-1.08598E-19
 -1        30-5.76495E-11-5.76495E-11 4.94138E-11 8.67542E-19-3.85405E-20 4.45323E-19
 -1        31-1.15299E-10-1.15299E-10 9.88277E-11-2.67160E-19-9.51317E-19 1.26760E-24
 -1        32-5.76495E-11-5.76495E-11 4.94138E-11-3.60865E-19 6.89579E-19 1.32506E-19
 -1        33-5.76495E-11-5.76495E-11 4.94138E-11 2.05665E-19 4.42627E-19 1.79614E-19
 -1        34-5.76495E-11-5.76495E-11 4.94138E-11 8.91404E-20 8.60539E-19-6.33962E-20
 -1        35-5.76495E-11-5.76495E-11 4.94138E-11 1.16389E-19 5.21291E-19 6.96626E-19
 -1        36-1.15299E-10-1.15299E-10 9.88277E-11-1.00623E-18-1.29385E-18-1.55808E-18
 -1        37-1.15299E-10-1.15299E-10 9.88277E-11-3.20158E-27 2.74452E-26-1.26205E-26
 -1        38-5.76495E-11-5.76495E-11 4.94138E-11 2.17090E-26-2.73309E-27 1.29804E-27
 -1        39-5.76495E-11-5.76495E-11 4.94138E-11-3.88950E-19 1.09492E-19 7.18676E-20
 -1        40-5.76495E-11-5.76495E-11 4.94138E-11 2.37702E-19-6.33026E-20-2.21463E-19
 -1        41-5.76495E-11-5.76495E-11 4.94138E-11-5.91442E-19 1.15066E-19 6.04179E-19
 -1        42-1.15299E-10-1.15299E-10 9.88277E-11-1.19208E-18-1.49890E-19-6.22552E-19
 -1        43-5.76495E-11-5.76495E-11 4.94138E-11-1.80613E-26 1.58397E-26-9.06741E-27
 -1        44-3.84330E-11-3.84330E-11 3.29426E-11 3.49900E-27-6.93097E-27 1.25431E-26
 -1        45-3.84330E-11-3.84330E-11 3.29426E-11-1.99358E-19 3.21198E-20-3.05440E-19
 -1        46-3.84330E-11-3.84330E-11 3.29426E-11 3.16908E-19-1.52468E-20 1.92306E-19
 -1        47-3.84330E-11-3.84330E-11 3.29426E-11-5.82440E-19-2.37305E-20-7.68688E-19
 -1        48-5.76495E-11-5.76495E-11 4.94138E-11 8.39443E-19 2.91353E-20 7.30216E-19
 -1        49-5.76495E-11-5.76495E-11 4.94138E-11-1.62145E-19-1.88386E-19-3.06145E-21
 -1        50-3.84330E-11-3.84330E-11 3.29426E-11-1.11979E-19 2.09548E-20-5.49534E-21
 -1        51-3.84330E-11-3.84330E-11 3.29426E-11 1.67825E-19 4.55232E-19 1.98903E-19
 -1        52-3.84330E-11-3.84330E-11 3.29426E-11 4.40969E-19-6.13102E-19-1.07222E-19
 -1        53-3.84330E-11-3.84330E-11 3.29426E-11 8.27622E-20 1.24013E-19 3.43890E-19
 -1        54-5.76495E-11-5.76495E-11 4.94138E-11 6.49767E-19-4.24329E-19-1.38336E-18
 -1        55-5.76495E-11-5.76495E-11 4.94138E-11 3.93859E-19 1.05224E-19 1.88072E-20
 -1        56-3.84330E-11-3.84330E-11 3.29426E-11 2.58690E-19 8.90528E-20 9.06062E-21
 -1        57-3.84330E-11-3.84330E-11 3.29426E-11-4.31288E-19 5.07423E-20 1.04617E-19
 -1        58-3.84330E-11-3.84330E-11 3.29426E-11-1.99631E-20-8.99153E-20-6.98801E-20
 -1        59-3.84330E-11-3.84330E-11 3.29426E-11 6.33293E-20 7.55875E-20 1.94546E-19
 -1        60-5.76495E-11-5.76495E-11 4.94138E-11-4.14676E-19 1.72019E-19 8.00700E-19
 -1        61-5.76495E-11-5.76495E-11 4.94138E-11 2.41997E-19 3.44403E-19-1.05117E-19
 -1        62-3.84330E-11-3.84330E-11 3.29426E-11 1.20285E-19-6.62505E-20-6.06531E-20
 -1        63-3.84330E-11-3.84330E-11 3.29426E-11 7.40159E-19-2.76116E-19-2.22606E-20
 -1        64-3.84330E-11-3.84330E-11 3.29426E-11 7.70895E-19 3.94477E-19-3.06239E-19
 -1        65-3.84330E-11-3.84330E-11 3.29426E-11-1.16333E-19-2.97530E-20 2.24887E-19
 -1        66-5.76495E-11-5.76495E-11 4.94138E-11-3.06120E-19-1.18315E-18-1.09768E-18
 -1        67-1.15299E-10-1.15299E-10 9.88277E-11-1.29691E-19-2.95415E-20-1.75701E-19
 -1        68-5.76495E-11-5.76495E-11 4.94138E-11-1.26415E-19 1.89833E-19 4.46542E-20
 -1        69-5.76495E-11-5.76495E-11 4.94138E-11-9.04427E-19 2.76212E-19-4.88369E-19
 -1        70-5.76495E-11-5.76495E-11 4.94138E-11-7.10577E-19-5.76436E-19 8.83217E-19
 -1        71-5.76495E-11-5.76495E-11 4.94138E-11-1.05727E-18 2.82098E-19-3.69452E-19
 -1        72-1.15299E-10-1.15299E-10 9.88277E-11 1.77191E-18 2.39115E-18 1.94119E-18
 -3
    1PSTEP                        82          28           1          
  100CL  128 2.10781E-01          72                     0   28           1
 -4  DISP        4    1
 -5  D1          1    2    1    0
 -5  D2          1    2    2    0
 -5  D3          1    2    3    0
 -5  ALL         1    2    0    0    1ALL
 -1         1 0.00000E+00 0.00000E+00 0.00000E+00
 -1         2-6.02232E-08 0.00000E+00 0.00000E+00
 -1         3-3.16172E+00 0.00000E+00 0.00000E+00
 -1         4-3.16172E+00 0.00000E+00 0.00000E+00
 -1         5-6.32344E+00 0.00000E+00 0.00000E+00
 -1         6-6.32344E+00 0.00000E+00 0.00000E+00
 -1         7 0.00000E+00-6.02232E-08 0.00000E+00
 -1         8-6.02232E-08-6.02232E-08 0.00000E+00
 -1         9-3.16172E+00-6.02232E-08 0.00000E+00
 -1        10-3.16172E+00-6.02232E-08 0.00000E+00
 -1        11-6.32344E+00-6.02232E-08 0.00000E+00
 -1        12-6.32344E+00-6.02232E-08 0.00000E+00
 -1        13 0.00000E+00-3.16172E+00 0.00000E+00
 -1        14-6.02232E-08-3.16172E+00 0.00000E+00
 -1        15-3.16172E+00-3.16172E+00 0.00000E+00
 -1        16-3.16172E+00-3.16172E+00 0.00000E+00
 -1        17-6.32344E+00-3.16172E+00 0.00000E+00
 -1        18-6.32344E+00-3.16172E+00 0.00000E+00
 -1        19 0.00000E+00-3.16172E+00 0.00000E+00
 -1        20-6.02232E-08-3.16172E+00 0.00000E+00
 -1        21-3.16172E+00-3.16172E+00 0.00000E+00
 -1        22-3.16172E+00-3.16172E+00 0.00000E+00
 -1        23-6.32344E+00-3.16172E+00 0.00000E+00
 -1        24-6.32344E+00-3.16172E+00 0.00000E+00
 -1        25 0.00000E+00-6.32344E+00 0.00000E+00
 -1        26-6.02232E-08-6.32344E+00 0.00000E+00
 -1        27-3.16172E+00-6.32344E+00 0.00000E+00
 -1        28-3.16172E+00-6.32344E+00 0.00000E+00
 -1        29-6.32344E+00-6.32344E+00 0.00000E+00
 -1        30-6.32344E+00-6.32344E+00 0.00000E+00
 -1        31 0.00000E+00-6.32344E+00 0.00000E+00
 -1        32-6.02232E-08-6.32344E+00 0.00000E+00
 -1        33-3.16172E+00-6.32344E+00 0.00000E+00
 -1        34-3.16172E+00-6.32344E+00 0.00000E+00
 -1        35-6.32344E+00-6.32344E+00 0.00000E+00
 -1        36-6.32344E+00-6.32344E+00 0.00000E+00
 -1        37 0.00000E+00 0.00000E+00 7.22679E-08
 -1        38-6.02232E-08 0.00000E+00 7.22679E-08
 -1        39-3.16172E+00 0.00000E+00 7.22679E-08
 -1        40-3.16172E+00 0.00000E+00 7.22679E-08
 -1        41-6.32344E+00 0.00000E+00 7.22679E-08
 -1        42-6.32344E+00 0.00000E+00 7.22679E-08
 -1        43 0.00000E+00-6.02232E-08 7.22679E-08
 -1        44-6.02232E-08-6.02232E-08 7.22679E-08
 -1        45-3.16172E+00-6.02232E-08 7.22679E-08
 -1        46-3.16172E+00-6.02232E-08 7.22679E-08
 -1        47-6.32344E+00-6.02232E-08 7.22679E-08
 -1        48-6.32344E+00-6.02232E-08 7.22679E-08
 -1        49 0.00000E+00-3.16172E+00 7.22679E-08
 -1        50-6.02232E-08-3.16172E+00 7.22679E-08
 -1        51-3.16172E+00-3.16172E+00 7.22679E-08
 -1        52-3.16172E+00-3.16172E+00 7.22679E-08
 -1        53-6.32344E+00-3.16172E+00 7.22679E-08
 -1        54-6.32344E+00-3.16172E+00 7.22679E-08
 -1        55 0.00000E+00-3.16172E+00 7.22679E-08
 -1        56-6.02232E-08-3.16172E+00 7.22679E-08
 -1        57-3.16172E+00-3.16172E+00 7.22679E-08
 -1        58-3.16172E+00-3.16172E+00 7.22679E-08
 -1        59-6.32344E+00-3.16172E+00 7.22679E-08
 -1        60-6.32344E+00-3.16172E+00 7.22679E-08
 -1        61 0.00000E+00-6.32344E+00 7.22679E-08
 -1        62-6.02232E-08-6.32344E+00 7.22679E-08
 -1        63-3.16172E+00-6.32344E+00 7.22679E-08
 -1        64-3.16172E+00-6.32344E+00 7.22679E-08
 -1        65-6.32344E+00-6.32344E+00 7.22679E-08
 -1        66-6.32344E+00-6.32344E+00 7.22679E-08
 -1        67 0.00000E+00-6.32344E+00 7.22679E-08
 -1        68-6.02232E-08-6.32344E+00 7.22679E-08
 -1        69-3.16172E+00-6.32344E+00 7.22679E-08
 -1        70-3.16172E+00-6.32344E+00 7.22679E-08
 -1        71-6.32344E+00-6.32344E+00 7.22679E-08
 -1        72-6.32344E+00-6.32344E+00 7.22679E-08
 -3
    1PSTEP                        83          28           1          
  100CL  128 2.10781E-01          72                     0   28           1
 -4  STRESS      6    1
 -5  SXX         1    4    1    1
 -5  SYY         1    4    2    2
 -5  SZZ         1    4    3    3
 -5  SXY         1    4    1    2
 -5  SYZ         1    4    2    3
 -5  SZX         1    4    3    1
 -1         1-3.61325E-05-3.61325E-05 4.79434E-21-3.85211E-22-7.65609E-22-1.62433E-23
 -1         2-1.80662E-05-1.80662E-05-4.93820E-21-2.12222E-21 8.66165E-23-1.37824E-21
 -1         3-1.80662E-05-1.80662E-05 4.69243E-14-1.73068E-14-3.70254E-20-3.22808E-14
 -1         4-1.80662E-05-1.80662E-05 4.58230E-14 4.23831E-14 6.26052E-21 4.86992E-14
 -1         5-1.80662E-05-1.80662E-05 2.19124E-17-1.14170E-13 1.62321E-19 4.49070E-14
 -1         6-3.61325E-05-3.61325E-05 3.39965E-13 1.72908E-13-3.39099E-19-1.19877E-13
 -1         7-1.80662E-05-1.80662E-05-6.01217E-21 5.64611E-21 2.10263E-21-2.17894E-22
 -1         8-1.20442E-05-1.20442E-05 4.98620E-21 2.47766E-21-2.72658E-21 1.12465E-21
 -1         9-1.20442E-05-1.20442E-05 8.85715E-14 3.73004E-15-5.27660E-15 5.41105E-14
 -1        10-1.20442E-05-1.20442E-05 8.71314E-14 1.74525E-14 3.25643E-15-2.33711E-14
 -1        11-1.20442E-05-1.20442E-05-3.61231E-14-7.37571E-14 1.11670E-14-3.56471E-14
 -1        12-1.80662E-05-1.80662E-05-4.97223E-14 5.79661E-14-1.06746E-14 2.47636E-13
 -1        13-1.80662E-05-1.80662E-05-3.81997E-14 1.31878E-13 3.88498E-15-7.84948E-21
 -1        14-1.20442E-05-1.20442E-05-8.47608E-14 8.92353E-14-4.74030E-14 5.22097E-17
 -1        15-1.20442E-05-1.20442E-05 1.05211E-13 3.70023E-14-2.46421E-14-4.05082E-14
 -1        16-1.20442E-05-1.20442E-05 2.05132E-14 5.70680E-14-3.77681E-14 7.52093E-14
 -1        17-1.20442E-05-1.20442E-05 7.42178E-14 8.11445E-14 3.84515E-14 7.49293E-15
 -1        18-1.80662E-05-1.80662E-05 1.62289E-13-9.52881E-14 6.35640E-15 1.46590E-14
 -1        19-1.80662E-05-1.80662E-05-3.44265E-14-3.42470E-14 6.64687E-14 6.17848E-20
 -1        20-1.20442E-05-1.20442E-05-5.09500E-14-2.15145E-14 1.04879E-14 7.83927E-16
 -1        21-1.20442E-05-1.20442E-05 2.01803E-14-1.52010E-14-7.34229E-15 1.41920E-14
 -1        22-1.20442E-05-1.20442E-05-2.34632E-14-9.12613E-14 3.65237E-14-6.96787E-15
 -1        23-1.20442E-05-1.20442E-05 1.55968E-14-2.50446E-14 2.42023E-15-1.68122E-14
 -1        24-1.80662E-05-1.80662E-05-3.44861E-14-2.25991E-14 7.06137E-14 7.89483E-14
 -1        25-1.80662E-05-1.80662E-05-1.10914E-13 1.30725E-13 4.40439E-14 6.15741E-20
 -1        26-1.20442E-05-1.20442E-05 5.55004E-14 8.24241E-14-5.16212E-14 4.22448E-17
 -1        27-1.20442E-05-1.20442E-05 4.12289E-14 7.59744E-14 6.56485E-14-2.88252E-14
 -1        28-1.20442E-05-1.20442E-05-7.88643E-14 5.33804E-14-4.69336E-14-5.06417E-14
 -1        29-1.20442E-05-1.20442E-05-1.31345E-13-6.85578E-14-3.69841E-14-5.63458E-15
 -1        30-1.80662E-05-1.80662E-05-1.63422E-13 4.71318E-14 4.68392E-14-9.79304E-14
 -1        31-3.61325E-05-3.61325E-05-2.85611E-13-7.00557E-14 2.84103E-13 2.51648E-19
 -1        32-1.80662E-05-1.80662E-05 1.12119E-13-4.21166E-14 2.07479E-14-6.09984E-15
 -1        33-1.80662E-05-1.80662E-05 7.61464E-14-1.68579E-14-6.52463E-14 3.13621E-14
 -1        34-1.80662E-05-1.80662E-05-1.09262E-13-5.89111E-15 1.00447E-14 1.18252E-13
 -1        35-1.80662E-05-1.80662E-05-1.27086E-13-2.32576E-13 1.09641E-13-1.21252E-13
 -1        36-3.61325E-05-3.61325E-05 1.99922E-13-1.13873E-13-1.58340E-13 9.25377E-14
 -1        37-3.61325E-05-3.61325E-05 2.87856E-22 2.00558E-22 2.89494E-21-2.42252E-22
 -1        38-1.80662E-05-1.80662E-05-1.61099E-21 6.17312E-22 1.02907E-21-1.34796E-21
 -1        39-1.80662E-05-1.80662E-05 1.86679E-14 2.42668E-14 2.62517E-15-1.01012E-14
 -1        40-1.80662E-05-1.80662E-05 4.44455E-14-7.69084E-15 2.20171E-15 3.78683E-14
 -1        41-1.80662E-05-1.80662E-05-1.85699E-13-1.08463E-14 3.02743E-14-8.24813E-14
 -1        42-3.61325E-05-3.61325E-05-1.46661E-13 2.62969E-13-7.18507E-14-6.18929E-14
 -1        43-1.80662E-05-1.80662E-05 2.39717E-21-4.04334E-21 5.00240E-21 2.03848E-22
 -1        44-1.20442E-05-1.20442E-05-3.29213E-21-2.35087E-21-2.28932E-21 1.04932E-21
 -1        45-1.20442E-05-1.20442E-05-5.50520E-14-5.71125E-14-3.52646E-15 1.59584E-14
 -1        46-1.20442E-05-1.20442E-05-3.85728E-14 3.96007E-14 4.72423E-15-1.10102E-16
 -1        47-1.20442E-05-1.20442E-05 1.42176E-13-8.03483E-15 3.13498E-14-2.10457E-14
 -1        48-1.80662E-05-1.80662E-05 1.60134E-13-6.10000E-14-4.65997E-14 2.77776E-14
 -1        49-1.80662E-05-1.80662E-05 1.57947E-14-9.49170E-14 8.14652E-14-1.16061E-14
 -1        50-1.20442E-05-1.20442E-05-7.50353E-14-6.09368E-14-6.11329E-14-7.68518E-15
 -1        51-1.20442E-05-1.20442E-05 3.72660E-14-1.16324E-14-5.84699E-14-2.67353E-15
 -1        52-1.20442E-05-1.20442E-05 7.97585E-14-8.88061E-15 7.42374E-15-5.22934E-14
 -1        53-1.20442E-05-1.20442E-05-1.94078E-13-1.06070E-13-2.40726E-14 4.86607E-14
 -1        54-1.80662E-05-1.80662E-05-1.34686E-13 3.50983E-16 3.60177E-15-1.18388E-13
 -1        55-1.80662E-05-1.80662E-05 2.18727E-14-3.11730E-14 4.10972E-15 7.17124E-15
 -1        56-1.20442E-05-1.20442E-05-3.96879E-14-1.84408E-14 1.34279E-14 5.56471E-15
 -1        57-1.20442E-05-1.20442E-05-1.25219E-14-2.33748E-15 5.30387E-14-2.56062E-14
 -1        58-1.20442E-05-1.20442E-05 5.96489E-14 4.83774E-14-2.12502E-14 4.19483E-14
 -1        59-1.20442E-05-1.20442E-05 2.77791E-14-3.57189E-14-7.50507E-15 1.09393E-15
 -1        60-1.80662E-05-1.80662E-05 2.42825E-13 1.10342E-13 8.41922E-14 2.47635E-14
 -1        61-1.80662E-05-1.80662E-05-1.18810E-13-3.50279E-14-2.37778E-14-1.46776E-14
 -1        62-1.20442E-05-1.20442E-05-6.79820E-14-3.38301E-14-1.48415E-14-9.74289E-15
 -1        63-1.20442E-05-1.20442E-05-1.07597E-13 1.00981E-13-2.74071E-14-4.52867E-14
 -1        64-1.20442E-05-1.20442E-05 2.66897E-14 5.57511E-14-7.68670E-14 1.69360E-15
 -1        65-1.20442E-05-1.20442E-05-2.08396E-13 6.56880E-14 2.96145E-14-1.46343E-13
 -1        66-1.80662E-05-1.80662E-05 1.26136E-13 1.42818E-13-1.14785E-13 7.93609E-14
 -1        67-3.61325E-05-3.61325E-05-3.27289E-13 1.87698E-14-8.82046E-15 1.92530E-14
 -1        68-1.80662E-05-1.80662E-05-8.60469E-14-6.33243E-15-1.27853E-13 3.52652E-15
 -1        69-1.80662E-05-1.80662E-05-2.18692E-13 3.26719E-14 1.96959E-13 1.04873E-13
 -1        70-1.80662E-05-1.80662E-05-5.66575E-14-4.71929E-14-4.25833E-14-6.90566E-14
 -1        71-1.80662E-05-1.80662E-05-2.11885E-13 2.17765E-13-6.84520E-14 1.90726E-13
 -1        72-3.61325E-05-3.61325E-05 3.62827E-13-2.89091E-13 3.50235E-13 2.41900E-13
 -3
    1PSTEP                        84          28           1          
  100CL  128 2.10781E-01          72                     0   28           1
 -4  TOSTRAIN    6    1
 -5  EXX         1    4    1    1
 -5  EYY         1    4    2    2
 -5  EZZ         1    4    3    3
 -5  EXY         1    4    1    2
 -5  EYZ         1    4    2    3
 -5  EZX         1    4    3    1
 -1         1-1.20442E-10-1.20442E-10 1.03236E-10-2.38464E-27-4.73949E-27-1.00554E-28
 -1         2-6.02208E-11-6.02208E-11 5.16178E-11-1.31376E-26 5.36197E-28-8.53198E-27
 -1         3-6.02208E-11-6.02208E-11 5.16178E-11-1.07137E-19-2.29205E-25-1.99834E-19
 -1         4-6.02208E-11-6.02208E-11 5.16178E-11 2.62372E-19 3.87556E-26 3.01471E-19
 -1         5-6.02208E-11-6.02208E-11 5.16178E-11-7.06766E-19 1.00484E-24 2.77996E-19
 -1         6-1.20442E-10-1.20442E-10 1.03236E-10 1.07038E-18-2.09919E-24-7.42098E-19
 -1         7-6.02208E-11-6.02208E-11 5.16178E-11 3.49521E-26 1.30163E-26-1.34887E-27
 -1         8-4.01472E-11-4.01472E-11 3.44119E-11 1.53379E-26-1.68788E-26 6.96214E-27
 -1         9-4.01472E-11-4.01472E-11 3.44119E-11 2.30907E-20-3.26647E-20 3.34970E-19
 -1        10-4.01472E-11-4.01472E-11 3.44119E-11 1.08039E-19 2.01589E-20-1.44678E-19
 -1        11-4.01472E-11-4.01472E-11 3.44119E-11-4.56591E-19 6.91292E-20-2.20673E-19
 -1        12-6.02208E-11-6.02208E-11 5.16178E-11 3.58838E-19-6.60807E-20 1.53298E-18
 -1        13-6.02208E-11-6.02208E-11 5.16178E-11 8.16385E-19 2.40499E-20-4.85920E-26
 -1        14-4.01472E-11-4.01472E-11 3.44119E-11 5.52409E-19-2.93447E-19 3.23203E-22
 -1        15-4.01472E-11-4.01472E-11 3.44119E-11 2.29062E-19-1.52546E-19-2.50765E-19
 -1        16-4.01472E-11-4.01472E-11 3.44119E-11 3.53278E-19-2.33803E-19 4.65582E-19
 -1        17-4.01472E-11-4.01472E-11 3.44119E-11 5.02323E-19 2.38033E-19 4.63848E-20
 -1        18-6.02208E-11-6.02208E-11 5.16178E-11-5.89879E-19 3.93492E-20 9.07463E-20
 -1        19-6.02208E-11-6.02208E-11 5.16178E-11-2.12005E-19 4.11473E-19 3.82477E-25
 -1        20-4.01472E-11-4.01472E-11 3.44119E-11-1.33185E-19 6.49253E-20 4.85288E-21
 -1        21-4.01472E-11-4.01472E-11 3.44119E-11-9.41012E-20-4.54523E-20 8.78554E-20
 -1        22-4.01472E-11-4.01472E-11 3.44119E-11-5.64951E-19 2.26099E-19-4.31344E-20
 -1        23-4.01472E-11-4.01472E-11 3.44119E-11-1.55038E-19 1.49824E-20-1.04076E-19
 -1        24-6.02208E-11-6.02208E-11 5.16178E-11-1.39899E-19 4.37133E-19 4.88727E-19
 -1        25-6.02208E-11-6.02208E-11 5.16178E-11 8.09250E-19 2.72653E-19 3.81173E-25
 -1        26-4.01472E-11-4.01472E-11 3.44119E-11 5.10245E-19-3.19560E-19 2.61516E-22
 -1        27-4.01472E-11-4.01472E-11 3.44119E-11 4.70318E-19 4.06396E-19-1.78442E-19
 -1        28-4.01472E-11-4.01472E-11 3.44119E-11 3.30450E-19-2.90542E-19-3.13496E-19
 -1        29-4.01472E-11-4.01472E-11 3.44119E-11-4.24405E-19-2.28949E-19-3.48808E-20
 -1        30-6.02208E-11-6.02208E-11 5.16178E-11 2.91769E-19 2.89957E-19-6.06236E-19
 -1        31-1.20442E-10-1.20442E-10 1.03236E-10-4.33678E-19 1.75873E-18 1.55782E-24
 -1        32-6.02208E-11-6.02208E-11 5.16178E-11-2.60722E-19 1.28439E-19-3.77609E-20
 -1        33-6.02208E-11-6.02208E-11 5.16178E-11-1.04358E-19-4.03905E-19 1.94147E-19
 -1        34-6.02208E-11-6.02208E-11 5.16178E-11-3.64688E-20 6.21812E-20 7.32035E-19
 -1        35-6.02208E-11-6.02208E-11 5.16178E-11-1.43976E-18 6.78729E-19-7.50610E-19
 -1        36-1.20442E-10-1.20442E-10 1.03236E-10-7.04929E-19-9.80199E-19 5.72853E-19
 -1        37-1.20442E-10-1.20442E-10 1.03236E-10 1.24155E-27 1.79211E-26-1.49965E-27
 -1        38-6.02208E-11-6.02208E-11 5.16178E-11 3.82145E-27 6.37041E-27-8.34454E-27
 -1        39-6.02208E-11-6.02208E-11 5.16178E-11 1.50223E-19 1.62511E-20-6.25312E-20
 -1        40-6.02208E-11-6.02208E-11 5.16178E-11-4.76100E-20 1.36296E-20 2.34423E-19
 -1        41-6.02208E-11-6.02208E-11 5.16178E-11-6.71438E-20 1.87412E-19-5.10599E-19
 -1        42-1.20442E-10-1.20442E-10 1.03236E-10 1.62791E-18-4.44790E-19-3.83146E-19
 -1        43-6.02208E-11-6.02208E-11 5.16178E-11-2.50302E-26 3.09673E-26 1.26192E-27
 -1        44-4.01472E-11-4.01472E-11 3.44119E-11-1.45530E-26-1.41720E-26 6.49577E-27
 -1        45-4.01472E-11-4.01472E-11 3.44119E-11-3.53553E-19-2.18304E-20 9.87904E-20
 -1        46-4.01472E-11-4.01472E-11 3.44119E-11 2.45147E-19 2.92453E-20-6.81581E-22
 -1        47-4.01472E-11-4.01472E-11 3.44119E-11-4.97394E-20 1.94070E-19-1.30283E-19
 -1        48-6.02208E-11-6.02208E-11 5.16178E-11-3.77619E-19-2.88475E-19 1.71957E-19
 -1        49-6.02208E-11-6.02208E-11 5.16178E-11-5.87581E-19 5.04308E-19-7.18472E-20
 -1        50-4.01472E-11-4.01472E-11 3.44119E-11-3.77228E-19-3.78442E-19-4.75749E-20
 -1        51-4.01472E-11-4.01472E-11 3.44119E-11-7.20102E-20-3.61956E-19-1.65504E-20
 -1        52-4.01472E-11-4.01472E-11 3.44119E-11-5.49752E-20 4.59565E-20-3.23721E-19
 -1        53-4.01472E-11-4.01472E-11 3.44119E-11-6.56627E-19-1.49021E-19 3.01233E-19
 -1        54-6.02208E-11-6.02208E-11 5.16178E-11 2.17275E-21 2.22967E-20-7.32877E-19
 -1        55-6.02208E-11-6.02208E-11 5.16178E-11-1.92976E-19 2.54411E-20 4.43934E-20
 -1        56-4.01472E-11-4.01472E-11 3.44119E-11-1.14158E-19 8.31253E-20 3.44482E-20
 -1        57-4.01472E-11-4.01472E-11 3.44119E-11-1.44701E-20 3.28335E-19-1.58515E-19
 -1        58-4.01472E-11-4.01472E-11 3.44119E-11 2.99479E-19-1.31549E-19 2.59680E-19
 -1        59-4.01472E-11-4.01472E-11 3.44119E-11-2.21117E-19-4.64599E-20 6.77192E-21
 -1        60-6.02208E-11-6.02208E-11 5.16178E-11 6.83070E-19 5.21190E-19 1.53298E-19
 -1        61-6.02208E-11-6.02208E-11 5.16178E-11-2.16839E-19-1.47196E-19-9.08615E-20
 -1        62-4.01472E-11-4.01472E-11 3.44119E-11-2.09425E-19-9.18757E-20-6.03131E-20
 -1        63-4.01472E-11-4.01472E-11 3.44119E-11 6.25122E-19-1.69663E-19-2.80346E-19
 -1        64-4.01472E-11-4.01472E-11 3.44119E-11 3.45126E-19-4.75843E-19 1.04842E-20
 -1        65-4.01472E-11-4.01472E-11 3.44119E-11 4.06640E-19 1.83328E-19-9.05930E-19
 -1        66-6.02208E-11-6.02208E-11 5.16178E-11 8.84112E-19-7.10574E-19 4.91282E-19
 -1        67-1.20442E-10-1.20442E-10 1.03236E-10 1.16194E-19-5.46028E-20 1.19185E-19
 -1        68-6.02208E-11-6.02208E-11 5.16178E-11-3.92007E-20-7.91468E-19 2.18308E-20
 -1        69-6.02208E-11-6.02208E-11 5.16178E-11 2.02255E-19 1.21927E-18 6.49215E-19
 -1        70-6.02208E-11-6.02208E-11 5.16178E-11-2.92146E-19-2.63611E-19-4.27493E-19
 -1        71-6.02208E-11-6.02208E-11 5.16178E-11 1.34807E-18-4.23750E-19 1.18068E-18
 -1        72-1.20442E-10-1.20442E-10 1.03236E-10-1.78961E-18 2.16812E-18 1.49748E-18
 -3
    1PSTEP                        85          29           1          
  100CL  129 2.19781E-01          72                     0   29           1
 -4  DISP        4    1
 -5  D1          1    2    1    0
 -5  D2          1    2    2    0
 -5  D3          1    2    3    0
 -5  ALL         1    2    0    0    1ALL
 -1         1 0.00000E+00 0.00000E+00 0.00000E+00
 -1         2-6.27946E-08 0.00000E+00 0.00000E+00
 -1         3-3.29672E+00 0.00000E+00 0.00000E+00
 -1         4-3.29672E+00 0.00000E+00 0.00000E+00
 -1         5-6.59344E+00 0.00000E+00 0.00000E+00
 -1         6-6.59344E+00 0.00000E+00 0.00000E+00
 -1         7 0.00000E+00-6.27946E-08 0.00000E+00
 -1         8-6.27946E-08-6.27946E-08 0.00000E+00
 -1         9-3.29672E+00-6.27946E-08 0.00000E+00
 -1        10-3.29672E+00-6.27946E-08 0.00000E+00
 -1        11-6.59344E+00-6.27946E-08 0.00000E+00
 -1        12-6.59344E+00-6.27946E-08 0.00000E+00
 -1        13 0.00000E+00-3.29672E+00 0.00000E+00
 -1        14-6.27946E-08-3.29672E+00 0.00000E+00
 -1        15-3.29672E+00-3.29672E+00 0.00000E+00
 -1        16-3.29672E+00-3.29672E+00 0.00000E+00
 -1        17-6.59344E+00-3.29672E+00 0.00000E+00
 -1        18-6.59344E+00-3.29672E+00 0.00000E+00
 -1        19 0.00000E+00-3.29672E+00 0.00000E+00
 -1        20-6.27946E-08-3.29672E+00 0.00000E+00
 -1        21-3.29672E+00-3.29672E+00 0.00000E+00
 -1        22-3.29672E+00-3.29672E+00 0.00000E+00
 -1        23-6.59344E+00-3.29672E+00 0.00000E+00
 -1        24-6.59344E+00-3.29672E+00 0.00000E+00
 -1        25 0.00000E+00-6.59344E+00 0.00000E+00
 -1        26-6.27946E-08-6.59344E+00 0.00000E+00
 -1        27-3.29672E+00-6.59344E+00 0.00000E+00
 -1        28-3.29672E+00-6.59344E+00 0.00000E+00
 -1        29-6.59344E+00-6.59344E+00 0.00000E+00
 -1        30-6.59344E+00-6.59344E+00 0.00000E+00
 -1        31 0.00000E+00-6.59344E+00 0.00000E+00
 -1        32-6.27946E-08-6.59344E+00 0.00000E+00
 -1        33-3.29672E+00-6.59344E+00 0.00000E+00
 -1        34-3.29672E+00-6.59344E+00 0.00000E+00
 -1        35-6.59344E+00-6.59344E+00 0.00000E+00
 -1        36-6.59344E+00-6.59344E+00 0.00000E+00
 -1        37 0.00000E+00 0.00000E+00 7.53536E-08
 -1        38-6.27946E-08 0.00000E+00 7.53536E-08
 -1        39-3.29672E+00 0.00000E+00 7.53536E-08
 -1        40-3.29672E+00 0.00000E+00 7.53536E-08
 -1        41-6.59344E+00 0.00000E+00 7.53536E-08
 -1        42-6.59344E+00 0.00000E+00 7.53536E-08
 -1        43 0.00000E+00-6.27946E-08 7.53536E-08
 -1        44-6.27946E-08-6.27946E-08 7.53536E-08
 -1        45-3.29672E+00-6.27946E-08 7.53536E-08
 -1        46-3.29672E+00-6.27946E-08 7.53536E-08
 -1        47-6.59344E+00-6.27946E-08 7.53536E-08
 -1        48-6.59344E+00-6.27946E-08 7.53536E-08
 -1        49 0.00000E+00-3.29672E+00 7.53536E-08
 -1        50-6.27946E-08-3.29672E+00 7.53536E-08
 -1        51-3.29672E+00-3.29672E+00 7.53536E-08
 -1        52-3.29672E+00-3.29672E+00 7.53536E-08
 -1        53-6.59344E+00-3.29672E+00 7.53536E-08
 -1        54-6.59344E+00-3.29672E+00 7.53536E-08
 -1        55 0.00000E+00-3.29672E+00 7.53536E-08
 -1        56-6.27946E-08-3.29672E+00 7.53536E-08
 -1        57-3.29672E+00-3.29672E+00 7.53536E-08
 -1        58-3.29672E+00-3.29672E+00 7.53536E-08
 -1        59-6.59344E+00-3.29672E+00 7.53536E-08
 -1        60-6.59344E+00-3.29672E+00 7.53536E-08
 -1        61 0.00000E+00-6.59344E+00 7.53536E-08
 -1        62-6.27946E-08-6.59344E+00 7.53536E-08
 -1        63-3.29672E+00-6.59344E+00 7.53536E-08
 -1        64-3.29672E+00-6.59344E+00 7.53536E-08
 -1        65-6.59344E+00-6.59344E+00 7.53536E-08
 -1        66-6.59344E+00-6.59344E+00 7.53536E-08
 -1        67 0.00000E+00-6.59344E+00 7.53536E-08
 -1        68-6.27946E-08-6.59344E+00 7.53536E-08
 -1        69-3.29672E+00-6.59344E+00 7.53536E-08
 -1        70-3.29672E+00-6.59344E+00 7.53536E-08
 -1        71-6.59344E+00-6.59344E+00 7.53536E-08
 -1        72-6.59344E+00-6.59344E+00 7.53536E-08
 -3
    1PSTEP                        86          29           1          
  100CL  129 2.19781E-01          72                     0   29           1
 -4  STRESS      6    1
 -5  SXX         1    4    1    1
 -5  SYY         1    4    2    2
 -5  SZZ         1    4    3    3
 -5  SXY         1    4    1    2
 -5  SYZ         1    4    2    3
 -5  SZX         1    4    3    1
 -1         1-3.76753E-05-3.76753E-05-3.38800E-21 1.05525E-22-6.64297E-22-5.72521E-22
 -1         2-1.88376E-05-1.88376E-05 1.43385E-20-4.01109E-21 9.33263E-23-5.78853E-21
 -1         3-1.88376E-05-1.88376E-05 6.30439E-14-5.05750E-14 6.96870E-21-3.53293E-14
 -1         4-1.88376E-05-1.88376E-05 5.96498E-14 1.89305E-14-2.21301E-20-2.62690E-15
 -1         5-1.88376E-05-1.88376E-05 1.65446E-13 9.63832E-14 5.64123E-21 6.59699E-14
 -1         6-3.76753E-05-3.76753E-05 2.91781E-13 1.86270E-13-8.14518E-20 8.17737E-14
 -1         7-1.88376E-05-1.88376E-05 1.00426E-20 1.09533E-21 2.05800E-21 1.65383E-22
 -1         8-1.25584E-05-1.25584E-05-1.12933E-21-1.97901E-21-1.60655E-21 1.85732E-21
 -1         9-1.25584E-05-1.25584E-05 7.57209E-15-4.09818E-14-1.59637E-15 3.77701E-14
 -1        10-1.25584E-05-1.25584E-05-1.56171E-14 2.88501E-14 1.14580E-15-2.47054E-15
 -1        11-1.25584E-05-1.25584E-05-3.87698E-14 9.93124E-14 1.83303E-15 7.67756E-14
 -1        12-1.88376E-05-1.88376E-05-9.53807E-14-3.49989E-14-2.99384E-15 6.74572E-14
 -1        13-1.88376E-05-1.88376E-05 1.12711E-13-2.34687E-15-6.51089E-14-7.00778E-20
 -1        14-1.25584E-05-1.25584E-05 9.92052E-15-3.20645E-15 1.52406E-14 1.53799E-15
 -1        15-1.25584E-05-1.25584E-05-7.79568E-14 1.59769E-15-5.86166E-15 4.01099E-14
 -1        16-1.25584E-05-1.25584E-05 2.04047E-15 4.92889E-14-2.83192E-14 3.60075E-15
 -1        17-1.25584E-05-1.25584E-05 3.48870E-14 6.04259E-14-4.02698E-14-5.99447E-14
 -1        18-1.88376E-05-1.88376E-05-1.62886E-13-1.14917E-13 3.61869E-14 1.06178E-13
 -1        19-1.88376E-05-1.88376E-05 1.08015E-13 6.12977E-14 4.64920E-14-2.33709E-20
 -1        20-1.25584E-05-1.25584E-05 2.56068E-14 3.92233E-14-3.19395E-14 2.69435E-15
 -1        21-1.25584E-05-1.25584E-05-9.35684E-15 2.73304E-14-1.18791E-14 2.11722E-14
 -1        22-1.25584E-05-1.25584E-05 5.12519E-15-2.11045E-14-1.22723E-14 4.56614E-14
 -1        23-1.25584E-05-1.25584E-05 8.15733E-14-6.64826E-14 1.19146E-14 6.71506E-14
 -1        24-1.88376E-05-1.88376E-05 8.29561E-15 1.17627E-13 2.24716E-14 4.95649E-14
 -1        25-1.88376E-05-1.88376E-05-2.20390E-14-3.50278E-14-1.28594E-13 6.76596E-20
 -1        26-1.25584E-05-1.25584E-05 3.88600E-14-2.65360E-14-2.33904E-14 6.15347E-15
 -1        27-1.25584E-05-1.25584E-05 8.49212E-14 9.65896E-14 4.46150E-14-4.01321E-14
 -1        28-1.25584E-05-1.25584E-05-6.47379E-14 1.04463E-13-9.74428E-14 4.48247E-14
 -1        29-1.25584E-05-1.25584E-05 6.70680E-14 7.49771E-14-4.38939E-14-3.29925E-17
 -1        30-1.88376E-05-1.88376E-05-9.63393E-14-9.63563E-14-1.06499E-13-9.37937E-14
 -1        31-3.76753E-05-3.76753E-05 1.87977E-13 1.87699E-14 2.62822E-13-1.83318E-19
 -1        32-1.88376E-05-1.88376E-05 9.01060E-14 4.60877E-15-6.53467E-14-2.01013E-15
 -1        33-1.88376E-05-1.88376E-05-6.40395E-14-2.83159E-14 3.38138E-14 1.03322E-13
 -1        34-1.88376E-05-1.88376E-05 1.82732E-14-8.63464E-14 1.33144E-13-5.63326E-14
 -1        35-1.88376E-05-1.88376E-05 8.32235E-14-1.02305E-13 2.17794E-13 2.52706E-13
 -1        36-3.76753E-05-3.76753E-05 5.18217E-13 5.69720E-13-1.34656E-13-1.13310E-13
 -1        37-3.76753E-05-3.76753E-05-3.38827E-21 3.91333E-22 6.25500E-21 5.91099E-21
 -1        38-1.88376E-05-1.88376E-05-1.34308E-20 7.87573E-21-2.12325E-21-2.54678E-21
 -1        39-1.88376E-05-1.88376E-05 1.13974E-14 6.91062E-15 7.07339E-15-5.79753E-14
 -1        40-1.88376E-05-1.88376E-05 1.66411E-14 1.97109E-14-5.48249E-15 3.27202E-14
 -1        41-1.88376E-05-1.88376E-05-1.09603E-13-2.28522E-14 4.68793E-15 1.30626E-13
 -1        42-3.76753E-05-3.76753E-05-2.82440E-13-7.21200E-14-4.76019E-15-1.36274E-13
 -1        43-1.88376E-05-1.88376E-05 2.60188E-21-6.10171E-21 5.51765E-21-7.03233E-22
 -1        44-1.25584E-05-1.25584E-05-1.12942E-21 1.05224E-21-3.08427E-21 1.27825E-21
 -1        45-1.25584E-05-1.25584E-05 1.25471E-14 2.78366E-15 3.11922E-15 5.73428E-14
 -1        46-1.25584E-05-1.25584E-05-4.88346E-15 2.72284E-14-2.50918E-15 1.78460E-14
 -1        47-1.25584E-05-1.25584E-05 5.37064E-14-2.72057E-14 4.95832E-15-7.94312E-14
 -1        48-1.88376E-05-1.88376E-05 3.12725E-14 6.10260E-14-5.37389E-15 4.62327E-14
 -1        49-1.88376E-05-1.88376E-05 8.03805E-14 6.12977E-14-5.21016E-14-6.06103E-15
 -1        50-1.25584E-05-1.25584E-05-3.79037E-14 4.08421E-14 5.21578E-14-2.50265E-15
 -1        51-1.25584E-05-1.25584E-05-1.31886E-13-6.28157E-14 9.57959E-15-2.11231E-14
 -1        52-1.25584E-05-1.25584E-05 3.70106E-14-6.74660E-14 6.34494E-14 3.40154E-14
 -1        53-1.25584E-05-1.25584E-05 1.80596E-14-6.82006E-14 8.02127E-14 1.28331E-13
 -1        54-1.88376E-05-1.88376E-05-1.42218E-13-1.63031E-14-1.14378E-13-1.27939E-13
 -1        55-1.88376E-05-1.88376E-05 7.93272E-14-3.26819E-14 7.74424E-14 5.22910E-15
 -1        56-1.25584E-05-1.25584E-05-1.97891E-14-2.18109E-14 1.77256E-15 6.18043E-15
 -1        57-1.25584E-05-1.25584E-05-8.60372E-14 2.52296E-15 1.24911E-14 3.57946E-14
 -1        58-1.25584E-05-1.25584E-05 6.28462E-14 4.58357E-14-3.67047E-14-6.42021E-14
 -1        59-1.25584E-05-1.25584E-05 1.01920E-13-1.80256E-13-4.71490E-14-1.38997E-13
 -1        60-1.88376E-05-1.88376E-05-8.59061E-14 1.02015E-13 6.89817E-14 1.45223E-13
 -1        61-1.88376E-05-1.88376E-05-1.84666E-13 1.30725E-13-1.10867E-13 1.39306E-14
 -1        62-1.25584E-05-1.25584E-05-6.95579E-14 7.34750E-14 7.01951E-14 1.54405E-14
 -1        63-1.25584E-05-1.25584E-05-2.41302E-13-2.34373E-14-7.09036E-14-5.11947E-14
 -1        64-1.25584E-05-1.25584E-05 3.04022E-14-8.83950E-14-3.88738E-14 3.50204E-14
 -1        65-1.25584E-05-1.25584E-05 1.60134E-14-1.28609E-13-7.22462E-14-5.15704E-14
 -1        66-1.88376E-05-1.88376E-05-7.82701E-14-9.47254E-14 3.82809E-14 9.92908E-14
 -1        67-3.76753E-05-3.76753E-05-1.84485E-13-7.00558E-14 1.11804E-13-3.95081E-14
 -1        68-1.88376E-05-1.88376E-05-9.61251E-14-5.55403E-14 5.00488E-14-2.17641E-14
 -1        69-1.88376E-05-1.88376E-05 4.53028E-13 1.09296E-13 1.07276E-13-9.40231E-14
 -1        70-1.88376E-05-1.88376E-05 4.12165E-14-6.93565E-14-7.82841E-14 1.12224E-13
 -1        71-1.88376E-05-1.88376E-05-2.53362E-13 2.14574E-13-1.02036E-13-7.47493E-14
 -1        72-3.76753E-05-3.76753E-05 4.43865E-13-9.35789E-14-1.29353E-14-1.13686E-13
 -3
    1PSTEP                        87          29           1          
  100CL  129 2.19781E-01          72                     0   29           1
 -4  TOSTRAIN    6    1
 -5  EXX         1    4    1    1
 -5  EYY         1    4    2    2
 -5  EZZ         1    4    3    3
 -5  EXY         1    4    1    2
 -5  EYZ         1    4    2    3
 -5  EZX         1    4    3    1
 -1         1-1.25584E-10-1.25584E-10 1.07644E-10 6.53247E-28-4.11232E-27-3.54418E-27
 -1         2-6.27921E-11-6.27921E-11 5.38218E-11-2.48306E-26 5.77734E-28-3.58338E-26
 -1         3-6.27921E-11-6.27921E-11 5.38218E-11-3.13083E-19 4.31396E-26-2.18705E-19
 -1         4-6.27921E-11-6.27921E-11 5.38218E-11 1.17189E-19-1.36996E-25-1.62618E-20
 -1         5-6.27921E-11-6.27921E-11 5.38218E-11 5.96658E-19 3.49219E-26 4.08385E-19
 -1         6-1.25584E-10-1.25584E-10 1.07644E-10 1.15310E-18-5.04225E-25 5.06218E-19
 -1         7-6.27921E-11-6.27921E-11 5.38218E-11 6.78062E-27 1.27400E-26 1.02380E-27
 -1         8-4.18614E-11-4.18614E-11 3.58812E-11-1.22510E-26-9.94532E-27 1.14977E-26
 -1         9-4.18614E-11-4.18614E-11 3.58812E-11-2.53697E-19-9.88228E-21 2.33815E-19
 -1        10-4.18614E-11-4.18614E-11 3.58812E-11 1.78596E-19 7.09305E-21-1.52938E-20
 -1        11-4.18614E-11-4.18614E-11 3.58812E-11 6.14791E-19 1.13474E-20 4.75278E-19
 -1        12-6.27921E-11-6.27921E-11 5.38218E-11-2.16660E-19-1.85333E-20 4.17592E-19
 -1        13-6.27921E-11-6.27921E-11 5.38218E-11-1.45282E-20-4.03055E-19-4.33815E-25
 -1        14-4.18614E-11-4.18614E-11 3.58812E-11-1.98495E-20 9.43466E-20 9.52091E-21
 -1        15-4.18614E-11-4.18614E-11 3.58812E-11 9.89046E-21-3.62865E-20 2.48300E-19
 -1        16-4.18614E-11-4.18614E-11 3.58812E-11 3.05122E-19-1.75310E-19 2.22904E-20
 -1        17-4.18614E-11-4.18614E-11 3.58812E-11 3.74065E-19-2.49289E-19-3.71086E-19
 -1        18-6.27921E-11-6.27921E-11 5.38218E-11-7.11392E-19 2.24014E-19 6.57294E-19
 -1        19-6.27921E-11-6.27921E-11 5.38218E-11 3.79462E-19 2.87808E-19-1.44677E-25
 -1        20-4.18614E-11-4.18614E-11 3.58812E-11 2.42811E-19-1.97720E-19 1.66793E-20
 -1        21-4.18614E-11-4.18614E-11 3.58812E-11 1.69188E-19-7.35373E-20 1.31066E-19
 -1        22-4.18614E-11-4.18614E-11 3.58812E-11-1.30647E-19-7.59717E-20 2.82666E-19
 -1        23-4.18614E-11-4.18614E-11 3.58812E-11-4.11559E-19 7.37568E-20 4.15694E-19
 -1        24-6.27921E-11-6.27921E-11 5.38218E-11 7.28170E-19 1.39110E-19 3.06830E-19
 -1        25-6.27921E-11-6.27921E-11 5.38218E-11-2.16839E-19-7.96056E-19 4.18845E-25
 -1        26-4.18614E-11-4.18614E-11 3.58812E-11-1.64271E-19-1.44798E-19 3.80929E-20
 -1        27-4.18614E-11-4.18614E-11 3.58812E-11 5.97936E-19 2.76188E-19-2.48437E-19
 -1        28-4.18614E-11-4.18614E-11 3.58812E-11 6.46676E-19-6.03217E-19 2.77486E-19
 -1        29-4.18614E-11-4.18614E-11 3.58812E-11 4.64144E-19-2.71724E-19-2.04239E-22
 -1        30-6.27921E-11-6.27921E-11 5.38218E-11-5.96491E-19-6.59281E-19-5.80628E-19
 -1        31-1.25584E-10-1.25584E-10 1.07644E-10 1.16195E-19 1.62699E-18-1.13483E-24
 -1        32-6.27921E-11-6.27921E-11 5.38218E-11 2.85305E-20-4.04527E-19-1.24437E-20
 -1        33-6.27921E-11-6.27921E-11 5.38218E-11-1.75289E-19 2.09324E-19 6.39614E-19
 -1        34-6.27921E-11-6.27921E-11 5.38218E-11-5.34525E-19 8.24225E-19-3.48726E-19
 -1        35-6.27921E-11-6.27921E-11 5.38218E-11-6.33319E-19 1.34825E-18 1.56437E-18
 -1        36-1.25584E-10-1.25584E-10 1.07644E-10 3.52684E-18-8.33585E-19-7.01444E-19
 -1        37-1.25584E-10-1.25584E-10 1.07644E-10 2.42254E-27 3.87215E-26 3.65919E-26
 -1        38-6.27921E-11-6.27921E-11 5.38218E-11 4.87545E-26-1.31439E-26-1.57658E-26
 -1        39-6.27921E-11-6.27921E-11 5.38218E-11 4.27800E-20 4.37876E-20-3.58895E-19
 -1        40-6.27921E-11-6.27921E-11 5.38218E-11 1.22020E-19-3.39393E-20 2.02554E-19
 -1        41-6.27921E-11-6.27921E-11 5.38218E-11-1.41466E-19 2.90205E-20 8.08634E-19
 -1        42-1.25584E-10-1.25584E-10 1.07644E-10-4.46457E-19-2.94679E-20-8.43603E-19
 -1        43-6.27921E-11-6.27921E-11 5.38218E-11-3.77725E-26 3.41569E-26-4.35335E-27
 -1        44-4.18614E-11-4.18614E-11 3.58812E-11 6.51384E-27-1.90931E-26 7.91296E-27
 -1        45-4.18614E-11-4.18614E-11 3.58812E-11 1.72322E-20 1.93095E-20 3.54979E-19
 -1        46-4.18614E-11-4.18614E-11 3.58812E-11 1.68557E-19-1.55330E-20 1.10475E-19
 -1        47-4.18614E-11-4.18614E-11 3.58812E-11-1.68417E-19 3.06944E-20-4.91717E-19
 -1        48-6.27921E-11-6.27921E-11 5.38218E-11 3.77780E-19-3.32670E-20 2.86203E-19
 -1        49-6.27921E-11-6.27921E-11 5.38218E-11 3.79462E-19-3.22534E-19-3.75207E-20
 -1        50-4.18614E-11-4.18614E-11 3.58812E-11 2.52832E-19 3.22882E-19-1.54926E-20
 -1        51-4.18614E-11-4.18614E-11 3.58812E-11-3.88859E-19 5.93022E-20-1.30762E-19
 -1        52-4.18614E-11-4.18614E-11 3.58812E-11-4.17647E-19 3.92782E-19 2.10571E-19
 -1        53-4.18614E-11-4.18614E-11 3.58812E-11-4.22194E-19 4.96555E-19 7.94429E-19
 -1        54-6.27921E-11-6.27921E-11 5.38218E-11-1.00924E-19-7.08052E-19-7.92006E-19
 -1        55-6.27921E-11-6.27921E-11 5.38218E-11-2.02316E-19 4.79405E-19 3.23706E-20
 -1        56-4.18614E-11-4.18614E-11 3.58812E-11-1.35020E-19 1.09730E-20 3.82598E-20
 -1        57-4.18614E-11-4.18614E-11 3.58812E-11 1.56183E-20 7.73260E-20 2.21586E-19
 -1        58-4.18614E-11-4.18614E-11 3.58812E-11 2.83745E-19-2.27220E-19-3.97442E-19
 -1        59-4.18614E-11-4.18614E-11 3.58812E-11-1.11587E-18-2.91875E-19-8.60460E-19
 -1        60-6.27921E-11-6.27921E-11 5.38218E-11 6.31521E-19 4.27030E-19 8.99002E-19
 -1        61-6.27921E-11-6.27921E-11 5.38218E-11 8.09250E-19-6.86320E-19 8.62372E-20
 -1        62-4.18614E-11-4.18614E-11 3.58812E-11 4.54845E-19 4.34541E-19 9.55841E-20
 -1        63-4.18614E-11-4.18614E-11 3.58812E-11-1.45088E-19-4.38927E-19-3.16920E-19
 -1        64-4.18614E-11-4.18614E-11 3.58812E-11-5.47207E-19-2.40647E-19 2.16793E-19
 -1        65-4.18614E-11-4.18614E-11 3.58812E-11-7.96148E-19-4.47238E-19-3.19245E-19
 -1        66-6.27921E-11-6.27921E-11 5.38218E-11-5.86395E-19 2.36977E-19 6.14657E-19
 -1        67-1.25584E-10-1.25584E-10 1.07644E-10-4.33679E-19 6.92121E-19-2.44574E-19
 -1        68-6.27921E-11-6.27921E-11 5.38218E-11-3.43821E-19 3.09826E-19-1.34730E-19
 -1        69-6.27921E-11-6.27921E-11 5.38218E-11 6.76594E-19 6.64090E-19-5.82048E-19
 -1        70-6.27921E-11-6.27921E-11 5.38218E-11-4.29350E-19-4.84616E-19 6.94721E-19
 -1        71-6.27921E-11-6.27921E-11 5.38218E-11 1.32831E-18-6.31654E-19-4.62734E-19
 -1        72-1.25584E-10-1.25584E-10 1.07644E-10-5.79298E-19-8.00756E-20-7.03771E-19
 -3
    1PSTEP                        88          30           1          
  100CL  130 2.28781E-01          72                     0   30           1
 -4  DISP        4    1
 -5  D1          1    2    1    0
 -5  D2          1    2    2    0
 -5  D3          1    2    3    0
 -5  ALL         1    2    0    0    1ALL
 -1         1 0.00000E+00 0.00000E+00 0.00000E+00
 -1         2-6.53661E-08 0.00000E+00 0.00000E+00
 -1         3-3.43172E+00 0.00000E+00 0.00000E+00
 -1         4-3.43172E+00 0.00000E+00 0.00000E+00
 -1         5-6.86344E+00 0.00000E+00 0.00000E+00
 -1         6-6.86344E+00 0.00000E+00 0.00000E+00
 -1         7 0.00000E+00-6.53661E-08 0.00000E+00
 -1         8-6.53661E-08-6.53661E-08 0.00000E+00
 -1         9-3.43172E+00-6.53661E-08 0.00000E+00
 -1        10-3.43172E+00-6.53661E-08 0.00000E+00
 -1        11-6.86344E+00-6.53661E-08 0.00000E+00
 -1        12-6.86344E+00-6.53661E-08 0.00000E+00
 -1        13 0.00000E+00-3.43172E+00 0.00000E+00
 -1        14-6.53661E-08-3.43172E+00 0.00000E+00
 -1        15-3.43172E+00-3.43172E+00 0.00000E+00
 -1        16-3.43172E+00-3.43172E+00 0.00000E+00
 -1        17-6.86344E+00-3.43172E+00 0.00000E+00
 -1        18-6.86344E+00-3.43172E+00 0.00000E+00
 -1        19 0.00000E+00-3.43172E+00 0.00000E+00
 -1        20-6.53661E-08-3.43172E+00 0.00000E+00
 -1        21-3.43172E+00-3.43172E+00 0.00000E+00
 -1        22-3.43172E+00-3.43172E+00 0.00000E+00
 -1        23-6.86344E+00-3.43172E+00 0.00000E+00
 -1        24-6.86344E+00-3.43172E+00 0.00000E+00
 -1        25 0.00000E+00-6.86344E+00 0.00000E+00
 -1        26-6.53661E-08-6.86344E+00 0.00000E+00
 -1        27-3.43172E+00-6.86344E+00 0.00000E+00
 -1        28-3.43172E+00-6.86344E+00 0.00000E+00
 -1        29-6.86344E+00-6.86344E+00 0.00000E+00
 -1        30-6.86344E+00-6.86344E+00 0.00000E+00
 -1        31 0.00000E+00-6.86344E+00 0.00000E+00
 -1        32-6.53661E-08-6.86344E+00 0.00000E+00
 -1        33-3.43172E+00-6.86344E+00 0.00000E+00
 -1        34-3.43172E+00-6.86344E+00 0.00000E+00
 -1        35-6.86344E+00-6.86344E+00 0.00000E+00
 -1        36-6.86344E+00-6.86344E+00 0.00000E+00
 -1        37 0.00000E+00 0.00000E+00 7.84393E-08
 -1        38-6.53661E-08 0.00000E+00 7.84393E-08
 -1        39-3.43172E+00 0.00000E+00 7.84393E-08
 -1        40-3.43172E+00 0.00000E+00 7.84393E-08
 -1        41-6.86344E+00 0.00000E+00 7.84393E-08
 -1        42-6.86344E+00 0.00000E+00 7.84393E-08
 -1        43 0.00000E+00-6.53661E-08 7.84393E-08
 -1        44-6.53661E-08-6.53661E-08 7.84393E-08
 -1        45-3.43172E+00-6.53661E-08 7.84393E-08
 -1        46-3.43172E+00-6.53661E-08 7.84393E-08
 -1        47-6.86344E+00-6.53661E-08 7.84393E-08
 -1        48-6.86344E+00-6.53661E-08 7.84393E-08
 -1        49 0.00000E+00-3.43172E+00 7.84393E-08
 -1        50-6.53661E-08-3.43172E+00 7.84393E-08
 -1        51-3.43172E+00-3.43172E+00 7.84393E-08
 -1        52-3.43172E+00-3.43172E+00 7.84393E-08
 -1        53-6.86344E+00-3.43172E+00 7.84393E-08
 -1        54-6.86344E+00-3.43172E+00 7.84393E-08
 -1        55 0.00000E+00-3.43172E+00 7.84393E-08
 -1        56-6.53661E-08-3.43172E+00 7.84393E-08
 -1        57-3.43172E+00-3.43172E+00 7.84393E-08
 -1        58-3.43172E+00-3.43172E+00 7.84393E-08
 -1        59-6.86344E+00-3.43172E+00 7.84393E-08
 -1        60-6.86344E+00-3.43172E+00 7.84393E-08
 -1        61 0.00000E+00-6.86344E+00 7.84393E-08
 -1        62-6.53661E-08-6.86344E+00 7.84393E-08
 -1        63-3.43172E+00-6.86344E+00 7.84393E-08
 -1        64-3.43172E+00-6.86344E+00 7.84393E-08
 -1        65-6.86344E+00-6.86344E+00 7.84393E-08
 -1        66-6.86344E+00-6.86344E+00 7.84393E-08
 -1        67 0.00000E+00-6.86344E+00 7.84393E-08
 -1        68-6.53661E-08-6.86344E+00 7.84393E-08
 -1        69-3.43172E+00-6.86344E+00 7.84393E-08
 -1        70-3.43172E+00-6.86344E+00 7.84393E-08
 -1        71-6.86344E+00-6.86344E+00 7.84393E-08
 -1        72-6.86344E+00-6.86344E+00 7.84393E-08
 -3
    1PSTEP                        89          30           1          
  100CL  130 2.28781E-01          72                     0   30           1
 -4  STRESS      6    1
 -5  SXX         1    4    1    1
 -5  SYY         1    4    2    2
 -5  SZZ         1    4    3    3
 -5  SXY         1    4    1    2
 -5  SYZ         1    4    2    3
 -5  SZX         1    4    3    1
 -1         1-3.92181E-05-3.92181E-05-8.34836E-21-3.00440E-23-1.77174E-22 2.96561E-22
 -1         2-1.96090E-05-1.96090E-05-4.53874E-22-3.71473E-21 3.74910E-22-1.26359E-21
 -1         3-1.96090E-05-1.96090E-05-4.21218E-14 6.10338E-14 4.76783E-21 3.79786E-15
 -1         4-1.96090E-05-1.96090E-05-3.11144E-14 2.70509E-15-5.40261E-22 5.35320E-14
 -1         5-1.96090E-05-1.96090E-05-2.14060E-13 2.90621E-14-1.28293E-19-5.05533E-14
 -1         6-3.92181E-05-3.92181E-05-4.59074E-13 9.50111E-15 6.51136E-20-3.90755E-13
 -1         7-1.96090E-05-1.96090E-05-4.53874E-22 1.78200E-21-1.11672E-21-5.59540E-23
 -1         8-1.30727E-05-1.30727E-05-9.55896E-21-1.27847E-21 1.47024E-22 3.65377E-21
 -1         9-1.30727E-05-1.30727E-05 7.72603E-15 3.66948E-14-3.37611E-15-1.84229E-14
 -1        10-1.30727E-05-1.30727E-05-5.20822E-15-2.62034E-15 3.41130E-15 3.10164E-14
 -1        11-1.30727E-05-1.30727E-05 8.74459E-14-4.95381E-15-2.06617E-14-3.21414E-14
 -1        12-1.96090E-05-1.96090E-05 7.91628E-14-6.37646E-14 2.91050E-14 1.49599E-13
 -1        13-1.96090E-05-1.96090E-05-1.01524E-13 1.63406E-14 7.50131E-14 9.46870E-21
 -1        14-1.30727E-05-1.30727E-05-5.84176E-14 9.05909E-15-6.04713E-14-1.83608E-15
 -1        15-1.30727E-05-1.30727E-05 8.91742E-14-3.82908E-14 2.51661E-14 1.87822E-14
 -1        16-1.30727E-05-1.30727E-05 6.00253E-14 2.13140E-15 5.61664E-14 3.03118E-15
 -1        17-1.30727E-05-1.30727E-05-6.39311E-14-1.99222E-14-7.63759E-14 5.88066E-15
 -1        18-1.96090E-05-1.96090E-05 8.79224E-14 9.19997E-14-1.08634E-14 1.86466E-13
 -1        19-1.96090E-05-1.96090E-05-1.57940E-13-4.37854E-15-2.54517E-14 1.61829E-20
 -1        20-1.30727E-05-1.30727E-05-6.28771E-14-4.75364E-15 3.87792E-15 1.76141E-15
 -1        21-1.30727E-05-1.30727E-05-1.95952E-14-1.63739E-14 8.19369E-15-1.03190E-14
 -1        22-1.30727E-05-1.30727E-05-3.09797E-15 4.75431E-14-7.41374E-16 4.45571E-14
 -1        23-1.30727E-05-1.30727E-05 9.49281E-14 3.59386E-14 2.30770E-14-7.85023E-14
 -1        24-1.96090E-05-1.96090E-05 4.85994E-14-1.13875E-13 2.67514E-14-3.96564E-14
 -1        25-1.96090E-05-1.96090E-05-4.57851E-15-1.65752E-13-1.28714E-13-4.03909E-20
 -1        26-1.30727E-05-1.30727E-05-5.86715E-14-1.03553E-13-5.24325E-14 1.91271E-14
 -1        27-1.30727E-05-1.30727E-05-1.95128E-14-6.17060E-15-1.48005E-13 3.58375E-15
 -1        28-1.30727E-05-1.30727E-05-3.55965E-14-6.57518E-15-8.17655E-14 1.20353E-14
 -1        29-1.30727E-05-1.30727E-05-1.58871E-13-3.91191E-14-1.04530E-13-4.30312E-14
 -1        30-1.96090E-05-1.96090E-05-1.24167E-13-1.12507E-13 2.39986E-13 7.21668E-14
 -1        31-3.92181E-05-3.92181E-05 1.46259E-13 8.88263E-14-1.44958E-13-1.43311E-19
 -1        32-1.96090E-05-1.96090E-05 5.86747E-14 5.48359E-14 5.62708E-14-7.76233E-15
 -1        33-1.96090E-05-1.96090E-05 1.62905E-13-1.72477E-14-7.48411E-14 1.54132E-14
 -1        34-1.96090E-05-1.96090E-05 7.39003E-14 1.99636E-14 1.70168E-13-3.95821E-14
 -1        35-1.96090E-05-1.96090E-05 1.26795E-13 4.28859E-14 9.60419E-14-7.09075E-15
 -1        36-3.92181E-05-3.92181E-05 2.78739E-13 1.65274E-13 4.23003E-14-1.23145E-13
 -1        37-3.92181E-05-3.92181E-05-5.20363E-21-1.12325E-21 5.30037E-21-3.28729E-25
 -1        38-1.96090E-05-1.96090E-05-6.32212E-21 4.15515E-21-1.00372E-21-1.41203E-21
 -1        39-1.96090E-05-1.96090E-05 3.15943E-14-7.55364E-14 5.94501E-15 1.57373E-14
 -1        40-1.96090E-05-1.96090E-05 6.39821E-14 9.97977E-15-6.21850E-15-5.33511E-15
 -1        41-1.96090E-05-1.96090E-05 1.74843E-13-1.67119E-14 1.10998E-14 7.26711E-14
 -1        42-3.92181E-05-3.92181E-05 5.71140E-13 6.40740E-14-7.02356E-15-1.28939E-13
 -1        43-1.96090E-05-1.96090E-05-6.32212E-21 1.82260E-21 2.69154E-21-4.31477E-21
 -1        44-1.30727E-05-1.30727E-05 5.04163E-21 4.35958E-21-9.63108E-22 8.14563E-22
 -1        45-1.30727E-05-1.30727E-05 2.40317E-14-4.96574E-14 5.87220E-16 1.08462E-14
 -1        46-1.30727E-05-1.30727E-05 2.53510E-14 2.96750E-14-7.34360E-16 3.96239E-14
 -1        47-1.30727E-05-1.30727E-05-1.52429E-13 4.30573E-14-1.32617E-14-1.07856E-13
 -1        48-1.96090E-05-1.96090E-05-1.54445E-13-7.79438E-14 2.55932E-14 1.00587E-13
 -1        49-1.96090E-05-1.96090E-05-2.65621E-14-4.37851E-15-1.02121E-13 8.89254E-16
 -1        50-1.30727E-05-1.30727E-05-9.38657E-15 2.82860E-16 4.03990E-14-1.24325E-15
 -1        51-1.30727E-05-1.30727E-05-2.24130E-14 1.59441E-14-6.51492E-14 6.52218E-14
 -1        52-1.30727E-05-1.30727E-05 1.14090E-13-2.52217E-14 1.97752E-14-5.28509E-14
 -1        53-1.30727E-05-1.30727E-05 8.17095E-14-1.01922E-14-5.48097E-14 8.83994E-14
 -1        54-1.96090E-05-1.96090E-05 2.49656E-13 8.23510E-16 1.03321E-13-1.76797E-13
 -1        55-1.96090E-05-1.96090E-05 1.43672E-13 1.17309E-15 5.35123E-14-2.29761E-15
 -1        56-1.30727E-05-1.30727E-05-4.47536E-14 3.98393E-15 6.26085E-15 2.29664E-16
 -1        57-1.30727E-05-1.30727E-05-5.09102E-14 4.38420E-14 2.46211E-14-6.20998E-14
 -1        58-1.30727E-05-1.30727E-05-6.21437E-14 1.85874E-14 2.03166E-14 5.35027E-14
 -1        59-1.30727E-05-1.30727E-05-1.19066E-13-1.08036E-13-7.84092E-15-1.15121E-13
 -1        60-1.96090E-05-1.96090E-05-1.07297E-13 6.49117E-14-3.55319E-16 1.69155E-13
 -1        61-1.96090E-05-1.96090E-05 4.73444E-14 1.65753E-13-9.71167E-14-2.09401E-14
 -1        62-1.30727E-05-1.30727E-05 2.21444E-15 8.34278E-14-4.37089E-14 5.16702E-15
 -1        63-1.30727E-05-1.30727E-05 1.34984E-14-1.11822E-13-8.37521E-15-1.20030E-14
 -1        64-1.30727E-05-1.30727E-05 9.26205E-15 4.93260E-15 1.12028E-14 4.10917E-14
 -1        65-1.30727E-05-1.30727E-05 9.24596E-14-1.57253E-13-3.24987E-15 2.04215E-13
 -1        66-1.96090E-05-1.96090E-05-2.88098E-14-2.53691E-14-2.70444E-13-1.09381E-13
 -1        67-3.92181E-05-3.92181E-05 9.70025E-14-8.88253E-14 3.77719E-13 1.32990E-14
 -1        68-1.96090E-05-1.96090E-05 7.34526E-14-8.50240E-14-4.21665E-14-1.11275E-15
 -1        69-1.96090E-05-1.96090E-05 1.80936E-13-1.44475E-13 1.68603E-13 7.32249E-14
 -1        70-1.96090E-05-1.96090E-05 2.12081E-13-7.94050E-14-6.58975E-14 1.69416E-14
 -1        71-1.96090E-05-1.96090E-05-3.09829E-13-6.70061E-14-1.35450E-14-2.15124E-13
 -1        72-3.92181E-05-3.92181E-05-5.43511E-13-1.62857E-13 2.27494E-13 2.89780E-13
 -3
    1PSTEP                        90          30           1          
  100CL  130 2.28781E-01          72                     0   30           1
 -4  TOSTRAIN    6    1
 -5  EXX         1    4    1    1
 -5  EYY         1    4    2    2
 -5  EZZ         1    4    3    3
 -5  EXY         1    4    1    2
 -5  EYZ         1    4    2    3
 -5  EZX         1    4    3    1
 -1         1-1.30727E-10-1.30727E-10 1.12052E-10-1.85987E-28-1.09679E-27 1.83586E-27
 -1         2-6.53635E-11-6.53635E-11 5.60258E-11-2.29959E-26 2.32087E-27-7.82222E-27
 -1         3-6.53635E-11-6.53635E-11 5.60258E-11 3.77828E-19 2.95151E-26 2.35106E-20
 -1         4-6.53635E-11-6.53635E-11 5.60258E-11 1.67458E-20-3.34447E-27 3.31389E-19
 -1         5-6.53635E-11-6.53635E-11 5.60258E-11 1.79908E-19-7.94197E-25-3.12949E-19
 -1         6-1.30727E-10-1.30727E-10 1.12052E-10 5.88164E-20 4.03084E-25-2.41896E-18
 -1         7-6.53635E-11-6.53635E-11 5.60258E-11 1.10315E-26-6.91305E-27-3.46382E-28
 -1         8-4.35756E-11-4.35756E-11 3.73505E-11-7.91433E-27 9.10146E-28 2.26186E-26
 -1         9-4.35756E-11-4.35756E-11 3.73505E-11 2.27158E-19-2.08997E-20-1.14047E-19
 -1        10-4.35756E-11-4.35756E-11 3.73505E-11-1.62212E-20 2.11176E-20 1.92006E-19
 -1        11-4.35756E-11-4.35756E-11 3.73505E-11-3.06665E-20-1.27906E-19-1.98971E-19
 -1        12-6.53635E-11-6.53635E-11 5.60258E-11-3.94733E-19 1.80174E-19 9.26088E-19
 -1        13-6.53635E-11-6.53635E-11 5.60258E-11 1.01156E-19 4.64367E-19 5.86157E-26
 -1        14-4.35756E-11-4.35756E-11 3.73505E-11 5.60801E-20-3.74346E-19-1.13662E-20
 -1        15-4.35756E-11-4.35756E-11 3.73505E-11-2.37038E-19 1.55790E-19 1.16271E-19
 -1        16-4.35756E-11-4.35756E-11 3.73505E-11 1.31944E-20 3.47697E-19 1.87644E-20
 -1        17-4.35756E-11-4.35756E-11 3.73505E-11-1.23328E-19-4.72803E-19 3.64041E-20
 -1        18-6.53635E-11-6.53635E-11 5.60258E-11 5.69522E-19-6.72495E-20 1.15431E-18
 -1        19-6.53635E-11-6.53635E-11 5.60258E-11-2.71052E-20-1.57558E-19 1.00180E-25
 -1        20-4.35756E-11-4.35756E-11 3.73505E-11-2.94273E-20 2.40061E-20 1.09040E-20
 -1        21-4.35756E-11-4.35756E-11 3.73505E-11-1.01362E-19 5.07228E-20-6.38793E-20
 -1        22-4.35756E-11-4.35756E-11 3.73505E-11 2.94314E-19-4.58946E-21 2.75830E-19
 -1        23-4.35756E-11-4.35756E-11 3.73505E-11 2.22477E-19 1.42857E-19-4.85967E-19
 -1        24-6.53635E-11-6.53635E-11 5.60258E-11-7.04942E-19 1.65604E-19-2.45492E-19
 -1        25-6.53635E-11-6.53635E-11 5.60258E-11-1.02609E-18-7.96801E-19-2.50039E-25
 -1        26-4.35756E-11-4.35756E-11 3.73505E-11-6.41043E-19-3.24582E-19 1.18406E-19
 -1        27-4.35756E-11-4.35756E-11 3.73505E-11-3.81990E-20-9.16223E-19 2.21851E-20
 -1        28-4.35756E-11-4.35756E-11 3.73505E-11-4.07035E-20-5.06167E-19 7.45040E-20
 -1        29-4.35756E-11-4.35756E-11 3.73505E-11-2.42166E-19-6.47093E-19-2.66384E-19
 -1        30-6.53635E-11-6.53635E-11 5.60258E-11-6.96474E-19 1.48563E-18 4.46747E-19
 -1        31-1.30727E-10-1.30727E-10 1.12052E-10 5.49877E-19-8.97356E-19-8.87165E-25
 -1        32-6.53635E-11-6.53635E-11 5.60258E-11 3.39460E-19 3.48343E-19-4.80525E-20
 -1        33-6.53635E-11-6.53635E-11 5.60258E-11-1.06772E-19-4.63302E-19 9.54152E-20
 -1        34-6.53635E-11-6.53635E-11 5.60258E-11 1.23584E-19 1.05342E-18-2.45032E-19
 -1        35-6.53635E-11-6.53635E-11 5.60258E-11 2.65484E-19 5.94545E-19-4.38951E-20
 -1        36-1.30727E-10-1.30727E-10 1.12052E-10 1.02312E-18 2.61859E-19-7.62323E-19
 -1        37-1.30727E-10-1.30727E-10 1.12052E-10-6.95342E-27 3.28118E-26-2.03499E-30
 -1        38-6.53635E-11-6.53635E-11 5.60258E-11 2.57223E-26-6.21352E-27-8.74117E-27
 -1        39-6.53635E-11-6.53635E-11 5.60258E-11-4.67606E-19 3.68024E-20 9.74211E-20
 -1        40-6.53635E-11-6.53635E-11 5.60258E-11 6.17795E-20-3.84955E-20-3.30268E-20
 -1        41-6.53635E-11-6.53635E-11 5.60258E-11-1.03455E-19 6.87132E-20 4.49869E-19
 -1        42-1.30727E-10-1.30727E-10 1.12052E-10 3.96649E-19-4.34792E-20-7.98193E-19
 -1        43-6.53635E-11-6.53635E-11 5.60258E-11 1.12828E-26 1.66619E-26-2.67105E-26
 -1        44-4.35756E-11-4.35756E-11 3.73505E-11 2.69879E-26-5.96210E-27 5.04253E-27
 -1        45-4.35756E-11-4.35756E-11 3.73505E-11-3.07403E-19 3.63517E-21 6.71431E-20
 -1        46-4.35756E-11-4.35756E-11 3.73505E-11 1.83702E-19-4.54604E-21 2.45291E-19
 -1        47-4.35756E-11-4.35756E-11 3.73505E-11 2.66545E-19-8.20962E-20-6.67683E-19
 -1        48-6.53635E-11-6.53635E-11 5.60258E-11-4.82509E-19 1.58434E-19 6.22683E-19
 -1        49-6.53635E-11-6.53635E-11 5.60258E-11-2.71051E-20-6.32175E-19 5.50491E-21
 -1        50-4.35756E-11-4.35756E-11 3.73505E-11 1.75104E-21 2.50089E-19-7.69631E-21
 -1        51-4.35756E-11-4.35756E-11 3.73505E-11 9.87018E-20-4.03305E-19 4.03754E-19
 -1        52-4.35756E-11-4.35756E-11 3.73505E-11-1.56134E-19 1.22418E-19-3.27172E-19
 -1        53-4.35756E-11-4.35756E-11 3.73505E-11-6.30948E-20-3.39298E-19 5.47234E-19
 -1        54-6.53635E-11-6.53635E-11 5.60258E-11 5.09792E-21 6.39606E-19-1.09446E-18
 -1        55-6.53635E-11-6.53635E-11 5.60258E-11 7.26196E-21 3.31267E-19-1.42233E-20
 -1        56-4.35756E-11-4.35756E-11 3.73505E-11 2.46624E-20 3.87576E-20 1.42173E-21
 -1        57-4.35756E-11-4.35756E-11 3.73505E-11 2.71403E-19 1.52416E-19-3.84427E-19
 -1        58-4.35756E-11-4.35756E-11 3.73505E-11 1.15065E-19 1.25769E-19 3.31207E-19
 -1        59-4.35756E-11-4.35756E-11 3.73505E-11-6.68795E-19-4.85390E-20-7.12656E-19
 -1        60-6.53635E-11-6.53635E-11 5.60258E-11 4.01834E-19-2.19959E-21 1.04715E-18
 -1        61-6.53635E-11-6.53635E-11 5.60258E-11 1.02609E-18-6.01198E-19-1.29629E-19
 -1        62-4.35756E-11-4.35756E-11 3.73505E-11 5.16458E-19-2.70579E-19 3.19863E-20
 -1        63-4.35756E-11-4.35756E-11 3.73505E-11-6.92234E-19-5.18465E-20-7.43040E-20
 -1        64-4.35756E-11-4.35756E-11 3.73505E-11 3.05351E-20 6.93510E-20 2.54377E-19
 -1        65-4.35756E-11-4.35756E-11 3.73505E-11-9.73471E-19-2.01183E-20 1.26419E-18
 -1        66-6.53635E-11-6.53635E-11 5.60258E-11-1.57047E-19-1.67418E-18-6.77121E-19
 -1        67-1.30727E-10-1.30727E-10 1.12052E-10-5.49871E-19 2.33826E-18 8.23273E-20
 -1        68-6.53635E-11-6.53635E-11 5.60258E-11-5.26339E-19-2.61031E-19-6.88843E-21
 -1        69-6.53635E-11-6.53635E-11 5.60258E-11-8.94369E-19 1.04373E-18 4.53297E-19
 -1        70-6.53635E-11-6.53635E-11 5.60258E-11-4.91555E-19-4.07937E-19 1.04876E-19
 -1        71-6.53635E-11-6.53635E-11 5.60258E-11-4.14799E-19-8.38497E-20-1.33172E-18
 -1        72-1.30727E-10-1.30727E-10 1.12052E-10-1.00816E-18 1.40829E-18 1.79388E-18
 -3
    1PSTEP                        91          31           1          
  100CL  131 2.37781E-01          72                     0   31           1
 -4  DISP        4    1
 -5  D1          1    2    1    0
 -5  D2          1    2    2    0
 -5  D3          1    2    3    0
 -5  ALL         1    2    0    0    1ALL
 -1         1 0.00000E+00 0.00000E+00 0.00000E+00
 -1         2-6.79375E-08 0.00000E+00 0.00000E+00
 -1         3-3.56672E+00 0.00000E+00 0.00000E+00
 -1         4-3.56672E+00 0.00000E+00 0.00000E+00
 -1         5-7.13344E+00 0.00000E+00 0.00000E+00
 -1         6-7.13344E+00 0.00000E+00 0.00000E+00
 -1         7 0.00000E+00-6.79375E-08 0.00000E+00
 -1         8-6.79375E-08-6.79375E-08 0.00000E+00
 -1         9-3.56672E+00-6.79375E-08 0.00000E+00
 -1        10-3.56672E+00-6.79375E-08 0.00000E+00
 -1        11-7.13344E+00-6.79375E-08 0.00000E+00
 -1        12-7.13344E+00-6.79375E-08 0.00000E+00
 -1        13 0.00000E+00-3.56672E+00 0.00000E+00
 -1        14-6.79375E-08-3.56672E+00 0.00000E+00
 -1        15-3.56672E+00-3.56672E+00 0.00000E+00
 -1        16-3.56672E+00-3.56672E+00 0.00000E+00
 -1        17-7.13344E+00-3.56672E+00 0.00000E+00
 -1        18-7.13344E+00-3.56672E+00 0.00000E+00
 -1        19 0.00000E+00-3.56672E+00 0.00000E+00
 -1        20-6.79375E-08-3.56672E+00 0.00000E+00
 -1        21-3.56672E+00-3.56672E+00 0.00000E+00
 -1        22-3.56672E+00-3.56672E+00 0.00000E+00
 -1        23-7.13344E+00-3.56672E+00 0.00000E+00
 -1        24-7.13344E+00-3.56672E+00 0.00000E+00
 -1        25 0.00000E+00-7.13344E+00 0.00000E+00
 -1        26-6.79375E-08-7.13344E+00 0.00000E+00
 -1        27-3.56672E+00-7.13344E+00 0.00000E+00
 -1        28-3.56672E+00-7.13344E+00 0.00000E+00
 -1        29-7.13344E+00-7.13344E+00 0.00000E+00
 -1        30-7.13344E+00-7.13344E+00 0.00000E+00
 -1        31 0.00000E+00-7.13344E+00 0.00000E+00
 -1        32-6.79375E-08-7.13344E+00 0.00000E+00
 -1        33-3.56672E+00-7.13344E+00 0.00000E+00
 -1        34-3.56672E+00-7.13344E+00 0.00000E+00
 -1        35-7.13344E+00-7.13344E+00 0.00000E+00
 -1        36-7.13344E+00-7.13344E+00 0.00000E+00
 -1        37 0.00000E+00 0.00000E+00 8.15250E-08
 -1        38-6.79375E-08 0.00000E+00 8.15250E-08
 -1        39-3.56672E+00 0.00000E+00 8.15250E-08
 -1        40-3.56672E+00 0.00000E+00 8.15250E-08
 -1        41-7.13344E+00 0.00000E+00 8.15250E-08
 -1        42-7.13344E+00 0.00000E+00 8.15250E-08
 -1        43 0.00000E+00-6.79375E-08 8.15250E-08
 -1        44-6.79375E-08-6.79375E-08 8.15250E-08
 -1        45-3.56672E+00-6.79375E-08 8.15250E-08
 -1        46-3.56672E+00-6.79375E-08 8.15250E-08
 -1        47-7.13344E+00-6.79375E-08 8.15250E-08
 -1        48-7.13344E+00-6.79375E-08 8.15250E-08
 -1        49 0.00000E+00-3.56672E+00 8.15250E-08
 -1        50-6.79375E-08-3.56672E+00 8.15250E-08
 -1        51-3.56672E+00-3.56672E+00 8.15250E-08
 -1        52-3.56672E+00-3.56672E+00 8.15250E-08
 -1        53-7.13344E+00-3.56672E+00 8.15250E-08
 -1        54-7.13344E+00-3.56672E+00 8.15250E-08
 -1        55 0.00000E+00-3.56672E+00 8.15250E-08
 -1        56-6.79375E-08-3.56672E+00 8.15250E-08
 -1        57-3.56672E+00-3.56672E+00 8.15250E-08
 -1        58-3.56672E+00-3.56672E+00 8.15250E-08
 -1        59-7.13344E+00-3.56672E+00 8.15250E-08
 -1        60-7.13344E+00-3.56672E+00 8.15250E-08
 -1        61 0.00000E+00-7.13344E+00 8.15250E-08
 -1        62-6.79375E-08-7.13344E+00 8.15250E-08
 -1        63-3.56672E+00-7.13344E+00 8.15250E-08
 -1        64-3.56672E+00-7.13344E+00 8.15250E-08
 -1        65-7.13344E+00-7.13344E+00 8.15250E-08
 -1        66-7.13344E+00-7.13344E+00 8.15250E-08
 -1        67 0.00000E+00-7.13344E+00 8.15250E-08
 -1        68-6.79375E-08-7.13344E+00 8.15250E-08
 -1        69-3.56672E+00-7.13344E+00 8.15250E-08
 -1        70-3.56672E+00-7.13344E+00 8.15250E-08
 -1        71-7.13344E+00-7.13344E+00 8.15250E-08
 -1        72-7.13344E+00-7.13344E+00 8.15250E-08
 -3
    1PSTEP                        92          31           1          
  100CL  131 2.37781E-01          72                     0   31           1
 -4  STRESS      6    1
 -5  SXX         1    4    1    1
 -5  SYY         1    4    2    2
 -5  SZZ         1    4    3    3
 -5  SXY         1    4    1    2
 -5  SYZ         1    4    2    3
 -5  SZX         1    4    3    1
 -1         1-4.07609E-05-4.07609E-05 1.57264E-21 6.42443E-22-3.58847E-22-2.35362E-22
 -1         2-2.03804E-05-2.03804E-05 7.86318E-22 1.16471E-21-2.34446E-22-3.93176E-22
 -1         3-2.03804E-05-2.03804E-05-3.88809E-14 5.50522E-14-5.17450E-20-2.33666E-14
 -1         4-2.03804E-05-2.03804E-05-3.32180E-15 2.09622E-14-2.15107E-20-8.80704E-15
 -1         5-2.03804E-05-2.03804E-05-7.85233E-14 5.61023E-14-1.88522E-19-2.09252E-14
 -1         6-4.07609E-05-4.07609E-05-1.97824E-13-1.76080E-13 6.58932E-20-1.50924E-13
 -1         7-2.03804E-05-2.03804E-05 2.93426E-21 1.57280E-21-9.52171E-23 2.73783E-22
 -1         8-1.35870E-05-1.35870E-05 1.95617E-21 1.61086E-21-1.07882E-21-9.14557E-22
 -1         9-1.35870E-05-1.35870E-05-4.70566E-14 2.91335E-14 1.20842E-15 1.81193E-14
 -1        10-1.35870E-05-1.35870E-05-8.28945E-15 2.99016E-14 7.47803E-16-2.48304E-14
 -1        11-1.35870E-05-1.35870E-05 6.46193E-15-6.39661E-14-1.90961E-14 5.97152E-14
 -1        12-2.03804E-05-2.03804E-05 1.08687E-14 1.82816E-13 2.52897E-14-6.23634E-14
 -1        13-2.03804E-05-2.03804E-05-2.60831E-14 4.67182E-15-6.93290E-14 4.07964E-21
 -1        14-1.35870E-05-1.35870E-05-4.45179E-14-6.58094E-16 9.33190E-14-3.19393E-15
 -1        15-1.35870E-05-1.35870E-05-7.33257E-15-1.87199E-14-1.44361E-13-3.94399E-14
 -1        16-1.35870E-05-1.35870E-05-1.15701E-13 5.86958E-14 8.03692E-14 2.89251E-14
 -1        17-1.35870E-05-1.35870E-05 6.70242E-15 7.32744E-14-3.42443E-14 9.01688E-14
 -1        18-2.03804E-05-2.03804E-05-2.12562E-13 2.31183E-14 9.77224E-14 5.97967E-14
 -1        19-2.03804E-05-2.03804E-05 1.41126E-14-1.64191E-14 9.10927E-14 1.20552E-20
 -1        20-1.35870E-05-1.35870E-05-3.09024E-14-1.47187E-14-1.09731E-13 3.49155E-15
 -1        21-1.35870E-05-1.35870E-05 9.87467E-14-9.00218E-14 7.91630E-14 1.07007E-14
 -1        22-1.35870E-05-1.35870E-05 9.69454E-15 1.08887E-14-1.02560E-13-8.24601E-15
 -1        23-1.35870E-05-1.35870E-05-1.62194E-14 3.81316E-14-8.53321E-15 5.35619E-14
 -1        24-2.03804E-05-2.03804E-05-3.22274E-15-9.87925E-14 6.32909E-15-8.71053E-14
 -1        25-2.03804E-05-2.03804E-05 1.35678E-14 1.76152E-19-2.27774E-13-4.36955E-20
 -1        26-1.35870E-05-1.35870E-05-1.51980E-13-9.30142E-16-1.34764E-13 1.35810E-14
 -1        27-1.35870E-05-1.35870E-05 1.54962E-14 1.52530E-14-1.92906E-13 2.40007E-14
 -1        28-1.35870E-05-1.35870E-05 1.07575E-13-1.02065E-13-3.74408E-15-4.39378E-14
 -1        29-1.35870E-05-1.35870E-05-2.04467E-13-4.68781E-14-1.01988E-13 1.29003E-13
 -1        30-2.03804E-05-2.03804E-05 5.05292E-14-4.68763E-14-6.13415E-14-1.33908E-13
 -1        31-4.07609E-05-4.07609E-05 3.36029E-13 3.52303E-19 3.89129E-13-3.38512E-19
 -1        32-2.03804E-05-2.03804E-05-2.04979E-14-1.39521E-15 2.06929E-13 9.70739E-15
 -1        33-2.03804E-05-2.03804E-05 1.28978E-13 2.59902E-14 3.72062E-13 1.95466E-14
 -1        34-2.03804E-05-2.03804E-05-7.68016E-14-1.50630E-13-8.25663E-14 1.18877E-13
 -1        35-2.03804E-05-2.03804E-05-4.45714E-14 5.96938E-14-6.85533E-14-1.77651E-13
 -1        36-4.07609E-05-4.07609E-05 2.58584E-13-2.79822E-13 2.76349E-13 4.36574E-13
 -1        37-4.07609E-05-4.07609E-05-5.86824E-21-5.91745E-22 1.73584E-21-2.57524E-22
 -1        38-2.03804E-05-2.03804E-05-2.93412E-21-2.35310E-22 1.20436E-21-4.04257E-22
 -1        39-2.03804E-05-2.03804E-05 3.37372E-14-2.13927E-14-3.80421E-15 1.75568E-16
 -1        40-2.03804E-05-2.03804E-05 6.78453E-14 1.91656E-14 5.23243E-15 3.42661E-14
 -1        41-2.03804E-05-2.03804E-05 1.26609E-13-1.18522E-13 1.97671E-15-5.37656E-14
 -1        42-4.07609E-05-4.07609E-05 4.38961E-13-2.10332E-14 2.12055E-14 2.19093E-13
 -1        43-2.03804E-05-2.03804E-05-1.09504E-20-1.49095E-21 9.52125E-22 8.49898E-22
 -1        44-1.35870E-05-1.35870E-05-7.30029E-21-9.53588E-22-1.19616E-22-5.30481E-22
 -1        45-1.35870E-05-1.35870E-05-1.83475E-14-2.08721E-14-1.32769E-15-1.28176E-14
 -1        46-1.35870E-05-1.35870E-05 1.94523E-14 2.20780E-14 4.23611E-15 4.06733E-14
 -1        47-1.35870E-05-1.35870E-05-1.19491E-13-1.10813E-13-1.77781E-14-1.04551E-13
 -1        48-2.03804E-05-2.03804E-05-6.47995E-14 2.28187E-13 3.58924E-14-3.40365E-14
 -1        49-2.03804E-05-2.03804E-05-1.19120E-13-1.64191E-14 4.06762E-14 3.26207E-15
 -1        50-1.35870E-05-1.35870E-05 1.16758E-14-5.35900E-15-2.38293E-14-1.01923E-15
 -1        51-1.35870E-05-1.35870E-05 3.34990E-14 5.25993E-14 5.09362E-14-2.51376E-14
 -1        52-1.35870E-05-1.35870E-05 1.17053E-13 5.28055E-14-6.71623E-14-1.12459E-14
 -1        53-1.35870E-05-1.35870E-05 4.53285E-14-1.72034E-13-1.98285E-14 3.62518E-14
 -1        54-2.03804E-05-2.03804E-05-5.58496E-14 2.16456E-13-4.72090E-14-4.73938E-14
 -1        55-2.03804E-05-2.03804E-05-5.78648E-14 8.46375E-15 2.09147E-15-4.64689E-15
 -1        56-1.35870E-05-1.35870E-05 3.93308E-14 1.12295E-14 1.96311E-14 3.93618E-16
 -1        57-1.35870E-05-1.35870E-05 1.54174E-13-7.40199E-14-5.01797E-15-8.73344E-16
 -1        58-1.35870E-05-1.35870E-05 6.36614E-14-5.79026E-14 8.84962E-14 2.80856E-14
 -1        59-1.35870E-05-1.35870E-05-5.62333E-14-1.43847E-13-1.00460E-13-1.03593E-13
 -1        60-2.03804E-05-2.03804E-05-1.52165E-13 1.44039E-13 2.08091E-13 1.17240E-13
 -1        61-2.03804E-05-2.03804E-05-2.62764E-13 1.23149E-19-1.87101E-13 3.72822E-15
 -1        62-1.35870E-05-1.35870E-05 2.39867E-13-1.08833E-14 5.51528E-14 1.60666E-14
 -1        63-1.35870E-05-1.35870E-05-1.27678E-13 7.77980E-14-5.34878E-14-3.19230E-14
 -1        64-1.35870E-05-1.35870E-05-6.18702E-14 1.04540E-13 9.20213E-14 8.02676E-15
 -1        65-1.35870E-05-1.35870E-05 6.18328E-14 2.78520E-15-1.31650E-13-7.31587E-14
 -1        66-2.03804E-05-2.03804E-05 3.04187E-14 6.72802E-14 1.66780E-13 1.35143E-13
 -1        67-4.07609E-05-4.07609E-05-3.06493E-14 2.46298E-19 8.92958E-14-4.24333E-14
 -1        68-2.03804E-05-2.03804E-05 1.14243E-13-1.63249E-14-4.00489E-14-1.15091E-14
 -1        69-2.03804E-05-2.03804E-05 8.16915E-14-4.50281E-14-9.80728E-14 8.07796E-14
 -1        70-2.03804E-05-2.03804E-05-1.63494E-13 2.85672E-14 1.09848E-13-1.13076E-13
 -1        71-2.03804E-05-2.03804E-05-1.04088E-13-1.15127E-13 1.79368E-13 2.56262E-14
 -1        72-4.07609E-05-4.07609E-05-8.52939E-14 8.14913E-13-2.06891E-13-1.96374E-13
 -3
    1PSTEP                        93          31           1          
  100CL  131 2.37781E-01          72                     0   31           1
 -4  TOSTRAIN    6    1
 -5  EXX         1    4    1    1
 -5  EYY         1    4    2    2
 -5  EZZ         1    4    3    3
 -5  EXY         1    4    1    2
 -5  EYZ         1    4    2    3
 -5  EZX         1    4    3    1
 -1         1-1.35870E-10-1.35870E-10 1.16460E-10 3.97703E-27-2.22143E-27-1.45700E-27
 -1         2-6.79348E-11-6.79348E-11 5.82298E-11 7.21012E-27-1.45133E-27-2.43395E-27
 -1         3-6.79348E-11-6.79348E-11 5.82298E-11 3.40799E-19-3.20326E-25-1.44651E-19
 -1         4-6.79348E-11-6.79348E-11 5.82298E-11 1.29766E-19-1.33161E-25-5.45198E-20
 -1         5-6.79348E-11-6.79348E-11 5.82298E-11 3.47300E-19-1.16704E-24-1.29537E-19
 -1         6-1.35870E-10-1.35870E-10 1.16460E-10-1.09002E-18 4.07910E-25-9.34294E-19
 -1         7-6.79348E-11-6.79348E-11 5.82298E-11 9.73637E-27-5.89439E-28 1.69485E-27
 -1         8-4.52899E-11-4.52899E-11 3.88199E-11 9.97199E-27-6.67841E-27-5.66154E-27
 -1         9-4.52899E-11-4.52899E-11 3.88199E-11 1.80350E-19 7.48069E-21 1.12167E-19
 -1        10-4.52899E-11-4.52899E-11 3.88199E-11 1.85105E-19 4.62926E-21-1.53712E-19
 -1        11-4.52899E-11-4.52899E-11 3.88199E-11-3.95980E-19-1.18214E-19 3.69665E-19
 -1        12-6.79348E-11-6.79348E-11 5.82298E-11 1.13172E-18 1.56555E-19-3.86059E-19
 -1        13-6.79348E-11-6.79348E-11 5.82298E-11 2.89208E-20-4.29180E-19 2.52549E-26
 -1        14-4.52899E-11-4.52899E-11 3.88199E-11-4.07392E-21 5.77689E-19-1.97720E-20
 -1        15-4.52899E-11-4.52899E-11 3.88199E-11-1.15885E-19-8.93666E-19-2.44152E-19
 -1        16-4.52899E-11-4.52899E-11 3.88199E-11 3.63355E-19 4.97524E-19 1.79060E-19
 -1        17-4.52899E-11-4.52899E-11 3.88199E-11 4.53603E-19-2.11988E-19 5.58188E-19
 -1        18-6.79348E-11-6.79348E-11 5.82298E-11 1.43114E-19 6.04948E-19 3.70170E-19
 -1        19-6.79348E-11-6.79348E-11 5.82298E-11-1.01642E-19 5.63907E-19 7.46275E-26
 -1        20-4.52899E-11-4.52899E-11 3.88199E-11-9.11158E-20-6.79290E-19 2.16144E-20
 -1        21-4.52899E-11-4.52899E-11 3.88199E-11-5.57278E-19 4.90057E-19 6.62425E-20
 -1        22-4.52899E-11-4.52899E-11 3.88199E-11 6.74059E-20-6.34895E-19-5.10467E-20
 -1        23-4.52899E-11-4.52899E-11 3.88199E-11 2.36053E-19-5.28247E-20 3.31574E-19
 -1        24-6.79348E-11-6.79348E-11 5.82298E-11-6.11572E-19 3.91801E-20-5.39223E-19
 -1        25-6.79348E-11-6.79348E-11 5.82298E-11 1.09046E-24-1.41003E-18-2.70496E-25
 -1        26-4.52899E-11-4.52899E-11 3.88199E-11-5.75802E-21-8.34256E-19 8.40731E-20
 -1        27-4.52899E-11-4.52899E-11 3.88199E-11 9.44235E-20-1.19418E-18 1.48576E-19
 -1        28-4.52899E-11-4.52899E-11 3.88199E-11-6.31828E-19-2.31776E-20-2.71996E-19
 -1        29-4.52899E-11-4.52899E-11 3.88199E-11-2.90198E-19-6.31357E-19 7.98587E-19
 -1        30-6.79348E-11-6.79348E-11 5.82298E-11-2.90187E-19-3.79733E-19-8.28952E-19
 -1        31-1.35870E-10-1.35870E-10 1.16460E-10 2.18093E-24 2.40890E-18-2.09555E-24
 -1        32-6.79348E-11-6.79348E-11 5.82298E-11-8.63704E-21 1.28099E-18 6.00933E-20
 -1        33-6.79348E-11-6.79348E-11 5.82298E-11 1.60892E-19 2.30324E-18 1.21003E-19
 -1        34-6.79348E-11-6.79348E-11 5.82298E-11-9.32472E-19-5.11125E-19 7.35907E-19
 -1        35-6.79348E-11-6.79348E-11 5.82298E-11 3.69533E-19-4.24378E-19-1.09974E-18
 -1        36-1.35870E-10-1.35870E-10 1.16460E-10-1.73223E-18 1.71073E-18 2.70260E-18
 -1        37-1.35870E-10-1.35870E-10 1.16460E-10-3.66318E-27 1.07457E-26-1.59420E-27
 -1        38-6.79348E-11-6.79348E-11 5.82298E-11-1.45668E-27 7.45556E-27-2.50254E-27
 -1        39-6.79348E-11-6.79348E-11 5.82298E-11-1.32431E-19-2.35499E-20 1.08685E-21
 -1        40-6.79348E-11-6.79348E-11 5.82298E-11 1.18644E-19 3.23912E-20 2.12124E-19
 -1        41-6.79348E-11-6.79348E-11 5.82298E-11-7.33708E-19 1.22368E-20-3.32835E-19
 -1        42-1.35870E-10-1.35870E-10 1.16460E-10-1.30206E-19 1.31272E-19 1.35629E-18
 -1        43-6.79348E-11-6.79348E-11 5.82298E-11-9.22966E-27 5.89411E-27 5.26127E-27
 -1        44-4.52899E-11-4.52899E-11 3.88199E-11-5.90317E-27-7.40478E-28-3.28393E-27
 -1        45-4.52899E-11-4.52899E-11 3.88199E-11-1.29208E-19-8.21902E-21-7.93470E-20
 -1        46-4.52899E-11-4.52899E-11 3.88199E-11 1.36673E-19 2.62235E-20 2.51787E-19
 -1        47-4.52899E-11-4.52899E-11 3.88199E-11-6.85986E-19-1.10055E-19-6.47222E-19
 -1        48-6.79348E-11-6.79348E-11 5.82298E-11 1.41259E-18 2.22191E-19-2.10702E-19
 -1        49-6.79348E-11-6.79348E-11 5.82298E-11-1.01642E-19 2.51805E-19 2.01937E-20
 -1        50-4.52899E-11-4.52899E-11 3.88199E-11-3.31748E-20-1.47514E-19-6.30951E-21
 -1        51-4.52899E-11-4.52899E-11 3.88199E-11 3.25615E-19 3.15319E-19-1.55613E-19
 -1        52-4.52899E-11-4.52899E-11 3.88199E-11 3.26891E-19-4.15767E-19-6.96174E-20
 -1        53-4.52899E-11-4.52899E-11 3.88199E-11-1.06497E-18-1.22748E-19 2.24416E-19
 -1        54-6.79348E-11-6.79348E-11 5.82298E-11 1.33997E-18-2.92246E-19-2.93390E-19
 -1        55-6.79348E-11-6.79348E-11 5.82298E-11 5.23946E-20 1.29472E-20-2.87665E-20
 -1        56-4.52899E-11-4.52899E-11 3.88199E-11 6.95161E-20 1.21526E-19 2.43668E-21
 -1        57-4.52898E-11-4.52899E-11 3.88199E-11-4.58219E-19-3.10636E-20-5.40641E-21
 -1        58-4.52898E-11-4.52899E-11 3.88199E-11-3.58444E-19 5.47833E-19 1.73864E-19
 -1        59-4.52899E-11-4.52899E-11 3.88199E-11-8.90479E-19-6.21898E-19-6.41293E-19
 -1        60-6.79348E-11-6.79348E-11 5.82298E-11 8.91668E-19 1.28818E-18 7.25773E-19
 -1        61-6.79348E-11-6.79348E-11 5.82298E-11 7.62352E-25-1.15824E-18 2.30795E-20
 -1        62-4.52899E-11-4.52898E-11 3.88199E-11-6.73728E-20 3.41422E-19 9.94596E-20
 -1        63-4.52899E-11-4.52899E-11 3.88199E-11 4.81607E-19-3.31115E-19-1.97618E-19
 -1        64-4.52899E-11-4.52899E-11 3.88199E-11 6.47153E-19 5.69655E-19 4.96895E-20
 -1        65-4.52898E-11-4.52899E-11 3.88199E-11 1.72417E-20-8.14978E-19-4.52887E-19
 -1        66-6.79348E-11-6.79348E-11 5.82298E-11 4.16496E-19 1.03244E-18 8.36599E-19
 -1        67-1.35870E-10-1.35870E-10 1.16460E-10 1.52470E-24 5.52784E-19-2.62682E-19
 -1        68-6.79348E-11-6.79348E-11 5.82298E-11-1.01059E-19-2.47922E-19-7.12467E-20
 -1        69-6.79348E-11-6.79348E-11 5.82298E-11-2.78746E-19-6.07117E-19 5.00064E-19
 -1        70-6.79348E-11-6.79348E-11 5.82298E-11 1.76845E-19 6.80010E-19-6.99992E-19
 -1        71-6.79348E-11-6.79348E-11 5.82298E-11-7.12694E-19 1.11037E-18 1.58638E-19
 -1        72-1.35870E-10-1.35870E-10 1.16460E-10 5.04470E-18-1.28076E-18-1.21565E-18
 -3
    1PSTEP                        94          32           1          
  100CL  132 2.46781E-01          72                     0   32           1
 -4  DISP        4    1
 -5  D1          1    2    1    0
 -5  D2          1    2    2    0
 -5  D3          1    2    3    0
 -5  ALL         1    2    0    0    1ALL
 -1         1 0.00000E+00 0.00000E+00 0.00000E+00
 -1         2-7.05089E-08 0.00000E+00 0.00000E+00
 -1         3-3.70172E+00 0.00000E+00 0.00000E+00
 -1         4-3.70172E+00 0.00000E+00 0.00000E+00
 -1         5-7.40344E+00 0.00000E+00 0.00000E+00
 -1         6-7.40344E+00 0.00000E+00 0.00000E+00
 -1         7 0.00000E+00-7.05089E-08 0.00000E+00
 -1         8-7.05089E-08-7.05089E-08 0.00000E+00
 -1         9-3.70172E+00-7.05089E-08 0.00000E+00
 -1        10-3.70172E+00-7.05089E-08 0.00000E+00
 -1        11-7.40344E+00-7.05089E-08 0.00000E+00
 -1        12-7.40344E+00-7.05089E-08 0.00000E+00
 -1        13 0.00000E+00-3.70172E+00 0.00000E+00
 -1        14-7.05089E-08-3.70172E+00 0.00000E+00
 -1        15-3.70172E+00-3.70172E+00 0.00000E+00
 -1        16-3.70172E+00-3.70172E+00 0.00000E+00
 -1        17-7.40344E+00-3.70172E+00 0.00000E+00
 -1        18-7.40344E+00-3.70172E+00 0.00000E+00
 -1        19 0.00000E+00-3.70172E+00 0.00000E+00
 -1        20-7.05089E-08-3.70172E+00 0.00000E+00
 -1        21-3.70172E+00-3.70172E+00 0.00000E+00
 -1        22-3.70172E+00-3.70172E+00 0.00000E+00
 -1        23-7.40344E+00-3.70172E+00 0.00000E+00
 -1        24-7.40344E+00-3.70172E+00 0.00000E+00
 -1        25 0.00000E+00-7.40344E+00 0.00000E+00
 -1        26-7.05089E-08-7.40344E+00 0.00000E+00
 -1        27-3.70172E+00-7.40344E+00 0.00000E+00
 -1        28-3.70172E+00-7.40344E+00 0.00000E+00
 -1        29-7.40344E+00-7.40344E+00 0.00000E+00
 -1        30-7.40344E+00-7.40344E+00 0.00000E+00
 -1        31 0.00000E+00-7.40344E+00 0.00000E+00
 -1        32-7.05089E-08-7.40344E+00 0.00000E+00
 -1        33-3.70172E+00-7.40344E+00 0.00000E+00
 -1        34-3.70172E+00-7.40344E+00 0.00000E+00
 -1        35-7.40344E+00-7.40344E+00 0.00000E+00
 -1        36-7.40344E+00-7.40344E+00 0.00000E+00
 -1        37 0.00000E+00 0.00000E+00 8.46107E-08
 -1        38-7.05089E-08 0.00000E+00 8.46107E-08
 -1        39-3.70172E+00 0.00000E+00 8.46107E-08
 -1        40-3.70172E+00 0.00000E+00 8.46107E-08
 -1        41-7.40344E+00 0.00000E+00 8.46107E-08
 -1        42-7.40344E+00 0.00000E+00 8.46107E-08
 -1        43 0.00000E+00-7.05089E-08 8.46107E-08
 -1        44-7.05089E-08-7.05089E-08 8.46107E-08
 -1        45-3.70172E+00-7.05089E-08 8.46107E-08
 -1        46-3.70172E+00-7.05089E-08 8.46107E-08
 -1        47-7.40344E+00-7.05089E-08 8.46107E-08
 -1        48-7.40344E+00-7.05089E-08 8.46107E-08
 -1        49 0.00000E+00-3.70172E+00 8.46107E-08
 -1        50-7.05089E-08-3.70172E+00 8.46107E-08
 -1        51-3.70172E+00-3.70172E+00 8.46107E-08
 -1        52-3.70172E+00-3.70172E+00 8.46107E-08
 -1        53-7.40344E+00-3.70172E+00 8.46107E-08
 -1        54-7.40344E+00-3.70172E+00 8.46107E-08
 -1        55 0.00000E+00-3.70172E+00 8.46107E-08
 -1        56-7.05089E-08-3.70172E+00 8.46107E-08
 -1        57-3.70172E+00-3.70172E+00 8.46107E-08
 -1        58-3.70172E+00-3.70172E+00 8.46107E-08
 -1        59-7.40344E+00-3.70172E+00 8.46107E-08
 -1        60-7.40344E+00-3.70172E+00 8.46107E-08
 -1        61 0.00000E+00-7.40344E+00 8.46107E-08
 -1        62-7.05089E-08-7.40344E+00 8.46107E-08
 -1        63-3.70172E+00-7.40344E+00 8.46107E-08
 -1        64-3.70172E+00-7.40344E+00 8.46107E-08
 -1        65-7.40344E+00-7.40344E+00 8.46107E-08
 -1        66-7.40344E+00-7.40344E+00 8.46107E-08
 -1        67 0.00000E+00-7.40344E+00 8.46107E-08
 -1        68-7.05089E-08-7.40344E+00 8.46107E-08
 -1        69-3.70172E+00-7.40344E+00 8.46107E-08
 -1        70-3.70172E+00-7.40344E+00 8.46107E-08
 -1        71-7.40344E+00-7.40344E+00 8.46107E-08
 -1        72-7.40344E+00-7.40344E+00 8.46107E-08
 -3
    1PSTEP                        95          32           1          
  100CL  132 2.46781E-01          72                     0   32           1
 -4  STRESS      6    1
 -5  SXX         1    4    1    1
 -5  SYY         1    4    2    2
 -5  SZZ         1    4    3    3
 -5  SXY         1    4    1    2
 -5  SYZ         1    4    2    3
 -5  SZX         1    4    3    1
 -1         1-4.23037E-05-4.23037E-05 4.62819E-21 8.75889E-22 2.09201E-23 2.89421E-22
 -1         2-2.11518E-05-2.11518E-05-2.76797E-21 1.76709E-21-9.95845E-23 2.54040E-21
 -1         3-2.11518E-05-2.11518E-05-5.16247E-15 6.02898E-14-1.19492E-20 9.94238E-14
 -1         4-2.11518E-05-2.11518E-05-1.22210E-14 1.41641E-15-4.54290E-20-9.00592E-14
 -1         5-2.11518E-05-2.11518E-05-5.88786E-14-2.47244E-14-1.86721E-19 3.47915E-14
 -1         6-4.23037E-05-4.23037E-05-8.63906E-14 9.57278E-14-1.53246E-19-3.31462E-13
 -1         7-2.11518E-05-2.11518E-05-8.63635E-21 7.83621E-21 1.08589E-21-7.27976E-23
 -1         8-1.41012E-05-1.41012E-05 6.88694E-21 6.11024E-21-2.74213E-21-1.55284E-21
 -1         9-1.41012E-05-1.41012E-05 3.48914E-16 3.33597E-14-4.95043E-15-6.90443E-14
 -1        10-1.41012E-05-1.41012E-05-4.01951E-14 9.18290E-17 3.14196E-15 1.60874E-14
 -1        11-1.41012E-05-1.41012E-05-5.56641E-14 3.35671E-14-6.81087E-15-6.88675E-14
 -1        12-2.11518E-05-2.11518E-05-5.12718E-14-1.03908E-14 1.39631E-14 1.08052E-13
 -1        13-2.11518E-05-2.11518E-05 4.95096E-14 4.43294E-14 3.17255E-14 8.21293E-21
 -1        14-1.41012E-05-1.41012E-05-1.96087E-14 3.04170E-14-3.28036E-14 1.02663E-15
 -1        15-1.41012E-05-1.41012E-05-5.29000E-14-6.65388E-15-5.74209E-14 6.19721E-15
 -1        16-1.41012E-05-1.41012E-05 1.90633E-14-3.40555E-14-6.57263E-15-6.30805E-14
 -1        17-1.41012E-05-1.41012E-05-2.34034E-15 3.13126E-14-3.14158E-14-1.23217E-13
 -1        18-2.11518E-05-2.11518E-05-1.44595E-13-4.57206E-14-1.46704E-14 8.08012E-14
 -1        19-2.11518E-05-2.11518E-05 2.86996E-14 4.37846E-15-3.30844E-14 4.65716E-21
 -1        20-1.41012E-05-1.41012E-05-3.81059E-14 3.78303E-15-6.97094E-15 2.17068E-15
 -1        21-1.41012E-05-1.41012E-05 8.05966E-15-1.98533E-15 1.01976E-14-3.99906E-14
 -1        22-1.41012E-05-1.41012E-05-4.73342E-14 1.97494E-14-4.51625E-15 1.29710E-14
 -1        23-1.41012E-05-1.41012E-05-5.56023E-15-4.05749E-14 3.03940E-14-3.87573E-14
 -1        24-2.11518E-05-2.11518E-05-1.02918E-13 6.43417E-14 2.44508E-14 9.30485E-14
 -1        25-2.11518E-05-2.11518E-05-1.09455E-13-1.34790E-13-9.90026E-14 1.98335E-19
 -1        26-1.41012E-05-1.41012E-05 8.56758E-14-8.75486E-14 5.02337E-14 1.86323E-14
 -1        27-1.41012E-05-1.41012E-05-4.98274E-14-3.26756E-14-4.17524E-14 5.08820E-14
 -1        28-1.41012E-05-1.41012E-05 3.39717E-13-1.44194E-13 7.58402E-15-7.24885E-14
 -1        29-1.41012E-05-1.41012E-05 5.85026E-14 6.31974E-14-1.45816E-13-1.17275E-13
 -1        30-2.11518E-05-2.11518E-05 1.29582E-13 9.60848E-14 6.11824E-14-2.57274E-14
 -1        31-4.23037E-05-4.23037E-05 9.41671E-14 6.78742E-14 2.26937E-13-2.87733E-19
 -1        32-2.11518E-05-2.11518E-05 1.43345E-13 3.74045E-14 1.93627E-14-1.21301E-14
 -1        33-2.11518E-05-2.11518E-05-1.07908E-13 1.12266E-13 1.07388E-13 1.07736E-14
 -1        34-2.11518E-05-2.11518E-05-4.34666E-15-1.97682E-14 2.28246E-14 1.22768E-13
 -1        35-2.11518E-05-2.11518E-05-1.92057E-13 1.12394E-13 1.14625E-16-4.23820E-14
 -1        36-4.23037E-05-4.23037E-05-3.32102E-13 8.89713E-14 9.60959E-14 2.61620E-13
 -1        37-4.23037E-05-4.23037E-05 3.05582E-21-1.10645E-21 1.36122E-22-4.99753E-21
 -1        38-2.11518E-05-2.11518E-05 1.66154E-22-5.78110E-21 2.89400E-21 4.02065E-23
 -1        39-2.11518E-05-2.11518E-05-2.68528E-14-1.61550E-14 1.38134E-14 6.23435E-14
 -1        40-2.11518E-05-2.11518E-05-8.42015E-15-3.80115E-16-7.68964E-15-4.63953E-14
 -1        41-2.11518E-05-2.11518E-05-6.59086E-14 8.95010E-14 2.58428E-15 5.21646E-14
 -1        42-4.23037E-05-4.23037E-05 1.10247E-15-3.36541E-13 1.84015E-14-3.77842E-14
 -1        43-2.11518E-05-2.11518E-05-5.70223E-21 2.04961E-21 1.14349E-21 1.67257E-22
 -1        44-1.41012E-05-1.41012E-05-4.13352E-22-2.11885E-21-7.46405E-22-1.74930E-21
 -1        45-1.41012E-05-1.41012E-05-6.66527E-14-4.67152E-15 4.25852E-15-2.36212E-14
 -1        46-1.41012E-05-1.41012E-05-9.02026E-14 4.24248E-15-1.98443E-15 4.70871E-14
 -1        47-1.41012E-05-1.41012E-05-3.40800E-14-8.79553E-14-5.08790E-15 1.59223E-14
 -1        48-2.11518E-05-2.11518E-05 3.18807E-14 4.57382E-14 2.31640E-14 6.88053E-16
 -1        49-2.11518E-05-2.11518E-05 5.69072E-14 4.37847E-15 2.21525E-14-1.38276E-15
 -1        50-1.41012E-05-1.41012E-05-2.78123E-14 5.38471E-15-7.92679E-14 1.04779E-16
 -1        51-1.41012E-05-1.41012E-05 3.46475E-14 8.16838E-14-4.44798E-14-3.77086E-14
 -1        52-1.41012E-05-1.41012E-05-3.45303E-14 9.02832E-14 2.07536E-14 2.18207E-14
 -1        53-1.41012E-05-1.41012E-05-1.17461E-14-1.29003E-13-3.72264E-14 1.89927E-13
 -1        54-2.11518E-05-2.11518E-05 3.40131E-14 1.28730E-13 1.75632E-14-2.07557E-13
 -1        55-2.11518E-05-2.11518E-05 3.97009E-14-6.18431E-14 8.38884E-14-4.15707E-15
 -1        56-1.41012E-05-1.41012E-05-4.39070E-14-3.87630E-14 4.60959E-14-6.00707E-16
 -1        57-1.41012E-05-1.41012E-05-5.21017E-14 3.04059E-14 4.95241E-14 4.16673E-14
 -1        58-1.41012E-05-1.41012E-05-7.80049E-14-4.07803E-14-3.42245E-14 4.90124E-14
 -1        59-1.41012E-05-1.41012E-05 1.33215E-13-1.03791E-13-8.95641E-15-4.75603E-14
 -1        60-2.11518E-05-2.11518E-05 1.78519E-13-2.50751E-14 1.20129E-13 4.97980E-14
 -1        61-2.11518E-05-2.11518E-05 3.66245E-15 2.46282E-13-2.49995E-13 1.88142E-14
 -1        62-1.41012E-05-1.41012E-05-1.54161E-13 1.29093E-13 6.55735E-14 3.11750E-14
 -1        63-1.41012E-05-1.41012E-05-1.23362E-13 6.64506E-14-1.01058E-13 1.99069E-14
 -1        64-1.41012E-05-1.41012E-05-1.73724E-13 6.59966E-14 1.99297E-14 1.12083E-13
 -1        65-1.41012E-05-1.41012E-05-1.00881E-13-2.09011E-14 7.55929E-14 1.60664E-13
 -1        66-2.11518E-05-2.11518E-05-2.87496E-14 1.50312E-13-4.54364E-14-1.90038E-13
 -1        67-4.23037E-05-4.23037E-05 1.52074E-13 9.44391E-14 9.73440E-14-7.57380E-14
 -1        68-2.11518E-05-2.11518E-05-3.00574E-13-5.42255E-15-3.06881E-14-4.99989E-14
 -1        69-2.11518E-05-2.11518E-05 4.79736E-14-1.04430E-13 5.68920E-14 5.45331E-14
 -1        70-2.11518E-05-2.11518E-05 3.57013E-15-8.12444E-14-1.02202E-13-1.69929E-13
 -1        71-2.11518E-05-2.11518E-05 1.02781E-13-1.61763E-13 1.26526E-13-7.19324E-14
 -1        72-4.23037E-05-4.23037E-05 2.14304E-13-1.89595E-13-7.35275E-14 3.14130E-13
 -3
    1PSTEP                        96          32           1          
  100CL  132 2.46781E-01          72                     0   32           1
 -4  TOSTRAIN    6    1
 -5  EXX         1    4    1    1
 -5  EYY         1    4    2    2
 -5  EZZ         1    4    3    3
 -5  EXY         1    4    1    2
 -5  EYZ         1    4    2    3
 -5  EZX         1    4    3    1
 -1         1-1.41012E-10-1.41012E-10 1.20868E-10 5.42217E-27 1.29505E-28 1.79165E-27
 -1         2-7.05061E-11-7.05061E-11 6.04338E-11 1.09391E-26-6.16476E-28 1.57263E-26
 -1         3-7.05061E-11-7.05061E-11 6.04338E-11 3.73223E-19-7.39715E-26 6.15480E-19
 -1         4-7.05061E-11-7.05061E-11 6.04338E-11 8.76828E-21-2.81227E-25-5.57509E-19
 -1         5-7.05061E-11-7.05061E-11 6.04338E-11-1.53056E-19-1.15590E-24 2.15376E-19
 -1         6-1.41012E-10-1.41012E-10 1.20868E-10 5.92601E-19-9.48663E-25-2.05191E-18
 -1         7-7.05061E-11-7.05061E-11 6.04338E-11 4.85099E-26 6.72217E-27-4.50652E-28
 -1         8-4.70041E-11-4.70041E-11 4.02892E-11 3.78253E-26-1.69751E-26-9.61281E-27
 -1         9-4.70041E-11-4.70041E-11 4.02892E-11 2.06513E-19-3.06455E-20-4.27417E-19
 -1        10-4.70041E-11-4.70041E-11 4.02892E-11 5.68465E-22 1.94502E-20 9.95884E-20
 -1        11-4.70041E-11-4.70041E-11 4.02892E-11 2.07796E-19-4.21625E-20-4.26323E-19
 -1        12-7.05061E-11-7.05061E-11 6.04338E-11-6.43240E-20 8.64382E-20 6.68893E-19
 -1        13-7.05061E-11-7.05061E-11 6.04338E-11 2.74420E-19 1.96396E-19 5.08419E-26
 -1        14-4.70041E-11-4.70041E-11 4.02892E-11 1.88296E-19-2.03070E-19 6.35532E-21
 -1        15-4.70041E-11-4.70041E-11 4.02892E-11-4.11907E-20-3.55463E-19 3.83637E-20
 -1        16-4.70041E-11-4.70041E-11 4.02892E-11-2.10820E-19-4.06877E-20-3.90499E-19
 -1        17-4.70041E-11-4.70041E-11 4.02892E-11 1.93840E-19-1.94479E-19-7.62774E-19
 -1        18-7.05061E-11-7.05061E-11 6.04338E-11-2.83032E-19-9.08167E-20 5.00198E-19
 -1        19-7.05061E-11-7.05061E-11 6.04338E-11 2.71048E-20-2.04808E-19 2.88300E-26
 -1        20-4.70041E-11-4.70041E-11 4.02892E-11 2.34188E-20-4.31534E-20 1.34375E-20
 -1        21-4.70041E-11-4.70041E-11 4.02892E-11-1.22902E-20 6.31277E-20-2.47561E-19
 -1        22-4.70041E-11-4.70041E-11 4.02892E-11 1.22258E-19-2.79577E-20 8.02968E-20
 -1        23-4.70041E-11-4.70041E-11 4.02892E-11-2.51178E-19 1.88153E-19-2.39926E-19
 -1        24-7.05061E-11-7.05061E-11 6.04338E-11 3.98306E-19 1.51362E-19 5.76014E-19
 -1        25-7.05061E-11-7.05061E-11 6.04338E-11-8.34416E-19-6.12873E-19 1.22779E-24
 -1        26-4.70041E-11-4.70041E-11 4.02892E-11-5.41967E-19 3.10970E-19 1.15343E-19
 -1        27-4.70041E-11-4.70041E-11 4.02892E-11-2.02278E-19-2.58467E-19 3.14984E-19
 -1        28-4.70041E-11-4.70041E-11 4.02892E-11-8.92627E-19 4.69487E-20-4.48739E-19
 -1        29-4.70041E-11-4.70041E-11 4.02892E-11 3.91222E-19-9.02669E-19-7.25989E-19
 -1        30-7.05061E-11-7.05061E-11 6.04338E-11 5.94811E-19 3.78748E-19-1.59265E-19
 -1        31-1.41012E-10-1.41012E-10 1.20868E-10 4.20174E-19 1.40485E-18-1.78121E-24
 -1        32-7.05061E-11-7.05061E-11 6.04338E-11 2.31552E-19 1.19864E-19-7.50910E-20
 -1        33-7.05061E-11-7.05061E-11 6.04338E-11 6.94983E-19 6.64783E-19 6.66939E-20
 -1        34-7.05061E-11-7.05061E-11 6.04338E-11-1.22374E-19 1.41295E-19 7.59990E-19
 -1        35-7.05061E-11-7.05061E-11 6.04338E-11 6.95769E-19 7.09584E-22-2.62364E-19
 -1        36-1.41012E-10-1.41012E-10 1.20868E-10 5.50775E-19 5.94879E-19 1.61955E-18
 -1        37-1.41012E-10-1.41012E-10 1.20868E-10-6.84944E-27 8.42658E-28-3.09371E-26
 -1        38-7.05061E-11-7.05061E-11 6.04338E-11-3.57878E-26 1.79152E-26 2.48898E-28
 -1        39-7.05061E-11-7.05061E-11 6.04338E-11-1.00007E-19 8.55116E-20 3.85936E-19
 -1        40-7.05061E-11-7.05061E-11 6.04338E-11-2.35309E-21-4.76025E-20-2.87209E-19
 -1        41-7.05061E-11-7.05061E-11 6.04338E-11 5.54054E-19 1.59979E-20 3.22924E-19
 -1        42-1.41012E-10-1.41012E-10 1.20868E-10-2.08335E-18 1.13914E-19-2.33902E-19
 -1        43-7.05061E-11-7.05061E-11 6.04338E-11 1.26880E-26 7.07874E-27 1.03540E-27
 -1        44-4.70041E-11-4.70041E-11 4.02892E-11-1.31167E-26-4.62060E-27-1.08290E-26
 -1        45-4.70041E-11-4.70041E-11 4.02892E-11-2.89189E-20 2.63623E-20-1.46227E-19
 -1        46-4.70041E-11-4.70041E-11 4.02892E-11 2.62630E-20-1.22846E-20 2.91491E-19
 -1        47-4.70041E-11-4.70041E-11 4.02892E-11-5.44485E-19-3.14965E-20 9.85663E-20
 -1        48-7.05061E-11-7.05061E-11 6.04338E-11 2.83141E-19 1.43396E-19 4.25937E-21
 -1        49-7.05061E-11-7.05061E-11 6.04338E-11 2.71048E-20 1.37134E-19-8.55997E-21
 -1        50-4.70041E-11-4.70041E-11 4.02892E-11 3.33339E-20-4.90706E-19 6.48632E-22
 -1        51-4.70041E-11-4.70041E-11 4.02892E-11 5.05662E-19-2.75351E-19-2.33434E-19
 -1        52-4.70041E-11-4.70041E-11 4.02892E-11 5.58896E-19 1.28475E-19 1.35081E-19
 -1        53-4.70041E-11-4.70041E-11 4.02892E-11-7.98589E-19-2.30449E-19 1.17574E-18
 -1        54-7.05061E-11-7.05061E-11 6.04338E-11 7.96899E-19 1.08724E-19-1.28488E-18
 -1        55-7.05061E-11-7.05061E-11 6.04338E-11-3.82839E-19 5.19309E-19-2.57343E-20
 -1        56-4.70041E-11-4.70041E-11 4.02892E-11-2.39962E-19 2.85355E-19-3.71866E-21
 -1        57-4.70041E-11-4.70041E-11 4.02892E-11 1.88227E-19 3.06578E-19 2.57940E-19
 -1        58-4.70041E-11-4.70041E-11 4.02892E-11-2.52449E-19-2.11866E-19 3.03410E-19
 -1        59-4.70041E-11-4.70041E-11 4.02892E-11-6.42516E-19-5.54445E-20-2.94421E-19
 -1        60-7.05061E-11-7.05061E-11 6.04338E-11-1.55227E-19 7.43658E-19 3.08274E-19
 -1        61-7.05061E-11-7.05061E-11 6.04338E-11 1.52460E-18-1.54759E-18 1.16469E-19
 -1        62-4.70041E-11-4.70041E-11 4.02892E-11 7.99149E-19 4.05931E-19 1.92988E-19
 -1        63-4.70041E-11-4.70041E-11 4.02892E-11 4.11361E-19-6.25597E-19 1.23233E-19
 -1        64-4.70041E-11-4.70041E-11 4.02892E-11 4.08550E-19 1.23375E-19 6.93850E-19
 -1        65-4.70041E-11-4.70041E-11 4.02892E-11-1.29388E-19 4.67956E-19 9.94589E-19
 -1        66-7.05061E-11-7.05061E-11 6.04338E-11 9.30504E-19-2.81273E-19-1.17643E-18
 -1        67-1.41012E-10-1.41012E-10 1.20868E-10 5.84623E-19 6.02606E-19-4.68854E-19
 -1        68-7.05061E-11-7.05061E-11 6.04338E-11-3.35682E-20-1.89974E-19-3.09517E-19
 -1        69-7.05061E-11-7.05061E-11 6.04338E-11-6.46472E-19 3.52188E-19 3.37586E-19
 -1        70-7.05061E-11-7.05061E-11 6.04338E-11-5.02941E-19-6.32678E-19-1.05194E-18
 -1        71-7.05061E-11-7.05061E-11 6.04338E-11-1.00139E-18 7.83254E-19-4.45296E-19
 -1        72-1.41012E-10-1.41012E-10 1.20868E-10-1.17368E-18-4.55171E-19 1.94461E-18
 -3
    1PSTEP                        97          33           1          
  100CL  133 2.55781E-01          72                     0   33           1
 -4  DISP        4    1
 -5  D1          1    2    1    0
 -5  D2          1    2    2    0
 -5  D3          1    2    3    0
 -5  ALL         1    2    0    0    1ALL
 -1         1 0.00000E+00 0.00000E+00 0.00000E+00
 -1         2-7.30804E-08 0.00000E+00 0.00000E+00
 -1         3-3.83672E+00 0.00000E+00 0.00000E+00
 -1         4-3.83672E+00 0.00000E+00 0.00000E+00
 -1         5-7.67344E+00 0.00000E+00 0.00000E+00
 -1         6-7.67344E+00 0.00000E+00 0.00000E+00
 -1         7 0.00000E+00-7.30804E-08 0.00000E+00
 -1         8-7.30804E-08-7.30804E-08 0.00000E+00
 -1         9-3.83672E+00-7.30804E-08 0.00000E+00
 -1        10-3.83672E+00-7.30804E-08 0.00000E+00
 -1        11-7.67344E+00-7.30804E-08 0.00000E+00
 -1        12-7.67344E+00-7.30804E-08 0.00000E+00
 -1        13 0.00000E+00-3.83672E+00 0.00000E+00
 -1        14-7.30804E-08-3.83672E+00 0.00000E+00
 -1        15-3.83672E+00-3.83672E+00 0.00000E+00
 -1        16-3.83672E+00-3.83672E+00 0.00000E+00
 -1        17-7.67344E+00-3.83672E+00 0.00000E+00
 -1        18-7.67344E+00-3.83672E+00 0.00000E+00
 -1        19 0.00000E+00-3.83672E+00 0.00000E+00
 -1        20-7.30804E-08-3.83672E+00 0.00000E+00
 -1        21-3.83672E+00-3.83672E+00 0.00000E+00
 -1        22-3.83672E+00-3.83672E+00 0.00000E+00
 -1        23-7.67344E+00-3.83672E+00 0.00000E+00
 -1        24-7.67344E+00-3.83672E+00 0.00000E+00
 -1        25 0.00000E+00-7.67344E+00 0.00000E+00
 -1        26-7.30804E-08-7.67344E+00 0.00000E+00
 -1        27-3.83672E+00-7.67344E+00 0.00000E+00
 -1        28-3.83672E+00-7.67344E+00 0.00000E+00
 -1        29-7.67344E+00-7.67344E+00 0.00000E+00
 -1        30-7.67344E+00-7.67344E+00 0.00000E+00
 -1        31 0.00000E+00-7.67344E+00 0.00000E+00
 -1        32-7.30804E-08-7.67344E+00 0.00000E+00
 -1        33-3.83672E+00-7.67344E+00 0.00000E+00
 -1        34-3.83672E+00-7.67344E+00 0.00000E+00
 -1        35-7.67344E+00-7.67344E+00 0.00000E+00
 -1        36-7.67344E+00-7.67344E+00 0.00000E+00
 -1        37 0.00000E+00 0.00000E+00 8.76964E-08
 -1        38-7.30804E-08 0.00000E+00 8.76964E-08
 -1        39-3.83672E+00 0.00000E+00 8.76964E-08
 -1        40-3.83672E+00 0.00000E+00 8.76964E-08
 -1        41-7.67344E+00 0.00000E+00 8.76964E-08
 -1        42-7.67344E+00 0.00000E+00 8.76964E-08
 -1        43 0.00000E+00-7.30804E-08 8.76964E-08
 -1        44-7.30804E-08-7.30804E-08 8.76964E-08
 -1        45-3.83672E+00-7.30804E-08 8.76964E-08
 -1        46-3.83672E+00-7.30804E-08 8.76964E-08
 -1        47-7.67344E+00-7.30804E-08 8.76964E-08
 -1        48-7.67344E+00-7.30804E-08 8.76964E-08
 -1        49 0.00000E+00-3.83672E+00 8.76964E-08
 -1        50-7.30804E-08-3.83672E+00 8.76964E-08
 -1        51-3.83672E+00-3.83672E+00 8.76964E-08
 -1        52-3.83672E+00-3.83672E+00 8.76964E-08
 -1        53-7.67344E+00-3.83672E+00 8.76964E-08
 -1        54-7.67344E+00-3.83672E+00 8.76964E-08
 -1        55 0.00000E+00-3.83672E+00 8.76964E-08
 -1        56-7.30804E-08-3.83672E+00 8.76964E-08
 -1        57-3.83672E+00-3.83672E+00 8.76964E-08
 -1        58-3.83672E+00-3.83672E+00 8.76964E-08
 -1        59-7.67344E+00-3.83672E+00 8.76964E-08
 -1        60-7.67344E+00-3.83672E+00 8.76964E-08
 -1        61 0.00000E+00-7.67344E+00 8.76964E-08
 -1        62-7.30804E-08-7.67344E+00 8.76964E-08
 -1        63-3.83672E+00-7.67344E+00 8.76964E-08
 -1        64-3.83672E+00-7.67344E+00 8.76964E-08
 -1        65-7.67344E+00-7.67344E+00 8.76964E-08
 -1        66-7.67344E+00-7.67344E+00 8.76964E-08
 -1        67 0.00000E+00-7.67344E+00 8.76964E-08
 -1        68-7.30804E-08-7.67344E+00 8.76964E-08
 -1        69-3.83672E+00-7.67344E+00 8.76964E-08
 -1        70-3.83672E+00-7.67344E+00 8.76964E-08
 -1        71-7.67344E+00-7.67344E+00 8.76964E-08
 -1        72-7.67344E+00-7.67344E+00 8.76964E-08
 -3
    1PSTEP                        98          33           1          
  100CL  133 2.55781E-01          72                     0   33           1
 -4  STRESS      6    1
 -5  SXX         1    4    1    1
 -5  SYY         1    4    2    2
 -5  SZZ         1    4    3    3
 -5  SXY         1    4    1    2
 -5  SYZ         1    4    2    3
 -5  SZX         1    4    3    1
 -1         1-4.38465E-05-4.38465E-05 1.72727E-20-4.24928E-23-1.23318E-22 6.14993E-22
 -1         2-2.19232E-05-2.19232E-05 1.40635E-21 4.97914E-21 2.02885E-23-1.27974E-21
 -1         3-2.19232E-05-2.19232E-05 1.12955E-14 5.09287E-15-9.38140E-22-1.51385E-14
 -1         4-2.19232E-05-2.19232E-05 5.19428E-14-1.90094E-14-7.03882E-20 8.68332E-14
 -1         5-2.19232E-05-2.19232E-05-2.71413E-13-1.62175E-13 3.23406E-19-1.17208E-14
 -1         6-4.38465E-05-4.38465E-05-2.14442E-13 2.88547E-13-3.27482E-19-1.88503E-13
 -1         7-2.19232E-05-2.19232E-05-8.18247E-21-3.89710E-21 4.67158E-22-5.90623E-22
 -1         8-1.46155E-05-1.46155E-05 5.75757E-21 7.35520E-22 2.59374E-21-2.50519E-21
 -1         9-1.46155E-05-1.46155E-05 2.04455E-14-1.76656E-14-1.22807E-14-1.61646E-14
 -1        10-1.46155E-05-1.46155E-05-4.69725E-14-1.02389E-14 1.23781E-14-1.51483E-14
 -1        11-1.46155E-05-1.46155E-05 1.50882E-13-9.11902E-14-2.04985E-15-8.21204E-15
 -1        12-2.19232E-05-2.19232E-05 9.35316E-15-3.02874E-14 1.16767E-14 8.29504E-14
 -1        13-2.19232E-05-2.19232E-05-1.74746E-13-1.75345E-14 4.69108E-14-1.84517E-20
 -1        14-1.46155E-05-1.46155E-05-2.62885E-14-6.52596E-15-3.56906E-14 5.86888E-15
 -1        15-1.46155E-05-1.46155E-05 4.39044E-14 6.27218E-15-4.62788E-14-2.10247E-14
 -1        16-1.46155E-05-1.46155E-05 1.37544E-14 2.45056E-14 1.54524E-15 9.46230E-14
 -1        17-1.46155E-05-1.46155E-05-4.63263E-14 8.21462E-14 1.52715E-14-1.17238E-14
 -1        18-2.19232E-05-2.19232E-05-4.27187E-14-8.40674E-15 3.27235E-14 2.49131E-13
 -1        19-2.19232E-05-2.19232E-05-1.97910E-13 5.78733E-15 2.35165E-14-6.83751E-21
 -1        20-1.46155E-05-1.46155E-05-2.28256E-14 9.02195E-15 1.54781E-14 3.60894E-16
 -1        21-1.46155E-05-1.46155E-05 9.26529E-14-1.76763E-14 1.64650E-14 4.62120E-14
 -1        22-1.46155E-05-1.46155E-05 3.16045E-14 4.96934E-14-4.12231E-14-3.66880E-14
 -1        23-1.46155E-05-1.46155E-05 1.21946E-13 9.97262E-14-4.72480E-14-1.75424E-14
 -1        24-2.19232E-05-2.19232E-05 1.14623E-13-1.05063E-13 1.23489E-14-8.42050E-14
 -1        25-2.19232E-05-2.19232E-05 2.47766E-13 3.26813E-14-3.47718E-14-8.99113E-20
 -1        26-1.46155E-05-1.46155E-05-4.80644E-15 1.30032E-14-6.07362E-14 4.99145E-15
 -1        27-1.46155E-05-1.46155E-05-2.20856E-13 1.29869E-14 8.29521E-14-1.79439E-14
 -1        28-1.46155E-05-1.46155E-05-4.60794E-14 1.40217E-13-1.95381E-13-3.92067E-14
 -1        29-1.46155E-05-1.46155E-05-1.64833E-13 9.18825E-14-1.66277E-14 3.66482E-14
 -1        30-2.19232E-05-2.19232E-05 4.10806E-13 1.54136E-14 2.13053E-14 1.71847E-13
 -1        31-4.38465E-05-4.38465E-05 6.73142E-13-1.75139E-14 3.05341E-14-1.91735E-19
 -1        32-2.19232E-05-2.19232E-05 5.45869E-14-2.19335E-14 2.20453E-15 1.67190E-14
 -1        33-2.19232E-05-2.19232E-05 2.08483E-13-1.23386E-13-6.81363E-14 4.12659E-14
 -1        34-2.19232E-05-2.19232E-05-6.67846E-14-4.08435E-14 2.08394E-13 2.19073E-14
 -1        35-2.19232E-05-2.19232E-05-5.65088E-14 2.36682E-13-4.02259E-15 3.49417E-14
 -1        36-4.38465E-05-4.38465E-05 6.63009E-13-2.86743E-13 6.84815E-14-4.62858E-13
 -1        37-4.38465E-05-4.38465E-05-3.32308E-22-5.35739E-23-4.64953E-21 5.81925E-21
 -1        38-2.19232E-05-2.19232E-05 6.48841E-21-5.06901E-22-6.62898E-22 1.89551E-21
 -1        39-2.19232E-05-2.19232E-05-3.85049E-14-1.20697E-14 3.03966E-14 3.26697E-14
 -1        40-2.19232E-05-2.19232E-05 7.98180E-14 4.50440E-14-2.63132E-14 5.38973E-14
 -1        41-2.19232E-05-2.19232E-05 9.73037E-14 1.95129E-13 6.72262E-14-9.91013E-14
 -1        42-4.38465E-05-4.38465E-05 5.84950E-13-3.68762E-13-1.70479E-13-1.91561E-13
 -1        43-2.19232E-05-2.19232E-05-1.32647E-20 1.87145E-21-3.93494E-21 1.99744E-21
 -1        44-1.46155E-05-1.46155E-05-1.10769E-22 9.27558E-22 2.52037E-21-2.20581E-21
 -1        45-1.46155E-05-1.46155E-05 1.12031E-13 7.01778E-15 7.98363E-15-3.65223E-14
 -1        46-1.46155E-05-1.46155E-05 9.63968E-14 6.10048E-14-5.16396E-15-2.10826E-14
 -1        47-1.46155E-05-1.46155E-05 2.63326E-15 1.06293E-13 4.27674E-14-5.83333E-14
 -1        48-2.19232E-05-2.19232E-05-1.82042E-13-3.32561E-14-7.35626E-14 1.84624E-13
 -1        49-2.19232E-05-2.19232E-05 1.79361E-13 6.64573E-14-1.57537E-13-9.59368E-15
 -1        50-1.46155E-05-1.46155E-05-5.94921E-14 4.17574E-14 4.68267E-14-5.26889E-16
 -1        51-1.46155E-05-1.46155E-05-5.38045E-14 4.59021E-14-1.72530E-14 3.10543E-14
 -1        52-1.46155E-05-1.46155E-05 8.26413E-14 3.81053E-15-1.38283E-14-1.24397E-14
 -1        53-1.46155E-05-1.46155E-05 8.41475E-14-3.21231E-14-8.27997E-14-4.03105E-14
 -1        54-2.19232E-05-2.19232E-05 3.11582E-13 1.30630E-13 8.08593E-14-1.31493E-13
 -1        55-2.19232E-05-2.19232E-05 1.38847E-13-7.44127E-14 4.59566E-15 1.74960E-15
 -1        56-1.46155E-05-1.46155E-05-6.75959E-14-5.21559E-14 9.33828E-15 1.52730E-15
 -1        57-1.46155E-05-1.46155E-05-1.73412E-13 5.35761E-14 4.06831E-14 2.21544E-14
 -1        58-1.46155E-05-1.46155E-05-7.92397E-14-6.83009E-14-3.86535E-14 1.52054E-14
 -1        59-1.46155E-05-1.46155E-05-6.87522E-14-3.08836E-14 8.75121E-14-1.11254E-13
 -1        60-2.19232E-05-2.19232E-05-6.40240E-14 3.22142E-14 2.15378E-16 1.65513E-13
 -1        61-2.19232E-05-2.19232E-05-1.59121E-13-8.75688E-15-1.09834E-13-1.20009E-15
 -1        62-1.46155E-05-1.46155E-05 5.23195E-14-6.00594E-15 5.97343E-14 4.19145E-15
 -1        63-1.46155E-05-1.46155E-05 2.04576E-15-5.37726E-14-1.17829E-13-9.50443E-14
 -1        64-1.46155E-05-1.46155E-05-1.16364E-13 1.00124E-14 1.07099E-14 8.47017E-14
 -1        65-1.46155E-05-1.46155E-05-2.52391E-13-5.76639E-14-2.42028E-14-8.06171E-15
 -1        66-2.19232E-05-2.19232E-05-2.02032E-13-8.56245E-14 1.31203E-13-9.45683E-14
 -1        67-4.38465E-05-4.38465E-05-1.01858E-13 4.69263E-15 1.24575E-13-2.40069E-14
 -1        68-2.19232E-05-2.19232E-05 1.59663E-13 2.09429E-15 1.00234E-13 4.71563E-15
 -1        69-2.19232E-05-2.19232E-05 6.36509E-14-4.94176E-14 1.40827E-13 1.17136E-13
 -1        70-2.19232E-05-2.19232E-05 3.11315E-14 1.08589E-13-1.88753E-14-3.29763E-14
 -1        71-2.19232E-05-2.19232E-05 1.58180E-13-3.37228E-13 9.48495E-14-6.28242E-14
 -1        72-4.38465E-05-4.38465E-05-3.48381E-13 1.31551E-13-3.72758E-14 5.80974E-13
 -3
    1PSTEP                        99          33           1          
  100CL  133 2.55781E-01          72                     0   33           1
 -4  TOSTRAIN    6    1
 -5  EXX         1    4    1    1
 -5  EYY         1    4    2    2
 -5  EZZ         1    4    3    3
 -5  EXY         1    4    1    2
 -5  EYZ         1    4    2    3
 -5  EZX         1    4    3    1
 -1         1-1.46155E-10-1.46155E-10 1.25276E-10-2.63050E-28-7.63397E-28 3.80710E-27
 -1         2-7.30774E-11-7.30774E-11 6.26378E-11 3.08232E-26 1.25595E-28-7.92223E-27
 -1         3-7.30774E-11-7.30774E-11 6.26378E-11 3.15273E-20-5.80753E-27-9.37143E-20
 -1         4-7.30774E-11-7.30774E-11 6.26378E-11-1.17677E-19-4.35737E-25 5.37539E-19
 -1         5-7.30774E-11-7.30774E-11 6.26378E-11-1.00394E-18 2.00204E-24-7.25574E-20
 -1         6-1.46155E-10-1.46155E-10 1.25276E-10 1.78624E-18-2.02727E-24-1.16692E-18
 -1         7-7.30774E-11-7.30774E-11 6.26378E-11-2.41249E-26 2.89193E-27-3.65624E-27
 -1         8-4.87183E-11-4.87183E-11 4.17585E-11 4.55322E-27 1.60565E-26-1.55083E-26
 -1         9-4.87183E-11-4.87183E-11 4.17585E-11-1.09358E-19-7.60237E-20-1.00067E-19
 -1        10-4.87183E-11-4.87183E-11 4.17585E-11-6.33838E-20 7.66265E-20-9.37750E-20
 -1        11-4.87183E-11-4.87183E-11 4.17585E-11-5.64511E-19-1.26895E-20-5.08364E-20
 -1        12-7.30774E-11-7.30774E-11 6.26378E-11-1.87493E-19 7.22840E-20 5.13503E-19
 -1        13-7.30774E-11-7.30774E-11 6.26378E-11-1.08547E-19 2.90400E-19-1.14225E-25
 -1        14-4.87183E-11-4.87183E-11 4.17585E-11-4.03988E-20-2.20942E-19 3.63312E-20
 -1        15-4.87183E-11-4.87183E-11 4.17585E-11 3.88278E-20-2.86488E-19-1.30153E-19
 -1        16-4.87183E-11-4.87183E-11 4.17585E-11 1.51701E-19 9.56577E-21 5.85761E-19
 -1        17-4.87183E-11-4.87183E-11 4.17585E-11 5.08524E-19 9.45380E-20-7.25761E-20
 -1        18-7.30774E-11-7.30774E-11 6.26378E-11-5.20417E-20 2.02574E-19 1.54224E-18
 -1        19-7.30774E-11-7.30774E-11 6.26378E-11 3.58263E-20 1.45578E-19-4.23274E-26
 -1        20-4.87183E-11-4.87183E-11 4.17585E-11 5.58502E-20 9.58167E-20 2.23411E-21
 -1        21-4.87183E-11-4.87183E-11 4.17585E-11-1.09425E-19 1.01926E-19 2.86075E-19
 -1        22-4.87183E-11-4.87183E-11 4.17585E-11 3.07626E-19-2.55191E-19-2.27116E-19
 -1        23-4.87183E-11-4.87183E-11 4.17585E-11 6.17353E-19-2.92487E-19-1.08596E-19
 -1        24-7.30774E-11-7.30774E-11 6.26378E-11-6.50388E-19 7.64454E-20-5.21269E-19
 -1        25-7.30774E-11-7.30774E-11 6.26378E-11 2.02313E-19-2.15254E-19-5.56594E-25
 -1        26-4.87183E-11-4.87183E-11 4.17585E-11 8.04957E-20-3.75986E-19 3.08995E-20
 -1        27-4.87183E-11-4.87183E-11 4.17585E-11 8.03954E-20 5.13513E-19-1.11081E-19
 -1        28-4.87183E-11-4.87183E-11 4.17585E-11 8.68009E-19-1.20950E-18-2.42708E-19
 -1        29-4.87183E-11-4.87183E-11 4.17585E-11 5.68796E-19-1.02933E-19 2.26870E-19
 -1        30-7.30774E-11-7.30774E-11 6.26378E-11 9.54174E-20 1.31890E-19 1.06382E-18
 -1        31-1.46155E-10-1.46155E-10 1.25276E-10-1.08419E-19 1.89021E-19-1.18693E-24
 -1        32-7.30774E-11-7.30774E-11 6.26378E-11-1.35779E-19 1.36471E-20 1.03498E-19
 -1        33-7.30774E-11-7.30774E-11 6.26378E-11-7.63816E-19-4.21796E-19 2.55455E-19
 -1        34-7.30774E-11-7.30774E-11 6.26378E-11-2.52841E-19 1.29006E-18 1.35616E-19
 -1        35-7.30774E-11-7.30774E-11 6.26378E-11 1.46518E-18-2.49018E-20 2.16306E-19
 -1        36-1.46155E-10-1.46155E-10 1.25276E-10-1.77508E-18 4.23933E-19-2.86531E-18
 -1        37-1.46155E-10-1.46155E-10 1.25276E-10-3.31648E-28-2.87828E-26 3.60239E-26
 -1        38-7.30774E-11-7.30774E-11 6.26378E-11-3.13796E-27-4.10366E-27 1.17341E-26
 -1        39-7.30774E-11-7.30774E-11 6.26378E-11-7.47174E-20 1.88169E-19 2.02241E-19
 -1        40-7.30774E-11-7.30774E-11 6.26378E-11 2.78844E-19-1.62891E-19 3.33650E-19
 -1        41-7.30774E-11-7.30774E-11 6.26378E-11 1.20794E-18 4.16162E-19-6.13484E-19
 -1        42-1.46155E-10-1.46155E-10 1.25276E-10-2.28281E-18-1.05535E-18-1.18585E-18
 -1        43-7.30774E-11-7.30774E-11 6.26378E-11 1.15852E-26-2.43591E-26 1.23651E-26
 -1        44-4.87183E-11-4.87183E-11 4.17585E-11 5.74203E-27 1.56023E-26-1.36550E-26
 -1        45-4.87183E-11-4.87183E-11 4.17585E-11 4.34434E-20 4.94225E-20-2.26090E-19
 -1        46-4.87183E-11-4.87183E-11 4.17585E-11 3.77649E-19-3.19674E-20-1.30511E-19
 -1        47-4.87183E-11-4.87183E-11 4.17585E-11 6.58002E-19 2.64751E-19-3.61111E-19
 -1        48-7.30774E-11-7.30774E-11 6.26378E-11-2.05871E-19-4.55388E-19 1.14291E-18
 -1        49-7.30774E-11-7.30774E-11 6.26378E-11 4.11402E-19-9.75230E-19-5.93894E-20
 -1        50-4.87183E-11-4.87183E-11 4.17585E-11 2.58498E-19 2.89880E-19-3.26169E-21
 -1        51-4.87183E-11-4.87183E-11 4.17585E-11 2.84156E-19-1.06804E-19 1.92241E-19
 -1        52-4.87183E-11-4.87183E-11 4.17585E-11 2.35890E-20-8.56037E-20-7.70075E-20
 -1        53-4.87183E-11-4.87183E-11 4.17585E-11-1.98857E-19-5.12570E-19-2.49541E-19
 -1        54-7.30774E-11-7.30774E-11 6.26378E-11 8.08662E-19 5.00557E-19-8.14002E-19
 -1        55-7.30774E-11-7.30774E-11 6.26378E-11-4.60650E-19 2.84493E-20 1.08308E-20
 -1        56-4.87183E-11-4.87183E-11 4.17585E-11-3.22870E-19 5.78084E-20 9.45469E-21
 -1        57-4.87183E-11-4.87183E-11 4.17585E-11 3.31662E-19 2.51847E-19 1.37146E-19
 -1        58-4.87183E-11-4.87183E-11 4.17585E-11-4.22815E-19-2.39284E-19 9.41287E-20
 -1        59-4.87183E-11-4.87183E-11 4.17585E-11-1.91184E-19 5.41742E-19-6.88716E-19
 -1        60-7.30774E-11-7.30774E-11 6.26378E-11 1.99421E-19 1.33329E-21 1.02460E-18
 -1        61-7.30774E-11-7.30774E-11 6.26378E-11-5.42093E-20-6.79923E-19-7.42915E-21
 -1        62-4.87183E-11-4.87183E-11 4.17585E-11-3.71796E-20 3.69784E-19 2.59471E-20
 -1        63-4.87183E-11-4.87183E-11 4.17585E-11-3.32878E-19-7.29419E-19-5.88370E-19
 -1        64-4.87183E-11-4.87183E-11 4.17585E-11 6.19813E-20 6.62995E-20 5.24344E-19
 -1        65-4.87183E-11-4.87183E-11 4.17585E-11-3.56967E-19-1.49827E-19-4.99058E-20
 -1        66-7.30774E-11-7.30774E-11 6.26378E-11-5.30057E-19 8.12207E-19-5.85423E-19
 -1        67-1.46155E-10-1.46155E-10 1.25276E-10 2.90496E-20 7.71176E-19-1.48614E-19
 -1        68-7.30774E-11-7.30774E-11 6.26378E-11 1.29647E-20 6.20498E-19 2.91920E-20
 -1        69-7.30774E-11-7.30774E-11 6.26378E-11-3.05918E-19 8.71788E-19 7.25129E-19
 -1        70-7.30774E-11-7.30774E-11 6.26378E-11 6.72217E-19-1.16847E-19-2.04139E-19
 -1        71-7.30774E-11-7.30774E-11 6.26378E-11-2.08760E-18 5.87163E-19-3.88912E-19
 -1        72-1.46155E-10-1.46155E-10 1.25276E-10 8.14364E-19-2.30755E-19 3.59651E-18
 -3
    1PSTEP                       100          34           1          
  100CL  134 2.64781E-01          72                     0   34           1
 -4  DISP        4    1
 -5  D1          1    2    1    0
 -5  D2          1    2    2    0
 -5  D3          1    2    3    0
 -5  ALL         1    2    0    0    1ALL
 -1         1 0.00000E+00 0.00000E+00 0.00000E+00
 -1         2-7.56518E-08 0.00000E+00 0.00000E+00
 -1         3-3.97172E+00 0.00000E+00 0.00000E+00
 -1         4-3.97172E+00 0.00000E+00 0.00000E+00
 -1         5-7.94344E+00 0.00000E+00 0.00000E+00
 -1         6-7.94344E+00 0.00000E+00 0.00000E+00
 -1         7 0.00000E+00-7.56518E-08 0.00000E+00
 -1         8-7.56518E-08-7.56518E-08 0.00000E+00
 -1         9-3.97172E+00-7.56518E-08 0.00000E+00
 -1        10-3.97172E+00-7.56518E-08 0.00000E+00
 -1        11-7.94344E+00-7.56518E-08 0.00000E+00
 -1        12-7.94344E+00-7.56518E-08 0.00000E+00
 -1        13 0.00000E+00-3.97172E+00 0.00000E+00
 -1        14-7.56518E-08-3.97172E+00 0.00000E+00
 -1        15-3.97172E+00-3.97172E+00 0.00000E+00
 -1        16-3.97172E+00-3.97172E+00 0.00000E+00
 -1        17-7.94344E+00-3.97172E+00 0.00000E+00
 -1        18-7.94344E+00-3.97172E+00 0.00000E+00
 -1        19 0.00000E+00-3.97172E+00 0.00000E+00
 -1        20-7.56518E-08-3.97172E+00 0.00000E+00
 -1        21-3.97172E+00-3.97172E+00 0.00000E+00
 -1        22-3.97172E+00-3.97172E+00 0.00000E+00
 -1        23-7.94344E+00-3.97172E+00 0.00000E+00
 -1        24-7.94344E+00-3.97172E+00 0.00000E+00
 -1        25 0.00000E+00-7.94344E+00 0.00000E+00
 -1        26-7.56518E-08-7.94344E+00 0.00000E+00
 -1        27-3.97172E+00-7.94344E+00 0.00000E+00
 -1        28-3.97172E+00-7.94344E+00 0.00000E+00
 -1        29-7.94344E+00-7.94344E+00 0.00000E+00
 -1        30-7.94344E+00-7.94344E+00 0.00000E+00
 -1        31 0.00000E+00-7.94344E+00 0.00000E+00
 -1        32-7.56518E-08-7.94344E+00 0.00000E+00
 -1        33-3.97172E+00-7.94344E+00 0.00000E+00
 -1        34-3.97172E+00-7.94344E+00 0.00000E+00
 -1        35-7.94344E+00-7.94344E+00 0.00000E+00
 -1        36-7.94344E+00-7.94344E+00 0.00000E+00
 -1        37 0.00000E+00 0.00000E+00 9.07821E-08
 -1        38-7.56518E-08 0.00000E+00 9.07821E-08
 -1        39-3.97172E+00 0.00000E+00 9.07821E-08
 -1        40-3.97172E+00 0.00000E+00 9.07821E-08
 -1        41-7.94344E+00 0.00000E+00 9.07821E-08
 -1        42-7.94344E+00 0.00000E+00 9.07821E-08
 -1        43 0.00000E+00-7.56518E-08 9.07821E-08
 -1        44-7.56518E-08-7.56518E-08 9.07821E-08
 -1        45-3.97172E+00-7.56518E-08 9.07821E-08
 -1        46-3.97172E+00-7.56518E-08 9.07821E-08
 -1        47-7.94344E+00-7.56518E-08 9.07821E-08
 -1        48-7.94344E+00-7.56518E-08 9.07821E-08
 -1        49 0.00000E+00-3.97172E+00 9.07821E-08
 -1        50-7.56518E-08-3.97172E+00 9.07821E-08
 -1        51-3.97172E+00-3.97172E+00 9.07821E-08
 -1        52-3.97172E+00-3.97172E+00 9.07821E-08
 -1        53-7.94344E+00-3.97172E+00 9.07821E-08
 -1        54-7.94344E+00-3.97172E+00 9.07821E-08
 -1        55 0.00000E+00-3.97172E+00 9.07821E-08
 -1        56-7.56518E-08-3.97172E+00 9.07821E-08
 -1        57-3.97172E+00-3.97172E+00 9.07821E-08
 -1        58-3.97172E+00-3.97172E+00 9.07821E-08
 -1        59-7.94344E+00-3.97172E+00 9.07821E-08
 -1        60-7.94344E+00-3.97172E+00 9.07821E-08
 -1        61 0.00000E+00-7.94344E+00 9.07821E-08
 -1        62-7.56518E-08-7.94344E+00 9.07821E-08
 -1        63-3.97172E+00-7.94344E+00 9.07821E-08
 -1        64-3.97172E+00-7.94344E+00 9.07821E-08
 -1        65-7.94344E+00-7.94344E+00 9.07821E-08
 -1        66-7.94344E+00-7.94344E+00 9.07821E-08
 -1        67 0.00000E+00-7.94344E+00 9.07821E-08
 -1        68-7.56518E-08-7.94344E+00 9.07821E-08
 -1        69-3.97172E+00-7.94344E+00 9.07821E-08
 -1        70-3.97172E+00-7.94344E+00 9.07821E-08
 -1        71-7.94344E+00-7.94344E+00 9.07821E-08
 -1        72-7.94344E+00-7.94344E+00 9.07821E-08
 -3
    1PSTEP                       101          34           1          
  100CL  134 2.64781E-01          72                     0   34           1
 -4  STRESS      6    1
 -5  SXX         1    4    1    1
 -5  SYY         1    4    2    2
 -5  SZZ         1    4    3    3
 -5  SXY         1    4    1    2
 -5  SYZ         1    4    2    3
 -5  SZX         1    4    3    1
 -1         1-4.53892E-05-4.53892E-05 2.77694E-20-2.93466E-22 1.11783E-22 8.17910E-22
 -1         2-2.26946E-05-2.26946E-05-2.14780E-21-4.21574E-21-2.08523E-22-6.46009E-21
 -1         3-2.26946E-05-2.26946E-05-3.67616E-14-3.62657E-14-7.51632E-20-4.31329E-14
 -1         4-2.26946E-05-2.26946E-05-4.91238E-14 8.68703E-14-1.94320E-20 9.82719E-14
 -1         5-2.26946E-05-2.26946E-05-3.32553E-14-1.02207E-13-3.98040E-20-4.06414E-15
 -1         6-4.53892E-05-4.53892E-05 1.76842E-14 9.98793E-14-1.40429E-19 1.79034E-13
 -1         7-2.26946E-05-2.26946E-05-2.14780E-21 2.47755E-21-2.77740E-21-4.40450E-22
 -1         8-1.51298E-05-1.51298E-05 6.39255E-21-1.06098E-21-3.07178E-21-3.15291E-22
 -1         9-1.51298E-05-1.51298E-05 3.15330E-14-1.33376E-14-1.35273E-15-5.64744E-15
 -1        10-1.51298E-05-1.51298E-05 4.04255E-14-3.44885E-15 2.21272E-15-1.90068E-14
 -1        11-1.51298E-05-1.51298E-05 4.39839E-15-5.51834E-14 2.01956E-15-1.20953E-14
 -1        12-2.26946E-05-2.26946E-05 4.56861E-14 1.81181E-14-4.20481E-15 2.01640E-13
 -1        13-2.26946E-05-2.26946E-05 2.09910E-14-5.27901E-15-1.08796E-13 1.12005E-20
 -1        14-1.51298E-05-1.51298E-05-3.47570E-15-2.95624E-15-1.04881E-14 4.39012E-15
 -1        15-1.51297E-05-1.51297E-05 6.61272E-14 3.33008E-14-8.70958E-15-1.29587E-14
 -1        16-1.51297E-05-1.51298E-05 7.95859E-14 4.65926E-15-4.71659E-14 3.77564E-14
 -1        17-1.51298E-05-1.51298E-05-2.50570E-14 3.39831E-14-2.98287E-14 1.30467E-13
 -1        18-2.26946E-05-2.26946E-05-3.26433E-14-3.29162E-14-7.05420E-14-1.52094E-14
 -1        19-2.26946E-05-2.26946E-05 4.42530E-14 2.50353E-15-7.40977E-14 2.33276E-20
 -1        20-1.51298E-05-1.51298E-05 2.76652E-14 2.23212E-15-2.73913E-14 5.22137E-16
 -1        21-1.51298E-05-1.51298E-05-2.35601E-14-6.93970E-15-2.58847E-14-8.48986E-15
 -1        22-1.51298E-05-1.51297E-05 1.52975E-14-1.20864E-14-2.21591E-14-3.55284E-14
 -1        23-1.51298E-05-1.51298E-05-5.19270E-14-1.65079E-14-5.07289E-14-1.24861E-14
 -1        24-2.26946E-05-2.26946E-05-2.21071E-14 1.27184E-13 9.90019E-14-4.48003E-14
 -1        25-2.26946E-05-2.26946E-05 1.15403E-14-1.28378E-13-8.99722E-14-2.14244E-20
 -1        26-1.51298E-05-1.51297E-05 1.58931E-14-8.68112E-14 9.26255E-15 6.81931E-15
 -1        27-1.51298E-05-1.51298E-05-2.97495E-14 1.25407E-14-3.68782E-14-3.57431E-14
 -1        28-1.51297E-05-1.51297E-05 9.07430E-14-5.14918E-14 5.57467E-14 3.72028E-14
 -1        29-1.51298E-05-1.51298E-05-2.31485E-14 3.94431E-14 3.79950E-14-1.06838E-14
 -1        30-2.26946E-05-2.26946E-05 1.36242E-13 8.84853E-14 2.88902E-14 2.18524E-13
 -1        31-4.53892E-05-4.53892E-05 1.53289E-13 6.88012E-14 6.02371E-13-1.91744E-20
 -1        32-2.26946E-05-2.26946E-05 1.35976E-13 3.25615E-14-9.95880E-14-5.14782E-15
 -1        33-2.26946E-05-2.26946E-05-1.14411E-13 2.19217E-14 1.19507E-13 5.85800E-14
 -1        34-2.26946E-05-2.26946E-05-1.28745E-13-7.47710E-14-1.26001E-13-3.64150E-14
 -1        35-2.26946E-05-2.26946E-05 1.24207E-13-1.94889E-13-3.47697E-15 2.79877E-14
 -1        36-4.53892E-05-4.53892E-05 1.55050E-13 1.40536E-13 5.03404E-14-1.40109E-13
 -1        37-4.53892E-05-4.53892E-05-3.95059E-20-4.70765E-22 6.60561E-21 5.38252E-21
 -1        38-2.26946E-05-2.26946E-05-8.01632E-21 3.72062E-21 2.64693E-21-3.60465E-21
 -1        39-2.26946E-05-2.26946E-05-4.04648E-14-1.14199E-13-3.00073E-15-6.55004E-14
 -1        40-2.26946E-05-2.26946E-05-4.15960E-14 1.88528E-14 7.27970E-15 7.20848E-14
 -1        41-2.26946E-05-2.26946E-05-8.90509E-14-1.08031E-13 4.40201E-15 4.64744E-14
 -1        42-4.53893E-05-4.53892E-05-1.24290E-13 1.43349E-13 6.39689E-15-2.55607E-13
 -1        43-2.26946E-05-2.26946E-05-8.01632E-21-9.38547E-22 4.69518E-22 2.80645E-21
 -1        44-1.51298E-05-1.51298E-05-2.48020E-21 2.01164E-21-1.16814E-21 4.23319E-22
 -1        45-1.51298E-05-1.51298E-05 9.36116E-15-8.43402E-14-3.35317E-15 9.32093E-14
 -1        46-1.51298E-05-1.51298E-05 2.57410E-14 4.59134E-14 7.06587E-15-9.71201E-14
 -1        47-1.51298E-05-1.51298E-05 1.97427E-14-5.62022E-14 4.95426E-15-1.05237E-13
 -1        48-2.26946E-05-2.26946E-05 5.35109E-14-2.41042E-14-1.00630E-15 6.70797E-14
 -1        49-2.26946E-05-2.26946E-05 2.02704E-13 6.31735E-14-3.98720E-14-9.38180E-15
 -1        50-1.51298E-05-1.51298E-05-5.30931E-14 3.72636E-14 4.10851E-14-1.86442E-15
 -1        51-1.51298E-05-1.51298E-05-1.23492E-14-3.23864E-15-7.77341E-15 1.44856E-15
 -1        52-1.51297E-05-1.51297E-05 1.53626E-13-2.58991E-14 2.47928E-14 6.80747E-16
 -1        53-1.51298E-05-1.51298E-05-1.86682E-13-6.43567E-14 6.25747E-14 3.59466E-15
 -1        54-2.26946E-05-2.26946E-05-4.96781E-15 1.07952E-13-3.94253E-14-1.12627E-13
 -1        55-2.26946E-05-2.26946E-05 2.13782E-13-7.35328E-14 7.26945E-14-2.03160E-18
 -1        56-1.51298E-05-1.51298E-05-3.00750E-14-5.38740E-14-4.52441E-14 5.20769E-16
 -1        57-1.51298E-05-1.51298E-05-2.17643E-14 4.13140E-14-3.53080E-14-2.54817E-14
 -1        58-1.51298E-05-1.51298E-05-2.37728E-14 3.45648E-14 4.70238E-14-5.41581E-15
 -1        59-1.51298E-05-1.51298E-05-4.00444E-14-3.20569E-14 3.54936E-14-9.03675E-14
 -1        60-2.26946E-05-2.26946E-05-1.26623E-13-4.00288E-14-8.39109E-14 1.13276E-13
 -1        61-2.26946E-05-2.26946E-05-2.11444E-13-8.69395E-14-1.55668E-14-1.10504E-14
 -1        62-1.51297E-05-1.51297E-05 6.42670E-14-7.35374E-14 6.44563E-15-5.47574E-16
 -1        63-1.51298E-05-1.51298E-05-9.56986E-14 6.51728E-14-1.45764E-13-3.42124E-14
 -1        64-1.51297E-05-1.51297E-05 1.21549E-13 7.11013E-16 6.22077E-14-1.21655E-15
 -1        65-1.51298E-05-1.51297E-05 5.99992E-14 3.92626E-14-9.67844E-14-4.24423E-14
 -1        66-2.26946E-05-2.26946E-05-2.66255E-13 2.71510E-13 9.66197E-14-5.66229E-14
 -1        67-4.53893E-05-4.53893E-05-3.57263E-13 4.65947E-14-1.53014E-13 1.55249E-14
 -1        68-2.26946E-05-2.26946E-05 1.76245E-13-6.93377E-17-3.26406E-14 2.61462E-15
 -1        69-2.26946E-05-2.26946E-05-2.06123E-13-6.39660E-14 9.71476E-14-6.40451E-15
 -1        70-2.26946E-05-2.26946E-05-1.09450E-13-1.27176E-13-2.08421E-14-2.06839E-15
 -1        71-2.26946E-05-2.26946E-05 2.53692E-13 1.27047E-15 4.81337E-14-7.34161E-14
 -1        72-4.53892E-05-4.53892E-05 2.46869E-13 3.49114E-14-2.16677E-13 1.12102E-13
 -3
    1PSTEP                       102          34           1          
  100CL  134 2.64781E-01          72                     0   34           1
 -4  TOSTRAIN    6    1
 -5  EXX         1    4    1    1
 -5  EYY         1    4    2    2
 -5  EZZ         1    4    3    3
 -5  EXY         1    4    1    2
 -5  EYZ         1    4    2    3
 -5  EZX         1    4    3    1
 -1         1-1.51298E-10-1.51298E-10 1.29684E-10-1.81670E-27 6.91988E-28 5.06325E-27
 -1         2-7.56488E-11-7.56488E-11 6.48418E-11-2.60975E-26-1.29085E-27-3.99910E-26
 -1         3-7.56488E-11-7.56488E-11 6.48418E-11-2.24502E-19-4.65296E-25-2.67013E-19
 -1         4-7.56488E-11-7.56488E-11 6.48418E-11 5.37768E-19-1.20293E-25 6.08350E-19
 -1         5-7.56488E-11-7.56488E-11 6.48418E-11-6.32709E-19-2.46405E-25-2.51590E-20
 -1         6-1.51298E-10-1.51298E-10 1.29684E-10 6.18300E-19-8.69325E-25 1.10830E-18
 -1         7-7.56488E-11-7.56488E-11 6.48418E-11 1.53372E-26-1.71934E-26-2.72659E-27
 -1         8-5.04325E-11-5.04325E-11 4.32279E-11-6.56794E-27-1.90158E-26-1.95180E-27
 -1         9-5.04325E-11-5.04325E-11 4.32279E-11-8.25662E-20-8.37406E-21-3.49603E-20
 -1        10-5.04325E-11-5.04325E-11 4.32279E-11-2.13500E-20 1.36978E-20-1.17661E-19
 -1        11-5.04325E-11-5.04325E-11 4.32279E-11-3.41611E-19 1.25020E-20-7.48758E-20
 -1        12-7.56488E-11-7.56488E-11 6.48418E-11 1.12160E-19-2.60297E-20 1.24825E-18
 -1        13-7.56488E-11-7.56488E-11 6.48418E-11-3.26796E-20-6.73498E-19 6.93365E-26
 -1        14-5.04325E-11-5.04325E-11 4.32279E-11-1.83005E-20-6.49265E-20 2.71769E-20
 -1        15-5.04325E-11-5.04325E-11 4.32279E-11 2.06148E-19-5.39164E-20-8.02204E-20
 -1        16-5.04325E-11-5.04325E-11 4.32279E-11 2.88430E-20-2.91979E-19 2.33730E-19
 -1        17-5.04325E-11-5.04325E-11 4.32279E-11 2.10371E-19-1.84654E-19 8.07653E-19
 -1        18-7.56488E-11-7.56488E-11 6.48418E-11-2.03767E-19-4.36688E-19-9.41534E-20
 -1        19-7.56488E-11-7.56488E-11 6.48418E-11 1.54980E-20-4.58700E-19 1.44409E-25
 -1        20-5.04325E-11-5.04325E-11 4.32279E-11 1.38179E-20-1.69565E-19 3.23228E-21
 -1        21-5.04325E-11-5.04325E-11 4.32279E-11-4.29601E-20-1.60239E-19-5.25563E-20
 -1        22-5.04325E-11-5.04325E-11 4.32279E-11-7.48204E-20-1.37176E-19-2.19938E-19
 -1        23-5.04325E-11-5.04325E-11 4.32279E-11-1.02192E-19-3.14036E-19-7.72947E-20
 -1        24-7.56488E-11-7.56488E-11 6.48418E-11 7.87329E-19 6.12869E-19-2.77335E-19
 -1        25-7.56488E-11-7.56488E-11 6.48418E-11-7.94719E-19-5.56971E-19-1.32627E-25
 -1        26-5.04325E-11-5.04325E-11 4.32279E-11-5.37403E-19 5.73396E-20 4.22148E-20
 -1        27-5.04325E-11-5.04325E-11 4.32279E-11 7.76329E-20-2.28294E-19-2.21267E-19
 -1        28-5.04325E-11-5.04325E-11 4.32279E-11-3.18759E-19 3.45099E-19 2.30303E-19
 -1        29-5.04325E-11-5.04325E-11 4.32279E-11 2.44172E-19 2.35207E-19-6.61378E-20
 -1        30-7.56488E-11-7.56488E-11 6.48418E-11 5.47766E-19 1.78844E-19 1.35277E-18
 -1        31-1.51298E-10-1.51298E-10 1.29684E-10 4.25912E-19 3.72896E-18-1.18699E-25
 -1        32-7.56488E-11-7.56488E-11 6.48418E-11 2.01571E-19-6.16497E-19-3.18675E-20
 -1        33-7.56488E-11-7.56488E-11 6.48418E-11 1.35706E-19 7.39803E-19 3.62638E-19
 -1        34-7.56488E-11-7.56488E-11 6.48418E-11-4.62868E-19-7.80005E-19-2.25426E-19
 -1        35-7.56488E-11-7.56488E-11 6.48418E-11-1.20646E-18-2.15241E-20 1.73257E-19
 -1        36-1.51298E-10-1.51298E-10 1.29684E-10 8.69983E-19 3.11631E-19-8.67341E-19
 -1        37-1.51298E-10-1.51298E-10 1.29684E-10-2.91426E-27 4.08919E-26 3.33204E-26
 -1        38-7.56488E-11-7.56488E-11 6.48418E-11 2.30324E-26 1.63857E-26-2.23145E-26
 -1        39-7.56488E-11-7.56488E-11 6.48418E-11-7.06943E-19-1.85759E-20-4.05478E-19
 -1        40-7.56488E-11-7.56488E-11 6.48418E-11 1.16708E-19 4.50648E-20 4.46239E-19
 -1        41-7.56488E-11-7.56488E-11 6.48418E-11-6.68761E-19 2.72506E-20 2.87699E-19
 -1        42-1.51298E-10-1.51298E-10 1.29684E-10 8.87399E-19 3.95998E-20-1.58233E-18
 -1        43-7.56488E-11-7.56488E-11 6.48418E-11-5.81006E-27 2.90654E-27 1.73733E-26
 -1        44-5.04325E-11-5.04325E-11 4.32279E-11 1.24530E-26-7.23137E-27 2.62055E-27
 -1        45-5.04325E-11-5.04325E-11 4.32279E-11-5.22106E-19-2.07577E-20 5.77010E-19
 -1        46-5.04325E-11-5.04325E-11 4.32279E-11 2.84226E-19 4.37411E-20-6.01220E-19
 -1        47-5.04325E-11-5.04325E-11 4.32279E-11-3.47918E-19 3.06692E-20-6.51464E-19
 -1        48-7.56488E-11-7.56488E-11 6.48418E-11-1.49216E-19-6.22946E-21 4.15255E-19
 -1        49-7.56488E-11-7.56488E-11 6.48418E-11 3.91074E-19-2.46827E-19-5.80778E-20
 -1        50-5.04325E-11-5.04325E-11 4.32279E-11 2.30679E-19 2.54336E-19-1.15417E-20
 -1        51-5.04325E-11-5.04325E-11 4.32279E-11-2.00487E-20-4.81211E-20 8.96729E-21
 -1        52-5.04325E-11-5.04325E-11 4.32279E-11-1.60328E-19 1.53480E-19 4.21415E-21
 -1        53-5.04325E-11-5.04325E-11 4.32279E-11-3.98399E-19 3.87367E-19 2.22526E-20
 -1        54-7.56488E-11-7.56488E-11 6.48418E-11 6.68275E-19-2.44061E-19-6.97213E-19
 -1        55-7.56488E-11-7.56488E-11 6.48418E-11-4.55203E-19 4.50013E-19-1.25766E-23
 -1        56-5.04325E-11-5.04325E-11 4.32279E-11-3.33505E-19-2.80082E-19 3.22381E-21
 -1        57-5.04325E-11-5.04325E-11 4.32279E-11 2.55754E-19-2.18574E-19-1.57744E-19
 -1        58-5.04325E-11-5.04325E-11 4.32279E-11 2.13972E-19 2.91099E-19-3.35264E-20
 -1        59-5.04325E-11-5.04325E-11 4.32279E-11-1.98448E-19 2.19722E-19-5.59418E-19
 -1        60-7.56488E-11-7.56488E-11 6.48418E-11-2.47797E-19-5.19448E-19 7.01233E-19
 -1        61-7.56488E-11-7.56488E-11 6.48418E-11-5.38197E-19-9.63658E-20-6.84070E-20
 -1        62-5.04325E-11-5.04325E-11 4.32279E-11-4.55232E-19 3.99015E-20-3.38975E-21
 -1        63-5.04325E-11-5.04325E-11 4.32279E-11 4.03451E-19-9.02347E-19-2.11791E-19
 -1        64-5.04325E-11-5.04325E-11 4.32279E-11 4.40151E-21 3.85095E-19-7.53100E-21
 -1        65-5.04325E-11-5.04325E-11 4.32279E-11 2.43054E-19-5.99141E-19-2.62738E-19
 -1        66-7.56488E-11-7.56488E-11 6.48418E-11 1.68077E-18 5.98122E-19-3.50522E-19
 -1        67-1.51298E-10-1.51298E-10 1.29684E-10 2.88443E-19-9.47232E-19 9.61063E-20
 -1        68-7.56488E-11-7.56488E-11 6.48418E-11-4.29234E-22-2.02061E-19 1.61857E-20
 -1        69-7.56488E-11-7.56488E-11 6.48418E-11-3.95980E-19 6.01390E-19-3.96470E-20
 -1        70-7.56488E-11-7.56488E-11 6.48418E-11-7.87282E-19-1.29023E-19-1.28043E-20
 -1        71-7.56488E-11-7.56488E-11 6.48418E-11 7.86479E-21 2.97971E-19-4.54481E-19
 -1        72-1.51298E-10-1.51298E-10 1.29684E-10 2.16118E-19-1.34134E-18 6.93962E-19
 -3
    1PSTEP                       103          35           1          
  100CL  135 2.73781E-01          72                     0   35           1
 -4  DISP        4    1
 -5  D1          1    2    1    0
 -5  D2          1    2    2    0
 -5  D3          1    2    3    0
 -5  ALL         1    2    0    0    1ALL
 -1         1 0.00000E+00 0.00000E+00 0.00000E+00
 -1         2-7.82232E-08 0.00000E+00 0.00000E+00
 -1         3-4.10672E+00 0.00000E+00 0.00000E+00
 -1         4-4.10672E+00 0.00000E+00 0.00000E+00
 -1         5-8.21344E+00 0.00000E+00 0.00000E+00
 -1         6-8.21344E+00 0.00000E+00 0.00000E+00
 -1         7 0.00000E+00-7.82232E-08 0.00000E+00
 -1         8-7.82232E-08-7.82232E-08 0.00000E+00
 -1         9-4.10672E+00-7.82232E-08 0.00000E+00
 -1        10-4.10672E+00-7.82232E-08 0.00000E+00
 -1        11-8.21344E+00-7.82232E-08 0.00000E+00
 -1        12-8.21344E+00-7.82232E-08 0.00000E+00
 -1        13 0.00000E+00-4.10672E+00 0.00000E+00
 -1        14-7.82232E-08-4.10672E+00 0.00000E+00
 -1        15-4.10672E+00-4.10672E+00 0.00000E+00
 -1        16-4.10672E+00-4.10672E+00 0.00000E+00
 -1        17-8.21344E+00-4.10672E+00 0.00000E+00
 -1        18-8.21344E+00-4.10672E+00 0.00000E+00
 -1        19 0.00000E+00-4.10672E+00 0.00000E+00
 -1        20-7.82232E-08-4.10672E+00 0.00000E+00
 -1        21-4.10672E+00-4.10672E+00 0.00000E+00
 -1        22-4.10672E+00-4.10672E+00 0.00000E+00
 -1        23-8.21344E+00-4.10672E+00 0.00000E+00
 -1        24-8.21344E+00-4.10672E+00 0.00000E+00
 -1        25 0.00000E+00-8.21344E+00 0.00000E+00
 -1        26-7.82232E-08-8.21344E+00 0.00000E+00
 -1        27-4.10672E+00-8.21344E+00 0.00000E+00
 -1        28-4.10672E+00-8.21344E+00 0.00000E+00
 -1        29-8.21344E+00-8.21344E+00 0.00000E+00
 -1        30-8.21344E+00-8.21344E+00 0.00000E+00
 -1        31 0.00000E+00-8.21344E+00 0.00000E+00
 -1        32-7.82232E-08-8.21344E+00 0.00000E+00
 -1        33-4.10672E+00-8.21344E+00 0.00000E+00
 -1        34-4.10672E+00-8.21344E+00 0.00000E+00
 -1        35-8.21344E+00-8.21344E+00 0.00000E+00
 -1        36-8.21344E+00-8.21344E+00 0.00000E+00
 -1        37 0.00000E+00 0.00000E+00 9.38679E-08
 -1        38-7.82232E-08 0.00000E+00 9.38679E-08
 -1        39-4.10672E+00 0.00000E+00 9.38679E-08
 -1        40-4.10672E+00 0.00000E+00 9.38679E-08
 -1        41-8.21344E+00 0.00000E+00 9.38679E-08
 -1        42-8.21344E+00 0.00000E+00 9.38679E-08
 -1        43 0.00000E+00-7.82232E-08 9.38679E-08
 -1        44-7.82232E-08-7.82232E-08 9.38679E-08
 -1        45-4.10672E+00-7.82232E-08 9.38679E-08
 -1        46-4.10672E+00-7.82232E-08 9.38679E-08
 -1        47-8.21344E+00-7.82232E-08 9.38679E-08
 -1        48-8.21344E+00-7.82232E-08 9.38679E-08
 -1        49 0.00000E+00-4.10672E+00 9.38679E-08
 -1        50-7.82232E-08-4.10672E+00 9.38679E-08
 -1        51-4.10672E+00-4.10672E+00 9.38679E-08
 -1        52-4.10672E+00-4.10672E+00 9.38679E-08
 -1        53-8.21344E+00-4.10672E+00 9.38679E-08
 -1        54-8.21344E+00-4.10672E+00 9.38679E-08
 -1        55 0.00000E+00-4.10672E+00 9.38679E-08
 -1        56-7.82232E-08-4.10672E+00 9.38679E-08
 -1        57-4.10672E+00-4.10672E+00 9.38679E-08
 -1        58-4.10672E+00-4.10672E+00 9.38679E-08
 -1        59-8.21344E+00-4.10672E+00 9.38679E-08
 -1        60-8.21344E+00-4.10672E+00 9.38679E-08
 -1        61 0.00000E+00-8.21344E+00 9.38679E-08
 -1        62-7.82232E-08-8.21344E+00 9.38679E-08
 -1        63-4.10672E+00-8.21344E+00 9.38679E-08
 -1        64-4.10672E+00-8.21344E+00 9.38679E-08
 -1        65-8.21344E+00-8.21344E+00 9.38679E-08
 -1        66-8.21344E+00-8.21344E+00 9.38679E-08
 -1        67 0.00000E+00-8.21344E+00 9.38679E-08
 -1        68-7.82232E-08-8.21344E+00 9.38679E-08
 -1        69-4.10672E+00-8.21344E+00 9.38679E-08
 -1        70-4.10672E+00-8.21344E+00 9.38679E-08
 -1        71-8.21344E+00-8.21344E+00 9.38679E-08
 -1        72-8.21344E+00-8.21344E+00 9.38679E-08
 -3
    1PSTEP                       104          35           1          
  100CL  135 2.73781E-01          72                     0   35           1
 -4  STRESS      6    1
 -5  SXX         1    4    1    1
 -5  SYY         1    4    2    2
 -5  SZZ         1    4    3    3
 -5  SXY         1    4    1    2
 -5  SYZ         1    4    2    3
 -5  SZX         1    4    3    1
 -1         1-4.69320E-05-4.69320E-05 1.24006E-21-5.69250E-23-1.29094E-21 6.99007E-23
 -1         2-2.34660E-05-2.34660E-05 5.70223E-21 4.40908E-21-6.08525E-23-2.11514E-21
 -1         3-2.34660E-05-2.34660E-05-3.10625E-14 1.90878E-14-1.20447E-20 2.81169E-14
 -1         4-2.34660E-05-2.34660E-05-8.42776E-15-1.05661E-14-5.22846E-20-1.09535E-14
 -1         5-2.34660E-05-2.34660E-05 1.11574E-13 2.06233E-13-6.47521E-20 1.32913E-13
 -1         6-4.69320E-05-4.69320E-05 1.77485E-13-1.32031E-13 1.05901E-19-8.04475E-14
 -1         7-2.34660E-05-2.34660E-05 7.85017E-21-3.18749E-21-1.69726E-21 2.00401E-22
 -1         8-1.56440E-05-1.56440E-05-2.45057E-21 8.33366E-22 1.15032E-21 1.35575E-22
 -1         9-1.56440E-05-1.56440E-05 3.63519E-14-1.63784E-15-4.68933E-15-5.01617E-14
 -1        10-1.56440E-05-1.56440E-05 4.48415E-15 2.08775E-15 6.15423E-15-4.66181E-14
 -1        11-1.56440E-05-1.56440E-05 1.00870E-14 1.13361E-13-1.89106E-14-6.61728E-14
 -1        12-2.34660E-05-2.34660E-05-5.33654E-14-8.16877E-14 2.32491E-14 9.44496E-14
 -1        13-2.34660E-05-2.34660E-05 7.58102E-15-2.49470E-20 2.40604E-14-2.45684E-20
 -1        14-1.56440E-05-1.56440E-05-1.01915E-14 9.16466E-17-2.48353E-14 1.34971E-15
 -1        15-1.56440E-05-1.56440E-05 5.39700E-14-3.98165E-14-4.10469E-14 1.16703E-14
 -1        16-1.56440E-05-1.56440E-05 6.70070E-14 5.05041E-15 6.02015E-14 1.16943E-14
 -1        17-1.56440E-05-1.56440E-05 1.52212E-13 5.20211E-14-3.52334E-14 3.88818E-14
 -1        18-2.34660E-05-2.34660E-05-4.53484E-14 2.16843E-13 6.73725E-14-2.97064E-14
 -1        19-2.34660E-05-2.34660E-05 3.75657E-15-2.49470E-20-9.08104E-14-4.32912E-20
 -1        20-1.56440E-05-1.56440E-05-2.48482E-14 9.16466E-17-4.82051E-16 2.40795E-15
 -1        21-1.56440E-05-1.56440E-05 1.02449E-13-2.35173E-15 1.74085E-14 8.10059E-14
 -1        22-1.56440E-05-1.56440E-05 4.65103E-14-4.04522E-15-4.00554E-14-5.56754E-14
 -1        23-1.56440E-05-1.56440E-05 1.33803E-13-4.01750E-14-1.42185E-14-1.63683E-14
 -1        24-2.34660E-05-2.34660E-05 5.48335E-14-4.96294E-14 9.30703E-15 1.74509E-13
 -1        25-2.34660E-05-2.34660E-05-1.31642E-13 4.79828E-20-2.75313E-13-1.78268E-19
 -1        26-1.56440E-05-1.56440E-05-1.85178E-13-7.14569E-16 2.59462E-14 1.12943E-14
 -1        27-1.56440E-05-1.56440E-05-2.81983E-14 3.17506E-14-2.38565E-13-1.20669E-14
 -1        28-1.56440E-05-1.56440E-05-1.44786E-13 5.26759E-14 9.51532E-14-2.67385E-14
 -1        29-1.56440E-05-1.56440E-05 1.30179E-14-1.41580E-13-1.12772E-13-1.54052E-14
 -1        30-2.34660E-05-2.34660E-05 4.34113E-14-2.04910E-13-7.82971E-14 5.59033E-14
 -1        31-4.69320E-05-4.69320E-05 4.59510E-14 9.59656E-20 2.93850E-13-2.12084E-19
 -1        32-2.34660E-05-2.34660E-05-6.60410E-14-1.07185E-15 3.65170E-15 1.48700E-14
 -1        33-2.34660E-05-2.34660E-05 9.04732E-14-2.04917E-14-6.22089E-15-1.26504E-13
 -1        34-2.34660E-05-2.34660E-05 5.79792E-15-5.89443E-14-2.31353E-13 3.18640E-14
 -1        35-2.34660E-05-2.34660E-05-1.59797E-13 1.17775E-13 2.52984E-14 4.68323E-14
 -1        36-4.69320E-05-4.69320E-05 9.51522E-13 2.91506E-13 1.91457E-13 8.70229E-14
 -1        37-4.69320E-05-4.69320E-05-3.66935E-20 2.39965E-22 2.09487E-21 6.50909E-21
 -1        38-2.34660E-05-2.34660E-05 1.07843E-20 4.94899E-21-4.23991E-21 1.10445E-21
 -1        39-2.34660E-05-2.34660E-05 2.52086E-14-6.42966E-14 1.49196E-14-1.22396E-15
 -1        40-2.34660E-05-2.34660E-05 8.20006E-14 1.35362E-14-1.32549E-14 2.37945E-14
 -1        41-2.34660E-05-2.34660E-05-1.20043E-13-4.25227E-13 1.20409E-14 1.65101E-13
 -1        42-4.69320E-05-4.69320E-05-6.89654E-14 2.74870E-13-1.24496E-14-2.54396E-13
 -1        43-2.34660E-05-2.34660E-05 2.76797E-21 6.79859E-22-4.34916E-24 4.84015E-22
 -1        44-1.56440E-05-1.56440E-05-1.54273E-21 3.67258E-21-1.63572E-21 3.24651E-22
 -1        45-1.56440E-05-1.56440E-05-2.46492E-14-4.04438E-14 5.25711E-15 3.74112E-14
 -1        46-1.56440E-05-1.56440E-05-3.37454E-14 2.73560E-14-2.68235E-15-1.49065E-14
 -1        47-1.56440E-05-1.56440E-05 3.95709E-14-2.37002E-13-1.08833E-14 7.38327E-14
 -1        48-2.34660E-05-2.34660E-05 9.92519E-14 6.84217E-14 1.70242E-14 3.28878E-15
 -1        49-2.34660E-05-2.34660E-05 6.14989E-14-1.77236E-20 1.66250E-14 2.83796E-15
 -1        50-1.56440E-05-1.56440E-05 1.26184E-14 1.57321E-15 9.37889E-15 3.24170E-15
 -1        51-1.56440E-05-1.56440E-05 2.57298E-14 4.27213E-14 5.16779E-14-3.22601E-14
 -1        52-1.56440E-05-1.56440E-05 1.19983E-13 1.91355E-14 3.31695E-15 4.12242E-14
 -1        53-1.56440E-05-1.56440E-05 1.53696E-14-4.57266E-14 9.83853E-14 4.36254E-14
 -1        54-2.34660E-05-2.34660E-05 1.14153E-13-1.85507E-14-7.81396E-14-1.03291E-13
 -1        55-2.34660E-05-2.34660E-05 6.10079E-14-1.77236E-20 5.97226E-14-4.42632E-15
 -1        56-1.56440E-05-1.56440E-05 1.84024E-16 1.57321E-15-2.77956E-14-5.42900E-16
 -1        57-1.56440E-05-1.56440E-05-1.40121E-13 4.67610E-14-4.79448E-15 1.01775E-14
 -1        58-1.56440E-05-1.56440E-05-1.26219E-13-3.09687E-14 4.74071E-16 7.58783E-14
 -1        59-1.56440E-05-1.56440E-05-2.86722E-15-5.26150E-14-3.22725E-14 8.33007E-14
 -1        60-2.34660E-05-2.34660E-05 2.68976E-14 1.38701E-13 9.13040E-14-1.20702E-13
 -1        61-2.34660E-05-2.34660E-05-1.83502E-13 3.72436E-20-1.27245E-13-1.89248E-14
 -1        62-1.56440E-05-1.56440E-05 5.60913E-14-2.64808E-15-6.00336E-14-1.32208E-15
 -1        63-1.56440E-05-1.56440E-05-9.15704E-14-7.08951E-14-1.71124E-13 1.08250E-13
 -1        64-1.56440E-05-1.56440E-05-3.25910E-14 7.86078E-14-1.41456E-13-2.26074E-14
 -1        65-1.56440E-05-1.56440E-05-5.42913E-14-1.27816E-13-2.06476E-13 6.18844E-14
 -1        66-2.34660E-05-2.34660E-05 3.67154E-14 2.95992E-13 1.98861E-13-2.44176E-15
 -1        67-4.69320E-05-4.69320E-05-6.64700E-14 7.44872E-20 3.31743E-13 7.83724E-15
 -1        68-2.34660E-05-2.34660E-05 2.91512E-13-3.97212E-15-1.40685E-13 1.87887E-14
 -1        69-2.34660E-05-2.34660E-05 8.14388E-14-6.69735E-14 1.70487E-13 3.11092E-14
 -1        70-2.34660E-05-2.34660E-05 2.25988E-13 7.60649E-14 1.26306E-13-3.03043E-14
 -1        71-2.34660E-05-2.34660E-05 1.88161E-13-4.05880E-13 1.53290E-13 8.51127E-14
 -1        72-4.69320E-05-4.69320E-05 1.97910E-13-1.13804E-13-2.64194E-13-2.75979E-13
 -3
    1PSTEP                       105          35           1          
  100CL  135 2.73781E-01          72                     0   35           1
 -4  TOSTRAIN    6    1
 -5  EXX         1    4    1    1
 -5  EYY         1    4    2    2
 -5  EZZ         1    4    3    3
 -5  EXY         1    4    1    2
 -5  EYZ         1    4    2    3
 -5  EZX         1    4    3    1
 -1         1-1.56440E-10-1.56440E-10 1.34092E-10-3.52393E-28-7.99153E-27 4.32718E-28
 -1         2-7.82201E-11-7.82201E-11 6.70458E-11 2.72943E-26-3.76706E-28-1.30937E-26
 -1         3-7.82201E-11-7.82201E-11 6.70458E-11 1.18162E-19-7.45625E-26 1.74057E-19
 -1         4-7.82201E-11-7.82201E-11 6.70458E-11-6.54093E-20-3.23666E-25-6.78077E-20
 -1         5-7.82201E-11-7.82201E-11 6.70458E-11 1.27668E-18-4.00846E-25 8.22797E-19
 -1         6-1.56440E-10-1.56440E-10 1.34092E-10-8.17333E-19 6.55578E-25-4.98009E-19
 -1         7-7.82201E-11-7.82201E-11 6.70458E-11-1.97321E-26-1.05068E-26 1.24058E-27
 -1         8-5.21467E-11-5.21467E-11 4.46972E-11 5.15894E-27 7.12101E-27 8.39276E-28
 -1         9-5.21467E-11-5.21467E-11 4.46972E-11-1.01390E-20-2.90292E-20-3.10525E-19
 -1        10-5.21467E-11-5.21467E-11 4.46972E-11 1.29242E-20 3.80976E-20-2.88588E-19
 -1        11-5.21467E-11-5.21467E-11 4.46972E-11 7.01760E-19-1.17066E-19-4.09641E-19
 -1        12-7.82201E-11-7.82201E-11 6.70458E-11-5.05686E-19 1.43923E-19 5.84688E-19
 -1        13-7.82201E-11-7.82201E-11 6.70458E-11-1.54434E-25 1.48945E-19-1.52090E-25
 -1        14-5.21467E-11-5.21467E-11 4.46972E-11 5.67336E-22-1.53742E-19 8.35533E-21
 -1        15-5.21467E-11-5.21467E-11 4.46972E-11-2.46483E-19-2.54100E-19 7.22445E-20
 -1        16-5.21467E-11-5.21467E-11 4.46972E-11 3.12644E-20 3.72676E-19 7.23934E-20
 -1        17-5.21467E-11-5.21467E-11 4.46972E-11 3.22036E-19-2.18112E-19 2.40697E-19
 -1        18-7.82201E-11-7.82201E-11 6.70458E-11 1.34236E-18 4.17068E-19-1.83897E-19
 -1        19-7.82201E-11-7.82201E-11 6.70458E-11-1.54434E-25-5.62160E-19-2.67993E-25
 -1        20-5.21467E-11-5.21467E-11 4.46972E-11 5.67336E-22-2.98413E-21 1.49064E-20
 -1        21-5.21467E-11-5.21467E-11 4.46972E-11-1.45583E-20 1.07767E-19 5.01465E-19
 -1        22-5.21467E-11-5.21467E-11 4.46972E-11-2.50418E-20-2.47962E-19-3.44657E-19
 -1        23-5.21467E-11-5.21467E-11 4.46972E-11-2.48702E-19-8.80194E-20-1.01328E-19
 -1        24-7.82201E-11-7.82201E-11 6.70458E-11-3.07229E-19 5.76149E-20 1.08029E-18
 -1        25-7.82201E-11-7.82201E-11 6.70458E-11 2.97037E-25-1.70432E-18-1.10357E-24
 -1        26-5.21467E-11-5.21467E-11 4.46972E-11-4.42352E-21 1.60620E-19 6.99174E-20
 -1        27-5.21467E-11-5.21467E-11 4.46972E-11 1.96551E-19-1.47683E-18-7.46999E-20
 -1        28-5.21467E-11-5.21467E-11 4.46972E-11 3.26089E-19 5.89044E-19-1.65524E-19
 -1        29-5.21467E-11-5.21467E-11 4.46972E-11-8.76445E-19-6.98112E-19-9.53655E-20
 -1        30-7.82201E-11-7.82201E-11 6.70458E-11-1.26849E-18-4.84696E-19 3.46068E-19
 -1        31-1.56440E-10-1.56440E-10 1.34092E-10 5.94073E-25 1.81907E-18-1.31290E-24
 -1        32-7.82201E-11-7.82201E-11 6.70458E-11-6.63528E-21 2.26057E-20 9.20523E-20
 -1        33-7.82201E-11-7.82201E-11 6.70458E-11-1.26853E-19-3.85103E-20-7.83118E-19
 -1        34-7.82201E-11-7.82201E-11 6.70458E-11-3.64893E-19-1.43218E-18 1.97253E-19
 -1        35-7.82201E-11-7.82201E-11 6.70458E-11 7.29082E-19 1.56609E-19 2.89914E-19
 -1        36-1.56440E-10-1.56440E-10 1.34092E-10 1.80456E-18 1.18521E-18 5.38713E-19
 -1        37-1.56440E-10-1.56440E-10 1.34092E-10 1.48550E-27 1.29683E-26 4.02944E-26
 -1        38-7.82201E-11-7.82201E-11 6.70458E-11 3.06366E-26-2.62470E-26 6.83710E-27
 -1        39-7.82201E-11-7.82201E-11 6.70458E-11-3.98026E-19 9.23597E-20-7.57691E-21
 -1        40-7.82201E-11-7.82201E-11 6.70458E-11 8.37958E-20-8.20544E-20 1.47299E-19
 -1        41-7.82201E-11-7.82201E-11 6.70458E-11-2.63236E-18 7.45392E-20 1.02205E-18
 -1        42-1.56440E-10-1.56440E-10 1.34092E-10 1.70158E-18-7.70692E-20-1.57483E-18
 -1        43-7.82201E-11-7.82201E-11 6.70458E-11 4.20865E-27-2.69234E-29 2.99628E-27
 -1        44-5.21467E-11-5.21467E-11 4.46972E-11 2.27350E-26-1.01259E-26 2.00975E-27
 -1        45-5.21467E-11-5.21467E-11 4.46972E-11-2.50366E-19 3.25440E-20 2.31593E-19
 -1        46-5.21467E-11-5.21467E-11 4.46972E-11 1.69347E-19-1.66050E-20-9.22781E-20
 -1        47-5.21467E-11-5.21467E-11 4.46972E-11-1.46716E-18-6.73729E-20 4.57060E-19
 -1        48-7.82201E-11-7.82201E-11 6.70458E-11 4.23563E-19 1.05388E-19 2.03591E-20
 -1        49-7.82201E-11-7.82201E-11 6.70458E-11-1.09718E-25 1.02917E-19 1.75683E-20
 -1        50-5.21467E-11-5.21467E-11 4.46972E-11 9.73891E-21 5.80598E-20 2.00676E-20
 -1        51-5.21467E-11-5.21467E-11 4.46972E-11 2.64465E-19 3.19911E-19-1.99706E-19
 -1        52-5.21467E-11-5.21467E-11 4.46972E-11 1.18458E-19 2.05335E-20 2.55197E-19
 -1        53-5.21467E-11-5.21467E-11 4.46972E-11-2.83069E-19 6.09052E-19 2.70062E-19
 -1        54-7.82201E-11-7.82201E-11 6.70458E-11-1.14838E-19-4.83721E-19-6.39419E-19
 -1        55-7.82201E-11-7.82201E-11 6.70458E-11-1.09718E-25 3.69711E-19-2.74010E-20
 -1        56-5.21467E-11-5.21467E-11 4.46972E-11 9.73891E-21-1.72068E-19-3.36081E-21
 -1        57-5.21467E-11-5.21467E-11 4.46972E-11 2.89473E-19-2.96801E-20 6.30033E-20
 -1        58-5.21467E-11-5.21467E-11 4.46972E-11-1.91711E-19 2.93472E-21 4.69723E-19
 -1        59-5.21467E-11-5.21467E-11 4.46972E-11-3.25712E-19-1.99782E-19 5.15671E-19
 -1        60-7.82201E-11-7.82201E-11 6.70458E-11 8.58623E-19 5.65215E-19-7.47204E-19
 -1        61-7.82201E-11-7.82201E-11 6.70458E-11 2.30556E-25-7.87704E-19-1.17154E-19
 -1        62-5.21467E-11-5.21467E-11 4.46972E-11-1.63929E-20-3.71637E-19-8.18431E-21
 -1        63-5.21467E-11-5.21467E-11 4.46972E-11-4.38875E-19-1.05934E-18 6.70122E-19
 -1        64-5.21467E-11-5.21467E-11 4.46972E-11 4.86620E-19-8.75681E-19-1.39950E-19
 -1        65-5.21467E-11-5.21467E-11 4.46972E-11-7.91239E-19-1.27818E-18 3.83094E-19
 -1        66-7.82201E-11-7.82201E-11 6.70458E-11 1.83233E-18 1.23104E-18-1.51157E-20
 -1        67-1.56440E-10-1.56440E-10 1.34092E-10 4.61111E-25 2.05365E-18 4.85163E-20
 -1        68-7.82201E-11-7.82201E-11 6.70458E-11-2.45893E-20-8.70909E-19 1.16311E-19
 -1        69-7.82201E-11-7.82201E-11 6.70458E-11-4.14598E-19 1.05540E-18 1.92581E-19
 -1        70-7.82201E-11-7.82201E-11 6.70458E-11 4.70878E-19 7.81897E-19-1.87598E-19
 -1        71-7.82201E-11-7.82201E-11 6.70458E-11-2.51259E-18 9.48936E-19 5.26888E-19
 -1        72-1.56440E-10-1.56440E-10 1.34092E-10-7.04499E-19-1.63548E-18-1.70844E-18
 -3
    1PSTEP                       106          36           1          
  100CL  136 2.82781E-01          72                     0   36           1
 -4  DISP        4    1
 -5  D1          1    2    1    0
 -5  D2          1    2    2    0
 -5  D3          1    2    3    0
 -5  ALL         1    2    0    0    1ALL
 -1         1 0.00000E+00 0.00000E+00 0.00000E+00
 -1         2-8.07946E-08 0.00000E+00 0.00000E+00
 -1         3-4.24172E+00 0.00000E+00 0.00000E+00
 -1         4-4.24172E+00 0.00000E+00 0.00000E+00
 -1         5-8.48344E+00 0.00000E+00 0.00000E+00
 -1         6-8.48344E+00 0.00000E+00 0.00000E+00
 -1         7 0.00000E+00-8.07946E-08 0.00000E+00
 -1         8-8.07946E-08-8.07946E-08 0.00000E+00
 -1         9-4.24172E+00-8.07946E-08 0.00000E+00
 -1        10-4.24172E+00-8.07946E-08 0.00000E+00
 -1        11-8.48344E+00-8.07946E-08 0.00000E+00
 -1        12-8.48344E+00-8.07946E-08 0.00000E+00
 -1        13 0.00000E+00-4.24172E+00 0.00000E+00
 -1        14-8.07946E-08-4.24172E+00 0.00000E+00
 -1        15-4.24172E+00-4.24172E+00 0.00000E+00
 -1        16-4.24172E+00-4.24172E+00 0.00000E+00
 -1        17-8.48344E+00-4.24172E+00 0.00000E+00
 -1        18-8.48344E+00-4.24172E+00 0.00000E+00
 -1        19 0.00000E+00-4.24172E+00 0.00000E+00
 -1        20-8.07946E-08-4.24172E+00 0.00000E+00
 -1        21-4.24172E+00-4.24172E+00 0.00000E+00
 -1        22-4.24172E+00-4.24172E+00 0.00000E+00
 -1        23-8.48344E+00-4.24172E+00 0.00000E+00
 -1        24-8.48344E+00-4.24172E+00 0.00000E+00
 -1        25 0.00000E+00-8.48344E+00 0.00000E+00
 -1        26-8.07946E-08-8.48344E+00 0.00000E+00
 -1        27-4.24172E+00-8.48344E+00 0.00000E+00
 -1        28-4.24172E+00-8.48344E+00 0.00000E+00
 -1        29-8.48344E+00-8.48344E+00 0.00000E+00
 -1        30-8.48344E+00-8.48344E+00 0.00000E+00
 -1        31 0.00000E+00-8.48344E+00 0.00000E+00
 -1        32-8.07946E-08-8.48344E+00 0.00000E+00
 -1        33-4.24172E+00-8.48344E+00 0.00000E+00
 -1        34-4.24172E+00-8.48344E+00 0.00000E+00
 -1        35-8.48344E+00-8.48344E+00 0.00000E+00
 -1        36-8.48344E+00-8.48344E+00 0.00000E+00
 -1        37 0.00000E+00 0.00000E+00 9.69536E-08
 -1        38-8.07946E-08 0.00000E+00 9.69536E-08
 -1        39-4.24172E+00 0.00000E+00 9.69536E-08
 -1        40-4.24172E+00 0.00000E+00 9.69536E-08
 -1        41-8.48344E+00 0.00000E+00 9.69536E-08
 -1        42-8.48344E+00 0.00000E+00 9.69536E-08
 -1        43 0.00000E+00-8.07946E-08 9.69536E-08
 -1        44-8.07946E-08-8.07946E-08 9.69536E-08
 -1        45-4.24172E+00-8.07946E-08 9.69536E-08
 -1        46-4.24172E+00-8.07946E-08 9.69536E-08
 -1        47-8.48344E+00-8.07946E-08 9.69536E-08
 -1        48-8.48344E+00-8.07946E-08 9.69536E-08
 -1        49 0.00000E+00-4.24172E+00 9.69536E-08
 -1        50-8.07946E-08-4.24172E+00 9.69536E-08
 -1        51-4.24172E+00-4.24172E+00 9.69536E-08
 -1        52-4.24172E+00-4.24172E+00 9.69536E-08
 -1        53-8.48344E+00-4.24172E+00 9.69536E-08
 -1        54-8.48344E+00-4.24172E+00 9.69536E-08
 -1        55 0.00000E+00-4.24172E+00 9.69536E-08
 -1        56-8.07946E-08-4.24172E+00 9.69536E-08
 -1        57-4.24172E+00-4.24172E+00 9.69536E-08
 -1        58-4.24172E+00-4.24172E+00 9.69536E-08
 -1        59-8.48344E+00-4.24172E+00 9.69536E-08
 -1        60-8.48344E+00-4.24172E+00 9.69536E-08
 -1        61 0.00000E+00-8.48344E+00 9.69536E-08
 -1        62-8.07946E-08-8.48344E+00 9.69536E-08
 -1        63-4.24172E+00-8.48344E+00 9.69536E-08
 -1        64-4.24172E+00-8.48344E+00 9.69536E-08
 -1        65-8.48344E+00-8.48344E+00 9.69536E-08
 -1        66-8.48344E+00-8.48344E+00 9.69536E-08
 -1        67 0.00000E+00-8.48344E+00 9.69536E-08
 -1        68-8.07946E-08-8.48344E+00 9.69536E-08
 -1        69-4.24172E+00-8.48344E+00 9.69536E-08
 -1        70-4.24172E+00-8.48344E+00 9.69536E-08
 -1        71-8.48344E+00-8.48344E+00 9.69536E-08
 -1        72-8.48344E+00-8.48344E+00 9.69536E-08
 -3
    1PSTEP                       107          36           1          
  100CL  136 2.82781E-01          72                     0   36           1
 -4  STRESS      6    1
 -5  SXX         1    4    1    1
 -5  SYY         1    4    2    2
 -5  SZZ         1    4    3    3
 -5  SXY         1    4    1    2
 -5  SYZ         1    4    2    3
 -5  SZX         1    4    3    1
 -1         1-4.84748E-05-4.84748E-05 2.19009E-20-6.81524E-23 1.52623E-21-1.25223E-22
 -1         2-2.42374E-05-2.42374E-05 2.93412E-21 3.05331E-21-6.48362E-22 2.95571E-21
 -1         3-2.42374E-05-2.42374E-05 1.66039E-14 6.13844E-14-2.03819E-20 5.95377E-16
 -1         4-2.42374E-05-2.42374E-05 8.67417E-15-2.66882E-15 3.48286E-20 1.30225E-13
 -1         5-2.42374E-05-2.42374E-05 5.06249E-15 7.43347E-14 1.66179E-20-4.29250E-14
 -1         6-4.84748E-05-4.84748E-05 8.53956E-14 1.24429E-13 9.98289E-21-1.11043E-14
 -1         7-2.42374E-05-2.42374E-05 7.86182E-22 2.05507E-21-3.03774E-21 1.27582E-22
 -1         8-1.61583E-05-1.61583E-05 8.73225E-21 3.42830E-21-2.71454E-21 9.53157E-22
 -1         9-1.61583E-05-1.61583E-05 7.27571E-15 3.26340E-14-5.66270E-15-3.72060E-16
 -1        10-1.61583E-05-1.61583E-05 4.49329E-15 1.34267E-14 3.57067E-15-6.66837E-14
 -1        11-1.61583E-05-1.61583E-05-2.94165E-15 5.46666E-14-9.04180E-15 5.69685E-14
 -1        12-2.42374E-05-2.42374E-05-2.45299E-14-5.82983E-14 6.63490E-15 1.25909E-14
 -1        13-2.42374E-05-2.42374E-05 8.88590E-14-5.29237E-22 8.12520E-14-1.11112E-20
 -1        14-1.61583E-05-1.61583E-05 4.81577E-14 5.77077E-16-2.99957E-14-5.12979E-16
 -1        15-1.61583E-05-1.61583E-05 7.55707E-14-9.00998E-15-5.00510E-16 1.17714E-14
 -1        16-1.61583E-05-1.61583E-05 3.89910E-14-2.26077E-15-6.52340E-15 1.23095E-14
 -1        17-1.61583E-05-1.61583E-05-7.40384E-14 3.16022E-14-5.66060E-14 3.72695E-14
 -1        18-2.42374E-05-2.42374E-05-1.14627E-14-5.27990E-14 1.71989E-14-1.44611E-15
 -1        19-2.42374E-05-2.42374E-05 7.03610E-14-5.29237E-22-4.39775E-14 3.64186E-20
 -1        20-1.61583E-05-1.61583E-05 5.97233E-14 5.77077E-16 6.32882E-14-1.16725E-15
 -1        21-1.61583E-05-1.61583E-05-8.79309E-15 2.09200E-14-8.81605E-14-1.08221E-14
 -1        22-1.61583E-05-1.61583E-05 4.28959E-14 2.72399E-14 5.10494E-14 4.40895E-14
 -1        23-1.61583E-05-1.61583E-05-8.49128E-14 5.92760E-14 1.24575E-14-2.28073E-14
 -1        24-2.42374E-05-2.42374E-05-2.66918E-13 7.06994E-14 4.90215E-14-4.76580E-15
 -1        25-2.42374E-05-2.42374E-05 7.26200E-15 2.64554E-19-1.95087E-13 2.51955E-20
 -1        26-1.61583E-05-1.61583E-05-1.48481E-14-2.51295E-15-1.07573E-13 1.08459E-14
 -1        27-1.61583E-05-1.61583E-05 5.77607E-15 3.18806E-14-1.96030E-13 4.17240E-14
 -1        28-1.61583E-05-1.61583E-05 3.31603E-14-3.80839E-14 1.23838E-13-2.12912E-14
 -1        29-1.61583E-05-1.61583E-05 5.90613E-14 6.38362E-14-8.93152E-14-1.23819E-13
 -1        30-2.42374E-05-2.42374E-05-1.09891E-13 9.54821E-14-2.46260E-14 6.34443E-14
 -1        31-4.84748E-05-4.84748E-05 1.16846E-13 5.29108E-19 6.41860E-13-1.70284E-19
 -1        32-2.42374E-05-2.42374E-05-1.38774E-14-3.76943E-15-2.12054E-14 2.24439E-15
 -1        33-2.42374E-05-2.42374E-05 6.35045E-14 4.24054E-14 3.50420E-13-1.25917E-13
 -1        34-2.42374E-05-2.42374E-05 1.87317E-14-3.69146E-14-4.83914E-14 1.28807E-13
 -1        35-2.42374E-05-2.42374E-05-5.90252E-14-5.91675E-14 7.13858E-14 1.64545E-14
 -1        36-4.84748E-05-4.84748E-05 3.09880E-13 1.98945E-13 1.68643E-13 2.14628E-13
 -1        37-4.84748E-05-4.84748E-05 1.44600E-20-5.63737E-22 4.44897E-22-4.03393E-21
 -1        38-2.42374E-05-2.42374E-05-1.09506E-20-1.10912E-21 4.08167E-21 1.14464E-21
 -1        39-2.42374E-05-2.42374E-05 3.76147E-14-1.08968E-14 3.85542E-16 5.71558E-14
 -1        40-2.42374E-05-2.42374E-05 5.87700E-14-2.00047E-14 1.88801E-15-2.91763E-14
 -1        41-2.42374E-05-2.42374E-05 6.75858E-14 1.04166E-14 1.44110E-14 1.45470E-13
 -1        42-4.84748E-05-4.84748E-05 2.95272E-13-2.59763E-13-1.73801E-14-1.70033E-13
 -1        43-2.42374E-05-2.42374E-05-2.93426E-21 2.88380E-21-1.43942E-21 4.69562E-22
 -1        44-1.61583E-05-1.61583E-05-5.24212E-22 1.37103E-21 5.67230E-23 8.24645E-22
 -1        45-1.61583E-05-1.61583E-05-1.15554E-14-1.02420E-15-5.40566E-15-3.99611E-14
 -1        46-1.61583E-05-1.61583E-05 5.05214E-15 8.81507E-15 4.82933E-15-4.54889E-14
 -1        47-1.61583E-05-1.61583E-05 3.87406E-14-1.07617E-14 5.65555E-16-1.14085E-14
 -1        48-2.42374E-05-2.42374E-05 8.04084E-14 1.11431E-14-2.05518E-15-8.48227E-14
 -1        49-2.42374E-05-2.42374E-05-3.76193E-15-5.60526E-21-1.29121E-13-6.64896E-15
 -1        50-1.61583E-05-1.61583E-05-1.35895E-14-3.38956E-16 2.04630E-14-4.94561E-15
 -1        51-1.61583E-05-1.61583E-05-5.74800E-14-4.98617E-14 8.40151E-15 2.63481E-16
 -1        52-1.61583E-05-1.61583E-05 3.31301E-14-4.35418E-14-4.13437E-14-1.92586E-14
 -1        53-1.61583E-05-1.61583E-05-1.48886E-13 2.43809E-14 3.27725E-14 8.86410E-14
 -1        54-2.42374E-05-2.42374E-05 3.45981E-14-2.10492E-14 5.84247E-14-1.92248E-13
 -1        55-2.42374E-05-2.42374E-05-2.43210E-14-5.60526E-21 3.05073E-14 7.68963E-15
 -1        56-1.61583E-05-1.61583E-05-3.39797E-15-3.38956E-16-1.48604E-14 3.95914E-15
 -1        57-1.61583E-05-1.61583E-05-1.39440E-13 1.53119E-15-1.04785E-13 8.82816E-14
 -1        58-1.61583E-05-1.61583E-05 2.80634E-14 3.01727E-14 2.86206E-14-5.12906E-14
 -1        59-1.61583E-05-1.61583E-05-7.39087E-14-1.03452E-13 1.44617E-15 1.10834E-14
 -1        60-2.42374E-05-2.42374E-05 4.44254E-14 1.64950E-13 3.06664E-14 5.12221E-14
 -1        61-2.42374E-05-2.42374E-05-7.03970E-14 1.94740E-19 8.11477E-14 1.06402E-15
 -1        62-1.61583E-05-1.61583E-05-9.44035E-16-1.56024E-14 6.85542E-14 1.15552E-14
 -1        63-1.61583E-05-1.61583E-05-1.24162E-13-7.39042E-14 1.15664E-13 1.93529E-14
 -1        64-1.61583E-05-1.61583E-05 2.60797E-13-2.60799E-14-7.44427E-14 3.15447E-14
 -1        65-1.61583E-05-1.61583E-05 4.08462E-14 8.40106E-14-1.28007E-14 1.59234E-13
 -1        66-2.42374E-05-2.42374E-05-7.91986E-15-1.74571E-14 1.06996E-13-6.43493E-14
 -1        67-4.84748E-05-4.84748E-05-9.73744E-14 3.89480E-19-3.45516E-13-3.20851E-14
 -1        68-2.42374E-05-2.42374E-05-2.24724E-14-2.34036E-14 1.32840E-13-1.37981E-14
 -1        69-2.42374E-05-2.42374E-05-1.07320E-13-1.23483E-13-2.44547E-13-1.18238E-14
 -1        70-2.42374E-05-2.42374E-05-1.95879E-13 8.00611E-15 1.38741E-13-5.38053E-14
 -1        71-2.42374E-05-2.42374E-05-3.58662E-14-1.44825E-14 7.66111E-14-3.74833E-14
 -1        72-4.84748E-05-4.84748E-05 1.37017E-13-1.34592E-13-2.42223E-13 3.04642E-15
 -3
    1PSTEP                       108          36           1          
  100CL  136 2.82781E-01          72                     0   36           1
 -4  TOSTRAIN    6    1
 -5  EXX         1    4    1    1
 -5  EYY         1    4    2    2
 -5  EZZ         1    4    3    3
 -5  EXY         1    4    1    2
 -5  EYZ         1    4    2    3
 -5  EZX         1    4    3    1
 -1         1-1.61583E-10-1.61583E-10 1.38500E-10-4.21896E-28 9.44808E-27-7.75192E-28
 -1         2-8.07914E-11-8.07914E-11 6.92498E-11 1.89014E-26-4.01367E-27 1.82973E-26
 -1         3-8.07914E-11-8.07914E-11 6.92498E-11 3.79999E-19-1.26173E-25 3.68567E-21
 -1         4-8.07914E-11-8.07914E-11 6.92498E-11-1.65212E-20 2.15606E-25 8.06154E-19
 -1         5-8.07914E-11-8.07914E-11 6.92498E-11 4.60167E-19 1.02873E-25-2.65726E-19
 -1         6-1.61583E-10-1.61583E-10 1.38500E-10 7.70272E-19 6.17988E-26-6.87411E-20
 -1         7-8.07914E-11-8.07914E-11 6.92498E-11 1.27218E-26-1.88051E-26 7.89796E-28
 -1         8-5.38609E-11-5.38609E-11 4.61665E-11 2.12228E-26-1.68043E-26 5.90050E-27
 -1         9-5.38609E-11-5.38609E-11 4.61665E-11 2.02020E-19-3.50548E-20-2.30323E-21
 -1        10-5.38609E-11-5.38609E-11 4.61665E-11 8.31175E-20 2.21042E-20-4.12804E-19
 -1        11-5.38609E-11-5.38609E-11 4.61665E-11 3.38413E-19-5.59730E-20 3.52662E-19
 -1        12-8.07914E-11-8.07914E-11 6.92498E-11-3.60894E-19 4.10732E-20 7.79436E-20
 -1        13-8.07914E-11-8.07914E-11 6.92498E-11-3.27623E-27 5.02988E-19-6.87836E-26
 -1        14-5.38609E-11-5.38609E-11 4.61665E-11 3.57238E-21-1.85688E-19-3.17559E-21
 -1        15-5.38609E-11-5.38609E-11 4.61665E-11-5.57761E-20-3.09840E-21 7.28705E-20
 -1        16-5.38609E-11-5.38609E-11 4.61665E-11-1.39952E-20-4.03829E-20 7.62019E-20
 -1        17-5.38609E-11-5.38609E-11 4.61665E-11 1.95633E-19-3.50418E-19 2.30716E-19
 -1        18-8.07914E-11-8.07914E-11 6.92498E-11-3.26851E-19 1.06469E-19-8.95213E-21
 -1        19-8.07914E-11-8.07914E-11 6.92498E-11-3.27623E-27-2.72242E-19 2.25449E-25
 -1        20-5.38609E-11-5.38609E-11 4.61665E-11 3.57238E-21 3.91784E-19-7.22585E-21
 -1        21-5.38609E-11-5.38609E-11 4.61665E-11 1.29505E-19-5.45755E-19-6.69936E-20
 -1        22-5.38609E-11-5.38609E-11 4.61665E-11 1.68628E-19 3.16020E-19 2.72935E-19
 -1        23-5.38609E-11-5.38609E-11 4.61665E-11 3.66947E-19 7.71177E-20-1.41188E-19
 -1        24-8.07914E-11-8.07914E-11 6.92498E-11 4.37663E-19 3.03466E-19-2.95026E-20
 -1        25-8.07914E-11-8.07914E-11 6.92498E-11 1.63771E-24-1.20768E-18 1.55972E-25
 -1        26-5.38609E-11-5.38609E-11 4.61665E-11-1.55564E-20-6.65930E-19 6.71412E-20
 -1        27-5.38609E-11-5.38609E-11 4.61665E-11 1.97356E-19-1.21352E-18 2.58292E-19
 -1        28-5.38609E-11-5.38609E-11 4.61665E-11-2.35757E-19 7.66614E-19-1.31803E-19
 -1        29-5.38609E-11-5.38609E-11 4.61665E-11 3.95177E-19-5.52904E-19-7.66496E-19
 -1        30-8.07914E-11-8.07914E-11 6.92498E-11 5.91080E-19-1.52447E-19 3.92751E-19
 -1        31-1.61583E-10-1.61583E-10 1.38500E-10 3.27543E-24 3.97342E-18-1.05414E-24
 -1        32-8.07914E-11-8.07914E-11 6.92498E-11-2.33346E-20-1.31271E-19 1.38939E-20
 -1        33-8.07914E-11-8.07914E-11 6.92498E-11 2.62510E-19 2.16927E-18-7.79486E-19
 -1        34-8.07914E-11-8.07914E-11 6.92498E-11-2.28519E-19-2.99566E-19 7.97378E-19
 -1        35-8.07914E-11-8.07914E-11 6.92498E-11-3.66275E-19 4.41912E-19 1.01861E-19
 -1        36-1.61583E-10-1.61583E-10 1.38500E-10 1.23156E-18 1.04398E-18 1.32865E-18
 -1        37-1.61583E-10-1.61583E-10 1.38500E-10-3.48980E-27 2.75412E-27-2.49720E-26
 -1        38-8.07914E-11-8.07914E-11 6.92498E-11-6.86599E-27 2.52675E-26 7.08587E-27
 -1        39-8.07914E-11-8.07914E-11 6.92498E-11-6.74561E-20 2.38669E-21 3.53822E-19
 -1        40-8.07914E-11-8.07914E-11 6.92498E-11-1.23838E-19 1.16877E-20-1.80615E-19
 -1        41-8.07914E-11-8.07914E-11 6.92498E-11 6.44838E-20 8.92112E-20 9.00526E-19
 -1        42-1.61583E-10-1.61583E-10 1.38500E-10-1.60806E-18-1.07591E-19-1.05259E-18
 -1        43-8.07914E-11-8.07914E-11 6.92498E-11 1.78521E-26-8.91069E-27 2.90681E-27
 -1        44-5.38609E-11-5.38609E-11 4.61665E-11 8.48734E-27 3.51143E-28 5.10495E-27
 -1        45-5.38609E-11-5.38609E-11 4.61665E-11-6.34026E-21-3.34636E-20-2.47378E-19
 -1        46-5.38609E-11-5.38609E-11 4.61665E-11 5.45695E-20 2.98958E-20-2.81598E-19
 -1        47-5.38609E-11-5.38609E-11 4.61665E-11-6.66202E-20 3.50105E-21-7.06240E-20
 -1        48-8.07914E-11-8.07914E-11 6.92498E-11 6.89809E-20-1.27226E-20-5.25093E-19
 -1        49-8.07914E-11-8.07914E-11 6.92498E-11-3.46992E-26-7.99323E-19-4.11602E-20
 -1        50-5.38609E-11-5.38609E-11 4.61665E-11-2.09830E-21 1.26676E-19-3.06157E-20
 -1        51-5.38609E-11-5.38609E-11 4.61665E-11-3.08668E-19 5.20094E-20 1.63108E-21
 -1        52-5.38609E-11-5.38609E-11 4.61665E-11-2.69545E-19-2.55937E-19-1.19220E-19
 -1        53-5.38609E-11-5.38609E-11 4.61665E-11 1.50930E-19 2.02877E-19 5.48730E-19
 -1        54-8.07914E-11-8.07914E-11 6.92498E-11-1.30305E-19 3.61677E-19-1.19011E-18
 -1        55-8.07914E-11-8.07914E-11 6.92498E-11-3.46992E-26 1.88855E-19 4.76025E-20
 -1        56-5.38609E-11-5.38609E-11 4.61665E-11-2.09830E-21-9.19928E-20 2.45090E-20
 -1        57-5.38609E-11-5.38609E-11 4.61665E-11 9.47882E-21-6.48670E-19 5.46505E-19
 -1        58-5.38609E-11-5.38609E-11 4.61665E-11 1.86783E-19 1.77175E-19-3.17514E-19
 -1        59-5.38609E-11-5.38609E-11 4.61665E-11-6.40419E-19 8.95246E-21 6.86112E-20
 -1        60-8.07914E-11-8.07914E-11 6.92498E-11 1.02112E-18 1.89839E-19 3.17089E-19
 -1        61-8.07914E-11-8.07914E-11 6.92498E-11 1.20553E-24 5.02343E-19 6.58677E-21
 -1        62-5.38609E-11-5.38609E-11 4.61665E-11-9.65861E-20 4.24383E-19 7.15323E-20
 -1        63-5.38609E-11-5.38609E-11 4.61665E-11-4.57502E-19 7.16016E-19 1.19803E-19
 -1        64-5.38609E-11-5.38609E-11 4.61665E-11-1.61447E-19-4.60836E-19 1.95277E-19
 -1        65-5.38609E-11-5.38609E-11 4.61665E-11 5.20066E-19-7.92423E-20 9.85737E-19
 -1        66-8.07914E-11-8.07914E-11 6.92498E-11-1.08068E-19 6.62359E-19-3.98353E-19
 -1        67-1.61583E-10-1.61583E-10 1.38500E-10 2.41107E-24-2.13891E-18-1.98622E-19
 -1        68-8.07914E-11-8.07914E-11 6.92498E-11-1.44879E-19 8.22342E-19-8.54167E-20
 -1        69-8.07914E-11-8.07914E-11 6.92498E-11-7.64422E-19-1.51386E-18-7.31949E-20
 -1        70-8.07914E-11-8.07914E-11 6.92498E-11 4.95616E-20 8.58873E-19-3.33080E-19
 -1        71-8.07914E-11-8.07914E-11 6.92498E-11-8.96538E-20 4.74259E-19-2.32040E-19
 -1        72-1.61583E-10-1.61583E-10 1.38500E-10-8.33190E-19-1.49948E-18 1.88588E-20
 -3
    1PSTEP                       109          37           1          
  100CL  137 2.91781E-01          72                     0   37           1
 -4  DISP        4    1
 -5  D1          1    2    1    0
 -5  D2          1    2    2    0
 -5  D3          1    2    3    0
 -5  ALL         1    2    0    0    1ALL
 -1         1 0.00000E+00 0.00000E+00 0.00000E+00
 -1         2-8.33661E-08 0.00000E+00 0.00000E+00
 -1         3-4.37672E+00 0.00000E+00 0.00000E+00
 -1         4-4.37672E+00 0.00000E+00 0.00000E+00
 -1         5-8.75344E+00 0.00000E+00 0.00000E+00
 -1         6-8.75344E+00 0.00000E+00 0.00000E+00
 -1         7 0.00000E+00-8.33661E-08 0.00000E+00
 -1         8-8.33661E-08-8.33661E-08 0.00000E+00
 -1         9-4.37672E+00-8.33661E-08 0.00000E+00
 -1        10-4.37672E+00-8.33661E-08 0.00000E+00
 -1        11-8.75344E+00-8.33661E-08 0.00000E+00
 -1        12-8.75344E+00-8.33661E-08 0.00000E+00
 -1        13 0.00000E+00-4.37672E+00 0.00000E+00
 -1        14-8.33661E-08-4.37672E+00 0.00000E+00
 -1        15-4.37672E+00-4.37672E+00 0.00000E+00
 -1        16-4.37672E+00-4.37672E+00 0.00000E+00
 -1        17-8.75344E+00-4.37672E+00 0.00000E+00
 -1        18-8.75344E+00-4.37672E+00 0.00000E+00
 -1        19 0.00000E+00-4.37672E+00 0.00000E+00
 -1        20-8.33661E-08-4.37672E+00 0.00000E+00
 -1        21-4.37672E+00-4.37672E+00 0.00000E+00
 -1        22-4.37672E+00-4.37672E+00 0.00000E+00
 -1        23-8.75344E+00-4.37672E+00 0.00000E+00
 -1        24-8.75344E+00-4.37672E+00 0.00000E+00
 -1        25 0.00000E+00-8.75344E+00 0.00000E+00
 -1        26-8.33661E-08-8.75344E+00 0.00000E+00
 -1        27-4.37672E+00-8.75344E+00 0.00000E+00
 -1        28-4.37672E+00-8.75344E+00 0.00000E+00
 -1        29-8.75344E+00-8.75344E+00 0.00000E+00
 -1        30-8.75344E+00-8.75344E+00 0.00000E+00
 -1        31 0.00000E+00-8.75344E+00 0.00000E+00
 -1        32-8.33661E-08-8.75344E+00 0.00000E+00
 -1        33-4.37672E+00-8.75344E+00 0.00000E+00
 -1        34-4.37672E+00-8.75344E+00 0.00000E+00
 -1        35-8.75344E+00-8.75344E+00 0.00000E+00
 -1        36-8.75344E+00-8.75344E+00 0.00000E+00
 -1        37 0.00000E+00 0.00000E+00 1.00039E-07
 -1        38-8.33661E-08 0.00000E+00 1.00039E-07
 -1        39-4.37672E+00 0.00000E+00 1.00039E-07
 -1        40-4.37672E+00 0.00000E+00 1.00039E-07
 -1        41-8.75344E+00 0.00000E+00 1.00039E-07
 -1        42-8.75344E+00 0.00000E+00 1.00039E-07
 -1        43 0.00000E+00-8.33661E-08 1.00039E-07
 -1        44-8.33661E-08-8.33661E-08 1.00039E-07
 -1        45-4.37672E+00-8.33661E-08 1.00039E-07
 -1        46-4.37672E+00-8.33661E-08 1.00039E-07
 -1        47-8.75344E+00-8.33661E-08 1.00039E-07
 -1        48-8.75344E+00-8.33661E-08 1.00039E-07
 -1        49 0.00000E+00-4.37672E+00 1.00039E-07
 -1        50-8.33661E-08-4.37672E+00 1.00039E-07
 -1        51-4.37672E+00-4.37672E+00 1.00039E-07
 -1        52-4.37672E+00-4.37672E+00 1.00039E-07
 -1        53-8.75344E+00-4.37672E+00 1.00039E-07
 -1        54-8.75344E+00-4.37672E+00 1.00039E-07
 -1        55 0.00000E+00-4.37672E+00 1.00039E-07
 -1        56-8.33661E-08-4.37672E+00 1.00039E-07
 -1        57-4.37672E+00-4.37672E+00 1.00039E-07
 -1        58-4.37672E+00-4.37672E+00 1.00039E-07
 -1        59-8.75344E+00-4.37672E+00 1.00039E-07
 -1        60-8.75344E+00-4.37672E+00 1.00039E-07
 -1        61 0.00000E+00-8.75344E+00 1.00039E-07
 -1        62-8.33661E-08-8.75344E+00 1.00039E-07
 -1        63-4.37672E+00-8.75344E+00 1.00039E-07
 -1        64-4.37672E+00-8.75344E+00 1.00039E-07
 -1        65-8.75344E+00-8.75344E+00 1.00039E-07
 -1        66-8.75344E+00-8.75344E+00 1.00039E-07
 -1        67 0.00000E+00-8.75344E+00 1.00039E-07
 -1        68-8.33661E-08-8.75344E+00 1.00039E-07
 -1        69-4.37672E+00-8.75344E+00 1.00039E-07
 -1        70-4.37672E+00-8.75344E+00 1.00039E-07
 -1        71-8.75344E+00-8.75344E+00 1.00039E-07
 -1        72-8.75344E+00-8.75344E+00 1.00039E-07
 -3
    1PSTEP                       110          37           1          
  100CL  137 2.91781E-01          72                     0   37           1
 -4  STRESS      6    1
 -5  SXX         1    4    1    1
 -5  SYY         1    4    2    2
 -5  SZZ         1    4    3    3
 -5  SXY         1    4    1    2
 -5  SYZ         1    4    2    3
 -5  SZX         1    4    3    1
 -1         1-5.00176E-05-5.00176E-05 1.81804E-20 2.56428E-22-4.03182E-22-6.87212E-23
 -1         2-2.50088E-05-2.50088E-05-9.87654E-21 3.85963E-21-2.72851E-22 1.56397E-21
 -1         3-2.50088E-05-2.50088E-05-7.32719E-14 1.80717E-14-1.72210E-20-6.86929E-15
 -1         4-2.50088E-05-2.50088E-05-6.55010E-14-6.77427E-15 1.91728E-20-7.24098E-14
 -1         5-2.50088E-05-2.50088E-05-5.12617E-14 2.50974E-14-1.66089E-19-3.75892E-14
 -1         6-5.00176E-05-5.00176E-05 2.18971E-14 5.53495E-14-2.43171E-19-1.78227E-13
 -1         7-2.50088E-05-2.50088E-05 4.00816E-21 2.19042E-21-1.00224E-21-2.32794E-23
 -1         8-1.66725E-05-1.66725E-05-7.16025E-22 3.94789E-21-1.04189E-21 3.13784E-21
 -1         9-1.66725E-05-1.66725E-05-6.11275E-14 3.97719E-16-6.00207E-16 1.80147E-14
 -1        10-1.66725E-05-1.66725E-05-3.88704E-14 2.48424E-14-6.18488E-16 4.59788E-14
 -1        11-1.66725E-05-1.66725E-05-1.44307E-14-1.61491E-15-1.05142E-14 6.73845E-14
 -1        12-2.50088E-05-2.50088E-05-3.40309E-14 1.93861E-14 2.64916E-14 1.25189E-13
 -1        13-2.50088E-05-2.50088E-05 9.16019E-14 7.35538E-20-4.30208E-14 2.03149E-20
 -1        14-1.66725E-05-1.66725E-05 1.37057E-15 4.49389E-15-5.03240E-14 5.52811E-15
 -1        15-1.66725E-05-1.66725E-05 6.03525E-14 1.16047E-14-7.71476E-14-3.20372E-14
 -1        16-1.66725E-05-1.66725E-05 1.75521E-13-1.08670E-13 7.80211E-14-5.72656E-17
 -1        17-1.66725E-05-1.66725E-05-7.11280E-14 7.12623E-15-7.04179E-14 1.02069E-13
 -1        18-2.50088E-05-2.50088E-05-7.34930E-14-2.77000E-14 2.03158E-15 2.49984E-14
 -1        19-2.50088E-05-2.50088E-05 7.31551E-14-6.06699E-14-1.84091E-14-2.24578E-20
 -1        20-1.66725E-05-1.66725E-05-9.59662E-15-3.59528E-14 6.23245E-14-3.20698E-15
 -1        21-1.66725E-05-1.66725E-05-1.92206E-14 2.92093E-14 2.16634E-14-3.51050E-15
 -1        22-1.66725E-05-1.66725E-05-5.04179E-14-9.14950E-14-9.46614E-14 1.95126E-14
 -1        23-1.66725E-05-1.66725E-05-7.94437E-14 4.23548E-15 7.31276E-14-1.99474E-14
 -1        24-2.50088E-05-2.50088E-05-8.72568E-14 1.98649E-13-1.71988E-14 2.87889E-14
 -1        25-2.50088E-05-2.50088E-05-1.22667E-15-2.34689E-15-3.32851E-13-1.11518E-19
 -1        26-1.66725E-05-1.66725E-05-7.73789E-14 9.69691E-15-1.32795E-13 1.32781E-14
 -1        27-1.66725E-05-1.66725E-05-1.22176E-13-1.00531E-14-2.42161E-13 2.71529E-14
 -1        28-1.66725E-05-1.66725E-05 3.48607E-14-3.45150E-14-5.89447E-15-8.55430E-14
 -1        29-1.66725E-05-1.66725E-05-7.09299E-14 3.04773E-14-2.27634E-13 1.76386E-14
 -1        30-2.50088E-05-2.50088E-05-5.81982E-14-6.03812E-14 1.31096E-13-4.76434E-15
 -1        31-5.00176E-05-5.00176E-05 1.19896E-13 1.25540E-15 4.93625E-13-4.23314E-19
 -1        32-2.50088E-05-2.50088E-05-7.61624E-14 1.75199E-14-3.76293E-14 1.24975E-16
 -1        33-2.50088E-05-2.50088E-05 2.06665E-13-1.95526E-14 1.86157E-13-5.83013E-14
 -1        34-2.50088E-05-2.50088E-05-6.12124E-14-2.10031E-14-9.83559E-14 2.00930E-13
 -1        35-2.50088E-05-2.50088E-05-3.81254E-14-1.22502E-14 9.44662E-14-4.41707E-14
 -1        36-5.00176E-05-5.00176E-05 5.60108E-13 3.40061E-13-9.24584E-14 2.79338E-13
 -1        37-5.00176E-05-5.00176E-05-8.01632E-21-3.61050E-22 7.49697E-21 3.72992E-22
 -1        38-2.50088E-05-2.50088E-05 1.07390E-21 9.42285E-21-4.16811E-23 1.78483E-21
 -1        39-2.50088E-05-2.50088E-05-8.29322E-14-6.25369E-14-4.25986E-15-2.97120E-15
 -1        40-2.50088E-05-2.50088E-05-7.52189E-14 6.96847E-15 5.98605E-15-6.99872E-15
 -1        41-2.50088E-05-2.50088E-05-9.99205E-14-1.39168E-13 1.80618E-14-1.27827E-13
 -1        42-5.00176E-05-5.00176E-05 1.02083E-13 1.33072E-13-2.35523E-14 3.17985E-13
 -1        43-2.50088E-05-2.50088E-05 4.79434E-21-3.59881E-21 2.94784E-21-3.52133E-21
 -1        44-1.66725E-05-1.66725E-05 4.10407E-21 4.00304E-21-8.87772E-22 8.05809E-22
 -1        45-1.66725E-05-1.66725E-05-6.10000E-14-5.17644E-14-3.44010E-15-5.98099E-15
 -1        46-1.66725E-05-1.66725E-05-3.87813E-14 2.79976E-14 3.37220E-15 5.54082E-14
 -1        47-1.66725E-05-1.66725E-05-3.37346E-14-5.88588E-14 1.52706E-15-7.60813E-14
 -1        48-2.50088E-05-2.50088E-05 2.57654E-14 4.56427E-14 1.47155E-14-4.74279E-14
 -1        49-2.50088E-05-2.50088E-05 1.21357E-13 6.06700E-14-9.61533E-14-2.07808E-15
 -1        50-1.66725E-05-1.66725E-05 5.40460E-14 3.27114E-14 7.67041E-14 4.14271E-15
 -1        51-1.66725E-05-1.66725E-05-8.90568E-18 1.34135E-14 2.05577E-15-3.28493E-14
 -1        52-1.66725E-05-1.66725E-05 6.85680E-15 1.53058E-14-1.56545E-14 4.27152E-14
 -1        53-1.66725E-05-1.66725E-05 7.44736E-16 2.37323E-14 2.83895E-14-5.35806E-14
 -1        54-2.50088E-05-2.50088E-05-1.18736E-13 1.77282E-14-4.85582E-14 1.49099E-13
 -1        55-2.50088E-05-2.50088E-05 7.53952E-14 8.49727E-21 2.68458E-14-1.27970E-15
 -1        56-1.66725E-05-1.66725E-05 2.47351E-14-7.73524E-15 2.74351E-14-4.06009E-15
 -1        57-1.66725E-05-1.66725E-05 9.14548E-15-8.81738E-15-1.73810E-14 2.84152E-14
 -1        58-1.66725E-05-1.66725E-05 4.02772E-14 1.53965E-14 4.34431E-15-4.90661E-14
 -1        59-1.66725E-05-1.66725E-05 1.51799E-14-9.68325E-14-1.94583E-14-4.47357E-14
 -1        60-2.50088E-05-2.50088E-05-1.66626E-13-9.16907E-14 9.13580E-15-3.75843E-14
 -1        61-2.50088E-05-2.50088E-05-3.82126E-14 1.21968E-13-1.56011E-13 3.78908E-15
 -1        62-1.66725E-05-1.66725E-05 3.04665E-15 7.41007E-14 5.97262E-14 1.58042E-14
 -1        63-1.66725E-05-1.66725E-05-8.46290E-14-5.82406E-14 2.96942E-14-5.37805E-14
 -1        64-1.66725E-05-1.66725E-05 1.15333E-13 5.90106E-14 1.08540E-14 1.14662E-13
 -1        65-1.66725E-05-1.66725E-05-1.51647E-13-1.55689E-14-5.07234E-14-1.23261E-13
 -1        66-2.50088E-05-2.50088E-05 1.04813E-13 2.11469E-13-4.37523E-15 1.69708E-13
 -1        67-5.00176E-05-5.00176E-05-3.72024E-14-6.53640E-14 1.68730E-13-9.43706E-15
 -1        68-2.50088E-05-2.50088E-05 2.91260E-15-4.34986E-14 2.56203E-14-4.59334E-15
 -1        69-2.50088E-05-2.50088E-05 1.59898E-13-2.47054E-13-1.23785E-13 1.30469E-13
 -1        70-2.50088E-05-2.50088E-05 2.46622E-14-4.73106E-14 1.19078E-13-1.89631E-13
 -1        71-2.50088E-05-2.50088E-05 2.63703E-14-1.47596E-13 1.01244E-13 1.32542E-13
 -1        72-5.00176E-05-5.00176E-05-3.12541E-13-1.13326E-13 7.49617E-14-5.06670E-13
 -3
    1PSTEP                       111          37           1          
  100CL  137 2.91781E-01          72                     0   37           1
 -4  TOSTRAIN    6    1
 -5  EXX         1    4    1    1
 -5  EYY         1    4    2    2
 -5  EZZ         1    4    3    3
 -5  EXY         1    4    1    2
 -5  EYZ         1    4    2    3
 -5  EZX         1    4    3    1
 -1         1-1.66725E-10-1.66725E-10 1.42908E-10 1.58741E-27-2.49589E-27-4.25417E-28
 -1         2-8.33627E-11-8.33627E-11 7.14538E-11 2.38929E-26-1.68908E-27 9.68173E-27
 -1         3-8.33627E-11-8.33627E-11 7.14538E-11 1.11872E-19-1.06606E-25-4.25242E-20
 -1         4-8.33627E-11-8.33627E-11 7.14538E-11-4.19359E-20 1.18689E-25-4.48251E-19
 -1         5-8.33627E-11-8.33627E-11 7.14538E-11 1.55365E-19-1.02817E-24-2.32695E-19
 -1         6-1.66725E-10-1.66725E-10 1.42908E-10 3.42640E-19-1.50535E-24-1.10331E-18
 -1         7-8.33627E-11-8.33627E-11 7.14538E-11 1.35598E-26-6.20433E-27-1.44111E-28
 -1         8-5.55752E-11-5.55752E-11 4.76358E-11 2.44393E-26-6.44977E-27 1.94247E-26
 -1         9-5.55752E-11-5.55752E-11 4.76358E-11 2.46207E-21-3.71557E-21 1.11520E-19
 -1        10-5.55752E-11-5.55752E-11 4.76358E-11 1.53786E-19-3.82873E-21 2.84631E-19
 -1        11-5.55752E-11-5.55752E-11 4.76358E-11-9.99704E-21-6.50882E-20 4.17142E-19
 -1        12-8.33627E-11-8.33627E-11 7.14538E-11 1.20009E-19 1.63995E-19 7.74979E-19
 -1        13-8.33627E-11-8.33627E-11 7.14538E-11 4.55333E-25-2.66319E-19 1.25759E-25
 -1        14-5.55752E-11-5.55752E-11 4.76358E-11 2.78193E-20-3.11530E-19 3.42216E-20
 -1        15-5.55752E-11-5.55752E-11 4.76358E-11 7.18389E-20-4.77580E-19-1.98325E-19
 -1        16-5.55752E-11-5.55752E-11 4.76358E-11-6.72720E-19 4.82988E-19-3.54501E-22
 -1        17-5.55752E-11-5.55752E-11 4.76358E-11 4.41147E-20-4.35920E-19 6.31856E-19
 -1        18-8.33627E-11-8.33627E-11 7.14538E-11-1.71476E-19 1.25765E-20 1.54752E-19
 -1        19-8.33627E-11-8.33627E-11 7.14538E-11-3.75576E-19-1.13961E-19-1.39025E-25
 -1        20-5.55752E-11-5.55752E-11 4.76358E-11-2.22565E-19 3.85818E-19-1.98527E-20
 -1        21-5.55752E-11-5.55752E-11 4.76358E-11 1.80819E-19 1.34107E-19-2.17317E-20
 -1        22-5.55752E-11-5.55752E-11 4.76358E-11-5.66398E-19-5.85999E-19 1.20792E-19
 -1        23-5.55752E-11-5.55752E-11 4.76358E-11 2.62196E-20 4.52695E-19-1.23484E-19
 -1        24-8.33627E-11-8.33627E-11 7.14538E-11 1.22973E-18-1.06469E-19 1.78217E-19
 -1        25-8.33627E-11-8.33627E-11 7.14538E-11-1.45283E-20-2.06050E-18-6.90348E-25
 -1        26-5.55752E-11-5.55752E-11 4.76358E-11 6.00285E-20-8.22067E-19 8.21976E-20
 -1        27-5.55752E-11-5.55752E-11 4.76358E-11-6.22336E-20-1.49909E-18 1.68090E-19
 -1        28-5.55752E-11-5.55752E-11 4.76358E-11-2.13664E-19-3.64896E-20-5.29552E-19
 -1        29-5.55752E-11-5.55752E-11 4.76358E-11 1.88669E-19-1.40916E-18 1.09191E-19
 -1        30-8.33627E-11-8.33627E-11 7.14538E-11-3.73788E-19 8.11548E-19-2.94936E-20
 -1        31-1.66725E-10-1.66725E-10 1.42908E-10 7.77152E-21 3.05577E-18-2.62052E-24
 -1        32-8.33627E-11-8.33627E-11 7.14538E-11 1.08457E-19-2.32943E-19 7.73655E-22
 -1        33-8.33627E-11-8.33627E-11 7.14538E-11-1.21040E-19 1.15240E-18-3.60913E-19
 -1        34-8.33627E-11-8.33627E-11 7.14538E-11-1.30019E-19-6.08870E-19 1.24385E-18
 -1        35-8.33627E-11-8.33627E-11 7.14538E-11-7.58345E-20 5.84791E-19-2.73437E-19
 -1        36-1.66725E-10-1.66725E-10 1.42908E-10 2.10514E-18-5.72361E-19 1.72924E-18
 -1        37-1.66725E-10-1.66725E-10 1.42908E-10-2.23507E-27 4.64098E-26 2.30900E-27
 -1        38-8.33627E-11-8.33627E-11 7.14538E-11 5.83319E-26-2.58026E-28 1.10489E-26
 -1        39-8.33627E-11-8.33627E-11 7.14538E-11-3.87133E-19-2.63706E-20-1.83931E-20
 -1        40-8.33627E-11-8.33627E-11 7.14538E-11 4.31382E-20 3.70565E-20-4.33254E-20
 -1        41-8.33627E-11-8.33627E-11 7.14538E-11-8.61514E-19 1.11811E-19-7.91308E-19
 -1        42-1.66725E-10-1.66725E-10 1.42908E-10 8.23777E-19-1.45800E-19 1.96848E-18
 -1        43-8.33627E-11-8.33627E-11 7.14538E-11-2.22784E-26 1.82485E-26-2.17987E-26
 -1        44-5.55752E-11-5.55752E-11 4.76358E-11 2.47807E-26-5.49573E-27 4.98834E-27
 -1        45-5.55752E-11-5.55752E-11 4.76358E-11-3.20446E-19-2.12959E-20-3.70252E-20
 -1        46-5.55752E-11-5.55752E-11 4.76358E-11 1.73318E-19 2.08755E-20 3.43003E-19
 -1        47-5.55752E-11-5.55752E-11 4.76358E-11-3.64364E-19 9.45325E-21-4.70979E-19
 -1        48-8.33627E-11-8.33627E-11 7.14538E-11 2.82550E-19 9.10961E-20-2.93601E-19
 -1        49-8.33627E-11-8.33627E-11 7.14538E-11 3.75576E-19-5.95235E-19-1.28643E-20
 -1        50-5.55752E-11-5.55752E-11 4.76358E-11 2.02499E-19 4.74835E-19 2.56453E-20
 -1        51-5.55752E-11-5.55752E-11 4.76358E-11 8.30358E-20 1.27262E-20-2.03353E-19
 -1        52-5.55752E-11-5.55752E-11 4.76358E-11 9.47502E-20-9.69088E-20 2.64427E-19
 -1        53-5.55752E-11-5.55752E-11 4.76358E-11 1.46914E-19 1.75745E-19-3.31689E-19
 -1        54-8.33627E-11-8.33627E-11 7.14538E-11 1.09746E-19-3.00599E-19 9.22992E-19
 -1        55-8.33627E-11-8.33627E-11 7.14538E-11 5.26021E-26 1.66188E-19-7.92194E-21
 -1        56-5.55752E-11-5.55752E-11 4.76358E-11-4.78848E-20 1.69836E-19-2.51339E-20
 -1        57-5.55752E-11-5.55752E-11 4.76358E-11-5.45838E-20-1.07597E-19 1.75904E-19
 -1        58-5.55752E-11-5.55752E-11 4.76358E-11 9.53119E-20 2.68934E-20-3.03743E-19
 -1        59-5.55752E-11-5.55752E-11 4.76358E-11-5.99439E-19-1.20456E-19-2.76935E-19
 -1        60-8.33627E-11-8.33627E-11 7.14538E-11-5.67609E-19 5.65549E-20-2.32665E-19
 -1        61-8.33627E-11-8.33627E-11 7.14538E-11 7.55038E-19-9.65781E-19 2.34562E-20
 -1        62-5.55752E-11-5.55752E-11 4.76358E-11 4.58719E-19 3.69734E-19 9.78356E-20
 -1        63-5.55752E-11-5.55752E-11 4.76358E-11-3.60537E-19 1.83821E-19-3.32927E-19
 -1        64-5.55752E-11-5.55752E-11 4.76358E-11 3.65304E-19 6.71915E-20 7.09813E-19
 -1        65-5.55752E-11-5.55752E-11 4.76358E-11-9.63791E-20-3.14002E-19-7.63042E-19
 -1        66-8.33627E-11-8.33627E-11 7.14538E-11 1.30909E-18-2.70848E-20 1.05058E-18
 -1        67-1.66725E-10-1.66725E-10 1.42908E-10-4.04634E-19 1.04452E-18-5.84199E-20
 -1        68-8.33627E-11-8.33627E-11 7.14538E-11-2.69277E-19 1.58602E-19-2.84350E-20
 -1        69-8.33627E-11-8.33627E-11 7.14538E-11-1.52938E-18-7.66289E-19 8.07665E-19
 -1        70-8.33627E-11-8.33627E-11 7.14538E-11-2.92875E-19 7.37149E-19-1.17391E-18
 -1        71-8.33627E-11-8.33627E-11 7.14538E-11-9.13690E-19 6.26749E-19 8.20496E-19
 -1        72-1.66725E-10-1.66725E-10 1.42908E-10-7.01542E-19 4.64049E-19-3.13653E-18
 -3
    1PSTEP                       112          38           1          
  100CL  138 3.00781E-01          72                     0   38           1
 -4  DISP        4    1
 -5  D1          1    2    1    0
 -5  D2          1    2    2    0
 -5  D3          1    2    3    0
 -5  ALL         1    2    0    0    1ALL
 -1         1 0.00000E+00 0.00000E+00 0.00000E+00
 -1         2-8.59375E-08 0.00000E+00 0.00000E+00
 -1         3-4.51172E+00 0.00000E+00 0.00000E+00
 -1         4-4.51172E+00 0.00000E+00 0.00000E+00
 -1         5-9.02344E+00 0.00000E+00 0.00000E+00
 -1         6-9.02344E+00 0.00000E+00 0.00000E+00
 -1         7 0.00000E+00-8.59375E-08 0.00000E+00
 -1         8-8.59375E-08-8.59375E-08 0.00000E+00
 -1         9-4.51172E+00-8.59375E-08 0.00000E+00
 -1        10-4.51172E+00-8.59375E-08 0.00000E+00
 -1        11-9.02344E+00-8.59375E-08 0.00000E+00
 -1        12-9.02344E+00-8.59375E-08 0.00000E+00
 -1        13 0.00000E+00-4.51172E+00 0.00000E+00
 -1        14-8.59375E-08-4.51172E+00 0.00000E+00
 -1        15-4.51172E+00-4.51172E+00 0.00000E+00
 -1        16-4.51172E+00-4.51172E+00 0.00000E+00
 -1        17-9.02344E+00-4.51172E+00 0.00000E+00
 -1        18-9.02344E+00-4.51172E+00 0.00000E+00
 -1        19 0.00000E+00-4.51172E+00 0.00000E+00
 -1        20-8.59375E-08-4.51172E+00 0.00000E+00
 -1        21-4.51172E+00-4.51172E+00 0.00000E+00
 -1        22-4.51172E+00-4.51172E+00 0.00000E+00
 -1        23-9.02344E+00-4.51172E+00 0.00000E+00
 -1        24-9.02344E+00-4.51172E+00 0.00000E+00
 -1        25 0.00000E+00-9.02344E+00 0.00000E+00
 -1        26-8.59375E-08-9.02344E+00 0.00000E+00
 -1        27-4.51172E+00-9.02344E+00 0.00000E+00
 -1        28-4.51172E+00-9.02344E+00 0.00000E+00
 -1        29-9.02344E+00-9.02344E+00 0.00000E+00
 -1        30-9.02344E+00-9.02344E+00 0.00000E+00
 -1        31 0.00000E+00-9.02344E+00 0.00000E+00
 -1        32-8.59375E-08-9.02344E+00 0.00000E+00
 -1        33-4.51172E+00-9.02344E+00 0.00000E+00
 -1        34-4.51172E+00-9.02344E+00 0.00000E+00
 -1        35-9.02344E+00-9.02344E+00 0.00000E+00
 -1        36-9.02344E+00-9.02344E+00 0.00000E+00
 -1        37 0.00000E+00 0.00000E+00 1.03125E-07
 -1        38-8.59375E-08 0.00000E+00 1.03125E-07
 -1        39-4.51172E+00 0.00000E+00 1.03125E-07
 -1        40-4.51172E+00 0.00000E+00 1.03125E-07
 -1        41-9.02344E+00 0.00000E+00 1.03125E-07
 -1        42-9.02344E+00 0.00000E+00 1.03125E-07
 -1        43 0.00000E+00-8.59375E-08 1.03125E-07
 -1        44-8.59375E-08-8.59375E-08 1.03125E-07
 -1        45-4.51172E+00-8.59375E-08 1.03125E-07
 -1        46-4.51172E+00-8.59375E-08 1.03125E-07
 -1        47-9.02344E+00-8.59375E-08 1.03125E-07
 -1        48-9.02344E+00-8.59375E-08 1.03125E-07
 -1        49 0.00000E+00-4.51172E+00 1.03125E-07
 -1        50-8.59375E-08-4.51172E+00 1.03125E-07
 -1        51-4.51172E+00-4.51172E+00 1.03125E-07
 -1        52-4.51172E+00-4.51172E+00 1.03125E-07
 -1        53-9.02344E+00-4.51172E+00 1.03125E-07
 -1        54-9.02344E+00-4.51172E+00 1.03125E-07
 -1        55 0.00000E+00-4.51172E+00 1.03125E-07
 -1        56-8.59375E-08-4.51172E+00 1.03125E-07
 -1        57-4.51172E+00-4.51172E+00 1.03125E-07
 -1        58-4.51172E+00-4.51172E+00 1.03125E-07
 -1        59-9.02344E+00-4.51172E+00 1.03125E-07
 -1        60-9.02344E+00-4.51172E+00 1.03125E-07
 -1        61 0.00000E+00-9.02344E+00 1.03125E-07
 -1        62-8.59375E-08-9.02344E+00 1.03125E-07
 -1        63-4.51172E+00-9.02344E+00 1.03125E-07
 -1        64-4.51172E+00-9.02344E+00 1.03125E-07
 -1        65-9.02344E+00-9.02344E+00 1.03125E-07
 -1        66-9.02344E+00-9.02344E+00 1.03125E-07
 -1        67 0.00000E+00-9.02344E+00 1.03125E-07
 -1        68-8.59375E-08-9.02344E+00 1.03125E-07
 -1        69-4.51172E+00-9.02344E+00 1.03125E-07
 -1        70-4.51172E+00-9.02344E+00 1.03125E-07
 -1        71-9.02344E+00-9.02344E+00 1.03125E-07
 -1        72-9.02344E+00-9.02344E+00 1.03125E-07
 -3
    1PSTEP                       113          38           1          
  100CL  138 3.00781E-01          72                     0   38           1
 -4  STRESS      6    1
 -5  SXX         1    4    1    1
 -5  SYY         1    4    2    2
 -5  SZZ         1    4    3    3
 -5  SXY         1    4    1    2
 -5  SYZ         1    4    2    3
 -5  SZX         1    4    3    1
 -1         1-5.15604E-05-5.15604E-05 6.77626E-21-6.99007E-23-5.78268E-22-4.43613E-22
 -1         2-2.57802E-05-2.57802E-05 1.72727E-20-1.26608E-20 2.03222E-22-8.23573E-21
 -1         3-2.57802E-05-2.57802E-05-6.20579E-14-4.68611E-14-5.36184E-21-9.00763E-15
 -1         4-2.57802E-05-2.57802E-05-3.19305E-14 9.13705E-15-5.26964E-20 9.42882E-14
 -1         5-2.57802E-05-2.57802E-05 1.19599E-13 2.35386E-14-2.13096E-19 1.26733E-13
 -1         6-5.15604E-05-5.15604E-05 1.85417E-13 9.95136E-14 1.23553E-19 2.14313E-13
 -1         7-2.57802E-05-2.57802E-05-9.07884E-22 1.12953E-20 1.57664E-21 1.82174E-22
 -1         8-1.71868E-05-1.71868E-05-3.08546E-21-8.86979E-22-6.26359E-21 6.15688E-21
 -1         9-1.71868E-05-1.71868E-05-6.92697E-14-3.20972E-14-4.23233E-15-2.84604E-14
 -1        10-1.71868E-05-1.71868E-05-8.77365E-14 4.80558E-15 2.23424E-15-4.47338E-14
 -1        11-1.71868E-05-1.71868E-05 4.88075E-14-4.40214E-15-2.52280E-14-1.22834E-13
 -1        12-2.57802E-05-2.57802E-05 7.25397E-14-3.80784E-14 2.90525E-14 3.78336E-13
 -1        13-2.57802E-05-2.57802E-05-2.10721E-14 7.97167E-21-1.43293E-13 1.67444E-20
 -1        14-1.71868E-05-1.71868E-05-3.05689E-14-5.69287E-16 1.12050E-14-1.22744E-16
 -1        15-1.71868E-05-1.71868E-05 3.19923E-14 4.81296E-14-5.74206E-14 4.59210E-14
 -1        16-1.71868E-05-1.71868E-05 6.71135E-14 7.25076E-14 1.92022E-14 4.48281E-15
 -1        17-1.71868E-05-1.71868E-05 2.03122E-14 1.79422E-13-1.18299E-14 1.46626E-13
 -1        18-2.57802E-05-2.57802E-05 3.37099E-14 6.15320E-15-1.14698E-13-1.19352E-13
 -1        19-2.57802E-05-2.57802E-05 1.16236E-14 7.97167E-21-1.45436E-14 3.25273E-20
 -1        20-1.71868E-05-1.71868E-05-2.16916E-15-5.69287E-16 3.98889E-14 1.81004E-16
 -1        21-1.71868E-05-1.71868E-05-8.15206E-15 3.70014E-14 4.37377E-14 3.21084E-14
 -1        22-1.71868E-05-1.71868E-05-4.84816E-14-1.08224E-14 2.91570E-14-2.68436E-14
 -1        23-1.71868E-05-1.71868E-05-1.04375E-13 1.58521E-13-1.17904E-13 3.47334E-14
 -1        24-2.57802E-05-2.57802E-05-2.60735E-13-7.64510E-14 2.11255E-13 3.79289E-14
 -1        25-2.57802E-05-2.57802E-05 2.23344E-13 2.26422E-13 6.40050E-14-8.40418E-20
 -1        26-1.71868E-05-1.71868E-05-3.01929E-13 1.58391E-13 2.67287E-14 1.35460E-14
 -1        27-1.71868E-05-1.71868E-05 1.71535E-13 1.06182E-13 4.46146E-14 3.66449E-14
 -1        28-1.71868E-05-1.71868E-05-2.21993E-13 2.15456E-14 1.94689E-14 3.81143E-14
 -1        29-1.71868E-05-1.71868E-05-1.41521E-13-6.77209E-15-9.83777E-14 3.48468E-14
 -1        30-2.57802E-05-2.57802E-05 3.46385E-13-2.08531E-13 3.42422E-14 1.94128E-13
 -1        31-5.15604E-05-5.15604E-05 6.06970E-13 1.21338E-13 3.38431E-13 1.98513E-19
 -1        32-2.57802E-05-2.57802E-05-1.76634E-13 7.18333E-14-1.32083E-13-6.22048E-15
 -1        33-2.57802E-05-2.57802E-05 2.75932E-13-4.31187E-15 1.49999E-13 4.22765E-14
 -1        34-2.57802E-05-2.57802E-05-1.63828E-13-1.41526E-13-6.03672E-14-1.51134E-13
 -1        35-2.57802E-05-2.57802E-05-4.07969E-13 4.09375E-13-2.03315E-14-1.02036E-13
 -1        36-5.15604E-05-5.15604E-05-1.11126E-13 9.22359E-15-4.12114E-13-2.87635E-13
 -1        37-5.15604E-05-5.15604E-05 2.48011E-21 5.12251E-23 9.46092E-21 8.41607E-22
 -1        38-2.57802E-05-2.57802E-05-1.26445E-20 9.71325E-21 1.29411E-21-7.16327E-21
 -1        39-2.57802E-05-2.57802E-05-1.31451E-13-4.25613E-14 1.47862E-14 4.05982E-14
 -1        40-2.57802E-05-2.57802E-05-8.09534E-14-6.91014E-15-8.34489E-15-2.97856E-14
 -1        41-2.57802E-05-2.57802E-05-3.33928E-13-3.37014E-13 3.66151E-15 1.04800E-13
 -1        42-5.15604E-05-5.15604E-05-4.40682E-13-8.02113E-14 2.82985E-14-6.88070E-13
 -1        43-2.57802E-05-2.57802E-05-3.32308E-22-1.01746E-20 8.73522E-21-1.68135E-21
 -1        44-1.71868E-05-1.71868E-05 2.25866E-21-3.24651E-22-5.91842E-21 3.84504E-21
 -1        45-1.71868E-05-1.71868E-05-1.04487E-14-2.49852E-14 5.62513E-15-6.52987E-14
 -1        46-1.71868E-05-1.71868E-05-1.53356E-14 2.11038E-14-3.32898E-15 6.04851E-14
 -1        47-1.71868E-05-1.71868E-05 1.01111E-13-2.20798E-13-2.27869E-14 1.43805E-13
 -1        48-2.57802E-05-2.57802E-05 2.91472E-13 1.81029E-13 4.32017E-14-1.05982E-13
 -1        49-2.57802E-05-2.57802E-05 9.24466E-14 1.00660E-20 4.11398E-14-3.47364E-15
 -1        50-1.71868E-05-1.71868E-05 7.79487E-14-1.44055E-16-4.73229E-14-2.43852E-15
 -1        51-1.71868E-05-1.71868E-05 8.08772E-14-4.50309E-15-3.53871E-14-2.23269E-14
 -1        52-1.71868E-05-1.71868E-05-1.13570E-13 4.83774E-14-3.12294E-14 6.29013E-15
 -1        53-1.71868E-05-1.71868E-05-5.85998E-14-1.34388E-13 1.84362E-14 2.40150E-13
 -1        54-2.57802E-05-2.57802E-05-7.86706E-14 1.27817E-13-6.70031E-14-3.76391E-13
 -1        55-2.57802E-05-2.57802E-05-3.15252E-14 1.00660E-20-1.19432E-13 4.87922E-16
 -1        56-1.71868E-05-1.71868E-05 1.90337E-15-1.44055E-16-4.46802E-14 5.06262E-16
 -1        57-1.71868E-05-1.71868E-05-2.46441E-14-7.03193E-14 5.21678E-15 2.63834E-14
 -1        58-1.71868E-05-1.71868E-05-7.84088E-14 2.41139E-14-4.39108E-14 3.74866E-14
 -1        59-1.71868E-05-1.71868E-05-9.39157E-14-8.43752E-14-2.69686E-14-3.81402E-14
 -1        60-2.57802E-05-2.57802E-05-3.43005E-14 8.33307E-14 1.67947E-13 1.68319E-13
 -1        61-2.57802E-05-2.57802E-05-6.58894E-14-6.06714E-14-3.00108E-13-4.67284E-14
 -1        62-1.71868E-05-1.71868E-05-2.18780E-14-5.77749E-14 1.59261E-13-1.76062E-14
 -1        63-1.71868E-05-1.71868E-05 6.76126E-16-8.29752E-14-1.57072E-13-1.13144E-13
 -1        64-1.71868E-05-1.71868E-05 8.48286E-14-8.25038E-14 9.11789E-14-6.25678E-14
 -1        65-1.71868E-05-1.71868E-05-7.67160E-14-1.08156E-13-9.27699E-14 6.01867E-14
 -1        66-2.57802E-05-2.57802E-05-3.36933E-13-1.53122E-14-8.72931E-14-1.48532E-13
 -1        67-5.15604E-05-5.15604E-05-8.29632E-14-3.25171E-14 2.90155E-13 6.34376E-14
 -1        68-2.57802E-05-2.57802E-05 1.87708E-13-4.22496E-14-2.07583E-13 2.54982E-14
 -1        69-2.57802E-05-2.57802E-05-4.21055E-14-9.47092E-14 1.34558E-13-3.82830E-14
 -1        70-2.57802E-05-2.57802E-05 2.00529E-13-2.46334E-14-2.97267E-14 1.14978E-13
 -1        71-2.57802E-05-2.57802E-05-1.45541E-13-5.27046E-13-1.03612E-13-1.15161E-13
 -1        72-5.15604E-05-5.15604E-05 8.32006E-13 2.83028E-13 5.26486E-13 2.89830E-13
 -3
    1PSTEP                       114          38           1          
  100CL  138 3.00781E-01          72                     0   38           1
 -4  TOSTRAIN    6    1
 -5  EXX         1    4    1    1
 -5  EYY         1    4    2    2
 -5  EZZ         1    4    3    3
 -5  EXY         1    4    1    2
 -5  EYZ         1    4    2    3
 -5  EZX         1    4    3    1
 -1         1-1.71868E-10-1.71868E-10 1.47316E-10-4.32718E-28-3.57975E-27-2.74617E-27
 -1         2-8.59341E-11-8.59341E-11 7.36578E-11-7.83761E-26 1.25804E-27-5.09831E-26
 -1         3-8.59341E-11-8.59341E-11 7.36578E-11-2.90093E-19-3.31924E-26-5.57615E-20
 -1         4-8.59341E-11-8.59341E-11 7.36578E-11 5.65627E-20-3.26216E-25 5.83689E-19
 -1         5-8.59341E-11-8.59341E-11 7.36578E-11 1.45715E-19-1.31917E-24 7.84535E-19
 -1         6-1.71868E-10-1.71868E-10 1.47316E-10 6.16036E-19 7.64851E-25 1.32670E-18
 -1         7-8.59341E-11-8.59341E-11 7.36578E-11 6.99236E-26 9.76014E-27 1.12774E-27
 -1         8-5.72894E-11-5.72894E-11 4.91052E-11-5.49082E-27-3.87746E-26 3.81140E-26
 -1         9-5.72894E-11-5.72894E-11 4.91052E-11-1.98697E-19-2.62002E-20-1.76183E-19
 -1        10-5.72894E-11-5.72894E-11 4.91052E-11 2.97488E-20 1.38310E-20-2.76924E-19
 -1        11-5.72894E-11-5.72894E-11 4.91052E-11-2.72514E-20-1.56173E-19-7.60401E-19
 -1        12-8.59341E-11-8.59341E-11 7.36578E-11-2.35723E-19 1.79849E-19 2.34208E-18
 -1        13-8.59341E-11-8.59341E-11 7.36578E-11 4.93484E-26-8.87054E-19 1.03656E-25
 -1        14-5.72894E-11-5.72894E-11 4.91052E-11-3.52416E-21 6.93643E-20-7.59842E-22
 -1        15-5.72894E-11-5.72894E-11 4.91052E-11 2.97945E-19-3.55461E-19 2.84273E-19
 -1        16-5.72894E-11-5.72894E-11 4.91052E-11 4.48856E-19 1.18871E-19 2.77507E-20
 -1        17-5.72894E-11-5.72894E-11 4.91052E-11 1.11071E-18-7.32329E-20 9.07685E-19
 -1        18-8.59341E-11-8.59341E-11 7.36578E-11 3.80912E-20-7.10038E-19-7.38844E-19
 -1        19-8.59341E-11-8.59341E-11 7.36578E-11 4.93484E-26-9.00319E-20 2.01359E-25
 -1        20-5.72894E-11-5.72894E-11 4.91052E-11-3.52416E-21 2.46931E-19 1.12050E-21
 -1        21-5.72894E-11-5.72894E-11 4.91052E-11 2.29056E-19 2.70757E-19 1.98766E-19
 -1        22-5.72894E-11-5.72894E-11 4.91052E-11-6.69961E-20 1.80496E-19-1.66175E-19
 -1        23-5.72894E-11-5.72894E-11 4.91052E-11 9.81321E-19-7.29881E-19 2.15016E-19
 -1        24-8.59341E-11-8.59341E-11 7.36578E-11-4.73268E-19 1.30777E-18 2.34798E-19
 -1        25-8.59341E-11-8.59341E-11 7.36578E-11 1.40166E-18 3.96222E-19-5.20258E-25
 -1        26-5.72894E-11-5.72894E-11 4.91052E-11 9.80514E-19 1.65463E-19 8.38563E-20
 -1        27-5.72894E-11-5.72894E-11 4.91052E-11 6.57317E-19 2.76186E-19 2.26849E-19
 -1        28-5.72894E-11-5.72894E-11 4.91052E-11 1.33377E-19 1.20522E-19 2.35946E-19
 -1        29-5.72894E-11-5.72894E-11 4.91052E-11-4.19225E-20-6.09005E-19 2.15718E-19
 -1        30-8.59341E-11-8.59341E-11 7.36578E-11-1.29091E-18 2.11976E-19 1.20174E-18
 -1        31-1.71868E-10-1.71868E-10 1.47316E-10 7.51138E-19 2.09505E-18 1.22889E-24
 -1        32-8.59341E-11-8.59341E-11 7.36578E-11 4.44683E-19-8.17654E-19-3.85077E-20
 -1        33-8.59341E-11-8.59341E-11 7.36578E-11-2.66925E-20 9.28562E-19 2.61711E-19
 -1        34-8.59341E-11-8.59341E-11 7.36578E-11-8.76113E-19-3.73702E-19-9.35591E-19
 -1        35-8.59341E-11-8.59341E-11 7.36578E-11 2.53423E-18-1.25861E-19-6.31650E-19
 -1        36-1.71868E-10-1.71868E-10 1.47316E-10 5.70984E-20-2.55118E-18-1.78060E-18
 -1        37-1.71868E-10-1.71868E-10 1.47316E-10 3.17108E-28 5.85676E-26 5.20995E-27
 -1        38-8.59341E-11-8.59341E-11 7.36578E-11 6.01296E-26 8.01116E-27-4.43441E-26
 -1        39-8.59341E-11-8.59341E-11 7.36578E-11-2.63475E-19 9.15336E-20 2.51322E-19
 -1        40-8.59341E-11-8.59341E-11 7.36578E-11-4.27771E-20-5.16589E-20-1.84387E-19
 -1        41-8.59341E-11-8.59341E-11 7.36578E-11-2.08628E-18 2.26665E-20 6.48760E-19
 -1        42-1.71868E-10-1.71868E-10 1.47316E-10-4.96546E-19 1.75181E-19-4.25948E-18
 -1        43-8.59341E-11-8.59341E-11 7.36578E-11-6.29857E-26 5.40752E-26-1.04083E-26
 -1        44-5.72894E-11-5.72894E-11 4.91052E-11-2.00975E-27-3.66379E-26 2.38026E-26
 -1        45-5.72894E-11-5.72894E-11 4.91052E-11-1.54670E-19 3.48222E-20-4.04230E-19
 -1        46-5.72894E-11-5.72894E-11 4.91052E-11 1.30643E-19-2.06080E-20 3.74431E-19
 -1        47-5.72894E-11-5.72894E-11 4.91052E-11-1.36685E-18-1.41061E-19 8.90222E-19
 -1        48-8.59341E-11-8.59341E-11 7.36578E-11 1.12065E-18 2.67439E-19-6.56076E-19
 -1        49-8.59341E-11-8.59341E-11 7.36578E-11 6.23131E-26 2.54675E-19-2.15035E-20
 -1        50-5.72894E-11-5.72894E-11 4.91052E-11-8.91766E-22-2.92951E-19-1.50956E-20
 -1        51-5.72894E-11-5.72894E-11 4.91052E-11-2.78763E-20-2.19063E-19-1.38214E-19
 -1        52-5.72894E-11-5.72894E-11 4.91052E-11 2.99479E-19-1.93325E-19 3.89389E-20
 -1        53-5.72894E-11-5.72894E-11 4.91052E-11-8.31929E-19 1.14129E-19 1.48664E-18
 -1        54-8.59341E-11-8.59341E-11 7.36578E-11 7.91247E-19-4.14781E-19-2.33004E-18
 -1        55-8.59341E-11-8.59341E-11 7.36578E-11 6.23131E-26-7.39343E-19 3.02047E-21
 -1        56-5.72894E-11-5.72894E-11 4.91052E-11-8.91766E-22-2.76592E-19 3.13401E-21
 -1        57-5.72894E-11-5.72894E-11 4.91052E-11-4.35310E-19 3.22944E-20 1.63326E-19
 -1        58-5.72894E-11-5.72894E-11 4.91052E-11 1.49277E-19-2.71829E-19 2.32060E-19
 -1        59-5.72894E-11-5.72894E-11 4.91052E-11-5.22322E-19-1.66949E-19-2.36106E-19
 -1        60-8.59341E-11-8.59341E-11 7.36578E-11 5.15857E-19 1.03967E-18 1.04198E-18
 -1        61-8.59341E-11-8.59341E-11 7.36578E-11-3.75585E-19-1.85781E-18-2.89271E-19
 -1        62-5.72894E-11-5.72894E-11 4.91052E-11-3.57654E-19 9.85900E-19-1.08991E-19
 -1        63-5.72894E-11-5.72894E-11 4.91052E-11-5.13656E-19-9.72352E-19-7.00415E-19
 -1        64-5.72894E-11-5.72894E-11 4.91052E-11-5.10738E-19 5.64441E-19-3.87324E-19
 -1        65-5.72894E-11-5.72894E-11 4.91052E-11-6.69535E-19-5.74290E-19 3.72584E-19
 -1        66-8.59341E-11-8.59341E-11 7.36578E-11-9.47896E-20-5.40386E-19-9.19483E-19
 -1        67-1.71868E-10-1.71868E-10 1.47316E-10-2.01297E-19 1.79620E-18 3.92709E-19
 -1        68-8.59341E-11-8.59341E-11 7.36578E-11-2.61545E-19-1.28504E-18 1.57846E-19
 -1        69-8.59341E-11-8.59341E-11 7.36578E-11-5.86295E-19 8.32980E-19-2.36990E-19
 -1        70-8.59341E-11-8.59341E-11 7.36578E-11-1.52492E-19-1.84023E-19 7.11767E-19
 -1        71-8.59341E-11-8.59341E-11 7.36578E-11-3.26267E-18-6.41405E-19-7.12901E-19
 -1        72-1.71868E-10-1.71868E-10 1.47316E-10 1.75208E-18 3.25920E-18 1.79418E-18
 -3
    1PSTEP                       115          39           1          
  100CL  139 3.09781E-01          72                     0   39           1
 -4  DISP        4    1
 -5  D1          1    2    1    0
 -5  D2          1    2    2    0
 -5  D3          1    2    3    0
 -5  ALL         1    2    0    0    1ALL
 -1         1 0.00000E+00 0.00000E+00 0.00000E+00
 -1         2-8.85089E-08 0.00000E+00 0.00000E+00
 -1         3-4.64672E+00 0.00000E+00 0.00000E+00
 -1         4-4.64672E+00 0.00000E+00 0.00000E+00
 -1         5-9.29344E+00 0.00000E+00 0.00000E+00
 -1         6-9.29344E+00 0.00000E+00 0.00000E+00
 -1         7 0.00000E+00-8.85089E-08 0.00000E+00
 -1         8-8.85089E-08-8.85089E-08 0.00000E+00
 -1         9-4.64672E+00-8.85089E-08 0.00000E+00
 -1        10-4.64672E+00-8.85089E-08 0.00000E+00
 -1        11-9.29344E+00-8.85089E-08 0.00000E+00
 -1        12-9.29344E+00-8.85089E-08 0.00000E+00
 -1        13 0.00000E+00-4.64672E+00 0.00000E+00
 -1        14-8.85089E-08-4.64672E+00 0.00000E+00
 -1        15-4.64672E+00-4.64672E+00 0.00000E+00
 -1        16-4.64672E+00-4.64672E+00 0.00000E+00
 -1        17-9.29344E+00-4.64672E+00 0.00000E+00
 -1        18-9.29344E+00-4.64672E+00 0.00000E+00
 -1        19 0.00000E+00-4.64672E+00 0.00000E+00
 -1        20-8.85089E-08-4.64672E+00 0.00000E+00
 -1        21-4.64672E+00-4.64672E+00 0.00000E+00
 -1        22-4.64672E+00-4.64672E+00 0.00000E+00
 -1        23-9.29344E+00-4.64672E+00 0.00000E+00
 -1        24-9.29344E+00-4.64672E+00 0.00000E+00
 -1        25 0.00000E+00-9.29344E+00 0.00000E+00
 -1        26-8.85089E-08-9.29344E+00 0.00000E+00
 -1        27-4.64672E+00-9.29344E+00 0.00000E+00
 -1        28-4.64672E+00-9.29344E+00 0.00000E+00
 -1        29-9.29344E+00-9.29344E+00 0.00000E+00
 -1        30-9.29344E+00-9.29344E+00 0.00000E+00
 -1        31 0.00000E+00-9.29344E+00 0.00000E+00
 -1        32-8.85089E-08-9.29344E+00 0.00000E+00
 -1        33-4.64672E+00-9.29344E+00 0.00000E+00
 -1        34-4.64672E+00-9.29344E+00 0.00000E+00
 -1        35-9.29344E+00-9.29344E+00 0.00000E+00
 -1        36-9.29344E+00-9.29344E+00 0.00000E+00
 -1        37 0.00000E+00 0.00000E+00 1.06211E-07
 -1        38-8.85089E-08 0.00000E+00 1.06211E-07
 -1        39-4.64672E+00 0.00000E+00 1.06211E-07
 -1        40-4.64672E+00 0.00000E+00 1.06211E-07
 -1        41-9.29344E+00 0.00000E+00 1.06211E-07
 -1        42-9.29344E+00 0.00000E+00 1.06211E-07
 -1        43 0.00000E+00-8.85089E-08 1.06211E-07
 -1        44-8.85089E-08-8.85089E-08 1.06211E-07
 -1        45-4.64672E+00-8.85089E-08 1.06211E-07
 -1        46-4.64672E+00-8.85089E-08 1.06211E-07
 -1        47-9.29344E+00-8.85089E-08 1.06211E-07
 -1        48-9.29344E+00-8.85089E-08 1.06211E-07
 -1        49 0.00000E+00-4.64672E+00 1.06211E-07
 -1        50-8.85089E-08-4.64672E+00 1.06211E-07
 -1        51-4.64672E+00-4.64672E+00 1.06211E-07
 -1        52-4.64672E+00-4.64672E+00 1.06211E-07
 -1        53-9.29344E+00-4.64672E+00 1.06211E-07
 -1        54-9.29344E+00-4.64672E+00 1.06211E-07
 -1        55 0.00000E+00-4.64672E+00 1.06211E-07
 -1        56-8.85089E-08-4.64672E+00 1.06211E-07
 -1        57-4.64672E+00-4.64672E+00 1.06211E-07
 -1        58-4.64672E+00-4.64672E+00 1.06211E-07
 -1        59-9.29344E+00-4.64672E+00 1.06211E-07
 -1        60-9.29344E+00-4.64672E+00 1.06211E-07
 -1        61 0.00000E+00-9.29344E+00 1.06211E-07
 -1        62-8.85089E-08-9.29344E+00 1.06211E-07
 -1        63-4.64672E+00-9.29344E+00 1.06211E-07
 -1        64-4.64672E+00-9.29344E+00 1.06211E-07
 -1        65-9.29344E+00-9.29344E+00 1.06211E-07
 -1        66-9.29344E+00-9.29344E+00 1.06211E-07
 -1        67 0.00000E+00-9.29344E+00 1.06211E-07
 -1        68-8.85089E-08-9.29344E+00 1.06211E-07
 -1        69-4.64672E+00-9.29344E+00 1.06211E-07
 -1        70-4.64672E+00-9.29344E+00 1.06211E-07
 -1        71-9.29344E+00-9.29344E+00 1.06211E-07
 -1        72-9.29344E+00-9.29344E+00 1.06211E-07
 -3
    1PSTEP                       116          39           1          
  100CL  139 3.09781E-01          72                     0   39           1
 -4  STRESS      6    1
 -5  SXX         1    4    1    1
 -5  SYY         1    4    2    2
 -5  SZZ         1    4    3    3
 -5  SXY         1    4    1    2
 -5  SYZ         1    4    2    3
 -5  SZX         1    4    3    1
 -1         1-5.31032E-05-5.31032E-05 8.34863E-21 1.39843E-22 5.91860E-22-5.41235E-22
 -1         2-2.65516E-05-2.65516E-05 1.21906E-20 5.21948E-22-3.21548E-22-5.07192E-21
 -1         3-2.65516E-05-2.65516E-05 4.53450E-14 5.68800E-15-5.21677E-21-5.41298E-14
 -1         4-2.65516E-05-2.65516E-05 8.17184E-14 3.94430E-14-3.85846E-20 1.45412E-13
 -1         5-2.65516E-05-2.65516E-05 5.37657E-14-1.08544E-13-8.36493E-20 3.71583E-14
 -1         6-5.31032E-05-5.31032E-05 5.50254E-14 2.84779E-13-1.28420E-19-4.49889E-14
 -1         7-2.65516E-05-2.65516E-05 6.32225E-21-1.16503E-21 2.92968E-22 3.63482E-22
 -1         8-1.77011E-05-1.77011E-05 2.78288E-21-4.75338E-22 1.21903E-21-3.67623E-21
 -1         9-1.77011E-05-1.77011E-05-2.01547E-15-3.09089E-15-4.16776E-15 2.91663E-14
 -1        10-1.77011E-05-1.77011E-05-1.41985E-14 2.49641E-14 4.20988E-15-9.87396E-14
 -1        11-1.77011E-05-1.77011E-05 1.30404E-13-6.82038E-15-2.05185E-14-5.05198E-14
 -1        12-2.65516E-05-2.65516E-05 2.37265E-14-2.58685E-14 3.30614E-14 9.78282E-14
 -1        13-2.65516E-05-2.65516E-05-2.23985E-14 4.65144E-15 1.95302E-14 1.44413E-21
 -1        14-1.77011E-05-1.77011E-05-3.15709E-14-7.41204E-16 3.89756E-14-3.93671E-16
 -1        15-1.77011E-05-1.77011E-05-1.88427E-13 3.23752E-14 7.42114E-15-8.12634E-14
 -1        16-1.77011E-05-1.77011E-05 7.05652E-15 5.33647E-15-6.91344E-14 4.55308E-14
 -1        17-1.77011E-05-1.77011E-05-3.45685E-14 3.65255E-14-2.04234E-14-2.18364E-14
 -1        18-2.65516E-05-2.65516E-05-1.23163E-13-5.83496E-14 1.62899E-14-7.08725E-14
 -1        19-2.65516E-05-2.65516E-05-2.19283E-14-1.53240E-14 1.37622E-13-4.30958E-20
 -1        20-1.77011E-05-1.77011E-05-5.64327E-14-1.40582E-14-8.56521E-14 1.16589E-15
 -1        21-1.77011E-05-1.77011E-05-1.13093E-13 2.82693E-14-4.78531E-14 7.43021E-15
 -1        22-1.77011E-05-1.77011E-05-4.71928E-14 4.86496E-14 4.95857E-14 4.13331E-14
 -1        23-1.77011E-05-1.77011E-05-5.20396E-14 4.00449E-14 2.59613E-14-3.40640E-14
 -1        24-2.65516E-05-2.65516E-05-1.40344E-14 3.40692E-14-1.19063E-13 8.85853E-14
 -1        25-2.65516E-05-2.65516E-05-1.03725E-13-3.97194E-14 9.38532E-14-1.29550E-19
 -1        26-1.77011E-05-1.77011E-05-6.17544E-14-2.87142E-14-1.52616E-13-1.14855E-14
 -1        27-1.77011E-05-1.77011E-05-5.77015E-14 2.78393E-14 6.34835E-14-2.68964E-14
 -1        28-1.77011E-05-1.77011E-05-5.36334E-14 3.62089E-14-5.09483E-14 2.96091E-15
 -1        29-1.77011E-05-1.77011E-05-8.03208E-14 5.28383E-14-6.95030E-14-3.95212E-14
 -1        30-2.65516E-05-2.65516E-05 1.89792E-14-6.12394E-14 2.04099E-13 1.90908E-13
 -1        31-5.31032E-05-5.31032E-05-5.90892E-15 8.63141E-14-2.53235E-14-9.03911E-20
 -1        32-2.65516E-05-2.65516E-05-4.46378E-15 3.98051E-14 1.68601E-13 1.12957E-14
 -1        33-2.65516E-05-2.65516E-05-3.14657E-14-1.57443E-15-3.14647E-14-5.68987E-14
 -1        34-2.65516E-05-2.65516E-05-5.84349E-14 5.87237E-15 4.26839E-14 9.76501E-14
 -1        35-2.65516E-05-2.65516E-05-5.70650E-14 4.45871E-14 3.68596E-14-1.14758E-14
 -1        36-5.31032E-05-5.31032E-05-1.93985E-13 1.36309E-13-1.75995E-13 1.01909E-13
 -1        37-5.31032E-05-5.31032E-05-1.51249E-20 3.82095E-22 1.17094E-21 5.80930E-21
 -1        38-2.65516E-05-2.65516E-05 4.53874E-22 6.43074E-22-1.40213E-21-1.89665E-21
 -1        39-2.65516E-05-2.65516E-05-1.09300E-15-5.25781E-14 1.21775E-14 4.41065E-14
 -1        40-2.65516E-05-2.65516E-05 6.16700E-14-3.01985E-14-9.68167E-15-1.28050E-13
 -1        41-2.65516E-05-2.65516E-05-8.63332E-14-5.75636E-14 3.23195E-14 9.15828E-15
 -1        42-5.31032E-05-5.31032E-05 4.29521E-14 3.74919E-14-5.18625E-14 5.02839E-14
 -1        43-2.65516E-05-2.65516E-05-5.41451E-21 5.21948E-22 5.82506E-22 2.95156E-21
 -1        44-1.77011E-05-1.77011E-05-5.04163E-21 6.49317E-22 4.98638E-22-1.95085E-21
 -1        45-1.77011E-05-1.77011E-05 7.21086E-14-3.34114E-14 3.95060E-15-1.44686E-14
 -1        46-1.77011E-05-1.77011E-05 7.75187E-14 2.22728E-15-2.24454E-15 5.72612E-14
 -1        47-1.77011E-05-1.77011E-05 2.38698E-14-8.22076E-14 1.02790E-15 3.87298E-14
 -1        48-2.65516E-05-2.65516E-05-2.01316E-15-1.08815E-13 7.13018E-15 1.15773E-14
 -1        49-2.65516E-05-2.65516E-05-2.36386E-14-1.53240E-14-4.52042E-14 8.21789E-15
 -1        50-1.77011E-05-1.77011E-05-3.23976E-14-1.18747E-14-5.99820E-14 5.08492E-15
 -1        51-1.77011E-05-1.77011E-05-1.64524E-13-1.58121E-14-8.87970E-14 1.34987E-14
 -1        52-1.77011E-05-1.77011E-05 1.41325E-14-2.60810E-14 4.41028E-14 1.26214E-13
 -1        53-1.77011E-05-1.77011E-05 3.66609E-14 5.01730E-15 6.43429E-14 3.28825E-14
 -1        54-2.65516E-05-2.65516E-05-6.77003E-14 8.66106E-14-1.37861E-13-1.13108E-13
 -1        55-2.65516E-05-2.65516E-05-1.82556E-14-4.84348E-14 9.62379E-14-6.88738E-15
 -1        56-1.77011E-05-1.77011E-05-5.39843E-14-3.39486E-14 8.88009E-14-3.42567E-15
 -1        57-1.77011E-05-1.77011E-05-1.12584E-13 3.18795E-14 1.24093E-14 5.35594E-15
 -1        58-1.77011E-05-1.77011E-05 1.61165E-14 3.11114E-14-6.79304E-15-1.56828E-13
 -1        59-1.77011E-05-1.77011E-05 1.68831E-13-1.17265E-13 3.78170E-16 1.38408E-14
 -1        60-2.65516E-05-2.65516E-05-1.43627E-13 1.30776E-14 9.59082E-14 1.27132E-13
 -1        61-2.65516E-05-2.65516E-05-5.30627E-14-7.81829E-14-1.00010E-13 1.06530E-14
 -1        62-1.77011E-05-1.77011E-05-1.48441E-14-2.77343E-14 7.70786E-14-4.38336E-15
 -1        63-1.77011E-05-1.77011E-05 1.27183E-13 2.65145E-15-1.11700E-13-4.04651E-14
 -1        64-1.77011E-05-1.77011E-05 1.29964E-13-9.89783E-15 7.82961E-14 5.64760E-15
 -1        65-1.77011E-05-1.77011E-05-5.29993E-15-9.35984E-14-7.98089E-15-3.90192E-14
 -1        66-2.65516E-05-2.65516E-05-5.44442E-14 4.07939E-14-1.68354E-13-2.23690E-14
 -1        67-5.31032E-05-5.31032E-05 2.15216E-13-2.00779E-13-9.19601E-15 1.12239E-14
 -1        68-2.65516E-05-2.65516E-05 1.25802E-13-6.38078E-14-2.40469E-13 1.69077E-14
 -1        69-2.65516E-05-2.65516E-05 1.73451E-14 2.11675E-13 6.97748E-14 1.71112E-13
 -1        70-2.65516E-05-2.65516E-05 9.08229E-14-5.63873E-15-1.27464E-13-1.39708E-14
 -1        71-2.65516E-05-2.65516E-05 2.43869E-13-1.02951E-13 3.74508E-14-3.29766E-14
 -1        72-5.31032E-05-5.31032E-05-4.41795E-13-1.97919E-13 2.60769E-13 4.03650E-14
 -3
    1PSTEP                       117          39           1          
  100CL  139 3.09781E-01          72                     0   39           1
 -4  TOSTRAIN    6    1
 -5  EXX         1    4    1    1
 -5  EYY         1    4    2    2
 -5  EZZ         1    4    3    3
 -5  EXY         1    4    1    2
 -5  EYZ         1    4    2    3
 -5  EZX         1    4    3    1
 -1         1-1.77011E-10-1.77011E-10 1.51724E-10 8.65696E-28 3.66389E-27-3.35050E-27
 -1         2-8.85054E-11-8.85054E-11 7.58618E-11 3.23111E-27-1.99053E-27-3.13976E-26
 -1         3-8.85054E-11-8.85054E-11 7.58618E-11 3.52114E-20-3.22943E-26-3.35089E-19
 -1         4-8.85054E-11-8.85054E-11 7.58618E-11 2.44171E-19-2.38857E-25 9.00172E-19
 -1         5-8.85054E-11-8.85054E-11 7.58618E-11-6.71936E-19-5.17829E-25 2.30028E-19
 -1         6-1.77011E-10-1.77011E-10 1.51724E-10 1.76292E-18-7.94981E-25-2.78503E-19
 -1         7-8.85054E-11-8.85054E-11 7.58618E-11-7.21211E-27 1.81361E-27 2.25013E-27
 -1         8-5.90036E-11-5.90036E-11 5.05745E-11-2.94257E-27 7.54636E-27-2.27576E-26
 -1         9-5.90036E-11-5.90036E-11 5.05745E-11-1.91341E-20-2.58004E-20 1.80554E-19
 -1        10-5.90036E-11-5.90036E-11 5.05745E-11 1.54540E-19 2.60612E-20-6.11245E-19
 -1        11-5.90036E-11-5.90036E-11 5.05745E-11-4.22214E-20-1.27019E-19-3.12742E-19
 -1        12-8.85054E-11-8.85054E-11 7.58618E-11-1.60138E-19 2.04666E-19 6.05603E-19
 -1        13-8.85054E-11-8.85054E-11 7.58618E-11 2.87946E-20 1.20901E-19 8.93984E-27
 -1        14-5.90036E-11-5.90036E-11 5.05745E-11-4.58841E-21 2.41278E-19-2.43701E-21
 -1        15-5.90036E-11-5.90036E-11 5.05745E-11 2.00418E-19 4.59404E-20-5.03059E-19
 -1        16-5.90036E-11-5.90036E-11 5.05745E-11 3.30353E-20-4.27975E-19 2.81857E-19
 -1        17-5.90036E-11-5.90036E-11 5.05745E-11 2.26110E-19-1.26431E-19-1.35178E-19
 -1        18-8.85054E-11-8.85054E-11 7.58618E-11-3.61212E-19 1.00842E-19-4.38734E-19
 -1        19-8.85054E-11-8.85054E-11 7.58618E-11-9.48629E-20 8.51944E-19-2.66783E-25
 -1        20-5.90036E-11-5.90036E-11 5.05745E-11-8.70268E-20-5.30227E-19 7.21742E-21
 -1        21-5.90036E-11-5.90036E-11 5.05745E-11 1.75001E-19-2.96233E-19 4.59965E-20
 -1        22-5.90036E-11-5.90036E-11 5.05745E-11 3.01164E-19 3.06959E-19 2.55871E-19
 -1        23-5.90036E-11-5.90036E-11 5.05745E-11 2.47897E-19 1.60713E-19-2.10872E-19
 -1        24-8.85054E-11-8.85054E-11 7.58618E-11 2.10904E-19-7.37058E-19 5.48385E-19
 -1        25-8.85054E-11-8.85054E-11 7.58618E-11-2.45882E-19 5.80996E-19-8.01973E-25
 -1        26-5.90036E-11-5.90036E-11 5.05745E-11-1.77755E-19-9.44765E-19-7.11005E-20
 -1        27-5.90036E-11-5.90036E-11 5.05745E-11 1.72339E-19 3.92993E-19-1.66502E-19
 -1        28-5.90036E-11-5.90036E-11 5.05745E-11 2.24150E-19-3.15394E-19 1.83295E-20
 -1        29-5.90036E-11-5.90036E-11 5.05745E-11 3.27094E-19-4.30256E-19-2.44655E-19
 -1        30-8.85054E-11-8.85054E-11 7.58618E-11-3.79101E-19 1.26347E-18 1.18181E-18
 -1        31-1.77011E-10-1.77011E-10 1.51724E-10 5.34325E-19-1.56764E-19-5.59564E-25
 -1        32-8.85054E-11-8.85054E-11 7.58618E-11 2.46413E-19 1.04372E-18 6.99260E-20
 -1        33-8.85054E-11-8.85054E-11 7.58618E-11-9.74646E-21-1.94782E-19-3.52230E-19
 -1        34-8.85054E-11-8.85054E-11 7.58618E-11 3.63527E-20 2.64233E-19 6.04501E-19
 -1        35-8.85054E-11-8.85054E-11 7.58618E-11 2.76015E-19 2.28179E-19-7.10407E-20
 -1        36-1.77011E-10-1.77011E-10 1.51724E-10 8.43815E-19-1.08949E-18 6.30868E-19
 -1        37-1.77011E-10-1.77011E-10 1.51724E-10 2.36535E-27 7.24865E-27 3.59624E-26
 -1        38-8.85054E-11-8.85054E-11 7.58618E-11 3.98094E-27-8.67987E-27-1.17412E-26
 -1        39-8.85054E-11-8.85054E-11 7.58618E-11-3.25483E-19 7.53848E-20 2.73040E-19
 -1        40-8.85054E-11-8.85054E-11 7.58618E-11-1.86943E-19-5.99341E-20-7.92687E-19
 -1        41-8.85054E-11-8.85054E-11 7.58618E-11-3.56346E-19 2.00073E-19 5.66941E-20
 -1        42-1.77011E-10-1.77011E-10 1.51724E-10 2.32093E-19-3.21054E-19 3.11281E-19
 -1        43-8.85054E-11-8.85054E-11 7.58618E-11 3.23111E-27 3.60599E-27 1.82715E-26
 -1        44-5.90036E-11-5.90036E-11 5.05745E-11 4.01958E-27 3.08681E-27-1.20767E-26
 -1        45-5.90036E-11-5.90036E-11 5.05745E-11-2.06832E-19 2.44561E-20-8.95674E-20
 -1        46-5.90036E-11-5.90036E-11 5.05745E-11 1.37879E-20-1.38948E-20 3.54474E-19
 -1        47-5.90036E-11-5.90036E-11 5.05745E-11-5.08904E-19 6.36319E-21 2.39756E-19
 -1        48-8.85054E-11-8.85054E-11 7.58618E-11-6.73615E-19 4.41392E-20 7.16689E-20
 -1        49-8.85054E-11-8.85054E-11 7.58618E-11-9.48629E-20-2.79835E-19 5.08727E-20
 -1        50-5.90036E-11-5.90036E-11 5.05745E-11-7.35103E-20-3.71317E-19 3.14781E-20
 -1        51-5.90036E-11-5.90036E-11 5.05745E-11-9.78847E-20-5.49696E-19 8.35635E-20
 -1        52-5.90036E-11-5.90036E-11 5.05745E-11-1.61454E-19 2.73017E-19 7.81323E-19
 -1        53-5.90036E-11-5.90036E-11 5.05745E-11 3.10595E-20 3.98313E-19 2.03558E-19
 -1        54-8.85054E-11-8.85054E-11 7.58618E-11 5.36161E-19-8.53423E-19-7.00193E-19
 -1        55-8.85054E-11-8.85054E-11 7.58618E-11-2.99835E-19 5.95759E-19-4.26361E-20
 -1        56-5.90036E-11-5.90036E-11 5.05745E-11-2.10158E-19 5.49720E-19-2.12065E-20
 -1        57-5.90036E-11-5.90036E-11 5.05745E-11 1.97349E-19 7.68194E-20 3.31558E-20
 -1        58-5.90036E-11-5.90036E-11 5.05745E-11 1.92594E-19-4.20521E-20-9.70838E-19
 -1        59-5.90036E-11-5.90036E-11 5.05745E-11-7.25927E-19 2.34105E-21 8.56808E-20
 -1        60-8.85054E-11-8.85054E-11 7.58618E-11 8.09563E-20 5.93718E-19 7.87008E-19
 -1        61-8.85054E-11-8.85054E-11 7.58618E-11-4.83989E-19-6.19108E-19 6.59473E-20
 -1        62-5.90036E-11-5.90036E-11 5.05745E-11-1.71688E-19 4.77153E-19-2.71351E-20
 -1        63-5.90036E-11-5.90036E-11 5.05745E-11 1.64137E-20-6.91475E-19-2.50498E-19
 -1        64-5.90036E-11-5.90036E-11 5.05745E-11-6.12723E-20 4.84690E-19 3.49613E-20
 -1        65-5.90036E-11-5.90036E-11 5.05745E-11-5.79419E-19-4.94055E-20-2.41548E-19
 -1        66-8.85054E-11-8.85054E-11 7.58618E-11 2.52533E-19-1.04219E-18-1.38475E-19
 -1        67-1.77011E-10-1.77011E-10 1.51724E-10-1.24291E-18-5.69277E-20 6.94814E-20
 -1        68-8.85054E-11-8.85054E-11 7.58618E-11-3.95001E-19-1.48862E-18 1.04667E-19
 -1        69-8.85054E-11-8.85054E-11 7.58618E-11 1.31037E-18 4.31939E-19 1.05926E-18
 -1        70-8.85054E-11-8.85054E-11 7.58618E-11-3.49064E-20-7.89064E-19-8.64858E-20
 -1        71-8.85054E-11-8.85054E-11 7.58618E-11-6.37318E-19 2.31838E-19-2.04141E-19
 -1        72-1.77011E-10-1.77011E-10 1.51724E-10-1.22521E-18 1.61429E-18 2.49879E-19
 -3
    1PSTEP                       118          40           1          
  100CL  140 3.18781E-01          72                     0   40           1
 -4  DISP        4    1
 -5  D1          1    2    1    0
 -5  D2          1    2    2    0
 -5  D3          1    2    3    0
 -5  ALL         1    2    0    0    1ALL
 -1         1 0.00000E+00 0.00000E+00 0.00000E+00
 -1         2-9.10804E-08 0.00000E+00 0.00000E+00
 -1         3-4.78172E+00 0.00000E+00 0.00000E+00
 -1         4-4.78172E+00 0.00000E+00 0.00000E+00
 -1         5-9.56344E+00 0.00000E+00 0.00000E+00
 -1         6-9.56344E+00 0.00000E+00 0.00000E+00
 -1         7 0.00000E+00-9.10804E-08 0.00000E+00
 -1         8-9.10804E-08-9.10804E-08 0.00000E+00
 -1         9-4.78172E+00-9.10804E-08 0.00000E+00
 -1        10-4.78172E+00-9.10804E-08 0.00000E+00
 -1        11-9.56344E+00-9.10804E-08 0.00000E+00
 -1        12-9.56344E+00-9.10804E-08 0.00000E+00
 -1        13 0.00000E+00-4.78172E+00 0.00000E+00
 -1        14-9.10804E-08-4.78172E+00 0.00000E+00
 -1        15-4.78172E+00-4.78172E+00 0.00000E+00
 -1        16-4.78172E+00-4.78172E+00 0.00000E+00
 -1        17-9.56344E+00-4.78172E+00 0.00000E+00
 -1        18-9.56344E+00-4.78172E+00 0.00000E+00
 -1        19 0.00000E+00-4.78172E+00 0.00000E+00
 -1        20-9.10804E-08-4.78172E+00 0.00000E+00
 -1        21-4.78172E+00-4.78172E+00 0.00000E+00
 -1        22-4.78172E+00-4.78172E+00 0.00000E+00
 -1        23-9.56344E+00-4.78172E+00 0.00000E+00
 -1        24-9.56344E+00-4.78172E+00 0.00000E+00
 -1        25 0.00000E+00-9.56344E+00 0.00000E+00
 -1        26-9.10804E-08-9.56344E+00 0.00000E+00
 -1        27-4.78172E+00-9.56344E+00 0.00000E+00
 -1        28-4.78172E+00-9.56344E+00 0.00000E+00
 -1        29-9.56344E+00-9.56344E+00 0.00000E+00
 -1        30-9.56344E+00-9.56344E+00 0.00000E+00
 -1        31 0.00000E+00-9.56344E+00 0.00000E+00
 -1        32-9.10804E-08-9.56344E+00 0.00000E+00
 -1        33-4.78172E+00-9.56344E+00 0.00000E+00
 -1        34-4.78172E+00-9.56344E+00 0.00000E+00
 -1        35-9.56344E+00-9.56344E+00 0.00000E+00
 -1        36-9.56344E+00-9.56344E+00 0.00000E+00
 -1        37 0.00000E+00 0.00000E+00 1.09296E-07
 -1        38-9.10804E-08 0.00000E+00 1.09296E-07
 -1        39-4.78172E+00 0.00000E+00 1.09296E-07
 -1        40-4.78172E+00 0.00000E+00 1.09296E-07
 -1        41-9.56344E+00 0.00000E+00 1.09296E-07
 -1        42-9.56344E+00 0.00000E+00 1.09296E-07
 -1        43 0.00000E+00-9.10804E-08 1.09296E-07
 -1        44-9.10804E-08-9.10804E-08 1.09296E-07
 -1        45-4.78172E+00-9.10804E-08 1.09296E-07
 -1        46-4.78172E+00-9.10804E-08 1.09296E-07
 -1        47-9.56344E+00-9.10804E-08 1.09296E-07
 -1        48-9.56344E+00-9.10804E-08 1.09296E-07
 -1        49 0.00000E+00-4.78172E+00 1.09296E-07
 -1        50-9.10804E-08-4.78172E+00 1.09296E-07
 -1        51-4.78172E+00-4.78172E+00 1.09296E-07
 -1        52-4.78172E+00-4.78172E+00 1.09296E-07
 -1        53-9.56344E+00-4.78172E+00 1.09296E-07
 -1        54-9.56344E+00-4.78172E+00 1.09296E-07
 -1        55 0.00000E+00-4.78172E+00 1.09296E-07
 -1        56-9.10804E-08-4.78172E+00 1.09296E-07
 -1        57-4.78172E+00-4.78172E+00 1.09296E-07
 -1        58-4.78172E+00-4.78172E+00 1.09296E-07
 -1        59-9.56344E+00-4.78172E+00 1.09296E-07
 -1        60-9.56344E+00-4.78172E+00 1.09296E-07
 -1        61 0.00000E+00-9.56344E+00 1.09296E-07
 -1        62-9.10804E-08-9.56344E+00 1.09296E-07
 -1        63-4.78172E+00-9.56344E+00 1.09296E-07
 -1        64-4.78172E+00-9.56344E+00 1.09296E-07
 -1        65-9.56344E+00-9.56344E+00 1.09296E-07
 -1        66-9.56344E+00-9.56344E+00 1.09296E-07
 -1        67 0.00000E+00-9.56344E+00 1.09296E-07
 -1        68-9.10804E-08-9.56344E+00 1.09296E-07
 -1        69-4.78172E+00-9.56344E+00 1.09296E-07
 -1        70-4.78172E+00-9.56344E+00 1.09296E-07
 -1        71-9.56344E+00-9.56344E+00 1.09296E-07
 -1        72-9.56344E+00-9.56344E+00 1.09296E-07
 -3
    1PSTEP                       119          40           1          
  100CL  140 3.18781E-01          72                     0   40           1
 -4  STRESS      6    1
 -5  SXX         1    4    1    1
 -5  SYY         1    4    2    2
 -5  SZZ         1    4    3    3
 -5  SXY         1    4    1    2
 -5  SYZ         1    4    2    3
 -5  SZX         1    4    3    1
 -1         1-5.46460E-05-5.46460E-05 1.72727E-20-1.35479E-21 1.03671E-21 2.76565E-22
 -1         2-2.73230E-05-2.73230E-05 2.97510E-20-1.11642E-20-5.50380E-22-8.54557E-21
 -1         3-2.73230E-05-2.73230E-05 1.80058E-16-1.82444E-14-4.16954E-20-1.21446E-13
 -1         4-2.73230E-05-2.73230E-05-2.24492E-14 6.80880E-14 2.38429E-21 6.51339E-14
 -1         5-2.73230E-05-2.73230E-05-1.25787E-13-2.01110E-13 1.85561E-20-5.14989E-14
 -1         6-5.46460E-05-5.46460E-05-9.10335E-14 1.42572E-13-3.34726E-19 7.50919E-14
 -1         7-2.73230E-05-2.73230E-05-7.41730E-22 6.80989E-21 3.30589E-21-4.53415E-22
 -1         8-1.82153E-05-1.82153E-05 4.32560E-21-2.83337E-21-5.16345E-21 4.54794E-21
 -1         9-1.82153E-05-1.82153E-05-8.52930E-15 1.69112E-14 6.91491E-15 1.03118E-13
 -1        10-1.82153E-05-1.82153E-05 2.57033E-14-2.16598E-14-4.51290E-15-7.28353E-14
 -1        11-1.82153E-05-1.82153E-05 1.53857E-13-1.70749E-13-1.93252E-14 1.00009E-13
 -1        12-2.73230E-05-2.73230E-05 2.60867E-14 1.03413E-13 3.25707E-14 5.57630E-14
 -1        13-2.73230E-05-2.73230E-05-2.89607E-14 1.17350E-15-1.03653E-13 1.83139E-20
 -1        14-1.82153E-05-1.82153E-05-5.11702E-14-1.12755E-15 7.93180E-14 4.95360E-17
 -1        15-1.82153E-05-1.82153E-05-6.05128E-14-2.57028E-14-1.27051E-13-5.89772E-14
 -1        16-1.82153E-05-1.82153E-05-3.51232E-14-1.82102E-14 4.15424E-14 1.95874E-14
 -1        17-1.82153E-05-1.82153E-05 3.26077E-14-1.29371E-16 7.78777E-14 9.55044E-14
 -1        18-2.73230E-05-2.73230E-05-9.15717E-15 9.60894E-14-6.19337E-14-1.51848E-14
 -1        19-2.73230E-05-2.73230E-05-5.31700E-15-6.09838E-14 2.92605E-14 3.47842E-20
 -1        20-1.82153E-05-1.82153E-05-2.64616E-14-4.25658E-14-2.49543E-14-3.64966E-16
 -1        21-1.82153E-05-1.82153E-05 1.67909E-14-4.01687E-14 1.39586E-13-1.52587E-14
 -1        22-1.82153E-05-1.82153E-05 3.44237E-14-1.08986E-14-7.35185E-14 8.10333E-15
 -1        23-1.82153E-05-1.82153E-05 3.24725E-14 4.99989E-14-6.23052E-14 9.96753E-15
 -1        24-2.73230E-05-2.73230E-05 5.57903E-14-9.52891E-14 1.15329E-13 7.14833E-14
 -1        25-2.73230E-05-2.73230E-05 1.50281E-13 6.06691E-14 2.43520E-13 5.67977E-20
 -1        26-1.82153E-05-1.82153E-05-1.04279E-13 3.57644E-15-1.23437E-13-3.89712E-15
 -1        27-1.82153E-05-1.82153E-05-1.05540E-13 1.93695E-14-1.00063E-14-4.01313E-14
 -1        28-1.82153E-05-1.82153E-05 3.21874E-15-1.97465E-14-3.09938E-15-1.22762E-14
 -1        29-1.82153E-05-1.82153E-05-7.57680E-14 7.21928E-14 4.87063E-14 3.16132E-14
 -1        30-2.73230E-05-2.73230E-05 6.42780E-13 2.00381E-13 1.22481E-13 2.26307E-13
 -1        31-5.46460E-05-5.46460E-05 2.14055E-13 2.10164E-13-1.70556E-13 1.02623E-19
 -1        32-2.73230E-05-2.73230E-05-4.74308E-14 4.97775E-14 1.24360E-13 2.41048E-14
 -1        33-2.73230E-05-2.73230E-05 1.37112E-13-1.14393E-15-2.00191E-13 6.09420E-14
 -1        34-2.73230E-05-2.73230E-05 6.09424E-14-2.19998E-14-2.31125E-13-8.53785E-14
 -1        35-2.73230E-05-2.73230E-05 1.86392E-14 1.73020E-13 9.06589E-14-1.56808E-14
 -1        36-5.46460E-05-5.46460E-05-1.28467E-13-4.46433E-13-4.77902E-14-9.90694E-14
 -1        37-5.46460E-05-5.46460E-05-1.63652E-20 5.40415E-22 4.39883E-21-5.95023E-22
 -1        38-2.73230E-05-2.73230E-05-2.12810E-20 8.39200E-21 3.87093E-21-9.26793E-21
 -1        39-2.73230E-05-2.73230E-05 1.15756E-13-5.81682E-15-1.54056E-14-5.98340E-14
 -1        40-2.73230E-05-2.73230E-05 5.71289E-14 2.17064E-14 1.41857E-14-3.47866E-14
 -1        41-2.73230E-05-2.73230E-05 6.64295E-14 6.79659E-14 5.95935E-14-6.08057E-14
 -1        42-5.46460E-05-5.46460E-05 5.51946E-13-1.43283E-13-1.08788E-13-9.99465E-14
 -1        43-2.73230E-05-2.73230E-05 9.21179E-21-7.88700E-21 4.98695E-21 1.17301E-21
 -1        44-1.82153E-05-1.82153E-05-1.10860E-22 1.58252E-21-2.21591E-21 6.34522E-21
 -1        45-1.82153E-05-1.82153E-05-2.99939E-14-2.12519E-14-3.35548E-15-7.07429E-14
 -1        46-1.82153E-05-1.82153E-05-1.97598E-14 4.50599E-14 4.94423E-15 9.30497E-14
 -1        47-1.82153E-05-1.82153E-05-8.57887E-14 6.28850E-14 2.04038E-14-7.81134E-14
 -1        48-2.73230E-05-2.73230E-05-2.04108E-13 6.46109E-14-2.18234E-14 1.42634E-13
 -1        49-2.73230E-05-2.73230E-05 6.42821E-14-3.13797E-16-1.48803E-14-4.02468E-15
 -1        50-1.82153E-05-1.82153E-05 4.42400E-15-2.69940E-15 2.80091E-14-2.63359E-15
 -1        51-1.82153E-05-1.82153E-05 6.75574E-14 5.10351E-14 3.82004E-14-2.30547E-14
 -1        52-1.82153E-05-1.82153E-05 2.55551E-13-6.41836E-14 2.57880E-14 5.72272E-14
 -1        53-1.82153E-05-1.82153E-05-6.25610E-14-3.57195E-14-4.71981E-14 9.30787E-14
 -1        54-2.73230E-05-2.73230E-05-1.22356E-13 2.57048E-14 7.07888E-14-5.34216E-14
 -1        55-2.73230E-05-2.73230E-05 8.66202E-14 1.63410E-14 1.26062E-14 1.34302E-15
 -1        56-1.82153E-05-1.82153E-05 2.82622E-14 8.40380E-15 2.02922E-14 5.30357E-16
 -1        57-1.82153E-05-1.82153E-05-1.26001E-13 5.80532E-15 3.69792E-14 1.09234E-13
 -1        58-1.82153E-05-1.82153E-05-9.36454E-14-4.21586E-15-8.41210E-14 4.33097E-14
 -1        59-1.82153E-05-1.82153E-05-6.26962E-14 3.37251E-14-5.16195E-14 6.66508E-14
 -1        60-2.73230E-05-2.73230E-05-5.74082E-14 6.80589E-14-1.46996E-14 9.91590E-14
 -1        61-2.73230E-05-2.73230E-05-3.67279E-13 1.05082E-13-3.44357E-13 3.38687E-15
 -1        62-1.82153E-05-1.82153E-05 6.64293E-15 6.11389E-14 2.93556E-14-1.63924E-15
 -1        63-1.82153E-05-1.82153E-05-1.87400E-13-1.08743E-14-1.96058E-13 1.72183E-15
 -1        64-1.82153E-05-1.82153E-05 1.81137E-14-2.47782E-14-4.07279E-14-1.70131E-14
 -1        65-1.82153E-05-1.82153E-05 2.03138E-14 2.86203E-15-1.54123E-13-9.85227E-14
 -1        66-2.73230E-05-2.73230E-05-3.36302E-13-2.41540E-14 1.48746E-13-1.29096E-13
 -1        67-5.46460E-05-5.46460E-05 1.02727E-12-1.21342E-13 4.82001E-13-5.60516E-14
 -1        68-2.73230E-05-2.73230E-05-4.89247E-14-7.40445E-14-7.45993E-14-3.92103E-15
 -1        69-2.73230E-05-2.73230E-05 8.06422E-14 8.98237E-14 2.28153E-13-1.68243E-13
 -1        70-2.73230E-05-2.73230E-05 1.15479E-13-4.10948E-14 5.58392E-14 7.05695E-14
 -1        71-2.73230E-05-2.73230E-05-1.46982E-14-2.09139E-13 2.79207E-13 4.45886E-14
 -1        72-5.46460E-05-5.46460E-05 3.56809E-13 1.86237E-13-1.92722E-13-2.59202E-14
 -3
    1PSTEP                       120          40           1          
  100CL  140 3.18781E-01          72                     0   40           1
 -4  TOSTRAIN    6    1
 -5  EXX         1    4    1    1
 -5  EYY         1    4    2    2
 -5  EZZ         1    4    3    3
 -5  EXY         1    4    1    2
 -5  EYZ         1    4    2    3
 -5  EZX         1    4    3    1
 -1         1-1.82153E-10-1.82153E-10 1.56131E-10-8.38677E-27 6.41776E-27 1.71207E-27
 -1         2-9.10767E-11-9.10767E-11 7.80657E-11-6.91117E-26-3.40711E-27-5.29012E-26
 -1         3-9.10767E-11-9.10767E-11 7.80657E-11-1.12942E-19-2.58114E-25-7.51808E-19
 -1         4-9.10767E-11-9.10767E-11 7.80657E-11 4.21497E-19 1.47599E-26 4.03210E-19
 -1         5-9.10767E-11-9.10767E-11 7.80657E-11-1.24497E-18 1.14871E-25-3.18803E-19
 -1         6-1.82153E-10-1.82153E-10 1.56131E-10 8.82592E-19-2.07211E-24 4.64855E-19
 -1         7-9.10767E-11-9.10767E-11 7.80657E-11 4.21565E-26 2.04650E-26-2.80686E-27
 -1         8-6.07178E-11-6.07178E-11 5.20438E-11-1.75399E-26-3.19642E-26 2.81539E-26
 -1         9-6.07178E-11-6.07178E-11 5.20438E-11 1.04688E-19 4.28066E-20 6.38352E-19
 -1        10-6.07178E-11-6.07178E-11 5.20438E-11-1.34085E-19-2.79370E-20-4.50885E-19
 -1        11-6.07178E-11-6.07178E-11 5.20438E-11-1.05702E-18-1.19632E-19 6.19103E-19
 -1        12-9.10767E-11-9.10767E-11 7.80657E-11 6.40178E-19 2.01628E-19 3.45199E-19
 -1        13-9.10767E-11-9.10767E-11 7.80657E-11 7.26452E-21-6.41662E-19 1.13372E-25
 -1        14-6.07178E-11-6.07178E-11 5.20438E-11-6.98005E-21 4.91016E-19 3.06652E-22
 -1        15-6.07178E-11-6.07178E-11 5.20438E-11-1.59113E-19-7.86509E-19-3.65097E-19
 -1        16-6.07178E-11-6.07178E-11 5.20438E-11-1.12730E-19 2.57167E-19 1.21255E-19
 -1        17-6.07178E-11-6.07178E-11 5.20438E-11-8.00871E-22 4.82100E-19 5.91218E-19
 -1        18-9.10767E-11-9.10767E-11 7.80657E-11 5.94839E-19-3.83399E-19-9.40014E-20
 -1        19-9.10767E-11-9.10767E-11 7.80657E-11-3.77519E-19 1.81136E-19 2.15331E-25
 -1        20-6.07178E-11-6.07178E-11 5.20438E-11-2.63502E-19-1.54479E-19-2.25931E-21
 -1        21-6.07178E-11-6.07178E-11 5.20438E-11-2.48664E-19 8.64106E-19-9.44586E-20
 -1        22-6.07178E-11-6.07178E-11 5.20438E-11-6.74674E-20-4.55115E-19 5.01635E-20
 -1        23-6.07178E-11-6.07178E-11 5.20438E-11 3.09517E-19-3.85699E-19 6.17038E-20
 -1        24-9.10767E-11-9.10767E-11 7.80657E-11-5.89885E-19 7.13942E-19 4.42516E-19
 -1        25-9.10767E-11-9.10767E-11 7.80657E-11 3.75571E-19 1.50751E-18 3.51605E-25
 -1        26-6.07178E-11-6.07178E-11 5.20438E-11 2.21399E-20-7.64133E-19-2.41250E-20
 -1        27-6.07178E-11-6.07178E-11 5.20438E-11 1.19907E-19-6.19436E-20-2.48432E-19
 -1        28-6.07178E-11-6.07178E-11 5.20438E-11-1.22241E-19-1.91866E-20-7.59958E-20
 -1        29-6.07178E-11-6.07178E-11 5.20438E-11 4.46908E-19 3.01515E-19 1.95701E-19
 -1        30-9.10767E-11-9.10767E-11 7.80657E-11 1.24045E-18 7.58215E-19 1.40095E-18
 -1        31-1.82153E-10-1.82153E-10 1.56131E-10 1.30101E-18-1.05582E-18 6.35285E-25
 -1        32-9.10767E-11-9.10767E-11 7.80657E-11 3.08146E-19 7.69846E-19 1.49220E-19
 -1        33-9.10767E-11-9.10767E-11 7.80657E-11-7.08147E-21-1.23928E-18 3.77260E-19
 -1        34-9.10767E-11-9.10767E-11 7.80657E-11-1.36189E-19-1.43077E-18-5.28533E-19
 -1        35-9.10767E-11-9.10767E-11 7.80657E-11 1.07108E-18 5.61222E-19-9.70716E-20
 -1        36-1.82153E-10-1.82153E-10 1.56131E-10-2.76363E-18-2.95844E-19-6.13287E-19
 -1        37-1.82153E-10-1.82153E-10 1.56131E-10 3.34543E-27 2.72308E-26-3.68347E-27
 -1        38-9.10767E-11-9.10767E-11 7.80657E-11 5.19505E-26 2.39629E-26-5.73729E-26
 -1        39-9.10767E-11-9.10767E-11 7.80657E-11-3.60089E-20-9.53681E-20-3.70401E-19
 -1        40-9.10767E-11-9.10767E-11 7.80657E-11 1.34373E-19 8.78162E-20-2.15346E-19
 -1        41-9.10767E-11-9.10767E-11 7.80657E-11 4.20741E-19 3.68912E-19-3.76416E-19
 -1        42-1.82153E-10-1.82153E-10 1.56131E-10-8.86987E-19-6.73452E-19-6.18716E-19
 -1        43-9.10767E-11-9.10767E-11 7.80657E-11-4.88243E-26 3.08716E-26 7.26148E-27
 -1        44-6.07178E-11-6.07178E-11 5.20438E-11 9.79654E-27-1.37176E-26 3.92800E-26
 -1        45-6.07178E-11-6.07178E-11 5.20438E-11-1.31560E-19-2.07720E-20-4.37932E-19
 -1        46-6.07178E-11-6.07178E-11 5.20438E-11 2.78943E-19 3.06072E-20 5.76022E-19
 -1        47-6.07178E-11-6.07178E-11 5.20438E-11 3.89288E-19 1.26309E-19-4.83559E-19
 -1        48-9.10767E-11-9.10767E-11 7.80657E-11 3.99972E-19-1.35097E-19 8.82974E-19
 -1        49-9.10767E-11-9.10767E-11 7.80657E-11-1.94255E-21-9.21164E-20-2.49147E-20
 -1        50-6.07178E-11-6.07178E-11 5.20438E-11-1.67105E-20 1.73390E-19-1.63032E-20
 -1        51-6.07178E-11-6.07178E-11 5.20438E-11 3.15931E-19 2.36479E-19-1.42719E-19
 -1        52-6.07178E-11-6.07178E-11 5.20438E-11-3.97327E-19 1.59640E-19 3.54264E-19
 -1        53-6.07178E-11-6.07178E-11 5.20438E-11-2.21121E-19-2.92179E-19 5.76202E-19
 -1        54-9.10767E-11-9.10767E-11 7.80657E-11 1.59125E-19 4.38217E-19-3.30705E-19
 -1        55-9.10767E-11-9.10767E-11 7.80657E-11 1.01159E-19 7.80382E-20 8.31393E-21
 -1        56-6.07178E-11-6.07178E-11 5.20438E-11 5.20235E-20 1.25618E-19 3.28317E-21
 -1        57-6.07178E-11-6.07178E-11 5.20438E-11 3.59377E-20 2.28919E-19 6.76210E-19
 -1        58-6.07178E-11-6.07178E-11 5.20438E-11-2.60982E-20-5.20749E-19 2.68107E-19
 -1        59-6.07178E-11-6.07178E-11 5.20438E-11 2.08774E-19-3.19549E-19 4.12600E-19
 -1        60-9.10767E-11-9.10767E-11 7.80657E-11 4.21317E-19-9.09976E-20 6.13842E-19
 -1        61-9.10767E-11-9.10767E-11 7.80657E-11 6.50508E-19-2.13173E-18 2.09664E-20
 -1        62-6.07178E-11-6.07178E-11 5.20438E-11 3.78479E-19 1.81725E-19-1.01477E-20
 -1        63-6.07178E-11-6.07178E-11 5.20438E-11-6.73170E-20-1.21369E-18 1.06589E-20
 -1        64-6.07178E-11-6.07178E-11 5.20438E-11-1.53389E-19-2.52125E-19-1.05319E-19
 -1        65-6.07178E-11-6.07178E-11 5.20438E-11 1.77173E-20-9.54097E-19-6.09902E-19
 -1        66-9.10767E-11-9.10767E-11 7.80657E-11-1.49525E-19 9.20812E-19-7.99169E-19
 -1        67-1.82153E-10-1.82153E-10 1.56131E-10-7.51162E-19 2.98381E-18-3.46986E-19
 -1        68-9.10767E-11-9.10767E-11 7.80657E-11-4.58371E-19-4.61805E-19-2.42730E-20
 -1        69-9.10767E-11-9.10767E-11 7.80657E-11 5.56052E-19 1.41237E-18-1.04151E-18
 -1        70-9.10767E-11-9.10767E-11 7.80657E-11-2.54397E-19 3.45671E-19 4.36859E-19
 -1        71-9.10767E-11-9.10767E-11 7.80657E-11-1.29467E-18 1.72842E-18 2.76025E-19
 -1        72-1.82153E-10-1.82153E-10 1.56131E-10 1.15290E-18-1.19304E-18-1.60458E-19
 -3
    1PSTEP                       121          41           1          
  100CL  141 3.27781E-01          72                     0   41           1
 -4  DISP        4    1
 -5  D1          1    2    1    0
 -5  D2          1    2    2    0
 -5  D3          1    2    3    0
 -5  ALL         1    2    0    0    1ALL
 -1         1 0.00000E+00 0.00000E+00 0.00000E+00
 -1         2-9.36518E-08 0.00000E+00 0.00000E+00
 -1         3-4.91672E+00 0.00000E+00 0.00000E+00
 -1         4-4.91672E+00 0.00000E+00 0.00000E+00
 -1         5-9.83344E+00 0.00000E+00 0.00000E+00
 -1         6-9.83344E+00 0.00000E+00 0.00000E+00
 -1         7 0.00000E+00-9.36518E-08 0.00000E+00
 -1         8-9.36518E-08-9.36518E-08 0.00000E+00
 -1         9-4.91672E+00-9.36518E-08 0.00000E+00
 -1        10-4.91672E+00-9.36518E-08 0.00000E+00
 -1        11-9.83344E+00-9.36518E-08 0.00000E+00
 -1        12-9.83344E+00-9.36518E-08 0.00000E+00
 -1        13 0.00000E+00-4.91672E+00 0.00000E+00
 -1        14-9.36518E-08-4.91672E+00 0.00000E+00
 -1        15-4.91672E+00-4.91672E+00 0.00000E+00
 -1        16-4.91672E+00-4.91672E+00 0.00000E+00
 -1        17-9.83344E+00-4.91672E+00 0.00000E+00
 -1        18-9.83344E+00-4.91672E+00 0.00000E+00
 -1        19 0.00000E+00-4.91672E+00 0.00000E+00
 -1        20-9.36518E-08-4.91672E+00 0.00000E+00
 -1        21-4.91672E+00-4.91672E+00 0.00000E+00
 -1        22-4.91672E+00-4.91672E+00 0.00000E+00
 -1        23-9.83344E+00-4.91672E+00 0.00000E+00
 -1        24-9.83344E+00-4.91672E+00 0.00000E+00
 -1        25 0.00000E+00-9.83344E+00 0.00000E+00
 -1        26-9.36518E-08-9.83344E+00 0.00000E+00
 -1        27-4.91672E+00-9.83344E+00 0.00000E+00
 -1        28-4.91672E+00-9.83344E+00 0.00000E+00
 -1        29-9.83344E+00-9.83344E+00 0.00000E+00
 -1        30-9.83344E+00-9.83344E+00 0.00000E+00
 -1        31 0.00000E+00-9.83344E+00 0.00000E+00
 -1        32-9.36518E-08-9.83344E+00 0.00000E+00
 -1        33-4.91672E+00-9.83344E+00 0.00000E+00
 -1        34-4.91672E+00-9.83344E+00 0.00000E+00
 -1        35-9.83344E+00-9.83344E+00 0.00000E+00
 -1        36-9.83344E+00-9.83344E+00 0.00000E+00
 -1        37 0.00000E+00 0.00000E+00 1.12382E-07
 -1        38-9.36518E-08 0.00000E+00 1.12382E-07
 -1        39-4.91672E+00 0.00000E+00 1.12382E-07
 -1        40-4.91672E+00 0.00000E+00 1.12382E-07
 -1        41-9.83344E+00 0.00000E+00 1.12382E-07
 -1        42-9.83344E+00 0.00000E+00 1.12382E-07
 -1        43 0.00000E+00-9.36518E-08 1.12382E-07
 -1        44-9.36518E-08-9.36518E-08 1.12382E-07
 -1        45-4.91672E+00-9.36518E-08 1.12382E-07
 -1        46-4.91672E+00-9.36518E-08 1.12382E-07
 -1        47-9.83344E+00-9.36518E-08 1.12382E-07
 -1        48-9.83344E+00-9.36518E-08 1.12382E-07
 -1        49 0.00000E+00-4.91672E+00 1.12382E-07
 -1        50-9.36518E-08-4.91672E+00 1.12382E-07
 -1        51-4.91672E+00-4.91672E+00 1.12382E-07
 -1        52-4.91672E+00-4.91672E+00 1.12382E-07
 -1        53-9.83344E+00-4.91672E+00 1.12382E-07
 -1        54-9.83344E+00-4.91672E+00 1.12382E-07
 -1        55 0.00000E+00-4.91672E+00 1.12382E-07
 -1        56-9.36518E-08-4.91672E+00 1.12382E-07
 -1        57-4.91672E+00-4.91672E+00 1.12382E-07
 -1        58-4.91672E+00-4.91672E+00 1.12382E-07
 -1        59-9.83344E+00-4.91672E+00 1.12382E-07
 -1        60-9.83344E+00-4.91672E+00 1.12382E-07
 -1        61 0.00000E+00-9.83344E+00 1.12382E-07
 -1        62-9.36518E-08-9.83344E+00 1.12382E-07
 -1        63-4.91672E+00-9.83344E+00 1.12382E-07
 -1        64-4.91672E+00-9.83344E+00 1.12382E-07
 -1        65-9.83344E+00-9.83344E+00 1.12382E-07
 -1        66-9.83344E+00-9.83344E+00 1.12382E-07
 -1        67 0.00000E+00-9.83344E+00 1.12382E-07
 -1        68-9.36518E-08-9.83344E+00 1.12382E-07
 -1        69-4.91672E+00-9.83344E+00 1.12382E-07
 -1        70-4.91672E+00-9.83344E+00 1.12382E-07
 -1        71-9.83344E+00-9.83344E+00 1.12382E-07
 -1        72-9.83344E+00-9.83344E+00 1.12382E-07
 -3
    1PSTEP                       122          41           1          
  100CL  141 3.27781E-01          72                     0   41           1
 -4  STRESS      6    1
 -5  SXX         1    4    1    1
 -5  SYY         1    4    2    2
 -5  SZZ         1    4    3    3
 -5  SXY         1    4    1    2
 -5  SYZ         1    4    2    3
 -5  SZX         1    4    3    1
 -1         1-5.61888E-05-5.61888E-05 1.42169E-20 2.46869E-21-4.47653E-22-4.83469E-22
 -1         2-2.80944E-05-2.80944E-05 1.72728E-20-4.66493E-21 4.71987E-22-9.43445E-21
 -1         3-2.80944E-05-2.80944E-05-2.56065E-14-5.95314E-14-5.87904E-20-6.83531E-14
 -1         4-2.80944E-05-2.80944E-05-3.05043E-14-1.23787E-14-7.14048E-20-3.19950E-14
 -1         5-2.80944E-05-2.80944E-05 9.34236E-14 1.35418E-13-7.63920E-20-4.27400E-14
 -1         6-5.61888E-05-5.61888E-05 1.04045E-13 1.37596E-13 1.48290E-19 3.57488E-13
 -1         7-2.80944E-05-2.80944E-05-4.62819E-21 5.14898E-21 4.51510E-21 1.96246E-22
 -1         8-1.87296E-05-1.87296E-05 8.65121E-21-5.00197E-22-2.91997E-21-2.30902E-21
 -1         9-1.87296E-05-1.87296E-05 5.84779E-14-6.28396E-14-7.67563E-15 5.73495E-14
 -1        10-1.87296E-05-1.87296E-05 1.64860E-14 4.16561E-14 5.44898E-15-2.26359E-14
 -1        11-1.87296E-05-1.87296E-05 2.28733E-13 4.86767E-14-3.37354E-14 1.44309E-13
 -1        12-2.80944E-05-2.80944E-05 1.90373E-13-3.20671E-14 3.67234E-14-2.38828E-13
 -1        13-2.80944E-05-2.80944E-05 1.03825E-14-8.79800E-15-3.51919E-14-2.05782E-21
 -1        14-1.87296E-05-1.87296E-05-3.60291E-14-8.27499E-15-2.29420E-14-2.29224E-16
 -1        15-1.87296E-05-1.87296E-05-2.63921E-14 1.62684E-14-1.89452E-14-6.45278E-14
 -1        16-1.87296E-05-1.87296E-05-5.56309E-14 2.21587E-14 5.78829E-14 8.24709E-14
 -1        17-1.87296E-05-1.87296E-05 7.31698E-14-1.96636E-15-9.89499E-14 6.94450E-14
 -1        18-2.80944E-05-2.80944E-05 3.47720E-14 5.92806E-14-3.98847E-14-2.69163E-14
 -1        19-2.80944E-05-2.80944E-05 1.33373E-14 1.97036E-14 1.84798E-13 2.77176E-21
 -1        20-1.87296E-05-1.87296E-05-3.89846E-14 1.07261E-14-4.73857E-14 2.78841E-15
 -1        21-1.87296E-05-1.87296E-05 2.16301E-14-1.53306E-14 4.94894E-14 8.19259E-14
 -1        22-1.87296E-05-1.87296E-05-3.51227E-15 3.15684E-14-4.11517E-14-7.19301E-14
 -1        23-1.87296E-05-1.87296E-05 2.31461E-13 5.80257E-14-3.24383E-14 9.24250E-14
 -1        24-2.80944E-05-2.80944E-05 1.99693E-13 9.28634E-14 1.30539E-13-1.94029E-13
 -1        25-2.80944E-05-2.80944E-05-1.10851E-13-4.69314E-15-1.25031E-13 5.05228E-20
 -1        26-1.87296E-05-1.87296E-05 9.22788E-14-1.72104E-14-6.08689E-14 2.03307E-14
 -1        27-1.87296E-05-1.87296E-05-7.14033E-16 1.15485E-13 3.58103E-14-5.18890E-14
 -1        28-1.87296E-05-1.87296E-05-2.22796E-13 1.02011E-13-1.37079E-13-2.80797E-14
 -1        29-1.87296E-05-1.87296E-05 1.01712E-13 9.39127E-14-1.81768E-13 1.31688E-13
 -1        30-2.80944E-05-2.80944E-05-1.19425E-13 1.91996E-13 1.78857E-14-2.12585E-13
 -1        31-5.61888E-05-5.61888E-05 1.52011E-13 2.51206E-15 3.00972E-13-4.05702E-19
 -1        32-2.80944E-05-2.80944E-05 1.92286E-13-1.98664E-14-2.58269E-13 1.17109E-14
 -1        33-2.80944E-05-2.80944E-05 5.87823E-14 5.60881E-14-1.49808E-13 1.37041E-13
 -1        34-2.80944E-05-2.80944E-05-1.98410E-13 1.92295E-15-1.67553E-13-1.99606E-15
 -1        35-2.80944E-05-2.80944E-05 2.64492E-13 1.14325E-13 4.19253E-14-1.16573E-13
 -1        36-5.61888E-05-5.61888E-05 1.18359E-12 2.18094E-13 2.22789E-13 5.88972E-13
 -1        37-5.61888E-05-5.61888E-05-3.27299E-20-1.50059E-21 3.67084E-21 9.79794E-21
 -1        38-2.80944E-05-2.80944E-05 1.24006E-21 2.54983E-21-7.96212E-22-4.43703E-21
 -1        39-2.80944E-05-2.80944E-05 2.07001E-14 1.32828E-13 1.71354E-14-8.58495E-14
 -1        40-2.80944E-05-2.80944E-05 5.71448E-14-1.25415E-14-6.10064E-15 5.68794E-14
 -1        41-2.80944E-05-2.80944E-05 7.26622E-14-1.43547E-13 2.92665E-14 2.22990E-13
 -1        42-5.61888E-05-5.61888E-05 4.29293E-13-7.69265E-14-3.05277E-14-5.69686E-13
 -1        43-2.80944E-05-2.80944E-05-3.32443E-22-4.66493E-21 6.57435E-21 1.86623E-21
 -1        44-1.87296E-05-1.87296E-05-6.99771E-21-9.09874E-22-3.76543E-21-8.39199E-22
 -1        45-1.87296E-05-1.87296E-05 1.05368E-14 1.17429E-13 3.74799E-15 3.98102E-14
 -1        46-1.87296E-05-1.87296E-05-3.89338E-15-6.56799E-14 1.38193E-15-1.47632E-14
 -1        47-1.87296E-05-1.87296E-05-1.26627E-13-8.14366E-14-1.42244E-14-9.81099E-14
 -1        48-2.80944E-05-2.80944E-05-1.59282E-13 1.26474E-13 2.14595E-14 1.92537E-13
 -1        49-2.80944E-05-2.80944E-05-6.49880E-14 1.97037E-14 2.51716E-14-4.61355E-16
 -1        50-1.87296E-05-1.87296E-05 5.67137E-15 1.49508E-14-2.44199E-14-5.36793E-16
 -1        51-1.87296E-05-1.87296E-05 1.25210E-13 8.59187E-14-1.33291E-14-4.05159E-15
 -1        52-1.87296E-05-1.87296E-05 1.10394E-13 3.64917E-14-6.43164E-14 9.16641E-14
 -1        53-1.87296E-05-1.87296E-05 1.57832E-13 3.76633E-15 2.05019E-14 1.29177E-13
 -1        54-2.80944E-05-2.80944E-05 7.31012E-14 3.77450E-14 6.40387E-14-1.25765E-13
 -1        55-2.80944E-05-2.80944E-05-5.25276E-14-1.22554E-13-4.43324E-14-3.41656E-15
 -1        56-1.87296E-05-1.87296E-05 9.05294E-15-7.98878E-14 8.40031E-15 5.10705E-16
 -1        57-1.87296E-05-1.87296E-05 3.00309E-14 2.08947E-14 4.52605E-14-4.43651E-14
 -1        58-1.87296E-05-1.87296E-05-4.89409E-14 4.89278E-15 3.91458E-14-6.82770E-15
 -1        59-1.87296E-05-1.87296E-05-2.53965E-14-4.39003E-14-1.47494E-14-5.76126E-14
 -1        60-2.80944E-05-2.80944E-05-2.74256E-13 1.14598E-13-6.60625E-14 9.77458E-14
 -1        61-2.80944E-05-2.80944E-05 1.31931E-13 2.43936E-13-2.12565E-13 1.00106E-14
 -1        62-1.87296E-05-1.87296E-05-1.66198E-13 1.31010E-13 1.44383E-14 2.70043E-14
 -1        63-1.87296E-05-1.87296E-05-2.10062E-13-1.51494E-14-8.64324E-14-5.33344E-14
 -1        64-1.87296E-05-1.87296E-05 2.41623E-13 5.38234E-14-1.88146E-13 7.72752E-14
 -1        65-1.87296E-05-1.87296E-05 1.89649E-13-1.57798E-14 1.63043E-14 9.68284E-14
 -1        66-2.80944E-05-2.80944E-05 8.23334E-15 4.98640E-14 6.95903E-15-6.10597E-14
 -1        67-5.61888E-05-5.61888E-05 5.58679E-13-1.30726E-13-7.60240E-14-8.63707E-14
 -1        68-2.80944E-05-2.80944E-05-2.34877E-13-1.12784E-13 2.31497E-13-3.14743E-14
 -1        69-2.80944E-05-2.80944E-05-9.18189E-14 2.97803E-14 3.02477E-13 1.07707E-13
 -1        70-2.80944E-05-2.80944E-05 3.54502E-13 4.24079E-14 1.18484E-13-7.63503E-15
 -1        71-2.80944E-05-2.80944E-05 5.71981E-14-1.98566E-13 5.22886E-14-5.20145E-14
 -1        72-5.61888E-05-5.61888E-05-8.77558E-13 4.66402E-14-1.45047E-13-5.73293E-14
 -3
    1PSTEP                       123          41           1          
  100CL  141 3.27781E-01          72                     0   41           1
 -4  TOSTRAIN    6    1
 -5  EXX         1    4    1    1
 -5  EYY         1    4    2    2
 -5  EZZ         1    4    3    3
 -5  EXY         1    4    1    2
 -5  EYZ         1    4    2    3
 -5  EZX         1    4    3    1
 -1         1-1.87296E-10-1.87296E-10 1.60539E-10 1.52824E-26-2.77119E-27-2.99291E-27
 -1         2-9.36480E-11-9.36480E-11 8.02697E-11-2.88782E-26 2.92182E-27-5.84037E-26
 -1         3-9.36480E-11-9.36480E-11 8.02697E-11-3.68528E-19-3.63941E-25-4.23138E-19
 -1         4-9.36480E-11-9.36480E-11 8.02697E-11-7.66303E-20-4.42030E-25-1.98064E-19
 -1         5-9.36480E-11-9.36480E-11 8.02697E-11 8.38300E-19-4.72903E-25-2.64581E-19
 -1         6-1.87296E-10-1.87296E-10 1.60539E-10 8.51783E-19 9.17986E-25 2.21302E-18
 -1         7-9.36480E-11-9.36480E-11 8.02697E-11 3.18747E-26 2.79506E-26 1.21486E-27
 -1         8-6.24320E-11-6.24320E-11 5.35132E-11-3.09646E-27-1.80760E-26-1.42939E-26
 -1         9-6.24320E-11-6.24320E-11 5.35132E-11-3.89007E-19-4.75158E-20 3.55021E-19
 -1        10-6.24320E-11-6.24320E-11 5.35132E-11 2.57871E-19 3.37318E-20-1.40127E-19
 -1        11-6.24320E-11-6.24320E-11 5.35132E-11 3.01332E-19-2.08838E-19 8.93342E-19
 -1        12-9.36480E-11-9.36480E-11 8.02697E-11-1.98510E-19 2.27335E-19-1.47846E-18
 -1        13-9.36480E-11-9.36480E-11 8.02697E-11-5.44638E-20-2.17855E-19-1.27389E-26
 -1        14-6.24320E-11-6.24320E-11 5.35132E-11-5.12261E-20-1.42022E-19-1.41901E-21
 -1        15-6.24320E-11-6.24320E-11 5.35132E-11 1.00709E-19-1.17280E-19-3.99458E-19
 -1        16-6.24320E-11-6.24320E-11 5.35132E-11 1.37173E-19 3.58323E-19 5.10534E-19
 -1        17-6.24320E-11-6.24320E-11 5.35132E-11-1.21727E-20-6.12547E-19 4.29898E-19
 -1        18-9.36480E-11-9.36480E-11 8.02697E-11 3.66975E-19-2.46906E-19-1.66625E-19
 -1        19-9.36480E-11-9.36480E-11 8.02697E-11 1.21975E-19 1.14399E-18 1.71585E-26
 -1        20-6.24320E-11-6.24320E-11 5.35132E-11 6.63997E-20-2.93340E-19 1.72616E-20
 -1        21-6.24320E-11-6.24320E-11 5.35132E-11-9.49035E-20 3.06363E-19 5.07160E-19
 -1        22-6.24320E-11-6.24320E-11 5.35132E-11 1.95423E-19-2.54749E-19-4.45281E-19
 -1        23-6.24320E-11-6.24320E-11 5.35132E-11 3.59207E-19-2.00808E-19 5.72155E-19
 -1        24-9.36480E-11-9.36480E-11 8.02697E-11 5.74869E-19 8.08100E-19-1.20113E-18
 -1        25-9.36480E-11-9.36480E-11 8.02697E-11-2.90528E-20-7.73999E-19 3.12760E-25
 -1        26-6.24320E-11-6.24320E-11 5.35132E-11-1.06540E-19-3.76808E-19 1.25856E-19
 -1        27-6.24320E-11-6.24320E-11 5.35132E-11 7.14907E-19 2.21683E-19-3.21218E-19
 -1        28-6.24320E-11-6.24320E-11 5.35132E-11 6.31497E-19-8.48584E-19-1.73826E-19
 -1        29-6.24320E-11-6.24320E-11 5.35132E-11 5.81364E-19-1.12523E-18 8.15210E-19
 -1        30-9.36480E-11-9.36480E-11 8.02697E-11 1.18855E-18 1.10721E-19-1.31600E-18
 -1        31-1.87296E-10-1.87296E-10 1.60539E-10 1.55509E-20 1.86316E-18-2.51149E-24
 -1        32-9.36480E-11-9.36480E-11 8.02697E-11-1.22982E-19-1.59881E-18 7.24959E-20
 -1        33-9.36480E-11-9.36480E-11 8.02697E-11 3.47212E-19-9.27382E-19 8.48350E-19
 -1        34-9.36480E-11-9.36480E-11 8.02697E-11 1.19040E-20-1.03724E-18-1.23566E-20
 -1        35-9.36480E-11-9.36480E-11 8.02697E-11 7.07727E-19 2.59537E-19-7.21643E-19
 -1        36-1.87296E-10-1.87296E-10 1.60539E-10 1.35010E-18 1.37917E-18 3.64602E-18
 -1        37-1.87296E-10-1.87296E-10 1.60539E-10-9.28937E-27 2.27242E-26 6.06539E-26
 -1        38-9.36480E-11-9.36480E-11 8.02697E-11 1.57847E-26-4.92893E-27-2.74673E-26
 -1        39-9.36480E-11-9.36480E-11 8.02697E-11 8.22269E-19 1.06076E-19-5.31449E-19
 -1        40-9.36480E-11-9.36480E-11 8.02697E-11-7.76380E-20-3.77659E-20 3.52111E-19
 -1        41-9.36480E-11-9.36480E-11 8.02697E-11-8.88623E-19 1.81173E-19 1.38041E-18
 -1        42-1.87296E-10-1.87296E-10 1.60539E-10-4.76212E-19-1.88981E-19-3.52663E-18
 -1        43-9.36480E-11-9.36480E-11 8.02697E-11-2.88782E-26 4.06984E-26 1.15528E-26
 -1        44-6.24320E-11-6.24320E-11 5.35132E-11-5.63255E-27-2.33098E-26-5.19504E-27
 -1        45-6.24320E-11-6.24320E-11 5.35132E-11 7.26942E-19 2.32018E-20 2.46444E-19
 -1        46-6.24320E-11-6.24320E-11 5.35132E-11-4.06590E-19 8.55482E-21-9.13913E-20
 -1        47-6.24320E-11-6.24320E-11 5.35132E-11-5.04131E-19-8.80556E-20-6.07347E-19
 -1        48-9.36480E-11-9.36480E-11 8.02697E-11 7.82932E-19 1.32844E-19 1.19190E-18
 -1        49-9.36480E-11-9.36480E-11 8.02697E-11 1.21975E-19 1.55824E-19-2.85601E-21
 -1        50-6.24320E-11-6.24320E-11 5.35132E-11 9.25526E-20-1.51171E-19-3.32301E-21
 -1        51-6.24320E-11-6.24320E-11 5.35132E-11 5.31877E-19-8.25132E-20-2.50813E-20
 -1        52-6.24320E-11-6.24320E-11 5.35132E-11 2.25901E-19-3.98149E-19 5.67445E-19
 -1        53-6.24320E-11-6.24320E-11 5.35132E-11 2.33154E-20 1.26917E-19 7.99669E-19
 -1        54-9.36480E-11-9.36480E-11 8.02697E-11 2.33660E-19 3.96430E-19-7.78545E-19
 -1        55-9.36480E-11-9.36480E-11 8.02697E-11-7.58669E-19-2.74439E-19-2.11501E-20
 -1        56-6.24320E-11-6.24320E-11 5.35132E-11-4.94544E-19 5.20019E-20 3.16150E-21
 -1        57-6.24320E-11-6.24320E-11 5.35132E-11 1.29348E-19 2.80184E-19-2.74641E-19
 -1        58-6.24320E-11-6.24320E-11 5.35132E-11 3.02886E-20 2.42331E-19-4.22667E-20
 -1        59-6.24320E-11-6.24320E-11 5.35132E-11-2.71764E-19-9.13059E-20-3.56649E-19
 -1        60-9.36480E-11-9.36480E-11 8.02697E-11 7.09415E-19-4.08958E-19 6.05093E-19
 -1        61-9.36480E-11-9.36480E-11 8.02697E-11 1.51008E-18-1.31588E-18 6.19701E-20
 -1        62-6.24320E-11-6.24320E-11 5.35132E-11 8.11013E-19 8.93801E-20 1.67170E-19
 -1        63-6.24320E-11-6.24320E-11 5.35132E-11-9.37817E-20-5.35058E-19-3.30165E-19
 -1        64-6.24320E-11-6.24320E-11 5.35132E-11 3.33192E-19-1.16471E-18 4.78370E-19
 -1        65-6.24320E-11-6.24320E-11 5.35132E-11-9.76845E-20 1.00932E-19 5.99414E-19
 -1        66-9.36480E-11-9.36480E-11 8.02697E-11 3.08682E-19 4.30797E-20-3.77989E-19
 -1        67-1.87296E-10-1.87296E-10 1.60539E-10-8.09259E-19-4.70625E-19-5.34676E-19
 -1        68-9.36480E-11-9.36480E-11 8.02697E-11-6.98189E-19 1.43308E-18-1.94841E-19
 -1        69-9.36480E-11-9.36480E-11 8.02697E-11 1.84354E-19 1.87248E-18 6.66760E-19
 -1        70-9.36480E-11-9.36480E-11 8.02697E-11 2.62525E-19 7.33474E-19-4.72645E-20
 -1        71-9.36480E-11-9.36480E-11 8.02697E-11-1.22922E-18 3.23691E-19-3.21995E-19
 -1        72-1.87296E-10-1.87296E-10 1.60539E-10 2.88725E-19-8.97910E-19-3.54896E-19
 -3
    1PSTEP                       124          42           1          
  100CL  142 3.36781E-01          72                     0   42           1
 -4  DISP        4    1
 -5  D1          1    2    1    0
 -5  D2          1    2    2    0
 -5  D3          1    2    3    0
 -5  ALL         1    2    0    0    1ALL
 -1         1 0.00000E+00 0.00000E+00 0.00000E+00
 -1         2-9.62232E-08 0.00000E+00 0.00000E+00
 -1         3-5.05172E+00 0.00000E+00 0.00000E+00
 -1         4-5.05172E+00 0.00000E+00 0.00000E+00
 -1         5-1.01034E+01 0.00000E+00 0.00000E+00
 -1         6-1.01034E+01 0.00000E+00 0.00000E+00
 -1         7 0.00000E+00-9.62232E-08 0.00000E+00
 -1         8-9.62232E-08-9.62232E-08 0.00000E+00
 -1         9-5.05172E+00-9.62232E-08 0.00000E+00
 -1        10-5.05172E+00-9.62232E-08 0.00000E+00
 -1        11-1.01034E+01-9.62232E-08 0.00000E+00
 -1        12-1.01034E+01-9.62232E-08 0.00000E+00
 -1        13 0.00000E+00-5.05172E+00 0.00000E+00
 -1        14-9.62232E-08-5.05172E+00 0.00000E+00
 -1        15-5.05172E+00-5.05172E+00 0.00000E+00
 -1        16-5.05172E+00-5.05172E+00 0.00000E+00
 -1        17-1.01034E+01-5.05172E+00 0.00000E+00
 -1        18-1.01034E+01-5.05172E+00 0.00000E+00
 -1        19 0.00000E+00-5.05172E+00 0.00000E+00
 -1        20-9.62232E-08-5.05172E+00 0.00000E+00
 -1        21-5.05172E+00-5.05172E+00 0.00000E+00
 -1        22-5.05172E+00-5.05172E+00 0.00000E+00
 -1        23-1.01034E+01-5.05172E+00 0.00000E+00
 -1        24-1.01034E+01-5.05172E+00 0.00000E+00
 -1        25 0.00000E+00-1.01034E+01 0.00000E+00
 -1        26-9.62232E-08-1.01034E+01 0.00000E+00
 -1        27-5.05172E+00-1.01034E+01 0.00000E+00
 -1        28-5.05172E+00-1.01034E+01 0.00000E+00
 -1        29-1.01034E+01-1.01034E+01 0.00000E+00
 -1        30-1.01034E+01-1.01034E+01 0.00000E+00
 -1        31 0.00000E+00-1.01034E+01 0.00000E+00
 -1        32-9.62232E-08-1.01034E+01 0.00000E+00
 -1        33-5.05172E+00-1.01034E+01 0.00000E+00
 -1        34-5.05172E+00-1.01034E+01 0.00000E+00
 -1        35-1.01034E+01-1.01034E+01 0.00000E+00
 -1        36-1.01034E+01-1.01034E+01 0.00000E+00
 -1        37 0.00000E+00 0.00000E+00 1.15468E-07
 -1        38-9.62232E-08 0.00000E+00 1.15468E-07
 -1        39-5.05172E+00 0.00000E+00 1.15468E-07
 -1        40-5.05172E+00 0.00000E+00 1.15468E-07
 -1        41-1.01034E+01 0.00000E+00 1.15468E-07
 -1        42-1.01034E+01 0.00000E+00 1.15468E-07
 -1        43 0.00000E+00-9.62232E-08 1.15468E-07
 -1        44-9.62232E-08-9.62232E-08 1.15468E-07
 -1        45-5.05172E+00-9.62232E-08 1.15468E-07
 -1        46-5.05172E+00-9.62232E-08 1.15468E-07
 -1        47-1.01034E+01-9.62232E-08 1.15468E-07
 -1        48-1.01034E+01-9.62232E-08 1.15468E-07
 -1        49 0.00000E+00-5.05172E+00 1.15468E-07
 -1        50-9.62232E-08-5.05172E+00 1.15468E-07
 -1        51-5.05172E+00-5.05172E+00 1.15468E-07
 -1        52-5.05172E+00-5.05172E+00 1.15468E-07
 -1        53-1.01034E+01-5.05172E+00 1.15468E-07
 -1        54-1.01034E+01-5.05172E+00 1.15468E-07
 -1        55 0.00000E+00-5.05172E+00 1.15468E-07
 -1        56-9.62232E-08-5.05172E+00 1.15468E-07
 -1        57-5.05172E+00-5.05172E+00 1.15468E-07
 -1        58-5.05172E+00-5.05172E+00 1.15468E-07
 -1        59-1.01034E+01-5.05172E+00 1.15468E-07
 -1        60-1.01034E+01-5.05172E+00 1.15468E-07
 -1        61 0.00000E+00-1.01034E+01 1.15468E-07
 -1        62-9.62232E-08-1.01034E+01 1.15468E-07
 -1        63-5.05172E+00-1.01034E+01 1.15468E-07
 -1        64-5.05172E+00-1.01034E+01 1.15468E-07
 -1        65-1.01034E+01-1.01034E+01 1.15468E-07
 -1        66-1.01034E+01-1.01034E+01 1.15468E-07
 -1        67 0.00000E+00-1.01034E+01 1.15468E-07
 -1        68-9.62232E-08-1.01034E+01 1.15468E-07
 -1        69-5.05172E+00-1.01034E+01 1.15468E-07
 -1        70-5.05172E+00-1.01034E+01 1.15468E-07
 -1        71-1.01034E+01-1.01034E+01 1.15468E-07
 -1        72-1.01034E+01-1.01034E+01 1.15468E-07
 -3
    1PSTEP                       125          42           1          
  100CL  142 3.36781E-01          72                     0   42           1
 -4  STRESS      6    1
 -5  SXX         1    4    1    1
 -5  SYY         1    4    2    2
 -5  SZZ         1    4    3    3
 -5  SXY         1    4    1    2
 -5  SYZ         1    4    2    3
 -5  SZX         1    4    3    1
 -1         1-5.77316E-05-5.77316E-05 9.58868E-21-3.17017E-22-2.87308E-21-5.55709E-22
 -1         2-2.88658E-05-2.88658E-05 6.15610E-21-1.23911E-21 5.70634E-22 7.69487E-22
 -1         3-2.88658E-05-2.88658E-05 2.82744E-14 9.01940E-14-5.21164E-20 4.83772E-14
 -1         4-2.88658E-05-2.88658E-05 7.01566E-15-5.35864E-14-3.64991E-20-1.15814E-13
 -1         5-2.88658E-05-2.88658E-05-7.06195E-14-1.15398E-13-4.47983E-20 2.76873E-13
 -1         6-5.77316E-05-5.77316E-05-1.07721E-13 1.98351E-13-1.44337E-19 4.37539E-14
 -1         7-2.88658E-05-2.88658E-05-6.15610E-21 3.48904E-22 4.20324E-22 4.93992E-22
 -1         8-1.92439E-05-1.92439E-05 6.06015E-21-1.25198E-21-2.48266E-21 1.28853E-21
 -1         9-1.92439E-05-1.92439E-05 2.45037E-14 3.49491E-14-2.51134E-15 3.10785E-14
 -1        10-1.92439E-05-1.92439E-05 9.73667E-16 3.77974E-14 4.34298E-15 1.15128E-13
 -1        11-1.92439E-05-1.92439E-05 1.12258E-13-7.87751E-14-2.01725E-14-1.15547E-13
 -1        12-2.88658E-05-2.88658E-05 9.07509E-15-1.89755E-14 3.27007E-14 2.10253E-13
 -1        13-2.88658E-05-2.88658E-05-5.24320E-14 2.30659E-14 1.46027E-14-2.99433E-20
 -1        14-1.92439E-05-1.92439E-05-5.76862E-14 2.23788E-14 2.26226E-14 3.08012E-15
 -1        15-1.92439E-05-1.92439E-05-8.07536E-14-3.24611E-14-2.00421E-14-1.03736E-14
 -1        16-1.92439E-05-1.92439E-05 3.22691E-14-2.43815E-14-4.85256E-14-3.20662E-14
 -1        17-1.92439E-05-1.92439E-05-5.25986E-14-1.41240E-14 2.50538E-14 3.51524E-14
 -1        18-2.88658E-05-2.88658E-05-1.43609E-13-5.36777E-14 3.29149E-15-2.35251E-13
 -1        19-2.88658E-05-2.88658E-05-1.12513E-13-2.13469E-14-5.90297E-14 2.46253E-21
 -1        20-1.92439E-05-1.92439E-05-7.02988E-14-7.22973E-15-6.03201E-14-1.91061E-15
 -1        21-1.92439E-05-1.92439E-05 3.44692E-14 7.44078E-15-1.03997E-15-6.18564E-14
 -1        22-1.92439E-05-1.92439E-05 1.47724E-13 6.25100E-14 3.69267E-14 7.14005E-15
 -1        23-1.92439E-05-1.92439E-05 8.36852E-14 3.84841E-14-4.59024E-14-1.70283E-13
 -1        24-2.88658E-05-2.88658E-05 1.13137E-15 4.57535E-14 8.33553E-15 2.35534E-13
 -1        25-2.88658E-05-2.88658E-05-6.91248E-14 3.03347E-14-7.36877E-15 1.25308E-19
 -1        26-1.92439E-05-1.92439E-05-8.68691E-14 1.43977E-14-4.97373E-14 9.06486E-15
 -1        27-1.92439E-05-1.92439E-05-4.67142E-14 7.59312E-14 3.97686E-14 1.38405E-14
 -1        28-1.92439E-05-1.92439E-05-1.32903E-13-3.40259E-14-1.86882E-13 3.96153E-14
 -1        29-1.92439E-05-1.92439E-05-3.56844E-14-7.01686E-14-3.91143E-13-8.09106E-14
 -1        30-2.88658E-05-2.88658E-05-3.07817E-13 1.76703E-13 8.52388E-14 8.29749E-14
 -1        31-5.77316E-05-5.77316E-05 3.14516E-15-1.62579E-14 3.51714E-13 6.38123E-20
 -1        32-2.88658E-05-2.88658E-05-8.91991E-14-1.68671E-14-5.47562E-14-1.18915E-15
 -1        33-2.88658E-05-2.88658E-05-1.31043E-13 7.36733E-14 1.27564E-13-4.91795E-14
 -1        34-2.88658E-05-2.88658E-05-1.53546E-13-8.29347E-14-4.02760E-14-6.99742E-15
 -1        35-2.88658E-05-2.88658E-05 7.24104E-14 5.02091E-14 4.10247E-14-5.11543E-14
 -1        36-5.77316E-05-5.77316E-05 3.23371E-13 8.99728E-14-1.91091E-14 2.72374E-13
 -1        37-5.77316E-05-5.77316E-05 1.23122E-20 1.66835E-21 6.33881E-21 7.01408E-22
 -1        38-2.88658E-05-2.88658E-05-9.09036E-21-3.15428E-21 2.05893E-21 1.39805E-21
 -1        39-2.88658E-05-2.88658E-05-2.68120E-14-7.52222E-14 4.06173E-15 6.56981E-14
 -1        40-2.88658E-05-2.88658E-05-2.64796E-14 2.04893E-13-1.55281E-15 7.87724E-15
 -1        41-2.88658E-05-2.88658E-05 1.47776E-13 5.87122E-16 3.74297E-14-1.19396E-13
 -1        42-5.77316E-05-5.77316E-05 5.93500E-13-6.67384E-13-6.59967E-14-3.38579E-13
 -1        43-2.88658E-05-2.88658E-05 9.09022E-21-5.87237E-21 2.88728E-21-2.47573E-22
 -1        44-1.92439E-05-1.92439E-05-6.58436E-21-3.72190E-21-1.10838E-21 7.94155E-22
 -1        45-1.92439E-05-1.92439E-05 4.68886E-14-6.43642E-15 1.96521E-16-9.16122E-14
 -1        46-1.92439E-05-1.92439E-05 3.77526E-14-1.58568E-15 3.30779E-15 1.78493E-14
 -1        47-1.92439E-05-1.92439E-05-5.73939E-14-1.96138E-14 4.78067E-15 8.66037E-14
 -1        48-2.88658E-05-2.88658E-05-1.13187E-13 6.69350E-14-2.97637E-16 5.88048E-14
 -1        49-2.88658E-05-2.88658E-05-1.52769E-13-1.27519E-13-1.01855E-13-8.30016E-15
 -1        50-1.92439E-05-1.92439E-05 7.90201E-14-8.49985E-14-3.84874E-14-2.45330E-15
 -1        51-1.92439E-05-1.92439E-05 4.64990E-14 4.98705E-14-7.31838E-14-7.78980E-15
 -1        52-1.92439E-05-1.92439E-05-1.89214E-14-1.43031E-16 6.77779E-14 2.18006E-14
 -1        53-1.92439E-05-1.92439E-05 1.85434E-13-1.03477E-13-2.10014E-14 8.58160E-14
 -1        54-2.88658E-05-2.88658E-05-3.43294E-14 2.66279E-13-4.32710E-14 5.48628E-14
 -1        55-2.88658E-05-2.88658E-05-2.28571E-13 3.82334E-14 3.60011E-15 8.16470E-15
 -1        56-1.92439E-05-1.92439E-05 5.59269E-14 2.55034E-14 1.31287E-14 3.53253E-15
 -1        57-1.92439E-05-1.92439E-05-1.67213E-14-4.71328E-14 3.85393E-14 6.87347E-14
 -1        58-1.92439E-05-1.92439E-05-1.38787E-13-6.53240E-14-2.70596E-14-5.36622E-14
 -1        59-1.92439E-05-1.92439E-05-5.36274E-14-1.11623E-13-3.95309E-14 1.21445E-13
 -1        60-2.88658E-05-2.88658E-05-2.60282E-14 1.15322E-13 1.65543E-13-2.50301E-13
 -1        61-2.88658E-05-2.88658E-05-3.25415E-14 1.13211E-13-2.90457E-13-4.93184E-15
 -1        62-1.92439E-05-1.92439E-05 5.57379E-14 5.58480E-14-2.25091E-14 5.77688E-15
 -1        63-1.92439E-05-1.92439E-05 1.38565E-14 1.29639E-14-2.71591E-13-5.47464E-16
 -1        64-1.92439E-05-1.92439E-05 5.06934E-14 1.27481E-13 7.74094E-14-3.37244E-14
 -1        65-1.92439E-05-1.92439E-05-2.37335E-15 2.19581E-13 7.53200E-15 2.20445E-13
 -1        66-2.88658E-05-2.88658E-05 1.72784E-13-1.35588E-13-7.67360E-14-9.93531E-14
 -1        67-5.77316E-05-5.77316E-05 1.42090E-14-6.06709E-14 1.68095E-13-3.35381E-14
 -1        68-2.88658E-05-2.88658E-05 9.36601E-14-5.97745E-14 1.81084E-14-1.79582E-14
 -1        69-2.88658E-05-2.88658E-05-8.22330E-14-1.30668E-13 2.39857E-13 7.24150E-14
 -1        70-2.88658E-05-2.88658E-05 4.56772E-14 7.21860E-14-6.55461E-14 7.16712E-14
 -1        71-2.88658E-05-2.88658E-05 1.32728E-15-5.24789E-13-8.34953E-14 7.05821E-14
 -1        72-5.77316E-05-5.77316E-05-4.95688E-14 3.97481E-14 7.74498E-14-3.43358E-13
 -3
    1PSTEP                       126          42           1          
  100CL  142 3.36781E-01          72                     0   42           1
 -4  TOSTRAIN    6    1
 -5  EXX         1    4    1    1
 -5  EYY         1    4    2    2
 -5  EZZ         1    4    3    3
 -5  EXY         1    4    1    2
 -5  EYZ         1    4    2    3
 -5  EZX         1    4    3    1
 -1         1-1.92439E-10-1.92439E-10 1.64947E-10-1.96248E-27-1.77857E-26-3.44010E-27
 -1         2-9.62194E-11-9.62194E-11 8.24737E-11-7.67071E-27 3.53250E-27 4.76349E-27
 -1         3-9.62194E-11-9.62194E-11 8.24737E-11 5.58344E-19-3.22625E-25 2.99478E-19
 -1         4-9.62194E-11-9.62194E-11 8.24737E-11-3.31725E-19-2.25947E-25-7.16946E-19
 -1         5-9.62194E-11-9.62194E-11 8.24737E-11-7.14370E-19-2.77323E-25 1.71397E-18
 -1         6-1.92439E-10-1.92439E-10 1.64947E-10 1.22789E-18-8.93512E-25 2.70857E-19
 -1         7-9.62194E-11-9.62194E-11 8.24737E-11 2.15988E-27 2.60201E-27 3.05805E-27
 -1         8-6.41462E-11-6.41462E-11 5.49825E-11-7.75034E-27-1.53689E-26 7.97663E-27
 -1         9-6.41462E-11-6.41462E-11 5.49825E-11 2.16351E-19-1.55464E-20 1.92391E-19
 -1        10-6.41462E-11-6.41462E-11 5.49825E-11 2.33984E-19 2.68851E-20 7.12696E-19
 -1        11-6.41462E-11-6.41462E-11 5.49825E-11-4.87656E-19-1.24877E-19-7.15290E-19
 -1        12-9.62194E-11-9.62194E-11 8.24737E-11-1.17467E-19 2.02433E-19 1.30157E-18
 -1        13-9.62194E-11-9.62194E-11 8.24737E-11 1.42789E-19 9.03975E-20-1.85363E-25
 -1        14-6.41462E-11-6.41462E-11 5.49825E-11 1.38535E-19 1.40044E-19 1.90674E-20
 -1        15-6.41462E-11-6.41462E-11 5.49825E-11-2.00950E-19-1.24070E-19-6.42178E-20
 -1        16-6.41462E-11-6.41462E-11 5.49825E-11-1.50933E-19-3.00397E-19-1.98505E-19
 -1        17-6.41462E-11-6.41462E-11 5.49825E-11-8.74344E-20 1.55095E-19 2.17610E-19
 -1        18-9.62194E-11-9.62194E-11 8.24737E-11-3.32291E-19 2.03759E-20-1.45631E-18
 -1        19-9.62194E-11-9.62194E-11 8.24737E-11-1.32147E-19-3.65422E-19 1.52442E-26
 -1        20-6.41462E-11-6.41462E-11 5.49825E-11-4.47554E-20-3.73410E-19-1.18276E-20
 -1        21-6.41462E-11-6.41462E-11 5.49825E-11 4.60620E-20-6.43790E-21-3.82921E-19
 -1        22-6.41462E-11-6.41462E-11 5.49825E-11 3.86967E-19 2.28594E-19 4.42003E-20
 -1        23-6.41462E-11-6.41462E-11 5.49825E-11 2.38235E-19-2.84158E-19-1.05413E-18
 -1        24-9.62194E-11-9.62194E-11 8.24737E-11 2.83236E-19 5.16009E-20 1.45807E-18
 -1        25-9.62194E-11-9.62194E-11 8.24737E-11 1.87786E-19-4.56162E-20 7.75719E-25
 -1        26-6.41462E-11-6.41462E-11 5.49825E-11 8.91283E-20-3.07897E-19 5.61158E-20
 -1        27-6.41462E-11-6.41462E-11 5.49825E-11 4.70050E-19 2.46187E-19 8.56790E-20
 -1        28-6.41462E-11-6.41462E-11 5.49825E-11-2.10637E-19-1.15689E-18 2.45237E-19
 -1        29-6.41462E-11-6.41462E-11 5.49825E-11-4.34377E-19-2.42136E-18-5.00875E-19
 -1        30-9.62194E-11-9.62194E-11 8.24737E-11 1.09388E-18 5.27669E-19 5.13654E-19
 -1        31-1.92439E-10-1.92439E-10 1.64947E-10-1.00644E-19 2.17727E-18 3.95029E-25
 -1        32-9.62194E-11-9.62194E-11 8.24737E-11-1.04416E-19-3.38967E-19-7.36139E-21
 -1        33-9.62194E-11-9.62194E-11 8.24737E-11 4.56073E-19 7.89685E-19-3.04444E-19
 -1        34-9.62194E-11-9.62194E-11 8.24737E-11-5.13406E-19-2.49327E-19-4.33174E-20
 -1        35-9.62194E-11-9.62194E-11 8.24737E-11 3.10818E-19 2.53962E-19-3.16670E-19
 -1        36-1.92439E-10-1.92439E-10 1.64947E-10 5.56974E-19-1.18294E-19 1.68613E-18
 -1        37-1.92439E-10-1.92439E-10 1.64947E-10 1.03279E-26 3.92403E-26 4.34205E-27
 -1        38-9.62194E-11-9.62194E-11 8.24737E-11-1.95265E-26 1.27458E-26 8.65457E-27
 -1        39-9.62194E-11-9.62194E-11 8.24737E-11-4.65661E-19 2.51441E-20 4.06702E-19
 -1        40-9.62194E-11-9.62194E-11 8.24737E-11 1.26838E-18-9.61265E-21 4.87639E-20
 -1        41-9.62194E-11-9.62194E-11 8.24737E-11 3.63456E-21 2.31708E-19-7.39119E-19
 -1        42-1.92439E-10-1.92439E-10 1.64947E-10-4.13143E-18-4.08551E-19-2.09596E-18
 -1        43-9.62194E-11-9.62194E-11 8.24737E-11-3.63528E-26 1.78737E-26-1.53259E-27
 -1        44-6.41462E-11-6.41462E-11 5.49825E-11-2.30403E-26-6.86138E-27 4.91620E-27
 -1        45-6.41462E-11-6.41462E-11 5.49825E-11-3.98445E-20 1.21656E-21-5.67123E-19
 -1        46-6.41462E-11-6.41462E-11 5.49825E-11-9.81610E-21 2.04768E-20 1.10495E-19
 -1        47-6.41462E-11-6.41462E-11 5.49825E-11-1.21419E-19 2.95946E-20 5.36118E-19
 -1        48-9.62194E-11-9.62194E-11 8.24737E-11 4.14360E-19-1.84251E-21 3.64030E-19
 -1        49-9.62194E-11-9.62194E-11 8.24737E-11-7.89406E-19-6.30529E-19-5.13819E-20
 -1        50-6.41462E-11-6.41462E-11 5.49825E-11-5.26181E-19-2.38255E-19-1.51871E-20
 -1        51-6.41462E-11-6.41462E-11 5.49825E-11 3.08722E-19-4.53043E-19-4.82226E-20
 -1        52-6.41462E-11-6.41462E-11 5.49825E-11-8.85428E-22 4.19578E-19 1.34956E-19
 -1        53-6.41462E-11-6.41462E-11 5.49825E-11-6.40571E-19-1.30009E-19 5.31242E-19
 -1        54-9.62194E-11-9.62194E-11 8.24737E-11 1.64839E-18-2.67868E-19 3.39627E-19
 -1        55-9.62194E-11-9.62194E-11 8.24737E-11 2.36683E-19 2.22864E-20 5.05434E-20
 -1        56-6.41462E-11-6.41462E-11 5.49825E-11 1.57878E-19 8.12731E-20 2.18680E-20
 -1        57-6.41462E-11-6.41462E-11 5.49825E-11-2.91775E-19 2.38576E-19 4.25501E-19
 -1        58-6.41462E-11-6.41462E-11 5.49825E-11-4.04386E-19-1.67512E-19-3.32194E-19
 -1        59-6.41462E-11-6.41462E-11 5.49825E-11-6.91000E-19-2.44715E-19 7.51800E-19
 -1        60-9.62194E-11-9.62194E-11 8.24737E-11 7.13899E-19 1.02479E-18-1.54949E-18
 -1        61-9.62194E-11-9.62194E-11 8.24737E-11 7.00830E-19-1.79807E-18-3.05304E-20
 -1        62-6.41462E-11-6.41462E-11 5.49825E-11 3.45726E-19-1.39342E-19 3.57617E-20
 -1        63-6.41462E-11-6.41462E-11 5.49825E-11 8.02526E-20-1.68128E-18-3.38906E-21
 -1        64-6.41462E-11-6.41462E-11 5.49825E-11 7.89168E-19 4.79201E-19-2.08770E-19
 -1        65-6.41462E-11-6.41462E-11 5.49825E-11 1.35931E-18 4.66267E-20 1.36466E-18
 -1        66-9.62194E-11-9.62194E-11 8.24737E-11-8.39354E-19-4.75032E-19-6.15043E-19
 -1        67-1.92439E-10-1.92439E-10 1.64947E-10-3.75581E-19 1.04059E-18-2.07617E-19
 -1        68-9.62194E-11-9.62194E-11 8.24737E-11-3.70033E-19 1.12100E-19-1.11170E-19
 -1        69-9.62194E-11-9.62194E-11 8.24737E-11-8.08898E-19 1.48483E-18 4.48283E-19
 -1        70-9.62194E-11-9.62194E-11 8.24737E-11 4.46866E-19-4.05761E-19 4.43679E-19
 -1        71-9.62194E-11-9.62194E-11 8.24737E-11-3.24869E-18-5.16876E-19 4.36937E-19
 -1        72-1.92439E-10-1.92439E-10 1.64947E-10 2.46060E-19 4.79451E-19-2.12555E-18
 -3
    1PSTEP                       127          43           1          
  100CL  143 3.45781E-01          72                     0   43           1
 -4  DISP        4    1
 -5  D1          1    2    1    0
 -5  D2          1    2    2    0
 -5  D3          1    2    3    0
 -5  ALL         1    2    0    0    1ALL
 -1         1 0.00000E+00 0.00000E+00 0.00000E+00
 -1         2-9.87946E-08 0.00000E+00 0.00000E+00
 -1         3-5.18672E+00 0.00000E+00 0.00000E+00
 -1         4-5.18672E+00 0.00000E+00 0.00000E+00
 -1         5-1.03734E+01 0.00000E+00 0.00000E+00
 -1         6-1.03734E+01 0.00000E+00 0.00000E+00
 -1         7 0.00000E+00-9.87946E-08 0.00000E+00
 -1         8-9.87946E-08-9.87946E-08 0.00000E+00
 -1         9-5.18672E+00-9.87946E-08 0.00000E+00
 -1        10-5.18672E+00-9.87946E-08 0.00000E+00
 -1        11-1.03734E+01-9.87946E-08 0.00000E+00
 -1        12-1.03734E+01-9.87946E-08 0.00000E+00
 -1        13 0.00000E+00-5.18672E+00 0.00000E+00
 -1        14-9.87946E-08-5.18672E+00 0.00000E+00
 -1        15-5.18672E+00-5.18672E+00 0.00000E+00
 -1        16-5.18672E+00-5.18672E+00 0.00000E+00
 -1        17-1.03734E+01-5.18672E+00 0.00000E+00
 -1        18-1.03734E+01-5.18672E+00 0.00000E+00
 -1        19 0.00000E+00-5.18672E+00 0.00000E+00
 -1        20-9.87946E-08-5.18672E+00 0.00000E+00
 -1        21-5.18672E+00-5.18672E+00 0.00000E+00
 -1        22-5.18672E+00-5.18672E+00 0.00000E+00
 -1        23-1.03734E+01-5.18672E+00 0.00000E+00
 -1        24-1.03734E+01-5.18672E+00 0.00000E+00
 -1        25 0.00000E+00-1.03734E+01 0.00000E+00
 -1        26-9.87946E-08-1.03734E+01 0.00000E+00
 -1        27-5.18672E+00-1.03734E+01 0.00000E+00
 -1        28-5.18672E+00-1.03734E+01 0.00000E+00
 -1        29-1.03734E+01-1.03734E+01 0.00000E+00
 -1        30-1.03734E+01-1.03734E+01 0.00000E+00
 -1        31 0.00000E+00-1.03734E+01 0.00000E+00
 -1        32-9.87946E-08-1.03734E+01 0.00000E+00
 -1        33-5.18672E+00-1.03734E+01 0.00000E+00
 -1        34-5.18672E+00-1.03734E+01 0.00000E+00
 -1        35-1.03734E+01-1.03734E+01 0.00000E+00
 -1        36-1.03734E+01-1.03734E+01 0.00000E+00
 -1        37 0.00000E+00 0.00000E+00 1.18554E-07
 -1        38-9.87946E-08 0.00000E+00 1.18554E-07
 -1        39-5.18672E+00 0.00000E+00 1.18554E-07
 -1        40-5.18672E+00 0.00000E+00 1.18554E-07
 -1        41-1.03734E+01 0.00000E+00 1.18554E-07
 -1        42-1.03734E+01 0.00000E+00 1.18554E-07
 -1        43 0.00000E+00-9.87946E-08 1.18554E-07
 -1        44-9.87946E-08-9.87946E-08 1.18554E-07
 -1        45-5.18672E+00-9.87946E-08 1.18554E-07
 -1        46-5.18672E+00-9.87946E-08 1.18554E-07
 -1        47-1.03734E+01-9.87946E-08 1.18554E-07
 -1        48-1.03734E+01-9.87946E-08 1.18554E-07
 -1        49 0.00000E+00-5.18672E+00 1.18554E-07
 -1        50-9.87946E-08-5.18672E+00 1.18554E-07
 -1        51-5.18672E+00-5.18672E+00 1.18554E-07
 -1        52-5.18672E+00-5.18672E+00 1.18554E-07
 -1        53-1.03734E+01-5.18672E+00 1.18554E-07
 -1        54-1.03734E+01-5.18672E+00 1.18554E-07
 -1        55 0.00000E+00-5.18672E+00 1.18554E-07
 -1        56-9.87946E-08-5.18672E+00 1.18554E-07
 -1        57-5.18672E+00-5.18672E+00 1.18554E-07
 -1        58-5.18672E+00-5.18672E+00 1.18554E-07
 -1        59-1.03734E+01-5.18672E+00 1.18554E-07
 -1        60-1.03734E+01-5.18672E+00 1.18554E-07
 -1        61 0.00000E+00-1.03734E+01 1.18554E-07
 -1        62-9.87946E-08-1.03734E+01 1.18554E-07
 -1        63-5.18672E+00-1.03734E+01 1.18554E-07
 -1        64-5.18672E+00-1.03734E+01 1.18554E-07
 -1        65-1.03734E+01-1.03734E+01 1.18554E-07
 -1        66-1.03734E+01-1.03734E+01 1.18554E-07
 -1        67 0.00000E+00-1.03734E+01 1.18554E-07
 -1        68-9.87946E-08-1.03734E+01 1.18554E-07
 -1        69-5.18672E+00-1.03734E+01 1.18554E-07
 -1        70-5.18672E+00-1.03734E+01 1.18554E-07
 -1        71-1.03734E+01-1.03734E+01 1.18554E-07
 -1        72-1.03734E+01-1.03734E+01 1.18554E-07
 -3
    1PSTEP                       128          43           1          
  100CL  143 3.45781E-01          72                     0   43           1
 -4  STRESS      6    1
 -5  SXX         1    4    1    1
 -5  SYY         1    4    2    2
 -5  SZZ         1    4    3    3
 -5  SXY         1    4    1    2
 -5  SYZ         1    4    2    3
 -5  SZX         1    4    3    1
 -1         1-5.92744E-05-5.92744E-05-5.86824E-21 7.70338E-22-2.40509E-22 8.23494E-23
 -1         2-2.96372E-05-2.96372E-05 3.50970E-21-1.14252E-20 2.34717E-22-4.61322E-21
 -1         3-2.96372E-05-2.96372E-05-3.08425E-14 4.16158E-14 2.44659E-20-1.89600E-15
 -1         4-2.96372E-05-2.96372E-05-1.29048E-14 1.85661E-14-6.03945E-20 1.64699E-13
 -1         5-2.96372E-05-2.96372E-05 8.70584E-14-1.94054E-13-1.70786E-19-2.08616E-14
 -1         6-5.92744E-05-5.92744E-05 2.49900E-13 5.59018E-13-2.13662E-19 5.06241E-14
 -1         7-2.96372E-05-2.96372E-05-2.32626E-20 1.02213E-20 9.80222E-21 3.43605E-22
 -1         8-1.97581E-05-1.97581E-05-1.12125E-20-1.05944E-21-2.81003E-21 9.84872E-21
 -1         9-1.97581E-05-1.97581E-05 9.88772E-14 2.78775E-14-4.62864E-15-9.77340E-15
 -1        10-1.97581E-05-1.97581E-05 5.12773E-14 1.16524E-14 3.27144E-15-9.42522E-14
 -1        11-1.97581E-05-1.97581E-05-1.04215E-14-7.40680E-14-1.04750E-14 5.64624E-14
 -1        12-2.96372E-05-2.96372E-05 2.19990E-14 3.69084E-14 2.50483E-15 2.72180E-13
 -1        13-2.96372E-05-2.96372E-05 6.04916E-15 1.98595E-14-1.31526E-13 3.40463E-20
 -1        14-1.97581E-05-1.97581E-05-2.95310E-14 1.33512E-14-5.58135E-14 2.41859E-15
 -1        15-1.97581E-05-1.97581E-05-1.42834E-13-1.41175E-14 1.71788E-15-4.10993E-14
 -1        16-1.97581E-05-1.97581E-05-1.09195E-13-9.55483E-14 1.48049E-14 2.63614E-14
 -1        17-1.97581E-05-1.97581E-05-1.03919E-13-8.07873E-14-2.03757E-14 1.02536E-13
 -1        18-2.96372E-05-2.96372E-05 1.75176E-13 1.02610E-13-1.12360E-13-5.45459E-14
 -1        19-2.96372E-05-2.96372E-05 3.39794E-14-2.15787E-14 2.32817E-13-6.09737E-21
 -1        20-1.97581E-05-1.97581E-05-2.53406E-14-1.42743E-14-4.25446E-14 7.30299E-16
 -1        21-1.97581E-05-1.97581E-05-7.81647E-14-2.27836E-14-5.25408E-14 7.16823E-14
 -1        22-1.97581E-05-1.97581E-05 5.20673E-14-6.32058E-14-9.91623E-16-4.20908E-14
 -1        23-1.97581E-05-1.97581E-05-1.16682E-13 5.06623E-14 5.03336E-14-5.16642E-14
 -1        24-2.96372E-05-2.96372E-05 3.08202E-13-3.09196E-14 6.59928E-14-3.81999E-15
 -1        25-2.96372E-05-2.96372E-05 2.54141E-14-1.20017E-19 1.60099E-13-4.29449E-21
 -1        26-1.97581E-05-1.97581E-05 1.71036E-14-1.53392E-14-9.44567E-14-5.88475E-15
 -1        27-1.97581E-05-1.97581E-05-2.38375E-14-7.12196E-14 5.73306E-15-5.10544E-14
 -1        28-1.97581E-05-1.97581E-05-1.28028E-14-3.05672E-15 1.44356E-13 1.13344E-13
 -1        29-1.97581E-05-1.97581E-05 5.96326E-14-3.27849E-14-3.67076E-14-4.40741E-15
 -1        30-2.96372E-05-2.96372E-05 2.74546E-13 1.91668E-13 6.19423E-14 4.68761E-14
 -1        31-5.92744E-05-5.92744E-05 2.89753E-13-2.40035E-19-4.17300E-13 8.95023E-20
 -1        32-2.96372E-05-2.96372E-05 9.16788E-14-2.30088E-14 8.23769E-14 2.67522E-14
 -1        33-2.96372E-05-2.96372E-05 1.16237E-13-1.03719E-13 1.99023E-14 2.34941E-14
 -1        34-2.96372E-05-2.96372E-05-6.57206E-14-2.11841E-15-1.40896E-13 7.65805E-14
 -1        35-2.96372E-05-2.96372E-05 1.35975E-13 4.45207E-15-1.26065E-14-1.66957E-13
 -1        36-5.92744E-05-5.92744E-05-1.00174E-13-1.69655E-14 1.71020E-13 8.59109E-14
 -1        37-5.92744E-05-5.92744E-05 1.33094E-20 4.37902E-22 7.84285E-21 4.11965E-21
 -1        38-2.96372E-05-2.96372E-05-1.73943E-20 1.54196E-20-6.86626E-21-2.59457E-21
 -1        39-2.96372E-05-2.96372E-05 6.11603E-14-8.10387E-14 1.99296E-14-9.02854E-15
 -1        40-2.96372E-05-2.96372E-05 1.03983E-13 4.56802E-14-1.58054E-14 1.53098E-14
 -1        41-2.96372E-05-2.96372E-05-8.57915E-14-2.27515E-14 1.48652E-14 4.75406E-14
 -1        42-5.92744E-05-5.92744E-05-1.92868E-14-4.32520E-13 2.95220E-14 2.34531E-14
 -1        43-2.96372E-05-2.96372E-05 2.69832E-20-8.14804E-21 1.17049E-20-8.79447E-21
 -1        44-1.97581E-05-1.97581E-05 1.95617E-21 4.70171E-21-7.16193E-21 3.75667E-21
 -1        45-1.97581E-05-1.97581E-05-1.22198E-13-5.24476E-14 8.65776E-15 8.57328E-14
 -1        46-1.97581E-05-1.97581E-05-1.53207E-13 7.66749E-14-7.26546E-15-1.77477E-14
 -1        47-1.97581E-05-1.97581E-05-7.43664E-15-1.97880E-14-5.64816E-16 3.55138E-15
 -1        48-2.96372E-05-2.96372E-05 6.47327E-14-2.72128E-15 1.72659E-14-1.84936E-13
 -1        49-2.96372E-05-2.96372E-05 1.15858E-14 3.90913E-14 4.20503E-14 1.17063E-15
 -1        50-1.97581E-05-1.97581E-05-1.92723E-14 2.38088E-14 7.84560E-14 3.19899E-15
 -1        51-1.97581E-05-1.97581E-05-2.06368E-15-2.65509E-14-3.61500E-14-6.24599E-14
 -1        52-1.97581E-05-1.97581E-05-9.58992E-15-1.29633E-15-2.66991E-14 3.28350E-15
 -1        53-1.97581E-05-1.97581E-05-1.65790E-14 1.47757E-14-5.38935E-14-1.36274E-13
 -1        54-2.96372E-05-2.96372E-05 1.01045E-13-4.53435E-14 7.75337E-14 1.84513E-13
 -1        55-2.96372E-05-2.96372E-05 3.41980E-14 5.01945E-14-1.21941E-13-7.48726E-15
 -1        56-1.97581E-05-1.97581E-05-1.86272E-14 3.12110E-14-2.65432E-15-4.26120E-15
 -1        57-1.97581E-05-1.97581E-05 3.45754E-14-3.36144E-14 7.06501E-14 2.40199E-14
 -1        58-1.97581E-05-1.97581E-05 1.00891E-13 2.50652E-14-6.34440E-14-4.66842E-16
 -1        59-1.97581E-05-1.97581E-05 1.75416E-13-1.79327E-13 8.25220E-14 1.36439E-13
 -1        60-2.96372E-05-2.96372E-05-7.30670E-14 1.51831E-13-1.11948E-13-1.48180E-13
 -1        61-2.96372E-05-2.96372E-05-2.33127E-13 5.58173E-20-2.76926E-13 5.42675E-16
 -1        62-1.97581E-05-1.97581E-05-1.15851E-13 1.78682E-14 1.17747E-13-5.52296E-15
 -1        63-1.97581E-05-1.97581E-05-9.42231E-14 6.05216E-14-1.71051E-13-2.01813E-14
 -1        64-1.97581E-05-1.97581E-05-5.82056E-14 8.88491E-14 8.09038E-14 1.52097E-14
 -1        65-1.97581E-05-1.97581E-05-1.85677E-13-4.10472E-14-6.34938E-14-1.09304E-13
 -1        66-2.96372E-05-2.96372E-05-9.05871E-14-1.92724E-13 2.40393E-14 3.08663E-13
 -1        67-5.92744E-05-5.92744E-05-7.78955E-14 1.11635E-19 3.93415E-13-4.16656E-14
 -1        68-2.96372E-05-2.96372E-05-3.30362E-14 2.68023E-14-8.23448E-15 5.91934E-15
 -1        69-2.96372E-05-2.96372E-05-6.02336E-14-7.09428E-14 1.08437E-13 6.03690E-14
 -1        70-2.96372E-05-2.96372E-05-1.02338E-13 5.03082E-15-6.43719E-14-3.45532E-14
 -1        71-2.96372E-05-2.96372E-05-1.70050E-13-1.04097E-13 8.59514E-14 1.02858E-13
 -1        72-5.92744E-05-5.92744E-05 3.85484E-13-6.80231E-14 5.41763E-14-2.65265E-13
 -3
    1PSTEP                       129          43           1          
  100CL  143 3.45781E-01          72                     0   43           1
 -4  TOSTRAIN    6    1
 -5  EXX         1    4    1    1
 -5  EYY         1    4    2    2
 -5  EZZ         1    4    3    3
 -5  EXY         1    4    1    2
 -5  EYZ         1    4    2    3
 -5  EZX         1    4    3    1
 -1         1-1.97581E-10-1.97581E-10 1.69355E-10 4.76876E-27-1.48886E-27 5.09782E-28
 -1         2-9.87907E-11-9.87907E-11 8.46777E-11-7.07277E-26 1.45301E-27-2.85580E-26
 -1         3-9.87907E-11-9.87907E-11 8.46777E-11 2.57622E-19 1.51456E-25-1.17372E-20
 -1         4-9.87907E-11-9.87907E-11 8.46777E-11 1.14933E-19-3.73871E-25 1.01957E-18
 -1         5-9.87907E-11-9.87907E-11 8.46777E-11-1.20129E-18-1.05725E-24-1.29143E-19
 -1         6-1.97581E-10-1.97581E-10 1.69355E-10 3.46059E-18-1.32267E-24 3.13387E-19
 -1         7-9.87907E-11-9.87907E-11 8.46777E-11 6.32744E-26 6.06804E-26 2.12708E-27
 -1         8-6.58605E-11-6.58605E-11 5.64518E-11-6.55842E-27-1.73954E-26 6.09683E-26
 -1         9-6.58605E-11-6.58605E-11 5.64518E-11 1.72575E-19-2.86535E-20-6.05020E-20
 -1        10-6.58605E-11-6.58605E-11 5.64518E-11 7.21336E-20 2.02518E-20-5.83466E-19
 -1        11-6.58605E-11-6.58605E-11 5.64518E-11-4.58516E-19-6.48454E-20 3.49529E-19
 -1        12-9.87907E-11-9.87907E-11 8.46777E-11 2.28481E-19 1.55061E-20 1.68493E-18
 -1        13-9.87907E-11-9.87907E-11 8.46777E-11 1.22940E-19-8.14207E-19 2.10763E-25
 -1        14-6.58605E-11-6.58605E-11 5.64518E-11 8.26502E-20-3.45512E-19 1.49722E-20
 -1        15-6.58605E-11-6.58605E-11 5.64518E-11-8.73943E-20 1.06345E-20-2.54424E-19
 -1        16-6.58605E-11-6.58605E-11 5.64518E-11-5.91490E-19 9.16492E-20 1.63189E-19
 -1        17-6.58605E-11-6.58605E-11 5.64518E-11-5.00112E-19-1.26135E-19 6.34749E-19
 -1        18-9.87907E-11-9.87907E-11 8.46777E-11 6.35206E-19-6.95561E-19-3.37665E-19
 -1        19-9.87907E-11-9.87907E-11 8.46777E-11-1.33582E-19 1.44125E-18-3.77456E-26
 -1        20-6.58605E-11-6.58605E-11 5.64518E-11-8.83646E-20-2.63371E-19 4.52090E-21
 -1        21-6.58605E-11-6.58605E-11 5.64518E-11-1.41041E-19-3.25253E-19 4.43747E-19
 -1        22-6.58605E-11-6.58605E-11 5.64518E-11-3.91274E-19-6.13862E-21-2.60562E-19
 -1        23-6.58605E-11-6.58605E-11 5.64518E-11 3.13624E-19 3.11589E-19-3.19826E-19
 -1        24-9.87907E-11-9.87907E-11 8.46777E-11-1.91407E-19 4.08527E-19-2.36476E-20
 -1        25-9.87907E-11-9.87907E-11 8.46777E-11-7.42964E-25 9.91091E-19-2.65849E-26
 -1        26-6.58605E-11-6.58605E-11 5.64518E-11-9.49570E-20-5.84732E-19-3.64294E-20
 -1        27-6.58605E-11-6.58605E-11 5.64518E-11-4.40883E-19 3.54904E-20-3.16051E-19
 -1        28-6.58605E-11-6.58605E-11 5.64518E-11-1.89226E-20 8.93635E-19 7.01651E-19
 -1        29-6.58605E-11-6.58605E-11 5.64518E-11-2.02954E-19-2.27238E-19-2.72840E-20
 -1        30-9.87907E-11-9.87907E-11 8.46777E-11 1.18651E-18 3.83452E-19 2.90185E-19
 -1        31-1.97581E-10-1.97581E-10 1.69355E-10-1.48593E-24-2.58329E-18 5.54062E-25
 -1        32-9.87907E-11-9.87907E-11 8.46777E-11-1.42435E-19 5.09952E-19 1.65609E-19
 -1        33-9.87907E-11-9.87907E-11 8.46777E-11-6.42068E-19 1.23205E-19 1.45440E-19
 -1        34-9.87907E-11-9.87907E-11 8.46777E-11-1.31140E-20-8.72215E-19 4.74070E-19
 -1        35-9.87907E-11-9.87907E-11 8.46777E-11 2.75604E-20-7.80403E-20-1.03354E-18
 -1        36-1.97581E-10-1.97581E-10 1.69355E-10-1.05024E-19 1.05870E-18 5.31829E-19
 -1        37-1.97581E-10-1.97581E-10 1.69355E-10 2.71082E-27 4.85510E-26 2.55026E-26
 -1        38-9.87907E-11-9.87907E-11 8.46777E-11 9.54544E-26-4.25054E-26-1.60616E-26
 -1        39-9.87907E-11-9.87907E-11 8.46777E-11-5.01668E-19 1.23374E-19-5.58910E-20
 -1        40-9.87907E-11-9.87907E-11 8.46777E-11 2.82782E-19-9.78430E-20 9.47752E-20
 -1        41-9.87907E-11-9.87907E-11 8.46777E-11-1.40843E-19 9.20224E-20 2.94299E-19
 -1        42-1.97581E-10-1.97581E-10 1.69355E-10-2.67751E-18 1.82755E-19 1.45186E-19
 -1        43-9.87907E-11-9.87907E-11 8.46777E-11-5.04403E-26 7.24590E-26-5.44419E-26
 -1        44-6.58605E-11-6.58605E-11 5.64518E-11 2.91058E-26-4.43358E-26 2.32556E-26
 -1        45-6.58605E-11-6.58605E-11 5.64518E-11-3.24675E-19 5.35957E-20 5.30727E-19
 -1        46-6.58605E-11-6.58605E-11 5.64518E-11 4.74654E-19-4.49767E-20-1.09867E-19
 -1        47-6.58605E-11-6.58605E-11 5.64518E-11-1.22497E-19-3.49648E-21 2.19847E-20
 -1        48-9.87907E-11-9.87907E-11 8.46777E-11-1.68460E-20 1.06884E-19-1.14484E-18
 -1        49-9.87907E-11-9.87907E-11 8.46777E-11 2.41994E-19 2.60311E-19 7.24675E-21
 -1        50-6.58605E-11-6.58605E-11 5.64518E-11 1.47388E-19 4.85680E-19 1.98033E-20
 -1        51-6.58605E-11-6.58605E-11 5.64518E-11-1.64363E-19-2.23786E-19-3.86656E-19
 -1        52-6.58605E-11-6.58605E-11 5.64518E-11-8.02489E-21-1.65280E-19 2.03264E-20
 -1        53-6.58605E-11-6.58605E-11 5.64518E-11 9.14684E-20-3.33627E-19-8.43602E-19
 -1        54-9.87907E-11-9.87907E-11 8.46777E-11-2.80698E-19 4.79971E-19 1.14223E-18
 -1        55-9.87907E-11-9.87907E-11 8.46777E-11 3.10728E-19-7.54875E-19-4.63497E-20
 -1        56-6.58605E-11-6.58605E-11 5.64518E-11 1.93211E-19-1.64315E-20-2.63788E-20
 -1        57-6.58605E-11-6.58605E-11 5.64518E-11-2.08089E-19 4.37358E-19 1.48695E-19
 -1        58-6.58605E-11-6.58605E-11 5.64518E-11 1.55166E-19-3.92749E-19-2.88998E-21
 -1        59-6.58605E-11-6.58605E-11 5.64518E-11-1.11012E-18 5.10850E-19 8.44624E-19
 -1        60-9.87907E-11-9.87907E-11 8.46777E-11 9.39906E-19-6.93010E-19-9.17308E-19
 -1        61-9.87907E-11-9.87907E-11 8.46777E-11 3.45536E-25-1.71431E-18 3.35942E-21
 -1        62-6.58605E-11-6.58605E-11 5.64518E-11 1.10613E-19 7.28909E-19-3.41898E-20
 -1        63-6.58605E-11-6.58605E-11 5.64518E-11 3.74658E-19-1.05889E-18-1.24932E-19
 -1        64-6.58605E-11-6.58605E-11 5.64518E-11 5.50018E-19 5.00833E-19 9.41552E-20
 -1        65-6.58605E-11-6.58605E-11 5.64518E-11-2.54102E-19-3.93057E-19-6.76645E-19
 -1        66-9.87907E-11-9.87907E-11 8.46777E-11-1.19305E-18 1.48815E-19 1.91077E-18
 -1        67-1.97581E-10-1.97581E-10 1.69355E-10 6.91072E-25 2.43542E-18-2.57930E-19
 -1        68-9.87907E-11-9.87907E-11 8.46777E-11 1.65919E-19-5.09753E-20 3.66435E-20
 -1        69-9.87907E-11-9.87907E-11 8.46777E-11-4.39170E-19 6.71278E-19 3.73713E-19
 -1        70-9.87907E-11-9.87907E-11 8.46777E-11 3.11432E-20-3.98493E-19-2.13901E-19
 -1        71-9.87907E-11-9.87907E-11 8.46777E-11-6.44410E-19 5.32080E-19 6.36740E-19
 -1        72-1.97581E-10-1.97581E-10 1.69355E-10-4.21095E-19 3.35377E-19-1.64212E-18
 -3
    1PSTEP                       130          44           1          
  100CL  144 3.54781E-01          72                     0   44           1
 -4  DISP        4    1
 -5  D1          1    2    1    0
 -5  D2          1    2    2    0
 -5  D3          1    2    3    0
 -5  ALL         1    2    0    0    1ALL
 -1         1 0.00000E+00 0.00000E+00 0.00000E+00
 -1         2-1.01366E-07 0.00000E+00 0.00000E+00
 -1         3-5.32172E+00 0.00000E+00 0.00000E+00
 -1         4-5.32172E+00 0.00000E+00 0.00000E+00
 -1         5-1.06434E+01 0.00000E+00 0.00000E+00
 -1         6-1.06434E+01 0.00000E+00 0.00000E+00
 -1         7 0.00000E+00-1.01366E-07 0.00000E+00
 -1         8-1.01366E-07-1.01366E-07 0.00000E+00
 -1         9-5.32172E+00-1.01366E-07 0.00000E+00
 -1        10-5.32172E+00-1.01366E-07 0.00000E+00
 -1        11-1.06434E+01-1.01366E-07 0.00000E+00
 -1        12-1.06434E+01-1.01366E-07 0.00000E+00
 -1        13 0.00000E+00-5.32172E+00 0.00000E+00
 -1        14-1.01366E-07-5.32172E+00 0.00000E+00
 -1        15-5.32172E+00-5.32172E+00 0.00000E+00
 -1        16-5.32172E+00-5.32172E+00 0.00000E+00
 -1        17-1.06434E+01-5.32172E+00 0.00000E+00
 -1        18-1.06434E+01-5.32172E+00 0.00000E+00
 -1        19 0.00000E+00-5.32172E+00 0.00000E+00
 -1        20-1.01366E-07-5.32172E+00 0.00000E+00
 -1        21-5.32172E+00-5.32172E+00 0.00000E+00
 -1        22-5.32172E+00-5.32172E+00 0.00000E+00
 -1        23-1.06434E+01-5.32172E+00 0.00000E+00
 -1        24-1.06434E+01-5.32172E+00 0.00000E+00
 -1        25 0.00000E+00-1.06434E+01 0.00000E+00
 -1        26-1.01366E-07-1.06434E+01 0.00000E+00
 -1        27-5.32172E+00-1.06434E+01 0.00000E+00
 -1        28-5.32172E+00-1.06434E+01 0.00000E+00
 -1        29-1.06434E+01-1.06434E+01 0.00000E+00
 -1        30-1.06434E+01-1.06434E+01 0.00000E+00
 -1        31 0.00000E+00-1.06434E+01 0.00000E+00
 -1        32-1.01366E-07-1.06434E+01 0.00000E+00
 -1        33-5.32172E+00-1.06434E+01 0.00000E+00
 -1        34-5.32172E+00-1.06434E+01 0.00000E+00
 -1        35-1.06434E+01-1.06434E+01 0.00000E+00
 -1        36-1.06434E+01-1.06434E+01 0.00000E+00
 -1        37 0.00000E+00 0.00000E+00 1.21639E-07
 -1        38-1.01366E-07 0.00000E+00 1.21639E-07
 -1        39-5.32172E+00 0.00000E+00 1.21639E-07
 -1        40-5.32172E+00 0.00000E+00 1.21639E-07
 -1        41-1.06434E+01 0.00000E+00 1.21639E-07
 -1        42-1.06434E+01 0.00000E+00 1.21639E-07
 -1        43 0.00000E+00-1.01366E-07 1.21639E-07
 -1        44-1.01366E-07-1.01366E-07 1.21639E-07
 -1        45-5.32172E+00-1.01366E-07 1.21639E-07
 -1        46-5.32172E+00-1.01366E-07 1.21639E-07
 -1        47-1.06434E+01-1.01366E-07 1.21639E-07
 -1        48-1.06434E+01-1.01366E-07 1.21639E-07
 -1        49 0.00000E+00-5.32172E+00 1.21639E-07
 -1        50-1.01366E-07-5.32172E+00 1.21639E-07
 -1        51-5.32172E+00-5.32172E+00 1.21639E-07
 -1        52-5.32172E+00-5.32172E+00 1.21639E-07
 -1        53-1.06434E+01-5.32172E+00 1.21639E-07
 -1        54-1.06434E+01-5.32172E+00 1.21639E-07
 -1        55 0.00000E+00-5.32172E+00 1.21639E-07
 -1        56-1.01366E-07-5.32172E+00 1.21639E-07
 -1        57-5.32172E+00-5.32172E+00 1.21639E-07
 -1        58-5.32172E+00-5.32172E+00 1.21639E-07
 -1        59-1.06434E+01-5.32172E+00 1.21639E-07
 -1        60-1.06434E+01-5.32172E+00 1.21639E-07
 -1        61 0.00000E+00-1.06434E+01 1.21639E-07
 -1        62-1.01366E-07-1.06434E+01 1.21639E-07
 -1        63-5.32172E+00-1.06434E+01 1.21639E-07
 -1        64-5.32172E+00-1.06434E+01 1.21639E-07
 -1        65-1.06434E+01-1.06434E+01 1.21639E-07
 -1        66-1.06434E+01-1.06434E+01 1.21639E-07
 -1        67 0.00000E+00-1.06434E+01 1.21639E-07
 -1        68-1.01366E-07-1.06434E+01 1.21639E-07
 -1        69-5.32172E+00-1.06434E+01 1.21639E-07
 -1        70-5.32172E+00-1.06434E+01 1.21639E-07
 -1        71-1.06434E+01-1.06434E+01 1.21639E-07
 -1        72-1.06434E+01-1.06434E+01 1.21639E-07
 -3
    1PSTEP                       131          44           1          
  100CL  144 3.54781E-01          72                     0   44           1
 -4  STRESS      6    1
 -5  SXX         1    4    1    1
 -5  SYY         1    4    2    2
 -5  SZZ         1    4    3    3
 -5  SXY         1    4    1    2
 -5  SYZ         1    4    2    3
 -5  SZX         1    4    3    1
 -1         1-6.08172E-05-6.08172E-05 2.68614E-20 1.37359E-22 8.89972E-22 1.64892E-22
 -1         2-3.04086E-05-3.04086E-05-4.53874E-22 4.89769E-21-6.20529E-23-2.56362E-21
 -1         3-3.04086E-05-3.04086E-05 3.83276E-14 5.25213E-14 2.34601E-20 2.83466E-14
 -1         4-3.04086E-05-3.04086E-05 7.97212E-14 9.10832E-14-3.34841E-20 3.35458E-15
 -1         5-3.04086E-05-3.04086E-05 3.38638E-14-4.51156E-14-1.05313E-19 4.22656E-14
 -1         6-6.08172E-05-6.08172E-05 6.86348E-14 5.79422E-13-3.12538E-19-2.32510E-16
 -1         7-3.04086E-05-3.04086E-05 5.41451E-21-1.65078E-21-4.83456E-21 3.41309E-22
 -1         8-2.02724E-05-2.02724E-05 1.96422E-20 2.11882E-21-3.63568E-21-2.63628E-21
 -1         9-2.02724E-05-2.02724E-05 2.39290E-14 6.10064E-14-4.43371E-15 1.36365E-14
 -1        10-2.02724E-05-2.02724E-05 2.07787E-14-5.12790E-14-3.21969E-15 6.97211E-14
 -1        11-2.02724E-05-2.02724E-05 9.99726E-14-9.11510E-14-3.70664E-14-3.80800E-14
 -1        12-3.04086E-05-3.04086E-05-1.62668E-13 2.17331E-13 5.55322E-14 1.70842E-14
 -1        13-3.04086E-05-3.04086E-05-2.68452E-14-1.75185E-19 7.25375E-15 2.04427E-20
 -1        14-2.02724E-05-2.02724E-05-3.30147E-14 2.90886E-15 3.99115E-14-2.84993E-16
 -1        15-2.02724E-05-2.02724E-05-5.98612E-14 3.45635E-14 2.13679E-15-1.37583E-13
 -1        16-2.02724E-05-2.02724E-05-1.79700E-13-4.78409E-14 1.69411E-14 5.79120E-14
 -1        17-2.02724E-05-2.02724E-05-1.07290E-13 7.49535E-17-2.65770E-14 1.77696E-13
 -1        18-3.04086E-05-3.04086E-05-5.16976E-13 1.42223E-13-1.69767E-14-3.73187E-13
 -1        19-3.04086E-05-3.04086E-05 9.54451E-14-1.74959E-19 7.02269E-14-2.30860E-21
 -1        20-2.02724E-05-2.02724E-05-5.03425E-14 2.90886E-15 1.13474E-15 4.43734E-15
 -1        21-2.02724E-05-2.02724E-05-5.74281E-14 8.21406E-14-5.72745E-16 8.04817E-14
 -1        22-2.02724E-05-2.02724E-05 5.48605E-16 4.41794E-14-5.58236E-14-3.81840E-14
 -1        23-2.02724E-05-2.02724E-05-2.64566E-14 3.75814E-14-5.72499E-14-6.83667E-14
 -1        24-3.04086E-05-3.04086E-05 1.71346E-13-6.42243E-14 1.54735E-13 6.23280E-14
 -1        25-3.04086E-05-3.04086E-05-1.78870E-13-6.41169E-15-2.05018E-13 1.34372E-19
 -1        26-2.02724E-05-2.02724E-05-2.34938E-13-4.54712E-14-4.04367E-14 1.87947E-14
 -1        27-2.02724E-05-2.02724E-05 1.38907E-13 8.97121E-14-2.29704E-13 3.03594E-14
 -1        28-2.02724E-05-2.02724E-05 1.26177E-13-4.56346E-15 1.96240E-13 9.93086E-14
 -1        29-2.02724E-05-2.02724E-05-9.84039E-14-7.56831E-14-4.38603E-14-1.75148E-13
 -1        30-3.04086E-05-3.04086E-05-9.63300E-14 1.49873E-13 1.35302E-13 2.07248E-13
 -1        31-6.08172E-05-6.08172E-05 2.02009E-13-9.25044E-16 1.82438E-13-2.85168E-21
 -1        32-3.04086E-05-3.04086E-05-1.31569E-13-6.22577E-14 3.46875E-14 1.36161E-14
 -1        33-3.04086E-05-3.04086E-05 5.61226E-13 1.09367E-13 1.50814E-13-2.43485E-13
 -1        34-3.04086E-05-3.04086E-05 5.07644E-13 1.15362E-13-1.43314E-13 3.88978E-14
 -1        35-3.04086E-05-3.04086E-05 5.14334E-14 5.63462E-15 1.80407E-13 5.03675E-14
 -1        36-6.08172E-05-6.08172E-05-9.48273E-13-1.41198E-13-4.46829E-13 3.84349E-14
 -1        37-6.08172E-05-6.08172E-05-1.14936E-20-8.75972E-22-5.10413E-22 3.40636E-22
 -1        38-3.04086E-05-3.04086E-05-1.21908E-20 3.99956E-21 9.85279E-22-3.04888E-21
 -1        39-3.04086E-05-3.04086E-05-1.61601E-14-5.69988E-14 1.52350E-14 5.38427E-14
 -1        40-3.04086E-05-3.04086E-05 2.90577E-14-7.43703E-14-3.21267E-15 4.83578E-17
 -1        41-3.04086E-05-3.04086E-05-1.42821E-13-1.12227E-13 7.04085E-14 9.25443E-14
 -1        42-6.08172E-05-6.08172E-05 1.82018E-13-6.80236E-14-1.09648E-13-2.97000E-13
 -1        43-3.04086E-05-3.04086E-05-6.32239E-21-6.85501E-21-3.39576E-21 1.61764E-21
 -1        44-2.02724E-05-2.02724E-05-6.69513E-21-1.61165E-21-3.31955E-21-3.59401E-22
 -1        45-2.02724E-05-2.02724E-05 7.95513E-14-5.19747E-14 5.72295E-15 6.48107E-14
 -1        46-2.02724E-05-2.02724E-05 7.89505E-14-4.37457E-15-5.36145E-15-1.18232E-13
 -1        47-2.02724E-05-2.02724E-05-4.40882E-14-1.93483E-14 9.87269E-15 7.18884E-15
 -1        48-3.04086E-05-3.04086E-05-1.45382E-13-2.25796E-14 7.08623E-16 2.04838E-13
 -1        49-3.04086E-05-3.04086E-05 2.59357E-14-1.40138E-19 7.60595E-14 2.93089E-15
 -1        50-2.02724E-05-2.02724E-05-2.87781E-14 9.52017E-15-3.87766E-14 1.66892E-15
 -1        51-2.02724E-05-2.02724E-05-1.37048E-13-2.58630E-15 2.98816E-15-1.51691E-13
 -1        52-2.02724E-05-2.02724E-05 3.37768E-13 7.32922E-14 2.96974E-14 1.23704E-13
 -1        53-2.02724E-05-2.02724E-05 1.83822E-13 2.15031E-13-3.27365E-14-1.05811E-13
 -1        54-3.04086E-05-3.04086E-05 2.74671E-13 1.62545E-13 1.08210E-13 1.76920E-13
 -1        55-3.04086E-05-3.04086E-05-2.67534E-13-1.40981E-19-4.77825E-14-1.02273E-14
 -1        56-2.02724E-05-2.02724E-05 4.07355E-14 9.52017E-15 5.57469E-14-2.38085E-15
 -1        57-2.02724E-05-2.02724E-05-2.03295E-13 1.02569E-13 3.53062E-14 1.23151E-13
 -1        58-2.02724E-05-2.02724E-05 2.84444E-14 3.33003E-14-8.03971E-15-1.27956E-13
 -1        59-2.02724E-05-2.02724E-05-4.40340E-15 2.26267E-13-2.33447E-14 1.42137E-13
 -1        60-3.04086E-05-3.04086E-05-3.27881E-13-8.33088E-14 5.56329E-14-2.16360E-13
 -1        61-3.04086E-05-3.04086E-05-3.31240E-14 3.33223E-13-1.46179E-13-1.30271E-14
 -1        62-2.02724E-05-2.02724E-05 1.98499E-14 1.67347E-13 1.54977E-14 1.01098E-14
 -1        63-2.02724E-05-2.02724E-05 2.11921E-13 6.17416E-14-3.36273E-14 2.78490E-14
 -1        64-2.02724E-05-2.02724E-05-7.79400E-14 1.66443E-13-2.82276E-14 1.90741E-14
 -1        65-2.02724E-05-2.02724E-05-1.49713E-13 2.37147E-14-1.34646E-13 3.24835E-14
 -1        66-3.04086E-05-3.04086E-05-3.81532E-13 2.48316E-13-1.72651E-13-1.40049E-13
 -1        67-6.08172E-05-6.08172E-05 4.32283E-13 4.78465E-14 1.08492E-13-7.32832E-14
 -1        68-3.04086E-05-3.04086E-05 2.20004E-13-5.82780E-14 2.27536E-13-2.30255E-14
 -1        69-3.04086E-05-3.04086E-05 3.04308E-13-1.66105E-13-6.77833E-14-9.06873E-15
 -1        70-3.04086E-05-3.04086E-05-6.25903E-14-2.48410E-13 1.90321E-13-1.61784E-13
 -1        71-3.04086E-05-3.04086E-05-3.91393E-13-2.89983E-13 9.60813E-14 4.42628E-14
 -1        72-6.08172E-05-6.08172E-05 1.02573E-12-1.05712E-13 4.20098E-14-1.53717E-13
 -3
    1PSTEP                       132          44           1          
  100CL  144 3.54781E-01          72                     0   44           1
 -4  TOSTRAIN    6    1
 -5  EXX         1    4    1    1
 -5  EYY         1    4    2    2
 -5  EZZ         1    4    3    3
 -5  EXY         1    4    1    2
 -5  EYZ         1    4    2    3
 -5  EZX         1    4    3    1
 -1         1-2.02724E-10-2.02724E-10 1.73763E-10 8.50315E-28 5.50935E-27 1.02076E-27
 -1         2-1.01362E-10-1.01362E-10 8.68817E-11 3.03190E-26-3.84137E-28-1.58700E-26
 -1         3-1.01362E-10-1.01362E-10 8.68817E-11 3.25132E-19 1.45229E-25 1.75479E-19
 -1         4-1.01362E-10-1.01362E-10 8.68817E-11 5.63848E-19-2.07283E-25 2.07665E-20
 -1         5-1.01362E-10-1.01362E-10 8.68817E-11-2.79287E-19-6.51936E-25 2.61644E-19
 -1         6-2.02724E-10-2.02724E-10 1.73763E-10 3.58690E-18-1.93476E-24-1.43935E-21
 -1         7-1.01362E-10-1.01362E-10 8.68817E-11-1.02191E-26-2.99282E-26 2.11287E-27
 -1         8-6.75747E-11-6.75747E-11 5.79211E-11 1.31165E-26-2.25066E-26-1.63198E-26
 -1         9-6.75747E-11-6.75747E-11 5.79211E-11 3.77658E-19-2.74468E-20 8.44166E-20
 -1        10-6.75747E-11-6.75747E-11 5.79211E-11-3.17442E-19-1.99314E-20 4.31607E-19
 -1        11-6.75747E-11-6.75747E-11 5.79211E-11-5.64268E-19-2.29458E-19-2.35733E-19
 -1        12-1.01362E-10-1.01362E-10 8.68817E-11 1.34538E-18 3.43771E-19 1.05759E-19
 -1        13-1.01362E-10-1.01362E-10 8.68817E-11-1.08448E-24 4.49042E-20 1.26550E-25
 -1        14-6.75747E-11-6.75747E-11 5.79211E-11 1.80072E-20 2.47071E-19-1.76425E-21
 -1        15-6.75747E-11-6.75747E-11 5.79211E-11 2.13965E-19 1.32278E-20-8.51703E-19
 -1        16-6.75747E-11-6.75747E-11 5.79211E-11-2.96158E-19 1.04873E-19 3.58503E-19
 -1        17-6.75747E-11-6.75747E-11 5.79211E-11 4.63998E-22-1.64524E-19 1.10002E-18
 -1        18-1.01362E-10-1.01362E-10 8.68817E-11 8.80429E-19-1.05094E-19-2.31021E-18
 -1        19-1.01362E-10-1.01362E-10 8.68817E-11-1.08308E-24 4.34738E-19-1.42913E-26
 -1        20-6.75747E-11-6.75747E-11 5.79211E-11 1.80072E-20 7.02457E-21 2.74693E-20
 -1        21-6.75747E-11-6.75747E-11 5.79211E-11 5.08490E-19-3.54556E-21 4.98220E-19
 -1        22-6.75747E-11-6.75747E-11 5.79211E-11 2.73492E-19-3.45575E-19-2.36377E-19
 -1        23-6.75747E-11-6.75747E-11 5.79211E-11 2.32647E-19-3.54404E-19-4.23222E-19
 -1        24-1.01362E-10-1.01362E-10 8.68817E-11-3.97579E-19 9.57885E-19 3.85840E-19
 -1        25-1.01362E-10-1.01362E-10 8.68817E-11-3.96914E-20-1.26916E-18 8.31827E-25
 -1        26-6.75747E-11-6.75747E-11 5.79211E-11-2.81489E-19-2.50322E-19 1.16348E-19
 -1        27-6.75747E-11-6.75747E-11 5.79211E-11 5.55361E-19-1.42198E-18 1.87939E-19
 -1        28-6.75747E-11-6.75747E-11 5.79211E-11-2.82500E-20 1.21482E-18 6.14767E-19
 -1        29-6.75747E-11-6.75747E-11 5.79211E-11-4.68514E-19-2.71516E-19-1.08425E-18
 -1        30-1.01362E-10-1.01362E-10 8.68817E-11 9.27786E-19 8.37587E-19 1.28296E-18
 -1        31-2.02724E-10-2.02724E-10 1.73763E-10-5.72646E-21 1.12938E-18-1.76532E-26
 -1        32-1.01362E-10-1.01362E-10 8.68817E-11-3.85405E-19 2.14732E-19 8.42899E-20
 -1        33-1.01362E-10-1.01362E-10 8.68817E-11 6.77031E-19 9.33608E-19-1.50729E-18
 -1        34-1.01362E-10-1.01362E-10 8.68817E-11 7.14147E-19-8.87180E-19 2.40796E-19
 -1        35-1.01362E-10-1.01362E-10 8.68817E-11 3.48810E-20 1.11681E-18 3.11799E-19
 -1        36-2.02724E-10-2.02724E-10 1.73763E-10-8.74084E-19-2.76608E-18 2.37930E-19
 -1        37-2.02724E-10-2.02724E-10 1.73763E-10-5.42269E-27-3.15970E-27 2.10870E-27
 -1        38-1.01362E-10-1.01362E-10 8.68817E-11 2.47592E-26 6.09934E-27-1.88740E-26
 -1        39-1.01362E-10-1.01362E-10 8.68817E-11-3.52849E-19 9.43120E-20 3.33312E-19
 -1        40-1.01362E-10-1.01362E-10 8.68817E-11-4.60388E-19-1.98880E-20 2.99358E-22
 -1        41-1.01362E-10-1.01362E-10 8.68817E-11-6.94740E-19 4.35862E-19 5.72893E-19
 -1        42-2.02724E-10-2.02724E-10 1.73763E-10-4.21099E-19-6.78770E-19-1.83857E-18
 -1        43-1.01362E-10-1.01362E-10 8.68817E-11-4.24358E-26-2.10214E-26 1.00139E-26
 -1        44-6.75747E-11-6.75747E-11 5.79211E-11-9.97685E-27-2.05496E-26-2.22486E-27
 -1        45-6.75747E-11-6.75747E-11 5.79211E-11-3.21748E-19 3.54278E-20 4.01209E-19
 -1        46-6.75747E-11-6.75747E-11 5.79211E-11-2.70807E-20-3.31900E-20-7.31911E-19
 -1        47-6.75747E-11-6.75747E-11 5.79211E-11-1.19775E-19 6.11167E-20 4.45023E-20
 -1        48-1.01362E-10-1.01362E-10 8.68817E-11-1.39779E-19 4.38671E-21 1.26804E-18
 -1        49-1.01362E-10-1.01362E-10 8.68817E-11-8.67518E-25 4.70844E-19 1.81436E-20
 -1        50-6.75747E-11-6.75747E-11 5.79211E-11 5.89344E-20-2.40045E-19 1.03314E-20
 -1        51-6.75747E-11-6.75747E-11 5.79211E-11-1.60104E-20 1.84981E-20-9.39040E-19
 -1        52-6.75747E-11-6.75747E-11 5.79211E-11 4.53714E-19 1.83841E-19 7.65786E-19
 -1        53-6.75747E-11-6.75747E-11 5.79211E-11 1.33115E-18-2.02655E-19-6.55023E-19
 -1        54-1.01362E-10-1.01362E-10 8.68817E-11 1.00623E-18 6.69872E-19 1.09522E-18
 -1        55-1.01362E-10-1.01362E-10 8.68817E-11-8.72739E-25-2.95796E-19-6.33118E-20
 -1        56-6.75747E-11-6.75747E-11 5.79211E-11 5.89344E-20 3.45100E-19-1.47386E-20
 -1        57-6.75747E-11-6.75747E-11 5.79211E-11 6.34954E-19 2.18562E-19 7.62362E-19
 -1        58-6.75747E-11-6.75747E-11 5.79211E-11 2.06145E-19-4.97696E-20-7.92111E-19
 -1        59-6.75747E-11-6.75747E-11 5.79211E-11 1.40070E-18-1.44515E-19 8.79896E-19
 -1        60-1.01362E-10-1.01362E-10 8.68817E-11-5.15721E-19 3.44394E-19-1.33937E-18
 -1        61-1.01362E-10-1.01362E-10 8.68817E-11 2.06281E-18-9.04920E-19-8.06440E-20
 -1        62-6.75747E-11-6.75747E-11 5.79211E-11 1.03596E-18 9.59379E-20 6.25847E-20
 -1        63-6.75747E-11-6.75747E-11 5.79211E-11 3.82210E-19-2.08169E-19 1.72399E-19
 -1        64-6.75747E-11-6.75747E-11 5.79211E-11 1.03036E-18-1.74742E-19 1.18078E-19
 -1        65-6.75747E-11-6.75747E-11 5.79211E-11 1.46805E-19-8.33524E-19 2.01088E-19
 -1        66-1.01362E-10-1.01362E-10 8.68817E-11 1.53719E-18-1.06879E-18-8.66970E-19
 -1        67-2.02724E-10-2.02724E-10 1.73763E-10 2.96193E-19 6.71616E-19-4.53658E-19
 -1        68-1.01362E-10-1.01362E-10 8.68817E-11-3.60769E-19 1.40855E-18-1.42539E-19
 -1        69-1.01362E-10-1.01362E-10 8.68817E-11-1.02827E-18-4.19611E-19-5.61398E-20
 -1        70-1.01362E-10-1.01362E-10 8.68817E-11-1.53777E-18 1.17818E-18-1.00152E-18
 -1        71-1.01362E-10-1.01362E-10 8.68817E-11-1.79513E-18 5.94789E-19 2.74008E-19
 -1        72-2.02724E-10-2.02724E-10 1.73763E-10-6.54407E-19 2.60061E-19-9.51581E-19
 -3
    1PSTEP                       133          45           1          
  100CL  145 3.63781E-01          72                     0   45           1
 -4  DISP        4    1
 -5  D1          1    2    1    0
 -5  D2          1    2    2    0
 -5  D3          1    2    3    0
 -5  ALL         1    2    0    0    1ALL
 -1         1 0.00000E+00 0.00000E+00 0.00000E+00
 -1         2-1.03937E-07 0.00000E+00 0.00000E+00
 -1         3-5.45672E+00 0.00000E+00 0.00000E+00
 -1         4-5.45672E+00 0.00000E+00 0.00000E+00
 -1         5-1.09134E+01 0.00000E+00 0.00000E+00
 -1         6-1.09134E+01 0.00000E+00 0.00000E+00
 -1         7 0.00000E+00-1.03937E-07 0.00000E+00
 -1         8-1.03937E-07-1.03937E-07 0.00000E+00
 -1         9-5.45672E+00-1.03937E-07 0.00000E+00
 -1        10-5.45672E+00-1.03937E-07 0.00000E+00
 -1        11-1.09134E+01-1.03937E-07 0.00000E+00
 -1        12-1.09134E+01-1.03937E-07 0.00000E+00
 -1        13 0.00000E+00-5.45672E+00 0.00000E+00
 -1        14-1.03937E-07-5.45672E+00 0.00000E+00
 -1        15-5.45672E+00-5.45672E+00 0.00000E+00
 -1        16-5.45672E+00-5.45672E+00 0.00000E+00
 -1        17-1.09134E+01-5.45672E+00 0.00000E+00
 -1        18-1.09134E+01-5.45672E+00 0.00000E+00
 -1        19 0.00000E+00-5.45672E+00 0.00000E+00
 -1        20-1.03937E-07-5.45672E+00 0.00000E+00
 -1        21-5.45672E+00-5.45672E+00 0.00000E+00
 -1        22-5.45672E+00-5.45672E+00 0.00000E+00
 -1        23-1.09134E+01-5.45672E+00 0.00000E+00
 -1        24-1.09134E+01-5.45672E+00 0.00000E+00
 -1        25 0.00000E+00-1.09134E+01 0.00000E+00
 -1        26-1.03937E-07-1.09134E+01 0.00000E+00
 -1        27-5.45672E+00-1.09134E+01 0.00000E+00
 -1        28-5.45672E+00-1.09134E+01 0.00000E+00
 -1        29-1.09134E+01-1.09134E+01 0.00000E+00
 -1        30-1.09134E+01-1.09134E+01 0.00000E+00
 -1        31 0.00000E+00-1.09134E+01 0.00000E+00
 -1        32-1.03937E-07-1.09134E+01 0.00000E+00
 -1        33-5.45672E+00-1.09134E+01 0.00000E+00
 -1        34-5.45672E+00-1.09134E+01 0.00000E+00
 -1        35-1.09134E+01-1.09134E+01 0.00000E+00
 -1        36-1.09134E+01-1.09134E+01 0.00000E+00
 -1        37 0.00000E+00 0.00000E+00 1.24725E-07
 -1        38-1.03937E-07 0.00000E+00 1.24725E-07
 -1        39-5.45672E+00 0.00000E+00 1.24725E-07
 -1        40-5.45672E+00 0.00000E+00 1.24725E-07
 -1        41-1.09134E+01 0.00000E+00 1.24725E-07
 -1        42-1.09134E+01 0.00000E+00 1.24725E-07
 -1        43 0.00000E+00-1.03937E-07 1.24725E-07
 -1        44-1.03937E-07-1.03937E-07 1.24725E-07
 -1        45-5.45672E+00-1.03937E-07 1.24725E-07
 -1        46-5.45672E+00-1.03937E-07 1.24725E-07
 -1        47-1.09134E+01-1.03937E-07 1.24725E-07
 -1        48-1.09134E+01-1.03937E-07 1.24725E-07
 -1        49 0.00000E+00-5.45672E+00 1.24725E-07
 -1        50-1.03937E-07-5.45672E+00 1.24725E-07
 -1        51-5.45672E+00-5.45672E+00 1.24725E-07
 -1        52-5.45672E+00-5.45672E+00 1.24725E-07
 -1        53-1.09134E+01-5.45672E+00 1.24725E-07
 -1        54-1.09134E+01-5.45672E+00 1.24725E-07
 -1        55 0.00000E+00-5.45672E+00 1.24725E-07
 -1        56-1.03937E-07-5.45672E+00 1.24725E-07
 -1        57-5.45672E+00-5.45672E+00 1.24725E-07
 -1        58-5.45672E+00-5.45672E+00 1.24725E-07
 -1        59-1.09134E+01-5.45672E+00 1.24725E-07
 -1        60-1.09134E+01-5.45672E+00 1.24725E-07
 -1        61 0.00000E+00-1.09134E+01 1.24725E-07
 -1        62-1.03937E-07-1.09134E+01 1.24725E-07
 -1        63-5.45672E+00-1.09134E+01 1.24725E-07
 -1        64-5.45672E+00-1.09134E+01 1.24725E-07
 -1        65-1.09134E+01-1.09134E+01 1.24725E-07
 -1        66-1.09134E+01-1.09134E+01 1.24725E-07
 -1        67 0.00000E+00-1.09134E+01 1.24725E-07
 -1        68-1.03937E-07-1.09134E+01 1.24725E-07
 -1        69-5.45672E+00-1.09134E+01 1.24725E-07
 -1        70-5.45672E+00-1.09134E+01 1.24725E-07
 -1        71-1.09134E+01-1.09134E+01 1.24725E-07
 -1        72-1.09134E+01-1.09134E+01 1.24725E-07
 -3
    1PSTEP                       134          45           1          
  100CL  145 3.63781E-01          72                     0   45           1
 -4  STRESS      6    1
 -5  SXX         1    4    1    1
 -5  SYY         1    4    2    2
 -5  SZZ         1    4    3    3
 -5  SXY         1    4    1    2
 -5  SYZ         1    4    2    3
 -5  SZX         1    4    3    1
 -1         1-6.23600E-05-6.23600E-05 2.09931E-20 3.78410E-22-3.30901E-22 1.11783E-22
 -1         2-3.11800E-05-3.11800E-05 2.48038E-21-3.61785E-22-2.86576E-22 5.07345E-23
 -1         3-3.11800E-05-3.11800E-05 4.71898E-14-6.68284E-14-6.14642E-20-2.27429E-14
 -1         4-3.11800E-05-3.11800E-05 3.37581E-14 8.77219E-14 7.46219E-21 2.82741E-14
 -1         5-3.11800E-05-3.11800E-05 9.70786E-14-6.67655E-14-2.82979E-21 1.09031E-14
 -1         6-6.23600E-05-6.23600E-05 1.55307E-13-1.64661E-13-3.51258E-19 7.43902E-15
 -1         7-3.11800E-05-3.11800E-05-2.31411E-20 3.76186E-21 2.83921E-21 2.43504E-22
 -1         8-2.07867E-05-2.07867E-05 4.51742E-21 2.14058E-21-5.36727E-22-2.32037E-21
 -1         9-2.07867E-05-2.07867E-05 1.72708E-15-5.88296E-14-2.38368E-15 3.79728E-15
 -1        10-2.07867E-05-2.07867E-05 1.80938E-14 9.11936E-14 4.29181E-16-4.05869E-15
 -1        11-2.07867E-05-2.07867E-05-3.98150E-14-9.34392E-14-1.45061E-15-5.37629E-14
 -1        12-3.11800E-05-3.11800E-05-1.78625E-13 2.12066E-13-1.11322E-14 1.35218E-13
 -1        13-3.11800E-05-3.11800E-05 4.13196E-14-6.56350E-14-1.17205E-13-4.99019E-20
 -1        14-2.07867E-05-2.07867E-05-1.45798E-14-4.39924E-14 2.84403E-14 6.13577E-15
 -1        15-2.07867E-05-2.07867E-05-9.20827E-14-7.43471E-14 1.55823E-14-4.48377E-15
 -1        16-2.07867E-05-2.07867E-05-3.08219E-15-4.76222E-14-7.36865E-14 1.08001E-13
 -1        17-2.07867E-05-2.07867E-05 9.04778E-14 1.13784E-13-2.85743E-14 3.01543E-14
 -1        18-3.11800E-05-3.11800E-05-1.19478E-13 9.48385E-14-2.65075E-14 1.18290E-13
 -1        19-3.11800E-05-3.11800E-05 4.73545E-14 1.64978E-14 2.25857E-14-8.58302E-20
 -1        20-2.07867E-05-2.07867E-05-1.65058E-15 1.07628E-14-3.69635E-14-4.35893E-15
 -1        21-2.07867E-05-2.07867E-05-4.97492E-14-7.59742E-14 2.58939E-14 3.52366E-14
 -1        22-2.07867E-05-2.07867E-05 4.99786E-14-1.83027E-15-3.64958E-15-6.71369E-14
 -1        23-2.07867E-05-2.07867E-05-1.14448E-13 5.72591E-16 1.26552E-13 1.35466E-13
 -1        24-3.11800E-05-3.11800E-05-1.09429E-13-5.57472E-14-8.42997E-14-2.61093E-13
 -1        25-3.11800E-05-3.11800E-05 5.37981E-15-2.34673E-15-4.03649E-14 6.60819E-21
 -1        26-2.07867E-05-2.07867E-05-7.42299E-15-5.66434E-15 4.91449E-14 9.63174E-15
 -1        27-2.07867E-05-2.07867E-05-2.49601E-14 8.60896E-14-6.32740E-14-6.75509E-14
 -1        28-2.07867E-05-2.07867E-05-5.92814E-14-5.98440E-14 4.47480E-14 3.11036E-14
 -1        29-2.07867E-05-2.07867E-05 1.49811E-13 1.83475E-13 2.59948E-14 1.74470E-14
 -1        30-3.11800E-05-3.11800E-05-6.67928E-14 2.62620E-13-3.00169E-13-1.83522E-13
 -1        31-6.23600E-05-6.23600E-05 5.75753E-13 1.25572E-15-6.08864E-13 3.79402E-20
 -1        32-3.11800E-05-3.11800E-05 5.77601E-14-5.52192E-15-1.45448E-13 1.08001E-14
 -1        33-3.11800E-05-3.11800E-05 1.00510E-13 6.86019E-14-5.36730E-14-1.71911E-13
 -1        34-3.11800E-05-3.11800E-05 9.77450E-14-7.40181E-14-2.96948E-13 2.29880E-14
 -1        35-3.11800E-05-3.11800E-05 2.78742E-13 1.25036E-14 1.79691E-13-7.01253E-15
 -1        36-6.23600E-05-6.23600E-05-6.58737E-13-2.30951E-13-1.09975E-13 4.06053E-13
 -1        37-6.23600E-05-6.23600E-05 1.35525E-20-8.10686E-22-3.87032E-21 4.52956E-23
 -1        38-3.11800E-05-3.11800E-05 6.20069E-21-3.69658E-21-9.89634E-23 1.74909E-23
 -1        39-3.11800E-05-3.11800E-05-3.91308E-14-8.42010E-14-4.51587E-15 5.72313E-15
 -1        40-3.11800E-05-3.11800E-05-4.37021E-14-6.27641E-14 1.06769E-14-8.48730E-14
 -1        41-3.11800E-05-3.11800E-05-9.84246E-14-5.01108E-14 3.18541E-14-7.99086E-14
 -1        42-6.23600E-05-6.23600E-05-2.73316E-13-2.88976E-13-1.58741E-14 1.66824E-13
 -1        43-3.11800E-05-3.11800E-05-9.25651E-21-2.50891E-21 1.06950E-21 1.97185E-21
 -1        44-2.07867E-05-2.07867E-05-4.73896E-21-3.86677E-21-4.11652E-22-1.16814E-21
 -1        45-2.07867E-05-2.07867E-05 4.92629E-14-6.32682E-14-5.39422E-15 2.16849E-14
 -1        46-2.07867E-05-2.07867E-05 7.15365E-14-1.71546E-14 7.54710E-15-2.74943E-14
 -1        47-2.07867E-05-2.07867E-05 1.45098E-13-9.06951E-14 1.97854E-14 9.54347E-14
 -1        48-3.11800E-05-3.11800E-05 7.99362E-14 1.37370E-13-1.90691E-14-1.53009E-13
 -1        49-3.11800E-05-3.11800E-05-1.40011E-14 3.16652E-14-1.11594E-13 3.33724E-17
 -1        50-2.07867E-05-2.07867E-05 4.04873E-14 6.18186E-15 2.16347E-14 6.15805E-15
 -1        51-2.07867E-05-2.07867E-05-5.97521E-14-2.07895E-14 1.30818E-14-5.60077E-14
 -1        52-2.07867E-05-2.07867E-05 2.15648E-14 3.14622E-14 5.13252E-14 8.68120E-14
 -1        53-2.07867E-05-2.07867E-05-5.93141E-15-2.70529E-14 4.71003E-14 1.02038E-13
 -1        54-3.11800E-05-3.11800E-05-5.26377E-14-4.46440E-14-1.49262E-13-8.79338E-14
 -1        55-3.11800E-05-3.11800E-05-4.10243E-14 4.81212E-14 6.61427E-14 5.37685E-15
 -1        56-2.07867E-05-2.07867E-05 3.13776E-14 1.71525E-14 1.10450E-13-7.74312E-16
 -1        57-2.07867E-05-2.07867E-05-2.51022E-14-1.01973E-13 1.22525E-13 9.49695E-14
 -1        58-2.07867E-05-2.07867E-05 1.00647E-14-4.02201E-14-8.28520E-14-3.77386E-14
 -1        59-2.07867E-05-2.07867E-05 1.14006E-13 1.26671E-14-4.83478E-14-5.78207E-14
 -1        60-3.11800E-05-3.11800E-05 3.76454E-13-5.68365E-14 7.68599E-14-5.37259E-16
 -1        61-3.11800E-05-3.11800E-05 3.87841E-13 1.21968E-13-1.28103E-13-1.68046E-14
 -1        62-2.07867E-05-2.07867E-05-1.55869E-13 7.38077E-14-9.86076E-15-1.57131E-15
 -1        63-2.07867E-05-2.07867E-05 4.37653E-14-1.54253E-13-5.55922E-14 5.53570E-14
 -1        64-2.07867E-05-2.07867E-05 2.04242E-13 1.22835E-13 2.72903E-14-4.67679E-14
 -1        65-2.07867E-05-2.07867E-05-9.72596E-14 1.35360E-13-6.01183E-14 4.50080E-14
 -1        66-3.11800E-05-3.11800E-05-4.74490E-13-1.08834E-13 6.51107E-14 1.98739E-13
 -1        67-6.23600E-05-6.23600E-05-3.97185E-13-6.53635E-14 6.97812E-13-1.98722E-14
 -1        68-3.11800E-05-3.11800E-05 5.82039E-14-4.39381E-14-1.61513E-14 8.63937E-16
 -1        69-3.11800E-05-3.11800E-05-5.58884E-14-1.20338E-14 9.10909E-14-9.18794E-14
 -1        70-3.11800E-05-3.11800E-05 6.29119E-14 1.49991E-13 1.74121E-13-1.61419E-14
 -1        71-3.11800E-05-3.11800E-05-3.25985E-13 3.51097E-14 8.93277E-14-1.93666E-13
 -1        72-6.23600E-05-6.23600E-05-9.95488E-14 3.07741E-13-1.66337E-13-1.49949E-13
 -3
    1PSTEP                       135          45           1          
  100CL  145 3.63781E-01          72                     0   45           1
 -4  TOSTRAIN    6    1
 -5  EXX         1    4    1    1
 -5  EYY         1    4    2    2
 -5  EZZ         1    4    3    3
 -5  EXY         1    4    1    2
 -5  EYZ         1    4    2    3
 -5  EZX         1    4    3    1
 -1         1-2.07867E-10-2.07867E-10 1.78171E-10 2.34254E-27-2.04844E-27 6.91988E-28
 -1         2-1.03933E-10-1.03933E-10 8.90857E-11-2.23962E-27-1.77404E-27 3.14070E-28
 -1         3-1.03933E-10-1.03933E-10 8.90857E-11-4.13700E-19-3.80492E-25-1.40789E-19
 -1         4-1.03933E-10-1.03933E-10 8.90857E-11 5.43040E-19 4.61945E-26 1.75030E-19
 -1         5-1.03933E-10-1.03933E-10 8.90857E-11-4.13311E-19-1.75177E-26 6.74952E-20
 -1         6-2.07867E-10-2.07867E-10 1.78171E-10-1.01933E-18-2.17445E-24 4.60511E-20
 -1         7-1.03933E-10-1.03933E-10 8.90857E-11 2.32877E-26 1.75761E-26 1.50741E-27
 -1         8-6.92889E-11-6.92889E-11 5.93905E-11 1.32512E-26-3.32260E-27-1.43642E-26
 -1         9-6.92889E-11-6.92889E-11 5.93905E-11-3.64184E-19-1.47561E-20 2.35070E-20
 -1        10-6.92889E-11-6.92889E-11 5.93905E-11 5.64532E-19 2.65683E-21-2.51253E-20
 -1        11-6.92889E-11-6.92889E-11 5.93905E-11-5.78433E-19-8.98000E-21-3.32818E-19
 -1        12-1.03933E-10-1.03933E-10 8.90857E-11 1.31279E-18-6.89139E-20 8.37061E-19
 -1        13-1.03933E-10-1.03933E-10 8.90857E-11-4.06312E-19-7.25555E-19-3.08916E-25
 -1        14-6.92889E-11-6.92889E-11 5.93905E-11-2.72334E-19 1.76059E-19 3.79833E-20
 -1        15-6.92889E-11-6.92889E-11 5.93905E-11-4.60244E-19 9.64620E-20-2.77567E-20
 -1        16-6.92889E-11-6.92889E-11 5.93905E-11-2.94804E-19-4.56154E-19 6.68580E-19
 -1        17-6.92889E-11-6.92889E-11 5.93905E-11 7.04376E-19-1.76889E-19 1.86670E-19
 -1        18-1.03933E-10-1.03933E-10 8.90857E-11 5.87095E-19-1.64094E-19 7.32271E-19
 -1        19-1.03933E-10-1.03933E-10 8.90857E-11 1.02129E-19 1.39816E-19-5.31330E-25
 -1        20-6.92889E-11-6.92889E-11 5.93905E-11 6.66268E-20-2.28822E-19-2.69839E-20
 -1        21-6.92889E-11-6.92889E-11 5.93905E-11-4.70316E-19 1.60296E-19 2.18131E-19
 -1        22-6.92889E-11-6.92889E-11 5.93905E-11-1.13303E-20-2.25926E-20-4.15610E-19
 -1        23-6.92889E-11-6.92889E-11 5.93905E-11 3.54461E-21 7.83418E-19 8.38597E-19
 -1        24-1.03933E-10-1.03933E-10 8.90857E-11-3.45102E-19-5.21856E-19-1.61629E-18
 -1        25-1.03933E-10-1.03933E-10 8.90857E-11-1.45274E-20-2.49878E-19 4.09079E-26
 -1        26-6.92889E-11-6.92889E-11 5.93905E-11-3.50649E-20 3.04230E-19 5.96250E-20
 -1        27-6.92889E-11-6.92889E-11 5.93905E-11 5.32936E-19-3.91696E-19-4.18172E-19
 -1        28-6.92889E-11-6.92889E-11 5.93905E-11-3.70463E-19 2.77011E-19 1.92546E-19
 -1        29-6.92889E-11-6.92889E-11 5.93905E-11 1.13580E-18 1.60920E-19 1.08005E-19
 -1        30-1.03933E-10-1.03933E-10 8.90857E-11 1.62574E-18-1.85819E-18-1.13609E-18
 -1        31-2.07867E-10-2.07867E-10 1.78171E-10 7.77349E-21-3.76916E-18 2.34868E-25
 -1        32-1.03933E-10-1.03933E-10 8.90857E-11-3.41833E-20-9.00390E-19 6.68576E-20
 -1        33-1.03933E-10-1.03933E-10 8.90857E-11 4.24678E-19-3.32261E-19-1.06421E-18
 -1        34-1.03933E-10-1.03933E-10 8.90857E-11-4.58207E-19-1.83825E-18 1.42307E-19
 -1        35-1.03933E-10-1.03933E-10 8.90857E-11 7.74033E-20 1.11237E-18-4.34109E-20
 -1        36-2.07867E-10-2.07867E-10 1.78171E-10-1.42970E-18-6.80799E-19 2.51366E-18
 -1        37-2.07867E-10-2.07867E-10 1.78171E-10-5.01853E-27-2.39591E-26 2.80401E-28
 -1        38-1.03933E-10-1.03933E-10 8.90857E-11-2.28836E-26-6.12630E-28 1.08277E-28
 -1        39-1.03933E-10-1.03933E-10 8.90857E-11-5.21244E-19-2.79554E-20 3.54289E-20
 -1        40-1.03933E-10-1.03933E-10 8.90857E-11-3.88540E-19 6.60950E-20-5.25404E-19
 -1        41-1.03933E-10-1.03933E-10 8.90857E-11-3.10210E-19 1.97192E-19-4.94672E-19
 -1        42-2.07867E-10-2.07867E-10 1.78171E-10-1.78890E-18-9.82684E-20 1.03272E-18
 -1        43-1.03933E-10-1.03933E-10 8.90857E-11-1.55314E-26 6.62074E-27 1.22067E-26
 -1        44-6.92889E-11-6.92889E-11 5.93905E-11-2.39371E-26-2.54832E-27-7.23137E-27
 -1        45-6.92889E-11-6.92889E-11 5.93905E-11-3.91661E-19-3.33928E-20 1.34240E-19
 -1        46-6.92889E-11-6.92889E-11 5.93905E-11-1.06195E-19 4.67202E-20-1.70203E-19
 -1        47-6.92889E-11-6.92889E-11 5.93905E-11-5.61446E-19 1.22481E-19 5.90786E-19
 -1        48-1.03933E-10-1.03933E-10 8.90857E-11 8.50385E-19-1.18047E-19-9.47200E-19
 -1        49-1.03933E-10-1.03933E-10 8.90857E-11 1.96023E-19-6.90820E-19 2.06591E-22
 -1        50-6.92889E-11-6.92889E-11 5.93905E-11 3.82687E-20 1.33929E-19 3.81213E-20
 -1        51-6.92889E-11-6.92889E-11 5.93905E-11-1.28697E-19 8.09824E-20-3.46714E-19
 -1        52-6.92889E-11-6.92889E-11 5.93905E-11 1.94766E-19 3.17727E-19 5.37408E-19
 -1        53-6.92889E-11-6.92889E-11 5.93905E-11-1.67470E-19 2.91573E-19 6.31663E-19
 -1        54-1.03933E-10-1.03933E-10 8.90857E-11-2.76367E-19-9.24004E-19-5.44352E-19
 -1        55-1.03933E-10-1.03933E-10 8.90857E-11 2.97893E-19 4.09455E-19 3.32852E-20
 -1        56-6.92889E-11-6.92889E-11 5.93905E-11 1.06182E-19 6.83738E-19-4.79336E-21
 -1        57-6.92889E-11-6.92889E-11 5.93905E-11-6.31259E-19 7.58486E-19 5.87906E-19
 -1        58-6.92889E-11-6.92889E-11 5.93905E-11-2.48982E-19-5.12894E-19-2.33620E-19
 -1        59-6.92889E-11-6.92889E-11 5.93905E-11 7.84153E-20-2.99296E-19-3.57938E-19
 -1        60-1.03933E-10-1.03933E-10 8.90857E-11-3.51845E-19 4.75800E-19-3.32589E-21
 -1        61-1.03933E-10-1.03933E-10 8.90857E-11 7.55039E-19-7.93016E-19-1.04028E-19
 -1        62-6.92889E-11-6.92889E-11 5.93905E-11 4.56905E-19-6.10428E-20-9.72714E-21
 -1        63-6.92889E-11-6.92889E-11 5.93905E-11-9.54900E-19-3.44142E-19 3.42686E-19
 -1        64-6.92889E-11-6.92889E-11 5.93905E-11 7.60408E-19 1.68940E-19-2.89516E-19
 -1        65-6.92889E-11-6.92889E-11 5.93905E-11 8.37942E-19-3.72161E-19 2.78621E-19
 -1        66-1.03933E-10-1.03933E-10 8.90857E-11-6.73736E-19 4.03066E-19 1.23029E-18
 -1        67-2.07867E-10-2.07867E-10 1.78171E-10-4.04631E-19 4.31979E-18-1.23019E-19
 -1        68-1.03933E-10-1.03933E-10 8.90857E-11-2.71998E-19-9.99841E-20 5.34818E-21
 -1        69-1.03933E-10-1.03933E-10 8.90857E-11-7.44950E-20 5.63896E-19-5.68777E-19
 -1        70-1.03933E-10-1.03933E-10 8.90857E-11 9.28516E-19 1.07789E-18-9.99264E-20
 -1        71-1.03933E-10-1.03933E-10 8.90857E-11 2.17346E-19 5.52981E-19-1.19888E-18
 -1        72-2.07867E-10-2.07867E-10 1.78171E-10 1.90506E-18-1.02970E-18-9.28257E-19
 -3
    1PSTEP                       136          46           1          
  100CL  146 3.72781E-01          72                     0   46           1
 -4  DISP        4    1
 -5  D1          1    2    1    0
 -5  D2          1    2    2    0
 -5  D3          1    2    3    0
 -5  ALL         1    2    0    0    1ALL
 -1         1 0.00000E+00 0.00000E+00 0.00000E+00
 -1         2-1.06509E-07 0.00000E+00 0.00000E+00
 -1         3-5.59172E+00 0.00000E+00 0.00000E+00
 -1         4-5.59172E+00 0.00000E+00 0.00000E+00
 -1         5-1.11834E+01 0.00000E+00 0.00000E+00
 -1         6-1.11834E+01 0.00000E+00 0.00000E+00
 -1         7 0.00000E+00-1.06509E-07 0.00000E+00
 -1         8-1.06509E-07-1.06509E-07 0.00000E+00
 -1         9-5.59172E+00-1.06509E-07 0.00000E+00
 -1        10-5.59172E+00-1.06509E-07 0.00000E+00
 -1        11-1.11834E+01-1.06509E-07 0.00000E+00
 -1        12-1.11834E+01-1.06509E-07 0.00000E+00
 -1        13 0.00000E+00-5.59172E+00 0.00000E+00
 -1        14-1.06509E-07-5.59172E+00 0.00000E+00
 -1        15-5.59172E+00-5.59172E+00 0.00000E+00
 -1        16-5.59172E+00-5.59172E+00 0.00000E+00
 -1        17-1.11834E+01-5.59172E+00 0.00000E+00
 -1        18-1.11834E+01-5.59172E+00 0.00000E+00
 -1        19 0.00000E+00-5.59172E+00 0.00000E+00
 -1        20-1.06509E-07-5.59172E+00 0.00000E+00
 -1        21-5.59172E+00-5.59172E+00 0.00000E+00
 -1        22-5.59172E+00-5.59172E+00 0.00000E+00
 -1        23-1.11834E+01-5.59172E+00 0.00000E+00
 -1        24-1.11834E+01-5.59172E+00 0.00000E+00
 -1        25 0.00000E+00-1.11834E+01 0.00000E+00
 -1        26-1.06509E-07-1.11834E+01 0.00000E+00
 -1        27-5.59172E+00-1.11834E+01 0.00000E+00
 -1        28-5.59172E+00-1.11834E+01 0.00000E+00
 -1        29-1.11834E+01-1.11834E+01 0.00000E+00
 -1        30-1.11834E+01-1.11834E+01 0.00000E+00
 -1        31 0.00000E+00-1.11834E+01 0.00000E+00
 -1        32-1.06509E-07-1.11834E+01 0.00000E+00
 -1        33-5.59172E+00-1.11834E+01 0.00000E+00
 -1        34-5.59172E+00-1.11834E+01 0.00000E+00
 -1        35-1.11834E+01-1.11834E+01 0.00000E+00
 -1        36-1.11834E+01-1.11834E+01 0.00000E+00
 -1        37 0.00000E+00 0.00000E+00 1.27811E-07
 -1        38-1.06509E-07 0.00000E+00 1.27811E-07
 -1        39-5.59172E+00 0.00000E+00 1.27811E-07
 -1        40-5.59172E+00 0.00000E+00 1.27811E-07
 -1        41-1.11834E+01 0.00000E+00 1.27811E-07
 -1        42-1.11834E+01 0.00000E+00 1.27811E-07
 -1        43 0.00000E+00-1.06509E-07 1.27811E-07
 -1        44-1.06509E-07-1.06509E-07 1.27811E-07
 -1        45-5.59172E+00-1.06509E-07 1.27811E-07
 -1        46-5.59172E+00-1.06509E-07 1.27811E-07
 -1        47-1.11834E+01-1.06509E-07 1.27811E-07
 -1        48-1.11834E+01-1.06509E-07 1.27811E-07
 -1        49 0.00000E+00-5.59172E+00 1.27811E-07
 -1        50-1.06509E-07-5.59172E+00 1.27811E-07
 -1        51-5.59172E+00-5.59172E+00 1.27811E-07
 -1        52-5.59172E+00-5.59172E+00 1.27811E-07
 -1        53-1.11834E+01-5.59172E+00 1.27811E-07
 -1        54-1.11834E+01-5.59172E+00 1.27811E-07
 -1        55 0.00000E+00-5.59172E+00 1.27811E-07
 -1        56-1.06509E-07-5.59172E+00 1.27811E-07
 -1        57-5.59172E+00-5.59172E+00 1.27811E-07
 -1        58-5.59172E+00-5.59172E+00 1.27811E-07
 -1        59-1.11834E+01-5.59172E+00 1.27811E-07
 -1        60-1.11834E+01-5.59172E+00 1.27811E-07
 -1        61 0.00000E+00-1.11834E+01 1.27811E-07
 -1        62-1.06509E-07-1.11834E+01 1.27811E-07
 -1        63-5.59172E+00-1.11834E+01 1.27811E-07
 -1        64-5.59172E+00-1.11834E+01 1.27811E-07
 -1        65-1.11834E+01-1.11834E+01 1.27811E-07
 -1        66-1.11834E+01-1.11834E+01 1.27811E-07
 -1        67 0.00000E+00-1.11834E+01 1.27811E-07
 -1        68-1.06509E-07-1.11834E+01 1.27811E-07
 -1        69-5.59172E+00-1.11834E+01 1.27811E-07
 -1        70-5.59172E+00-1.11834E+01 1.27811E-07
 -1        71-1.11834E+01-1.11834E+01 1.27811E-07
 -1        72-1.11834E+01-1.11834E+01 1.27811E-07
 -3
    1PSTEP                       137          46           1          
  100CL  146 3.72781E-01          72                     0   46           1
 -4  STRESS      6    1
 -5  SXX         1    4    1    1
 -5  SYY         1    4    2    2
 -5  SZZ         1    4    3    3
 -5  SXY         1    4    1    2
 -5  SYZ         1    4    2    3
 -5  SZX         1    4    3    1
 -1         1-6.39028E-05-6.39028E-05 3.32579E-22-1.09882E-21-2.00537E-22-3.84558E-22
 -1         2-3.19514E-05-3.19514E-05 3.10041E-21 3.12221E-21 3.13742E-22-1.46564E-21
 -1         3-3.19514E-05-3.19514E-05 4.81908E-14-5.21697E-14 1.09349E-20 6.38830E-14
 -1         4-3.19514E-05-3.19514E-05 6.68490E-14 2.48830E-14 6.43017E-21 5.86933E-14
 -1         5-3.19514E-05-3.19514E-05 9.09532E-14 1.86785E-13-1.09495E-20-2.57128E-13
 -1         6-6.39028E-05-6.39028E-05 1.19811E-13-4.88502E-13-1.28055E-19 2.29193E-13
 -1         7-3.19514E-05-3.19514E-05 5.24835E-21 1.56718E-22-1.78550E-22 9.43707E-22
 -1         8-2.13009E-05-2.13009E-05-3.80139E-21 2.55223E-21-1.73510E-21-1.19374E-21
 -1         9-2.13009E-05-2.13009E-05 5.75818E-14-4.71239E-14-3.04254E-15-7.08945E-14
 -1        10-2.13009E-05-2.13009E-05 5.35595E-14 5.76446E-14 2.49724E-15-8.24525E-14
 -1        11-2.13009E-05-2.13009E-05 1.42181E-14 1.47212E-14-2.37649E-14 2.09700E-13
 -1        12-3.19514E-05-3.19514E-05-1.75767E-13 1.74153E-13 1.66224E-14 4.70168E-14
 -1        13-3.19514E-05-3.19514E-05-9.83402E-14-4.10564E-15-7.81971E-14-2.76158E-20
 -1        14-2.13009E-05-2.13009E-05-1.52758E-14-1.31892E-14-4.93795E-14-1.96006E-15
 -1        15-2.13009E-05-2.13009E-05-8.52596E-14 1.07374E-13-9.30153E-14-4.06550E-14
 -1        16-2.13009E-05-2.13009E-05-3.49568E-14 9.79889E-14 2.03280E-14 1.47037E-13
 -1        17-2.13009E-05-2.13009E-05-2.02386E-13-7.16189E-14-3.91634E-14-7.16475E-14
 -1        18-3.19514E-05-3.19514E-05-1.45937E-13 1.68959E-13-4.60441E-14 9.47658E-14
 -1        19-3.19514E-05-3.19514E-05-6.57141E-14 2.18960E-15 4.94024E-14-4.39401E-20
 -1        20-2.13009E-05-2.13009E-05-3.21713E-14-8.99232E-15 1.33845E-13 1.05081E-14
 -1        21-2.13009E-05-2.13009E-05 2.23463E-15-1.05299E-14 6.85398E-14 1.24104E-13
 -1        22-2.13009E-05-2.13009E-05 1.05798E-13 1.51125E-14 2.31708E-14-2.19229E-13
 -1        23-2.13009E-05-2.13009E-05 9.84271E-14-1.43392E-13-3.90724E-14 6.05657E-14
 -1        24-3.19514E-05-3.19514E-05 4.89113E-15 8.05309E-14 1.56574E-13 1.63364E-13
 -1        25-3.19514E-05-3.19514E-05-1.00860E-13-4.61317E-14-1.17475E-13 1.16981E-20
 -1        26-2.13009E-05-2.13009E-05-1.15263E-13-1.55814E-14-2.04529E-14 2.46550E-14
 -1        27-2.13009E-05-2.13009E-05-1.33325E-13 6.35224E-14-1.22693E-13 4.10991E-14
 -1        28-2.13009E-05-2.13009E-05 2.94727E-13 1.77066E-14 1.15557E-13 3.90006E-14
 -1        29-2.13009E-05-2.13009E-05-2.72645E-13-6.86443E-14-1.04310E-13 4.37567E-14
 -1        30-3.19514E-05-3.19514E-05-4.73575E-13 2.68093E-13 1.14043E-13-1.65049E-13
 -1        31-6.39028E-05-6.39028E-05 1.36924E-13 8.53878E-14-2.36035E-13-5.42553E-19
 -1        32-3.19514E-05-3.19514E-05-8.43660E-14 6.54535E-14-1.61887E-13-1.06976E-14
 -1        33-3.19514E-05-3.19514E-05-6.59414E-14 3.88043E-14-2.97908E-14-9.48059E-15
 -1        34-3.19514E-05-3.19514E-05-1.67173E-13 5.53326E-14-3.25407E-13-4.19470E-14
 -1        35-3.19514E-05-3.19514E-05 1.78785E-13-1.92881E-13 3.20888E-13 2.38524E-14
 -1        36-6.39028E-05-6.39028E-05 1.11659E-12 3.94818E-13-3.79549E-13 8.68568E-14
 -1        37-6.39028E-05-6.39028E-05-5.53594E-21-4.79805E-22 3.83523E-21 4.10322E-21
 -1        38-3.19514E-05-3.19514E-05-3.55415E-21 4.95738E-22-8.00087E-22 4.91685E-22
 -1        39-3.19514E-05-3.19514E-05 4.19532E-14 2.35945E-14 4.83373E-15 1.93508E-14
 -1        40-3.19514E-05-3.19514E-05 7.80617E-14-4.25537E-14-5.04299E-15-5.05275E-14
 -1        41-3.19514E-05-3.19514E-05-7.49112E-14 3.28900E-15 4.49536E-14 3.13537E-13
 -1        42-6.39028E-05-6.39028E-05 7.61545E-15-2.67234E-13-4.29299E-14-3.54593E-13
 -1        43-3.19514E-05-3.19514E-05-1.15705E-20-5.01427E-21 1.83933E-21-1.01361E-21
 -1        44-2.13009E-05-2.13009E-05-5.75757E-21-2.85242E-21-2.47766E-21-1.78562E-21
 -1        45-2.13009E-05-2.13009E-05-6.47948E-14 2.07569E-14 1.79938E-16 1.43063E-13
 -1        46-2.13009E-05-2.13009E-05-5.71836E-14-1.54437E-14-8.64757E-16-1.01211E-13
 -1        47-2.13009E-05-2.13009E-05-9.63582E-14-2.03622E-14 6.20418E-15-3.79316E-14
 -1        48-3.19514E-05-3.19514E-05-2.31865E-13 1.42647E-13-4.84252E-15-2.66920E-14
 -1        49-3.19514E-05-3.19514E-05 1.23296E-13 2.18970E-15-3.27261E-14 7.30007E-15
 -1        50-2.13009E-05-2.13009E-05-1.20069E-14 8.46315E-15-3.70705E-14 2.90667E-15
 -1        51-2.13009E-05-2.13009E-05 1.87879E-13-1.66898E-13 3.90649E-14-8.80220E-15
 -1        52-2.13009E-05-2.13009E-05-1.19393E-13-7.11999E-14-5.38869E-14-1.93730E-14
 -1        53-2.13009E-05-2.13009E-05 7.80637E-14-6.98249E-15 1.31815E-14-4.90833E-14
 -1        54-3.19514E-05-3.19514E-05 1.19946E-13-1.08916E-13-7.17968E-15-9.30568E-14
 -1        55-3.19514E-05-3.19514E-05 1.95197E-13-5.71918E-14 4.50800E-14-1.58877E-14
 -1        56-2.13009E-05-2.13009E-05-2.71934E-15-3.11245E-14-6.14655E-14-8.37070E-17
 -1        57-2.13009E-05-2.13009E-05-9.53366E-14-1.44691E-13-1.93905E-14-2.85902E-14
 -1        58-2.13009E-05-2.13009E-05 3.74177E-14-1.39659E-14-5.87129E-14 3.65050E-14
 -1        59-2.13009E-05-2.13009E-05-2.76003E-13 2.16343E-14-6.62836E-14 1.24203E-13
 -1        60-3.19514E-05-3.19514E-05-1.65524E-13-1.37763E-13 1.92275E-14-2.81361E-13
 -1        61-3.19514E-05-3.19514E-05 6.00768E-14 2.55039E-13-1.91234E-13 1.06808E-14
 -1        62-2.13009E-05-2.13009E-05-2.70679E-13 1.40698E-13 3.18850E-14 3.17756E-14
 -1        63-2.13009E-05-2.13009E-05-3.58262E-14-6.16995E-14-7.88287E-14 2.88942E-14
 -1        64-2.13009E-05-2.13009E-05-4.41105E-15 1.24457E-13-4.22522E-14 3.78991E-14
 -1        65-2.13009E-05-2.13009E-05 5.37071E-14-2.42525E-13-1.15501E-14-7.36295E-14
 -1        66-3.19514E-05-3.19514E-05-3.88667E-13-2.60392E-14-9.85157E-15 2.11245E-13
 -1        67-6.39028E-05-6.39028E-05 2.58543E-13-1.52934E-13 6.68652E-13-4.32739E-14
 -1        68-3.19514E-05-3.19514E-05-4.17617E-13-1.20459E-13-5.77983E-14-3.23343E-14
 -1        69-3.19514E-05-3.19514E-05 1.55255E-13-1.81995E-13 9.23230E-14-2.17084E-15
 -1        70-3.19514E-05-3.19514E-05-3.36174E-13-1.58771E-13 2.22224E-13 2.75197E-14
 -1        71-3.19514E-05-3.19514E-05 1.84881E-13-1.71765E-13-2.29195E-13-1.85087E-13
 -1        72-6.39028E-05-6.39028E-05 4.65323E-14 1.88423E-13 4.17985E-14-2.27316E-13
 -3
    1PSTEP                       138          46           1          
  100CL  146 3.72781E-01          72                     0   46           1
 -4  TOSTRAIN    6    1
 -5  EXX         1    4    1    1
 -5  EYY         1    4    2    2
 -5  EZZ         1    4    3    3
 -5  EXY         1    4    1    2
 -5  EYZ         1    4    2    3
 -5  EZX         1    4    3    1
 -1         1-2.13009E-10-2.13009E-10 1.82579E-10-6.80220E-27-1.24142E-27-2.38060E-27
 -1         2-1.06505E-10-1.06505E-10 9.12897E-11 1.93280E-26 1.94221E-27-9.07301E-27
 -1         3-1.06505E-10-1.06505E-10 9.12897E-11-3.22955E-19 6.76921E-26 3.95466E-19
 -1         4-1.06505E-10-1.06505E-10 9.12897E-11 1.54037E-19 3.98058E-26 3.63339E-19
 -1         5-1.06505E-10-1.06505E-10 9.12897E-11 1.15629E-18-6.77825E-26-1.59175E-18
 -1         6-2.13009E-10-2.13009E-10 1.82579E-10-3.02406E-18-7.92721E-25 1.41881E-18
 -1         7-1.06505E-10-1.06505E-10 9.12897E-11 9.70160E-28-1.10531E-27 5.84200E-27
 -1         8-7.10031E-11-7.10031E-11 6.08598E-11 1.57995E-26-1.07411E-26-7.38982E-27
 -1         9-7.10031E-11-7.10031E-11 6.08598E-11-2.91719E-19-1.88348E-20-4.38871E-19
 -1        10-7.10031E-11-7.10031E-11 6.08598E-11 3.56848E-19 1.54591E-20-5.10420E-19
 -1        11-7.10031E-11-7.10031E-11 6.08598E-11 9.11313E-20-1.47116E-19 1.29814E-18
 -1        12-1.06505E-10-1.06505E-10 9.12897E-11 1.07809E-18 1.02900E-19 2.91057E-19
 -1        13-1.06505E-10-1.06505E-10 9.12897E-11-2.54159E-20-4.84077E-19-1.70955E-25
 -1        14-7.10031E-11-7.10031E-11 6.08598E-11-8.16471E-20-3.05683E-19-1.21337E-20
 -1        15-7.10031E-11-7.10031E-11 6.08598E-11 6.64697E-19-5.75809E-19-2.51674E-19
 -1        16-7.10031E-11-7.10031E-11 6.08598E-11 6.06598E-19 1.25840E-19 9.10228E-19
 -1        17-7.10031E-11-7.10031E-11 6.08598E-11-4.43355E-19-2.42440E-19-4.43532E-19
 -1        18-1.06505E-10-1.06505E-10 9.12897E-11 1.04594E-18-2.85035E-19 5.86645E-19
 -1        19-1.06505E-10-1.06505E-10 9.12897E-11 1.35547E-20 3.05824E-19-2.72010E-25
 -1        20-7.10031E-11-7.10031E-11 6.08598E-11-5.56667E-20 8.28563E-19 6.50500E-20
 -1        21-7.10031E-11-7.10031E-11 6.08598E-11-6.51851E-20 4.24294E-19 7.68263E-19
 -1        22-7.10031E-11-7.10031E-11 6.08598E-11 9.35536E-20 1.43439E-19-1.35713E-18
 -1        23-7.10031E-11-7.10031E-11 6.08598E-11-8.87664E-19-2.41877E-19 3.74930E-19
 -1        24-1.06505E-10-1.06505E-10 9.12897E-11 4.98525E-19 9.69270E-19 1.01130E-18
 -1        25-1.06505E-10-1.06505E-10 9.12897E-11-2.85577E-19-7.27224E-19 7.24170E-26
 -1        26-7.10031E-11-7.10031E-11 6.08598E-11-9.64564E-20-1.26613E-19 1.52626E-19
 -1        27-7.10031E-11-7.10031E-11 6.08598E-11 3.93234E-19-7.59530E-19 2.54423E-19
 -1        28-7.10031E-11-7.10031E-11 6.08598E-11 1.09612E-19 7.15354E-19 2.41432E-19
 -1        29-7.10031E-11-7.10031E-11 6.08598E-11-4.24941E-19-6.45727E-19 2.70875E-19
 -1        30-1.06505E-10-1.06505E-10 9.12897E-11 1.65962E-18 7.05980E-19-1.02173E-18
 -1        31-2.13009E-10-2.13009E-10 1.82579E-10 5.28591E-19-1.46117E-18-3.35866E-24
 -1        32-1.06505E-10-1.06505E-10 9.12897E-11 4.05188E-19-1.00216E-18-6.62234E-20
 -1        33-1.06505E-10-1.06505E-10 9.12897E-11 2.40217E-19-1.84419E-19-5.86894E-20
 -1        34-1.06505E-10-1.06505E-10 9.12897E-11 3.42535E-19-2.01443E-18-2.59672E-19
 -1        35-1.06505E-10-1.06505E-10 9.12897E-11-1.19403E-18 1.98645E-18 1.47658E-19
 -1        36-2.13009E-10-2.13009E-10 1.82579E-10 2.44411E-18-2.34959E-18 5.37685E-19
 -1        37-2.13009E-10-2.13009E-10 1.82579E-10-2.97022E-27 2.37419E-26 2.54009E-26
 -1        38-1.06505E-10-1.06505E-10 9.12897E-11 3.06886E-27-4.95292E-27 3.04377E-27
 -1        39-1.06505E-10-1.06505E-10 9.12897E-11 1.46061E-19 2.99231E-20 1.19791E-19
 -1        40-1.06505E-10-1.06505E-10 9.12897E-11-2.63428E-19-3.12185E-20-3.12789E-19
 -1        41-1.06505E-10-1.06505E-10 9.12897E-11 2.03605E-20 2.78284E-19 1.94094E-18
 -1        42-2.13009E-10-2.13009E-10 1.82579E-10-1.65431E-18-2.65756E-19-2.19510E-18
 -1        43-1.06505E-10-1.06505E-10 9.12897E-11-3.10407E-26 1.13863E-26-6.27471E-27
 -1        44-7.10031E-11-7.10031E-11 6.08598E-11-1.76578E-26-1.53379E-26-1.10538E-26
 -1        45-7.10031E-11-7.10031E-11 6.08598E-11 1.28495E-19 1.11390E-21 8.85630E-19
 -1        46-7.10031E-11-7.10031E-11 6.08598E-11-9.56040E-20-5.35326E-21-6.26546E-19
 -1        47-7.10031E-11-7.10031E-11 6.08598E-11-1.26051E-19 3.84068E-20-2.34815E-19
 -1        48-1.06505E-10-1.06505E-10 9.12897E-11 8.83053E-19-2.99775E-20-1.65236E-19
 -1        49-1.06505E-10-1.06505E-10 9.12897E-11 1.35553E-20-2.02590E-19 4.51909E-20
 -1        50-7.10031E-11-7.10031E-11 6.08598E-11 5.23909E-20-2.29484E-19 1.79937E-20
 -1        51-7.10031E-11-7.10031E-11 6.08598E-11-1.03318E-18 2.41831E-19-5.44898E-20
 -1        52-7.10031E-11-7.10031E-11 6.08598E-11-4.40761E-19-3.33586E-19-1.19928E-19
 -1        53-7.10031E-11-7.10031E-11 6.08598E-11-4.32250E-20 8.15995E-20-3.03849E-19
 -1        54-1.06505E-10-1.06505E-10 9.12897E-11-6.74239E-19-4.44456E-20-5.76066E-19
 -1        55-1.06505E-10-1.06505E-10 9.12897E-11-3.54045E-19 2.79066E-19-9.83525E-20
 -1        56-7.10031E-11-7.10031E-11 6.08598E-11-1.92676E-19-3.80500E-19-5.18186E-22
 -1        57-7.10031E-11-7.10031E-11 6.08598E-11-8.95707E-19-1.20036E-19-1.76987E-19
 -1        58-7.10031E-11-7.10031E-11 6.08598E-11-8.64557E-20-3.63461E-19 2.25983E-19
 -1        59-7.10031E-11-7.10031E-11 6.08598E-11 1.33926E-19-4.10327E-19 7.68879E-19
 -1        60-1.06505E-10-1.06505E-10 9.12897E-11-8.52818E-19 1.19027E-19-1.74176E-18
 -1        61-1.06505E-10-1.06505E-10 9.12897E-11 1.57881E-18-1.18383E-18 6.61192E-20
 -1        62-7.10031E-11-7.10031E-11 6.08598E-11 8.70985E-19 1.97383E-19 1.96706E-19
 -1        63-7.10031E-11-7.10031E-11 6.08598E-11-3.81949E-19-4.87987E-19 1.78869E-19
 -1        64-7.10031E-11-7.10031E-11 6.08598E-11 7.70451E-19-2.61562E-19 2.34614E-19
 -1        65-7.10031E-11-7.10031E-11 6.08598E-11-1.50135E-18-7.15005E-20-4.55801E-19
 -1        66-1.06505E-10-1.06505E-10 9.12897E-11-1.61195E-19-6.09859E-20 1.30771E-18
 -1        67-2.13009E-10-2.13009E-10 1.82579E-10-9.46733E-19 4.13927E-18-2.67886E-19
 -1        68-1.06505E-10-1.06505E-10 9.12897E-11-7.45700E-19-3.57799E-19-2.00165E-19
 -1        69-1.06505E-10-1.06505E-10 9.12897E-11-1.12663E-18 5.71523E-19-1.34385E-20
 -1        70-1.06505E-10-1.06505E-10 9.12897E-11-9.82867E-19 1.37567E-18 1.70360E-19
 -1        71-1.06505E-10-1.06505E-10 9.12897E-11-1.06331E-18-1.41883E-18-1.14578E-18
 -1        72-2.13009E-10-2.13009E-10 1.82579E-10 1.16643E-18 2.58752E-19-1.40720E-18
 -3
    1PSTEP                       139          47           1          
  100CL  147 3.81781E-01          72                     0   47           1
 -4  DISP        4    1
 -5  D1          1    2    1    0
 -5  D2          1    2    2    0
 -5  D3          1    2    3    0
 -5  ALL         1    2    0    0    1ALL
 -1         1 0.00000E+00 0.00000E+00 0.00000E+00
 -1         2-1.09080E-07 0.00000E+00 0.00000E+00
 -1         3-5.72672E+00 0.00000E+00 0.00000E+00
 -1         4-5.72672E+00 0.00000E+00 0.00000E+00
 -1         5-1.14534E+01 0.00000E+00 0.00000E+00
 -1         6-1.14534E+01 0.00000E+00 0.00000E+00
 -1         7 0.00000E+00-1.09080E-07 0.00000E+00
 -1         8-1.09080E-07-1.09080E-07 0.00000E+00
 -1         9-5.72672E+00-1.09080E-07 0.00000E+00
 -1        10-5.72672E+00-1.09080E-07 0.00000E+00
 -1        11-1.14534E+01-1.09080E-07 0.00000E+00
 -1        12-1.14534E+01-1.09080E-07 0.00000E+00
 -1        13 0.00000E+00-5.72672E+00 0.00000E+00
 -1        14-1.09080E-07-5.72672E+00 0.00000E+00
 -1        15-5.72672E+00-5.72672E+00 0.00000E+00
 -1        16-5.72672E+00-5.72672E+00 0.00000E+00
 -1        17-1.14534E+01-5.72672E+00 0.00000E+00
 -1        18-1.14534E+01-5.72672E+00 0.00000E+00
 -1        19 0.00000E+00-5.72672E+00 0.00000E+00
 -1        20-1.09080E-07-5.72672E+00 0.00000E+00
 -1        21-5.72672E+00-5.72672E+00 0.00000E+00
 -1        22-5.72672E+00-5.72672E+00 0.00000E+00
 -1        23-1.14534E+01-5.72672E+00 0.00000E+00
 -1        24-1.14534E+01-5.72672E+00 0.00000E+00
 -1        25 0.00000E+00-1.14534E+01 0.00000E+00
 -1        26-1.09080E-07-1.14534E+01 0.00000E+00
 -1        27-5.72672E+00-1.14534E+01 0.00000E+00
 -1        28-5.72672E+00-1.14534E+01 0.00000E+00
 -1        29-1.14534E+01-1.14534E+01 0.00000E+00
 -1        30-1.14534E+01-1.14534E+01 0.00000E+00
 -1        31 0.00000E+00-1.14534E+01 0.00000E+00
 -1        32-1.09080E-07-1.14534E+01 0.00000E+00
 -1        33-5.72672E+00-1.14534E+01 0.00000E+00
 -1        34-5.72672E+00-1.14534E+01 0.00000E+00
 -1        35-1.14534E+01-1.14534E+01 0.00000E+00
 -1        36-1.14534E+01-1.14534E+01 0.00000E+00
 -1        37 0.00000E+00 0.00000E+00 1.30896E-07
 -1        38-1.09080E-07 0.00000E+00 1.30896E-07
 -1        39-5.72672E+00 0.00000E+00 1.30896E-07
 -1        40-5.72672E+00 0.00000E+00 1.30896E-07
 -1        41-1.14534E+01 0.00000E+00 1.30896E-07
 -1        42-1.14534E+01 0.00000E+00 1.30896E-07
 -1        43 0.00000E+00-1.09080E-07 1.30896E-07
 -1        44-1.09080E-07-1.09080E-07 1.30896E-07
 -1        45-5.72672E+00-1.09080E-07 1.30896E-07
 -1        46-5.72672E+00-1.09080E-07 1.30896E-07
 -1        47-1.14534E+01-1.09080E-07 1.30896E-07
 -1        48-1.14534E+01-1.09080E-07 1.30896E-07
 -1        49 0.00000E+00-5.72672E+00 1.30896E-07
 -1        50-1.09080E-07-5.72672E+00 1.30896E-07
 -1        51-5.72672E+00-5.72672E+00 1.30896E-07
 -1        52-5.72672E+00-5.72672E+00 1.30896E-07
 -1        53-1.14534E+01-5.72672E+00 1.30896E-07
 -1        54-1.14534E+01-5.72672E+00 1.30896E-07
 -1        55 0.00000E+00-5.72672E+00 1.30896E-07
 -1        56-1.09080E-07-5.72672E+00 1.30896E-07
 -1        57-5.72672E+00-5.72672E+00 1.30896E-07
 -1        58-5.72672E+00-5.72672E+00 1.30896E-07
 -1        59-1.14534E+01-5.72672E+00 1.30896E-07
 -1        60-1.14534E+01-5.72672E+00 1.30896E-07
 -1        61 0.00000E+00-1.14534E+01 1.30896E-07
 -1        62-1.09080E-07-1.14534E+01 1.30896E-07
 -1        63-5.72672E+00-1.14534E+01 1.30896E-07
 -1        64-5.72672E+00-1.14534E+01 1.30896E-07
 -1        65-1.14534E+01-1.14534E+01 1.30896E-07
 -1        66-1.14534E+01-1.14534E+01 1.30896E-07
 -1        67 0.00000E+00-1.14534E+01 1.30896E-07
 -1        68-1.09080E-07-1.14534E+01 1.30896E-07
 -1        69-5.72672E+00-1.14534E+01 1.30896E-07
 -1        70-5.72672E+00-1.14534E+01 1.30896E-07
 -1        71-1.14534E+01-1.14534E+01 1.30896E-07
 -1        72-1.14534E+01-1.14534E+01 1.30896E-07
 -3
    1PSTEP                       140          47           1          
  100CL  147 3.81781E-01          72                     0   47           1
 -4  STRESS      6    1
 -5  SXX         1    4    1    1
 -5  SYY         1    4    2    2
 -5  SZZ         1    4    3    3
 -5  SXY         1    4    1    2
 -5  SYZ         1    4    2    3
 -5  SZX         1    4    3    1
 -1         1-6.54456E-05-6.54456E-05 5.29308E-21-2.63590E-22-3.61404E-22 1.45536E-21
 -1         2-3.27228E-05-3.27228E-05 1.20246E-20-3.96976E-22 2.83163E-22-2.67953E-21
 -1         3-3.27228E-05-3.27228E-05 5.15547E-14 4.67757E-14 3.67326E-20 6.70147E-14
 -1         4-3.27228E-05-3.27228E-05 2.60617E-14 1.12525E-13 2.08277E-20-8.02864E-14
 -1         5-3.27228E-05-3.27228E-05-9.46720E-14-2.09935E-13 9.55374E-20-1.24042E-13
 -1         6-6.54456E-05-6.54456E-05 2.14474E-13 4.34872E-13-4.31927E-19 3.91781E-15
 -1         7-3.27228E-05-3.27228E-05-2.21886E-20 1.38612E-20 8.49206E-21-1.76161E-23
 -1         8-2.18152E-05-2.18152E-05 7.16025E-22 9.06400E-21-5.37246E-21 9.78984E-22
 -1         9-2.18152E-05-2.18152E-05-4.26456E-14 6.66188E-14 4.10205E-15-2.84929E-14
 -1        10-2.18152E-05-2.18152E-05-4.67470E-14-3.39521E-14-4.09777E-15 7.60030E-14
 -1        11-2.18152E-05-2.18152E-05 1.47425E-13-1.57580E-13-3.48042E-14 6.20737E-14
 -1        12-3.27228E-05-3.27228E-05-3.42356E-14 1.43612E-13 4.29223E-14 1.96360E-13
 -1        13-3.27228E-05-3.27228E-05-6.57393E-14-1.29069E-19 1.91812E-14-7.33996E-20
 -1        14-2.18152E-05-2.18152E-05-1.14681E-13 4.15042E-15-6.79477E-14 1.72177E-15
 -1        15-2.18152E-05-2.18152E-05 7.93237E-14-1.49970E-14-1.33970E-14-7.08046E-14
 -1        16-2.18152E-05-2.18152E-05 2.75873E-14 4.86968E-14 5.46923E-14 7.35814E-14
 -1        17-2.18152E-05-2.18152E-05-2.24994E-14-7.29177E-14-9.32601E-14 1.79687E-13
 -1        18-3.27228E-05-3.27228E-05-2.19223E-13 9.33498E-14 3.88974E-14 1.78745E-13
 -1        19-3.27228E-05-3.27228E-05-1.97482E-13-1.29069E-19 6.32605E-14 4.33061E-20
 -1        20-2.18152E-05-2.18152E-05-7.36280E-14 4.15042E-15 1.79532E-13 2.84288E-15
 -1        21-2.18152E-05-2.18152E-05 8.38397E-14-6.55061E-14-1.36831E-15-1.07521E-13
 -1        22-2.18152E-05-2.18152E-05-6.97840E-14 5.15878E-14-4.74333E-14-1.92550E-14
 -1        23-2.18152E-05-2.18152E-05-4.44501E-14 1.24013E-14 1.39457E-13 4.31930E-14
 -1        24-3.27228E-05-3.27228E-05 2.08260E-13 1.49381E-14-1.53968E-13 1.49526E-14
 -1        25-3.27228E-05-3.27228E-05 1.42822E-13-9.40479E-20-9.63681E-14-4.50350E-20
 -1        26-2.18152E-05-2.18152E-05 7.37305E-14-9.12739E-15-5.12915E-14-5.33974E-15
 -1        27-2.18152E-05-2.18152E-05 9.93934E-14 7.01318E-14-4.87926E-14-5.42070E-14
 -1        28-2.18152E-05-2.18152E-05-1.54433E-13 3.47411E-14-7.93567E-14-5.81555E-14
 -1        29-2.18152E-05-2.18152E-05 5.32100E-14 5.96220E-14 3.25096E-14 1.13527E-15
 -1        30-3.27228E-05-3.27228E-05-2.80448E-13-4.66749E-14 1.08074E-13 2.83715E-13
 -1        31-6.54456E-05-6.54456E-05 6.09056E-13-1.88096E-19 2.86779E-13-3.18260E-19
 -1        32-3.27228E-05-3.27228E-05 1.34755E-13-1.36911E-14 3.09885E-13 1.47081E-14
 -1        33-3.27228E-05-3.27228E-05 4.40602E-13-7.36903E-14 1.06843E-13-7.17937E-14
 -1        34-3.27228E-05-3.27228E-05-2.77454E-13-6.46194E-14 2.80523E-13 8.55316E-14
 -1        35-3.27228E-05-3.27228E-05-4.75424E-13 2.19699E-13-1.73666E-13-1.41027E-13
 -1        36-6.54456E-05-6.54456E-05 4.27786E-13 5.03038E-13-7.55432E-15-2.51173E-13
 -1        37-6.54456E-05-6.54456E-05 8.01659E-21-8.33673E-22-1.02411E-20-6.32960E-21
 -1        38-3.27228E-05-3.27228E-05-1.33861E-20 5.38567E-21 1.03362E-21-6.57201E-21
 -1        39-3.27228E-05-3.27228E-05-1.43360E-14-6.21004E-14-5.58388E-15 5.19819E-14
 -1        40-3.27228E-05-3.27228E-05-6.56584E-14-5.53326E-14 2.15251E-15-9.33872E-14
 -1        41-3.27228E-05-3.27228E-05-4.66813E-14 7.38900E-14 9.96761E-14 6.38976E-14
 -1        42-6.54456E-05-6.54456E-05 7.09997E-13-2.48167E-13-1.66474E-13-4.27556E-13
 -1        43-3.27228E-05-3.27228E-05 3.22198E-21-9.32451E-21 1.41324E-21 2.74479E-21
 -1        44-2.18152E-05-2.18152E-05-1.19285E-20-2.34800E-21-4.49007E-21 2.82059E-21
 -1        45-2.18152E-05-2.18152E-05 1.85100E-14-6.55227E-14 3.79445E-16-1.89339E-14
 -1        46-2.18152E-05-2.18152E-05-2.81092E-15 2.20945E-14-2.66278E-15 1.85973E-14
 -1        47-2.18152E-05-2.18152E-05-3.07470E-14 1.58886E-13 3.16465E-14 5.90143E-14
 -1        48-3.27228E-05-3.27228E-05-1.01723E-13-2.80045E-13-4.03145E-14-1.66403E-13
 -1        49-3.27228E-05-3.27228E-05-6.44772E-14-1.21391E-19-1.05803E-14-1.80973E-14
 -1        50-2.18152E-05-2.18152E-05 1.86385E-13 5.71986E-15-5.03210E-14-1.03430E-14
 -1        51-2.18152E-05-2.18152E-05-8.31072E-14-2.67774E-14-1.00378E-14 1.67020E-13
 -1        52-2.18152E-05-2.18152E-05 2.08308E-13 2.74748E-15-4.93476E-14-9.06117E-14
 -1        53-2.18152E-05-2.18152E-05 1.91188E-13 1.00962E-13-8.54047E-14-1.87647E-14
 -1        54-3.27228E-05-3.27228E-05 2.99370E-13-1.93740E-13 9.57449E-14-1.83067E-13
 -1        55-3.27228E-05-3.27228E-05-7.73023E-14-1.21391E-19 1.25524E-14 1.30774E-14
 -1        56-2.18152E-05-2.18152E-05-5.72971E-14 5.71986E-15-8.22330E-14 1.15611E-14
 -1        57-2.18152E-05-2.18152E-05 1.98883E-13 4.61687E-14 1.19894E-13-1.64254E-13
 -1        58-2.18152E-05-2.18152E-05 6.98981E-14 8.35919E-14-9.42388E-14 9.83499E-14
 -1        59-2.18152E-05-2.18152E-05 6.48424E-14-3.88816E-14 3.55900E-14-1.26304E-13
 -1        60-3.27228E-05-3.27228E-05-1.80519E-13 1.18133E-13 3.10573E-14 3.10848E-13
 -1        61-3.27228E-05-3.27228E-05-1.63668E-13 1.91372E-20 8.70165E-14 3.01734E-14
 -1        62-2.18152E-05-2.18152E-05-7.80547E-14 1.20759E-14-3.40521E-14 1.47759E-14
 -1        63-2.18152E-05-2.18152E-05-1.03933E-13 2.26463E-14 1.71173E-14-4.75496E-15
 -1        64-2.18152E-05-2.18152E-05 8.62669E-14-2.38478E-14 7.02537E-14 3.44518E-14
 -1        65-2.18152E-05-2.18152E-05-7.88308E-14-4.21761E-15-7.04126E-14-8.52331E-14
 -1        66-3.27228E-05-3.27228E-05 1.22374E-13-5.33183E-14 7.82430E-14-5.98675E-14
 -1        67-6.54456E-05-6.54456E-05 9.14909E-14 3.82743E-20-1.29421E-13-4.96909E-14
 -1        68-3.27228E-05-3.27228E-05-4.52155E-14 1.81139E-14-1.92246E-13-1.01372E-14
 -1        69-3.27228E-05-3.27228E-05-4.55784E-14 7.48627E-14 1.49391E-13-1.37221E-14
 -1        70-3.27228E-05-3.27228E-05 1.07163E-13 2.17766E-14-2.79407E-13 2.63289E-14
 -1        71-3.27228E-05-3.27228E-05 2.82053E-13 2.91605E-14 1.50320E-13 2.85072E-14
 -1        72-6.54456E-05-6.54456E-05-6.77646E-13-7.91850E-13-1.57021E-13 6.93530E-14
 -3
    1PSTEP                       141          47           1          
  100CL  147 3.81781E-01          72                     0   47           1
 -4  TOSTRAIN    6    1
 -5  EXX         1    4    1    1
 -5  EYY         1    4    2    2
 -5  EZZ         1    4    3    3
 -5  EXY         1    4    1    2
 -5  EYZ         1    4    2    3
 -5  EZX         1    4    3    1
 -1         1-2.18152E-10-2.18152E-10 1.86987E-10-1.63175E-27-2.23726E-27 9.00935E-27
 -1         2-1.09076E-10-1.09076E-10 9.34937E-11-2.45747E-27 1.75291E-27-1.65876E-26
 -1         3-1.09076E-10-1.09076E-10 9.34937E-11 2.89564E-19 2.27392E-25 4.14853E-19
 -1         4-1.09076E-10-1.09076E-10 9.34937E-11 6.96582E-19 1.28934E-25-4.97011E-19
 -1         5-1.09076E-10-1.09076E-10 9.34937E-11-1.29960E-18 5.91422E-25-7.67877E-19
 -1         6-2.18152E-10-2.18152E-10 1.86987E-10 2.69206E-18-2.67383E-24 2.42531E-20
 -1         7-1.09076E-10-1.09076E-10 9.34937E-11 8.58073E-26 5.25699E-26-1.09052E-28
 -1         8-7.27173E-11-7.27173E-11 6.23291E-11 5.61105E-26-3.32581E-26 6.06038E-27
 -1         9-7.27173E-11-7.27173E-11 6.23291E-11 4.12402E-19 2.53937E-20-1.76385E-19
 -1        10-7.27173E-11-7.27173E-11 6.23291E-11-2.10180E-19-2.53671E-20 4.70495E-19
 -1        11-7.27173E-11-7.27173E-11 6.23291E-11-9.75495E-19-2.15455E-19 3.84266E-19
 -1        12-1.09076E-10-1.09076E-10 9.34937E-11 8.89025E-19 2.65709E-19 1.21556E-18
 -1        13-1.09076E-10-1.09076E-10 9.34937E-11-7.99000E-25 1.18741E-19-4.54379E-25
 -1        14-7.27173E-11-7.27173E-11 6.23291E-11 2.56931E-20-4.20629E-19 1.06586E-20
 -1        15-7.27173E-11-7.27173E-11 6.23291E-11-9.28388E-20-8.29339E-20-4.38314E-19
 -1        16-7.27173E-11-7.27173E-11 6.23291E-11 3.01457E-19 3.38571E-19 4.55504E-19
 -1        17-7.27173E-11-7.27173E-11 6.23291E-11-4.51395E-19-5.77324E-19 1.11235E-18
 -1        18-1.09076E-10-1.09076E-10 9.34937E-11 5.77880E-19 2.40793E-19 1.10651E-18
 -1        19-1.09076E-10-1.09076E-10 9.34937E-11-7.99000E-25 3.91613E-19 2.68085E-25
 -1        20-7.27173E-11-7.27173E-11 6.23291E-11 2.56931E-20 1.11139E-18 1.75988E-20
 -1        21-7.27173E-11-7.27173E-11 6.23291E-11-4.05514E-19-8.47050E-21-6.65605E-19
 -1        22-7.27173E-11-7.27173E-11 6.23291E-11 3.19353E-19-2.93635E-19-1.19197E-19
 -1        23-7.27173E-11-7.27173E-11 6.23291E-11 7.67702E-20 8.63307E-19 2.67385E-19
 -1        24-1.09076E-10-1.09076E-10 9.34937E-11 9.24738E-20-9.53135E-19 9.25634E-20
 -1        25-1.09076E-10-1.09076E-10 9.34937E-11-5.82201E-25-5.96565E-19-2.78788E-25
 -1        26-7.27173E-11-7.27173E-11 6.23291E-11-5.65029E-20-3.17519E-19-3.30555E-20
 -1        27-7.27173E-11-7.27173E-11 6.23291E-11 4.34149E-19-3.02049E-19-3.35567E-19
 -1        28-7.27173E-11-7.27173E-11 6.23291E-11 2.15064E-19-4.91256E-19-3.60010E-19
 -1        29-7.27173E-11-7.27173E-11 6.23291E-11 3.69088E-19 2.01250E-19 7.02785E-21
 -1        30-1.09076E-10-1.09076E-10 9.34937E-11-2.88940E-19 6.69030E-19 1.75633E-18
 -1        31-2.18152E-10-2.18152E-10 1.86987E-10-1.16440E-24 1.77530E-18-1.97018E-24
 -1        32-1.09076E-10-1.09076E-10 9.34937E-11-8.47544E-20 1.91834E-18 9.10499E-20
 -1        33-1.09076E-10-1.09076E-10 9.34937E-11-4.56178E-19 6.61411E-19-4.44437E-19
 -1        34-1.09076E-10-1.09076E-10 9.34937E-11-4.00025E-19 1.73657E-18 5.29482E-19
 -1        35-1.09076E-10-1.09076E-10 9.34937E-11 1.36004E-18-1.07507E-18-8.73025E-19
 -1        36-2.18152E-10-2.18152E-10 1.86987E-10 3.11405E-18-4.67648E-20-1.55488E-18
 -1        37-2.18152E-10-2.18152E-10 1.86987E-10-5.16083E-27-6.33971E-26-3.91832E-26
 -1        38-1.09076E-10-1.09076E-10 9.34937E-11 3.33399E-26 6.39863E-27-4.06838E-26
 -1        39-1.09076E-10-1.09076E-10 9.34937E-11-3.84431E-19-3.45669E-20 3.21793E-19
 -1        40-1.09076E-10-1.09076E-10 9.34937E-11-3.42535E-19 1.33251E-20-5.78112E-19
 -1        41-1.09076E-10-1.09076E-10 9.34937E-11 4.57415E-19 6.17043E-19 3.95557E-19
 -1        42-2.18152E-10-2.18152E-10 1.86987E-10-1.53627E-18-1.03055E-18-2.64677E-18
 -1        43-1.09076E-10-1.09076E-10 9.34937E-11-5.77231E-26 8.74863E-27 1.69916E-26
 -1        44-7.27173E-11-7.27173E-11 6.23291E-11-1.45352E-26-2.77957E-26 1.74608E-26
 -1        45-7.27173E-11-7.27173E-11 6.23291E-11-4.05617E-19 2.34894E-21-1.17210E-19
 -1        46-7.27173E-11-7.27173E-11 6.23291E-11 1.36776E-19-1.64839E-20 1.15126E-19
 -1        47-7.27173E-11-7.27173E-11 6.23291E-11 9.83580E-19 1.95907E-19 3.65327E-19
 -1        48-1.09076E-10-1.09076E-10 9.34937E-11-1.73361E-18-2.49566E-19-1.03012E-18
 -1        49-1.09076E-10-1.09076E-10 9.34937E-11-7.51469E-25-6.54968E-20-1.12031E-19
 -1        50-7.27173E-11-7.27173E-11 6.23291E-11 3.54087E-20-3.11511E-19-6.40284E-20
 -1        51-7.27173E-11-7.27173E-11 6.23291E-11-1.65765E-19-6.21387E-20 1.03393E-18
 -1        52-7.27173E-11-7.27173E-11 6.23291E-11 1.70082E-20-3.05485E-19-5.60930E-19
 -1        53-7.27173E-11-7.27173E-11 6.23291E-11 6.25002E-19-5.28696E-19-1.16162E-19
 -1        54-1.09076E-10-1.09076E-10 9.34937E-11-1.19934E-18 5.92706E-19-1.13327E-18
 -1        55-1.09076E-10-1.09076E-10 9.34937E-11-7.51469E-25 7.77051E-20 8.09553E-20
 -1        56-7.27173E-11-7.27173E-11 6.23291E-11 3.54087E-20-5.09062E-19 7.15688E-20
 -1        57-7.27173E-11-7.27173E-11 6.23291E-11 2.85807E-19 7.42204E-19-1.01681E-18
 -1        58-7.27173E-11-7.27173E-11 6.23291E-11 5.17474E-19-5.83383E-19 6.08833E-19
 -1        59-7.27173E-11-7.27173E-11 6.23291E-11-2.40696E-19 2.20319E-19-7.81883E-19
 -1        60-1.09076E-10-1.09076E-10 9.34937E-11 7.31301E-19 1.92259E-19 1.92430E-18
 -1        61-1.09076E-10-1.09076E-10 9.34937E-11 1.18468E-25 5.38674E-19 1.86787E-19
 -1        62-7.27173E-11-7.27173E-11 6.23291E-11 7.47559E-20-2.10799E-19 9.14696E-20
 -1        63-7.27173E-11-7.27173E-11 6.23291E-11 1.40192E-19 1.05964E-19-2.94355E-20
 -1        64-7.27173E-11-7.27173E-11 6.23291E-11-1.47629E-19 4.34904E-19 2.13273E-19
 -1        65-7.27173E-11-7.27173E-11 6.23291E-11-2.61090E-20-4.35887E-19-5.27634E-19
 -1        66-1.09076E-10-1.09076E-10 9.34937E-11-3.30066E-19 4.84361E-19-3.70609E-19
 -1        67-2.18152E-10-2.18152E-10 1.86987E-10 2.36936E-25-8.01179E-19-3.07610E-19
 -1        68-1.09076E-10-1.09076E-10 9.34937E-11 1.12134E-19-1.19009E-18-6.27543E-20
 -1        69-1.09076E-10-1.09076E-10 9.34937E-11 4.63436E-19 9.24804E-19-8.49465E-20
 -1        70-1.09076E-10-1.09076E-10 9.34937E-11 1.34808E-19-1.72966E-18 1.62988E-19
 -1        71-1.09076E-10-1.09076E-10 9.34937E-11 1.80517E-19 9.30551E-19 1.76473E-19
 -1        72-2.18152E-10-2.18152E-10 1.86987E-10-4.90193E-18-9.72034E-19 4.29328E-19
 -3
    1PSTEP                       142          48           1          
  100CL  148 3.90781E-01          72                     0   48           1
 -4  DISP        4    1
 -5  D1          1    2    1    0
 -5  D2          1    2    2    0
 -5  D3          1    2    3    0
 -5  ALL         1    2    0    0    1ALL
 -1         1 0.00000E+00 0.00000E+00 0.00000E+00
 -1         2-1.11652E-07 0.00000E+00 0.00000E+00
 -1         3-5.86172E+00 0.00000E+00 0.00000E+00
 -1         4-5.86172E+00 0.00000E+00 0.00000E+00
 -1         5-1.17234E+01 0.00000E+00 0.00000E+00
 -1         6-1.17234E+01 0.00000E+00 0.00000E+00
 -1         7 0.00000E+00-1.11652E-07 0.00000E+00
 -1         8-1.11652E-07-1.11652E-07 0.00000E+00
 -1         9-5.86172E+00-1.11652E-07 0.00000E+00
 -1        10-5.86172E+00-1.11652E-07 0.00000E+00
 -1        11-1.17234E+01-1.11652E-07 0.00000E+00
 -1        12-1.17234E+01-1.11652E-07 0.00000E+00
 -1        13 0.00000E+00-5.86172E+00 0.00000E+00
 -1        14-1.11652E-07-5.86172E+00 0.00000E+00
 -1        15-5.86172E+00-5.86172E+00 0.00000E+00
 -1        16-5.86172E+00-5.86172E+00 0.00000E+00
 -1        17-1.17234E+01-5.86172E+00 0.00000E+00
 -1        18-1.17234E+01-5.86172E+00 0.00000E+00
 -1        19 0.00000E+00-5.86172E+00 0.00000E+00
 -1        20-1.11652E-07-5.86172E+00 0.00000E+00
 -1        21-5.86172E+00-5.86172E+00 0.00000E+00
 -1        22-5.86172E+00-5.86172E+00 0.00000E+00
 -1        23-1.17234E+01-5.86172E+00 0.00000E+00
 -1        24-1.17234E+01-5.86172E+00 0.00000E+00
 -1        25 0.00000E+00-1.17234E+01 0.00000E+00
 -1        26-1.11652E-07-1.17234E+01 0.00000E+00
 -1        27-5.86172E+00-1.17234E+01 0.00000E+00
 -1        28-5.86172E+00-1.17234E+01 0.00000E+00
 -1        29-1.17234E+01-1.17234E+01 0.00000E+00
 -1        30-1.17234E+01-1.17234E+01 0.00000E+00
 -1        31 0.00000E+00-1.17234E+01 0.00000E+00
 -1        32-1.11652E-07-1.17234E+01 0.00000E+00
 -1        33-5.86172E+00-1.17234E+01 0.00000E+00
 -1        34-5.86172E+00-1.17234E+01 0.00000E+00
 -1        35-1.17234E+01-1.17234E+01 0.00000E+00
 -1        36-1.17234E+01-1.17234E+01 0.00000E+00
 -1        37 0.00000E+00 0.00000E+00 1.33982E-07
 -1        38-1.11652E-07 0.00000E+00 1.33982E-07
 -1        39-5.86172E+00 0.00000E+00 1.33982E-07
 -1        40-5.86172E+00 0.00000E+00 1.33982E-07
 -1        41-1.17234E+01 0.00000E+00 1.33982E-07
 -1        42-1.17234E+01 0.00000E+00 1.33982E-07
 -1        43 0.00000E+00-1.11652E-07 1.33982E-07
 -1        44-1.11652E-07-1.11652E-07 1.33982E-07
 -1        45-5.86172E+00-1.11652E-07 1.33982E-07
 -1        46-5.86172E+00-1.11652E-07 1.33982E-07
 -1        47-1.17234E+01-1.11652E-07 1.33982E-07
 -1        48-1.17234E+01-1.11652E-07 1.33982E-07
 -1        49 0.00000E+00-5.86172E+00 1.33982E-07
 -1        50-1.11652E-07-5.86172E+00 1.33982E-07
 -1        51-5.86172E+00-5.86172E+00 1.33982E-07
 -1        52-5.86172E+00-5.86172E+00 1.33982E-07
 -1        53-1.17234E+01-5.86172E+00 1.33982E-07
 -1        54-1.17234E+01-5.86172E+00 1.33982E-07
 -1        55 0.00000E+00-5.86172E+00 1.33982E-07
 -1        56-1.11652E-07-5.86172E+00 1.33982E-07
 -1        57-5.86172E+00-5.86172E+00 1.33982E-07
 -1        58-5.86172E+00-5.86172E+00 1.33982E-07
 -1        59-1.17234E+01-5.86172E+00 1.33982E-07
 -1        60-1.17234E+01-5.86172E+00 1.33982E-07
 -1        61 0.00000E+00-1.17234E+01 1.33982E-07
 -1        62-1.11652E-07-1.17234E+01 1.33982E-07
 -1        63-5.86172E+00-1.17234E+01 1.33982E-07
 -1        64-5.86172E+00-1.17234E+01 1.33982E-07
 -1        65-1.17234E+01-1.17234E+01 1.33982E-07
 -1        66-1.17234E+01-1.17234E+01 1.33982E-07
 -1        67 0.00000E+00-1.17234E+01 1.33982E-07
 -1        68-1.11652E-07-1.17234E+01 1.33982E-07
 -1        69-5.86172E+00-1.17234E+01 1.33982E-07
 -1        70-5.86172E+00-1.17234E+01 1.33982E-07
 -1        71-1.17234E+01-1.17234E+01 1.33982E-07
 -1        72-1.17234E+01-1.17234E+01 1.33982E-07
 -3
    1PSTEP                       143          48           1          
  100CL  148 3.90781E-01          72                     0   48           1
 -4  STRESS      6    1
 -5  SXX         1    4    1    1
 -5  SYY         1    4    2    2
 -5  SZZ         1    4    3    3
 -5  SXY         1    4    1    2
 -5  SYZ         1    4    2    3
 -5  SZX         1    4    3    1
 -1         1-6.69884E-05-6.69884E-05 5.53594E-21-5.85795E-22-7.13278E-22-1.77325E-22
 -1         2-3.34942E-05-3.34942E-05 4.12973E-21-1.03831E-20 2.45347E-22-1.65567E-21
 -1         3-3.34942E-05-3.34942E-05 3.31566E-14-5.58051E-14-4.67990E-20-1.28283E-13
 -1         4-3.34942E-05-3.34942E-05-3.47904E-14 3.43827E-14-2.53781E-20 3.40493E-14
 -1         5-3.34942E-05-3.34942E-05 2.10503E-13 9.29988E-15 4.09301E-20-1.03795E-13
 -1         6-6.69884E-05-6.69884E-05 6.55973E-13 1.40737E-13-3.19031E-19-6.16313E-13
 -1         7-3.34942E-05-3.34942E-05-1.67742E-20 1.31705E-20 5.27601E-21 3.78451E-22
 -1         8-2.23295E-05-2.23295E-05 5.75757E-21 2.05353E-21-8.19797E-21 9.32045E-21
 -1         9-2.23295E-05-2.23295E-05 2.99485E-14-2.65426E-14 7.72852E-16 8.87395E-14
 -1        10-2.23295E-05-2.23295E-05-1.25452E-15 4.55447E-14-9.43264E-16-9.05587E-15
 -1        11-2.23295E-05-2.23295E-05-3.16161E-13 1.71952E-14-5.22678E-15 7.12784E-14
 -1        12-3.34942E-05-3.34942E-05-5.22827E-13-1.30695E-14 2.18588E-15 5.38290E-14
 -1        13-3.34942E-05-3.34942E-05 6.35745E-14 1.10864E-13 1.04995E-13 8.40710E-20
 -1        14-2.23295E-05-2.23295E-05 7.96929E-14 5.70107E-14-6.14469E-14-1.08361E-14
 -1        15-2.23295E-05-2.23295E-05 1.34802E-13-8.30958E-14-8.75081E-14-9.80431E-14
 -1        16-2.23295E-05-2.23295E-05 1.86446E-14 2.83142E-14 4.86109E-14-7.14094E-14
 -1        17-2.23295E-05-2.23295E-05 4.64645E-14-8.18858E-14 9.41748E-14 1.70750E-14
 -1        18-3.34942E-05-3.34942E-05 4.88521E-15 3.95815E-16-6.02780E-14 3.38833E-14
 -1        19-3.34942E-05-3.34942E-05 1.52512E-13-2.97080E-14-9.76223E-14-4.29070E-21
 -1        20-2.23295E-05-2.23295E-05 5.08695E-14-3.67039E-14-2.04148E-15 7.78301E-15
 -1        21-2.23295E-05-2.23295E-05 6.05597E-14-8.61194E-14 1.19410E-13 4.00840E-14
 -1        22-2.23295E-05-2.23295E-05-8.21518E-14 7.22803E-14-3.96593E-14 1.88694E-14
 -1        23-2.23295E-05-2.23295E-05-1.04746E-13-1.03366E-13 3.94022E-14 1.24697E-13
 -1        24-3.34942E-05-3.34942E-05-2.82420E-13 3.16734E-13-2.28397E-15-4.72227E-15
 -1        25-3.34942E-05-3.34942E-05 2.86980E-13 1.30725E-13 1.16605E-13-1.69628E-19
 -1        26-2.23295E-05-2.23295E-05-2.13777E-13 5.80262E-14-9.87213E-14-1.00885E-14
 -1        27-2.23295E-05-2.23295E-05 1.33620E-13 2.75310E-14 5.91528E-14-1.06123E-13
 -1        28-2.23295E-05-2.23295E-05-2.37072E-13 1.54736E-13 1.32945E-13-1.53606E-15
 -1        29-2.23295E-05-2.23295E-05-9.99149E-14-2.28558E-14-2.61762E-14-1.34638E-13
 -1        30-3.34942E-05-3.34942E-05 1.68020E-13-3.78012E-14-1.13196E-13 1.90632E-13
 -1        31-6.69884E-05-6.69884E-05 4.90346E-13-7.00556E-14 2.37673E-13 4.82122E-19
 -1        32-3.34942E-05-3.34942E-05-1.53684E-13-7.87136E-14 5.37558E-14 1.74562E-14
 -1        33-3.34942E-05-3.34942E-05 3.01246E-13 1.07098E-13-2.53700E-14 3.15503E-14
 -1        34-3.34942E-05-3.34942E-05-1.15576E-13 1.46797E-14 2.18993E-13-3.48701E-14
 -1        35-3.34942E-05-3.34942E-05 1.15012E-13-3.05662E-13 2.75750E-14 3.32492E-13
 -1        36-6.69884E-05-6.69884E-05-3.15358E-13 3.81304E-13 2.41077E-13-4.98690E-13
 -1        37-6.69884E-05-6.69884E-05-3.32308E-22-1.07183E-21 7.49997E-21-1.37381E-20
 -1        38-3.34942E-05-3.34942E-05-2.55769E-20 1.30575E-20 5.16302E-21-8.43607E-21
 -1        39-3.34942E-05-3.34942E-05 9.77485E-14 6.74935E-14-1.95547E-15-8.67602E-14
 -1        40-3.34942E-05-3.34942E-05 2.43957E-14 4.86491E-15 6.50148E-15-9.55322E-14
 -1        41-3.34942E-05-3.34942E-05-4.07611E-13 5.22265E-14 3.95660E-14 3.53461E-14
 -1        42-6.69884E-05-6.69884E-05-5.38144E-13 3.94518E-13-5.37238E-14-3.54848E-14
 -1        43-3.34942E-05-3.34942E-05 2.46690E-20-5.86281E-21 5.10466E-21-6.40195E-21
 -1        44-2.23295E-05-2.23295E-05 3.80148E-21 5.15372E-21-4.15534E-21 4.80018E-21
 -1        45-2.23295E-05-2.23295E-05 2.04684E-14 5.64591E-14-5.30760E-16-5.33084E-14
 -1        46-2.23295E-05-2.23295E-05-1.43385E-14 1.15015E-14 3.39107E-15-9.83330E-14
 -1        47-2.23295E-05-2.23295E-05 1.64967E-13 9.36330E-14 2.11505E-14 2.03089E-13
 -1        48-3.34942E-05-3.34942E-05 2.19920E-13-8.74596E-14-2.46759E-14-1.88706E-13
 -1        49-3.34942E-05-3.34942E-05 4.22297E-14 1.52302E-13-4.13864E-14 2.63708E-14
 -1        50-2.23295E-05-2.23295E-05-1.18432E-13 1.10703E-13 3.08522E-14 6.74436E-15
 -1        51-2.23295E-05-2.23295E-05-1.24659E-13-9.70901E-14-9.26639E-15-9.44168E-15
 -1        52-2.23295E-05-2.23295E-05 2.06034E-14 1.75251E-14 1.01779E-13 2.18851E-14
 -1        53-2.23295E-05-2.23295E-05 1.11344E-13 2.61714E-13 4.30066E-14 1.49006E-13
 -1        54-3.34942E-05-3.34942E-05 5.12074E-14-2.91556E-13-1.51731E-13-3.88590E-13
 -1        55-3.34942E-05-3.34942E-05 1.89818E-13-4.08110E-14 4.77217E-14-2.64983E-14
 -1        56-2.23295E-05-2.23295E-05-1.08155E-13-1.80390E-14 1.10318E-13-9.88255E-15
 -1        57-2.23295E-05-2.23295E-05-1.08241E-13-1.05665E-13 3.16770E-15-6.93799E-14
 -1        58-2.23295E-05-2.23295E-05 7.87192E-14 4.07722E-14-6.55175E-15-2.52324E-14
 -1        59-2.23295E-05-2.23295E-05 3.12186E-14 1.92386E-13 4.22632E-14-1.59483E-13
 -1        60-3.34942E-05-3.34942E-05 4.84803E-13 4.40135E-14 1.01062E-13 2.68189E-13
 -1        61-3.34942E-05-3.34942E-05-3.50647E-14-3.50276E-14 1.92169E-13-4.50476E-14
 -1        62-2.23295E-05-2.23295E-05-8.69548E-14-2.20596E-14-6.10063E-14-4.01202E-14
 -1        63-2.23295E-05-2.23295E-05 6.23919E-14 3.25373E-14 1.57540E-14-7.37700E-15
 -1        64-2.23295E-05-2.23295E-05 4.28342E-14 1.54820E-13 1.05322E-14 6.21824E-14
 -1        65-2.23295E-05-2.23295E-05-1.45418E-13-5.99634E-14 2.32613E-14 1.18461E-13
 -1        66-3.34942E-05-3.34942E-05-3.02024E-13-4.02329E-14-2.12996E-13-1.80844E-13
 -1        67-6.69884E-05-6.69884E-05-1.68711E-14 1.87703E-14 2.61621E-14 7.69369E-14
 -1        68-3.34942E-05-3.34942E-05 1.04986E-13 1.13234E-14-2.07496E-13 5.59244E-14
 -1        69-3.34942E-05-3.34942E-05-2.76097E-14-2.34296E-13 3.45319E-13 4.56921E-14
 -1        70-3.34942E-05-3.34942E-05 1.40182E-14-1.74841E-13-3.47873E-13-7.32697E-14
 -1        71-3.34942E-05-3.34942E-05 3.90286E-14-4.53869E-14 5.91982E-15-9.08581E-14
 -1        72-6.69884E-05-6.69884E-05-4.51868E-13 7.27393E-15 2.59371E-13 6.56002E-13
 -3
    1PSTEP                       144          48           1          
  100CL  148 3.90781E-01          72                     0   48           1
 -4  TOSTRAIN    6    1
 -5  EXX         1    4    1    1
 -5  EYY         1    4    2    2
 -5  EZZ         1    4    3    3
 -5  EXY         1    4    1    2
 -5  EYZ         1    4    2    3
 -5  EZX         1    4    3    1
 -1         1-2.23295E-10-2.23295E-10 1.91395E-10-3.62635E-27-4.41553E-27-1.09773E-27
 -1         2-1.11647E-10-1.11647E-10 9.56977E-11-6.42762E-26 1.51881E-27-1.02494E-26
 -1         3-1.11647E-10-1.11647E-10 9.56977E-11-3.45460E-19-2.89708E-25-7.94130E-19
 -1         4-1.11647E-10-1.11647E-10 9.56977E-11 2.12845E-19-1.57103E-25 2.10781E-19
 -1         5-1.11647E-10-1.11647E-10 9.56977E-11 5.75707E-20 2.53377E-25-6.42540E-19
 -1         6-2.23295E-10-2.23295E-10 1.91395E-10 8.71229E-19-1.97496E-24-3.81527E-18
 -1         7-1.11647E-10-1.11647E-10 9.56977E-11 8.15315E-26 3.26610E-26 2.34279E-27
 -1         8-7.44315E-11-7.44315E-11 6.37985E-11 1.27123E-26-5.07493E-26 5.76980E-26
 -1         9-7.44315E-11-7.44315E-11 6.37985E-11-1.64311E-19 4.78432E-21 5.49340E-19
 -1        10-7.44315E-11-7.44315E-11 6.37985E-11 2.81943E-19-5.83925E-21-5.60601E-20
 -1        11-7.44315E-11-7.44315E-11 6.37985E-11 1.06446E-19-3.23563E-20 4.41247E-19
 -1        12-1.11647E-10-1.11647E-10 9.56977E-11-8.09062E-20 1.35317E-20 3.33227E-19
 -1        13-1.11647E-10-1.11647E-10 9.56977E-11 6.86300E-19 6.49971E-19 5.20440E-25
 -1        14-7.44315E-11-7.44315E-11 6.37985E-11 3.52923E-19-3.80385E-19-6.70809E-20
 -1        15-7.44315E-11-7.44315E-11 6.37985E-11-5.14403E-19-5.41717E-19-6.06933E-19
 -1        16-7.44315E-11-7.44315E-11 6.37985E-11 1.75279E-19 3.00925E-19-4.42058E-19
 -1        17-7.44315E-11-7.44315E-11 6.37985E-11-5.06912E-19 5.82987E-19 1.05702E-19
 -1        18-1.11647E-10-1.11647E-10 9.56977E-11 2.45028E-21-3.73150E-19 2.09754E-19
 -1        19-1.11647E-10-1.11647E-10 9.56977E-11-1.83907E-19-6.04329E-19-2.65615E-26
 -1        20-7.44315E-11-7.44315E-11 6.37985E-11-2.27214E-19-1.26377E-20 4.81805E-20
 -1        21-7.44315E-11-7.44315E-11 6.37985E-11-5.33120E-19 7.39204E-19 2.48139E-19
 -1        22-7.44315E-11-7.44315E-11 6.37985E-11 4.47450E-19-2.45510E-19 1.16810E-19
 -1        23-7.44315E-11-7.44315E-11 6.37985E-11-6.39885E-19 2.43918E-19 7.71935E-19
 -1        24-1.11647E-10-1.11647E-10 9.56977E-11 1.96074E-18-1.41388E-20-2.92331E-20
 -1        25-1.11647E-10-1.11647E-10 9.56977E-11 8.09250E-19 7.21840E-19-1.05008E-24
 -1        26-7.44315E-11-7.44315E-11 6.37985E-11 3.59210E-19-6.11132E-19-6.24528E-20
 -1        27-7.44315E-11-7.44315E-11 6.37985E-11 1.70430E-19 3.66184E-19-6.56953E-19
 -1        28-7.44315E-11-7.44315E-11 6.37985E-11 9.57892E-19 8.22995E-19-9.50894E-21
 -1        29-7.44315E-11-7.44315E-11 6.37985E-11-1.41488E-19-1.62043E-19-8.33473E-19
 -1        30-1.11647E-10-1.11647E-10 9.56977E-11-2.34008E-19-7.00739E-19 1.18010E-18
 -1        31-2.23295E-10-2.23295E-10 1.91395E-10-4.33678E-19 1.47131E-18 2.98456E-24
 -1        32-1.11647E-10-1.11647E-10 9.56977E-11-4.87275E-19 3.32774E-19 1.08062E-19
 -1        33-1.11647E-10-1.11647E-10 9.56977E-11 6.62986E-19-1.57053E-19 1.95311E-19
 -1        34-1.11647E-10-1.11647E-10 9.56977E-11 9.08746E-20 1.35567E-18-2.15863E-19
 -1        35-1.11647E-10-1.11647E-10 9.56977E-11-1.89220E-18 1.70702E-19 2.05828E-18
 -1        36-2.23295E-10-2.23295E-10 1.91395E-10 2.36045E-18 1.49238E-18-3.08713E-18
 -1        37-2.23295E-10-2.23295E-10 1.91395E-10-6.63515E-27 4.64284E-26-8.50456E-26
 -1        38-1.11647E-10-1.11647E-10 9.56977E-11 8.08320E-26 3.19616E-26-5.22233E-26
 -1        39-1.11647E-10-1.11647E-10 9.56977E-11 4.17817E-19-1.21053E-20-5.37087E-19
 -1        40-1.11647E-10-1.11647E-10 9.56977E-11 3.01161E-20 4.02473E-20-5.91390E-19
 -1        41-1.11647E-10-1.11647E-10 9.56977E-11 3.23307E-19 2.44932E-19 2.18809E-19
 -1        42-2.23295E-10-2.23295E-10 1.91395E-10 2.44226E-18-3.32576E-19-2.19668E-19
 -1        43-1.11647E-10-1.11647E-10 9.56977E-11-3.62936E-26 3.16003E-26-3.96311E-26
 -1        44-7.44315E-11-7.44315E-11 6.37985E-11 3.19040E-26-2.57235E-26 2.97154E-26
 -1        45-7.44315E-11-7.44315E-11 6.37985E-11 3.49509E-19-3.28566E-21-3.30005E-19
 -1        46-7.44315E-11-7.44315E-11 6.37985E-11 7.11998E-20 2.09924E-20-6.08728E-19
 -1        47-7.44315E-11-7.44315E-11 6.37985E-11 5.79633E-19 1.30932E-19 1.25722E-18
 -1        48-1.11647E-10-1.11647E-10 9.56977E-11-5.41417E-19-1.52755E-19-1.16818E-18
 -1        49-1.11647E-10-1.11647E-10 9.56977E-11 9.42823E-19-2.56202E-19 1.63248E-19
 -1        50-7.44315E-11-7.44315E-11 6.37985E-11 6.85305E-19 1.90990E-19 4.17508E-20
 -1        51-7.44315E-11-7.44315E-11 6.37985E-11-6.01034E-19-5.73634E-20-5.84485E-20
 -1        52-7.44315E-11-7.44315E-11 6.37985E-11 1.08489E-19 6.30059E-19 1.35479E-19
 -1        53-7.44315E-11-7.44315E-11 6.37985E-11 1.62014E-18 2.66231E-19 9.22418E-19
 -1        54-1.11647E-10-1.11647E-10 9.56977E-11-1.80487E-18-9.39286E-19-2.40556E-18
 -1        55-1.11647E-10-1.11647E-10 9.56977E-11-2.52640E-19 2.95420E-19-1.64037E-19
 -1        56-7.44315E-11-7.44315E-11 6.37985E-11-1.11670E-19 6.82920E-19-6.11777E-20
 -1        57-7.44315E-11-7.44315E-11 6.37985E-11-6.54119E-19 1.96096E-20-4.29495E-19
 -1        58-7.44315E-11-7.44315E-11 6.37985E-11 2.52399E-19-4.05584E-20-1.56200E-19
 -1        59-7.44315E-11-7.44315E-11 6.37985E-11 1.19096E-18 2.61629E-19-9.87277E-19
 -1        60-1.11647E-10-1.11647E-10 9.56977E-11 2.72464E-19 6.25620E-19 1.66022E-18
 -1        61-1.11647E-10-1.11647E-10 9.56977E-11-2.16838E-19 1.18961E-18-2.78866E-19
 -1        62-7.44315E-11-7.44315E-11 6.37985E-11-1.36559E-19-3.77658E-19-2.48363E-19
 -1        63-7.44315E-11-7.44315E-11 6.37985E-11 2.01422E-19 9.75245E-20-4.56671E-20
 -1        64-7.44315E-11-7.44315E-11 6.37985E-11 9.58411E-19 6.51994E-20 3.84939E-19
 -1        65-7.44315E-11-7.44315E-11 6.37985E-11-3.71202E-19 1.43998E-19 7.33330E-19
 -1        66-1.11647E-10-1.11647E-10 9.56977E-11-2.49061E-19-1.31855E-18-1.11951E-18
 -1        67-2.23295E-10-2.23295E-10 1.91395E-10 1.16197E-19 1.61956E-19 4.76276E-19
 -1        68-1.11647E-10-1.11647E-10 9.56977E-11 7.00972E-20-1.28450E-18 3.46199E-19
 -1        69-1.11647E-10-1.11647E-10 9.56977E-11-1.45040E-18 2.13769E-18 2.82856E-19
 -1        70-1.11647E-10-1.11647E-10 9.56977E-11-1.08235E-18-2.15350E-18-4.53575E-19
 -1        71-1.11647E-10-1.11647E-10 9.56977E-11-2.80967E-19 3.66465E-20-5.62455E-19
 -1        72-2.23295E-10-2.23295E-10 1.91395E-10 4.50291E-20 1.60563E-18 4.06097E-18
 -3
    1PSTEP                       145          49           1          
  100CL  149 3.99781E-01          72                     0   49           1
 -4  DISP        4    1
 -5  D1          1    2    1    0
 -5  D2          1    2    2    0
 -5  D3          1    2    3    0
 -5  ALL         1    2    0    0    1ALL
 -1         1 0.00000E+00 0.00000E+00 0.00000E+00
 -1         2-1.14223E-07 0.00000E+00 0.00000E+00
 -1         3-5.99672E+00 0.00000E+00 0.00000E+00
 -1         4-5.99672E+00 0.00000E+00 0.00000E+00
 -1         5-1.19934E+01 0.00000E+00 0.00000E+00
 -1         6-1.19934E+01 0.00000E+00 0.00000E+00
 -1         7 0.00000E+00-1.14223E-07 0.00000E+00
 -1         8-1.14223E-07-1.14223E-07 0.00000E+00
 -1         9-5.99672E+00-1.14223E-07 0.00000E+00
 -1        10-5.99672E+00-1.14223E-07 0.00000E+00
 -1        11-1.19934E+01-1.14223E-07 0.00000E+00
 -1        12-1.19934E+01-1.14223E-07 0.00000E+00
 -1        13 0.00000E+00-5.99672E+00 0.00000E+00
 -1        14-1.14223E-07-5.99672E+00 0.00000E+00
 -1        15-5.99672E+00-5.99672E+00 0.00000E+00
 -1        16-5.99672E+00-5.99672E+00 0.00000E+00
 -1        17-1.19934E+01-5.99672E+00 0.00000E+00
 -1        18-1.19934E+01-5.99672E+00 0.00000E+00
 -1        19 0.00000E+00-5.99672E+00 0.00000E+00
 -1        20-1.14223E-07-5.99672E+00 0.00000E+00
 -1        21-5.99672E+00-5.99672E+00 0.00000E+00
 -1        22-5.99672E+00-5.99672E+00 0.00000E+00
 -1        23-1.19934E+01-5.99672E+00 0.00000E+00
 -1        24-1.19934E+01-5.99672E+00 0.00000E+00
 -1        25 0.00000E+00-1.19934E+01 0.00000E+00
 -1        26-1.14223E-07-1.19934E+01 0.00000E+00
 -1        27-5.99672E+00-1.19934E+01 0.00000E+00
 -1        28-5.99672E+00-1.19934E+01 0.00000E+00
 -1        29-1.19934E+01-1.19934E+01 0.00000E+00
 -1        30-1.19934E+01-1.19934E+01 0.00000E+00
 -1        31 0.00000E+00-1.19934E+01 0.00000E+00
 -1        32-1.14223E-07-1.19934E+01 0.00000E+00
 -1        33-5.99672E+00-1.19934E+01 0.00000E+00
 -1        34-5.99672E+00-1.19934E+01 0.00000E+00
 -1        35-1.19934E+01-1.19934E+01 0.00000E+00
 -1        36-1.19934E+01-1.19934E+01 0.00000E+00
 -1        37 0.00000E+00 0.00000E+00 1.37068E-07
 -1        38-1.14223E-07 0.00000E+00 1.37068E-07
 -1        39-5.99672E+00 0.00000E+00 1.37068E-07
 -1        40-5.99672E+00 0.00000E+00 1.37068E-07
 -1        41-1.19934E+01 0.00000E+00 1.37068E-07
 -1        42-1.19934E+01 0.00000E+00 1.37068E-07
 -1        43 0.00000E+00-1.14223E-07 1.37068E-07
 -1        44-1.14223E-07-1.14223E-07 1.37068E-07
 -1        45-5.99672E+00-1.14223E-07 1.37068E-07
 -1        46-5.99672E+00-1.14223E-07 1.37068E-07
 -1        47-1.19934E+01-1.14223E-07 1.37068E-07
 -1        48-1.19934E+01-1.14223E-07 1.37068E-07
 -1        49 0.00000E+00-5.99672E+00 1.37068E-07
 -1        50-1.14223E-07-5.99672E+00 1.37068E-07
 -1        51-5.99672E+00-5.99672E+00 1.37068E-07
 -1        52-5.99672E+00-5.99672E+00 1.37068E-07
 -1        53-1.19934E+01-5.99672E+00 1.37068E-07
 -1        54-1.19934E+01-5.99672E+00 1.37068E-07
 -1        55 0.00000E+00-5.99672E+00 1.37068E-07
 -1        56-1.14223E-07-5.99672E+00 1.37068E-07
 -1        57-5.99672E+00-5.99672E+00 1.37068E-07
 -1        58-5.99672E+00-5.99672E+00 1.37068E-07
 -1        59-1.19934E+01-5.99672E+00 1.37068E-07
 -1        60-1.19934E+01-5.99672E+00 1.37068E-07
 -1        61 0.00000E+00-1.19934E+01 1.37068E-07
 -1        62-1.14223E-07-1.19934E+01 1.37068E-07
 -1        63-5.99672E+00-1.19934E+01 1.37068E-07
 -1        64-5.99672E+00-1.19934E+01 1.37068E-07
 -1        65-1.19934E+01-1.19934E+01 1.37068E-07
 -1        66-1.19934E+01-1.19934E+01 1.37068E-07
 -1        67 0.00000E+00-1.19934E+01 1.37068E-07
 -1        68-1.14223E-07-1.19934E+01 1.37068E-07
 -1        69-5.99672E+00-1.19934E+01 1.37068E-07
 -1        70-5.99672E+00-1.19934E+01 1.37068E-07
 -1        71-1.19934E+01-1.19934E+01 1.37068E-07
 -1        72-1.19934E+01-1.19934E+01 1.37068E-07
 -3
    1PSTEP                       146          49           1          
  100CL  149 3.99781E-01          72                     0   49           1
 -4  STRESS      6    1
 -5  SXX         1    4    1    1
 -5  SYY         1    4    2    2
 -5  SZZ         1    4    3    3
 -5  SXY         1    4    1    2
 -5  SYZ         1    4    2    3
 -5  SZX         1    4    3    1
 -1         1-6.85312E-05-6.85312E-05 1.63649E-20 1.81434E-21-2.65907E-22 7.27318E-22
 -1         2-3.42656E-05-3.42656E-05 7.39629E-21-7.81585E-21 3.75247E-22-8.55729E-21
 -1         3-3.42656E-05-3.42656E-05 4.01249E-14-2.64848E-14-3.02122E-21-3.69303E-14
 -1         4-3.42656E-05-3.42656E-05 7.50002E-14 1.51387E-13-9.25895E-20 3.27460E-14
 -1         5-3.42656E-05-3.42656E-05 1.60628E-14 6.65351E-14 1.27541E-20-1.22084E-13
 -1         6-6.85312E-05-6.85312E-05-4.76527E-14-4.37809E-14-2.87845E-19 1.10633E-13
 -1         7-3.42656E-05-3.42656E-05-6.20028E-22-2.05892E-22 1.68700E-21 8.58471E-22
 -1         8-2.28437E-05-2.28437E-05-5.23344E-21-5.95261E-21-4.27800E-21 5.65594E-21
 -1         9-2.28437E-05-2.28437E-05-8.68672E-15-9.20367E-15 4.11822E-15 8.30627E-14
 -1        10-2.28437E-05-2.28437E-05 9.58562E-15-3.15915E-14-1.08410E-14-4.85446E-14
 -1        11-2.28437E-05-2.28437E-05 1.31014E-13-4.17910E-14-3.02732E-14 6.08018E-14
 -1        12-3.42656E-05-3.42656E-05-1.41368E-13-6.90357E-14 2.97992E-14 1.87215E-13
 -1        13-3.42656E-05-3.42656E-05 4.67661E-14-1.13211E-13 4.17027E-14-3.78923E-20
 -1        14-2.28437E-05-2.28437E-05 4.55247E-15-6.95128E-14 4.07800E-14 3.35697E-15
 -1        15-2.28437E-05-2.28437E-05-2.29414E-13-3.70606E-14-7.53885E-14-6.14462E-14
 -1        16-2.28437E-05-2.28437E-05 4.32199E-14-7.15915E-14 3.00154E-14-7.72665E-14
 -1        17-2.28437E-05-2.28437E-05 1.23461E-13-4.45664E-14 8.79442E-15 1.14642E-13
 -1        18-3.42656E-05-3.42656E-05-4.19877E-14 1.55507E-13-1.29527E-14 8.19022E-14
 -1        19-3.42656E-05-3.42656E-05 3.67015E-14 3.03358E-14 6.96812E-15 1.83847E-21
 -1        20-2.28437E-05-2.28437E-05 4.03832E-14 2.61848E-14-5.60661E-14-5.92318E-15
 -1        21-2.28437E-05-2.28437E-05-2.11167E-14-1.92809E-14-5.77179E-14 8.92298E-14
 -1        22-2.28437E-05-2.28437E-05 1.60565E-13 3.24988E-14-4.87547E-14-8.17849E-15
 -1        23-2.28437E-05-2.28437E-05-4.56468E-15-6.83047E-15 3.06184E-15-1.14126E-13
 -1        24-3.42656E-05-3.42656E-05-1.25195E-13 6.34141E-14-4.74782E-14 2.91124E-13
 -1        25-3.42656E-05-3.42656E-05 2.44039E-14 8.68129E-20-1.12238E-13-3.72576E-19
 -1        26-2.28437E-05-2.28437E-05-9.11565E-14 4.22983E-15 1.43647E-14 1.67192E-14
 -1        27-2.28437E-05-2.28437E-05 6.82361E-14 1.53870E-14-1.39669E-14 8.40214E-14
 -1        28-2.28437E-05-2.28437E-05-9.45744E-14 2.88854E-14-6.37978E-14-2.64800E-14
 -1        29-2.28437E-05-2.28437E-05-1.24024E-14 3.87275E-14-2.56307E-13 6.29484E-15
 -1        30-3.42656E-05-3.42656E-05 2.43755E-13 3.18230E-14 4.27029E-13-1.29222E-13
 -1        31-6.85312E-05-6.85312E-05 2.27456E-13 1.73626E-19-4.89065E-13-1.62188E-19
 -1        32-3.42656E-05-3.42656E-05 1.92731E-13 6.34475E-15 2.91041E-13 1.15111E-14
 -1        33-3.42656E-05-3.42656E-05 1.52172E-14-9.16177E-15-1.78573E-13-1.45389E-14
 -1        34-3.42656E-05-3.42656E-05 3.08468E-13 9.79788E-15 1.38853E-13 1.57954E-14
 -1        35-3.42656E-05-3.42656E-05 7.51872E-14-8.65425E-14-4.21254E-14-7.94568E-14
 -1        36-6.85312E-05-6.85312E-05-3.75712E-13-6.14687E-14 5.46793E-13 6.43432E-13
 -1        37-6.85312E-05-6.85312E-05-2.15686E-20-1.58486E-21 3.43896E-21 5.21510E-21
 -1        38-3.42656E-05-3.42656E-05 2.31409E-21 1.35809E-20-1.21105E-22-6.59997E-21
 -1        39-3.42656E-05-3.42656E-05 6.75212E-14-1.39424E-13 9.37047E-15 6.07146E-14
 -1        40-3.42656E-05-3.42656E-05 5.52751E-14-6.79231E-14 6.38365E-15-9.07226E-14
 -1        41-3.42656E-05-3.42656E-05-7.70670E-14-4.70671E-13 7.12910E-14 8.65014E-14
 -1        42-6.85312E-05-6.85312E-05 8.19664E-14 2.54411E-13-9.58187E-14 1.02320E-13
 -1        43-3.42656E-05-3.42656E-05 4.46203E-21-6.79879E-21 3.53943E-21-1.09884E-21
 -1        44-2.28437E-05-2.28437E-05-4.32561E-21 5.04971E-21-4.60890E-21 5.06406E-21
 -1        45-2.28437E-05-2.28437E-05 3.58482E-14 2.50554E-14 1.03652E-14-7.56745E-14
 -1        46-2.28437E-05-2.28437E-05 2.27062E-14-2.27445E-14-6.58520E-15 3.20746E-14
 -1        47-2.28437E-05-2.28437E-05-9.88457E-15 4.02326E-14 1.72541E-14-3.89497E-14
 -1        48-3.42656E-05-3.42656E-05-1.94777E-13 1.03277E-13-1.81100E-14-3.86484E-14
 -1        49-3.42656E-05-3.42656E-05-8.33306E-14-3.03343E-14-8.40105E-14-9.75927E-15
 -1        50-2.28437E-05-2.28437E-05-6.90433E-14-2.72541E-14 1.41373E-14-3.14919E-15
 -1        51-2.28437E-05-2.28437E-05-6.19749E-14 3.75556E-14 3.29231E-14-6.32661E-14
 -1        52-2.28437E-05-2.28437E-05 1.36286E-14 2.03175E-13 6.76795E-14 6.70050E-14
 -1        53-2.28437E-05-2.28437E-05 2.51096E-13 1.73727E-13-2.53550E-16 6.58730E-14
 -1        54-3.42656E-05-3.42656E-05-4.22856E-14-8.60815E-14 2.57486E-14-2.26999E-13
 -1        55-3.42656E-05-3.42656E-05-1.22628E-13 8.12929E-15 5.88999E-16 1.57650E-14
 -1        56-2.28437E-05-2.28437E-05-5.27010E-14-1.61173E-15 3.47655E-14 4.58684E-15
 -1        57-2.28437E-05-2.28437E-05-9.01141E-14-1.59783E-14-2.06247E-15-7.34677E-14
 -1        58-2.28437E-05-2.28437E-05-1.05463E-13-6.72469E-15 1.96733E-14-3.23681E-14
 -1        59-2.28437E-05-2.28437E-05 1.39726E-13-2.77791E-14 1.69381E-13 9.11062E-14
 -1        60-3.42656E-05-3.42656E-05-3.22573E-14-8.20189E-14 4.01443E-15-1.37296E-13
 -1        61-3.42656E-05-3.42656E-05-8.82850E-14 1.94329E-20-1.83036E-14-5.29167E-14
 -1        62-2.28437E-05-2.28437E-05-2.18824E-13-8.43369E-15-2.04099E-13-1.85583E-14
 -1        63-2.28437E-05-2.28437E-05 1.36544E-13 1.75902E-13-7.99643E-14 3.86899E-14
 -1        64-2.28437E-05-2.28437E-05 8.46569E-14 1.88542E-13 1.69402E-14 5.89128E-14
 -1        65-2.28437E-05-2.28437E-05 2.28097E-13-1.72163E-13 1.11343E-13 1.48933E-13
 -1        66-3.42656E-05-3.42656E-05-2.30751E-13 3.22978E-13-1.13340E-13-7.16010E-14
 -1        67-6.85312E-05-6.85312E-05-5.49070E-14 3.88658E-20 6.07464E-13 8.62802E-14
 -1        68-3.42656E-05-3.42656E-05-2.72629E-14-1.26505E-14 8.15951E-15 5.46513E-14
 -1        69-3.42656E-05-3.42656E-05 3.03767E-13-2.03144E-13 9.52086E-15-1.11061E-13
 -1        70-3.42656E-05-3.42656E-05-3.96894E-13-1.17219E-13 1.83036E-13-6.66475E-14
 -1        71-3.42656E-05-3.42656E-05 2.31178E-13 4.69881E-14 1.84141E-13-1.31704E-13
 -1        72-6.85312E-05-6.85312E-05-9.15207E-13 1.46522E-13-5.92838E-13 8.97606E-14
 -3
    1PSTEP                       147          49           1          
  100CL  149 3.99781E-01          72                     0   49           1
 -4  TOSTRAIN    6    1
 -5  EXX         1    4    1    1
 -5  EYY         1    4    2    2
 -5  EZZ         1    4    3    3
 -5  EXY         1    4    1    2
 -5  EYZ         1    4    2    3
 -5  EZX         1    4    3    1
 -1         1-2.28437E-10-2.28437E-10 1.95803E-10 1.12316E-26-1.64609E-27 4.50245E-27
 -1         2-1.14219E-10-1.14219E-10 9.79017E-11-4.83838E-26 2.32296E-27-5.29737E-26
 -1         3-1.14219E-10-1.14219E-10 9.79017E-11-1.63953E-19-1.87028E-26-2.28616E-19
 -1         4-1.14219E-10-1.14219E-10 9.79017E-11 9.37158E-19-5.73173E-25 2.02713E-19
 -1         5-1.14219E-10-1.14219E-10 9.79017E-11 4.11884E-19 7.89539E-26-7.55757E-19
 -1         6-2.28437E-10-2.28437E-10 1.95803E-10-2.71024E-19-1.78190E-24 6.84871E-19
 -1         7-1.14219E-10-1.14219E-10 9.79017E-11-1.27457E-27 1.04433E-26 5.31434E-27
 -1         8-7.61458E-11-7.61458E-11 6.52678E-11-3.68495E-26-2.64829E-26 3.50129E-26
 -1         9-7.61458E-11-7.61458E-11 6.52678E-11-5.69751E-20 2.54938E-20 5.14198E-19
 -1        10-7.61458E-11-7.61458E-11 6.52678E-11-1.95567E-19-6.71111E-20-3.00514E-19
 -1        11-7.61458E-11-7.61458E-11 6.52678E-11-2.58706E-19-1.87406E-19 3.76392E-19
 -1        12-1.14219E-10-1.14219E-10 9.79017E-11-4.27364E-19 1.84471E-19 1.15895E-18
 -1        13-1.14219E-10-1.14219E-10 9.79017E-11-7.00828E-19 2.58159E-19-2.34571E-25
 -1        14-7.61458E-11-7.61458E-11 6.52678E-11-4.30317E-19 2.52447E-19 2.07813E-20
 -1        15-7.61458E-11-7.61458E-11 6.52678E-11-2.29423E-19-4.66690E-19-3.80381E-19
 -1        16-7.61458E-11-7.61458E-11 6.52678E-11-4.43186E-19 1.85809E-19-4.78316E-19
 -1        17-7.61458E-11-7.61458E-11 6.52678E-11-2.75888E-19 5.44416E-20 7.09688E-19
 -1        18-1.14219E-10-1.14219E-10 9.79017E-11 9.62663E-19-8.01836E-20 5.07014E-19
 -1        19-1.14219E-10-1.14219E-10 9.79017E-11 1.87793E-19 4.31360E-20 1.13810E-26
 -1        20-7.61458E-11-7.61458E-11 6.52678E-11 1.62097E-19-3.47076E-19-3.66673E-20
 -1        21-7.61458E-11-7.61458E-11 6.52678E-11-1.19358E-19-3.57301E-19 5.52375E-19
 -1        22-7.61458E-11-7.61458E-11 6.52678E-11 2.01183E-19-3.01815E-19-5.06287E-20
 -1        23-7.61458E-11-7.61458E-11 6.52678E-11-4.22839E-20 1.89543E-20-7.06493E-19
 -1        24-1.14219E-10-1.14219E-10 9.79017E-11 3.92564E-19-2.93912E-19 1.80219E-18
 -1        25-1.14219E-10-1.14219E-10 9.79017E-11 5.37413E-25-6.94807E-19-2.30642E-24
 -1        26-7.61458E-11-7.61458E-11 6.52678E-11 2.61847E-20 8.89243E-20 1.03500E-19
 -1        27-7.61458E-11-7.61458E-11 6.52678E-11 9.52529E-20-8.64620E-20 5.20133E-19
 -1        28-7.61458E-11-7.61458E-11 6.52678E-11 1.78815E-19-3.94939E-19-1.63924E-19
 -1        29-7.61458E-11-7.61458E-11 6.52678E-11 2.39742E-19-1.58666E-18 3.89681E-20
 -1        30-1.14219E-10-1.14219E-10 9.79017E-11 1.97000E-19 2.64351E-18-7.99948E-19
 -1        31-2.28437E-10-2.28437E-10 1.95803E-10 1.07483E-24-3.02754E-18-1.00402E-24
 -1        32-1.14219E-10-1.14219E-10 9.79017E-11 3.92770E-20 1.80168E-18 7.12594E-20
 -1        33-1.14219E-10-1.14219E-10 9.79017E-11-5.67157E-20-1.10545E-18-9.00026E-20
 -1        34-1.14219E-10-1.14219E-10 9.79017E-11 6.06535E-20 8.59569E-19 9.77812E-20
 -1        35-1.14219E-10-1.14219E-10 9.79017E-11-5.35739E-19-2.60776E-19-4.91875E-19
 -1        36-2.28437E-10-2.28437E-10 1.95803E-10-3.80520E-19 3.38491E-18 3.98315E-18
 -1        37-2.28437E-10-2.28437E-10 1.95803E-10-9.81101E-27 2.12888E-26 3.22840E-26
 -1        38-1.14219E-10-1.14219E-10 9.79017E-11 8.40724E-26-7.49697E-28-4.08569E-26
 -1        39-1.14219E-10-1.14219E-10 9.79017E-11-8.63102E-19 5.80077E-20 3.75852E-19
 -1        40-1.14219E-10-1.14219E-10 9.79017E-11-4.20476E-19 3.95178E-20-5.61616E-19
 -1        41-1.14219E-10-1.14219E-10 9.79017E-11-2.91368E-18 4.41325E-19 5.35485E-19
 -1        42-2.28437E-10-2.28437E-10 1.95803E-10 1.57493E-18-5.93164E-19 6.33412E-19
 -1        43-1.14219E-10-1.14219E-10 9.79017E-11-4.20877E-26 2.19108E-26-6.80237E-27
 -1        44-7.61458E-11-7.61458E-11 6.52678E-11 3.12601E-26-2.85313E-26 3.13489E-26
 -1        45-7.61458E-11-7.61458E-11 6.52678E-11 1.55105E-19 6.41656E-20-4.68461E-19
 -1        46-7.61458E-11-7.61458E-11 6.52678E-11-1.40799E-19-4.07655E-20 1.98557E-19
 -1        47-7.61458E-11-7.61458E-11 6.52678E-11 2.49059E-19 1.06811E-19-2.41117E-19
 -1        48-1.14219E-10-1.14219E-10 9.79017E-11 6.39332E-19-1.12110E-19-2.39252E-19
 -1        49-1.14219E-10-1.14219E-10 9.79017E-11-1.87784E-19-5.20065E-19-6.04145E-20
 -1        50-7.61458E-11-7.61458E-11 6.52678E-11-1.68716E-19 8.75169E-20-1.94950E-20
 -1        51-7.61458E-11-7.61458E-11 6.52678E-11 2.32487E-19 2.03810E-19-3.91647E-19
 -1        52-7.61458E-11-7.61458E-11 6.52678E-11 1.25775E-18 4.18968E-19 4.14793E-19
 -1        53-7.61458E-11-7.61458E-11 6.52678E-11 1.07545E-18-1.56960E-21 4.07785E-19
 -1        54-1.14219E-10-1.14219E-10 9.79017E-11-5.32885E-19 1.59396E-19-1.40523E-18
 -1        55-1.14219E-10-1.14219E-10 9.79017E-11 5.03242E-20 3.64618E-21 9.75930E-20
 -1        56-7.61458E-11-7.61458E-11 6.52678E-11-9.97738E-21 2.15215E-19 2.83947E-20
 -1        57-7.61458E-11-7.61458E-11 6.52678E-11-9.89132E-20-1.27677E-20-4.54800E-19
 -1        58-7.61458E-11-7.61458E-11 6.52678E-11-4.16290E-20 1.21787E-19-2.00374E-19
 -1        59-7.61458E-11-7.61458E-11 6.52678E-11-1.71966E-19 1.04855E-18 5.63991E-19
 -1        60-1.14219E-10-1.14219E-10 9.79017E-11-5.07736E-19 2.48512E-20-8.49930E-19
 -1        61-1.14219E-10-1.14219E-10 9.79017E-11 1.20299E-25-1.13308E-19-3.27580E-19
 -1        62-7.61458E-11-7.61458E-11 6.52678E-11-5.22085E-20-1.26347E-18-1.14885E-19
 -1        63-7.61458E-11-7.61458E-11 6.52678E-11 1.08892E-18-4.95017E-19 2.39509E-19
 -1        64-7.61458E-11-7.61458E-11 6.52678E-11 1.16716E-18 1.04868E-19 3.64698E-19
 -1        65-7.61458E-11-7.61458E-11 6.52678E-11-1.06577E-18 6.89264E-19 9.21967E-19
 -1        66-1.14219E-10-1.14219E-10 9.79017E-11 1.99939E-18-7.01629E-19-4.43244E-19
 -1        67-2.28437E-10-2.28437E-10 1.95803E-10 2.40598E-25 3.76049E-18 5.34115E-19
 -1        68-1.14219E-10-1.14219E-10 9.79017E-11-7.83128E-20 5.05112E-20 3.38318E-19
 -1        69-1.14219E-10-1.14219E-10 9.79017E-11-1.25756E-18 5.89386E-20-6.87521E-19
 -1        70-1.14219E-10-1.14219E-10 9.79017E-11-7.25642E-19 1.13308E-18-4.12580E-19
 -1        71-1.14219E-10-1.14219E-10 9.79017E-11 2.90878E-19 1.13992E-18-8.15308E-19
 -1        72-2.28437E-10-2.28437E-10 1.95803E-10 9.07044E-19-3.66995E-18 5.55661E-19
 -3
    1PSTEP                       148          50           1          
  100CL  150 4.08781E-01          72                     0   50           1
 -4  DISP        4    1
 -5  D1          1    2    1    0
 -5  D2          1    2    2    0
 -5  D3          1    2    3    0
 -5  ALL         1    2    0    0    1ALL
 -1         1 0.00000E+00 0.00000E+00 0.00000E+00
 -1         2-1.16795E-07 0.00000E+00 0.00000E+00
 -1         3-6.13172E+00 0.00000E+00 0.00000E+00
 -1         4-6.13172E+00 0.00000E+00 0.00000E+00
 -1         5-1.22634E+01 0.00000E+00 0.00000E+00
 -1         6-1.22634E+01 0.00000E+00 0.00000E+00
 -1         7 0.00000E+00-1.16795E-07 0.00000E+00
 -1         8-1.16795E-07-1.16795E-07 0.00000E+00
 -1         9-6.13172E+00-1.16795E-07 0.00000E+00
 -1        10-6.13172E+00-1.16795E-07 0.00000E+00
 -1        11-1.22634E+01-1.16795E-07 0.00000E+00
 -1        12-1.22634E+01-1.16795E-07 0.00000E+00
 -1        13 0.00000E+00-6.13172E+00 0.00000E+00
 -1        14-1.16795E-07-6.13172E+00 0.00000E+00
 -1        15-6.13172E+00-6.13172E+00 0.00000E+00
 -1        16-6.13172E+00-6.13172E+00 0.00000E+00
 -1        17-1.22634E+01-6.13172E+00 0.00000E+00
 -1        18-1.22634E+01-6.13172E+00 0.00000E+00
 -1        19 0.00000E+00-6.13172E+00 0.00000E+00
 -1        20-1.16795E-07-6.13172E+00 0.00000E+00
 -1        21-6.13172E+00-6.13172E+00 0.00000E+00
 -1        22-6.13172E+00-6.13172E+00 0.00000E+00
 -1        23-1.22634E+01-6.13172E+00 0.00000E+00
 -1        24-1.22634E+01-6.13172E+00 0.00000E+00
 -1        25 0.00000E+00-1.22634E+01 0.00000E+00
 -1        26-1.16795E-07-1.22634E+01 0.00000E+00
 -1        27-6.13172E+00-1.22634E+01 0.00000E+00
 -1        28-6.13172E+00-1.22634E+01 0.00000E+00
 -1        29-1.22634E+01-1.22634E+01 0.00000E+00
 -1        30-1.22634E+01-1.22634E+01 0.00000E+00
 -1        31 0.00000E+00-1.22634E+01 0.00000E+00
 -1        32-1.16795E-07-1.22634E+01 0.00000E+00
 -1        33-6.13172E+00-1.22634E+01 0.00000E+00
 -1        34-6.13172E+00-1.22634E+01 0.00000E+00
 -1        35-1.22634E+01-1.22634E+01 0.00000E+00
 -1        36-1.22634E+01-1.22634E+01 0.00000E+00
 -1        37 0.00000E+00 0.00000E+00 1.40154E-07
 -1        38-1.16795E-07 0.00000E+00 1.40154E-07
 -1        39-6.13172E+00 0.00000E+00 1.40154E-07
 -1        40-6.13172E+00 0.00000E+00 1.40154E-07
 -1        41-1.22634E+01 0.00000E+00 1.40154E-07
 -1        42-1.22634E+01 0.00000E+00 1.40154E-07
 -1        43 0.00000E+00-1.16795E-07 1.40154E-07
 -1        44-1.16795E-07-1.16795E-07 1.40154E-07
 -1        45-6.13172E+00-1.16795E-07 1.40154E-07
 -1        46-6.13172E+00-1.16795E-07 1.40154E-07
 -1        47-1.22634E+01-1.16795E-07 1.40154E-07
 -1        48-1.22634E+01-1.16795E-07 1.40154E-07
 -1        49 0.00000E+00-6.13172E+00 1.40154E-07
 -1        50-1.16795E-07-6.13172E+00 1.40154E-07
 -1        51-6.13172E+00-6.13172E+00 1.40154E-07
 -1        52-6.13172E+00-6.13172E+00 1.40154E-07
 -1        53-1.22634E+01-6.13172E+00 1.40154E-07
 -1        54-1.22634E+01-6.13172E+00 1.40154E-07
 -1        55 0.00000E+00-6.13172E+00 1.40154E-07
 -1        56-1.16795E-07-6.13172E+00 1.40154E-07
 -1        57-6.13172E+00-6.13172E+00 1.40154E-07
 -1        58-6.13172E+00-6.13172E+00 1.40154E-07
 -1        59-1.22634E+01-6.13172E+00 1.40154E-07
 -1        60-1.22634E+01-6.13172E+00 1.40154E-07
 -1        61 0.00000E+00-1.22634E+01 1.40154E-07
 -1        62-1.16795E-07-1.22634E+01 1.40154E-07
 -1        63-6.13172E+00-1.22634E+01 1.40154E-07
 -1        64-6.13172E+00-1.22634E+01 1.40154E-07
 -1        65-1.22634E+01-1.22634E+01 1.40154E-07
 -1        66-1.22634E+01-1.22634E+01 1.40154E-07
 -1        67 0.00000E+00-1.22634E+01 1.40154E-07
 -1        68-1.16795E-07-1.22634E+01 1.40154E-07
 -1        69-6.13172E+00-1.22634E+01 1.40154E-07
 -1        70-6.13172E+00-1.22634E+01 1.40154E-07
 -1        71-1.22634E+01-1.22634E+01 1.40154E-07
 -1        72-1.22634E+01-1.22634E+01 1.40154E-07
 -3
    1PSTEP                       149          50           1          
  100CL  150 4.08781E-01          72                     0   50           1
 -4  STRESS      6    1
 -5  SXX         1    4    1    1
 -5  SYY         1    4    2    2
 -5  SZZ         1    4    3    3
 -5  SXY         1    4    1    2
 -5  SYZ         1    4    2    3
 -5  SZX         1    4    3    1
 -1         1-7.00740E-05-7.00740E-05 3.02495E-20 3.29701E-22 8.15196E-23-7.38614E-22
 -1         2-3.50370E-05-3.50370E-05 9.25651E-21 1.68638E-21-3.08843E-23 5.67991E-22
 -1         3-3.50370E-05-3.50370E-05-8.54697E-14-5.80676E-14-3.69038E-20 6.58480E-14
 -1         4-3.50370E-05-3.50370E-05-7.98260E-14 5.09541E-14-1.29215E-19 1.10114E-14
 -1         5-3.50370E-05-3.50370E-05 1.15601E-13 4.16687E-14 1.79561E-19-1.92210E-13
 -1         6-7.00740E-05-7.00740E-05 4.78602E-13 1.41829E-13-1.47270E-19 1.91539E-13
 -1         7-3.50370E-05-3.50370E-05-1.26445E-20-2.43727E-21 2.88936E-22-1.43293E-22
 -1         8-2.33580E-05-2.33580E-05 6.17092E-21-6.10490E-22-6.38067E-22-6.45056E-22
 -1         9-2.33580E-05-2.33580E-05 4.53212E-14-3.81507E-14-3.14950E-16-9.58251E-14
 -1        10-2.33580E-05-2.33580E-05 4.46430E-15 3.36718E-14-2.62648E-16-1.97460E-14
 -1        11-2.33580E-05-2.33580E-05-9.48973E-14 7.99213E-14 1.52903E-14 3.28829E-14
 -1        12-3.50370E-05-3.50370E-05-1.12518E-13-9.43484E-14-1.08811E-14 1.36321E-13
 -1        13-3.50370E-05-3.50370E-05-2.66727E-14 2.45108E-14-1.16073E-13-3.24889E-20
 -1        14-2.33580E-05-2.33580E-05-1.00297E-13 2.02662E-14 3.77212E-14 4.70930E-15
 -1        15-2.33580E-05-2.33580E-05 6.13235E-14 4.19516E-14-8.80024E-15-1.16955E-13
 -1        16-2.33580E-05-2.33580E-05-2.45692E-13 5.17483E-14-7.02565E-14 1.01544E-13
 -1        17-2.33580E-05-2.33580E-05-1.61503E-13 7.19059E-14-2.66755E-15 5.07964E-14
 -1        18-3.50370E-05-3.50370E-05 2.75642E-13 1.18468E-14-1.06409E-13 5.23002E-14
 -1        19-3.50370E-05-3.50370E-05-1.03048E-13-3.69028E-14 2.25479E-15 8.46270E-20
 -1        20-2.33580E-05-2.33580E-05-9.12964E-14-2.06762E-14-9.21861E-14 2.75390E-15
 -1        21-2.33580E-05-2.33580E-05 2.71046E-14-1.66811E-13 7.53886E-14 4.64085E-14
 -1        22-2.33580E-05-2.33580E-05-3.33407E-13-1.61308E-13-6.23334E-14-1.34734E-13
 -1        23-2.33580E-05-2.33580E-05-2.45682E-13 3.25488E-14 7.87037E-14 2.01974E-13
 -1        24-3.50370E-05-3.50370E-05-1.91947E-13-8.30750E-14 1.22556E-14 8.13483E-14
 -1        25-3.50370E-05-3.50370E-05-5.69680E-14-3.33639E-19 5.93954E-14-2.06426E-19
 -1        26-2.33580E-05-2.33580E-05-9.96946E-15-1.69690E-14-7.67034E-15-1.42549E-14
 -1        27-2.33580E-05-2.33580E-05-2.70069E-14 4.23548E-15 3.95913E-15-5.04289E-14
 -1        28-2.33580E-05-2.33580E-05 2.72378E-14 2.46403E-14-1.47762E-14 1.43230E-14
 -1        29-2.33580E-05-2.33580E-05 3.09713E-14 5.73886E-14-2.35716E-14-1.49708E-13
 -1        30-3.50370E-05-3.50370E-05 1.56361E-13-5.63749E-14 4.90781E-14 1.20350E-13
 -1        31-7.00740E-05-7.00740E-05-1.55397E-13-6.67279E-19-5.08474E-13 2.32074E-19
 -1        32-3.50370E-05-3.50370E-05 5.79588E-14-2.54535E-14 1.64478E-13 3.20139E-14
 -1        33-3.50370E-05-3.50370E-05-4.05294E-14 6.62538E-15-7.54133E-15-8.18389E-14
 -1        34-3.50370E-05-3.50370E-05 7.32063E-14 3.59446E-14 2.81448E-14 1.12971E-14
 -1        35-3.50370E-05-3.50370E-05-1.77712E-14 1.92254E-13 1.67098E-13 1.57127E-13
 -1        36-7.00740E-05-7.00740E-05-6.24445E-13-1.20876E-13-5.44583E-14 5.24918E-14
 -1        37-7.00740E-05-7.00740E-05-4.96050E-21-2.73552E-21-3.04427E-21-8.05101E-22
 -1        38-3.50370E-05-3.50370E-05-9.07884E-22-6.29159E-22-6.15118E-22 5.34747E-22
 -1        39-3.50370E-05-3.50370E-05-7.09224E-14-8.27777E-14 1.87629E-14 9.17394E-14
 -1        40-3.50370E-05-3.50370E-05-6.51137E-14 1.43174E-13-8.00890E-15-1.81635E-13
 -1        41-3.50370E-05-3.50370E-05 6.38360E-14-4.52718E-14 9.59704E-15 1.77324E-13
 -1        42-7.00740E-05-7.00740E-05 2.33044E-13 2.16575E-13-5.59047E-14-6.53541E-13
 -1        43-3.50370E-05-3.50370E-05-2.48038E-21-1.81683E-21-1.27396E-21 1.58505E-21
 -1        44-2.33580E-05-2.33580E-05-5.56575E-21-7.18816E-22-1.02756E-21 5.07174E-22
 -1        45-2.33580E-05-2.33580E-05 4.18841E-14-6.41663E-14 1.21936E-14-8.88579E-14
 -1        46-2.33580E-05-2.33580E-05 1.13712E-15 1.31111E-13-5.60183E-15 1.37291E-13
 -1        47-2.33580E-05-2.33580E-05 1.85841E-13 3.21983E-15 2.16882E-14-1.51246E-13
 -1        48-3.50370E-05-3.50370E-05 2.37575E-13-1.76090E-13-3.88333E-14 2.05599E-13
 -1        49-3.50370E-05-3.50370E-05 2.95005E-14 2.37672E-14-5.67111E-14-2.50925E-14
 -1        50-2.33580E-05-2.33580E-05-4.97130E-14 1.70328E-14-7.68806E-14-1.20190E-14
 -1        51-2.33580E-05-2.33580E-05-9.21624E-14 8.06194E-15 1.30156E-14-1.16835E-13
 -1        52-2.33580E-05-2.33580E-05 2.81629E-13-1.44059E-13-5.06377E-14-8.99932E-15
 -1        53-2.33580E-05-2.33580E-05-2.27642E-14-1.10998E-13 2.08635E-14-9.34278E-14
 -1        54-3.50370E-05-3.50370E-05-2.70245E-13-1.40770E-13-1.89218E-13-1.38454E-13
 -1        55-3.50370E-05-3.50370E-05-5.30342E-14 1.75956E-15 1.95030E-13 1.08580E-14
 -1        56-2.33580E-05-2.33580E-05-4.48188E-14 2.36101E-15 4.14106E-14 9.99252E-15
 -1        57-2.33580E-05-2.33580E-05-1.28613E-13 1.45282E-13 2.53172E-14 3.18258E-14
 -1        58-2.33580E-05-2.33580E-05 7.79270E-14 2.16377E-13 5.98218E-14 3.57810E-14
 -1        59-2.33580E-05-2.33580E-05 3.23003E-13 5.34005E-14 6.05673E-14-1.81187E-13
 -1        60-3.50370E-05-3.50370E-05-1.61166E-13 1.15442E-13 1.62708E-13 3.27088E-14
 -1        61-3.50370E-05-3.50370E-05-5.19062E-14-6.98169E-20-3.70920E-14-2.13815E-14
 -1        62-2.33580E-05-2.33580E-05-1.64219E-13 3.28674E-14-8.33490E-16-2.85091E-14
 -1        63-2.33580E-05-2.33580E-05-1.89584E-13-3.41792E-14 7.97224E-15-6.34060E-15
 -1        64-2.33580E-05-2.33580E-05 1.47287E-13-2.33900E-14 5.86976E-14 2.51009E-14
 -1        65-2.33580E-05-2.33580E-05-3.64178E-13-7.06278E-14 1.43551E-14-1.30458E-13
 -1        66-3.50370E-05-3.50370E-05 1.62456E-13-9.59272E-14-9.06832E-14-1.55808E-13
 -1        67-7.00740E-05-7.00740E-05 7.89890E-14-1.39634E-19 5.14220E-13 3.21527E-14
 -1        68-3.50370E-05-3.50370E-05-6.12843E-14 4.93011E-14-1.04717E-13 4.80901E-14
 -1        69-3.50370E-05-3.50370E-05 4.10294E-14-6.54200E-14 7.54028E-14 4.04067E-14
 -1        70-3.50370E-05-3.50370E-05-3.08581E-13 1.77286E-14-1.48735E-13-5.29281E-14
 -1        71-3.50370E-05-3.50370E-05 6.71358E-14-1.62546E-13 3.71729E-14 1.07570E-13
 -1        72-7.00740E-05-7.00740E-05-7.60262E-14 2.04886E-14 6.59199E-14 1.16842E-13
 -3
    1PSTEP                       150          50           1          
  100CL  150 4.08781E-01          72                     0   50           1
 -4  TOSTRAIN    6    1
 -5  EXX         1    4    1    1
 -5  EYY         1    4    2    2
 -5  EZZ         1    4    3    3
 -5  EXY         1    4    1    2
 -5  EYZ         1    4    2    3
 -5  EZX         1    4    3    1
 -1         1-2.33580E-10-2.33580E-10 2.00211E-10 2.04100E-27 5.04645E-28-4.57237E-27
 -1         2-1.16790E-10-1.16790E-10 1.00106E-10 1.04395E-26-1.91188E-28 3.51613E-27
 -1         3-1.16790E-10-1.16790E-10 1.00106E-10-3.59466E-19-2.28452E-25 4.07631E-19
 -1         4-1.16790E-10-1.16790E-10 1.00106E-10 3.15430E-19-7.99903E-25 6.81658E-20
 -1         5-1.16790E-10-1.16790E-10 1.00106E-10 2.57949E-19 1.11156E-24-1.18987E-18
 -1         6-2.33580E-10-2.33580E-10 2.00211E-10 8.77987E-19-9.11670E-25 1.18572E-18
 -1         7-1.16790E-10-1.16790E-10 1.00106E-10-1.50878E-26 1.78865E-27-8.87054E-28
 -1         8-7.78600E-11-7.78600E-11 6.67371E-11-3.77922E-27-3.94994E-27-3.99320E-27
 -1         9-7.78600E-11-7.78600E-11 6.67371E-11-2.36171E-19-1.94969E-21-5.93203E-19
 -1        10-7.78600E-11-7.78600E-11 6.67371E-11 2.08444E-19-1.62592E-21-1.22237E-19
 -1        11-7.78600E-11-7.78600E-11 6.67371E-11 4.94751E-19 9.46541E-20 2.03561E-19
 -1        12-1.16790E-10-1.16790E-10 1.00106E-10-5.84061E-19-6.73591E-20 8.43891E-19
 -1        13-1.16790E-10-1.16790E-10 1.00106E-10 1.51734E-19-7.18547E-19-2.01122E-25
 -1        14-7.78600E-11-7.78600E-11 6.67371E-11 1.25457E-19 2.33512E-19 2.91528E-20
 -1        15-7.78600E-11-7.78600E-11 6.67371E-11 2.59700E-19-5.44777E-20-7.24007E-19
 -1        16-7.78600E-11-7.78600E-11 6.67371E-11 3.20346E-19-4.34921E-19 6.28607E-19
 -1        17-7.78600E-11-7.78600E-11 6.67371E-11 4.45131E-19-1.65134E-20 3.14454E-19
 -1        18-1.16790E-10-1.16790E-10 1.00106E-10 7.33376E-20-6.58724E-19 3.23763E-19
 -1        19-1.16790E-10-1.16790E-10 1.00106E-10-2.28446E-19 1.39582E-20 5.23882E-25
 -1        20-7.78600E-11-7.78600E-11 6.67371E-11-1.27996E-19-5.70676E-19 1.70479E-20
 -1        21-7.78600E-11-7.78600E-11 6.67371E-11-1.03264E-18 4.66691E-19 2.87290E-19
 -1        22-7.78600E-11-7.78600E-11 6.67371E-11-9.98571E-19-3.85873E-19-8.34068E-19
 -1        23-7.78600E-11-7.78600E-11 6.67371E-11 2.01492E-19 4.87213E-19 1.25032E-18
 -1        24-1.16790E-10-1.16790E-10 1.00106E-10-5.14274E-19 7.58678E-20 5.03585E-19
 -1        25-1.16790E-10-1.16790E-10 1.00106E-10-2.06539E-24 3.67686E-19-1.27787E-24
 -1        26-7.78600E-11-7.78600E-11 6.67371E-11-1.05046E-19-4.74831E-20-8.82447E-20
 -1        27-7.78600E-11-7.78600E-11 6.67371E-11 2.62196E-20 2.45089E-20-3.12179E-19
 -1        28-7.78600E-11-7.78600E-11 6.67371E-11 1.52535E-19-9.14715E-20 8.86660E-20
 -1        29-7.78600E-11-7.78600E-11 6.67371E-11 3.55263E-19-1.45919E-19-9.26766E-19
 -1        30-1.16790E-10-1.16790E-10 1.00106E-10-3.48987E-19 3.03817E-19 7.45021E-19
 -1        31-2.33580E-10-2.33580E-10 2.00211E-10-4.13077E-24-3.14770E-18 1.43665E-24
 -1        32-1.16790E-10-1.16790E-10 1.00106E-10-1.57569E-19 1.01820E-18 1.98181E-19
 -1        33-1.16790E-10-1.16790E-10 1.00106E-10 4.10143E-20-4.66844E-20-5.06622E-19
 -1        34-1.16790E-10-1.16790E-10 1.00106E-10 2.22514E-19 1.74230E-19 6.99346E-20
 -1        35-1.16790E-10-1.16790E-10 1.00106E-10 1.19015E-18 1.03442E-18 9.72689E-19
 -1        36-2.33580E-10-2.33580E-10 2.00211E-10-7.48282E-19-3.37123E-19 3.24949E-19
 -1        37-2.33580E-10-2.33580E-10 2.00211E-10-1.69342E-26-1.88455E-26-4.98396E-27
 -1        38-1.16790E-10-1.16790E-10 1.00106E-10-3.89479E-27-3.80787E-27 3.31034E-27
 -1        39-1.16790E-10-1.16790E-10 1.00106E-10-5.12433E-19 1.16151E-19 5.67911E-19
 -1        40-1.16790E-10-1.16790E-10 1.00106E-10 8.86317E-19-4.95789E-20-1.12441E-18
 -1        41-1.16790E-10-1.16790E-10 1.00106E-10-2.80254E-19 5.94103E-20 1.09772E-18
 -1        42-2.33580E-10-2.33580E-10 2.00211E-10 1.34071E-18-3.46077E-19-4.04573E-18
 -1        43-1.16790E-10-1.16790E-10 1.00106E-10-1.12470E-26-7.88641E-27 9.81222E-27
 -1        44-7.78600E-11-7.78600E-11 6.67371E-11-4.44981E-27-6.36106E-27 3.13965E-27
 -1        45-7.78600E-11-7.78600E-11 6.67371E-11-3.97220E-19 7.54845E-20-5.50073E-19
 -1        46-7.78600E-11-7.78600E-11 6.67371E-11 8.11642E-19-3.46780E-20 8.49899E-19
 -1        47-7.78600E-11-7.78600E-11 6.67371E-11 1.99323E-20 1.34260E-19-9.36288E-19
 -1        48-1.16790E-10-1.16790E-10 1.00106E-10-1.09008E-18-2.40397E-19 1.27275E-18
 -1        49-1.16790E-10-1.16790E-10 1.00106E-10 1.47130E-19-3.51068E-19-1.55334E-19
 -1        50-7.78600E-11-7.78600E-11 6.67371E-11 1.05441E-19-4.75928E-19-7.44034E-20
 -1        51-7.78600E-11-7.78600E-11 6.67371E-11 4.99073E-20 8.05728E-20-7.23261E-19
 -1        52-7.78600E-11-7.78600E-11 6.67371E-11-8.91793E-19-3.13471E-19-5.57101E-20
 -1        53-7.78600E-11-7.78600E-11 6.67371E-11-6.87128E-19 1.29155E-19-5.78363E-19
 -1        54-1.16790E-10-1.16790E-10 1.00106E-10-8.71436E-19-1.17135E-18-8.57094E-19
 -1        55-1.16790E-10-1.16790E-10 1.00106E-10 1.08925E-20 1.20733E-18 6.72163E-20
 -1        56-7.78600E-11-7.78600E-11 6.67371E-11 1.46158E-20 2.56351E-19 6.18585E-20
 -1        57-7.78600E-11-7.78600E-11 6.67371E-11 8.99365E-19 1.56725E-19 1.97017E-19
 -1        58-7.78600E-11-7.78600E-11 6.67371E-11 1.33948E-18 3.70326E-19 2.21501E-19
 -1        59-7.78600E-11-7.78600E-11 6.67371E-11 3.30575E-19 3.74941E-19-1.12163E-18
 -1        60-1.16790E-10-1.16790E-10 1.00106E-10 7.14643E-19 1.00724E-18 2.02483E-19
 -1        61-1.16790E-10-1.16790E-10 1.00106E-10-4.32200E-25-2.29617E-19-1.32361E-19
 -1        62-7.78600E-11-7.78600E-11 6.67371E-11 2.03465E-19-5.15970E-21-1.76485E-19
 -1        63-7.78600E-11-7.78600E-11 6.67371E-11-2.11586E-19 4.93520E-20-3.92514E-20
 -1        64-7.78600E-11-7.78600E-11 6.67371E-11-1.44795E-19 3.63366E-19 1.55387E-19
 -1        65-7.78600E-11-7.78600E-11 6.67371E-11-4.37220E-19 8.88649E-20-8.07594E-19
 -1        66-1.16790E-10-1.16790E-10 1.00106E-10-5.93835E-19-5.61372E-19-9.64523E-19
 -1        67-2.33580E-10-2.33580E-10 2.00211E-10-8.64400E-25 3.18327E-18 1.99041E-19
 -1        68-1.16790E-10-1.16790E-10 1.00106E-10 3.05197E-19-6.48249E-19 2.97701E-19
 -1        69-1.16790E-10-1.16790E-10 1.00106E-10-4.04981E-19 4.66779E-19 2.50137E-19
 -1        70-1.16790E-10-1.16790E-10 1.00106E-10 1.09748E-19-9.20738E-19-3.27650E-19
 -1        71-1.16790E-10-1.16790E-10 1.00106E-10-1.00624E-18 2.30118E-19 6.65907E-19
 -1        72-2.33580E-10-2.33580E-10 2.00211E-10 1.26834E-19 4.08076E-19 7.23308E-19
 -3
    1PSTEP                       151          51           1          
  100CL  151 4.17781E-01          72                     0   51           1
 -4  DISP        4    1
 -5  D1          1    2    1    0
 -5  D2          1    2    2    0
 -5  D3          1    2    3    0
 -5  ALL         1    2    0    0    1ALL
 -1         1 0.00000E+00 0.00000E+00 0.00000E+00
 -1         2-1.19366E-07 0.00000E+00 0.00000E+00
 -1         3-6.26672E+00 0.00000E+00 0.00000E+00
 -1         4-6.26672E+00 0.00000E+00 0.00000E+00
 -1         5-1.25334E+01 0.00000E+00 0.00000E+00
 -1         6-1.25334E+01 0.00000E+00 0.00000E+00
 -1         7 0.00000E+00-1.19366E-07 0.00000E+00
 -1         8-1.19366E-07-1.19366E-07 0.00000E+00
 -1         9-6.26672E+00-1.19366E-07 0.00000E+00
 -1        10-6.26672E+00-1.19366E-07 0.00000E+00
 -1        11-1.25334E+01-1.19366E-07 0.00000E+00
 -1        12-1.25334E+01-1.19366E-07 0.00000E+00
 -1        13 0.00000E+00-6.26672E+00 0.00000E+00
 -1        14-1.19366E-07-6.26672E+00 0.00000E+00
 -1        15-6.26672E+00-6.26672E+00 0.00000E+00
 -1        16-6.26672E+00-6.26672E+00 0.00000E+00
 -1        17-1.25334E+01-6.26672E+00 0.00000E+00
 -1        18-1.25334E+01-6.26672E+00 0.00000E+00
 -1        19 0.00000E+00-6.26672E+00 0.00000E+00
 -1        20-1.19366E-07-6.26672E+00 0.00000E+00
 -1        21-6.26672E+00-6.26672E+00 0.00000E+00
 -1        22-6.26672E+00-6.26672E+00 0.00000E+00
 -1        23-1.25334E+01-6.26672E+00 0.00000E+00
 -1        24-1.25334E+01-6.26672E+00 0.00000E+00
 -1        25 0.00000E+00-1.25334E+01 0.00000E+00
 -1        26-1.19366E-07-1.25334E+01 0.00000E+00
 -1        27-6.26672E+00-1.25334E+01 0.00000E+00
 -1        28-6.26672E+00-1.25334E+01 0.00000E+00
 -1        29-1.25334E+01-1.25334E+01 0.00000E+00
 -1        30-1.25334E+01-1.25334E+01 0.00000E+00
 -1        31 0.00000E+00-1.25334E+01 0.00000E+00
 -1        32-1.19366E-07-1.25334E+01 0.00000E+00
 -1        33-6.26672E+00-1.25334E+01 0.00000E+00
 -1        34-6.26672E+00-1.25334E+01 0.00000E+00
 -1        35-1.25334E+01-1.25334E+01 0.00000E+00
 -1        36-1.25334E+01-1.25334E+01 0.00000E+00
 -1        37 0.00000E+00 0.00000E+00 1.43239E-07
 -1        38-1.19366E-07 0.00000E+00 1.43239E-07
 -1        39-6.26672E+00 0.00000E+00 1.43239E-07
 -1        40-6.26672E+00 0.00000E+00 1.43239E-07
 -1        41-1.25334E+01 0.00000E+00 1.43239E-07
 -1        42-1.25334E+01 0.00000E+00 1.43239E-07
 -1        43 0.00000E+00-1.19366E-07 1.43239E-07
 -1        44-1.19366E-07-1.19366E-07 1.43239E-07
 -1        45-6.26672E+00-1.19366E-07 1.43239E-07
 -1        46-6.26672E+00-1.19366E-07 1.43239E-07
 -1        47-1.25334E+01-1.19366E-07 1.43239E-07
 -1        48-1.25334E+01-1.19366E-07 1.43239E-07
 -1        49 0.00000E+00-6.26672E+00 1.43239E-07
 -1        50-1.19366E-07-6.26672E+00 1.43239E-07
 -1        51-6.26672E+00-6.26672E+00 1.43239E-07
 -1        52-6.26672E+00-6.26672E+00 1.43239E-07
 -1        53-1.25334E+01-6.26672E+00 1.43239E-07
 -1        54-1.25334E+01-6.26672E+00 1.43239E-07
 -1        55 0.00000E+00-6.26672E+00 1.43239E-07
 -1        56-1.19366E-07-6.26672E+00 1.43239E-07
 -1        57-6.26672E+00-6.26672E+00 1.43239E-07
 -1        58-6.26672E+00-6.26672E+00 1.43239E-07
 -1        59-1.25334E+01-6.26672E+00 1.43239E-07
 -1        60-1.25334E+01-6.26672E+00 1.43239E-07
 -1        61 0.00000E+00-1.25334E+01 1.43239E-07
 -1        62-1.19366E-07-1.25334E+01 1.43239E-07
 -1        63-6.26672E+00-1.25334E+01 1.43239E-07
 -1        64-6.26672E+00-1.25334E+01 1.43239E-07
 -1        65-1.25334E+01-1.25334E+01 1.43239E-07
 -1        66-1.25334E+01-1.25334E+01 1.43239E-07
 -1        67 0.00000E+00-1.25334E+01 1.43239E-07
 -1        68-1.19366E-07-1.25334E+01 1.43239E-07
 -1        69-6.26672E+00-1.25334E+01 1.43239E-07
 -1        70-6.26672E+00-1.25334E+01 1.43239E-07
 -1        71-1.25334E+01-1.25334E+01 1.43239E-07
 -1        72-1.25334E+01-1.25334E+01 1.43239E-07
 -3
    1PSTEP                       152          51           1          
  100CL  151 4.17781E-01          72                     0   51           1
 -4  STRESS      6    1
 -5  SXX         1    4    1    1
 -5  SYY         1    4    2    2
 -5  SZZ         1    4    3    3
 -5  SXY         1    4    1    2
 -5  SYZ         1    4    2    3
 -5  SZX         1    4    3    1
 -1         1-7.16168E-05-7.16168E-05 2.53782E-20 3.78410E-22 2.10841E-21 1.47975E-22
 -1         2-3.58084E-05-3.58084E-05 1.03307E-20-5.48922E-21-5.92830E-22-1.90551E-21
 -1         3-3.58084E-05-3.58084E-05 4.07690E-14 1.30568E-13-1.92781E-20-1.31942E-14
 -1         4-3.58084E-05-3.58084E-05 3.48859E-14-3.44412E-14-2.98972E-20 4.51717E-14
 -1         5-3.58084E-05-3.58084E-05-4.05470E-14-3.62006E-14 2.89495E-19-4.16915E-13
 -1         6-7.16168E-05-7.16168E-05 2.17008E-13 6.00428E-14-5.17559E-19 2.73495E-13
 -1         7-3.58084E-05-3.58084E-05-2.54550E-20 7.98524E-21 4.14457E-21 8.50584E-23
 -1         8-2.38723E-05-2.38723E-05 7.41106E-21 1.53788E-21-1.99802E-21 7.03740E-22
 -1         9-2.38723E-05-2.38723E-05-5.10026E-14 7.56350E-14 5.89005E-17 3.29565E-14
 -1        10-2.38723E-05-2.38723E-05-5.64884E-14 6.56457E-16-1.21478E-15 1.78378E-14
 -1        11-2.38723E-05-2.38723E-05 3.27315E-14 1.03796E-14-4.98988E-15 1.41095E-13
 -1        12-3.58084E-05-3.58084E-05-2.01606E-13-5.66018E-14-2.10724E-15 1.07494E-14
 -1        13-3.58084E-05-3.58084E-05-9.77442E-14 1.51672E-14-1.07902E-13-2.36419E-20
 -1        14-2.38723E-05-2.38723E-05 1.46175E-13 2.48540E-15 5.58560E-14-4.04346E-15
 -1        15-2.38723E-05-2.38723E-05 7.81044E-14-7.63704E-14 6.49317E-15-5.38107E-14
 -1        16-2.38723E-05-2.38723E-05-6.93732E-15 1.63027E-14 7.31854E-14-1.07945E-14
 -1        17-2.38723E-05-2.38723E-05 2.68558E-14-7.91751E-14-5.06270E-16-1.91719E-13
 -1        18-3.58084E-05-3.58084E-05 2.85274E-13 3.99523E-14 1.54235E-14 1.23154E-13
 -1        19-3.58084E-05-3.58084E-05-1.49133E-13 5.66054E-14 2.63353E-14-6.75060E-20
 -1        20-2.38723E-05-2.38723E-05 7.40733E-14 3.01109E-14-5.98400E-14 2.89997E-15
 -1        21-2.38723E-05-2.38723E-05 7.62053E-14-7.49674E-14 2.70720E-14 9.82861E-14
 -1        22-2.38723E-05-2.38723E-05-3.17500E-14-1.26698E-13-2.45686E-14-2.98865E-14
 -1        23-2.38723E-05-2.38723E-05-1.19394E-14-1.77582E-13-5.38578E-14 2.26508E-13
 -1        24-3.58084E-05-3.58084E-05-9.27430E-14 1.07660E-13-6.58917E-14 1.34932E-13
 -1        25-3.58084E-05-3.58084E-05 3.60478E-13 1.30725E-13-1.67656E-13-2.79592E-20
 -1        26-2.38723E-05-2.38723E-05-1.69561E-14 6.67856E-14 1.04395E-13-4.27104E-15
 -1        27-2.38723E-05-2.38723E-05 1.98294E-13-3.61612E-14-1.94113E-13-1.91301E-14
 -1        28-2.38723E-05-2.38723E-05-1.65357E-13 9.59679E-14 8.01951E-14-2.70099E-14
 -1        29-2.38723E-05-2.38723E-05-5.28143E-14-1.00964E-13 1.92737E-13-8.87242E-14
 -1        30-3.58084E-05-3.58084E-05 4.42012E-13-3.11925E-14-2.94617E-13-7.74975E-14
 -1        31-7.16168E-05-7.16168E-05 5.13412E-13-7.00559E-14-1.44124E-13 2.42400E-19
 -1        32-3.58084E-05-3.58084E-05-8.95836E-14-6.55744E-14 8.69226E-14 2.02123E-14
 -1        33-3.58084E-05-3.58084E-05 4.46128E-13-1.07600E-13-6.11726E-14 6.53853E-14
 -1        34-3.58084E-05-3.58084E-05 1.48826E-13 1.61078E-13 3.33379E-13 5.70421E-15
 -1        35-3.58084E-05-3.58084E-05-1.67183E-13-2.96079E-13-1.18106E-13 1.32616E-13
 -1        36-7.16168E-05-7.16168E-05 1.84938E-13 2.32832E-13 4.61229E-13 1.58516E-13
 -1        37-7.16168E-05-7.16168E-05-1.88448E-20 9.97422E-22 5.08062E-21 6.63147E-21
 -1        38-3.58084E-05-3.58084E-05 6.82072E-21 3.00784E-22-3.42690E-21 7.63109E-22
 -1        39-3.58084E-05-3.58084E-05-3.78576E-14-1.57543E-14 2.81673E-15-3.64506E-14
 -1        40-3.58084E-05-3.58084E-05-4.77527E-14-6.25453E-14 1.87838E-15 1.37902E-13
 -1        41-3.58084E-05-3.58084E-05 1.87902E-13-1.39796E-13 8.37991E-14-8.72385E-14
 -1        42-7.16168E-05-7.16168E-05 6.96493E-13 2.59105E-13-1.52206E-13-1.82202E-13
 -1        43-3.58084E-05-3.58084E-05 1.52778E-21-5.60222E-21 7.76966E-21-2.92256E-21
 -1        44-2.38723E-05-2.38723E-05-2.08823E-20-3.86677E-21-4.26948E-21 1.24656E-22
 -1        45-2.38723E-05-2.38723E-05 1.66259E-15-2.36963E-14 1.93673E-15 3.28526E-14
 -1        46-2.38723E-05-2.38723E-05-6.49802E-15-1.98627E-14 3.74940E-17 1.92218E-14
 -1        47-2.38723E-05-2.38723E-05 1.32489E-13-4.08436E-14 5.08760E-14 5.19107E-15
 -1        48-3.58084E-05-3.58084E-05-4.06757E-14-2.13141E-14-7.82102E-14 2.28996E-14
 -1        49-3.58084E-05-3.58084E-05 1.46476E-13-4.06456E-15 1.86624E-13 1.49194E-14
 -1        50-2.38723E-05-2.38723E-05 7.25518E-14-6.14944E-16-8.63359E-14 5.90284E-15
 -1        51-2.38723E-05-2.38723E-05-2.07028E-13-3.82218E-14 8.35547E-14 1.13541E-14
 -1        52-2.38723E-05-2.38723E-05 1.04910E-13-7.24386E-14-1.18736E-15 8.89686E-14
 -1        53-2.38723E-05-2.38723E-05-5.57391E-16-1.92309E-14 1.21600E-14 1.36874E-13
 -1        54-3.58084E-05-3.58084E-05-1.12948E-13 8.24792E-14-1.22713E-13-1.96549E-13
 -1        55-3.58084E-05-3.58084E-05 1.16958E-13-1.51678E-14-5.53369E-17-7.78596E-15
 -1        56-2.38723E-05-2.38723E-05 1.50314E-14-8.01708E-15 1.62910E-14-2.29063E-15
 -1        57-2.38723E-05-2.38723E-05-1.79737E-13 2.89431E-14-3.60916E-14 2.04590E-14
 -1        58-2.38723E-05-2.38723E-05-2.77477E-13 7.78317E-14-1.55746E-13-5.03645E-14
 -1        59-2.38723E-05-2.38723E-05 2.61128E-13-4.41475E-14 1.06817E-13-1.16797E-13
 -1        60-3.58084E-05-3.58084E-05 4.37525E-13-1.25891E-14 8.62371E-14 1.04183E-13
 -1        61-3.58084E-05-3.58084E-05-1.99602E-13-3.50278E-14 9.78703E-14-1.76190E-14
 -1        62-2.38723E-05-2.38723E-05-1.01365E-13-1.88721E-14 1.46775E-13-1.60170E-14
 -1        63-2.38723E-05-2.38723E-05-1.86641E-13-1.17599E-13 7.04867E-15-1.46555E-13
 -1        64-2.38723E-05-2.38723E-05 1.78935E-13-8.53575E-15 1.79428E-13 1.93122E-15
 -1        65-2.38723E-05-2.38723E-05-2.52966E-13-1.33929E-14-1.39878E-13 2.28601E-14
 -1        66-3.58084E-05-3.58084E-05-6.58057E-14 2.34781E-13 2.06627E-13-7.16091E-14
 -1        67-7.16168E-05-7.16168E-05-4.94950E-13 1.87700E-14 6.08087E-13-3.53919E-15
 -1        68-3.58084E-05-3.58084E-05-1.60298E-13 1.61047E-14-2.62199E-13 1.84426E-14
 -1        69-3.58084E-05-3.58084E-05-8.16934E-14-3.30033E-13 1.84253E-13 6.47621E-14
 -1        70-3.58084E-05-3.58084E-05-1.72438E-13-1.18704E-13-3.02118E-13-1.24385E-13
 -1        71-3.58084E-05-3.58084E-05 1.13121E-13 7.49776E-14 1.44655E-13-1.70732E-14
 -1        72-7.16168E-05-7.16168E-05 5.73549E-14-2.98705E-14-2.43545E-13-5.43222E-14
 -3
    1PSTEP                       153          51           1          
  100CL  151 4.17781E-01          72                     0   51           1
 -4  TOSTRAIN    6    1
 -5  EXX         1    4    1    1
 -5  EYY         1    4    2    2
 -5  EZZ         1    4    3    3
 -5  EXY         1    4    1    2
 -5  EYZ         1    4    2    3
 -5  EZX         1    4    3    1
 -1         1-2.38723E-10-2.38723E-10 2.04619E-10 2.34254E-27 1.30521E-26 9.16038E-28
 -1         2-1.19361E-10-1.19361E-10 1.02310E-10-3.39809E-26-3.66990E-27-1.17960E-26
 -1         3-1.19361E-10-1.19361E-10 1.02310E-10 8.08278E-19-1.19341E-25-8.16785E-20
 -1         4-1.19361E-10-1.19361E-10 1.02310E-10-2.13208E-19-1.85078E-25 2.79634E-19
 -1         5-1.19361E-10-1.19361E-10 1.02310E-10-2.24099E-19 1.79211E-24-2.58090E-18
 -1         6-2.38723E-10-2.38723E-10 2.04619E-10 3.71694E-19-3.20393E-24 1.69307E-18
 -1         7-1.19361E-10-1.19361E-10 1.02310E-10 4.94324E-26 2.56568E-26 5.26552E-28
 -1         8-7.95742E-11-7.95742E-11 6.82064E-11 9.52020E-27-1.23687E-26 4.35648E-27
 -1         9-7.95742E-11-7.95742E-11 6.82064E-11 4.68217E-19 3.64622E-22 2.04016E-19
 -1        10-7.95742E-11-7.95742E-11 6.82064E-11 4.06378E-21-7.52007E-21 1.10424E-19
 -1        11-7.95742E-11-7.95742E-11 6.82064E-11 6.42544E-20-3.08897E-20 8.73444E-19
 -1        12-1.19361E-10-1.19361E-10 1.02310E-10-3.50392E-19-1.30448E-20 6.65436E-20
 -1        13-1.19361E-10-1.19361E-10 1.02310E-10 9.38922E-20-6.67965E-19-1.46354E-25
 -1        14-7.95742E-11-7.95742E-11 6.82064E-11 1.53858E-20 3.45775E-19-2.50309E-20
 -1        15-7.95742E-11-7.95742E-11 6.82064E-11-4.72769E-19 4.01958E-20-3.33114E-19
 -1        16-7.95742E-11-7.95742E-11 6.82064E-11 1.00921E-19 4.53053E-19-6.68230E-20
 -1        17-7.95742E-11-7.95742E-11 6.82064E-11-4.90132E-19-3.13405E-21-1.18683E-18
 -1        18-1.19361E-10-1.19361E-10 1.02310E-10 2.47324E-19 9.54791E-20 7.62383E-19
 -1        19-1.19361E-10-1.19361E-10 1.02310E-10 3.50414E-19 1.63028E-19-4.17894E-25
 -1        20-7.95742E-11-7.95742E-11 6.82064E-11 1.86401E-19-3.70438E-19 1.79522E-20
 -1        21-7.95742E-11-7.95742E-11 6.82064E-11-4.64084E-19 1.67589E-19 6.08438E-19
 -1        22-7.95742E-11-7.95742E-11 6.82064E-11-7.84321E-19-1.52091E-19-1.85012E-19
 -1        23-7.95742E-11-7.95742E-11 6.82064E-11-1.09931E-18-3.33405E-19 1.40219E-18
 -1        24-1.19361E-10-1.19361E-10 1.02310E-10 6.66468E-19-4.07901E-19 8.35294E-19
 -1        25-1.19361E-10-1.19361E-10 1.02310E-10 8.09249E-19-1.03787E-18-1.73081E-25
 -1        26-7.95742E-11-7.95742E-11 6.82064E-11 4.13435E-19 6.46253E-19-2.64398E-20
 -1        27-7.95742E-11-7.95742E-11 6.82064E-11-2.23855E-19-1.20165E-18-1.18424E-19
 -1        28-7.95742E-11-7.95742E-11 6.82064E-11 5.94087E-19 4.96446E-19-1.67204E-19
 -1        29-7.95742E-11-7.95742E-11 6.82064E-11-6.25012E-19 1.19314E-18-5.49245E-19
 -1        30-1.19361E-10-1.19361E-10 1.02310E-10-1.93096E-19-1.82382E-18-4.79746E-19
 -1        31-2.38723E-10-2.38723E-10 2.04619E-10-4.33679E-19-8.92194E-19 1.50057E-24
 -1        32-1.19361E-10-1.19361E-10 1.02310E-10-4.05937E-19 5.38092E-19 1.25124E-19
 -1        33-1.19361E-10-1.19361E-10 1.02310E-10-6.66098E-19-3.78688E-19 4.04766E-19
 -1        34-1.19361E-10-1.19361E-10 1.02310E-10 9.97148E-19 2.06377E-18 3.53118E-20
 -1        35-1.19361E-10-1.19361E-10 1.02310E-10-1.83287E-18-7.31131E-19 8.20954E-19
 -1        36-2.38723E-10-2.38723E-10 2.04619E-10 1.44134E-18 2.85523E-18 9.81287E-19
 -1        37-2.38723E-10-2.38723E-10 2.04619E-10 6.17452E-27 3.14514E-26 4.10519E-26
 -1        38-1.19361E-10-1.19361E-10 1.02310E-10 1.86200E-27-2.12141E-26 4.72401E-27
 -1        39-1.19361E-10-1.19361E-10 1.02310E-10-9.75265E-20 1.74369E-20-2.25646E-19
 -1        40-1.19361E-10-1.19361E-10 1.02310E-10-3.87185E-19 1.16281E-20 8.53677E-19
 -1        41-1.19361E-10-1.19361E-10 1.02310E-10-8.65402E-19 5.18756E-19-5.40048E-19
 -1        42-2.38723E-10-2.38723E-10 2.04619E-10 1.60398E-18-9.42231E-19-1.12792E-18
 -1        43-1.19361E-10-1.19361E-10 1.02310E-10-3.46804E-26 4.80979E-26-1.80920E-26
 -1        44-7.95742E-11-7.95742E-11 6.82064E-11-2.39371E-26-2.64301E-26 7.71680E-28
 -1        45-7.95742E-11-7.95742E-11 6.82064E-11-1.46692E-19 1.19893E-20 2.03373E-19
 -1        46-7.95742E-11-7.95742E-11 6.82064E-11-1.22960E-19 2.32106E-22 1.18992E-19
 -1        47-7.95742E-11-7.95742E-11 6.82064E-11-2.52841E-19 3.14947E-19 3.21352E-20
 -1        48-1.19361E-10-1.19361E-10 1.02310E-10-1.31944E-19-4.84159E-19 1.41760E-19
 -1        49-1.19361E-10-1.19361E-10 1.02310E-10-2.51616E-20 1.15529E-18 9.23582E-20
 -1        50-7.95742E-11-7.95742E-11 6.82064E-11-3.80680E-21-5.34460E-19 3.65414E-20
 -1        51-7.95742E-11-7.95742E-11 6.82064E-11-2.36611E-19 5.17243E-19 7.02875E-20
 -1        52-7.95742E-11-7.95742E-11 6.82064E-11-4.48430E-19-7.35031E-21 5.50758E-19
 -1        53-7.95742E-11-7.95742E-11 6.82064E-11-1.19048E-19 7.52764E-20 8.47314E-19
 -1        54-1.19361E-10-1.19361E-10 1.02310E-10 5.10586E-19-7.59654E-19-1.21673E-18
 -1        55-1.19361E-10-1.19361E-10 1.02310E-10-9.38957E-20-3.42562E-22-4.81988E-20
 -1        56-7.95742E-11-7.95742E-11 6.82064E-11-4.96295E-20 1.00849E-19-1.41801E-20
 -1        57-7.95742E-11-7.95742E-11 6.82064E-11 1.79172E-19-2.23424E-19 1.26651E-19
 -1        58-7.95742E-11-7.95742E-11 6.82064E-11 4.81815E-19-9.64145E-19-3.11780E-19
 -1        59-7.95742E-11-7.95742E-11 6.82064E-11-2.73294E-19 6.61249E-19-7.23031E-19
 -1        60-1.19361E-10-1.19361E-10 1.02310E-10-7.79324E-20 5.33849E-19 6.44942E-19
 -1        61-1.19361E-10-1.19361E-10 1.02310E-10-2.16839E-19 6.05864E-19-1.09070E-19
 -1        62-7.95742E-11-7.95742E-11 6.82064E-11-1.16827E-19 9.08608E-19-9.91530E-20
 -1        63-7.95742E-11-7.95742E-11 6.82064E-11-7.27996E-19 4.36346E-20-9.07244E-19
 -1        64-7.95742E-11-7.95742E-11 6.82064E-11-5.28404E-20 1.11074E-18 1.19552E-20
 -1        65-7.95742E-11-7.95742E-11 6.82064E-11-8.29082E-20-8.65910E-19 1.41515E-19
 -1        66-1.19361E-10-1.19361E-10 1.02310E-10 1.45341E-18 1.27912E-18-4.43294E-19
 -1        67-2.38723E-10-2.38723E-10 2.04619E-10 1.16195E-19 3.76435E-18-2.19092E-20
 -1        68-1.19361E-10-1.19361E-10 1.02310E-10 9.96958E-20-1.62314E-18 1.14168E-19
 -1        69-1.19361E-10-1.19361E-10 1.02310E-10-2.04306E-18 1.14061E-18 4.00908E-19
 -1        70-1.19361E-10-1.19361E-10 1.02310E-10-7.34832E-19-1.87025E-18-7.70001E-19
 -1        71-1.19361E-10-1.19361E-10 1.02310E-10 4.64147E-19 8.95483E-19-1.05691E-19
 -1        72-2.38723E-10-2.38723E-10 2.04619E-10-1.84913E-19-1.50766E-18-3.36280E-19
 -3
    1PSTEP                       154          52           1          
  100CL  152 4.26781E-01          72                     0   52           1
 -4  DISP        4    1
 -5  D1          1    2    1    0
 -5  D2          1    2    2    0
 -5  D3          1    2    3    0
 -5  ALL         1    2    0    0    1ALL
 -1         1 0.00000E+00 0.00000E+00 0.00000E+00
 -1         2-1.21938E-07 0.00000E+00 0.00000E+00
 -1         3-6.40172E+00 0.00000E+00 0.00000E+00
 -1         4-6.40172E+00 0.00000E+00 0.00000E+00
 -1         5-1.28034E+01 0.00000E+00 0.00000E+00
 -1         6-1.28034E+01 0.00000E+00 0.00000E+00
 -1         7 0.00000E+00-1.21938E-07 0.00000E+00
 -1         8-1.21938E-07-1.21938E-07 0.00000E+00
 -1         9-6.40172E+00-1.21937E-07 0.00000E+00
 -1        10-6.40172E+00-1.21938E-07 0.00000E+00
 -1        11-1.28034E+01-1.21938E-07 0.00000E+00
 -1        12-1.28034E+01-1.21937E-07 0.00000E+00
 -1        13 0.00000E+00-6.40172E+00 0.00000E+00
 -1        14-1.21937E-07-6.40172E+00 0.00000E+00
 -1        15-6.40172E+00-6.40172E+00 0.00000E+00
 -1        16-6.40172E+00-6.40172E+00 0.00000E+00
 -1        17-1.28034E+01-6.40172E+00 0.00000E+00
 -1        18-1.28034E+01-6.40172E+00 0.00000E+00
 -1        19 0.00000E+00-6.40172E+00 0.00000E+00
 -1        20-1.21938E-07-6.40172E+00 0.00000E+00
 -1        21-6.40172E+00-6.40172E+00 0.00000E+00
 -1        22-6.40172E+00-6.40172E+00 0.00000E+00
 -1        23-1.28034E+01-6.40172E+00 0.00000E+00
 -1        24-1.28034E+01-6.40172E+00 0.00000E+00
 -1        25 0.00000E+00-1.28034E+01 0.00000E+00
 -1        26-1.21937E-07-1.28034E+01 0.00000E+00
 -1        27-6.40172E+00-1.28034E+01 0.00000E+00
 -1        28-6.40172E+00-1.28034E+01 0.00000E+00
 -1        29-1.28034E+01-1.28034E+01 0.00000E+00
 -1        30-1.28034E+01-1.28034E+01 0.00000E+00
 -1        31 0.00000E+00-1.28034E+01 0.00000E+00
 -1        32-1.21938E-07-1.28034E+01 0.00000E+00
 -1        33-6.40172E+00-1.28034E+01 0.00000E+00
 -1        34-6.40172E+00-1.28034E+01 0.00000E+00
 -1        35-1.28034E+01-1.28034E+01 0.00000E+00
 -1        36-1.28034E+01-1.28034E+01 0.00000E+00
 -1        37 0.00000E+00 0.00000E+00 1.46325E-07
 -1        38-1.21938E-07 0.00000E+00 1.46325E-07
 -1        39-6.40172E+00 0.00000E+00 1.46325E-07
 -1        40-6.40172E+00 0.00000E+00 1.46325E-07
 -1        41-1.28034E+01 0.00000E+00 1.46325E-07
 -1        42-1.28034E+01 0.00000E+00 1.46325E-07
 -1        43 0.00000E+00-1.21938E-07 1.46325E-07
 -1        44-1.21938E-07-1.21938E-07 1.46325E-07
 -1        45-6.40172E+00-1.21938E-07 1.46325E-07
 -1        46-6.40172E+00-1.21937E-07 1.46325E-07
 -1        47-1.28034E+01-1.21938E-07 1.46325E-07
 -1        48-1.28034E+01-1.21938E-07 1.46325E-07
 -1        49 0.00000E+00-6.40172E+00 1.46325E-07
 -1        50-1.21938E-07-6.40172E+00 1.46325E-07
 -1        51-6.40172E+00-6.40172E+00 1.46325E-07
 -1        52-6.40172E+00-6.40172E+00 1.46325E-07
 -1        53-1.28034E+01-6.40172E+00 1.46325E-07
 -1        54-1.28034E+01-6.40172E+00 1.46325E-07
 -1        55 0.00000E+00-6.40172E+00 1.46325E-07
 -1        56-1.21937E-07-6.40172E+00 1.46325E-07
 -1        57-6.40172E+00-6.40172E+00 1.46325E-07
 -1        58-6.40172E+00-6.40172E+00 1.46325E-07
 -1        59-1.28034E+01-6.40172E+00 1.46325E-07
 -1        60-1.28034E+01-6.40172E+00 1.46325E-07
 -1        61 0.00000E+00-1.28034E+01 1.46325E-07
 -1        62-1.21937E-07-1.28034E+01 1.46325E-07
 -1        63-6.40172E+00-1.28034E+01 1.46325E-07
 -1        64-6.40172E+00-1.28034E+01 1.46325E-07
 -1        65-1.28034E+01-1.28034E+01 1.46325E-07
 -1        66-1.28034E+01-1.28034E+01 1.46325E-07
 -1        67 0.00000E+00-1.28034E+01 1.46325E-07
 -1        68-1.21938E-07-1.28034E+01 1.46325E-07
 -1        69-6.40172E+00-1.28034E+01 1.46325E-07
 -1        70-6.40172E+00-1.28034E+01 1.46325E-07
 -1        71-1.28034E+01-1.28034E+01 1.46325E-07
 -1        72-1.28034E+01-1.28034E+01 1.46325E-07
 -3
    1PSTEP                       155          52           1          
  100CL  152 4.26781E-01          72                     0   52           1
 -4  STRESS      6    1
 -5  SXX         1    4    1    1
 -5  SYY         1    4    2    2
 -5  SZZ         1    4    3    3
 -5  SXY         1    4    1    2
 -5  SYZ         1    4    2    3
 -5  SZX         1    4    3    1
 -1         1-7.31596E-05-7.31596E-05 3.05821E-20 4.54543E-22 2.51179E-21 7.92292E-22
 -1         2-3.65798E-05-3.65798E-05 8.63648E-21-4.26052E-21-7.39814E-22-8.94215E-22
 -1         3-3.65798E-05-3.65798E-05-5.70025E-14-2.76578E-14-3.40408E-20 8.21522E-14
 -1         4-3.65798E-05-3.65798E-05-4.42250E-14 5.88104E-14-6.84983E-21-8.01793E-14
 -1         5-3.65798E-05-3.65798E-05-3.49691E-15-2.25562E-13-5.70585E-20-2.12527E-13
 -1         6-7.31596E-05-7.31596E-05 2.49183E-13 8.10455E-13-8.43487E-19 3.16617E-13
 -1         7-3.65798E-05-3.65798E-05-1.52778E-21-1.02985E-21-3.80208E-21-8.00408E-22
 -1         8-2.43865E-05-2.43865E-05-2.97469E-21-3.67843E-21-1.78676E-21 1.60738E-21
 -1         9-2.43865E-05-2.43865E-05 8.52324E-14-1.12309E-15-1.07957E-14-2.82228E-14
 -1        10-2.43865E-05-2.43865E-05 4.56749E-14 5.22291E-14 1.34987E-14 6.48797E-14
 -1        11-2.43865E-05-2.43865E-05 8.28391E-15-1.66777E-14 1.28988E-14 1.88381E-13
 -1        12-3.65798E-05-3.65798E-05 6.14149E-16-6.83378E-14-2.77262E-14-4.37995E-14
 -1        13-3.65798E-05-3.65798E-05-3.09670E-15 3.26812E-14-5.62632E-14 6.49064E-20
 -1        14-2.43865E-05-2.43865E-05-2.19505E-14 1.68990E-14 4.05833E-14-3.58507E-17
 -1        15-2.43865E-05-2.43865E-05 1.53602E-13 1.04874E-13 1.55306E-13-3.51391E-15
 -1        16-2.43865E-05-2.43865E-05-1.29316E-13 5.23319E-14-6.95360E-14 5.45547E-14
 -1        17-2.43865E-05-2.43865E-05-2.62011E-14-1.12226E-13 1.37748E-14-1.80890E-13
 -1        18-3.65798E-05-3.65798E-05-1.50228E-13-5.12082E-14-1.21126E-13 2.20167E-13
 -1        19-3.65798E-05-3.65798E-05 3.13791E-14-8.75699E-15 1.25709E-13 3.80805E-20
 -1        20-2.43865E-05-2.43865E-05-2.33888E-14-1.07265E-14 4.53676E-14 4.48460E-15
 -1        21-2.43865E-05-2.43865E-05 1.02430E-13-1.13127E-14-1.26208E-13 1.05223E-14
 -1        22-2.43865E-05-2.43865E-05-2.14437E-13-7.66750E-14 9.16617E-14-5.03712E-14
 -1        23-2.43865E-05-2.43865E-05-4.97073E-14-6.12685E-14 3.67561E-14 2.04837E-13
 -1        24-3.65798E-05-3.65798E-05-5.27778E-14 2.48274E-13-6.07272E-14 6.01698E-14
 -1        25-3.65798E-05-3.65798E-05 2.28789E-13-4.69318E-15-1.52560E-13 1.47430E-19
 -1        26-2.43865E-05-2.43865E-05-1.92525E-13-2.39927E-14 9.04979E-14 3.11494E-15
 -1        27-2.43865E-05-2.43865E-05-1.15339E-13 1.30372E-13-1.05875E-14-6.44759E-14
 -1        28-2.43865E-05-2.43865E-05 5.30056E-14-7.41573E-14-7.64079E-14-2.35339E-14
 -1        29-2.43865E-05-2.43865E-05 5.31516E-14 1.11933E-13 7.07790E-14-4.99936E-14
 -1        30-3.65798E-05-3.65798E-05 1.77327E-13 1.73999E-13 1.69830E-13-2.91342E-13
 -1        31-7.31596E-05-7.31596E-05 2.43350E-13 2.51198E-15 3.40690E-13 6.90088E-19
 -1        32-3.65798E-05-3.65798E-05-2.46178E-13-3.00399E-14 5.46314E-14 7.44575E-16
 -1        33-3.65798E-05-3.65798E-05-4.56862E-13 1.15930E-13-2.87403E-13 5.92231E-14
 -1        34-3.65798E-05-3.65798E-05-3.99619E-13-2.42235E-14 5.45021E-13 9.53092E-14
 -1        35-3.65798E-05-3.65798E-05 5.93310E-14-2.10740E-13-2.09048E-14 5.69650E-14
 -1        36-7.31596E-05-7.31596E-05-6.48594E-13 3.68082E-14-1.47325E-13 4.13896E-13
 -1        37-7.31596E-05-7.31596E-05-1.47923E-20-1.86632E-22 2.09819E-21 5.27878E-22
 -1        38-3.65798E-05-3.65798E-05-1.03304E-20 1.68232E-21 6.05175E-22-1.02642E-21
 -1        39-3.65798E-05-3.65798E-05-7.65849E-14 7.91836E-14 1.35678E-14 4.22666E-14
 -1        40-3.65798E-05-3.65798E-05 1.27198E-14-1.29766E-13-1.52776E-14 1.49082E-13
 -1        41-3.65798E-05-3.65798E-05-3.35809E-13-2.32603E-13 4.63406E-14 1.28046E-13
 -1        42-7.31596E-05-7.31596E-05-6.13153E-13 2.88814E-13-1.92397E-14-5.01733E-13
 -1        43-3.65798E-05-3.65798E-05-1.66154E-22 1.38981E-21-1.86989E-21-1.91128E-21
 -1        44-2.43865E-05-2.43865E-05-1.13233E-20 2.11030E-21-1.27219E-21 8.66800E-22
 -1        45-2.43865E-05-2.43865E-05 9.84482E-14-8.40716E-14-1.75040E-15-2.59658E-14
 -1        46-2.43865E-05-2.43865E-05 1.09909E-13-1.55409E-16 3.31365E-15 1.90590E-14
 -1        47-2.43865E-05-2.43865E-05 1.01991E-13-1.29411E-13 4.37926E-14 1.32241E-13
 -1        48-3.65798E-05-3.65798E-05 4.23188E-14-3.61996E-14-3.73456E-14-1.26977E-13
 -1        49-3.65798E-05-3.65798E-05-1.60536E-13-8.75696E-15 9.57198E-14 9.46113E-16
 -1        50-2.43865E-05-2.43865E-05-6.12331E-14-4.39777E-15-2.38000E-14 5.94846E-16
 -1        51-2.43865E-05-2.43865E-05-1.40456E-13-8.67869E-14-8.34586E-14-2.42390E-14
 -1        52-2.43865E-05-2.43865E-05 1.13888E-13-8.20941E-14 2.93991E-14-6.32036E-15
 -1        53-2.43865E-05-2.43865E-05 5.64045E-14-7.21067E-14 1.03016E-13 8.87954E-14
 -1        54-3.65798E-05-3.65798E-05 2.48624E-13 2.18509E-14-2.73057E-13-4.16005E-13
 -1        55-3.65798E-05-3.65798E-05-1.11821E-13 2.34624E-15 2.40840E-14-1.37072E-14
 -1        56-2.43865E-05-2.43865E-05-5.31785E-14 3.00436E-15 3.18379E-14-4.65358E-15
 -1        57-2.43865E-05-2.43865E-05-2.84864E-13 1.18855E-14 8.64960E-14 3.72871E-14
 -1        58-2.43865E-05-2.43865E-05 3.78364E-15 6.44267E-14-2.54347E-15-1.01675E-13
 -1        59-2.43865E-05-2.43865E-05 1.24246E-13-3.80556E-15 1.08254E-13-5.05446E-14
 -1        60-3.65798E-05-3.65798E-05-1.65306E-13-3.35179E-13 1.09866E-14-4.40512E-14
 -1        61-3.65798E-05-3.65798E-05 8.93037E-14 2.43936E-13-4.14836E-14-4.72060E-14
 -1        62-2.43865E-05-2.43865E-05-1.01620E-13 1.38094E-13 4.89678E-14-2.83558E-14
 -1        63-2.43865E-05-2.43865E-05-3.43471E-14-1.40016E-13-3.17124E-14 1.26198E-13
 -1        64-2.43865E-05-2.43865E-05 2.12809E-13 2.92553E-14-4.37413E-14 3.64159E-14
 -1        65-2.43865E-05-2.43865E-05 1.43610E-13-2.25353E-13 1.64943E-13-1.04954E-13
 -1        66-3.65798E-05-3.65798E-05-3.29073E-13 2.06363E-13-4.16156E-13 2.15853E-13
 -1        67-7.31596E-05-7.31596E-05-5.21181E-14-1.30726E-13-8.75741E-14 2.53668E-14
 -1        68-3.65798E-05-3.65798E-05-1.18070E-13-1.02158E-13-3.71102E-14 1.34276E-14
 -1        69-3.65798E-05-3.65798E-05-5.95328E-14 2.14778E-14 2.18004E-13-4.45523E-14
 -1        70-3.65798E-05-3.65798E-05 1.15929E-13-3.57446E-14-4.15946E-13-2.25454E-14
 -1        71-3.65798E-05-3.65798E-05 6.52089E-14-1.52105E-13-1.53702E-13 3.34273E-13
 -1        72-7.31596E-05-7.31596E-05-6.92467E-13-1.34388E-13 7.26220E-13-9.46340E-13
 -3
    1PSTEP                       156          52           1          
  100CL  152 4.26781E-01          72                     0   52           1
 -4  TOSTRAIN    6    1
 -5  EXX         1    4    1    1
 -5  EYY         1    4    2    2
 -5  EZZ         1    4    3    3
 -5  EXY         1    4    1    2
 -5  EYZ         1    4    2    3
 -5  EZX         1    4    3    1
 -1         1-2.43865E-10-2.43865E-10 2.09027E-10 2.81384E-27 1.55492E-26 4.90466E-27
 -1         2-1.21933E-10-1.21933E-10 1.04514E-10-2.63747E-26-4.57980E-27-5.53562E-27
 -1         3-1.21933E-10-1.21933E-10 1.04514E-10-1.71215E-19-2.10729E-25 5.08561E-19
 -1         4-1.21933E-10-1.21933E-10 1.04514E-10 3.64064E-19-4.24037E-26-4.96348E-19
 -1         5-1.21933E-10-1.21933E-10 1.04514E-10-1.39634E-18-3.53219E-25-1.31564E-18
 -1         6-2.43865E-10-2.43865E-10 2.09027E-10 5.01710E-18-5.22159E-24 1.96001E-18
 -1         7-1.21933E-10-1.21933E-10 1.04514E-10-6.37524E-27-2.35367E-26-4.95491E-27
 -1         8-8.12884E-11-8.12884E-11 6.96758E-11-2.27712E-26-1.10609E-26 9.95043E-27
 -1         9-8.12884E-11-8.12884E-11 6.96758E-11-6.95247E-21-6.68303E-20-1.74713E-19
 -1        10-8.12884E-11-8.12884E-11 6.96758E-11 3.23323E-19 8.35635E-20 4.01637E-19
 -1        11-8.12884E-11-8.12884E-11 6.96758E-11-1.03243E-19 7.98498E-20 1.16617E-18
 -1        12-1.21933E-10-1.21933E-10 1.04514E-10-4.23044E-19-1.71639E-19-2.71140E-19
 -1        13-1.21933E-10-1.21933E-10 1.04514E-10 2.02312E-19-3.48296E-19 4.01801E-25
 -1        14-8.12884E-11-8.12884E-11 6.96758E-11 1.04613E-19 2.51230E-19-2.21933E-22
 -1        15-8.12884E-11-8.12884E-11 6.96758E-11 6.49217E-19 9.61420E-19-2.17528E-20
 -1        16-8.12884E-11-8.12884E-11 6.96758E-11 3.23960E-19-4.30461E-19 3.37719E-19
 -1        17-8.12884E-11-8.12884E-11 6.96758E-11-6.94734E-19 8.52726E-20-1.11980E-18
 -1        18-1.21933E-10-1.21933E-10 1.04514E-10-3.17003E-19-7.49826E-19 1.36294E-18
 -1        19-1.21933E-10-1.21933E-10 1.04514E-10-5.42099E-20 7.78197E-19 2.35736E-25
 -1        20-8.12884E-11-8.12884E-11 6.96758E-11-6.64019E-20 2.80847E-19 2.77618E-20
 -1        21-8.12884E-11-8.12884E-11 6.96758E-11-7.00308E-20-7.81287E-19 6.51378E-20
 -1        22-8.12884E-11-8.12884E-11 6.96758E-11-4.74655E-19 5.67429E-19-3.11822E-19
 -1        23-8.12884E-11-8.12884E-11 6.96758E-11-3.79281E-19 2.27538E-19 1.26804E-18
 -1        24-1.21933E-10-1.21933E-10 1.04514E-10 1.53693E-18-3.75930E-19 3.72480E-19
 -1        25-1.21933E-10-1.21933E-10 1.04514E-10-2.90530E-20-9.44418E-19 9.12665E-25
 -1        26-8.12884E-11-8.12884E-11 6.96758E-11-1.48527E-19 5.60225E-19 1.92830E-20
 -1        27-8.12884E-11-8.12884E-11 6.96758E-11 8.07065E-19-6.55418E-20-3.99136E-19
 -1        28-8.12884E-11-8.12884E-11 6.96758E-11-4.59069E-19-4.73002E-19-1.45686E-19
 -1        29-8.12884E-11-8.12884E-11 6.96758E-11 6.92919E-19 4.38156E-19-3.09484E-19
 -1        30-1.21933E-10-1.21933E-10 1.04514E-10 1.07714E-18 1.05133E-18-1.80355E-18
 -1        31-2.43865E-10-2.43865E-10 2.09027E-10 1.55504E-20 2.10903E-18 4.27197E-24
 -1        32-1.21933E-10-1.21933E-10 1.04514E-10-1.85962E-19 3.38194E-19 4.60927E-21
 -1        33-1.21933E-10-1.21933E-10 1.04514E-10 7.17665E-19-1.77916E-18 3.66619E-19
 -1        34-1.21933E-10-1.21933E-10 1.04514E-10-1.49955E-19 3.37394E-18 5.90010E-19
 -1        35-1.21933E-10-1.21933E-10 1.04514E-10-1.30458E-18-1.29410E-19 3.52640E-19
 -1        36-2.43865E-10-2.43865E-10 2.09027E-10 2.27860E-19-9.12013E-19 2.56221E-18
 -1        37-2.43865E-10-2.43865E-10 2.09027E-10-1.15534E-27 1.29888E-26 3.26782E-27
 -1        38-1.21933E-10-1.21933E-10 1.04514E-10 1.04143E-26 3.74632E-27-6.35404E-27
 -1        39-1.21933E-10-1.21933E-10 1.04514E-10 4.90184E-19 8.39915E-20 2.61651E-19
 -1        40-1.21933E-10-1.21933E-10 1.04514E-10-8.03313E-19-9.45757E-20 9.22889E-19
 -1        41-1.21933E-10-1.21933E-10 1.04514E-10-1.43992E-18 2.86870E-19 7.92663E-19
 -1        42-2.43865E-10-2.43865E-10 2.09027E-10 1.78789E-18-1.19103E-19-3.10597E-18
 -1        43-1.21933E-10-1.21933E-10 1.04514E-10 8.60362E-27-1.15755E-26-1.18317E-26
 -1        44-8.12884E-11-8.12884E-11 6.96758E-11 1.30637E-26-7.87545E-27 5.36590E-27
 -1        45-8.12884E-11-8.12884E-11 6.96758E-11-5.20443E-19-1.08358E-20-1.60740E-19
 -1        46-8.12884E-11-8.12884E-11 6.96758E-11-9.62057E-22 2.05131E-20 1.17985E-19
 -1        47-8.12884E-11-8.12884E-11 6.96758E-11-8.01116E-19 2.71097E-19 8.18634E-19
 -1        48-1.21933E-10-1.21933E-10 1.04514E-10-2.24093E-19-2.31187E-19-7.86048E-19
 -1        49-1.21933E-10-1.21933E-10 1.04514E-10-5.42097E-20 5.92551E-19 5.85689E-21
 -1        50-8.12884E-11-8.12884E-11 6.96758E-11-2.72243E-20-1.47333E-19 3.68238E-21
 -1        51-8.12884E-11-8.12884E-11 6.96758E-11-5.37253E-19-5.16648E-19-1.50051E-19
 -1        52-8.12884E-11-8.12884E-11 6.96758E-11-5.08202E-19 1.81994E-19-3.91261E-20
 -1        53-8.12884E-11-8.12884E-11 6.96758E-11-4.46375E-19 6.37717E-19 5.49686E-19
 -1        54-1.21933E-10-1.21933E-10 1.04514E-10 1.35267E-19-1.69035E-18-2.57527E-18
 -1        55-1.21933E-10-1.21933E-10 1.04514E-10 1.45243E-20 1.49092E-19-8.48544E-20
 -1        56-8.12884E-11-8.12884E-11 6.96758E-11 1.85984E-20 1.97092E-19-2.88079E-20
 -1        57-8.12884E-11-8.12884E-11 6.96758E-11 7.35769E-20 5.35451E-19 2.30825E-19
 -1        58-8.12884E-11-8.12884E-11 6.96758E-11 3.98832E-19-1.57453E-20-6.29414E-19
 -1        59-8.12884E-11-8.12884E-11 6.96758E-11-2.35582E-20 6.70143E-19-3.12895E-19
 -1        60-1.21933E-10-1.21933E-10 1.04514E-10-2.07492E-18 6.80121E-20-2.72698E-19
 -1        61-1.21933E-10-1.21933E-10 1.04514E-10 1.51008E-18-2.56803E-19-2.92228E-19
 -1        62-8.12884E-11-8.12884E-11 6.96758E-11 8.54867E-19 3.03134E-19-1.75536E-19
 -1        63-8.12884E-11-8.12884E-11 6.96758E-11-8.66764E-19-1.96315E-19 7.81227E-19
 -1        64-8.12884E-11-8.12884E-11 6.96758E-11 1.81104E-19-2.70779E-19 2.25432E-19
 -1        65-8.12884E-11-8.12884E-11 6.96758E-11-1.39504E-18 1.02108E-18-6.49715E-19
 -1        66-1.21933E-10-1.21933E-10 1.04514E-10 1.27749E-18-2.57620E-18 1.33623E-18
 -1        67-2.43865E-10-2.43865E-10 2.09027E-10-8.09259E-19-5.42126E-19 1.57032E-19
 -1        68-1.21933E-10-1.21933E-10 1.04514E-10-6.32409E-19-2.29730E-19 8.31233E-20
 -1        69-1.21933E-10-1.21933E-10 1.04514E-10 1.32958E-19 1.34955E-18-2.75800E-19
 -1        70-1.21933E-10-1.21933E-10 1.04514E-10-2.21276E-19-2.57490E-18-1.39567E-19
 -1        71-1.21933E-10-1.21933E-10 1.04514E-10-9.41604E-19-9.51488E-19 2.06931E-18
 -1        72-2.43865E-10-2.43865E-10 2.09027E-10-8.31926E-19 4.49565E-18-5.85829E-18
 -3
    1PSTEP                       157          53           1          
  100CL  153 4.35781E-01          72                     0   53           1
 -4  DISP        4    1
 -5  D1          1    2    1    0
 -5  D2          1    2    2    0
 -5  D3          1    2    3    0
 -5  ALL         1    2    0    0    1ALL
 -1         1 0.00000E+00 0.00000E+00 0.00000E+00
 -1         2-1.24509E-07 0.00000E+00 0.00000E+00
 -1         3-6.53672E+00 0.00000E+00 0.00000E+00
 -1         4-6.53672E+00 0.00000E+00 0.00000E+00
 -1         5-1.30734E+01 0.00000E+00 0.00000E+00
 -1         6-1.30734E+01 0.00000E+00 0.00000E+00
 -1         7 0.00000E+00-1.24509E-07 0.00000E+00
 -1         8-1.24509E-07-1.24509E-07 0.00000E+00
 -1         9-6.53672E+00-1.24509E-07 0.00000E+00
 -1        10-6.53672E+00-1.24509E-07 0.00000E+00
 -1        11-1.30734E+01-1.24509E-07 0.00000E+00
 -1        12-1.30734E+01-1.24509E-07 0.00000E+00
 -1        13 0.00000E+00-6.53672E+00 0.00000E+00
 -1        14-1.24509E-07-6.53672E+00 0.00000E+00
 -1        15-6.53672E+00-6.53672E+00 0.00000E+00
 -1        16-6.53672E+00-6.53672E+00 0.00000E+00
 -1        17-1.30734E+01-6.53672E+00 0.00000E+00
 -1        18-1.30734E+01-6.53672E+00 0.00000E+00
 -1        19 0.00000E+00-6.53672E+00 0.00000E+00
 -1        20-1.24509E-07-6.53672E+00 0.00000E+00
 -1        21-6.53672E+00-6.53672E+00 0.00000E+00
 -1        22-6.53672E+00-6.53672E+00 0.00000E+00
 -1        23-1.30734E+01-6.53672E+00 0.00000E+00
 -1        24-1.30734E+01-6.53672E+00 0.00000E+00
 -1        25 0.00000E+00-1.30734E+01 0.00000E+00
 -1        26-1.24509E-07-1.30734E+01 0.00000E+00
 -1        27-6.53672E+00-1.30734E+01 0.00000E+00
 -1        28-6.53672E+00-1.30734E+01 0.00000E+00
 -1        29-1.30734E+01-1.30734E+01 0.00000E+00
 -1        30-1.30734E+01-1.30734E+01 0.00000E+00
 -1        31 0.00000E+00-1.30734E+01 0.00000E+00
 -1        32-1.24509E-07-1.30734E+01 0.00000E+00
 -1        33-6.53672E+00-1.30734E+01 0.00000E+00
 -1        34-6.53672E+00-1.30734E+01 0.00000E+00
 -1        35-1.30734E+01-1.30734E+01 0.00000E+00
 -1        36-1.30734E+01-1.30734E+01 0.00000E+00
 -1        37 0.00000E+00 0.00000E+00 1.49411E-07
 -1        38-1.24509E-07 0.00000E+00 1.49411E-07
 -1        39-6.53672E+00 0.00000E+00 1.49411E-07
 -1        40-6.53672E+00 0.00000E+00 1.49411E-07
 -1        41-1.30734E+01 0.00000E+00 1.49411E-07
 -1        42-1.30734E+01 0.00000E+00 1.49411E-07
 -1        43 0.00000E+00-1.24509E-07 1.49411E-07
 -1        44-1.24509E-07-1.24509E-07 1.49411E-07
 -1        45-6.53672E+00-1.24509E-07 1.49411E-07
 -1        46-6.53672E+00-1.24509E-07 1.49411E-07
 -1        47-1.30734E+01-1.24509E-07 1.49411E-07
 -1        48-1.30734E+01-1.24509E-07 1.49411E-07
 -1        49 0.00000E+00-6.53672E+00 1.49411E-07
 -1        50-1.24509E-07-6.53672E+00 1.49411E-07
 -1        51-6.53672E+00-6.53672E+00 1.49411E-07
 -1        52-6.53672E+00-6.53672E+00 1.49411E-07
 -1        53-1.30734E+01-6.53672E+00 1.49411E-07
 -1        54-1.30734E+01-6.53672E+00 1.49411E-07
 -1        55 0.00000E+00-6.53672E+00 1.49411E-07
 -1        56-1.24509E-07-6.53672E+00 1.49411E-07
 -1        57-6.53672E+00-6.53672E+00 1.49411E-07
 -1        58-6.53672E+00-6.53672E+00 1.49411E-07
 -1        59-1.30734E+01-6.53672E+00 1.49411E-07
 -1        60-1.30734E+01-6.53672E+00 1.49411E-07
 -1        61 0.00000E+00-1.30734E+01 1.49411E-07
 -1        62-1.24509E-07-1.30734E+01 1.49411E-07
 -1        63-6.53672E+00-1.30734E+01 1.49411E-07
 -1        64-6.53672E+00-1.30734E+01 1.49411E-07
 -1        65-1.30734E+01-1.30734E+01 1.49411E-07
 -1        66-1.30734E+01-1.30734E+01 1.49411E-07
 -1        67 0.00000E+00-1.30734E+01 1.49411E-07
 -1        68-1.24509E-07-1.30734E+01 1.49411E-07
 -1        69-6.53672E+00-1.30734E+01 1.49411E-07
 -1        70-6.53672E+00-1.30734E+01 1.49411E-07
 -1        71-1.30734E+01-1.30734E+01 1.49411E-07
 -1        72-1.30734E+01-1.30734E+01 1.49411E-07
 -3
    1PSTEP                       158          53           1          
  100CL  153 4.35781E-01          72                     0   53           1
 -4  STRESS      6    1
 -5  SXX         1    4    1    1
 -5  SYY         1    4    2    2
 -5  SZZ         1    4    3    3
 -5  SXY         1    4    1    2
 -5  SYZ         1    4    2    3
 -5  SZX         1    4    3    1
 -1         1-7.47024E-05-7.47024E-05 3.72071E-21-4.89598E-22 8.56994E-22 6.79288E-22
 -1         2-3.73512E-05-3.73512E-05 1.86792E-20-5.43224E-22 1.76709E-22-3.54175E-21
 -1         3-3.73512E-05-3.73512E-05-1.24098E-13-1.59538E-14-7.44289E-20-4.35350E-14
 -1         4-3.73512E-05-3.73512E-05-7.91033E-14 5.95391E-14-9.39389E-20 7.87055E-16
 -1         5-3.73512E-05-3.73512E-05-3.56578E-14 1.42832E-13-2.07553E-19-3.05335E-13
 -1         6-7.47024E-05-7.47024E-05 1.93871E-13-4.03104E-13-8.67285E-19 1.68701E-13
 -1         7-3.73512E-05-3.73512E-05-2.72708E-20 1.39247E-20 8.09234E-21-3.33239E-22
 -1         8-2.49008E-05-2.49008E-05 4.10416E-21 9.08419E-21-4.30797E-21 1.23537E-21
 -1         9-2.49008E-05-2.49008E-05-9.23302E-15-3.40026E-14-8.06196E-15 1.00304E-13
 -1        10-2.49008E-05-2.49008E-05-1.27776E-14 6.76089E-14 1.87029E-15-1.02780E-13
 -1        11-2.49008E-05-2.49008E-05 1.18837E-13-6.73961E-14-2.31132E-14 9.60519E-14
 -1        12-3.73512E-05-3.73512E-05 2.50679E-14 2.87703E-13 1.56996E-14-1.01119E-13
 -1        13-3.73512E-05-3.73512E-05 3.16867E-13-2.34694E-15-5.80223E-14-5.59342E-20
 -1        14-2.49008E-05-2.49008E-05 4.17960E-14 7.58765E-16 1.73376E-14 3.98518E-16
 -1        15-2.49008E-05-2.49008E-05-7.31764E-14-5.18751E-14-1.23007E-13-5.94668E-14
 -1        16-2.49008E-05-2.49008E-05-1.31334E-13 4.25172E-14-4.90261E-14 5.81646E-14
 -1        17-2.49008E-05-2.49008E-05 8.73313E-14 5.83607E-14-1.64230E-14 2.42304E-13
 -1        18-3.73512E-05-3.73512E-05-4.33470E-14-2.41438E-14-1.35976E-13-2.21355E-13
 -1        19-3.73512E-05-3.73512E-05 2.51577E-13 6.27644E-16-4.76996E-14 4.24426E-20
 -1        20-2.49008E-05-2.49008E-05 4.35961E-14 2.74182E-15-3.86815E-14 3.93004E-16
 -1        21-2.49008E-05-2.49008E-05 4.68341E-14-6.30271E-14 6.84484E-14 5.55694E-15
 -1        22-2.49008E-05-2.49008E-05 8.23483E-14 9.11756E-14 7.20892E-14-2.81402E-14
 -1        23-2.49008E-05-2.49008E-05-4.48138E-14 1.88189E-13-7.15338E-14-1.99616E-13
 -1        24-3.73512E-05-3.73512E-05-1.44320E-13 7.56428E-14 2.51355E-13 2.39141E-13
 -1        25-3.73512E-05-3.73512E-05-3.55307E-13-2.61450E-13-2.97776E-13-1.36059E-19
 -1        26-2.49008E-05-2.49008E-05 1.78729E-13-1.46310E-13 3.94064E-14 2.09718E-15
 -1        27-2.49008E-05-2.49008E-05 1.53408E-13 2.09845E-13-1.46473E-13 1.67557E-14
 -1        28-2.49008E-05-2.49008E-05-2.99057E-14 1.27961E-13 6.61738E-14 4.62493E-14
 -1        29-2.49008E-05-2.49008E-05-2.10532E-13-2.74597E-15-2.09708E-13 3.80896E-14
 -1        30-3.73512E-05-3.73512E-05-4.56559E-13 1.53686E-14-6.32293E-14 3.55802E-13
 -1        31-7.47024E-05-7.47024E-05-4.37169E-13 1.40111E-13 2.82087E-13-5.26048E-19
 -1        32-3.73512E-05-3.73512E-05 3.43986E-13 1.12041E-13 3.29746E-13-8.23703E-15
 -1        33-3.73512E-05-3.73512E-05 2.11645E-13-4.40968E-14 1.43129E-13 1.02013E-13
 -1        34-3.73512E-05-3.73512E-05-4.88023E-13-3.74569E-14 2.33136E-13-8.10395E-14
 -1        35-3.73512E-05-3.73512E-05-2.27376E-15-1.05971E-13-7.41326E-14-2.33604E-13
 -1        36-7.47024E-05-7.47024E-05 9.20683E-13 7.90986E-13 3.75698E-13 2.90328E-13
 -1        37-7.47024E-05-7.47024E-05 1.81807E-20-1.67716E-21-4.56138E-21 4.38415E-21
 -1        38-3.73512E-05-3.73512E-05-1.84682E-20 6.69228E-21-4.11240E-21-1.68932E-21
 -1        39-3.73512E-05-3.73512E-05-1.79456E-13-2.38821E-14 1.96824E-14 4.00491E-14
 -1        40-3.73512E-05-3.73512E-05-1.03175E-13 8.91291E-14-4.42091E-16 3.75370E-14
 -1        41-3.73512E-05-3.73512E-05-1.74590E-14-3.49163E-13 8.55651E-14 3.99449E-13
 -1        42-7.47024E-05-7.47024E-05 4.41821E-13 1.31810E-13-5.74950E-14-1.03130E-12
 -1        43-3.73512E-05-3.73512E-05-1.35968E-20-1.09398E-20 7.52214E-21-8.29591E-22
 -1        44-2.49008E-05-2.49008E-05-4.62819E-21-2.27266E-21-7.54946E-21 9.04470E-22
 -1        45-2.49008E-05-2.49008E-05-5.92738E-14 2.59000E-14 5.05970E-15-8.56429E-14
 -1        46-2.49008E-05-2.49008E-05-4.19607E-14-9.01526E-14 1.57563E-15 9.71510E-14
 -1        47-2.49008E-05-2.49008E-05 1.30969E-13 1.75434E-13 3.39303E-14-2.57560E-13
 -1        48-3.73512E-05-3.73512E-05 1.49043E-13-3.17669E-13-1.30475E-14 3.84270E-13
 -1        49-3.73512E-05-3.73512E-05-3.81667E-14 1.21968E-13-8.49607E-15-1.37566E-14
 -1        50-2.49008E-05-2.49008E-05 6.78139E-14 8.36274E-14 8.00187E-14-8.77254E-15
 -1        51-2.49008E-05-2.49008E-05 2.66277E-14-2.25804E-14-1.57902E-13-1.80995E-14
 -1        52-2.49008E-05-2.49008E-05 8.44564E-14 1.31622E-13 1.23163E-13-2.99044E-14
 -1        53-2.49008E-05-2.49008E-05-1.49376E-13-1.46752E-13 5.79925E-14-6.35191E-14
 -1        54-3.73512E-05-3.73512E-05 7.35656E-14-5.89799E-14-1.11443E-13 1.01768E-13
 -1        55-3.73512E-05-3.73512E-05-1.03475E-13-3.26820E-14-2.68480E-14 1.34397E-14
 -1        56-2.49008E-05-2.49008E-05 6.96024E-14-1.94724E-14 1.24668E-14 9.35275E-15
 -1        57-2.49008E-05-2.49008E-05 1.30529E-14-9.65186E-14 4.20253E-14 7.23162E-14
 -1        58-2.49008E-05-2.49008E-05 5.07989E-14 4.16582E-14-1.18848E-13-3.77319E-14
 -1        59-2.49008E-05-2.49008E-05 2.56429E-13-6.58184E-13-3.84416E-14 4.72254E-14
 -1        60-3.73512E-05-3.73512E-05 1.31116E-13 3.98470E-13 1.34275E-13-1.33049E-13
 -1        61-3.73512E-05-3.73512E-05-1.32784E-13 7.00555E-14 9.38128E-14 2.64860E-14
 -1        62-2.49008E-05-2.49008E-05-6.69834E-14 6.40701E-14-6.43142E-14 1.97546E-14
 -1        63-2.49008E-05-2.49008E-05-3.05586E-13-1.96869E-13-2.23192E-13 5.47789E-14
 -1        64-2.49008E-05-2.49008E-05-7.11446E-14-6.98455E-14 2.06219E-13 1.03503E-13
 -1        65-2.49008E-05-2.49008E-05 7.62034E-15-4.47402E-14-8.64909E-14-1.28421E-14
 -1        66-3.73512E-05-3.73512E-05 4.75417E-13 2.50459E-13 8.17822E-14-8.70974E-14
 -1        67-7.47024E-05-7.47024E-05-3.99318E-14-3.75401E-14 1.77214E-13 4.30786E-15
 -1        68-3.73512E-05-3.73512E-05-4.84864E-14 7.27950E-15-4.06366E-13-6.08285E-15
 -1        69-3.73512E-05-3.73512E-05 1.18653E-14-1.56912E-13 2.06282E-13 9.83731E-14
 -1        70-3.73512E-05-3.73512E-05 1.43588E-13-2.00926E-13-4.70608E-13-1.92338E-13
 -1        71-3.73512E-05-3.73512E-05 7.72078E-13 1.29119E-13 2.78966E-13-1.76572E-14
 -1        72-7.47024E-05-7.47024E-05-5.52787E-13-9.63780E-13-5.90299E-13-1.47288E-13
 -3
    1PSTEP                       159          53           1          
  100CL  153 4.35781E-01          72                     0   53           1
 -4  TOSTRAIN    6    1
 -5  EXX         1    4    1    1
 -5  EYY         1    4    2    2
 -5  EZZ         1    4    3    3
 -5  EXY         1    4    1    2
 -5  EYZ         1    4    2    3
 -5  EZX         1    4    3    1
 -1         1-2.49008E-10-2.49008E-10 2.13435E-10-3.03084E-27 5.30520E-27 4.20512E-27
 -1         2-1.24504E-10-1.24504E-10 1.06718E-10-3.36281E-27 1.09391E-27-2.19251E-26
 -1         3-1.24504E-10-1.24504E-10 1.06718E-10-9.87615E-20-4.60751E-25-2.69502E-19
 -1         4-1.24504E-10-1.24504E-10 1.06718E-10 3.68575E-19-5.81527E-25 4.87224E-21
 -1         5-1.24504E-10-1.24504E-10 1.06718E-10 8.84197E-19-1.28485E-24-1.89017E-18
 -1         6-2.49008E-10-2.49008E-10 2.13435E-10-2.49541E-18-5.36891E-24 1.04434E-18
 -1         7-1.24504E-10-1.24504E-10 1.06718E-10 8.62006E-26 5.00954E-26-2.06291E-27
 -1         8-8.30026E-11-8.30026E-11 7.11451E-11 5.62354E-26-2.66684E-26 7.64753E-27
 -1         9-8.30026E-11-8.30026E-11 7.11451E-11-2.10492E-19-4.99074E-20 6.20928E-19
 -1        10-8.30026E-11-8.30026E-11 7.11451E-11 4.18531E-19 1.15780E-20-6.36255E-19
 -1        11-8.30026E-11-8.30026E-11 7.11451E-11-4.17214E-19-1.43082E-19 5.94607E-19
 -1        12-1.24504E-10-1.24504E-10 1.06718E-10 1.78102E-18 9.71877E-20-6.25974E-19
 -1        13-1.24504E-10-1.24504E-10 1.06718E-10-1.45287E-20-3.59186E-19-3.46259E-25
 -1        14-8.30026E-11-8.30026E-11 7.11451E-11 4.69711E-21 1.07328E-19 2.46701E-21
 -1        15-8.30026E-11-8.30026E-11 7.11451E-11-3.21131E-19-7.61473E-19-3.68128E-19
 -1        16-8.30026E-11-8.30026E-11 7.11451E-11 2.63202E-19-3.03495E-19 3.60067E-19
 -1        17-8.30026E-11-8.30026E-11 7.11451E-11 3.61281E-19-1.01666E-19 1.49998E-18
 -1        18-1.24504E-10-1.24504E-10 1.06718E-10-1.49462E-19-8.41754E-19-1.37030E-18
 -1        19-1.24504E-10-1.24504E-10 1.06718E-10 3.88542E-21-2.95283E-19 2.62740E-25
 -1        20-8.30026E-11-8.30026E-11 7.11451E-11 1.69732E-20-2.39457E-19 2.43288E-21
 -1        21-8.30026E-11-8.30026E-11 7.11451E-11-3.90167E-19 4.23728E-19 3.44001E-20
 -1        22-8.30026E-11-8.30026E-11 7.11451E-11 5.64420E-19 4.46267E-19-1.74201E-19
 -1        23-8.30026E-11-8.30026E-11 7.11451E-11 1.16498E-18-4.42829E-19-1.23572E-18
 -1        24-1.24504E-10-1.24504E-10 1.06718E-10 4.68265E-19 1.55601E-18 1.48040E-18
 -1        25-1.24504E-10-1.24504E-10 1.06718E-10-1.61850E-18-1.84338E-18-8.42272E-25
 -1        26-8.30026E-11-8.30026E-11 7.11451E-11-9.05728E-19 2.43944E-19 1.29825E-20
 -1        27-8.30026E-11-8.30026E-11 7.11451E-11 1.29904E-18-9.06738E-19 1.03726E-19
 -1        28-8.30026E-11-8.30026E-11 7.11451E-11 7.92141E-19 4.09648E-19 2.86305E-19
 -1        29-8.30026E-11-8.30026E-11 7.11451E-11-1.69989E-20-1.29820E-18 2.35793E-19
 -1        30-1.24504E-10-1.24504E-10 1.06718E-10 9.51387E-20-3.91419E-19 2.20258E-18
 -1        31-2.49008E-10-2.49008E-10 2.13435E-10 8.67355E-19 1.74625E-18-3.25648E-24
 -1        32-1.24504E-10-1.24504E-10 1.06718E-10 6.93586E-19 2.04128E-18-5.09912E-20
 -1        33-1.24504E-10-1.24504E-10 1.06718E-10-2.72980E-19 8.86038E-19 6.31508E-19
 -1        34-1.24504E-10-1.24504E-10 1.06718E-10-2.31876E-19 1.44322E-18-5.01673E-19
 -1        35-1.24504E-10-1.24504E-10 1.06718E-10-6.56014E-19-4.58916E-19-1.44612E-18
 -1        36-2.49008E-10-2.49008E-10 2.13435E-10 4.89658E-18 2.32575E-18 1.79727E-18
 -1        37-2.49008E-10-2.49008E-10 2.13435E-10-1.03824E-26-2.82371E-26 2.71400E-26
 -1        38-1.24504E-10-1.24504E-10 1.06718E-10 4.14284E-26-2.54577E-26-1.04577E-26
 -1        39-1.24504E-10-1.24504E-10 1.06718E-10-1.47842E-19 1.21843E-19 2.47923E-19
 -1        40-1.24504E-10-1.24504E-10 1.06718E-10 5.51752E-19-2.73675E-21 2.32372E-19
 -1        41-1.24504E-10-1.24504E-10 1.06718E-10-2.16148E-18 5.29689E-19 2.47278E-18
 -1        42-2.49008E-10-2.49008E-10 2.13435E-10 8.15965E-19-3.55921E-19-6.38424E-18
 -1        43-1.24504E-10-1.24504E-10 1.06718E-10-6.77228E-26 4.65656E-26-5.13556E-27
 -1        44-8.30026E-11-8.30026E-11 7.11451E-11-1.40688E-26-4.67348E-26 5.59910E-27
 -1        45-8.30026E-11-8.30026E-11 7.11451E-11 1.60333E-19 3.13219E-20-5.30170E-19
 -1        46-8.30026E-11-8.30026E-11 7.11451E-11-5.58087E-19 9.75387E-21 6.01411E-19
 -1        47-8.30026E-11-8.30026E-11 7.11451E-11 1.08602E-18 2.10045E-19-1.59442E-18
 -1        48-1.24504E-10-1.24504E-10 1.06718E-10-1.96652E-18-8.07702E-20 2.37881E-18
 -1        49-1.24504E-10-1.24504E-10 1.06718E-10 7.55038E-19-5.25947E-20-8.51601E-20
 -1        50-8.30026E-11-8.30026E-11 7.11451E-11 5.17693E-19 4.95354E-19-5.43062E-20
 -1        51-8.30026E-11-8.30026E-11 7.11451E-11-1.39783E-19-9.77489E-19-1.12044E-19
 -1        52-8.30026E-11-8.30026E-11 7.11451E-11 8.14805E-19 7.62441E-19-1.85122E-19
 -1        53-8.30026E-11-8.30026E-11 7.11451E-11-9.08467E-19 3.59001E-19-3.93213E-19
 -1        54-1.24504E-10-1.24504E-10 1.06718E-10-3.65114E-19-6.89885E-19 6.29992E-19
 -1        55-1.24504E-10-1.24504E-10 1.06718E-10-2.02317E-19-1.66202E-19 8.31979E-20
 -1        56-8.30026E-11-8.30026E-11 7.11451E-11-1.20543E-19 7.71756E-20 5.78980E-20
 -1        57-8.30026E-11-8.30026E-11 7.11451E-11-5.97496E-19 2.60156E-19 4.47672E-19
 -1        58-8.30026E-11-8.30026E-11 7.11451E-11 2.57884E-19-7.35723E-19-2.33578E-19
 -1        59-8.30026E-11-8.30026E-11 7.11451E-11-4.07447E-18-2.37972E-19 2.92347E-19
 -1        60-1.24504E-10-1.24504E-10 1.06718E-10 2.46672E-18 8.31224E-19-8.23634E-19
 -1        61-1.24504E-10-1.24504E-10 1.06718E-10 4.33677E-19 5.80746E-19 1.63961E-19
 -1        62-8.30026E-11-8.30026E-11 7.11451E-11 3.96624E-19-3.98136E-19 1.22290E-19
 -1        63-8.30026E-11-8.30026E-11 7.11451E-11-1.21871E-18-1.38167E-18 3.39107E-19
 -1        64-8.30026E-11-8.30026E-11 7.11451E-11-4.32377E-19 1.27659E-18 6.40736E-19
 -1        65-8.30026E-11-8.30026E-11 7.11451E-11-2.76963E-19-5.35420E-19-7.94986E-20
 -1        66-1.24504E-10-1.24504E-10 1.06718E-10 1.55046E-18 5.06271E-19-5.39175E-19
 -1        67-2.49008E-10-2.49008E-10 2.13435E-10-2.32391E-19 1.09704E-18 2.66677E-20
 -1        68-1.24504E-10-1.24504E-10 1.06718E-10 4.50635E-20-2.51560E-18-3.76557E-20
 -1        69-1.24504E-10-1.24504E-10 1.06718E-10-9.71361E-19 1.27698E-18 6.08976E-19
 -1        70-1.24504E-10-1.24504E-10 1.06718E-10-1.24383E-18-2.91329E-18-1.19066E-18
 -1        71-1.24504E-10-1.24504E-10 1.06718E-10 7.99311E-19 1.72693E-18-1.09306E-19
 -1        72-2.49008E-10-2.49008E-10 2.13435E-10-5.96626E-18-3.65423E-18-9.11784E-19
 -3
    1PSTEP                       160          54           1          
  100CL  154 4.44781E-01          72                     0   54           1
 -4  DISP        4    1
 -5  D1          1    2    1    0
 -5  D2          1    2    2    0
 -5  D3          1    2    3    0
 -5  ALL         1    2    0    0    1ALL
 -1         1 0.00000E+00 0.00000E+00 0.00000E+00
 -1         2-1.27080E-07 0.00000E+00 0.00000E+00
 -1         3-6.67172E+00 0.00000E+00 0.00000E+00
 -1         4-6.67172E+00 0.00000E+00 0.00000E+00
 -1         5-1.33434E+01 0.00000E+00 0.00000E+00
 -1         6-1.33434E+01 0.00000E+00 0.00000E+00
 -1         7 0.00000E+00-1.27080E-07 0.00000E+00
 -1         8-1.27080E-07-1.27080E-07 0.00000E+00
 -1         9-6.67172E+00-1.27080E-07 0.00000E+00
 -1        10-6.67172E+00-1.27080E-07 0.00000E+00
 -1        11-1.33434E+01-1.27080E-07 0.00000E+00
 -1        12-1.33434E+01-1.27080E-07 0.00000E+00
 -1        13 0.00000E+00-6.67172E+00 0.00000E+00
 -1        14-1.27080E-07-6.67172E+00 0.00000E+00
 -1        15-6.67172E+00-6.67172E+00 0.00000E+00
 -1        16-6.67172E+00-6.67172E+00 0.00000E+00
 -1        17-1.33434E+01-6.67172E+00 0.00000E+00
 -1        18-1.33434E+01-6.67172E+00 0.00000E+00
 -1        19 0.00000E+00-6.67172E+00 0.00000E+00
 -1        20-1.27080E-07-6.67172E+00 0.00000E+00
 -1        21-6.67172E+00-6.67172E+00 0.00000E+00
 -1        22-6.67172E+00-6.67172E+00 0.00000E+00
 -1        23-1.33434E+01-6.67172E+00 0.00000E+00
 -1        24-1.33434E+01-6.67172E+00 0.00000E+00
 -1        25 0.00000E+00-1.33434E+01 0.00000E+00
 -1        26-1.27080E-07-1.33434E+01 0.00000E+00
 -1        27-6.67172E+00-1.33434E+01 0.00000E+00
 -1        28-6.67172E+00-1.33434E+01 0.00000E+00
 -1        29-1.33434E+01-1.33434E+01 0.00000E+00
 -1        30-1.33434E+01-1.33434E+01 0.00000E+00
 -1        31 0.00000E+00-1.33434E+01 0.00000E+00
 -1        32-1.27080E-07-1.33434E+01 0.00000E+00
 -1        33-6.67172E+00-1.33434E+01 0.00000E+00
 -1        34-6.67172E+00-1.33434E+01 0.00000E+00
 -1        35-1.33434E+01-1.33434E+01 0.00000E+00
 -1        36-1.33434E+01-1.33434E+01 0.00000E+00
 -1        37 0.00000E+00 0.00000E+00 1.52496E-07
 -1        38-1.27080E-07 0.00000E+00 1.52496E-07
 -1        39-6.67172E+00 0.00000E+00 1.52496E-07
 -1        40-6.67172E+00 0.00000E+00 1.52496E-07
 -1        41-1.33434E+01 0.00000E+00 1.52496E-07
 -1        42-1.33434E+01 0.00000E+00 1.52496E-07
 -1        43 0.00000E+00-1.27080E-07 1.52496E-07
 -1        44-1.27080E-07-1.27080E-07 1.52496E-07
 -1        45-6.67172E+00-1.27080E-07 1.52496E-07
 -1        46-6.67172E+00-1.27080E-07 1.52496E-07
 -1        47-1.33434E+01-1.27080E-07 1.52496E-07
 -1        48-1.33434E+01-1.27080E-07 1.52496E-07
 -1        49 0.00000E+00-6.67172E+00 1.52496E-07
 -1        50-1.27080E-07-6.67172E+00 1.52496E-07
 -1        51-6.67172E+00-6.67172E+00 1.52496E-07
 -1        52-6.67172E+00-6.67172E+00 1.52496E-07
 -1        53-1.33434E+01-6.67172E+00 1.52496E-07
 -1        54-1.33434E+01-6.67172E+00 1.52496E-07
 -1        55 0.00000E+00-6.67172E+00 1.52496E-07
 -1        56-1.27080E-07-6.67172E+00 1.52496E-07
 -1        57-6.67172E+00-6.67172E+00 1.52496E-07
 -1        58-6.67172E+00-6.67172E+00 1.52496E-07
 -1        59-1.33434E+01-6.67172E+00 1.52496E-07
 -1        60-1.33434E+01-6.67172E+00 1.52496E-07
 -1        61 0.00000E+00-1.33434E+01 1.52496E-07
 -1        62-1.27080E-07-1.33434E+01 1.52496E-07
 -1        63-6.67172E+00-1.33434E+01 1.52496E-07
 -1        64-6.67172E+00-1.33434E+01 1.52496E-07
 -1        65-1.33434E+01-1.33434E+01 1.52496E-07
 -1        66-1.33434E+01-1.33434E+01 1.52496E-07
 -1        67 0.00000E+00-1.33434E+01 1.52496E-07
 -1        68-1.27080E-07-1.33434E+01 1.52496E-07
 -1        69-6.67172E+00-1.33434E+01 1.52496E-07
 -1        70-6.67172E+00-1.33434E+01 1.52496E-07
 -1        71-1.33434E+01-1.33434E+01 1.52496E-07
 -1        72-1.33434E+01-1.33434E+01 1.52496E-07
 -3
    1PSTEP                       161          54           1          
  100CL  154 4.44781E-01          72                     0   54           1
 -4  STRESS      6    1
 -5  SXX         1    4    1    1
 -5  SYY         1    4    2    2
 -5  SZZ         1    4    3    3
 -5  SXY         1    4    1    2
 -5  SYZ         1    4    2    3
 -5  SZX         1    4    3    1
 -1         1-7.62452E-05-7.62452E-05 9.25638E-21 1.13501E-21 5.86619E-22-1.53339E-21
 -1         2-3.81226E-05-3.81226E-05 1.47923E-20-6.74403E-21 4.38910E-22-2.26681E-21
 -1         3-3.81226E-05-3.81226E-05 8.03578E-14-3.25243E-14 1.64406E-20-2.19544E-14
 -1         4-3.81226E-05-3.81226E-05 9.92323E-14 8.17025E-15-1.09463E-19-3.93989E-14
 -1         5-3.81226E-05-3.81226E-05-2.44357E-13 4.99955E-14-1.73982E-19-2.31831E-13
 -1         6-7.62452E-05-7.62452E-05-1.86769E-13 2.89838E-13-7.29235E-19 3.71885E-13
 -1         7-3.81226E-05-3.81226E-05 1.04964E-20 3.44588E-21 1.37171E-21-1.81673E-22
 -1         8-2.54151E-05-2.54151E-05-4.73905E-21-2.57710E-21-3.43443E-21 6.81982E-21
 -1         9-2.54151E-05-2.54151E-05 1.55547E-13-3.55938E-14-6.09266E-15-6.49456E-14
 -1        10-2.54151E-05-2.54151E-05 8.39558E-14 2.65635E-14 3.88479E-15 2.13827E-14
 -1        11-2.54151E-05-2.54151E-05-3.03044E-14-4.07209E-14-3.13809E-14 1.03523E-14
 -1        12-3.81226E-05-3.81226E-05-2.62379E-13 7.48801E-14 4.56328E-14 1.24060E-13
 -1        13-3.81226E-05-3.81226E-05-3.69364E-13-2.97463E-15-3.09578E-13-1.96953E-21
 -1        14-2.54151E-05-2.54151E-05-4.07224E-14-2.22278E-14 8.52892E-14-1.28545E-14
 -1        15-2.54151E-05-2.54151E-05-5.55322E-15-1.32546E-13 3.87899E-14-1.31574E-13
 -1        16-2.54151E-05-2.54151E-05-1.06776E-13 6.80316E-15-1.13313E-14 2.98056E-14
 -1        17-2.54151E-05-2.54151E-05 2.88996E-13 2.10584E-13 1.30824E-13 5.11688E-14
 -1        18-3.81226E-05-3.81226E-05 2.80962E-13-7.89883E-15-1.51141E-13 3.09782E-14
 -1        19-3.81226E-05-3.81226E-05-2.22193E-13 2.97454E-15 1.11106E-13-1.81122E-20
 -1        20-2.54151E-05-2.54151E-05-1.49447E-14-1.82616E-14-4.16242E-14 1.31368E-14
 -1        21-2.54151E-05-2.54151E-05 2.46358E-13-2.40339E-13-7.76680E-14 2.83844E-14
 -1        22-2.54151E-05-2.54151E-05-1.40956E-13-1.13810E-13-2.61115E-14 6.89408E-14
 -1        23-2.54151E-05-2.54151E-05 1.14531E-13 2.23596E-14-2.02258E-13 2.42202E-14
 -1        24-3.81226E-05-3.81226E-05-5.58788E-13-1.51842E-13 2.69099E-13 3.53537E-13
 -1        25-3.81226E-05-3.81226E-05 2.20414E-13-4.69313E-15-2.27166E-13 5.50769E-20
 -1        26-2.54151E-05-2.54151E-05 1.48739E-13-3.08193E-14 1.85039E-15 1.10891E-14
 -1        27-2.54151E-05-2.54151E-05-3.46756E-13-2.16222E-14-4.26936E-13-1.00801E-13
 -1        28-2.54151E-05-2.54151E-05 2.38162E-14 6.58984E-14 1.38120E-14 9.18140E-14
 -1        29-2.54151E-05-2.54151E-05 4.02139E-14 1.48182E-13-9.01740E-14-2.24494E-13
 -1        30-3.81226E-05-3.81226E-05 1.62710E-13 5.39432E-14-5.31263E-14-3.59716E-14
 -1        31-7.62452E-05-7.62452E-05 1.65520E-13 2.51207E-15 3.29116E-14 1.45511E-19
 -1        32-3.81226E-05-3.81226E-05 8.55413E-14-4.02798E-14 1.65009E-13 2.15875E-14
 -1        33-3.81226E-05-3.81226E-05 1.04050E-13-1.31293E-13 1.50187E-13 1.34201E-13
 -1        34-3.81226E-05-3.81226E-05-1.29809E-13 7.56240E-14 7.43530E-14-1.76383E-13
 -1        35-3.81226E-05-3.81226E-05-6.28240E-13 1.98977E-13-1.73921E-13 2.27825E-13
 -1        36-7.62452E-05-7.62452E-05 1.21543E-12 3.38080E-13 7.56509E-13 4.48323E-13
 -1        37-7.62452E-05-7.62452E-05 2.09929E-20-1.40292E-21 1.59143E-20 5.76864E-21
 -1        38-3.81226E-05-3.81226E-05-7.10857E-21 1.21474E-20-6.19975E-21 2.53047E-21
 -1        39-3.81226E-05-3.81226E-05-8.75346E-14 1.16898E-14 2.96600E-14-4.93131E-14
 -1        40-3.81226E-05-3.81226E-05-3.72309E-14-1.32924E-14-2.08443E-14-8.40124E-14
 -1        41-3.81226E-05-3.81226E-05 8.52018E-14-2.67976E-13 9.02068E-14-7.91672E-16
 -1        42-7.62452E-05-7.62452E-05 8.61707E-13-4.74194E-13-1.13903E-13-7.03994E-13
 -1        43-3.81226E-05-3.81226E-05 8.92407E-21-6.63102E-21 1.11745E-20-1.00643E-20
 -1        44-2.54151E-05-2.54151E-05-8.26885E-22 4.14523E-21-8.24229E-21-2.62057E-21
 -1        45-2.54151E-05-2.54151E-05-6.14644E-14 7.85078E-15 1.36807E-14 9.05651E-14
 -1        46-2.54151E-05-2.54151E-05-1.12102E-13 2.62236E-14-1.00114E-14-1.53122E-13
 -1        47-2.54151E-05-2.54151E-05 5.80481E-14 1.58916E-13 2.87571E-14-5.23189E-14
 -1        48-3.81226E-05-3.81226E-05 6.48288E-14-8.22208E-15-1.13182E-14 1.02859E-13
 -1        49-3.81226E-05-3.81226E-05 7.07483E-14 1.54650E-13 1.90970E-13 2.20757E-14
 -1        50-2.54151E-05-2.54151E-05-1.15104E-13 1.19243E-13-2.60728E-14 1.86262E-15
 -1        51-2.54151E-05-2.54151E-05 1.78016E-13-3.79729E-14-1.58653E-13 3.89545E-14
 -1        52-2.54151E-05-2.54151E-05 1.95611E-13-7.77016E-15 2.34207E-14-8.24918E-14
 -1        53-2.54151E-05-2.54151E-05-4.90672E-13-2.02345E-13-2.53937E-15 2.72798E-13
 -1        54-3.81226E-05-3.81226E-05 1.86499E-13-4.22978E-14-2.08152E-13-7.48528E-14
 -1        55-3.81226E-05-3.81226E-05 2.99791E-13-1.54649E-13-5.85090E-14-2.13259E-14
 -1        56-2.54151E-05-2.54151E-05-3.47449E-14-8.69565E-14 1.05516E-13-1.08049E-15
 -1        57-2.54151E-05-2.54151E-05-2.93977E-15-1.84758E-14-3.77011E-14-1.15399E-13
 -1        58-2.54151E-05-2.54151E-05 1.60831E-13 5.95753E-14 1.17128E-13 8.97658E-14
 -1        59-2.54151E-05-2.54151E-05-2.72560E-14-3.56007E-14 1.05353E-14-1.08860E-13
 -1        60-3.81226E-05-3.81226E-05 6.46856E-14 4.37216E-13 1.46697E-14-2.61607E-13
 -1        61-3.81226E-05-3.81226E-05-3.41246E-13 2.43936E-13 2.89054E-14-2.28927E-14
 -1        62-2.54151E-05-2.54151E-05-1.99430E-13 1.39557E-13-3.92950E-14-4.17272E-15
 -1        63-2.54151E-05-2.54151E-05-1.47058E-14-4.31162E-14-4.09604E-14 7.97951E-16
 -1        64-2.54151E-05-2.54151E-05 3.80418E-14-1.15337E-13-1.32945E-13-3.98771E-14
 -1        65-2.54151E-05-2.54151E-05-3.63127E-14 1.73363E-13-6.31749E-14 1.67859E-13
 -1        66-3.81226E-05-3.81226E-05-1.65332E-13-5.88703E-14-6.25676E-14-9.33943E-14
 -1        67-7.62452E-05-7.62452E-05 3.23999E-13-1.30726E-13 6.70301E-14-4.57159E-14
 -1        68-3.81226E-05-3.81226E-05 2.04187E-13-9.99637E-14 7.84585E-16-1.27056E-15
 -1        69-3.81226E-05-3.81226E-05 4.01231E-13 4.04960E-15 9.72773E-14-7.29363E-14
 -1        70-3.81226E-05-3.81226E-05-1.04606E-13-3.24407E-13 2.23385E-13 1.76580E-13
 -1        71-3.81226E-05-3.81226E-05-4.99435E-14-9.77315E-14-1.80360E-14-2.05090E-13
 -1        72-7.62452E-05-7.62452E-05-5.11575E-13-3.74499E-13-1.23644E-13-7.13470E-14
 -3
    1PSTEP                       162          54           1          
  100CL  154 4.44781E-01          72                     0   54           1
 -4  TOSTRAIN    6    1
 -5  EXX         1    4    1    1
 -5  EYY         1    4    2    2
 -5  EZZ         1    4    3    3
 -5  EXY         1    4    1    2
 -5  EYZ         1    4    2    3
 -5  EZX         1    4    3    1
 -1         1-2.54151E-10-2.54151E-10 2.17843E-10 7.02625E-27 3.63145E-27-9.49241E-27
 -1         2-1.27075E-10-1.27075E-10 1.08922E-10-4.17487E-26 2.71706E-27-1.40326E-26
 -1         3-1.27075E-10-1.27075E-10 1.08922E-10-2.01341E-19 1.01775E-25-1.35908E-19
 -1         4-1.27075E-10-1.27075E-10 1.08922E-10 5.05777E-20-6.77629E-25-2.43898E-19
 -1         5-1.27075E-10-1.27075E-10 1.08922E-10 3.09496E-19-1.07703E-24-1.43514E-18
 -1         6-2.54151E-10-2.54151E-10 2.17843E-10 1.79423E-18-4.51431E-24 2.30214E-18
 -1         7-1.27075E-10-1.27075E-10 1.08922E-10 2.13317E-26 8.49154E-27-1.12464E-27
 -1         8-8.47168E-11-8.47168E-11 7.26144E-11-1.59535E-26-2.12607E-26 4.22180E-26
 -1         9-8.47168E-11-8.47168E-11 7.26144E-11-2.20343E-19-3.77165E-20-4.02044E-19
 -1        10-8.47168E-11-8.47168E-11 7.26144E-11 1.64441E-19 2.40487E-20 1.32369E-19
 -1        11-8.47168E-11-8.47168E-11 7.26144E-11-2.52082E-19-1.94262E-19 6.40857E-20
 -1        12-1.27075E-10-1.27075E-10 1.08922E-10 4.63544E-19 2.82489E-19 7.67992E-19
 -1        13-1.27075E-10-1.27075E-10 1.08922E-10-1.84144E-20-1.91644E-18-1.21924E-26
 -1        14-8.47168E-11-8.47168E-11 7.26144E-11-1.37600E-19 5.27981E-19-7.95754E-20
 -1        15-8.47168E-11-8.47168E-11 7.26144E-11-8.20524E-19 2.40128E-19-8.14508E-19
 -1        16-8.47168E-11-8.47168E-11 7.26144E-11 4.21148E-20-7.01460E-20 1.84511E-19
 -1        17-8.47168E-11-8.47168E-11 7.26144E-11 1.30362E-18 8.09865E-19 3.16759E-19
 -1        18-1.27075E-10-1.27075E-10 1.08922E-10-4.88975E-20-9.35638E-19 1.91770E-19
 -1        19-1.27075E-10-1.27075E-10 1.08922E-10 1.84138E-20 6.87800E-19-1.12123E-25
 -1        20-8.47168E-11-8.47168E-11 7.26144E-11-1.13048E-19-2.57674E-19 8.13230E-20
 -1        21-8.47168E-11-8.47168E-11 7.26144E-11-1.48781E-18-4.80802E-19 1.75713E-19
 -1        22-8.47168E-11-8.47168E-11 7.26144E-11-7.04539E-19-1.61643E-19 4.26776E-19
 -1        23-8.47168E-11-8.47168E-11 7.26144E-11 1.38416E-19-1.25207E-18 1.49934E-19
 -1        24-1.27075E-10-1.27075E-10 1.08922E-10-9.39977E-19 1.66585E-18 2.18856E-18
 -1        25-1.27075E-10-1.27075E-10 1.08922E-10-2.90527E-20-1.40627E-18 3.40952E-25
 -1        26-8.47168E-11-8.47168E-11 7.26144E-11-1.90786E-19 1.14548E-20 6.86471E-20
 -1        27-8.47168E-11-8.47168E-11 7.26144E-11-1.33852E-19-2.64294E-18-6.24007E-19
 -1        28-8.47168E-11-8.47168E-11 7.26144E-11 4.07943E-19 8.55028E-20 5.68372E-19
 -1        29-8.47168E-11-8.47168E-11 7.26144E-11 9.17319E-19-5.58220E-19-1.38973E-18
 -1        30-1.27075E-10-1.27075E-10 1.08922E-10 3.33934E-19-3.28877E-19-2.22682E-19
 -1        31-2.54151E-10-2.54151E-10 2.17843E-10 1.55509E-20 2.03738E-19 9.00781E-25
 -1        32-1.27075E-10-1.27075E-10 1.08922E-10-2.49351E-19 1.02149E-18 1.33637E-19
 -1        33-1.27075E-10-1.27075E-10 1.08922E-10-8.12769E-19 9.29728E-19 8.30770E-19
 -1        34-1.27075E-10-1.27075E-10 1.08922E-10 4.68149E-19 4.60280E-19-1.09189E-18
 -1        35-1.27075E-10-1.27075E-10 1.08922E-10 1.23176E-18-1.07666E-18 1.41034E-18
 -1        36-2.54151E-10-2.54151E-10 2.17843E-10 2.09287E-18 4.68315E-18 2.77533E-18
 -1        37-2.54151E-10-2.54151E-10 2.17843E-10-8.68475E-27 9.85171E-26 3.57106E-26
 -1        38-1.27075E-10-1.27075E-10 1.08922E-10 7.51982E-26-3.83794E-26 1.56648E-26
 -1        39-1.27075E-10-1.27075E-10 1.08922E-10 7.23652E-20 1.83610E-19-3.05271E-19
 -1        40-1.27075E-10-1.27075E-10 1.08922E-10-8.22865E-20-1.29036E-19-5.20077E-19
 -1        41-1.27075E-10-1.27075E-10 1.08922E-10-1.65890E-18 5.58423E-19-4.90083E-21
 -1        42-2.54151E-10-2.54151E-10 2.17843E-10-2.93549E-18-7.05112E-19-4.35806E-18
 -1        43-1.27075E-10-1.27075E-10 1.08922E-10-4.10492E-26 6.91757E-26-6.23028E-26
 -1        44-8.47168E-11-8.47168E-11 7.26144E-11 2.56609E-26-5.10237E-26-1.62226E-26
 -1        45-8.47168E-11-8.47168E-11 7.26144E-11 4.86001E-20 8.46900E-20 5.60641E-19
 -1        46-8.47168E-11-8.47168E-11 7.26144E-11 1.62337E-19-6.19751E-20-9.47901E-19
 -1        47-8.47168E-11-8.47168E-11 7.26144E-11 9.83765E-19 1.78020E-19-3.23879E-19
 -1        48-1.27075E-10-1.27075E-10 1.08922E-10-5.08986E-20-7.00648E-20 6.36743E-19
 -1        49-1.27075E-10-1.27075E-10 1.08922E-10 9.57356E-19 1.18220E-18 1.36659E-19
 -1        50-8.47168E-11-8.47168E-11 7.26144E-11 7.38171E-19-1.61403E-19 1.15305E-20
 -1        51-8.47168E-11-8.47168E-11 7.26144E-11-2.35070E-19-9.82137E-19 2.41147E-19
 -1        52-8.47168E-11-8.47168E-11 7.26144E-11-4.81010E-20 1.44985E-19-5.10663E-19
 -1        53-8.47168E-11-8.47168E-11 7.26144E-11-1.25261E-18-1.57199E-20 1.68875E-18
 -1        54-1.27075E-10-1.27075E-10 1.08922E-10-2.61844E-19-1.28856E-18-4.63375E-19
 -1        55-1.27075E-10-1.27075E-10 1.08922E-10-9.57354E-19-3.62199E-19-1.32018E-19
 -1        56-8.47168E-11-8.47168E-11 7.26144E-11-5.38302E-19 6.53195E-19-6.68874E-21
 -1        57-8.47168E-11-8.47168E-11 7.26144E-11-1.14374E-19-2.33388E-19-7.14373E-19
 -1        58-8.47168E-11-8.47168E-11 7.26144E-11 3.68799E-19 7.25080E-19 5.55693E-19
 -1        59-8.47168E-11-8.47168E-11 7.26144E-11-2.20385E-19 6.52183E-20-6.73896E-19
 -1        60-1.27075E-10-1.27075E-10 1.08922E-10 2.70657E-18 9.08125E-20-1.61947E-18
 -1        61-1.27075E-10-1.27075E-10 1.08922E-10 1.51008E-18 1.78938E-19-1.41717E-19
 -1        62-8.47168E-11-8.47168E-11 7.26144E-11 8.63924E-19-2.43255E-19-2.58311E-20
 -1        63-8.47168E-11-8.47168E-11 7.26144E-11-2.66910E-19-2.53564E-19 4.93970E-21
 -1        64-8.47168E-11-8.47168E-11 7.26144E-11-7.13990E-19-8.22990E-19-2.46858E-19
 -1        65-8.47168E-11-8.47168E-11 7.26144E-11 1.07320E-18-3.91083E-19 1.03913E-18
 -1        66-1.27075E-10-1.27075E-10 1.08922E-10-3.64435E-19-3.87323E-19-5.78155E-19
 -1        67-2.54151E-10-2.54151E-10 2.17843E-10-8.09258E-19 4.14949E-19-2.83003E-19
 -1        68-1.27075E-10-1.27075E-10 1.08922E-10-6.18823E-19 4.85696E-21-7.86536E-21
 -1        69-1.27075E-10-1.27075E-10 1.08922E-10 2.50690E-20 6.02193E-19-4.51510E-19
 -1        70-1.27075E-10-1.27075E-10 1.08922E-10-2.00823E-18 1.38286E-18 1.09312E-18
 -1        71-1.27075E-10-1.27075E-10 1.08922E-10-6.05004E-19-1.11651E-19-1.26960E-18
 -1        72-2.54151E-10-2.54151E-10 2.17843E-10-2.31833E-18-7.65413E-19-4.41672E-19
 -3
    1PSTEP                       163          55           1          
  100CL  155 4.53781E-01          72                     0   55           1
 -4  DISP        4    1
 -5  D1          1    2    1    0
 -5  D2          1    2    2    0
 -5  D3          1    2    3    0
 -5  ALL         1    2    0    0    1ALL
 -1         1 0.00000E+00 0.00000E+00 0.00000E+00
 -1         2-1.29652E-07 0.00000E+00 0.00000E+00
 -1         3-6.80672E+00 0.00000E+00 0.00000E+00
 -1         4-6.80672E+00 0.00000E+00 0.00000E+00
 -1         5-1.36134E+01 0.00000E+00 0.00000E+00
 -1         6-1.36134E+01 0.00000E+00 0.00000E+00
 -1         7 0.00000E+00-1.29652E-07 0.00000E+00
 -1         8-1.29652E-07-1.29652E-07 0.00000E+00
 -1         9-6.80672E+00-1.29652E-07 0.00000E+00
 -1        10-6.80672E+00-1.29652E-07 0.00000E+00
 -1        11-1.36134E+01-1.29652E-07 0.00000E+00
 -1        12-1.36134E+01-1.29652E-07 0.00000E+00
 -1        13 0.00000E+00-6.80672E+00 0.00000E+00
 -1        14-1.29652E-07-6.80672E+00 0.00000E+00
 -1        15-6.80672E+00-6.80672E+00 0.00000E+00
 -1        16-6.80672E+00-6.80672E+00 0.00000E+00
 -1        17-1.36134E+01-6.80672E+00 0.00000E+00
 -1        18-1.36134E+01-6.80672E+00 0.00000E+00
 -1        19 0.00000E+00-6.80672E+00 0.00000E+00
 -1        20-1.29652E-07-6.80672E+00 0.00000E+00
 -1        21-6.80672E+00-6.80672E+00 0.00000E+00
 -1        22-6.80672E+00-6.80672E+00 0.00000E+00
 -1        23-1.36134E+01-6.80672E+00 0.00000E+00
 -1        24-1.36134E+01-6.80672E+00 0.00000E+00
 -1        25 0.00000E+00-1.36134E+01 0.00000E+00
 -1        26-1.29652E-07-1.36134E+01 0.00000E+00
 -1        27-6.80672E+00-1.36134E+01 0.00000E+00
 -1        28-6.80672E+00-1.36134E+01 0.00000E+00
 -1        29-1.36134E+01-1.36134E+01 0.00000E+00
 -1        30-1.36134E+01-1.36134E+01 0.00000E+00
 -1        31 0.00000E+00-1.36134E+01 0.00000E+00
 -1        32-1.29652E-07-1.36134E+01 0.00000E+00
 -1        33-6.80672E+00-1.36134E+01 0.00000E+00
 -1        34-6.80672E+00-1.36134E+01 0.00000E+00
 -1        35-1.36134E+01-1.36134E+01 0.00000E+00
 -1        36-1.36134E+01-1.36134E+01 0.00000E+00
 -1        37 0.00000E+00 0.00000E+00 1.55582E-07
 -1        38-1.29652E-07 0.00000E+00 1.55582E-07
 -1        39-6.80672E+00 0.00000E+00 1.55582E-07
 -1        40-6.80672E+00 0.00000E+00 1.55582E-07
 -1        41-1.36134E+01 0.00000E+00 1.55582E-07
 -1        42-1.36134E+01 0.00000E+00 1.55582E-07
 -1        43 0.00000E+00-1.29652E-07 1.55582E-07
 -1        44-1.29652E-07-1.29652E-07 1.55582E-07
 -1        45-6.80672E+00-1.29652E-07 1.55582E-07
 -1        46-6.80672E+00-1.29652E-07 1.55582E-07
 -1        47-1.36134E+01-1.29652E-07 1.55582E-07
 -1        48-1.36134E+01-1.29652E-07 1.55582E-07
 -1        49 0.00000E+00-6.80672E+00 1.55582E-07
 -1        50-1.29652E-07-6.80672E+00 1.55582E-07
 -1        51-6.80672E+00-6.80672E+00 1.55582E-07
 -1        52-6.80672E+00-6.80672E+00 1.55582E-07
 -1        53-1.36134E+01-6.80672E+00 1.55582E-07
 -1        54-1.36134E+01-6.80672E+00 1.55582E-07
 -1        55 0.00000E+00-6.80672E+00 1.55582E-07
 -1        56-1.29652E-07-6.80672E+00 1.55582E-07
 -1        57-6.80672E+00-6.80672E+00 1.55582E-07
 -1        58-6.80672E+00-6.80672E+00 1.55582E-07
 -1        59-1.36134E+01-6.80672E+00 1.55582E-07
 -1        60-1.36134E+01-6.80672E+00 1.55582E-07
 -1        61 0.00000E+00-1.36134E+01 1.55582E-07
 -1        62-1.29652E-07-1.36134E+01 1.55582E-07
 -1        63-6.80672E+00-1.36134E+01 1.55582E-07
 -1        64-6.80672E+00-1.36134E+01 1.55582E-07
 -1        65-1.36134E+01-1.36134E+01 1.55582E-07
 -1        66-1.36134E+01-1.36134E+01 1.55582E-07
 -1        67 0.00000E+00-1.36134E+01 1.55582E-07
 -1        68-1.29652E-07-1.36134E+01 1.55582E-07
 -1        69-6.80672E+00-1.36134E+01 1.55582E-07
 -1        70-6.80672E+00-1.36134E+01 1.55582E-07
 -1        71-1.36134E+01-1.36134E+01 1.55582E-07
 -1        72-1.36134E+01-1.36134E+01 1.55582E-07
 -3
    1PSTEP                       164          55           1          
  100CL  155 4.53781E-01          72                     0   55           1
 -4  STRESS      6    1
 -5  SXX         1    4    1    1
 -5  SYY         1    4    2    2
 -5  SZZ         1    4    3    3
 -5  SXY         1    4    1    2
 -5  SYZ         1    4    2    3
 -5  SZX         1    4    3    1
 -1         1-7.77880E-05-7.77880E-05 9.25638E-21 2.65489E-22 2.67961E-21 2.01570E-22
 -1         2-3.88940E-05-3.88940E-05-1.72727E-20 2.07898E-21-6.33742E-22 5.62999E-21
 -1         3-3.88940E-05-3.88940E-05 7.72039E-14 1.26289E-13-2.56434E-20 5.66556E-14
 -1         4-3.88940E-05-3.88940E-05 3.04655E-14 1.02867E-13-1.14808E-20 1.46334E-13
 -1         5-3.88940E-05-3.88940E-05-1.14438E-13-6.54469E-14-5.38912E-19 2.39540E-13
 -1         6-7.77880E-05-7.77880E-05-1.62481E-13 5.21016E-13-6.81996E-19 7.37781E-14
 -1         7-3.88940E-05-3.88940E-05-1.24006E-21-4.79007E-21-2.52754E-21-3.78566E-22
 -1         8-2.59293E-05-2.59293E-05 3.08546E-21-2.08694E-21-4.00339E-22 1.67686E-21
 -1         9-2.59293E-05-2.59293E-05 9.55394E-14 1.35083E-13 1.12075E-14 1.28118E-14
 -1        10-2.59293E-05-2.59293E-05 1.35597E-13-1.21148E-14-1.48547E-14-2.28995E-14
 -1        11-2.59293E-05-2.59293E-05 1.64999E-13-6.34658E-14-3.98617E-14-3.86584E-13
 -1        12-3.88940E-05-3.88940E-05 1.28630E-13 2.35908E-13 5.72097E-14 1.92153E-13
 -1        13-3.88940E-05-3.88940E-05-4.83447E-17-1.33072E-13 2.22973E-13 8.48440E-20
 -1        14-2.59293E-05-2.59293E-05 2.16647E-13-9.41380E-14-1.26341E-14-4.42096E-15
 -1        15-2.59293E-05-2.59293E-05-6.93611E-15 1.70562E-14 3.88792E-15-1.12319E-13
 -1        16-2.59293E-05-2.59293E-05 8.58912E-14 1.01008E-14 8.75985E-14 4.45193E-14
 -1        17-2.59293E-05-2.59293E-05 1.89715E-13 2.19174E-13 1.38302E-13 7.64560E-14
 -1        18-3.88940E-05-3.88940E-05-2.00098E-13 2.19614E-13-2.17793E-13 1.01767E-13
 -1        19-3.88940E-05-3.88940E-05 2.57138E-14 1.56996E-13-7.04506E-14 5.49211E-20
 -1        20-2.59293E-05-2.59293E-05 2.04429E-13 9.92403E-14-1.10092E-13 1.88290E-15
 -1        21-2.59293E-05-2.59293E-05 1.70204E-13 6.13470E-15 1.15133E-14 9.91590E-14
 -1        22-2.59293E-05-2.59293E-05 1.84523E-13 4.61690E-14-1.90451E-14-7.82827E-14
 -1        23-2.59293E-05-2.59293E-05-6.36325E-14 1.24733E-13-6.14429E-14-2.26154E-13
 -1        24-3.88940E-05-3.88940E-05-5.70777E-13-2.03986E-13 1.94863E-13 2.83412E-13
 -1        25-3.88940E-05-3.88940E-05 2.64666E-13 2.52063E-13-3.07311E-13 3.81355E-19
 -1        26-2.59293E-05-2.59293E-05-2.74484E-14 1.36516E-13-3.79954E-14 2.68097E-14
 -1        27-2.59293E-05-2.59293E-05-2.96650E-14 1.06497E-13-2.36123E-13 4.33663E-14
 -1        28-2.59293E-05-2.59293E-05 1.35275E-13 5.68474E-14-1.01926E-13-6.46603E-15
 -1        29-2.59293E-05-2.59293E-05-2.02697E-13 1.26186E-13-3.10775E-13 5.54123E-14
 -1        30-3.88940E-05-3.88940E-05-2.40494E-13 2.15551E-13 2.15460E-13 1.83309E-14
 -1        31-7.77880E-05-7.77879E-05 1.42135E-12-1.35088E-13-6.43464E-13-5.47930E-19
 -1        32-3.88940E-05-3.88940E-05 2.68738E-14-1.14833E-13 3.74932E-13 6.57047E-15
 -1        33-3.88940E-05-3.88940E-05 2.01400E-14 1.49711E-13-2.57427E-13 1.53477E-13
 -1        34-3.88940E-05-3.88940E-05 1.34109E-13 1.50873E-13 3.61368E-13 9.28073E-14
 -1        35-3.88940E-05-3.88940E-05 1.02794E-13 2.46681E-13-2.83606E-14-2.53050E-13
 -1        36-7.77880E-05-7.77880E-05 8.65661E-13 2.63831E-15-1.19820E-13-2.76302E-13
 -1        37-7.77880E-05-7.77880E-05-2.48011E-21 5.19579E-22 9.42163E-21 5.82713E-23
 -1        38-3.88940E-05-3.88940E-05 4.62819E-21-2.19091E-21 2.33174E-21 5.27177E-21
 -1        39-3.88940E-05-3.88940E-05 4.03883E-14-1.55179E-13-1.75142E-14 8.35413E-14
 -1        40-3.88940E-05-3.88940E-05-8.84460E-14 4.94907E-15 2.52156E-14-2.45868E-13
 -1        41-3.88940E-05-3.88940E-05-2.04460E-13-2.20787E-13 5.77536E-14-1.37594E-13
 -1        42-7.77880E-05-7.77880E-05 1.48882E-13-4.20671E-14-6.14469E-15-4.46654E-14
 -1        43-3.88940E-05-3.88940E-05 3.32308E-22-4.36240E-21 2.98246E-21-1.71544E-21
 -1        44-2.59293E-05-2.59293E-05-8.26704E-22-3.82907E-21 1.19456E-21 1.49860E-21
 -1        45-2.59293E-05-2.59293E-05-6.03578E-14-1.24307E-13-4.68629E-16 7.31867E-14
 -1        46-2.59293E-05-2.59293E-05-7.50309E-14 1.77024E-14 1.95576E-15 2.35108E-14
 -1        47-2.59293E-05-2.59293E-05-7.89111E-14-1.93618E-14-1.35892E-15 6.75548E-14
 -1        48-3.88940E-05-3.88940E-05 8.46938E-15-9.71481E-14 5.41377E-14 1.21982E-13
 -1        49-3.88940E-05-3.88940E-05-2.28698E-13 3.56558E-14-4.18825E-14 6.58565E-15
 -1        50-2.59293E-05-2.59293E-05-1.19680E-13 2.71724E-14 9.42264E-14-3.05811E-17
 -1        51-2.59293E-05-2.59293E-05 1.46079E-13 4.86970E-14 2.42166E-14-3.69470E-15
 -1        52-2.59293E-05-2.59293E-05 2.25771E-13-1.12677E-13 2.00502E-14 9.03275E-14
 -1        53-2.59293E-05-2.59293E-05 6.32430E-14-4.49859E-14-5.66387E-14 2.48049E-13
 -1        54-3.88940E-05-3.88940E-05 4.55933E-14 1.71932E-13 1.97152E-13-3.18819E-13
 -1        55-3.88940E-05-3.88940E-05-1.83078E-13-4.20666E-14-4.35807E-14-1.10501E-14
 -1        56-2.59293E-05-2.59293E-05-1.18660E-13-2.46425E-14 1.68286E-14-5.48388E-15
 -1        57-2.59293E-05-2.59293E-05-1.36518E-13 9.35220E-14 9.52038E-15-3.44280E-14
 -1        58-2.59293E-05-2.59293E-05-1.35335E-13-3.60300E-14-8.61642E-14-3.95927E-14
 -1        59-2.59293E-05-2.59293E-05 6.07555E-14-1.87275E-13-4.86203E-14-2.64630E-13
 -1        60-3.88940E-05-3.88940E-05-5.11755E-14-2.32436E-13 6.82937E-14 2.07499E-13
 -1        61-3.88940E-05-3.88940E-05 3.44637E-14 4.17816E-13 1.64606E-13 4.90283E-14
 -1        62-2.59293E-05-2.59293E-05-4.95631E-14 2.15617E-13-2.57537E-14 5.94950E-14
 -1        63-2.59293E-05-2.59293E-05 2.81467E-13-9.91227E-14 9.73762E-14 7.22007E-15
 -1        64-2.59293E-05-2.59293E-05-4.06447E-13 1.73116E-13-2.69502E-14-3.32261E-14
 -1        65-2.59293E-05-2.59293E-05-1.67689E-14-2.51911E-13 8.28348E-14 1.01126E-13
 -1        66-3.88940E-05-3.88940E-05 4.94017E-13 3.22517E-13 5.38281E-14-6.17953E-14
 -1        67-7.77880E-05-7.77880E-05 8.19643E-13-2.23914E-13 6.93919E-13-2.04315E-13
 -1        68-3.88940E-05-3.88940E-05-7.69494E-14-2.06347E-13-9.24578E-14-9.55867E-14
 -1        69-3.88940E-05-3.88940E-05 1.27637E-12-4.11466E-13 2.00584E-13-2.58482E-13
 -1        70-3.88940E-05-3.88940E-05 3.84074E-13-2.23233E-13-1.14427E-13-1.23064E-13
 -1        71-3.88940E-05-3.88940E-05-1.08441E-13-2.24309E-13 3.08619E-13-1.88156E-13
 -1        72-7.77880E-05-7.77880E-05 3.98889E-13-5.01155E-13-5.40439E-13 4.66129E-13
 -3
    1PSTEP                       165          55           1          
  100CL  155 4.53781E-01          72                     0   55           1
 -4  TOSTRAIN    6    1
 -5  EXX         1    4    1    1
 -5  EYY         1    4    2    2
 -5  EZZ         1    4    3    3
 -5  EXY         1    4    1    2
 -5  EYZ         1    4    2    3
 -5  EZX         1    4    3    1
 -1         1-2.59293E-10-2.59293E-10 2.22251E-10 1.64351E-27 1.65881E-26 1.24781E-27
 -1         2-1.29647E-10-1.29647E-10 1.11126E-10 1.28699E-26-3.92316E-27 3.48523E-26
 -1         3-1.29647E-10-1.29647E-10 1.11126E-10 7.81791E-19-1.58745E-25 3.50725E-19
 -1         4-1.29647E-10-1.29647E-10 1.11126E-10 6.36796E-19-7.10715E-26 9.05876E-19
 -1         5-1.29647E-10-1.29647E-10 1.11126E-10-4.05148E-19-3.33612E-24 1.48287E-18
 -1         6-2.59293E-10-2.59293E-10 2.22251E-10 3.22534E-18-4.22188E-24 4.56721E-19
 -1         7-1.29647E-10-1.29647E-10 1.11126E-10-2.96528E-26-1.56467E-26-2.34351E-27
 -1         8-8.64311E-11-8.64311E-11 7.40838E-11-1.29191E-26-2.47829E-27 1.03806E-26
 -1         9-8.64311E-11-8.64311E-11 7.40838E-11 8.36228E-19 6.93798E-20 7.93113E-20
 -1        10-8.64311E-11-8.64311E-11 7.40838E-11-7.49967E-20-9.19575E-20-1.41759E-19
 -1        11-8.64311E-11-8.64311E-11 7.40838E-11-3.92884E-19-2.46763E-19-2.39314E-18
 -1        12-1.29647E-10-1.29647E-10 1.11126E-10 1.46038E-18 3.54156E-19 1.18952E-18
 -1        13-1.29647E-10-1.29647E-10 1.11126E-10-8.23777E-19 1.38031E-18 5.25225E-25
 -1        14-8.64311E-11-8.64311E-11 7.40838E-11-5.82759E-19-7.82109E-20-2.73679E-20
 -1        15-8.64311E-11-8.64311E-11 7.40838E-11 1.05586E-19 2.40681E-20-6.95306E-19
 -1        16-8.64311E-11-8.64311E-11 7.40838E-11 6.25288E-20 5.42277E-19 2.75596E-19
 -1        17-8.64311E-11-8.64311E-11 7.40838E-11 1.35679E-18 8.56156E-19 4.73299E-19
 -1        18-1.29647E-10-1.29647E-10 1.11126E-10 1.35952E-18-1.34824E-18 6.29986E-19
 -1        19-1.29647E-10-1.29647E-10 1.11126E-10 9.71879E-19-4.36123E-19 3.39988E-25
 -1        20-8.64311E-11-8.64311E-11 7.40838E-11 6.14345E-19-6.81522E-19 1.16561E-20
 -1        21-8.64311E-11-8.64311E-11 7.40838E-11 3.79767E-20 7.12728E-20 6.13841E-19
 -1        22-8.64311E-11-8.64311E-11 7.40838E-11 2.85808E-19-1.17898E-19-4.84607E-19
 -1        23-8.64311E-11-8.64311E-11 7.40838E-11 7.72157E-19-3.80361E-19-1.40000E-18
 -1        24-1.29647E-10-1.29647E-10 1.11126E-10-1.26277E-18 1.20629E-18 1.75445E-18
 -1        25-1.29647E-10-1.29647E-10 1.11126E-10 1.56039E-18-1.90240E-18 2.36077E-24
 -1        26-8.64311E-11-8.64311E-11 7.40838E-11 8.45101E-19-2.35210E-19 1.65965E-19
 -1        27-8.64311E-11-8.64311E-11 7.40838E-11 6.59266E-19-1.46171E-18 2.68458E-19
 -1        28-8.64311E-11-8.64311E-11 7.40838E-11 3.51912E-19-6.30970E-19-4.00278E-20
 -1        29-8.64311E-11-8.64311E-11 7.40838E-11 7.81149E-19-1.92385E-18 3.43029E-19
 -1        30-1.29647E-10-1.29647E-10 1.11126E-10 1.33436E-18 1.33380E-18 1.13477E-19
 -1        31-2.59293E-10-2.59293E-10 2.22251E-10-8.36260E-19-3.98335E-18-3.39195E-24
 -1        32-1.29647E-10-1.29647E-10 1.11126E-10-7.10870E-19 2.32101E-18 4.06743E-20
 -1        33-1.29647E-10-1.29647E-10 1.11126E-10 9.26781E-19-1.59359E-18 9.50094E-19
 -1        34-1.29647E-10-1.29647E-10 1.11126E-10 9.33976E-19 2.23704E-18 5.74522E-19
 -1        35-1.29647E-10-1.29647E-10 1.11126E-10 1.52707E-18-1.75565E-19-1.56650E-18
 -1        36-2.59293E-10-2.59293E-10 2.22251E-10 1.63324E-20-7.41746E-19-1.71044E-18
 -1        37-2.59293E-10-2.59293E-10 2.22251E-10 3.21644E-27 5.83244E-26 3.60727E-28
 -1        38-1.29647E-10-1.29647E-10 1.11126E-10-1.35628E-26 1.44346E-26 3.26348E-26
 -1        39-1.29647E-10-1.29647E-10 1.11126E-10-9.60635E-19-1.08421E-19 5.17160E-19
 -1        40-1.29647E-10-1.29647E-10 1.11126E-10 3.06371E-20 1.56097E-19-1.52204E-18
 -1        41-1.29647E-10-1.29647E-10 1.11126E-10-1.36678E-18 3.57522E-19-8.51774E-19
 -1        42-2.59293E-10-2.59293E-10 2.22251E-10-2.60416E-19-3.80385E-20-2.76500E-19
 -1        43-1.29647E-10-1.29647E-10 1.11126E-10-2.70053E-26 1.84629E-26-1.06194E-26
 -1        44-8.64311E-11-8.64311E-11 7.40838E-11-2.37038E-26 7.39491E-27 9.27708E-27
 -1        45-8.64311E-11-8.64311E-11 7.40838E-11-7.69520E-19-2.90104E-21 4.53060E-19
 -1        46-8.64311E-11-8.64311E-11 7.40838E-11 1.09586E-19 1.21071E-20 1.45543E-19
 -1        47-8.64311E-11-8.64311E-11 7.40838E-11-1.19859E-19-8.41236E-21 4.18196E-19
 -1        48-1.29647E-10-1.29647E-10 1.11126E-10-6.01393E-19 3.35138E-19 7.55125E-19
 -1        49-1.29647E-10-1.29647E-10 1.11126E-10 2.20727E-19-2.59273E-19 4.07683E-20
 -1        50-8.64311E-11-8.64311E-11 7.40838E-11 1.68210E-19 5.83307E-19-1.89312E-22
 -1        51-8.64311E-11-8.64311E-11 7.40838E-11 3.01457E-19 1.49912E-19-2.28720E-20
 -1        52-8.64311E-11-8.64311E-11 7.40838E-11-6.97527E-19 1.24120E-19 5.59170E-19
 -1        53-8.64311E-11-8.64311E-11 7.40838E-11-2.78484E-19-3.50621E-19 1.53554E-18
 -1        54-1.29647E-10-1.29647E-10 1.11126E-10 1.06434E-18 1.22046E-18-1.97364E-18
 -1        55-1.29647E-10-1.29647E-10 1.11126E-10-2.60412E-19-2.69785E-19-6.84055E-20
 -1        56-8.64311E-11-8.64311E-11 7.40838E-11-1.52549E-19 1.04177E-19-3.39478E-20
 -1        57-8.64311E-11-8.64311E-11 7.40838E-11 5.78946E-19 5.89357E-20-2.13126E-19
 -1        58-8.64311E-11-8.64311E-11 7.40838E-11-2.23043E-19-5.33397E-19-2.45098E-19
 -1        59-8.64311E-11-8.64311E-11 7.40838E-11-1.15932E-18-3.00983E-19-1.63819E-18
 -1        60-1.29647E-10-1.29647E-10 1.11126E-10-1.43889E-18 4.22770E-19 1.28452E-18
 -1        61-1.29647E-10-1.29647E-10 1.11126E-10 2.58648E-18 1.01899E-18 3.03509E-19
 -1        62-8.64311E-11-8.64311E-11 7.40838E-11 1.33477E-18-1.59427E-19 3.68302E-19
 -1        63-8.64311E-11-8.64311E-11 7.40838E-11-6.13616E-19 6.02805E-19 4.46957E-20
 -1        64-8.64311E-11-8.64311E-11 7.40838E-11 1.07167E-18-1.66835E-19-2.05686E-19
 -1        65-8.64311E-11-8.64311E-11 7.40838E-11-1.55945E-18 5.12787E-19 6.26019E-19
 -1        66-1.29647E-10-1.29647E-10 1.11126E-10 1.99653E-18 3.33222E-19-3.82542E-19
 -1        67-2.59293E-10-2.59293E-10 2.22251E-10-1.38613E-18 4.29569E-18-1.26481E-18
 -1        68-1.29647E-10-1.29647E-10 1.11126E-10-1.27738E-18-5.72358E-19-5.91727E-19
 -1        69-1.29647E-10-1.29647E-10 1.11126E-10-2.54717E-18 1.24171E-18-1.60012E-18
 -1        70-1.29647E-10-1.29647E-10 1.11126E-10-1.38192E-18-7.08360E-19-7.61827E-19
 -1        71-1.29647E-10-1.29647E-10 1.11126E-10-1.38858E-18 1.91050E-18-1.16477E-18
 -1        72-2.59293E-10-2.59293E-10 2.22251E-10-3.10239E-18-3.34558E-18 2.88556E-18
 -3
    1PSTEP                       166          56           1          
  100CL  156 4.62781E-01          72                     0   56           1
 -4  DISP        4    1
 -5  D1          1    2    1    0
 -5  D2          1    2    2    0
 -5  D3          1    2    3    0
 -5  ALL         1    2    0    0    1ALL
 -1         1 0.00000E+00 0.00000E+00 0.00000E+00
 -1         2-1.32223E-07 0.00000E+00 0.00000E+00
 -1         3-6.94172E+00 0.00000E+00 0.00000E+00
 -1         4-6.94172E+00 0.00000E+00 0.00000E+00
 -1         5-1.38834E+01 0.00000E+00 0.00000E+00
 -1         6-1.38834E+01 0.00000E+00 0.00000E+00
 -1         7 0.00000E+00-1.32223E-07 0.00000E+00
 -1         8-1.32223E-07-1.32223E-07 0.00000E+00
 -1         9-6.94172E+00-1.32223E-07 0.00000E+00
 -1        10-6.94172E+00-1.32223E-07 0.00000E+00
 -1        11-1.38834E+01-1.32223E-07 0.00000E+00
 -1        12-1.38834E+01-1.32223E-07 0.00000E+00
 -1        13 0.00000E+00-6.94172E+00 0.00000E+00
 -1        14-1.32223E-07-6.94172E+00 0.00000E+00
 -1        15-6.94172E+00-6.94172E+00 0.00000E+00
 -1        16-6.94172E+00-6.94172E+00 0.00000E+00
 -1        17-1.38834E+01-6.94172E+00 0.00000E+00
 -1        18-1.38834E+01-6.94172E+00 0.00000E+00
 -1        19 0.00000E+00-6.94172E+00 0.00000E+00
 -1        20-1.32223E-07-6.94172E+00 0.00000E+00
 -1        21-6.94172E+00-6.94172E+00 0.00000E+00
 -1        22-6.94172E+00-6.94172E+00 0.00000E+00
 -1        23-1.38834E+01-6.94172E+00 0.00000E+00
 -1        24-1.38834E+01-6.94172E+00 0.00000E+00
 -1        25 0.00000E+00-1.38834E+01 0.00000E+00
 -1        26-1.32223E-07-1.38834E+01 0.00000E+00
 -1        27-6.94172E+00-1.38834E+01 0.00000E+00
 -1        28-6.94172E+00-1.38834E+01 0.00000E+00
 -1        29-1.38834E+01-1.38834E+01 0.00000E+00
 -1        30-1.38834E+01-1.38834E+01 0.00000E+00
 -1        31 0.00000E+00-1.38834E+01 0.00000E+00
 -1        32-1.32223E-07-1.38834E+01 0.00000E+00
 -1        33-6.94172E+00-1.38834E+01 0.00000E+00
 -1        34-6.94172E+00-1.38834E+01 0.00000E+00
 -1        35-1.38834E+01-1.38834E+01 0.00000E+00
 -1        36-1.38834E+01-1.38834E+01 0.00000E+00
 -1        37 0.00000E+00 0.00000E+00 1.58668E-07
 -1        38-1.32223E-07 0.00000E+00 1.58668E-07
 -1        39-6.94172E+00 0.00000E+00 1.58668E-07
 -1        40-6.94172E+00 0.00000E+00 1.58668E-07
 -1        41-1.38834E+01 0.00000E+00 1.58668E-07
 -1        42-1.38834E+01 0.00000E+00 1.58668E-07
 -1        43 0.00000E+00-1.32223E-07 1.58668E-07
 -1        44-1.32223E-07-1.32223E-07 1.58668E-07
 -1        45-6.94172E+00-1.32223E-07 1.58668E-07
 -1        46-6.94172E+00-1.32223E-07 1.58668E-07
 -1        47-1.38834E+01-1.32223E-07 1.58668E-07
 -1        48-1.38834E+01-1.32223E-07 1.58668E-07
 -1        49 0.00000E+00-6.94172E+00 1.58668E-07
 -1        50-1.32223E-07-6.94172E+00 1.58668E-07
 -1        51-6.94172E+00-6.94172E+00 1.58668E-07
 -1        52-6.94172E+00-6.94172E+00 1.58668E-07
 -1        53-1.38834E+01-6.94172E+00 1.58668E-07
 -1        54-1.38834E+01-6.94172E+00 1.58668E-07
 -1        55 0.00000E+00-6.94172E+00 1.58668E-07
 -1        56-1.32223E-07-6.94172E+00 1.58668E-07
 -1        57-6.94172E+00-6.94172E+00 1.58668E-07
 -1        58-6.94172E+00-6.94172E+00 1.58668E-07
 -1        59-1.38834E+01-6.94172E+00 1.58668E-07
 -1        60-1.38834E+01-6.94172E+00 1.58668E-07
 -1        61 0.00000E+00-1.38834E+01 1.58668E-07
 -1        62-1.32223E-07-1.38834E+01 1.58668E-07
 -1        63-6.94172E+00-1.38834E+01 1.58668E-07
 -1        64-6.94172E+00-1.38834E+01 1.58668E-07
 -1        65-1.38834E+01-1.38834E+01 1.58668E-07
 -1        66-1.38834E+01-1.38834E+01 1.58668E-07
 -1        67 0.00000E+00-1.38834E+01 1.58668E-07
 -1        68-1.32223E-07-1.38834E+01 1.58668E-07
 -1        69-6.94172E+00-1.38834E+01 1.58668E-07
 -1        70-6.94172E+00-1.38834E+01 1.58668E-07
 -1        71-1.38834E+01-1.38834E+01 1.58668E-07
 -1        72-1.38834E+01-1.38834E+01 1.58668E-07
 -3
    1PSTEP                       167          56           1          
  100CL  156 4.62781E-01          72                     0   56           1
 -4  STRESS      6    1
 -5  SXX         1    4    1    1
 -5  SYY         1    4    2    2
 -5  SZZ         1    4    3    3
 -5  SXY         1    4    1    2
 -5  SYZ         1    4    2    3
 -5  SZX         1    4    3    1
 -1         1-7.93307E-05-7.93307E-05-4.29615E-21 1.23453E-22 1.20662E-21 1.87923E-21
 -1         2-3.96654E-05-3.96654E-05-8.01632E-21 4.66988E-21 9.74342E-23-6.37322E-22
 -1         3-3.96654E-05-3.96654E-05-4.99311E-14 4.33127E-14 9.85000E-21 3.86750E-14
 -1         4-3.96654E-05-3.96654E-05 2.76388E-14-4.03060E-14-9.00292E-20-1.60605E-13
 -1         5-3.96654E-05-3.96654E-05 9.04671E-15 5.43734E-14 9.73866E-20 2.39299E-13
 -1         6-7.93307E-05-7.93307E-05 3.23714E-13 4.69896E-14-3.06253E-19 1.64402E-13
 -1         7-3.96654E-05-3.96654E-05 8.01632E-21 5.22240E-21-2.38948E-21-2.84259E-22
 -1         8-2.64436E-05-2.64436E-05 1.99448E-20 6.55370E-21-4.55875E-21 1.23847E-21
 -1         9-2.64436E-05-2.64436E-05 6.44755E-14-4.84927E-15-1.74570E-14 1.22558E-13
 -1        10-2.64436E-05-2.64436E-05-5.50848E-15 2.57155E-14 1.23772E-14 1.05950E-13
 -1        11-2.64436E-05-2.64436E-05 7.57827E-14 3.02256E-14-2.59823E-14-8.48236E-16
 -1        12-3.96654E-05-3.96654E-05-2.65471E-14-4.95848E-14 8.34065E-15 9.90143E-15
 -1        13-3.96654E-05-3.96654E-05 9.78622E-14 1.75140E-14 8.92089E-14-7.06938E-20
 -1        14-2.64436E-05-2.64436E-05-3.24788E-14 2.30711E-14 1.21381E-13 1.09043E-14
 -1        15-2.64436E-05-2.64436E-05 2.85642E-13 2.40200E-14-8.03955E-14-5.31048E-14
 -1        16-2.64436E-05-2.64436E-05 1.48233E-13-7.69500E-14 8.20122E-14-4.57453E-14
 -1        17-2.64436E-05-2.64436E-05-4.19215E-13-1.32548E-13-6.88363E-15-1.42974E-13
 -1        18-3.96654E-05-3.96654E-05 9.92000E-14 1.95784E-13-5.13810E-14 3.63800E-13
 -1        19-3.96654E-05-3.96654E-05 4.25058E-14 2.56427E-14-5.05728E-14-5.90805E-20
 -1        20-2.64436E-05-2.64436E-05 4.80607E-14 2.84902E-14 3.38303E-14-2.99591E-15
 -1        21-2.64436E-05-2.64436E-05-3.47410E-14-1.67414E-14 1.38739E-14 2.40048E-15
 -1        22-2.64436E-05-2.64436E-05-1.19949E-13-2.14267E-13-9.59263E-14 5.64055E-14
 -1        23-2.64436E-05-2.64436E-05 3.14280E-14-2.66115E-13-7.11144E-14 2.25878E-13
 -1        24-3.96654E-05-3.96654E-05-1.43902E-13-1.07073E-13 2.88960E-13-4.19474E-13
 -1        25-3.96654E-05-3.96654E-05 1.39549E-13 9.73064E-21-1.11681E-13 1.08882E-19
 -1        26-2.64436E-05-2.64436E-05 3.63631E-14 4.04174E-15-1.47352E-13 7.58829E-15
 -1        27-2.64436E-05-2.64436E-05 1.77695E-13 1.64305E-13-1.91401E-13 1.60789E-14
 -1        28-2.64436E-05-2.64436E-05 2.73956E-13-1.87801E-14-4.24011E-14-1.48667E-14
 -1        29-2.64436E-05-2.64436E-05-2.74847E-13-1.35132E-13-3.97393E-13-2.92737E-13
 -1        30-3.96654E-05-3.96654E-05 9.74046E-14 7.72106E-14 3.16306E-13 3.29803E-13
 -1        31-7.93307E-05-7.93307E-05-1.29333E-13 1.94613E-20 2.93817E-13 3.97440E-19
 -1        32-3.96654E-05-3.96654E-05-6.70241E-14 6.06261E-15 4.29684E-14 3.55908E-15
 -1        33-3.96654E-05-3.96654E-05-1.09709E-14-9.39941E-14 2.21857E-13 1.30045E-13
 -1        34-3.96654E-05-3.96654E-05-5.88002E-13-2.98137E-13 5.03527E-14-6.21680E-15
 -1        35-3.96654E-05-3.96654E-05 3.72405E-13-1.89163E-13 3.73656E-13 2.13815E-13
 -1        36-7.93307E-05-7.93307E-05-1.73175E-13 5.34003E-14-6.17996E-13 2.53901E-13
 -1        37-7.93307E-05-7.93307E-05 1.15088E-21-1.13213E-21 6.89101E-21 6.20157E-21
 -1        38-3.96654E-05-3.96654E-05 2.14780E-21 7.36953E-21-8.07408E-22 1.52385E-21
 -1        39-3.96654E-05-3.96654E-05 1.17092E-13-1.58126E-13 4.26568E-14-1.98275E-14
 -1        40-3.96654E-05-3.96654E-05 2.88640E-13 1.37292E-13-3.03616E-14 2.70509E-13
 -1        41-3.96654E-05-3.96654E-05 2.49003E-14-6.49330E-14 7.55759E-14-1.69485E-13
 -1        42-7.93307E-05-7.93307E-05 5.54141E-13 3.63326E-13-8.32737E-14-2.76453E-14
 -1        43-3.96654E-05-3.96654E-05-2.14808E-21-5.38772E-21 4.73069E-21-8.63336E-22
 -1        44-2.64436E-05-2.64436E-05-5.34421E-21 1.69858E-21-5.92615E-21 8.52423E-22
 -1        45-2.64436E-05-2.64436E-05-1.65695E-13-4.60909E-14 1.09808E-14 1.59880E-13
 -1        46-2.64436E-05-2.64436E-05-1.73027E-13-5.51080E-15-7.86383E-15-1.21841E-13
 -1        47-2.64436E-05-2.64436E-05-1.50085E-13 3.97206E-14 2.44016E-14 2.16027E-13
 -1        48-3.96654E-05-3.96654E-05-2.65988E-13-7.63805E-14-3.32960E-14-1.48306E-13
 -1        49-3.96654E-05-3.96654E-05-3.76940E-13-9.56975E-14 1.03937E-13-1.42306E-14
 -1        50-2.64436E-05-2.64436E-05 1.08836E-13-7.18636E-14-1.66583E-13 1.41733E-15
 -1        51-2.64436E-05-2.64436E-05-1.88048E-13-1.25790E-13-1.38002E-14 5.43346E-14
 -1        52-2.64436E-05-2.64436E-05-9.73478E-14 9.70155E-14 8.36300E-14-1.41232E-13
 -1        53-2.64436E-05-2.64436E-05 1.25648E-13 2.46789E-14 1.54866E-14 1.72333E-13
 -1        54-3.96654E-05-3.96654E-05-1.67305E-13-1.24017E-14-1.24726E-13-3.02762E-13
 -1        55-3.96654E-05-3.96654E-05-3.60696E-13 1.75139E-14-3.39572E-14 1.00810E-14
 -1        56-2.64436E-05-2.64436E-05-1.26905E-13 3.61070E-15-1.01986E-14 3.72482E-15
 -1        57-2.64436E-05-2.64436E-05 7.43323E-14-1.75538E-13 1.05996E-13-1.72094E-14
 -1        58-2.64436E-05-2.64436E-05 1.94482E-13 1.17552E-13-1.06700E-13 6.89622E-14
 -1        59-2.64436E-05-2.64436E-05-4.11589E-14 2.51862E-13-5.97328E-14-3.00667E-13
 -1        60-3.96654E-05-3.96654E-05 6.25988E-14 8.93610E-14 2.84993E-14 4.95050E-13
 -1        61-3.96654E-05-3.96654E-05-4.35408E-14-2.95664E-20 1.16902E-13-3.31091E-14
 -1        62-2.64436E-05-2.64436E-05-6.88430E-15-3.26016E-15-4.81318E-14-1.44845E-14
 -1        63-2.64436E-05-2.64436E-05 1.63416E-13-4.10832E-15 1.82544E-14-6.24731E-14
 -1        64-2.64436E-05-2.64436E-05-2.26076E-13 6.12051E-14 1.38774E-13 6.12298E-14
 -1        65-2.64436E-05-2.64436E-05-2.93536E-13 2.63341E-15 2.44426E-13-5.45998E-14
 -1        66-3.96654E-05-3.96654E-05-1.96945E-13 1.67272E-13-1.45100E-13 8.08071E-14
 -1        67-7.93307E-05-7.93307E-05-5.28370E-13-5.91328E-20-1.57676E-13-1.01064E-16
 -1        68-3.96654E-05-3.96654E-05-1.48325E-13-4.89024E-15 1.46986E-13 3.50836E-15
 -1        69-3.96654E-05-3.96654E-05 2.04430E-13-2.36723E-13-3.15289E-15-2.08889E-14
 -1        70-3.96654E-05-3.96654E-05-7.74394E-14-9.10196E-14-3.99386E-13-1.52687E-13
 -1        71-3.96654E-05-3.96654E-05-1.97787E-13 8.47932E-14-9.09340E-15-8.75663E-14
 -1        72-7.93307E-05-7.93307E-05-7.16189E-14-2.68885E-13 5.45924E-13-4.23722E-13
 -3
    1PSTEP                       168          56           1          
  100CL  156 4.62781E-01          72                     0   56           1
 -4  TOSTRAIN    6    1
 -5  EXX         1    4    1    1
 -5  EYY         1    4    2    2
 -5  EZZ         1    4    3    3
 -5  EXY         1    4    1    2
 -5  EYZ         1    4    2    3
 -5  EZX         1    4    3    1
 -1         1-2.64436E-10-2.64436E-10 2.26659E-10 7.64235E-28 7.46957E-27 1.16333E-26
 -1         2-1.32218E-10-1.32218E-10 1.13330E-10 2.89088E-26 6.03164E-28-3.94533E-27
 -1         3-1.32218E-10-1.32218E-10 1.13330E-10 2.68126E-19 6.09762E-26 2.39417E-19
 -1         4-1.32218E-10-1.32218E-10 1.13330E-10-2.49513E-19-5.57324E-25-9.94221E-19
 -1         5-1.32218E-10-1.32218E-10 1.13330E-10 3.36597E-19 6.02869E-25 1.48138E-18
 -1         6-2.64436E-10-2.64436E-10 2.26659E-10 2.90888E-19-1.89585E-24 1.01772E-18
 -1         7-1.32218E-10-1.32218E-10 1.13330E-10 3.23292E-26-1.47920E-26-1.75970E-27
 -1         8-8.81453E-11-8.81453E-11 7.55531E-11 4.05705E-26-2.82208E-26 7.66675E-27
 -1         9-8.81453E-11-8.81453E-11 7.55531E-11-3.00193E-20-1.08067E-19 7.58692E-19
 -1        10-8.81453E-11-8.81453E-11 7.55531E-11 1.59191E-19 7.66208E-20 6.55881E-19
 -1        11-8.81453E-11-8.81453E-11 7.55531E-11 1.87111E-19-1.60843E-19-5.25098E-21
 -1        12-1.32218E-10-1.32218E-10 1.13330E-10-3.06954E-19 5.16326E-20 6.12946E-20
 -1        13-1.32218E-10-1.32218E-10 1.13330E-10 1.08420E-19 5.52246E-19-4.37628E-25
 -1        14-8.81453E-11-8.81453E-11 7.55531E-11 1.42821E-19 7.51407E-19 6.75030E-20
 -1        15-8.81453E-11-8.81453E-11 7.55531E-11 1.48695E-19-4.97686E-19-3.28744E-19
 -1        16-8.81453E-11-8.81453E-11 7.55531E-11-4.76357E-19 5.07695E-19-2.83185E-19
 -1        17-8.81453E-11-8.81453E-11 7.55531E-11-8.20536E-19-4.26129E-20-8.85078E-19
 -1        18-1.32218E-10-1.32218E-10 1.13330E-10 1.21199E-18-3.18073E-19 2.25210E-18
 -1        19-1.32218E-10-1.32218E-10 1.13330E-10 1.58740E-19-3.13070E-19-3.65736E-25
 -1        20-8.81453E-11-8.81453E-11 7.55531E-11 1.76368E-19 2.09425E-19-1.85461E-20
 -1        21-8.81453E-11-8.81453E-11 7.55531E-11-1.03637E-19 8.58858E-20 1.48601E-20
 -1        22-8.81453E-11-8.81453E-11 7.55531E-11-1.32641E-18-5.93829E-19 3.49177E-19
 -1        23-8.81453E-11-8.81453E-11 7.55531E-11-1.64738E-18-4.40232E-19 1.39829E-18
 -1        24-1.32218E-10-1.32218E-10 1.13330E-10-6.62836E-19 1.78880E-18-2.59674E-18
 -1        25-1.32218E-10-1.32218E-10 1.13330E-10 6.02373E-26-6.91361E-19 6.74034E-25
 -1        26-8.81453E-11-8.81453E-11 7.55531E-11 2.50203E-20-9.12182E-19 4.69751E-20
 -1        27-8.81453E-11-8.81453E-11 7.55531E-11 1.01713E-18-1.18487E-18 9.95359E-20
 -1        28-8.81453E-11-8.81453E-11 7.55531E-11-1.16258E-19-2.62483E-19-9.20318E-20
 -1        29-8.81453E-11-8.81453E-11 7.55531E-11-8.36528E-19-2.46005E-18-1.81218E-18
 -1        30-1.32218E-10-1.32218E-10 1.13330E-10 4.77971E-19 1.95809E-18 2.04164E-18
 -1        31-2.64436E-10-2.64436E-10 2.26659E-10 1.20475E-25 1.81886E-18 2.46034E-24
 -1        32-1.32218E-10-1.32218E-10 1.13330E-10 3.75304E-20 2.65995E-19 2.20324E-20
 -1        33-1.32218E-10-1.32218E-10 1.13330E-10-5.81869E-19 1.37340E-18 8.05040E-19
 -1        34-1.32218E-10-1.32218E-10 1.13330E-10-1.84561E-18 3.11707E-19-3.84850E-20
 -1        35-1.32218E-10-1.32218E-10 1.13330E-10-1.17101E-18 2.31311E-18 1.32362E-18
 -1        36-2.64436E-10-2.64436E-10 2.26659E-10 3.30573E-19-3.82569E-18 1.57177E-18
 -1        37-2.64436E-10-2.64436E-10 2.26659E-10-7.00842E-27 4.26586E-26 3.83907E-26
 -1        38-1.32218E-10-1.32218E-10 1.13330E-10 4.56209E-26-4.99824E-27 9.43335E-27
 -1        39-1.32218E-10-1.32218E-10 1.13330E-10-9.78877E-19 2.64066E-19-1.22742E-19
 -1        40-1.32218E-10-1.32218E-10 1.13330E-10 8.49906E-19-1.87953E-19 1.67458E-18
 -1        41-1.32218E-10-1.32218E-10 1.13330E-10-4.01966E-19 4.67851E-19-1.04919E-18
 -1        42-2.64436E-10-2.64436E-10 2.26659E-10 2.24916E-18-5.15504E-19-1.71137E-19
 -1        43-1.32218E-10-1.32218E-10 1.13330E-10-3.33526E-26 2.92852E-26-5.34446E-27
 -1        44-8.81453E-11-8.81453E-11 7.55531E-11 1.05150E-26-3.66857E-26 5.27691E-27
 -1        45-8.81453E-11-8.81453E-11 7.55531E-11-2.85325E-19 6.79766E-20 9.89731E-19
 -1        46-8.81453E-11-8.81453E-11 7.55531E-11-3.41145E-20-4.86808E-20-7.54253E-19
 -1        47-8.81453E-11-8.81453E-11 7.55531E-11 2.45889E-19 1.51058E-19 1.33731E-18
 -1        48-1.32218E-10-1.32218E-10 1.13330E-10-4.72832E-19-2.06118E-19-9.18084E-19
 -1        49-1.32218E-10-1.32218E-10 1.13330E-10-5.92413E-19 6.43418E-19-8.80940E-20
 -1        50-8.81453E-11-8.81453E-11 7.55531E-11-4.44870E-19-1.03122E-18 8.77397E-21
 -1        51-8.81453E-11-8.81453E-11 7.55531E-11-7.78702E-19-8.54299E-20 3.36357E-19
 -1        52-8.81453E-11-8.81453E-11 7.55531E-11 6.00572E-19 5.17710E-19-8.74293E-19
 -1        53-8.81453E-11-8.81453E-11 7.55531E-11 1.52774E-19 9.58697E-20 1.06682E-18
 -1        54-1.32218E-10-1.32218E-10 1.13330E-10-7.67724E-20-7.72115E-19-1.87424E-18
 -1        55-1.32218E-10-1.32218E-10 1.13330E-10 1.08420E-19-2.10211E-19 6.24064E-20
 -1        56-8.81453E-11-8.81453E-11 7.55531E-11 2.23520E-20-6.31344E-20 2.30584E-20
 -1        57-8.81453E-11-8.81453E-11 7.55531E-11-1.08666E-18 6.56165E-19-1.06534E-19
 -1        58-8.81453E-11-8.81453E-11 7.55531E-11 7.27705E-19-6.60523E-19 4.26909E-19
 -1        59-8.81453E-11-8.81453E-11 7.55531E-11 1.55915E-18-3.69775E-19-1.86127E-18
 -1        60-1.32218E-10-1.32218E-10 1.13330E-10 5.53187E-19 1.76424E-19 3.06460E-18
 -1        61-1.32218E-10-1.32218E-10 1.13330E-10-1.83030E-25 7.23679E-19-2.04961E-19
 -1        62-8.81453E-11-8.81453E-11 7.55531E-11-2.01819E-20-2.97958E-19-8.96659E-20
 -1        63-8.81453E-11-8.81453E-11 7.55531E-11-2.54325E-20 1.13003E-19-3.86738E-19
 -1        64-8.81453E-11-8.81453E-11 7.55531E-11 3.78889E-19 8.59075E-19 3.79042E-19
 -1        65-8.81453E-11-8.81453E-11 7.55531E-11 1.63021E-20 1.51311E-18-3.37999E-19
 -1        66-1.32218E-10-1.32218E-10 1.13330E-10 1.03549E-18-8.98236E-19 5.00235E-19
 -1        67-2.64436E-10-2.64436E-10 2.26659E-10-3.66060E-25-9.76092E-19-6.25636E-22
 -1        68-1.32218E-10-1.32218E-10 1.13330E-10-3.02729E-20 9.09913E-19 2.17184E-20
 -1        69-1.32218E-10-1.32218E-10 1.13330E-10-1.46543E-18-1.95179E-20-1.29312E-19
 -1        70-1.32218E-10-1.32218E-10 1.13330E-10-5.63454E-19-2.47239E-18-9.45205E-19
 -1        71-1.32218E-10-1.32218E-10 1.13330E-10 5.24910E-19-5.62925E-20-5.42077E-19
 -1        72-2.64436E-10-2.64436E-10 2.26659E-10-1.66452E-18 3.37953E-18-2.62304E-18
 -3
    1PSTEP                       169          57           1          
  100CL  157 4.71781E-01          72                     0   57           1
 -4  DISP        4    1
 -5  D1          1    2    1    0
 -5  D2          1    2    2    0
 -5  D3          1    2    3    0
 -5  ALL         1    2    0    0    1ALL
 -1         1 0.00000E+00 0.00000E+00 0.00000E+00
 -1         2-1.34795E-07 0.00000E+00 0.00000E+00
 -1         3-7.07672E+00 0.00000E+00 0.00000E+00
 -1         4-7.07672E+00 0.00000E+00 0.00000E+00
 -1         5-1.41534E+01 0.00000E+00 0.00000E+00
 -1         6-1.41534E+01 0.00000E+00 0.00000E+00
 -1         7 0.00000E+00-1.34795E-07 0.00000E+00
 -1         8-1.34795E-07-1.34795E-07 0.00000E+00
 -1         9-7.07672E+00-1.34795E-07 0.00000E+00
 -1        10-7.07672E+00-1.34795E-07 0.00000E+00
 -1        11-1.41534E+01-1.34795E-07 0.00000E+00
 -1        12-1.41534E+01-1.34795E-07 0.00000E+00
 -1        13 0.00000E+00-7.07672E+00 0.00000E+00
 -1        14-1.34795E-07-7.07672E+00 0.00000E+00
 -1        15-7.07672E+00-7.07672E+00 0.00000E+00
 -1        16-7.07672E+00-7.07672E+00 0.00000E+00
 -1        17-1.41534E+01-7.07672E+00 0.00000E+00
 -1        18-1.41534E+01-7.07672E+00 0.00000E+00
 -1        19 0.00000E+00-7.07672E+00 0.00000E+00
 -1        20-1.34795E-07-7.07672E+00 0.00000E+00
 -1        21-7.07672E+00-7.07672E+00 0.00000E+00
 -1        22-7.07672E+00-7.07672E+00 0.00000E+00
 -1        23-1.41534E+01-7.07672E+00 0.00000E+00
 -1        24-1.41534E+01-7.07672E+00 0.00000E+00
 -1        25 0.00000E+00-1.41534E+01 0.00000E+00
 -1        26-1.34795E-07-1.41534E+01 0.00000E+00
 -1        27-7.07672E+00-1.41534E+01 0.00000E+00
 -1        28-7.07672E+00-1.41534E+01 0.00000E+00
 -1        29-1.41534E+01-1.41534E+01 0.00000E+00
 -1        30-1.41534E+01-1.41534E+01 0.00000E+00
 -1        31 0.00000E+00-1.41534E+01 0.00000E+00
 -1        32-1.34795E-07-1.41534E+01 0.00000E+00
 -1        33-7.07672E+00-1.41534E+01 0.00000E+00
 -1        34-7.07672E+00-1.41534E+01 0.00000E+00
 -1        35-1.41534E+01-1.41534E+01 0.00000E+00
 -1        36-1.41534E+01-1.41534E+01 0.00000E+00
 -1        37 0.00000E+00 0.00000E+00 1.61754E-07
 -1        38-1.34795E-07 0.00000E+00 1.61754E-07
 -1        39-7.07672E+00 0.00000E+00 1.61754E-07
 -1        40-7.07672E+00 0.00000E+00 1.61754E-07
 -1        41-1.41534E+01 0.00000E+00 1.61754E-07
 -1        42-1.41534E+01 0.00000E+00 1.61754E-07
 -1        43 0.00000E+00-1.34795E-07 1.61754E-07
 -1        44-1.34795E-07-1.34795E-07 1.61754E-07
 -1        45-7.07672E+00-1.34795E-07 1.61754E-07
 -1        46-7.07672E+00-1.34795E-07 1.61754E-07
 -1        47-1.41534E+01-1.34795E-07 1.61754E-07
 -1        48-1.41534E+01-1.34795E-07 1.61754E-07
 -1        49 0.00000E+00-7.07672E+00 1.61754E-07
 -1        50-1.34795E-07-7.07672E+00 1.61754E-07
 -1        51-7.07672E+00-7.07672E+00 1.61754E-07
 -1        52-7.07672E+00-7.07672E+00 1.61754E-07
 -1        53-1.41534E+01-7.07672E+00 1.61754E-07
 -1        54-1.41534E+01-7.07672E+00 1.61754E-07
 -1        55 0.00000E+00-7.07672E+00 1.61754E-07
 -1        56-1.34795E-07-7.07672E+00 1.61754E-07
 -1        57-7.07672E+00-7.07672E+00 1.61754E-07
 -1        58-7.07672E+00-7.07672E+00 1.61754E-07
 -1        59-1.41534E+01-7.07672E+00 1.61754E-07
 -1        60-1.41534E+01-7.07672E+00 1.61754E-07
 -1        61 0.00000E+00-1.41534E+01 1.61754E-07
 -1        62-1.34795E-07-1.41534E+01 1.61754E-07
 -1        63-7.07672E+00-1.41534E+01 1.61754E-07
 -1        64-7.07672E+00-1.41534E+01 1.61754E-07
 -1        65-1.41534E+01-1.41534E+01 1.61754E-07
 -1        66-1.41534E+01-1.41534E+01 1.61754E-07
 -1        67 0.00000E+00-1.41534E+01 1.61754E-07
 -1        68-1.34795E-07-1.41534E+01 1.61754E-07
 -1        69-7.07672E+00-1.41534E+01 1.61754E-07
 -1        70-7.07672E+00-1.41534E+01 1.61754E-07
 -1        71-1.41534E+01-1.41534E+01 1.61754E-07
 -1        72-1.41534E+01-1.41534E+01 1.61754E-07
 -3
    1PSTEP                       170          57           1          
  100CL  157 4.71781E-01          72                     0   57           1
 -4  STRESS      6    1
 -5  SXX         1    4    1    1
 -5  SYY         1    4    2    2
 -5  SZZ         1    4    3    3
 -5  SXY         1    4    1    2
 -5  SYZ         1    4    2    3
 -5  SZX         1    4    3    1
 -1         1-8.08735E-05-8.08735E-05-6.11110E-21 8.55324E-22 3.94246E-21 1.51096E-22
 -1         2-4.04368E-05-4.04368E-05-3.66932E-20 6.42590E-21-4.87557E-22 6.06271E-21
 -1         3-4.04368E-05-4.04368E-05-4.47622E-14-8.81873E-14-2.42039E-20 1.95682E-14
 -1         4-4.04368E-05-4.04368E-05-5.01518E-14-2.38779E-15-1.22512E-19-1.17437E-13
 -1         5-4.04368E-05-4.04368E-05-2.03640E-13 5.30876E-14-1.17020E-19 2.53680E-13
 -1         6-8.08735E-05-8.08735E-05-4.54693E-13 8.91222E-14 6.69343E-20-5.23071E-13
 -1         7-4.04368E-05-4.04368E-05 1.14047E-20-8.43788E-21-7.41794E-21 5.29110E-22
 -1         8-2.69578E-05-2.69578E-05-9.86154E-21-1.62642E-21 4.59998E-21 4.29541E-22
 -1         9-2.69578E-05-2.69578E-05 5.19509E-14-7.32757E-14-3.50568E-15 3.25244E-14
 -1        10-2.69578E-05-2.69578E-05-1.06532E-14 1.89516E-14 1.24226E-15-1.08790E-14
 -1        11-2.69578E-05-2.69578E-05 1.09212E-13 6.72096E-14-9.99580E-15-7.54541E-14
 -1        12-4.04368E-05-4.04368E-05 1.71041E-13-1.89650E-13 1.54790E-14 8.49530E-14
 -1        13-4.04368E-05-4.04368E-05 1.85714E-13 1.28965E-13-2.39032E-15 7.25821E-20
 -1        14-2.69578E-05-2.69578E-05-3.87607E-14 8.96421E-14-5.57134E-14 5.02909E-15
 -1        15-2.69578E-05-2.69578E-05-1.07707E-13-6.03733E-14-8.71924E-14-1.21356E-13
 -1        16-2.69578E-05-2.69578E-05 2.26760E-15-7.30131E-14 9.35640E-14 1.35219E-13
 -1        17-2.69578E-05-2.69578E-05-2.10613E-13-1.46520E-13-1.42483E-13 2.16246E-14
 -1        18-4.04368E-05-4.04368E-05 1.81347E-13-8.52373E-15 1.07018E-14-1.24029E-13
 -1        19-4.04368E-05-4.04368E-05 1.45607E-13-6.48922E-14-5.66552E-14 3.99962E-20
 -1        20-2.69578E-05-2.69578E-05-5.32905E-14-3.95958E-14-3.39116E-14-6.28280E-15
 -1        21-2.69578E-05-2.69578E-05-1.58925E-13-4.79067E-16 1.14102E-13 9.76141E-14
 -1        22-2.69578E-05-2.69578E-05-2.08130E-13-1.39775E-14-8.34913E-14-3.64964E-14
 -1        23-2.69578E-05-2.69578E-05 1.95041E-13-1.65206E-14-5.89712E-14 3.17387E-13
 -1        24-4.04368E-05-4.04368E-05 1.74562E-13 4.80816E-14 1.76963E-13-5.34148E-14
 -1        25-4.04368E-05-4.04368E-05-4.36607E-14-1.82010E-13-4.73822E-13 2.44953E-19
 -1        26-2.69578E-05-2.69578E-05-1.05035E-13-1.14963E-13 1.56747E-13 4.48489E-14
 -1        27-2.69578E-05-2.69578E-05 9.42066E-14 1.88240E-14-4.61600E-13-1.76179E-14
 -1        28-2.69578E-05-2.69578E-05-1.88358E-13-8.12383E-15 5.63382E-14 7.93006E-14
 -1        29-2.69578E-05-2.69578E-05-1.70165E-13 1.21108E-13-4.17073E-14 9.32926E-14
 -1        30-4.04368E-05-4.04368E-05 1.28080E-13 4.98546E-13 1.12137E-13-1.57457E-13
 -1        31-8.08735E-05-8.08735E-05 5.53036E-13-3.25149E-14 1.40111E-12-5.68943E-19
 -1        32-4.04368E-05-4.04368E-05 2.35873E-14-6.69236E-15-1.73447E-13-2.66286E-14
 -1        33-4.04368E-05-4.04368E-05 6.13430E-14 2.11753E-14 7.10144E-13 3.03788E-13
 -1        34-4.04368E-05-4.04368E-05 2.79466E-14 7.04693E-14-1.04136E-13-4.71457E-14
 -1        35-4.04368E-05-4.04368E-05 5.65312E-13-3.24269E-13-1.97759E-13 2.28769E-13
 -1        36-8.08735E-05-8.08735E-05 4.47763E-13 6.73064E-14 3.92752E-13 9.26631E-13
 -1        37-8.08735E-05-8.08735E-05-1.78476E-20-2.16711E-21-1.79491E-21 4.45281E-21
 -1        38-4.04368E-05-4.04368E-05 5.53621E-21-1.54447E-21-6.73994E-21 8.21357E-21
 -1        39-4.04368E-05-4.04368E-05 5.29702E-14-1.35376E-13 2.37663E-14 5.99443E-14
 -1        40-4.04368E-05-4.04368E-05 6.25369E-14 1.73725E-13-1.16405E-14-3.79993E-14
 -1        41-4.04368E-05-4.04368E-05-3.97307E-14-2.68802E-13-3.97905E-15-4.74816E-13
 -1        42-8.08735E-05-8.08735E-05 1.10997E-15 1.95001E-13 1.67854E-14 5.50007E-13
 -1        43-4.04368E-05-4.04368E-05-7.35143E-21 4.73080E-21-1.73067E-21-7.49810E-21
 -1        44-2.69578E-05-2.69578E-05-1.37737E-20 2.84659E-21-1.09663E-21-4.92193E-21
 -1        45-2.69578E-05-2.69578E-05 2.51584E-14-9.80875E-14 1.23385E-14-1.39530E-13
 -1        46-2.69578E-05-2.69578E-05-2.74749E-14 1.43007E-13-6.51796E-15 9.94773E-15
 -1        47-2.69578E-05-2.69578E-05-2.54388E-13-1.31763E-13-1.26484E-14 2.29188E-13
 -1        48-4.04368E-05-4.04368E-05-3.10367E-13-2.22768E-14 2.38717E-14-2.63381E-13
 -1        49-4.04368E-05-4.04368E-05 1.89064E-13 8.67828E-14 1.51072E-14-6.09077E-15
 -1        50-2.69578E-05-2.69578E-05 2.87893E-15 4.56842E-14-2.93495E-14 9.68522E-16
 -1        51-2.69578E-05-2.69578E-05 1.78768E-13 2.11007E-13-1.06576E-13 3.12433E-14
 -1        52-2.69578E-05-2.69578E-05-1.53052E-13 1.53724E-13 1.56526E-13-6.54121E-15
 -1        53-2.69578E-05-2.69578E-05 1.03074E-13-1.19620E-13 1.10366E-13 1.26157E-13
 -1        54-4.04368E-05-4.04368E-05-4.11915E-15 5.10562E-14-1.49084E-13-7.75533E-14
 -1        55-4.04368E-05-4.04368E-05 1.13325E-13-1.51266E-14-4.41376E-14 1.23433E-15
 -1        56-2.69578E-05-2.69578E-05-3.54057E-14-2.22554E-14 8.77196E-14-5.45994E-15
 -1        57-2.69578E-05-2.69578E-05 7.98154E-14-4.52058E-14 1.23565E-13-1.13243E-13
 -1        58-2.69578E-05-2.69578E-05-4.33934E-13-5.78456E-14-1.28188E-13-1.01862E-13
 -1        59-2.69578E-05-2.69578E-05-7.41481E-15-1.16911E-13 8.54750E-14-2.74768E-13
 -1        60-4.04368E-05-4.04368E-05-4.77981E-13-1.74277E-13 2.45436E-15 1.53828E-13
 -1        61-4.04368E-05-4.04368E-05-4.24628E-13 2.26422E-13 1.68802E-13 8.63106E-15
 -1        62-2.69578E-05-2.69578E-05 1.40130E-13 6.96834E-14-2.62018E-13 5.06028E-14
 -1        63-2.69578E-05-2.69578E-05-3.00399E-13 1.35457E-13 6.35185E-14-7.33779E-14
 -1        64-2.69578E-05-2.69578E-05 3.08783E-14 1.68320E-13-6.38125E-14 3.41851E-14
 -1        65-2.69578E-05-2.69578E-05-4.55228E-13-8.37362E-14-6.37243E-14-3.56548E-14
 -1        66-4.04368E-05-4.04368E-05-4.08205E-13 1.53506E-13-3.65583E-13 7.59815E-14
 -1        67-8.08735E-05-8.08735E-05-6.03284E-13 3.64019E-13-8.47321E-13-9.39697E-14
 -1        68-4.04368E-05-4.04368E-05 1.94142E-13 6.01123E-14 5.71186E-13-7.36132E-14
 -1        69-4.04368E-05-4.04368E-05-3.58517E-13-4.10333E-13-2.77260E-13-2.43971E-13
 -1        70-4.04368E-05-4.04368E-05 4.60596E-13-3.85078E-13 1.24644E-13-3.29161E-14
 -1        71-4.04368E-05-4.04368E-05-2.86222E-13 6.62707E-14 1.46277E-13 2.84084E-13
 -1        72-8.08735E-05-8.08735E-05 3.01883E-13 1.35813E-13 6.00951E-13-6.57120E-13
 -3
    1PSTEP                       171          57           1          
  100CL  157 4.71781E-01          72                     0   57           1
 -4  TOSTRAIN    6    1
 -5  EXX         1    4    1    1
 -5  EYY         1    4    2    2
 -5  EZZ         1    4    3    3
 -5  EXY         1    4    1    2
 -5  EYZ         1    4    2    3
 -5  EZX         1    4    3    1
 -1         1-2.69578E-10-2.69578E-10 2.31067E-10 5.29486E-27 2.44057E-26 9.35359E-28
 -1         2-1.34789E-10-1.34789E-10 1.15534E-10 3.97794E-26-3.01821E-27 3.75311E-26
 -1         3-1.34789E-10-1.34789E-10 1.15534E-10-5.45921E-19-1.49834E-25 1.21136E-19
 -1         4-1.34789E-10-1.34789E-10 1.15534E-10-1.47815E-20-7.58408E-25-7.26993E-19
 -1         5-1.34789E-10-1.34789E-10 1.15534E-10 3.28638E-19-7.24410E-25 1.57040E-18
 -1         6-2.69578E-10-2.69578E-10 2.31067E-10 5.51709E-19 4.14355E-25-3.23806E-18
 -1         7-1.34789E-10-1.34789E-10 1.15534E-10-5.22345E-26-4.59206E-26 3.27544E-27
 -1         8-8.98595E-11-8.98595E-11 7.70224E-11-1.00683E-26 2.84761E-26 2.65906E-27
 -1         9-8.98595E-11-8.98595E-11 7.70224E-11-4.53611E-19-2.17019E-20 2.01342E-19
 -1        10-8.98595E-11-8.98595E-11 7.70224E-11 1.17319E-19 7.69020E-21-6.73463E-20
 -1        11-8.98595E-11-8.98595E-11 7.70224E-11 4.16059E-19-6.18788E-20-4.67097E-19
 -1        12-1.34789E-10-1.34789E-10 1.15534E-10-1.17403E-18 9.58223E-20 5.25900E-19
 -1        13-1.34789E-10-1.34789E-10 1.15534E-10 7.98353E-19-1.47972E-20 4.49318E-25
 -1        14-8.98595E-11-8.98595E-11 7.70224E-11 5.54928E-19-3.44893E-19 3.11325E-20
 -1        15-8.98595E-11-8.98595E-11 7.70224E-11-3.73740E-19-5.39762E-19-7.51250E-19
 -1        16-8.98595E-11-8.98595E-11 7.70224E-11-4.51986E-19 5.79206E-19 8.37068E-19
 -1        17-8.98595E-11-8.98595E-11 7.70224E-11-9.07026E-19-8.82037E-19 1.33867E-19
 -1        18-1.34789E-10-1.34789E-10 1.15534E-10-5.27659E-20 6.62495E-20-7.67796E-19
 -1        19-1.34789E-10-1.34789E-10 1.15534E-10-4.01713E-19-3.50723E-19 2.47596E-25
 -1        20-8.98595E-11-8.98595E-11 7.70224E-11-2.45117E-19-2.09929E-19-3.88935E-20
 -1        21-8.98595E-11-8.98595E-11 7.70224E-11-2.96565E-21 7.06343E-19 6.04278E-19
 -1        22-8.98595E-11-8.98595E-11 7.70224E-11-8.65273E-20-5.16851E-19-2.25930E-19
 -1        23-8.98595E-11-8.98595E-11 7.70224E-11-1.02271E-19-3.65060E-19 1.96478E-18
 -1        24-1.34789E-10-1.34789E-10 1.15534E-10 2.97648E-19 1.09549E-18-3.30663E-19
 -1        25-1.34789E-10-1.34789E-10 1.15534E-10-1.12673E-18-2.93319E-18 1.51637E-24
 -1        26-8.98595E-11-8.98595E-11 7.70224E-11-7.11679E-19 9.70341E-19 2.77636E-19
 -1        27-8.98595E-11-8.98595E-11 7.70224E-11 1.16529E-19-2.85752E-18-1.09063E-19
 -1        28-8.98595E-11-8.98595E-11 7.70224E-11-5.02904E-20 3.48760E-19 4.90908E-19
 -1        29-8.98595E-11-8.98595E-11 7.70224E-11 7.49714E-19-2.58188E-19 5.77526E-19
 -1        30-1.34789E-10-1.34789E-10 1.15534E-10 3.08624E-18 6.94180E-19-9.74734E-19
 -1        31-2.69578E-10-2.69578E-10 2.31067E-10-2.01283E-19 8.67357E-18-3.52203E-24
 -1        32-1.34789E-10-1.34789E-10 1.15534E-10-4.14289E-20-1.07372E-18-1.64844E-19
 -1        33-1.34789E-10-1.34789E-10 1.15534E-10 1.31085E-19 4.39613E-18 1.88060E-18
 -1        34-1.34789E-10-1.34789E-10 1.15534E-10 4.36239E-19-6.44650E-19-2.91854E-19
 -1        35-1.34789E-10-1.34789E-10 1.15534E-10-2.00738E-18-1.22422E-18 1.41619E-18
 -1        36-2.69578E-10-2.69578E-10 2.31067E-10 4.16659E-19 2.43132E-18 5.73629E-18
 -1        37-2.69578E-10-2.69578E-10 2.31067E-10-1.34154E-26-1.11113E-26 2.75650E-26
 -1        38-1.34789E-10-1.34789E-10 1.15534E-10-9.56100E-27-4.17234E-26 5.08459E-26
 -1        39-1.34789E-10-1.34789E-10 1.15534E-10-8.38041E-19 1.47125E-19 3.71084E-19
 -1        40-1.34789E-10-1.34789E-10 1.15534E-10 1.07544E-18-7.20600E-20-2.35234E-19
 -1        41-1.34789E-10-1.34789E-10 1.15534E-10-1.66401E-18-2.46322E-20-2.93933E-18
 -1        42-2.69578E-10-2.69578E-10 2.31067E-10 1.20715E-18 1.03910E-19 3.40480E-18
 -1        43-1.34789E-10-1.34789E-10 1.15534E-10 2.92859E-26-1.07137E-26-4.64168E-26
 -1        44-8.98595E-11-8.98595E-11 7.70224E-11 1.76218E-26-6.78865E-27-3.04691E-26
 -1        45-8.98595E-11-8.98595E-11 7.70224E-11-6.07208E-19 7.63814E-20-8.63758E-19
 -1        46-8.98595E-11-8.98595E-11 7.70224E-11 8.85282E-19-4.03493E-20 6.15812E-20
 -1        47-8.98595E-11-8.98595E-11 7.70224E-11-8.15679E-19-7.82998E-20 1.41878E-18
 -1        48-1.34789E-10-1.34789E-10 1.15534E-10-1.37904E-19 1.47777E-19-1.63046E-18
 -1        49-1.34789E-10-1.34789E-10 1.15534E-10 5.37227E-19 9.35206E-20-3.77047E-20
 -1        50-8.98595E-11-8.98595E-11 7.70224E-11 2.82807E-19-1.81688E-19 5.99561E-21
 -1        51-8.98595E-11-8.98595E-11 7.70224E-11 1.30623E-18-6.59755E-19 1.93411E-19
 -1        52-8.98595E-11-8.98595E-11 7.70224E-11 9.51625E-19 9.68973E-19-4.04932E-20
 -1        53-8.98595E-11-8.98595E-11 7.70224E-11-7.40507E-19 6.83218E-19 7.80972E-19
 -1        54-1.34789E-10-1.34789E-10 1.15534E-10 3.16062E-19-9.22900E-19-4.80092E-19
 -1        55-1.34789E-10-1.34789E-10 1.15534E-10-9.36411E-20-2.73232E-19 7.64107E-21
 -1        56-8.98595E-11-8.98595E-11 7.70224E-11-1.37771E-19 5.43026E-19-3.37996E-20
 -1        57-8.98595E-11-8.98595E-11 7.70224E-11-2.79846E-19 7.64924E-19-7.01030E-19
 -1        58-8.98595E-11-8.98595E-11 7.70224E-11-3.58092E-19-7.93543E-19-6.30574E-19
 -1        59-8.98595E-11-8.98595E-11 7.70224E-11-7.23735E-19 5.29131E-19-1.70094E-18
 -1        60-1.34789E-10-1.34789E-10 1.15534E-10-1.07885E-18 1.51936E-20 9.52266E-19
 -1        61-1.34789E-10-1.34789E-10 1.15534E-10 1.40166E-18 1.04497E-18 5.34304E-20
 -1        62-8.98595E-11-8.98595E-11 7.70224E-11 4.31374E-19-1.62202E-18 3.13256E-19
 -1        63-8.98595E-11-8.98595E-11 7.70224E-11 8.38543E-19 3.93210E-19-4.54244E-19
 -1        64-8.98595E-11-8.98595E-11 7.70224E-11 1.04198E-18-3.95030E-19 2.11622E-19
 -1        65-8.98595E-11-8.98595E-11 7.70224E-11-5.18367E-19-3.94484E-19-2.20720E-19
 -1        66-1.34789E-10-1.34789E-10 1.15534E-10 9.50275E-19-2.26313E-18 4.70362E-19
 -1        67-2.69578E-10-2.69578E-10 2.31067E-10 2.25345E-18-5.24532E-18-5.81717E-19
 -1        68-1.34789E-10-1.34789E-10 1.15534E-10 3.72124E-19 3.53592E-18-4.55701E-19
 -1        69-1.34789E-10-1.34789E-10 1.15534E-10-2.54016E-18-1.71637E-18-1.51029E-18
 -1        70-1.34789E-10-1.34789E-10 1.15534E-10-2.38382E-18 7.71603E-19-2.03767E-19
 -1        71-1.34789E-10-1.34789E-10 1.15534E-10 4.10247E-19 9.05525E-19 1.75862E-18
 -1        72-2.69578E-10-2.69578E-10 2.31067E-10 8.40747E-19 3.72018E-18-4.06789E-18
 -3
    1PSTEP                       172          58           1          
  100CL  158 4.80781E-01          72                     0   58           1
 -4  DISP        4    1
 -5  D1          1    2    1    0
 -5  D2          1    2    2    0
 -5  D3          1    2    3    0
 -5  ALL         1    2    0    0    1ALL
 -1         1 0.00000E+00 0.00000E+00 0.00000E+00
 -1         2-1.37366E-07 0.00000E+00 0.00000E+00
 -1         3-7.21172E+00 0.00000E+00 0.00000E+00
 -1         4-7.21172E+00 0.00000E+00 0.00000E+00
 -1         5-1.44234E+01 0.00000E+00 0.00000E+00
 -1         6-1.44234E+01 0.00000E+00 0.00000E+00
 -1         7 0.00000E+00-1.37366E-07 0.00000E+00
 -1         8-1.37366E-07-1.37366E-07 0.00000E+00
 -1         9-7.21172E+00-1.37366E-07 0.00000E+00
 -1        10-7.21172E+00-1.37366E-07 0.00000E+00
 -1        11-1.44234E+01-1.37366E-07 0.00000E+00
 -1        12-1.44234E+01-1.37366E-07 0.00000E+00
 -1        13 0.00000E+00-7.21172E+00 0.00000E+00
 -1        14-1.37366E-07-7.21172E+00 0.00000E+00
 -1        15-7.21172E+00-7.21172E+00 0.00000E+00
 -1        16-7.21172E+00-7.21172E+00 0.00000E+00
 -1        17-1.44234E+01-7.21172E+00 0.00000E+00
 -1        18-1.44234E+01-7.21172E+00 0.00000E+00
 -1        19 0.00000E+00-7.21172E+00 0.00000E+00
 -1        20-1.37366E-07-7.21172E+00 0.00000E+00
 -1        21-7.21172E+00-7.21172E+00 0.00000E+00
 -1        22-7.21172E+00-7.21172E+00 0.00000E+00
 -1        23-1.44234E+01-7.21172E+00 0.00000E+00
 -1        24-1.44234E+01-7.21172E+00 0.00000E+00
 -1        25 0.00000E+00-1.44234E+01 0.00000E+00
 -1        26-1.37366E-07-1.44234E+01 0.00000E+00
 -1        27-7.21172E+00-1.44234E+01 0.00000E+00
 -1        28-7.21172E+00-1.44234E+01 0.00000E+00
 -1        29-1.44234E+01-1.44234E+01 0.00000E+00
 -1        30-1.44234E+01-1.44234E+01 0.00000E+00
 -1        31 0.00000E+00-1.44234E+01 0.00000E+00
 -1        32-1.37366E-07-1.44234E+01 0.00000E+00
 -1        33-7.21172E+00-1.44234E+01 0.00000E+00
 -1        34-7.21172E+00-1.44234E+01 0.00000E+00
 -1        35-1.44234E+01-1.44234E+01 0.00000E+00
 -1        36-1.44234E+01-1.44234E+01 0.00000E+00
 -1        37 0.00000E+00 0.00000E+00 1.64839E-07
 -1        38-1.37366E-07 0.00000E+00 1.64839E-07
 -1        39-7.21172E+00 0.00000E+00 1.64839E-07
 -1        40-7.21172E+00 0.00000E+00 1.64839E-07
 -1        41-1.44234E+01 0.00000E+00 1.64839E-07
 -1        42-1.44234E+01 0.00000E+00 1.64839E-07
 -1        43 0.00000E+00-1.37366E-07 1.64839E-07
 -1        44-1.37366E-07-1.37366E-07 1.64839E-07
 -1        45-7.21172E+00-1.37366E-07 1.64839E-07
 -1        46-7.21172E+00-1.37366E-07 1.64839E-07
 -1        47-1.44234E+01-1.37366E-07 1.64839E-07
 -1        48-1.44234E+01-1.37366E-07 1.64839E-07
 -1        49 0.00000E+00-7.21172E+00 1.64839E-07
 -1        50-1.37366E-07-7.21172E+00 1.64839E-07
 -1        51-7.21172E+00-7.21172E+00 1.64839E-07
 -1        52-7.21172E+00-7.21172E+00 1.64839E-07
 -1        53-1.44234E+01-7.21172E+00 1.64839E-07
 -1        54-1.44234E+01-7.21172E+00 1.64839E-07
 -1        55 0.00000E+00-7.21172E+00 1.64839E-07
 -1        56-1.37366E-07-7.21172E+00 1.64839E-07
 -1        57-7.21172E+00-7.21172E+00 1.64839E-07
 -1        58-7.21172E+00-7.21172E+00 1.64839E-07
 -1        59-1.44234E+01-7.21172E+00 1.64839E-07
 -1        60-1.44234E+01-7.21172E+00 1.64839E-07
 -1        61 0.00000E+00-1.44234E+01 1.64839E-07
 -1        62-1.37366E-07-1.44234E+01 1.64839E-07
 -1        63-7.21172E+00-1.44234E+01 1.64839E-07
 -1        64-7.21172E+00-1.44234E+01 1.64839E-07
 -1        65-1.44234E+01-1.44234E+01 1.64839E-07
 -1        66-1.44234E+01-1.44234E+01 1.64839E-07
 -1        67 0.00000E+00-1.44234E+01 1.64839E-07
 -1        68-1.37366E-07-1.44234E+01 1.64839E-07
 -1        69-7.21172E+00-1.44234E+01 1.64839E-07
 -1        70-7.21172E+00-1.44234E+01 1.64839E-07
 -1        71-1.44234E+01-1.44234E+01 1.64839E-07
 -1        72-1.44234E+01-1.44234E+01 1.64839E-07
 -3
    1PSTEP                       173          58           1          
  100CL  158 4.80781E-01          72                     0   58           1
 -4  STRESS      6    1
 -5  SXX         1    4    1    1
 -5  SYY         1    4    2    2
 -5  SZZ         1    4    3    3
 -5  SXY         1    4    1    2
 -5  SYZ         1    4    2    3
 -5  SZX         1    4    3    1
 -1         1-8.24163E-05-8.24163E-05-3.02498E-20 2.65589E-21 1.48779E-22 9.77045E-22
 -1         2-4.12082E-05-4.12082E-05 4.47098E-20-1.18496E-20-4.63964E-22-9.56249E-21
 -1         3-4.12082E-05-4.12082E-05-1.15716E-13 5.92814E-14-4.91895E-20-6.63628E-14
 -1         4-4.12082E-05-4.12082E-05-1.16927E-13 5.77192E-14 1.13801E-19-9.58060E-16
 -1         5-4.12082E-05-4.12082E-05-1.64043E-13 1.05513E-13-2.49080E-19-1.50915E-13
 -1         6-8.24163E-05-8.24163E-05-3.22089E-13 1.83166E-13-8.62020E-20 5.96671E-13
 -1         7-4.12082E-05-4.12082E-05-5.14861E-20 2.59953E-20 1.42085E-20-9.75510E-22
 -1         8-2.74721E-05-2.74721E-05 1.91181E-20 8.54518E-21-9.04317E-21 5.10590E-21
 -1         9-2.74721E-05-2.74721E-05-4.65625E-14 1.12488E-13 1.05602E-14 3.72311E-14
 -1        10-2.74721E-05-2.74721E-05 7.86336E-14-3.29573E-14-9.21338E-15-4.32502E-14
 -1        11-2.74721E-05-2.74721E-05 1.23939E-13-5.27218E-14-5.73044E-14 8.02252E-14
 -1        12-4.12082E-05-4.12082E-05-3.89702E-14 2.24812E-13 6.35996E-14 4.21979E-14
 -1        13-4.12082E-05-4.12082E-05 1.76934E-13 1.75139E-14 1.31369E-14-4.33491E-20
 -1        14-2.74721E-05-2.74721E-05-2.87675E-14 5.60915E-15 1.68847E-14-5.81618E-15
 -1        15-2.74721E-05-2.74721E-05-1.30662E-13 2.28169E-14-6.48096E-14 1.18132E-14
 -1        16-2.74721E-05-2.74721E-05 1.99633E-13-1.24018E-13-1.58783E-14-5.51929E-14
 -1        17-2.74721E-05-2.74721E-05-3.84306E-13 1.02175E-14-1.14676E-13 2.67431E-13
 -1        18-4.12082E-05-4.12082E-05-2.07292E-13 1.74586E-13-1.53490E-13-9.11765E-14
 -1        19-4.12082E-05-4.12082E-05 1.20308E-13-3.50275E-14 1.19307E-13 2.19679E-20
 -1        20-2.74721E-05-2.74721E-05-6.79049E-14-2.94185E-14-6.74429E-14 6.84309E-15
 -1        21-2.74721E-05-2.74721E-05-3.06078E-13 2.24275E-13 5.14013E-14-8.10835E-14
 -1        22-2.74721E-05-2.74721E-05-8.74508E-14 1.37251E-13 6.86249E-14 1.65471E-13
 -1        23-2.74721E-05-2.74721E-05-2.41414E-13-3.55154E-14 6.34259E-15-1.01266E-13
 -1        24-4.12082E-05-4.12082E-05 1.11825E-13-4.16852E-13 2.54560E-13 3.63299E-14
 -1        25-4.12082E-05-4.12082E-05-2.33611E-13-4.69290E-15-6.54060E-14 2.33387E-19
 -1        26-2.74721E-05-2.74721E-05-1.14287E-13-2.92460E-14-2.84695E-13 3.06511E-14
 -1        27-2.74721E-05-2.74721E-05-1.12243E-13-7.69232E-14-9.33597E-14-8.78024E-14
 -1        28-2.74721E-05-2.74721E-05-5.75914E-14 4.04351E-14-9.90056E-14 1.04239E-13
 -1        29-2.74721E-05-2.74721E-05-1.62982E-13-5.74636E-14-1.46836E-13 3.25030E-13
 -1        30-4.12082E-05-4.12082E-05 3.83778E-13 2.04706E-13 3.86207E-13-4.36544E-14
 -1        31-8.24163E-05-8.24163E-05 8.34413E-13 2.51254E-15-4.74101E-13-1.11900E-18
 -1        32-4.12082E-05-4.12082E-05-4.39349E-14-3.79199E-14 2.23866E-13 3.16213E-14
 -1        33-4.12082E-05-4.12082E-05 4.78776E-13-5.25587E-14-2.95573E-13 6.11631E-14
 -1        34-4.12082E-05-4.12082E-05 2.67429E-14-1.45668E-13 4.42274E-13-8.21375E-14
 -1        35-4.12082E-05-4.12082E-05 2.00720E-13 4.32720E-13-1.07532E-13-4.61556E-13
 -1        36-8.24163E-05-8.24163E-05 6.36988E-13-2.13829E-13-4.19893E-13 1.96688E-13
 -1        37-8.24163E-05-8.24163E-05 1.04073E-20-5.82026E-22-5.88420E-21-1.27079E-20
 -1        38-4.12082E-05-4.12082E-05-1.62758E-20 1.41296E-20 9.80119E-21-1.61184E-20
 -1        39-4.12082E-05-4.12082E-05 2.92723E-13 2.46024E-13-4.07159E-14-8.07097E-14
 -1        40-4.12082E-05-4.12082E-05 2.29225E-13 1.58584E-15 3.48862E-14 1.00681E-13
 -1        41-4.12082E-05-4.12082E-05-2.49084E-13-4.69216E-13 6.53913E-14-3.40283E-14
 -1        42-8.24163E-05-8.24163E-05 1.35964E-13-1.20478E-13-5.15184E-14-3.81961E-13
 -1        43-4.12082E-05-4.12082E-05 9.49951E-21-2.12292E-20 1.54700E-20 8.51858E-21
 -1        44-2.74721E-05-2.74721E-05 5.56575E-21-4.53902E-21-2.96391E-21 1.07223E-20
 -1        45-2.74721E-05-2.74721E-05-1.68330E-13 2.11118E-14-1.65837E-14 2.40386E-14
 -1        46-2.74721E-05-2.74721E-05-8.46586E-14-5.87418E-14 1.40440E-14-5.49549E-14
 -1        47-2.74721E-05-2.74721E-05-9.03799E-14-2.77058E-13-1.37100E-14 8.73081E-14
 -1        48-4.12082E-05-4.12082E-05-4.63804E-14 1.74709E-13 3.78404E-14 1.53925E-14
 -1        49-4.12082E-05-4.12082E-05-2.81573E-14-3.50274E-14 2.15328E-13 3.24747E-16
 -1        50-2.74721E-05-2.74721E-05 1.36618E-13-1.16955E-14-7.40386E-14-5.59966E-15
 -1        51-2.74721E-05-2.74721E-05-1.10818E-14-9.78454E-14 3.19370E-15 4.16605E-14
 -1        52-2.74721E-05-2.74721E-05-4.37684E-14 9.53510E-14 3.95034E-14 6.05356E-14
 -1        53-2.74721E-05-2.74721E-05-2.20111E-13-3.23403E-13 7.81864E-14-4.51683E-14
 -1        54-4.12082E-05-4.12082E-05 3.01968E-13 3.33498E-13 7.31225E-14-1.42231E-13
 -1        55-4.12082E-05-4.12082E-05-4.49066E-14 1.75140E-14-1.73870E-13-5.07266E-16
 -1        56-2.74721E-05-2.74721E-05 1.24065E-13 2.33321E-14-3.25881E-15 6.50491E-15
 -1        57-2.74721E-05-2.74721E-05 2.25507E-13-1.51825E-13 5.26693E-14-9.51361E-14
 -1        58-2.74721E-05-2.74721E-05 5.84003E-14 2.53451E-14-4.13159E-14 1.73743E-14
 -1        59-2.74721E-05-2.74721E-05 1.24363E-13-9.59551E-14-2.19490E-14 9.22272E-14
 -1        60-4.12082E-05-4.12082E-05-1.34458E-13 1.53267E-14-2.11914E-14-5.18684E-14
 -1        61-4.12082E-05-4.12082E-05-3.77363E-13 2.43936E-13-3.34091E-13 7.54905E-14
 -1        62-2.74721E-05-2.74721E-05-2.62267E-14 1.23109E-13 9.38647E-14 8.09780E-14
 -1        63-2.74721E-05-2.74721E-05-4.65666E-14 2.79547E-13-2.00322E-13-1.08357E-13
 -1        64-2.74721E-05-2.74721E-05 5.80503E-14 6.86063E-14 7.13919E-14 8.07085E-14
 -1        65-2.74721E-05-2.74721E-05-4.09728E-13 4.50045E-14-4.86776E-13-1.89961E-13
 -1        66-4.12082E-05-4.12082E-05-3.67011E-13 3.94806E-13 3.89628E-13 2.09281E-13
 -1        67-8.24163E-05-8.24163E-05 4.86621E-13-1.30726E-13 5.02280E-13-2.67678E-13
 -1        68-4.12082E-05-4.12082E-05 5.80115E-14-1.24636E-13-4.39827E-14-1.02217E-13
 -1        69-4.12082E-05-4.12082E-05 1.00553E-13 9.47809E-14 3.29705E-13 1.02787E-13
 -1        70-4.12082E-05-4.12082E-05-7.17730E-14-1.49513E-13-2.45476E-13-2.72486E-13
 -1        71-4.12082E-05-4.12082E-05-5.50069E-13-7.43257E-13 5.25767E-13 3.17412E-13
 -1        72-8.24163E-05-8.24163E-05-2.60875E-13 1.46117E-13-4.92729E-13-9.26718E-13
 -3
    1PSTEP                       174          58           1          
  100CL  158 4.80781E-01          72                     0   58           1
 -4  TOSTRAIN    6    1
 -5  EXX         1    4    1    1
 -5  EYY         1    4    2    2
 -5  EZZ         1    4    3    3
 -5  EXY         1    4    1    2
 -5  EYZ         1    4    2    3
 -5  EZX         1    4    3    1
 -1         1-2.74721E-10-2.74721E-10 2.35475E-10 1.64412E-26 9.21011E-28 6.04837E-27
 -1         2-1.37361E-10-1.37361E-10 1.17738E-10-7.33548E-26-2.87216E-27-5.91963E-26
 -1         3-1.37361E-10-1.37361E-10 1.17738E-10 3.66980E-19-3.04506E-25-4.10817E-19
 -1         4-1.37361E-10-1.37361E-10 1.17738E-10 3.57309E-19 7.04483E-25-5.93085E-21
 -1         5-1.37361E-10-1.37361E-10 1.17738E-10 6.53177E-19-1.54192E-24-9.34236E-19
 -1         6-2.74721E-10-2.74721E-10 2.35475E-10 1.13389E-18-5.33632E-25 3.69368E-18
 -1         7-1.37361E-10-1.37361E-10 1.17738E-10 1.60923E-25 8.79572E-26-6.03887E-27
 -1         8-9.15737E-11-9.15737E-11 7.84917E-11 5.28987E-26-5.59815E-26 3.16080E-26
 -1         9-9.15737E-11-9.15737E-11 7.84917E-11 6.96354E-19 6.53729E-20 2.30478E-19
 -1        10-9.15737E-11-9.15737E-11 7.84917E-11-2.04021E-19-5.70352E-20-2.67739E-19
 -1        11-9.15737E-11-9.15737E-11 7.84917E-11-3.26373E-19-3.54742E-19 4.96632E-19
 -1        12-1.37361E-10-1.37361E-10 1.17738E-10 1.39169E-18 3.93712E-19 2.61225E-19
 -1        13-1.37361E-10-1.37361E-10 1.17738E-10 1.08419E-19 8.13235E-20-2.68351E-25
 -1        14-9.15737E-11-9.15737E-11 7.84917E-11 3.47233E-20 1.04524E-19-3.60049E-20
 -1        15-9.15737E-11-9.15737E-11 7.84917E-11 1.41248E-19-4.01202E-19 7.31294E-20
 -1        16-9.15737E-11-9.15737E-11 7.84917E-11-7.67730E-19-9.82944E-20-3.41670E-19
 -1        17-9.15737E-11-9.15737E-11 7.84917E-11 6.32509E-20-7.09901E-19 1.65552E-18
 -1        18-1.37361E-10-1.37361E-10 1.17738E-10 1.08077E-18-9.50174E-19-5.64426E-19
 -1        19-1.37361E-10-1.37361E-10 1.17738E-10-2.16837E-19 7.38565E-19 1.35992E-25
 -1        20-9.15737E-11-9.15737E-11 7.84917E-11-1.82114E-19-4.17503E-19 4.23620E-20
 -1        21-9.15737E-11-9.15737E-11 7.84917E-11 1.38837E-18 3.18199E-19-5.01945E-19
 -1        22-9.15737E-11-9.15737E-11 7.84917E-11 8.49647E-19 4.24821E-19 1.02434E-18
 -1        23-9.15737E-11-9.15737E-11 7.84917E-11-2.19857E-19 3.92637E-20-6.26884E-19
 -1        24-1.37361E-10-1.37361E-10 1.17738E-10-2.58051E-18 1.57585E-18 2.24899E-19
 -1        25-1.37361E-10-1.37361E-10 1.17738E-10-2.90513E-20-4.04894E-19 1.44478E-24
 -1        26-9.15737E-11-9.15737E-11 7.84917E-11-1.81047E-19-1.76240E-18 1.89745E-19
 -1        27-9.15737E-11-9.15737E-11 7.84917E-11-4.76191E-19-5.77941E-19-5.43539E-19
 -1        28-9.15737E-11-9.15737E-11 7.84917E-11 2.50313E-19-6.12892E-19 6.45288E-19
 -1        29-9.15737E-11-9.15737E-11 7.84917E-11-3.55727E-19-9.08986E-19 2.01209E-18
 -1        30-1.37361E-10-1.37361E-10 1.17738E-10 1.26723E-18 2.39081E-18-2.70242E-19
 -1        31-2.74721E-10-2.74721E-10 2.35475E-10 1.55538E-20-2.93491E-18-6.92712E-24
 -1        32-1.37361E-10-1.37361E-10 1.17738E-10-2.34742E-19 1.38583E-18 1.95751E-19
 -1        33-1.37361E-10-1.37361E-10 1.17738E-10-3.25364E-19-1.82974E-18 3.78629E-19
 -1        34-1.37361E-10-1.37361E-10 1.17738E-10-9.01756E-19 2.73789E-18-5.08470E-19
 -1        35-1.37361E-10-1.37361E-10 1.17738E-10 2.67874E-18-6.65673E-19-2.85725E-18
 -1        36-2.74721E-10-2.74721E-10 2.35475E-10-1.32370E-18-2.59934E-18 1.21759E-18
 -1        37-2.74721E-10-2.74721E-10 2.35475E-10-3.60302E-27-3.64260E-26-7.86682E-26
 -1        38-1.37361E-10-1.37361E-10 1.17738E-10 8.74691E-26 6.06741E-26-9.97807E-26
 -1        39-1.37361E-10-1.37361E-10 1.17738E-10 1.52301E-18-2.52051E-19-4.99631E-19
 -1        40-1.37361E-10-1.37361E-10 1.17738E-10 9.81713E-21 2.15962E-19 6.23266E-19
 -1        41-1.37361E-10-1.37361E-10 1.17738E-10-2.90467E-18 4.04803E-19-2.10651E-19
 -1        42-2.74721E-10-2.74721E-10 2.35475E-10-7.45815E-19-3.18923E-19-2.36452E-18
 -1        43-1.37361E-10-1.37361E-10 1.17738E-10-1.31419E-25 9.57664E-26 5.27341E-26
 -1        44-9.15737E-11-9.15737E-11 7.84917E-11-2.80987E-26-1.83480E-26 6.63762E-26
 -1        45-9.15737E-11-9.15737E-11 7.84917E-11 1.30692E-19-1.02661E-19 1.48810E-19
 -1        46-9.15737E-11-9.15737E-11 7.84917E-11-3.63640E-19 8.69392E-20-3.40197E-19
 -1        47-9.15737E-11-9.15737E-11 7.84917E-11-1.71512E-18-8.48717E-20 5.40479E-19
 -1        48-1.37361E-10-1.37361E-10 1.17738E-10 1.08153E-18 2.34250E-19 9.52869E-20
 -1        49-1.37361E-10-1.37361E-10 1.17738E-10-2.16836E-19 1.33298E-18 2.01034E-21
 -1        50-9.15737E-11-9.15737E-11 7.84917E-11-7.24005E-20-4.58334E-19-3.46645E-20
 -1        51-9.15737E-11-9.15737E-11 7.84917E-11-6.05710E-19 1.97705E-20 2.57899E-19
 -1        52-9.15737E-11-9.15737E-11 7.84917E-11 5.90268E-19 2.44545E-19 3.74744E-19
 -1        53-9.15737E-11-9.15737E-11 7.84917E-11-2.00202E-18 4.84011E-19-2.79613E-19
 -1        54-1.37361E-10-1.37361E-10 1.17738E-10 2.06451E-18 4.52663E-19-8.80477E-19
 -1        55-1.37361E-10-1.37361E-10 1.17738E-10 1.08420E-19-1.07634E-18-3.14022E-21
 -1        56-9.15737E-11-9.15737E-11 7.84917E-11 1.44437E-19-2.01736E-20 4.02685E-20
 -1        57-9.15737E-11-9.15737E-11 7.84917E-11-9.39871E-19 3.26048E-19-5.88938E-19
 -1        58-9.15737E-11-9.15737E-11 7.84917E-11 1.56899E-19-2.55765E-19 1.07555E-19
 -1        59-9.15737E-11-9.15737E-11 7.84917E-11-5.94008E-19-1.35875E-19 5.70930E-19
 -1        60-1.37361E-10-1.37361E-10 1.17738E-10 9.48797E-20-1.31185E-19-3.21090E-19
 -1        61-1.37361E-10-1.37361E-10 1.17738E-10 1.51008E-18-2.06818E-18 4.67322E-19
 -1        62-9.15737E-11-9.15737E-11 7.84917E-11 7.62104E-19 5.81067E-19 5.01292E-19
 -1        63-9.15737E-11-9.15737E-11 7.84917E-11 1.73053E-18-1.24009E-18-6.70782E-19
 -1        64-9.15737E-11-9.15737E-11 7.84917E-11 4.24706E-19 4.41950E-19 4.99624E-19
 -1        65-9.15737E-11-9.15737E-11 7.84917E-11 2.78599E-19-3.01337E-18-1.17595E-18
 -1        66-1.37361E-10-1.37361E-10 1.17738E-10 2.44404E-18 2.41198E-18 1.29555E-18
 -1        67-2.74721E-10-2.74721E-10 2.35475E-10-8.09256E-19 3.10935E-18-1.65705E-18
 -1        68-1.37361E-10-1.37361E-10 1.17738E-10-7.71554E-19-2.72274E-19-6.32773E-19
 -1        69-1.37361E-10-1.37361E-10 1.17738E-10 5.86739E-19 2.04103E-18 6.36300E-19
 -1        70-1.37361E-10-1.37361E-10 1.17738E-10-9.25556E-19-1.51962E-18-1.68682E-18
 -1        71-1.37361E-10-1.37361E-10 1.17738E-10-4.60112E-18 3.25475E-18 1.96493E-18
 -1        72-2.74721E-10-2.74721E-10 2.35475E-10 9.04533E-19-3.05023E-18-5.73683E-18
 -3
    1PSTEP                       175          59           1          
  100CL  159 4.89781E-01          72                     0   59           1
 -4  DISP        4    1
 -5  D1          1    2    1    0
 -5  D2          1    2    2    0
 -5  D3          1    2    3    0
 -5  ALL         1    2    0    0    1ALL
 -1         1 0.00000E+00 0.00000E+00 0.00000E+00
 -1         2-1.39937E-07 0.00000E+00 0.00000E+00
 -1         3-7.34672E+00 0.00000E+00 0.00000E+00
 -1         4-7.34672E+00 0.00000E+00 0.00000E+00
 -1         5-1.46934E+01 0.00000E+00 0.00000E+00
 -1         6-1.46934E+01 0.00000E+00 0.00000E+00
 -1         7 0.00000E+00-1.39937E-07 0.00000E+00
 -1         8-1.39937E-07-1.39937E-07 0.00000E+00
 -1         9-7.34672E+00-1.39937E-07 0.00000E+00
 -1        10-7.34672E+00-1.39937E-07 0.00000E+00
 -1        11-1.46934E+01-1.39937E-07 0.00000E+00
 -1        12-1.46934E+01-1.39937E-07 0.00000E+00
 -1        13 0.00000E+00-7.34672E+00 0.00000E+00
 -1        14-1.39937E-07-7.34672E+00 0.00000E+00
 -1        15-7.34672E+00-7.34672E+00 0.00000E+00
 -1        16-7.34672E+00-7.34672E+00 0.00000E+00
 -1        17-1.46934E+01-7.34672E+00 0.00000E+00
 -1        18-1.46934E+01-7.34672E+00 0.00000E+00
 -1        19 0.00000E+00-7.34672E+00 0.00000E+00
 -1        20-1.39937E-07-7.34672E+00 0.00000E+00
 -1        21-7.34672E+00-7.34672E+00 0.00000E+00
 -1        22-7.34672E+00-7.34672E+00 0.00000E+00
 -1        23-1.46934E+01-7.34672E+00 0.00000E+00
 -1        24-1.46934E+01-7.34672E+00 0.00000E+00
 -1        25 0.00000E+00-1.46934E+01 0.00000E+00
 -1        26-1.39937E-07-1.46934E+01 0.00000E+00
 -1        27-7.34672E+00-1.46934E+01 0.00000E+00
 -1        28-7.34672E+00-1.46934E+01 0.00000E+00
 -1        29-1.46934E+01-1.46934E+01 0.00000E+00
 -1        30-1.46934E+01-1.46934E+01 0.00000E+00
 -1        31 0.00000E+00-1.46934E+01 0.00000E+00
 -1        32-1.39937E-07-1.46934E+01 0.00000E+00
 -1        33-7.34672E+00-1.46934E+01 0.00000E+00
 -1        34-7.34672E+00-1.46934E+01 0.00000E+00
 -1        35-1.46934E+01-1.46934E+01 0.00000E+00
 -1        36-1.46934E+01-1.46934E+01 0.00000E+00
 -1        37 0.00000E+00 0.00000E+00 1.67925E-07
 -1        38-1.39937E-07 0.00000E+00 1.67925E-07
 -1        39-7.34672E+00 0.00000E+00 1.67925E-07
 -1        40-7.34672E+00 0.00000E+00 1.67925E-07
 -1        41-1.46934E+01 0.00000E+00 1.67925E-07
 -1        42-1.46934E+01 0.00000E+00 1.67925E-07
 -1        43 0.00000E+00-1.39937E-07 1.67925E-07
 -1        44-1.39937E-07-1.39937E-07 1.67925E-07
 -1        45-7.34672E+00-1.39937E-07 1.67925E-07
 -1        46-7.34672E+00-1.39937E-07 1.67925E-07
 -1        47-1.46934E+01-1.39937E-07 1.67925E-07
 -1        48-1.46934E+01-1.39937E-07 1.67925E-07
 -1        49 0.00000E+00-7.34672E+00 1.67925E-07
 -1        50-1.39937E-07-7.34672E+00 1.67925E-07
 -1        51-7.34672E+00-7.34672E+00 1.67925E-07
 -1        52-7.34672E+00-7.34672E+00 1.67925E-07
 -1        53-1.46934E+01-7.34672E+00 1.67925E-07
 -1        54-1.46934E+01-7.34672E+00 1.67925E-07
 -1        55 0.00000E+00-7.34672E+00 1.67925E-07
 -1        56-1.39937E-07-7.34672E+00 1.67925E-07
 -1        57-7.34672E+00-7.34672E+00 1.67925E-07
 -1        58-7.34672E+00-7.34672E+00 1.67925E-07
 -1        59-1.46934E+01-7.34672E+00 1.67925E-07
 -1        60-1.46934E+01-7.34672E+00 1.67925E-07
 -1        61 0.00000E+00-1.46934E+01 1.67925E-07
 -1        62-1.39937E-07-1.46934E+01 1.67925E-07
 -1        63-7.34672E+00-1.46934E+01 1.67925E-07
 -1        64-7.34672E+00-1.46934E+01 1.67925E-07
 -1        65-1.46934E+01-1.46934E+01 1.67925E-07
 -1        66-1.46934E+01-1.46934E+01 1.67925E-07
 -1        67 0.00000E+00-1.46934E+01 1.67925E-07
 -1        68-1.39937E-07-1.46934E+01 1.67925E-07
 -1        69-7.34672E+00-1.46934E+01 1.67925E-07
 -1        70-7.34672E+00-1.46934E+01 1.67925E-07
 -1        71-1.46934E+01-1.46934E+01 1.67925E-07
 -1        72-1.46934E+01-1.46934E+01 1.67925E-07
 -3
    1PSTEP                       176          59           1          
  100CL  159 4.89781E-01          72                     0   59           1
 -4  STRESS      6    1
 -5  SXX         1    4    1    1
 -5  SYY         1    4    2    2
 -5  SZZ         1    4    3    3
 -5  SXY         1    4    1    2
 -5  SYZ         1    4    2    3
 -5  SZX         1    4    3    1
 -1         1-8.39591E-05-8.39591E-05 5.80184E-20-3.29617E-22 4.46734E-22-9.98414E-22
 -1         2-4.19796E-05-4.19796E-05 8.25945E-21-1.70686E-20 5.57984E-24-3.59327E-21
 -1         3-4.19796E-05-4.19796E-05 2.77099E-14 1.01661E-13 3.57662E-20-4.00174E-15
 -1         4-4.19796E-05-4.19796E-05 6.28515E-14-1.69245E-13-5.09984E-20-1.02345E-13
 -1         5-4.19796E-05-4.19796E-05 1.07106E-13-1.07775E-13 5.14269E-19 2.93098E-13
 -1         6-8.39591E-05-8.39591E-05 5.01466E-13-1.01249E-13-8.58455E-19 3.96295E-14
 -1         7-4.19796E-05-4.19796E-05-3.66935E-20 1.33318E-20 7.92856E-21 4.76507E-22
 -1         8-2.79864E-05-2.79864E-05 3.69044E-21-2.38134E-21-4.90706E-21 1.12245E-20
 -1         9-2.79864E-05-2.79864E-05 4.37125E-15-3.13623E-14-6.85213E-15 3.82568E-14
 -1        10-2.79864E-05-2.79864E-05-3.78763E-14-6.24109E-14 3.00430E-15 1.82819E-14
 -1        11-2.79864E-05-2.79864E-05 3.14492E-14-8.13656E-14 1.40948E-14-3.09839E-13
 -1        12-4.19796E-05-4.19796E-05-3.18982E-13 2.52927E-13-4.07583E-14 4.00359E-13
 -1        13-4.19796E-05-4.19796E-05 2.77299E-14 4.31984E-14 2.22574E-13 8.18110E-20
 -1        14-2.79864E-05-2.79864E-05 7.70819E-14 1.72886E-14-6.76181E-14-1.90446E-15
 -1        15-2.79864E-05-2.79864E-05 1.19271E-13 1.49240E-13-3.86952E-14-1.50699E-13
 -1        16-2.79864E-05-2.79864E-05 5.49498E-14 5.79218E-14 1.00266E-13 1.76656E-13
 -1        17-2.79864E-05-2.79864E-05 1.87100E-13 1.15786E-13 9.69697E-14-1.90603E-13
 -1        18-4.19796E-05-4.19796E-05-3.60796E-14-2.44910E-13-1.69902E-13 2.93770E-13
 -1        19-4.19796E-05-4.19796E-05 1.37662E-13-1.15739E-14-2.94294E-13-1.13317E-19
 -1        20-2.79864E-05-2.79864E-05-4.48332E-14-1.92263E-14 1.67879E-13 8.88851E-15
 -1        21-2.79864E-05-2.79864E-05 2.94516E-13-1.60652E-14 2.96000E-14-1.05871E-15
 -1        22-2.79864E-05-2.79864E-05 2.71239E-14-9.11069E-15-9.86386E-14-3.27952E-14
 -1        23-2.79864E-05-2.79864E-05-1.30565E-13 5.13196E-14-7.35649E-14 2.77103E-13
 -1        24-4.19796E-05-4.19796E-05-3.57666E-13 1.68525E-13 2.34972E-13-3.49550E-13
 -1        25-4.19796E-05-4.19796E-05-8.09777E-14-3.87480E-13-2.48263E-14 1.16551E-20
 -1        26-2.79864E-05-2.79864E-05 7.41192E-14-2.14942E-13 1.48610E-13 3.70182E-14
 -1        27-2.79864E-05-2.79864E-05-2.04587E-14-9.93864E-14-7.28690E-14-2.05363E-13
 -1        28-2.79864E-05-2.79864E-05 1.47553E-13-3.60566E-14-6.84065E-14 6.76666E-14
 -1        29-2.79864E-05-2.79864E-05-1.39062E-14 1.52985E-13-2.61917E-13-1.68680E-13
 -1        30-4.19796E-05-4.19796E-05-1.28630E-13-9.42956E-14 3.97766E-13 5.49142E-13
 -1        31-8.39591E-05-8.39591E-05 2.36470E-13 2.07658E-13-3.18198E-13-9.92452E-19
 -1        32-4.19796E-05-4.19796E-05 1.71140E-13 1.68896E-13-1.69168E-13-3.25575E-14
 -1        33-4.19796E-05-4.19796E-05 1.27394E-13-1.07370E-13-3.73308E-14 2.84180E-13
 -1        34-4.19796E-05-4.19796E-05-1.60456E-13 4.15965E-16-4.51912E-13-1.28611E-13
 -1        35-4.19796E-05-4.19796E-05-2.26059E-13 5.66873E-14 2.37712E-13 2.94217E-13
 -1        36-8.39591E-05-8.39591E-05 7.14910E-13 3.16794E-13-3.61061E-13-5.28246E-13
 -1        37-8.39591E-05-8.39591E-05 2.28089E-20-8.15655E-22 1.51126E-20 6.77779E-21
 -1        38-4.19796E-05-4.19796E-05-7.35198E-21 8.13350E-21-5.97127E-21 1.15453E-21
 -1        39-4.19796E-05-4.19796E-05-1.63692E-13-2.66943E-13 2.30637E-14 7.25154E-15
 -1        40-4.19796E-05-4.19796E-05-9.75020E-14 2.11898E-13-1.63416E-14-4.24139E-14
 -1        41-4.19796E-05-4.19796E-05 9.15773E-14 4.07780E-14 1.09204E-13-1.00990E-13
 -1        42-8.39591E-05-8.39591E-05 2.10430E-13-6.16970E-14-1.89420E-13-8.09837E-13
 -1        43-4.19796E-05-4.19796E-05 4.93377E-20-7.46307E-21 1.52615E-20-1.08257E-20
 -1        44-2.79864E-05-2.79864E-05-8.04605E-21 7.18844E-22-8.89163E-21 1.55065E-21
 -1        45-2.79864E-05-2.79864E-05-1.81469E-14 1.22693E-13 8.52364E-15-9.35778E-15
 -1        46-2.79864E-05-2.79864E-05-3.96959E-14 9.09557E-14-7.89006E-15 1.39624E-13
 -1        47-2.79864E-05-2.79864E-05-5.17402E-15-2.08719E-14 8.68973E-14 2.25566E-13
 -1        48-4.19796E-05-4.19796E-05-5.03906E-13 7.83846E-14-1.35468E-13 1.25243E-14
 -1        49-4.19796E-05-4.19796E-05 1.21061E-13-1.32914E-13-6.20331E-14 3.11733E-14
 -1        50-2.79864E-05-2.79864E-05 3.61075E-14-8.50093E-14-1.79480E-14 1.88777E-14
 -1        51-2.79864E-05-2.79864E-05 3.13597E-13-4.19726E-14-1.19332E-13 6.34096E-14
 -1        52-2.79864E-05-2.79864E-05 1.84199E-13 8.75785E-14 4.05016E-14-1.17194E-13
 -1        53-2.79864E-05-2.79864E-05 4.70753E-14 3.65154E-14-4.54069E-14 2.72405E-13
 -1        54-4.19796E-05-4.19796E-05 1.48976E-13 2.51402E-13-1.49874E-13-3.96003E-13
 -1        55-4.19796E-05-4.19796E-05-1.65644E-13 3.56148E-14 2.25537E-13-3.97942E-14
 -1        56-2.79864E-05-2.79864E-05 1.37823E-14 2.73431E-14-2.09281E-13-1.76409E-14
 -1        57-2.79864E-05-2.79864E-05-6.22422E-14 4.83457E-15 1.89032E-14-4.18641E-14
 -1        58-2.79864E-05-2.79864E-05 3.75555E-14-2.51853E-14-5.04298E-15 4.02982E-14
 -1        59-2.79864E-05-2.79864E-05 1.90759E-14 8.44597E-14 5.37496E-14-1.87247E-13
 -1        60-4.19796E-05-4.19796E-05-4.88891E-13-2.13088E-13-1.16157E-14 3.90751E-13
 -1        61-4.19796E-05-4.19796E-05-3.04005E-13-1.38852E-13-5.60793E-13 3.07063E-14
 -1        62-2.79864E-05-2.79864E-05 1.35600E-13-1.31402E-13 1.16463E-13 5.74891E-14
 -1        63-2.79864E-05-2.79864E-05-1.81804E-13 8.87538E-14-1.16861E-13-5.13312E-14
 -1        64-2.79864E-05-2.79864E-05-6.25586E-14-1.19610E-13 9.70281E-14-7.69539E-14
 -1        65-2.79864E-05-2.79864E-05 1.36136E-13-7.64114E-14-7.68350E-14 4.54373E-14
 -1        66-4.19796E-05-4.19796E-05-1.17852E-13 2.23529E-13-2.05420E-13-3.06289E-13
 -1        67-8.39591E-05-8.39591E-05-5.79538E-13 7.44187E-14 8.00129E-13-4.99895E-14
 -1        68-4.19796E-05-4.19796E-05 7.83845E-14-2.10417E-14-7.77972E-14-5.75517E-14
 -1        69-4.19796E-05-4.19796E-05-3.65100E-13-8.82108E-14 3.02934E-13-1.03675E-13
 -1        70-4.19796E-05-4.19796E-05 3.65944E-13-1.37705E-13 2.04846E-14 3.65947E-14
 -1        71-4.19796E-05-4.19796E-05 2.18185E-13-1.24632E-13 2.12790E-13-1.80597E-13
 -1        72-8.39591E-05-8.39591E-05 2.19290E-13 7.31973E-13 1.93569E-13 2.18573E-13
 -3
    1PSTEP                       177          59           1          
  100CL  159 4.89781E-01          72                     0   59           1
 -4  TOSTRAIN    6    1
 -5  EXX         1    4    1    1
 -5  EYY         1    4    2    2
 -5  EZZ         1    4    3    3
 -5  EXY         1    4    1    2
 -5  EYZ         1    4    2    3
 -5  EZX         1    4    3    1
 -1         1-2.79864E-10-2.79864E-10 2.39883E-10-2.04049E-27 2.76550E-27-6.18066E-27
 -1         2-1.39932E-10-1.39932E-10 1.19942E-10-1.05663E-25 3.45418E-29-2.22441E-26
 -1         3-1.39932E-10-1.39932E-10 1.19942E-10 6.29331E-19 2.21410E-25-2.47727E-20
 -1         4-1.39932E-10-1.39932E-10 1.19942E-10-1.04771E-18-3.15704E-25-6.33562E-19
 -1         5-1.39932E-10-1.39932E-10 1.19942E-10-6.67181E-19 3.18357E-24 1.81441E-18
 -1         6-2.79864E-10-2.79864E-10 2.39883E-10-6.26777E-19-5.31425E-24 2.45325E-19
 -1         7-1.39932E-10-1.39932E-10 1.19942E-10 8.25303E-26 4.90816E-26 2.94980E-27
 -1         8-9.32879E-11-9.32879E-11 7.99611E-11-1.47417E-26-3.03770E-26 6.94847E-26
 -1         9-9.32879E-11-9.32879E-11 7.99611E-11-1.94147E-19-4.24179E-20 2.36828E-19
 -1        10-9.32879E-11-9.32879E-11 7.99611E-11-3.86353E-19 1.85980E-20 1.13174E-19
 -1        11-9.32879E-11-9.32879E-11 7.99611E-11-5.03692E-19 8.72538E-20-1.91805E-18
 -1        12-1.39932E-10-1.39932E-10 1.19942E-10 1.56574E-18-2.52313E-19 2.47841E-18
 -1        13-1.39932E-10-1.39932E-10 1.19942E-10 2.67419E-19 1.37784E-18 5.06449E-25
 -1        14-9.32879E-11-9.32879E-11 7.99611E-11 1.07025E-19-4.18588E-19-1.17895E-20
 -1        15-9.32879E-11-9.32879E-11 7.99611E-11 9.23867E-19-2.39542E-19-9.32901E-19
 -1        16-9.32879E-11-9.32879E-11 7.99611E-11 3.58564E-19 6.20697E-19 1.09359E-18
 -1        17-9.32879E-11-9.32879E-11 7.99611E-11 7.16772E-19 6.00288E-19-1.17992E-18
 -1        18-1.39932E-10-1.39932E-10 1.19942E-10-1.51611E-18-1.05178E-18 1.81858E-18
 -1        19-1.39932E-10-1.39932E-10 1.19942E-10-7.16480E-20-1.82182E-18-7.01487E-25
 -1        20-9.32879E-11-9.32879E-11 7.99611E-11-1.19020E-19 1.03925E-18 5.50241E-20
 -1        21-9.32879E-11-9.32879E-11 7.99611E-11-9.94510E-20 1.83238E-19-6.55393E-21
 -1        22-9.32879E-11-9.32879E-11 7.99611E-11-5.63995E-20-6.10620E-19-2.03018E-19
 -1        23-9.32879E-11-9.32879E-11 7.99611E-11 3.17693E-19-4.55401E-19 1.71540E-18
 -1        24-1.39932E-10-1.39932E-10 1.19942E-10 1.04325E-18 1.45459E-18-2.16388E-18
 -1        25-1.39932E-10-1.39932E-10 1.19942E-10-2.39869E-18-1.53686E-19 7.21507E-26
 -1        26-9.32879E-11-9.32879E-11 7.99611E-11-1.33059E-18 9.19969E-19 2.29160E-19
 -1        27-9.32879E-11-9.32879E-11 7.99611E-11-6.15249E-19-4.51094E-19-1.27130E-18
 -1        28-9.32879E-11-9.32879E-11 7.99611E-11-2.23208E-19-4.23469E-19 4.18888E-19
 -1        29-9.32879E-11-9.32879E-11 7.99611E-11 9.47052E-19-1.62139E-18-1.04421E-18
 -1        30-1.39932E-10-1.39932E-10 1.19942E-10-5.83735E-19 2.46236E-18 3.39945E-18
 -1        31-2.79864E-10-2.79864E-10 2.39883E-10 1.28550E-18-1.96980E-18-6.14375E-24
 -1        32-1.39932E-10-1.39932E-10 1.19942E-10 1.04555E-18-1.04723E-18-2.01546E-19
 -1        33-1.39932E-10-1.39932E-10 1.19942E-10-6.64671E-19-2.31096E-19 1.75921E-18
 -1        34-1.39932E-10-1.39932E-10 1.19942E-10 2.57502E-21-2.79755E-18-7.96166E-19
 -1        35-1.39932E-10-1.39932E-10 1.19942E-10 3.50922E-19 1.47155E-18 1.82135E-18
 -1        36-2.79864E-10-2.79864E-10 2.39883E-10 1.96110E-18-2.23514E-18-3.27010E-18
 -1        37-2.79864E-10-2.79864E-10 2.39883E-10-5.04929E-27 9.35541E-26 4.19578E-26
 -1        38-1.39932E-10-1.39932E-10 1.19942E-10 5.03503E-26-3.69650E-26 7.14710E-27
 -1        39-1.39932E-10-1.39932E-10 1.19942E-10-1.65250E-18 1.42775E-19 4.48905E-20
 -1        40-1.39932E-10-1.39932E-10 1.19942E-10 1.31175E-18-1.01162E-19-2.62562E-19
 -1        41-1.39932E-10-1.39932E-10 1.19942E-10 2.52435E-19 6.76026E-19-6.25175E-19
 -1        42-2.79864E-10-2.79864E-10 2.39883E-10-3.81934E-19-1.17260E-18-5.01328E-18
 -1        43-1.39932E-10-1.39932E-10 1.19942E-10-4.61999E-26 9.44759E-26-6.70163E-26
 -1        44-9.32879E-11-9.32879E-11 7.99611E-11 4.44998E-27-5.50434E-26 9.59927E-27
 -1        45-9.32879E-11-9.32879E-11 7.99611E-11 7.59526E-19 5.27654E-20-5.79291E-20
 -1        46-9.32879E-11-9.32879E-11 7.99611E-11 5.63059E-19-4.88432E-20 8.64341E-19
 -1        47-9.32879E-11-9.32879E-11 7.99611E-11-1.29207E-19 5.37936E-19 1.39636E-18
 -1        48-1.39932E-10-1.39932E-10 1.19942E-10 4.85238E-19-8.38610E-19 7.75316E-20
 -1        49-1.39932E-10-1.39932E-10 1.19942E-10-8.22800E-19-3.84014E-19 1.92978E-19
 -1        50-9.32879E-11-9.32879E-11 7.99611E-11-5.26248E-19-1.11107E-19 1.16862E-19
 -1        51-9.32879E-11-9.32879E-11 7.99611E-11-2.59831E-19-7.38725E-19 3.92536E-19
 -1        52-9.32879E-11-9.32879E-11 7.99611E-11 5.42152E-19 2.50724E-19-7.25488E-19
 -1        53-9.32879E-11-9.32879E-11 7.99611E-11 2.26047E-19-2.81090E-19 1.68631E-18
 -1        54-1.39932E-10-1.39932E-10 1.19942E-10 1.55630E-18-9.27795E-19-2.45145E-18
 -1        55-1.39932E-10-1.39932E-10 1.19942E-10 2.20472E-19 1.39618E-18-2.46345E-19
 -1        56-9.32879E-11-9.32879E-11 7.99611E-11 1.69267E-19-1.29555E-18-1.09205E-19
 -1        57-9.32879E-11-9.32879E-11 7.99611E-11 2.99283E-20 1.17020E-19-2.59159E-19
 -1        58-9.32879E-11-9.32879E-11 7.99611E-11-1.55909E-19-3.12185E-20 2.49465E-19
 -1        59-9.32879E-11-9.32879E-11 7.99611E-11 5.22846E-19 3.32736E-19-1.15915E-18
 -1        60-1.39932E-10-1.39932E-10 1.19942E-10-1.31912E-18-7.19069E-20 2.41894E-18
 -1        61-1.39932E-10-1.39932E-10 1.19942E-10-8.59557E-19-3.47158E-18 1.90086E-19
 -1        62-9.32879E-11-9.32879E-11 7.99611E-11-8.13439E-19 7.20959E-19 3.55885E-19
 -1        63-9.32879E-11-9.32879E-11 7.99611E-11 5.49428E-19-7.23424E-19-3.17765E-19
 -1        64-9.32879E-11-9.32879E-11 7.99611E-11-7.40441E-19 6.00650E-19-4.76381E-19
 -1        65-9.32879E-11-9.32879E-11 7.99611E-11-4.73023E-19-4.75645E-19 2.81279E-19
 -1        66-1.39932E-10-1.39932E-10 1.19942E-10 1.38375E-18-1.27165E-18-1.89608E-18
 -1        67-2.79864E-10-2.79864E-10 2.39883E-10 4.60687E-19 4.95318E-18-3.09459E-19
 -1        68-1.39932E-10-1.39932E-10 1.19942E-10-1.30258E-19-4.81602E-19-3.56273E-19
 -1        69-1.39932E-10-1.39932E-10 1.19942E-10-5.46067E-19 1.87530E-18-6.41799E-19
 -1        70-1.39932E-10-1.39932E-10 1.19942E-10-8.52459E-19 1.26810E-19 2.26538E-19
 -1        71-1.39932E-10-1.39932E-10 1.19942E-10-7.71529E-19 1.31727E-18-1.11798E-18
 -1        72-2.79864E-10-2.79864E-10 2.39883E-10 4.53126E-18 1.19829E-18 1.35307E-18
 -3
    1PSTEP                       178          60           1          
  100CL  160 4.98781E-01          72                     0   60           1
 -4  DISP        4    1
 -5  D1          1    2    1    0
 -5  D2          1    2    2    0
 -5  D3          1    2    3    0
 -5  ALL         1    2    0    0    1ALL
 -1         1 0.00000E+00 0.00000E+00 0.00000E+00
 -1         2-1.42509E-07 0.00000E+00 0.00000E+00
 -1         3-7.48172E+00 0.00000E+00 0.00000E+00
 -1         4-7.48172E+00 0.00000E+00 0.00000E+00
 -1         5-1.49634E+01 0.00000E+00 0.00000E+00
 -1         6-1.49634E+01 0.00000E+00 0.00000E+00
 -1         7 0.00000E+00-1.42509E-07 0.00000E+00
 -1         8-1.42509E-07-1.42509E-07 0.00000E+00
 -1         9-7.48172E+00-1.42509E-07 0.00000E+00
 -1        10-7.48172E+00-1.42509E-07 0.00000E+00
 -1        11-1.49634E+01-1.42509E-07 0.00000E+00
 -1        12-1.49634E+01-1.42509E-07 0.00000E+00
 -1        13 0.00000E+00-7.48172E+00 0.00000E+00
 -1        14-1.42509E-07-7.48172E+00 0.00000E+00
 -1        15-7.48172E+00-7.48172E+00 0.00000E+00
 -1        16-7.48172E+00-7.48172E+00 0.00000E+00
 -1        17-1.49634E+01-7.48172E+00 0.00000E+00
 -1        18-1.49634E+01-7.48172E+00 0.00000E+00
 -1        19 0.00000E+00-7.48172E+00 0.00000E+00
 -1        20-1.42509E-07-7.48172E+00 0.00000E+00
 -1        21-7.48172E+00-7.48172E+00 0.00000E+00
 -1        22-7.48172E+00-7.48172E+00 0.00000E+00
 -1        23-1.49634E+01-7.48172E+00 0.00000E+00
 -1        24-1.49634E+01-7.48172E+00 0.00000E+00
 -1        25 0.00000E+00-1.49634E+01 0.00000E+00
 -1        26-1.42509E-07-1.49634E+01 0.00000E+00
 -1        27-7.48172E+00-1.49634E+01 0.00000E+00
 -1        28-7.48172E+00-1.49634E+01 0.00000E+00
 -1        29-1.49634E+01-1.49634E+01 0.00000E+00
 -1        30-1.49634E+01-1.49634E+01 0.00000E+00
 -1        31 0.00000E+00-1.49634E+01 0.00000E+00
 -1        32-1.42509E-07-1.49634E+01 0.00000E+00
 -1        33-7.48172E+00-1.49634E+01 0.00000E+00
 -1        34-7.48172E+00-1.49634E+01 0.00000E+00
 -1        35-1.49634E+01-1.49634E+01 0.00000E+00
 -1        36-1.49634E+01-1.49634E+01 0.00000E+00
 -1        37 0.00000E+00 0.00000E+00 1.71011E-07
 -1        38-1.42509E-07 0.00000E+00 1.71011E-07
 -1        39-7.48172E+00 0.00000E+00 1.71011E-07
 -1        40-7.48172E+00 0.00000E+00 1.71011E-07
 -1        41-1.49634E+01 0.00000E+00 1.71011E-07
 -1        42-1.49634E+01 0.00000E+00 1.71011E-07
 -1        43 0.00000E+00-1.42509E-07 1.71011E-07
 -1        44-1.42509E-07-1.42509E-07 1.71011E-07
 -1        45-7.48172E+00-1.42509E-07 1.71011E-07
 -1        46-7.48172E+00-1.42509E-07 1.71011E-07
 -1        47-1.49634E+01-1.42509E-07 1.71011E-07
 -1        48-1.49634E+01-1.42509E-07 1.71011E-07
 -1        49 0.00000E+00-7.48172E+00 1.71011E-07
 -1        50-1.42509E-07-7.48172E+00 1.71011E-07
 -1        51-7.48172E+00-7.48172E+00 1.71011E-07
 -1        52-7.48172E+00-7.48172E+00 1.71011E-07
 -1        53-1.49634E+01-7.48172E+00 1.71011E-07
 -1        54-1.49634E+01-7.48172E+00 1.71011E-07
 -1        55 0.00000E+00-7.48172E+00 1.71011E-07
 -1        56-1.42509E-07-7.48172E+00 1.71011E-07
 -1        57-7.48172E+00-7.48172E+00 1.71011E-07
 -1        58-7.48172E+00-7.48172E+00 1.71011E-07
 -1        59-1.49634E+01-7.48172E+00 1.71011E-07
 -1        60-1.49634E+01-7.48172E+00 1.71011E-07
 -1        61 0.00000E+00-1.49634E+01 1.71011E-07
 -1        62-1.42509E-07-1.49634E+01 1.71011E-07
 -1        63-7.48172E+00-1.49634E+01 1.71011E-07
 -1        64-7.48172E+00-1.49634E+01 1.71011E-07
 -1        65-1.49634E+01-1.49634E+01 1.71011E-07
 -1        66-1.49634E+01-1.49634E+01 1.71011E-07
 -1        67 0.00000E+00-1.49634E+01 1.71011E-07
 -1        68-1.42509E-07-1.49634E+01 1.71011E-07
 -1        69-7.48172E+00-1.49634E+01 1.71011E-07
 -1        70-7.48172E+00-1.49634E+01 1.71011E-07
 -1        71-1.49634E+01-1.49634E+01 1.71011E-07
 -1        72-1.49634E+01-1.49634E+01 1.71011E-07
 -3
    1PSTEP                       179          60           1          
  100CL  160 4.98781E-01          72                     0   60           1
 -4  STRESS      6    1
 -5  SXX         1    4    1    1
 -5  SYY         1    4    2    2
 -5  SZZ         1    4    3    3
 -5  SXY         1    4    1    2
 -5  SYZ         1    4    2    3
 -5  SZX         1    4    3    1
 -1         1-8.55019E-05-8.55019E-05 3.27299E-20 1.08386E-21-1.35663E-21 2.22321E-21
 -1         2-4.27510E-05-4.27510E-05 7.35170E-21-1.43115E-20 3.60246E-22-4.67322E-21
 -1         3-4.27510E-05-4.27510E-05 6.82089E-15-6.01767E-16 7.47915E-20 9.94490E-15
 -1         4-4.27510E-05-4.27510E-05 4.90586E-14-4.21664E-14-2.29164E-20-6.78241E-15
 -1         5-4.27510E-05-4.27510E-05-2.84624E-13-3.30446E-13-1.84450E-19 5.36415E-14
 -1         6-8.55019E-05-8.55019E-05-3.96802E-13 6.55112E-13-2.71048E-19 1.39927E-14
 -1         7-4.27510E-05-4.27510E-05-2.15686E-20 5.11837E-21 3.32497E-21-9.24034E-22
 -1         8-2.85006E-05-2.85006E-05-1.54275E-20-6.49007E-21-5.44221E-21 1.30640E-20
 -1         9-2.85006E-05-2.85006E-05-1.62262E-13 1.65544E-14-4.27222E-15 8.79528E-15
 -1        10-2.85006E-05-2.85006E-05-1.98755E-13-1.54486E-14 2.86750E-15 1.53151E-13
 -1        11-2.85006E-05-2.85006E-05 4.30774E-14-2.19966E-13-2.15686E-14 7.73686E-15
 -1        12-4.27510E-05-4.27510E-05 4.24606E-15 7.16971E-14 4.01558E-14-9.88289E-14
 -1        13-4.27510E-05-4.27510E-05-9.59438E-14-1.30725E-13-8.74474E-14-6.75857E-20
 -1        14-2.85006E-05-2.85006E-05 1.37971E-13-9.47931E-14 6.66266E-14-1.00993E-14
 -1        15-2.85006E-05-2.85006E-05-1.96206E-13-1.17655E-13-8.78210E-14-3.07928E-14
 -1        16-2.85006E-05-2.85006E-05 3.15326E-13-1.16977E-13 1.11446E-13 7.71813E-14
 -1        17-2.85006E-05-2.85006E-05 1.49024E-13 1.76024E-13-1.11151E-13 1.80337E-13
 -1        18-4.27510E-05-4.27510E-05-5.49910E-14 3.48544E-13 1.16846E-13-4.24252E-13
 -1        19-4.27510E-05-4.27510E-05-1.44173E-13 3.50279E-14-3.57502E-14-9.55558E-20
 -1        20-2.85006E-05-2.85006E-05 4.85493E-14 1.57088E-14-6.19994E-14 7.52998E-15
 -1        21-2.85006E-05-2.85006E-05-2.07347E-13-5.87518E-14 2.12833E-14 1.00246E-13
 -1        22-2.85006E-05-2.85006E-05 1.01979E-14-7.64931E-15-2.14670E-14 1.87738E-14
 -1        23-2.85006E-05-2.85006E-05 1.24125E-13 3.30695E-14-9.05646E-14-2.94434E-13
 -1        24-4.27510E-05-4.27510E-05 1.33240E-13-2.65788E-13 1.45150E-13 4.96927E-13
 -1        25-4.27510E-05-4.27510E-05-1.30531E-14 6.53630E-14-4.00474E-13 4.64245E-21
 -1        26-2.85006E-05-2.85006E-05-1.98095E-13 2.31249E-14-6.96263E-14 1.15323E-14
 -1        27-2.85006E-05-2.85006E-05-6.97675E-14-5.36192E-14-1.43127E-13-6.95838E-14
 -1        28-2.85006E-05-2.85006E-05-1.28766E-13-9.63633E-14-2.00361E-13-6.44128E-14
 -1        29-2.85006E-05-2.85006E-05-1.08348E-13-1.53159E-13 1.00750E-13 3.52868E-14
 -1        30-4.27510E-05-4.27510E-05 1.86943E-13-3.79680E-14-4.39707E-13 1.39125E-13
 -1        31-8.55019E-05-8.55019E-05 4.33491E-13-3.50269E-14 7.07518E-13-1.73742E-19
 -1        32-4.27510E-05-4.27510E-05-1.20146E-13-4.81890E-14-1.63743E-13 1.21622E-14
 -1        33-4.27510E-05-4.27510E-05-3.82723E-14-8.01567E-14 1.93743E-13 2.35556E-13
 -1        34-4.27510E-05-4.27510E-05-8.40705E-14-1.45561E-13 1.46354E-13-9.77346E-14
 -1        35-4.27510E-05-4.27510E-05 5.25558E-13 7.30640E-14-4.13437E-13-6.85089E-15
 -1        36-8.55019E-05-8.55019E-05 1.54846E-12 1.69585E-14 1.03029E-12 1.78430E-13
 -1        37-8.55019E-05-8.55019E-05 1.24016E-20 4.18987E-22 1.21511E-20-2.39446E-21
 -1        38-4.27510E-05-4.27510E-05-1.57003E-20 1.39329E-20-3.45543E-21-6.12236E-21
 -1        39-4.27510E-05-4.27510E-05-1.67607E-13 3.12929E-14 1.89058E-14 7.30249E-14
 -1        40-4.27510E-05-4.27510E-05-1.02879E-13 4.89651E-14-1.98849E-14 5.80510E-16
 -1        41-4.27510E-05-4.27510E-05 1.82466E-13 1.32956E-13 3.48898E-14-9.28048E-14
 -1        42-8.55019E-05-8.55019E-05 8.41913E-13-5.07037E-13-4.74945E-14-2.22583E-13
 -1        43-4.27510E-05-4.27510E-05 3.66935E-20-6.17506E-21 1.00788E-20-9.41952E-21
 -1        44-2.85006E-05-2.85006E-05-8.65121E-21 5.03223E-21-7.98599E-21 5.26135E-21
 -1        45-2.85006E-05-2.85006E-05 4.98363E-14-1.40375E-13 8.33160E-15-3.39962E-15
 -1        46-2.85006E-05-2.85006E-05 2.83373E-14 9.46223E-14-1.03891E-14-9.33633E-14
 -1        47-2.85006E-05-2.85006E-05-3.28568E-13 7.33082E-14 1.69144E-15-5.13032E-15
 -1        48-4.27510E-05-4.27510E-05-4.00954E-13 5.86557E-14 1.64087E-14 2.74043E-13
 -1        49-4.27510E-05-4.27510E-05-2.14598E-13 3.50280E-14 8.34311E-15 2.39390E-14
 -1        50-2.85006E-05-2.85006E-05 4.57326E-14 4.03899E-14-4.23758E-14 5.86013E-15
 -1        51-2.85006E-05-2.85006E-05-6.60669E-14-4.05115E-14 2.62748E-14-7.75456E-14
 -1        52-2.85006E-05-2.85006E-05-9.46522E-15 1.15674E-13-1.57010E-13 9.49319E-14
 -1        53-2.85006E-05-2.85006E-05-9.79908E-14 6.04300E-14-1.80286E-14 1.61249E-13
 -1        54-4.27510E-05-4.27510E-05 3.59005E-14 1.16885E-14-9.78325E-14-2.64437E-13
 -1        55-4.27510E-05-4.27510E-05-2.07295E-13-9.38477E-15-7.26864E-15-1.04220E-14
 -1        56-2.85006E-05-2.85006E-05-6.66716E-15 1.07813E-14-3.53257E-15 5.82082E-16
 -1        57-2.85006E-05-2.85006E-05 2.69119E-13-5.37801E-14 3.78503E-14-5.02330E-15
 -1        58-2.85006E-05-2.85006E-05 8.98305E-15-4.43451E-14-9.16900E-14-3.71597E-14
 -1        59-2.85006E-05-2.85006E-05-1.23111E-14 9.90792E-15-1.66735E-14-1.50951E-13
 -1        60-4.27510E-05-4.27510E-05-3.94906E-13 3.09536E-13 3.81296E-14 1.95322E-13
 -1        61-4.27510E-05-4.27510E-05-1.42678E-13-1.75135E-14-2.31641E-13-1.75285E-15
 -1        62-2.85006E-05-2.85006E-05-4.80757E-14-3.69197E-14-1.36962E-13 1.03637E-14
 -1        63-2.85006E-05-2.85006E-05-8.18129E-14-5.91219E-14-1.79216E-13-7.58485E-14
 -1        64-2.85006E-05-2.85006E-05 1.57333E-16 1.98720E-14-1.06160E-14 1.79209E-13
 -1        65-2.85006E-05-2.85006E-05-1.52911E-13-2.42085E-13-2.11009E-13 1.11209E-13
 -1        66-4.27510E-05-4.27510E-05-3.82652E-13-8.61925E-14 2.78963E-13-4.07024E-13
 -1        67-8.55019E-05-8.55019E-05 1.52669E-13 9.38585E-15-5.64745E-14-4.57471E-14
 -1        68-4.27510E-05-4.27510E-05 9.40977E-14-3.31732E-14 2.99218E-13-1.07112E-14
 -1        69-4.27510E-05-4.27510E-05 1.55113E-13-1.02834E-13 7.29889E-14-1.23280E-13
 -1        70-4.27510E-05-4.27510E-05 2.52516E-13 8.26216E-14 1.82344E-13 9.26185E-15
 -1        71-4.27510E-05-4.27510E-05-2.01662E-13-5.00575E-13 1.39195E-13-7.17142E-14
 -1        72-8.55019E-05-8.55019E-05 8.63089E-13 2.23055E-13 3.22005E-13 2.69008E-15
 -3
    1PSTEP                       180          60           1          
  100CL  160 4.98781E-01          72                     0   60           1
 -4  TOSTRAIN    6    1
 -5  EXX         1    4    1    1
 -5  EYY         1    4    2    2
 -5  EZZ         1    4    3    3
 -5  EXY         1    4    1    2
 -5  EYZ         1    4    2    3
 -5  EZX         1    4    3    1
 -1         1-2.85006E-10-2.85006E-10 2.44291E-10 6.70960E-27-8.39821E-27 1.37627E-26
 -1         2-1.42503E-10-1.42503E-10 1.22146E-10-8.85952E-26 2.23009E-27-2.89295E-26
 -1         3-1.42503E-10-1.42503E-10 1.22146E-10-3.72522E-21 4.62995E-25 6.15637E-20
 -1         4-1.42503E-10-1.42503E-10 1.22146E-10-2.61030E-19-1.41864E-25-4.19863E-20
 -1         5-1.42503E-10-1.42503E-10 1.22146E-10-2.04562E-18-1.14183E-24 3.32066E-19
 -1         6-2.85006E-10-2.85006E-10 2.44291E-10 4.05546E-18-1.67792E-24 8.66212E-20
 -1         7-1.42503E-10-1.42503E-10 1.22146E-10 3.16852E-26 2.05832E-26-5.72021E-27
 -1         8-9.50021E-11-9.50021E-11 8.14304E-11-4.01766E-26-3.36899E-26 8.08723E-26
 -1         9-9.50021E-11-9.50021E-11 8.14304E-11 1.02480E-19-2.64471E-20 5.44469E-20
 -1        10-9.50021E-11-9.50021E-11 8.14304E-11-9.56343E-20 1.77512E-20 9.48077E-19
 -1        11-9.50021E-11-9.50021E-11 8.14304E-11-1.36170E-18-1.33520E-19 4.78948E-20
 -1        12-1.42503E-10-1.42503E-10 1.22146E-10 4.43839E-19 2.48583E-19-6.11798E-19
 -1        13-1.42503E-10-1.42503E-10 1.22146E-10-8.09250E-19-5.41341E-19-4.18388E-25
 -1        14-9.50021E-11-9.50021E-11 8.14304E-11-5.86814E-19 4.12450E-19-6.25192E-20
 -1        15-9.50021E-11-9.50021E-11 8.14304E-11-7.28343E-19-5.43653E-19-1.90622E-19
 -1        16-9.50021E-11-9.50021E-11 8.14304E-11-7.24145E-19 6.89906E-19 4.77789E-19
 -1        17-9.50021E-11-9.50021E-11 8.14304E-11 1.08967E-18-6.88077E-19 1.11637E-18
 -1        18-1.42503E-10-1.42503E-10 1.22146E-10 2.15765E-18 7.23335E-19-2.62632E-18
 -1        19-1.42503E-10-1.42503E-10 1.22146E-10 2.16839E-19-2.21311E-19-5.91536E-25
 -1        20-9.50021E-11-9.50021E-11 8.14304E-11 9.72451E-20-3.83806E-19 4.66142E-20
 -1        21-9.50021E-11-9.50021E-11 8.14304E-11-3.63701E-19 1.31754E-19 6.20573E-19
 -1        22-9.50021E-11-9.50021E-11 8.14304E-11-4.73529E-20-1.32891E-19 1.16219E-19
 -1        23-9.50021E-11-9.50021E-11 8.14304E-11 2.04716E-19-5.60638E-19-1.82269E-18
 -1        24-1.42503E-10-1.42503E-10 1.22146E-10-1.64536E-18 8.98546E-19 3.07622E-18
 -1        25-1.42503E-10-1.42503E-10 1.22146E-10 4.04628E-19-2.47912E-18 2.87390E-26
 -1        26-9.50021E-11-9.50021E-11 8.14304E-11 1.43154E-19-4.31020E-19 7.13902E-20
 -1        27-9.50021E-11-9.50021E-11 8.14304E-11-3.31928E-19-8.86027E-19-4.30757E-19
 -1        28-9.50021E-11-9.50021E-11 8.14304E-11-5.96535E-19-1.24033E-18-3.98746E-19
 -1        29-9.50021E-11-9.50021E-11 8.14304E-11-9.48129E-19 6.23691E-19 2.18442E-19
 -1        30-1.42503E-10-1.42503E-10 1.22146E-10-2.35040E-19-2.72200E-18 8.61249E-19
 -1        31-2.85006E-10-2.85006E-10 2.44291E-10-2.16833E-19 4.37987E-18-1.07554E-24
 -1        32-1.42503E-10-1.42503E-10 1.22146E-10-2.98313E-19-1.01365E-18 7.52900E-20
 -1        33-1.42503E-10-1.42503E-10 1.22146E-10-4.96208E-19 1.19936E-18 1.45821E-18
 -1        34-1.42503E-10-1.42503E-10 1.22146E-10-9.01090E-19 9.06003E-19-6.05024E-19
 -1        35-1.42503E-10-1.42503E-10 1.22146E-10 4.52301E-19-2.55937E-18-4.24103E-20
 -1        36-2.85006E-10-2.85006E-10 2.44291E-10 1.04981E-19 6.37799E-18 1.10456E-18
 -1        37-2.85006E-10-2.85006E-10 2.44291E-10 2.59373E-27 7.52209E-26-1.48228E-26
 -1        38-1.42503E-10-1.42503E-10 1.22146E-10 8.62513E-26-2.13908E-26-3.79003E-26
 -1        39-1.42503E-10-1.42503E-10 1.22146E-10 1.93718E-19 1.17036E-19 4.52059E-19
 -1        40-1.42503E-10-1.42503E-10 1.22146E-10 3.03117E-19-1.23097E-19 3.59363E-21
 -1        41-1.42503E-10-1.42503E-10 1.22146E-10 8.23061E-19 2.15984E-19-5.74506E-19
 -1        42-2.85006E-10-2.85006E-10 2.44291E-10-3.13880E-18-2.94013E-19-1.37790E-18
 -1        43-1.42503E-10-1.42503E-10 1.22146E-10-3.82265E-26 6.23927E-26-5.83113E-26
 -1        44-9.50021E-11-9.50021E-11 8.14304E-11 3.11519E-26-4.94371E-26 3.25703E-26
 -1        45-9.50021E-11-9.50021E-11 8.14304E-11-8.68988E-19 5.15765E-20-2.10453E-20
 -1        46-9.50021E-11-9.50021E-11 8.14304E-11 5.85757E-19-6.43135E-20-5.77963E-19
 -1        47-9.50021E-11-9.50021E-11 8.14304E-11 4.53813E-19 1.04708E-20-3.17591E-20
 -1        48-1.42503E-10-1.42503E-10 1.22146E-10 3.63107E-19 1.01577E-19 1.69646E-18
 -1        49-1.42503E-10-1.42503E-10 1.22146E-10 2.16840E-19 5.16478E-20 1.48194E-19
 -1        50-9.50021E-11-9.50021E-11 8.14304E-11 2.50033E-19-2.62326E-19 3.62770E-20
 -1        51-9.50021E-11-9.50021E-11 8.14304E-11-2.50785E-19 1.62653E-19-4.80044E-19
 -1        52-9.50021E-11-9.50021E-11 8.14304E-11 7.16076E-19-9.71965E-19 5.87674E-19
 -1        53-9.50021E-11-9.50021E-11 8.14304E-11 3.74090E-19-1.11606E-19 9.98207E-19
 -1        54-1.42503E-10-1.42503E-10 1.22146E-10 7.23574E-20-6.05630E-19-1.63699E-18
 -1        55-1.42503E-10-1.42503E-10 1.22146E-10-5.80962E-20-4.49963E-20-6.45169E-20
 -1        56-9.50021E-11-9.50021E-11 8.14304E-11 6.67417E-20-2.18683E-20 3.60336E-21
 -1        57-9.50021E-11-9.50021E-11 8.14304E-11-3.32925E-19 2.34311E-19-3.10966E-20
 -1        58-9.50021E-11-9.50021E-11 8.14304E-11-2.74517E-19-5.67605E-19-2.30036E-19
 -1        59-9.50021E-11-9.50021E-11 8.14304E-11 6.13347E-20-1.03217E-19-9.34456E-19
 -1        60-1.42503E-10-1.42503E-10 1.22146E-10 1.91617E-18 2.36040E-19 1.20913E-18
 -1        61-1.42503E-10-1.42503E-10 1.22146E-10-1.08417E-19-1.43397E-18-1.08509E-20
 -1        62-9.50021E-11-9.50021E-11 8.14304E-11-2.28551E-19-8.47861E-19 6.41562E-20
 -1        63-9.50021E-11-9.50021E-11 8.14304E-11-3.65993E-19-1.10943E-18-4.69538E-19
 -1        64-9.50021E-11-9.50021E-11 8.14304E-11 1.23017E-19-6.57182E-20 1.10939E-18
 -1        65-9.50021E-11-9.50021E-11 8.14304E-11-1.49862E-18-1.30625E-18 6.88434E-19
 -1        66-1.42503E-10-1.42503E-10 1.22146E-10-5.33573E-19 1.72691E-18-2.51968E-18
 -1        67-2.85006E-10-2.85006E-10 2.44291E-10 5.81029E-20-3.49604E-19-2.83196E-19
 -1        68-1.42503E-10-1.42503E-10 1.22146E-10-2.05358E-19 1.85230E-18-6.63077E-20
 -1        69-1.42503E-10-1.42503E-10 1.22146E-10-6.36591E-19 4.51836E-19-7.63165E-19
 -1        70-1.42503E-10-1.42503E-10 1.22146E-10 5.11467E-19 1.12880E-18 5.73352E-20
 -1        71-1.42503E-10-1.42503E-10 1.22146E-10-3.09879E-18 8.61685E-19-4.43945E-19
 -1        72-2.85006E-10-2.85006E-10 2.44291E-10 1.38082E-18 1.99337E-18 1.66529E-20
 -3
    1PSTEP                       181          61           1          
  100CL  161 5.07781E-01          72                     0   61           1
 -4  DISP        4    1
 -5  D1          1    2    1    0
 -5  D2          1    2    2    0
 -5  D3          1    2    3    0
 -5  ALL         1    2    0    0    1ALL
 -1         1 0.00000E+00 0.00000E+00 0.00000E+00
 -1         2-1.45080E-07 0.00000E+00 0.00000E+00
 -1         3-7.61672E+00 0.00000E+00 0.00000E+00
 -1         4-7.61672E+00 0.00000E+00 0.00000E+00
 -1         5-1.52334E+01 0.00000E+00 0.00000E+00
 -1         6-1.52334E+01 0.00000E+00 0.00000E+00
 -1         7 0.00000E+00-1.45080E-07 0.00000E+00
 -1         8-1.45080E-07-1.45080E-07 0.00000E+00
 -1         9-7.61672E+00-1.45080E-07 0.00000E+00
 -1        10-7.61672E+00-1.45080E-07 0.00000E+00
 -1        11-1.52334E+01-1.45080E-07 0.00000E+00
 -1        12-1.52334E+01-1.45080E-07 0.00000E+00
 -1        13 0.00000E+00-7.61672E+00 0.00000E+00
 -1        14-1.45080E-07-7.61672E+00 0.00000E+00
 -1        15-7.61672E+00-7.61672E+00 0.00000E+00
 -1        16-7.61672E+00-7.61672E+00 0.00000E+00
 -1        17-1.52334E+01-7.61672E+00 0.00000E+00
 -1        18-1.52334E+01-7.61672E+00 0.00000E+00
 -1        19 0.00000E+00-7.61672E+00 0.00000E+00
 -1        20-1.45080E-07-7.61672E+00 0.00000E+00
 -1        21-7.61672E+00-7.61672E+00 0.00000E+00
 -1        22-7.61672E+00-7.61672E+00 0.00000E+00
 -1        23-1.52334E+01-7.61672E+00 0.00000E+00
 -1        24-1.52334E+01-7.61672E+00 0.00000E+00
 -1        25 0.00000E+00-1.52334E+01 0.00000E+00
 -1        26-1.45080E-07-1.52334E+01 0.00000E+00
 -1        27-7.61672E+00-1.52334E+01 0.00000E+00
 -1        28-7.61672E+00-1.52334E+01 0.00000E+00
 -1        29-1.52334E+01-1.52334E+01 0.00000E+00
 -1        30-1.52334E+01-1.52334E+01 0.00000E+00
 -1        31 0.00000E+00-1.52334E+01 0.00000E+00
 -1        32-1.45080E-07-1.52334E+01 0.00000E+00
 -1        33-7.61672E+00-1.52334E+01 0.00000E+00
 -1        34-7.61672E+00-1.52334E+01 0.00000E+00
 -1        35-1.52334E+01-1.52334E+01 0.00000E+00
 -1        36-1.52334E+01-1.52334E+01 0.00000E+00
 -1        37 0.00000E+00 0.00000E+00 1.74096E-07
 -1        38-1.45080E-07 0.00000E+00 1.74096E-07
 -1        39-7.61672E+00 0.00000E+00 1.74096E-07
 -1        40-7.61672E+00 0.00000E+00 1.74096E-07
 -1        41-1.52334E+01 0.00000E+00 1.74096E-07
 -1        42-1.52334E+01 0.00000E+00 1.74096E-07
 -1        43 0.00000E+00-1.45080E-07 1.74096E-07
 -1        44-1.45080E-07-1.45080E-07 1.74096E-07
 -1        45-7.61672E+00-1.45080E-07 1.74096E-07
 -1        46-7.61672E+00-1.45080E-07 1.74096E-07
 -1        47-1.52334E+01-1.45080E-07 1.74096E-07
 -1        48-1.52334E+01-1.45080E-07 1.74096E-07
 -1        49 0.00000E+00-7.61672E+00 1.74096E-07
 -1        50-1.45080E-07-7.61672E+00 1.74096E-07
 -1        51-7.61672E+00-7.61672E+00 1.74096E-07
 -1        52-7.61672E+00-7.61672E+00 1.74096E-07
 -1        53-1.52334E+01-7.61672E+00 1.74096E-07
 -1        54-1.52334E+01-7.61672E+00 1.74096E-07
 -1        55 0.00000E+00-7.61672E+00 1.74096E-07
 -1        56-1.45080E-07-7.61672E+00 1.74096E-07
 -1        57-7.61672E+00-7.61672E+00 1.74096E-07
 -1        58-7.61672E+00-7.61672E+00 1.74096E-07
 -1        59-1.52334E+01-7.61672E+00 1.74096E-07
 -1        60-1.52334E+01-7.61672E+00 1.74096E-07
 -1        61 0.00000E+00-1.52334E+01 1.74096E-07
 -1        62-1.45080E-07-1.52334E+01 1.74096E-07
 -1        63-7.61672E+00-1.52334E+01 1.74096E-07
 -1        64-7.61672E+00-1.52334E+01 1.74096E-07
 -1        65-1.52334E+01-1.52334E+01 1.74096E-07
 -1        66-1.52334E+01-1.52334E+01 1.74096E-07
 -1        67 0.00000E+00-1.52334E+01 1.74096E-07
 -1        68-1.45080E-07-1.52334E+01 1.74096E-07
 -1        69-7.61672E+00-1.52334E+01 1.74096E-07
 -1        70-7.61672E+00-1.52334E+01 1.74096E-07
 -1        71-1.52334E+01-1.52334E+01 1.74096E-07
 -1        72-1.52334E+01-1.52334E+01 1.74096E-07
 -3
    1PSTEP                       182          61           1          
  100CL  161 5.07781E-01          72                     0   61           1
 -4  STRESS      6    1
 -5  SXX         1    4    1    1
 -5  SYY         1    4    2    2
 -5  SZZ         1    4    3    3
 -5  SXY         1    4    1    2
 -5  SYZ         1    4    2    3
 -5  SZX         1    4    3    1
 -1         1-8.70447E-05-8.70447E-05 2.90989E-20 1.04383E-21-1.99470E-21 5.58914E-22
 -1         2-4.35224E-05-4.35224E-05-1.47923E-20 4.79993E-21-4.34531E-22 2.42439E-21
 -1         3-4.35224E-05-4.35224E-05 7.43824E-14 1.71791E-13-6.90244E-21-2.12464E-14
 -1         4-4.35224E-05-4.35224E-05 8.02569E-14-2.25361E-14-6.14230E-20-3.57575E-15
 -1         5-4.35224E-05-4.35224E-05-3.90921E-14-2.79162E-13-3.25204E-20-2.06033E-13
 -1         6-8.70447E-05-8.70447E-05 4.78578E-13 2.72325E-13-4.61169E-19 9.04840E-14
 -1         7-4.35224E-05-4.35224E-05 2.15688E-20 5.21917E-22 2.12842E-21-7.79909E-23
 -1         8-2.90149E-05-2.90149E-05-1.37739E-20 3.19996E-21-2.74898E-22-1.82368E-21
 -1         9-2.90149E-05-2.90149E-05 5.72157E-14 7.25240E-14-1.56204E-15-6.92338E-14
 -1        10-2.90149E-05-2.90149E-05 3.59527E-14-6.60298E-15-1.86388E-15-5.83120E-14
 -1        11-2.90149E-05-2.90149E-05-9.91136E-14-1.68894E-13 3.53851E-15 2.32164E-13
 -1        12-4.35224E-05-4.35224E-05-4.66098E-14 5.94774E-14 1.93920E-14 4.25957E-14
 -1        13-4.35224E-05-4.35224E-05 5.91638E-14 2.30575E-15 2.23375E-13 5.49262E-20
 -1        14-2.90149E-05-2.90149E-05-7.62739E-14-9.89130E-15-6.41888E-14-5.18175E-15
 -1        15-2.90149E-05-2.90149E-05 1.78254E-13 1.55261E-13-1.21796E-13 1.32746E-13
 -1        16-2.90149E-05-2.90149E-05-5.11388E-14 1.01413E-13 5.96676E-14-1.21748E-13
 -1        17-2.90149E-05-2.90149E-05-3.45814E-14-7.71505E-15 8.06016E-14 2.03938E-13
 -1        18-4.35224E-05-4.35224E-05-2.06914E-13-6.96498E-15-1.18618E-13-7.24041E-14
 -1        19-4.35224E-05-4.35224E-05-3.73014E-14 1.56211E-15 5.89115E-14-2.22524E-20
 -1        20-2.90149E-05-2.90149E-05-1.50598E-13-1.03871E-14-8.68914E-14 1.52221E-14
 -1        21-2.90149E-05-2.90149E-05-8.23234E-14 3.73069E-14 3.29010E-14-7.84590E-14
 -1        22-2.90149E-05-2.90149E-05-4.04439E-13-2.08343E-14-1.69785E-14 5.25797E-14
 -1        23-2.90149E-05-2.90149E-05 6.88805E-14-6.48176E-14-5.02136E-14-2.89531E-13
 -1        24-4.35224E-05-4.35224E-05 7.41894E-14 1.09819E-13 5.87448E-14 4.52427E-13
 -1        25-4.35224E-05-4.35224E-05-8.24427E-14-2.61450E-13-1.88159E-13-7.69000E-20
 -1        26-2.90149E-05-2.90149E-05-1.32094E-13-1.38700E-13 2.07191E-14 4.84578E-16
 -1        27-2.90149E-05-2.90149E-05-7.50632E-14-1.11414E-14-1.16856E-13-1.88999E-13
 -1        28-2.90149E-05-2.90149E-05 1.94106E-13 3.21975E-14 1.39634E-13 1.66925E-13
 -1        29-2.90149E-05-2.90149E-05-2.46230E-13-5.47566E-14 2.27034E-14-2.24188E-13
 -1        30-4.35224E-05-4.35224E-05 7.38204E-13-3.12074E-13-2.51417E-13-1.22742E-13
 -1        31-8.70447E-05-8.70447E-05 3.02524E-13 1.40111E-13 5.78647E-13-7.13696E-20
 -1        32-4.35224E-05-4.35224E-05-1.09542E-13 1.23456E-13 2.48430E-13-2.11075E-14
 -1        33-4.35224E-05-4.35224E-05 1.44862E-13-1.30739E-13 3.40805E-13 1.05899E-13
 -1        34-4.35224E-05-4.35224E-05-2.26613E-13 8.16779E-14-4.37721E-15 3.13519E-14
 -1        35-4.35224E-05-4.35224E-05 3.91418E-13-1.60572E-14-4.76773E-15 3.56374E-13
 -1        36-8.70447E-05-8.70447E-05-1.16039E-12 4.51354E-13 4.09922E-13 6.73716E-14
 -1        37-8.70447E-05-8.70447E-05-6.11111E-21-1.24878E-21 3.69553E-21-3.66292E-21
 -1        38-4.35224E-05-4.35224E-05 1.57003E-20 5.21917E-22-5.78203E-21 6.00044E-22
 -1        39-4.35224E-05-4.35224E-05-1.76936E-13-2.00681E-13 1.21307E-14-1.15078E-14
 -1        40-4.35224E-05-4.35224E-05-1.72013E-13 9.01260E-15-2.97691E-15-1.26479E-13
 -1        41-4.35224E-05-4.35224E-05-3.05423E-13 6.29022E-14 3.07574E-14 2.91747E-13
 -1        42-8.70447E-05-8.70447E-05 5.07108E-15 1.58610E-14-7.95418E-14-1.85429E-13
 -1        43-4.35224E-05-4.35224E-05-8.92407E-21-6.24388E-22 6.95557E-22-5.03405E-21
 -1        44-2.90149E-05-2.90149E-05-2.55106E-20 3.47945E-22-3.07572E-21-5.84072E-21
 -1        45-2.90149E-05-2.90149E-05 2.10234E-14 5.56498E-15 6.52513E-15-1.23735E-14
 -1        46-2.90149E-05-2.90149E-05-8.73418E-16-1.38973E-15-3.84845E-15-4.43776E-14
 -1        47-2.90149E-05-2.90149E-05-1.19043E-13 9.15258E-14 2.40435E-14-7.32072E-14
 -1        48-4.35224E-05-4.35224E-05-4.69267E-14-1.56695E-13-2.03786E-14 1.54600E-13
 -1        49-4.35224E-05-4.35224E-05-1.73073E-13-1.19778E-13-1.37403E-13 1.75896E-14
 -1        50-2.90149E-05-2.90149E-05 2.39887E-13-6.27149E-14-8.61622E-14 6.54458E-15
 -1        51-2.90149E-05-2.90149E-05-1.04356E-13 7.77536E-14-5.05870E-14-3.01214E-15
 -1        52-2.90149E-05-2.90149E-05-2.21971E-13 1.96123E-14-4.21564E-14-7.33821E-14
 -1        53-2.90149E-05-2.90149E-05-1.24371E-13 1.89496E-13 1.90113E-14-7.95918E-14
 -1        54-4.35224E-05-4.35224E-05-2.71414E-13-1.65479E-13-3.05472E-14-7.33262E-14
 -1        55-4.35224E-05-4.35224E-05 2.25369E-13-8.11154E-14 2.55733E-14-3.45738E-14
 -1        56-2.90149E-05-2.90149E-05 1.31486E-13-3.69400E-14-1.19097E-14-7.82710E-15
 -1        57-2.90149E-05-2.90149E-05-1.08666E-13-2.19632E-13-3.96641E-14-4.18384E-14
 -1        58-2.90149E-05-2.90149E-05 2.22594E-14-5.45572E-14 8.62702E-14 1.06485E-13
 -1        59-2.90149E-05-2.90149E-05-3.97960E-14-1.96764E-13-3.35063E-14 2.90410E-13
 -1        60-4.35224E-05-4.35224E-05-2.57525E-13-1.32914E-13-4.28751E-14-3.23621E-13
 -1        61-4.35224E-05-4.35224E-05 2.41463E-13 7.00554E-14-8.90319E-14-3.62879E-15
 -1        62-2.90149E-05-2.90149E-05 6.13481E-14 6.19253E-14 4.13101E-14-1.93456E-15
 -1        63-2.90149E-05-2.90149E-05 7.05128E-14-1.75588E-13-1.35127E-14-1.66229E-14
 -1        64-2.90149E-05-2.90149E-05 1.15536E-14 9.73775E-14-4.93977E-14-2.25366E-14
 -1        65-2.90149E-05-2.90149E-05-6.29911E-14-3.66123E-14-2.99724E-13-1.71813E-13
 -1        66-4.35224E-05-4.35224E-05-4.24108E-13 3.70711E-13 6.61883E-13 4.44150E-13
 -1        67-8.70447E-05-8.70447E-05-8.63910E-13-3.75403E-14-6.06821E-15 6.12755E-14
 -1        68-4.35224E-05-4.35224E-05 3.65541E-13 4.06238E-15-2.48674E-13 9.53022E-15
 -1        69-4.35224E-05-4.35224E-05-2.86591E-13-1.90593E-13-1.55285E-13 6.05191E-14
 -1        70-4.35224E-05-4.35224E-05-1.26468E-13-2.05025E-14 1.53014E-13-1.01768E-13
 -1        71-4.35224E-05-4.35224E-05-6.15855E-14-1.63108E-14 2.69499E-13 2.09358E-13
 -1        72-8.70447E-05-8.70447E-05 1.20200E-12 3.29145E-14-9.34348E-13-8.88069E-13
 -3
    1PSTEP                       183          61           1          
  100CL  161 5.07781E-01          72                     0   61           1
 -4  TOSTRAIN    6    1
 -5  EXX         1    4    1    1
 -5  EYY         1    4    2    2
 -5  EZZ         1    4    3    3
 -5  EXY         1    4    1    2
 -5  EYZ         1    4    2    3
 -5  EZX         1    4    3    1
 -1         1-2.90149E-10-2.90149E-10 2.48699E-10 6.46183E-27-1.23481E-26 3.45994E-27
 -1         2-1.45075E-10-1.45075E-10 1.24350E-10 2.97139E-26-2.68995E-27 1.50082E-26
 -1         3-1.45075E-10-1.45075E-10 1.24350E-10 1.06347E-18-4.27294E-26-1.31525E-19
 -1         4-1.45075E-10-1.45075E-10 1.24350E-10-1.39509E-19-3.80237E-25-2.21356E-20
 -1         5-1.45075E-10-1.45075E-10 1.24350E-10-1.72815E-18-2.01317E-25-1.27544E-18
 -1         6-2.90149E-10-2.90149E-10 2.48699E-10 1.68582E-18-2.85485E-24 5.60139E-19
 -1         7-1.45075E-10-1.45075E-10 1.24350E-10 3.23092E-27 1.31759E-26-4.82801E-28
 -1         8-9.67164E-11-9.67164E-11 8.28997E-11 1.98093E-26-1.70175E-27-1.12894E-26
 -1         9-9.67164E-11-9.67164E-11 8.28997E-11 4.48958E-19-9.66974E-21-4.28590E-19
 -1        10-9.67164E-11-9.67164E-11 8.28997E-11-4.08756E-20-1.15383E-20-3.60979E-19
 -1        11-9.67164E-11-9.67164E-11 8.28997E-11-1.04553E-18 2.19051E-20 1.43720E-18
 -1        12-1.45075E-10-1.45075E-10 1.24350E-10 3.68193E-19 1.20046E-19 2.63688E-19
 -1        13-1.45075E-10-1.45075E-10 1.24350E-10 1.42737E-20 1.38280E-18 3.40019E-25
 -1        14-9.67164E-11-9.67164E-11 8.28997E-11-6.12319E-20-3.97359E-19-3.20775E-20
 -1        15-9.67164E-11-9.67164E-11 8.28997E-11 9.61139E-19-7.53978E-19 8.21764E-19
 -1        16-9.67164E-11-9.67164E-11 8.28997E-11 6.27794E-19 3.69371E-19-7.53678E-19
 -1        17-9.67164E-11-9.67164E-11 8.28997E-11-4.77598E-20 4.98962E-19 1.26247E-18
 -1        18-1.45075E-10-1.45075E-10 1.24350E-10-4.31165E-20-7.34303E-19-4.48216E-19
 -1        19-1.45075E-10-1.45075E-10 1.24350E-10 9.67019E-21 3.64690E-19-1.37753E-25
 -1        20-9.67164E-11-9.67164E-11 8.28997E-11-6.43009E-20-5.37899E-19 9.42318E-20
 -1        21-9.67164E-11-9.67164E-11 8.28997E-11 2.30947E-19 2.03673E-19-4.85699E-19
 -1        22-9.67164E-11-9.67164E-11 8.28997E-11-1.28975E-19-1.05105E-19 3.25494E-19
 -1        23-9.67164E-11-9.67164E-11 8.28997E-11-4.01252E-19-3.10846E-19-1.79234E-18
 -1        24-1.45075E-10-1.45075E-10 1.24350E-10 6.79832E-19 3.63658E-19 2.80074E-18
 -1        25-1.45075E-10-1.45075E-10 1.24350E-10-1.61850E-18-1.16479E-18-4.76047E-25
 -1        26-9.67164E-11-9.67164E-11 8.28997E-11-8.58616E-19 1.28261E-19 2.99977E-21
 -1        27-9.67164E-11-9.67164E-11 8.28997E-11-6.89704E-20-7.23394E-19-1.17000E-18
 -1        28-9.67164E-11-9.67164E-11 8.28997E-11 1.99318E-19 8.64401E-19 1.03335E-18
 -1        29-9.67164E-11-9.67164E-11 8.28997E-11-3.38969E-19 1.40545E-19-1.38783E-18
 -1        30-1.45075E-10-1.45075E-10 1.24350E-10-1.93189E-18-1.55639E-18-7.59830E-19
 -1        31-2.90149E-10-2.90149E-10 2.48699E-10 8.67355E-19 3.58210E-18-4.41812E-25
 -1        32-1.45075E-10-1.45075E-10 1.24350E-10 7.64253E-19 1.53790E-18-1.30666E-19
 -1        33-1.45075E-10-1.45075E-10 1.24350E-10-8.09338E-19 2.10974E-18 6.55566E-19
 -1        34-1.45075E-10-1.45075E-10 1.24350E-10 5.05625E-19-2.70970E-20 1.94083E-19
 -1        35-1.45075E-10-1.45075E-10 1.24350E-10-9.94018E-20-2.95145E-20 2.20612E-18
 -1        36-2.90149E-10-2.90149E-10 2.48699E-10 2.79410E-18 2.53761E-18 4.17062E-19
 -1        37-2.90149E-10-2.90149E-10 2.48699E-10-7.73052E-27 2.28771E-26-2.26752E-26
 -1        38-1.45075E-10-1.45075E-10 1.24350E-10 3.23092E-27-3.57935E-26 3.71456E-27
 -1        39-1.45075E-10-1.45075E-10 1.24350E-10-1.24231E-18 7.50951E-20-7.12389E-20
 -1        40-1.45075E-10-1.45075E-10 1.24350E-10 5.57923E-20-1.84285E-20-7.82963E-19
 -1        41-1.45075E-10-1.45075E-10 1.24350E-10 3.89394E-19 1.90403E-19 1.80606E-18
 -1        42-2.90149E-10-2.90149E-10 2.48699E-10 9.81872E-20-4.92401E-19-1.14790E-18
 -1        43-1.45075E-10-1.45075E-10 1.24350E-10-3.86526E-27 4.30583E-27-3.11632E-26
 -1        44-9.67164E-11-9.67164E-11 8.28997E-11 2.15394E-27-1.90402E-26-3.61568E-26
 -1        45-9.67164E-11-9.67164E-11 8.28997E-11 3.44499E-20 4.03937E-20-7.65978E-20
 -1        46-9.67164E-11-9.67164E-11 8.28997E-11-8.60309E-21-2.38238E-20-2.74718E-19
 -1        47-9.67164E-11-9.67164E-11 8.28997E-11 5.66588E-19 1.48841E-19-4.53187E-19
 -1        48-1.45075E-10-1.45075E-10 1.24350E-10-9.70018E-19-1.26153E-19 9.57047E-19
 -1        49-1.45075E-10-1.45075E-10 1.24350E-10-7.41481E-19-8.50590E-19 1.08888E-19
 -1        50-9.67164E-11-9.67164E-11 8.28997E-11-3.88235E-19-5.33385E-19 4.05141E-20
 -1        51-9.67164E-11-9.67164E-11 8.28997E-11 4.81332E-19-3.13158E-19-1.86466E-20
 -1        52-9.67164E-11-9.67164E-11 8.28997E-11 1.21410E-19-2.60968E-19-4.54270E-19
 -1        53-9.67164E-11-9.67164E-11 8.28997E-11 1.17307E-18 1.17689E-19-4.92711E-19
 -1        54-1.45075E-10-1.45075E-10 1.24350E-10-1.02439E-18-1.89102E-19-4.53924E-19
 -1        55-1.45075E-10-1.45075E-10 1.24350E-10-5.02143E-19 1.58311E-19-2.14028E-19
 -1        56-9.67164E-11-9.67164E-11 8.28997E-11-2.28676E-19-7.37265E-20-4.84535E-20
 -1        57-9.67164E-11-9.67164E-11 8.28997E-11-1.35962E-18-2.45540E-19-2.59000E-19
 -1        58-9.67164E-11-9.67164E-11 8.28997E-11-3.37735E-19 5.34054E-19 6.59191E-19
 -1        59-9.67164E-11-9.67164E-11 8.28997E-11-1.21806E-18-2.07420E-19 1.79778E-18
 -1        60-1.45075E-10-1.45075E-10 1.24350E-10-8.22802E-19-2.65418E-19-2.00337E-18
 -1        61-1.45075E-10-1.45075E-10 1.24350E-10 4.33677E-19-5.51150E-19-2.24640E-20
 -1        62-9.67164E-11-9.67164E-11 8.28997E-11 3.83347E-19 2.55729E-19-1.19759E-20
 -1        63-9.67164E-11-9.67164E-11 8.28997E-11-1.08697E-18-8.36503E-20-1.02904E-19
 -1        64-9.67164E-11-9.67164E-11 8.28997E-11 6.02813E-19-3.05795E-19-1.39512E-19
 -1        65-9.67164E-11-9.67164E-11 8.28997E-11-2.26647E-19-1.85544E-18-1.06361E-18
 -1        66-1.45075E-10-1.45075E-10 1.24350E-10 2.29488E-18 4.09737E-18 2.74950E-18
 -1        67-2.90149E-10-2.90149E-10 2.48699E-10-2.32392E-19-3.75651E-20 3.79325E-19
 -1        68-1.45075E-10-1.45075E-10 1.24350E-10 2.51481E-20-1.53941E-18 5.89966E-20
 -1        69-1.45075E-10-1.45075E-10 1.24350E-10-1.17986E-18-9.61289E-19 3.74642E-19
 -1        70-1.45075E-10-1.45075E-10 1.24350E-10-1.26920E-19 9.47231E-19-6.29990E-19
 -1        71-1.45075E-10-1.45075E-10 1.24350E-10-1.00972E-19 1.66833E-18 1.29602E-18
 -1        72-2.90149E-10-2.90149E-10 2.48699E-10 2.03756E-19-5.78406E-18-5.49757E-18
 -3
    1PSTEP                       184          62           1          
  100CL  162 5.16781E-01          72                     0   62           1
 -4  DISP        4    1
 -5  D1          1    2    1    0
 -5  D2          1    2    2    0
 -5  D3          1    2    3    0
 -5  ALL         1    2    0    0    1ALL
 -1         1 0.00000E+00 0.00000E+00 0.00000E+00
 -1         2-1.47652E-07 0.00000E+00 0.00000E+00
 -1         3-7.75172E+00 0.00000E+00 0.00000E+00
 -1         4-7.75172E+00 0.00000E+00 0.00000E+00
 -1         5-1.55034E+01 0.00000E+00 0.00000E+00
 -1         6-1.55034E+01 0.00000E+00 0.00000E+00
 -1         7 0.00000E+00-1.47652E-07 0.00000E+00
 -1         8-1.47652E-07-1.47652E-07 0.00000E+00
 -1         9-7.75172E+00-1.47652E-07 0.00000E+00
 -1        10-7.75172E+00-1.47652E-07 0.00000E+00
 -1        11-1.55034E+01-1.47652E-07 0.00000E+00
 -1        12-1.55034E+01-1.47652E-07 0.00000E+00
 -1        13 0.00000E+00-7.75172E+00 0.00000E+00
 -1        14-1.47652E-07-7.75172E+00 0.00000E+00
 -1        15-7.75172E+00-7.75172E+00 0.00000E+00
 -1        16-7.75172E+00-7.75172E+00 0.00000E+00
 -1        17-1.55034E+01-7.75172E+00 0.00000E+00
 -1        18-1.55034E+01-7.75172E+00 0.00000E+00
 -1        19 0.00000E+00-7.75172E+00 0.00000E+00
 -1        20-1.47652E-07-7.75172E+00 0.00000E+00
 -1        21-7.75172E+00-7.75172E+00 0.00000E+00
 -1        22-7.75172E+00-7.75172E+00 0.00000E+00
 -1        23-1.55034E+01-7.75172E+00 0.00000E+00
 -1        24-1.55034E+01-7.75172E+00 0.00000E+00
 -1        25 0.00000E+00-1.55034E+01 0.00000E+00
 -1        26-1.47652E-07-1.55034E+01 0.00000E+00
 -1        27-7.75172E+00-1.55034E+01 0.00000E+00
 -1        28-7.75172E+00-1.55034E+01 0.00000E+00
 -1        29-1.55034E+01-1.55034E+01 0.00000E+00
 -1        30-1.55034E+01-1.55034E+01 0.00000E+00
 -1        31 0.00000E+00-1.55034E+01 0.00000E+00
 -1        32-1.47652E-07-1.55034E+01 0.00000E+00
 -1        33-7.75172E+00-1.55034E+01 0.00000E+00
 -1        34-7.75172E+00-1.55034E+01 0.00000E+00
 -1        35-1.55034E+01-1.55034E+01 0.00000E+00
 -1        36-1.55034E+01-1.55034E+01 0.00000E+00
 -1        37 0.00000E+00 0.00000E+00 1.77182E-07
 -1        38-1.47652E-07 0.00000E+00 1.77182E-07
 -1        39-7.75172E+00 0.00000E+00 1.77182E-07
 -1        40-7.75172E+00 0.00000E+00 1.77182E-07
 -1        41-1.55034E+01 0.00000E+00 1.77182E-07
 -1        42-1.55034E+01 0.00000E+00 1.77182E-07
 -1        43 0.00000E+00-1.47652E-07 1.77182E-07
 -1        44-1.47652E-07-1.47652E-07 1.77182E-07
 -1        45-7.75172E+00-1.47652E-07 1.77182E-07
 -1        46-7.75172E+00-1.47652E-07 1.77182E-07
 -1        47-1.55034E+01-1.47652E-07 1.77182E-07
 -1        48-1.55034E+01-1.47652E-07 1.77182E-07
 -1        49 0.00000E+00-7.75172E+00 1.77182E-07
 -1        50-1.47652E-07-7.75172E+00 1.77182E-07
 -1        51-7.75172E+00-7.75172E+00 1.77182E-07
 -1        52-7.75172E+00-7.75172E+00 1.77182E-07
 -1        53-1.55034E+01-7.75172E+00 1.77182E-07
 -1        54-1.55034E+01-7.75172E+00 1.77182E-07
 -1        55 0.00000E+00-7.75172E+00 1.77182E-07
 -1        56-1.47652E-07-7.75172E+00 1.77182E-07
 -1        57-7.75172E+00-7.75172E+00 1.77182E-07
 -1        58-7.75172E+00-7.75172E+00 1.77182E-07
 -1        59-1.55034E+01-7.75172E+00 1.77182E-07
 -1        60-1.55034E+01-7.75172E+00 1.77182E-07
 -1        61 0.00000E+00-1.55034E+01 1.77182E-07
 -1        62-1.47652E-07-1.55034E+01 1.77182E-07
 -1        63-7.75172E+00-1.55034E+01 1.77182E-07
 -1        64-7.75172E+00-1.55034E+01 1.77182E-07
 -1        65-1.55034E+01-1.55034E+01 1.77182E-07
 -1        66-1.55034E+01-1.55034E+01 1.77182E-07
 -1        67 0.00000E+00-1.55034E+01 1.77182E-07
 -1        68-1.47652E-07-1.55034E+01 1.77182E-07
 -1        69-7.75172E+00-1.55034E+01 1.77182E-07
 -1        70-7.75172E+00-1.55034E+01 1.77182E-07
 -1        71-1.55034E+01-1.55034E+01 1.77182E-07
 -1        72-1.55034E+01-1.55034E+01 1.77182E-07
 -3
    1PSTEP                       185          62           1          
  100CL  162 5.16781E-01          72                     0   62           1
 -4  STRESS      6    1
 -5  SXX         1    4    1    1
 -5  SYY         1    4    2    2
 -5  SZZ         1    4    3    3
 -5  SXY         1    4    1    2
 -5  SYZ         1    4    2    3
 -5  SZX         1    4    3    1
 -1         1-8.85875E-05-8.85875E-05 2.95846E-20 3.28176E-22 3.68587E-22 1.41225E-21
 -1         2-4.42938E-05-4.42938E-05-2.31409E-20-2.34067E-22-4.45800E-22-5.42432E-21
 -1         3-4.42938E-05-4.42938E-05-4.56509E-13-5.74499E-14-1.88706E-20-1.06741E-13
 -1         4-4.42938E-05-4.42938E-05-3.88386E-13 3.27613E-13-5.75543E-20 1.15343E-13
 -1         5-4.42938E-05-4.42938E-05 3.70471E-14 9.23772E-14 1.52398E-19-1.39629E-13
 -1         6-8.85875E-05-8.85875E-05 5.61976E-13-2.04151E-13-1.12588E-18-1.77152E-13
 -1         7-4.42938E-05-4.42938E-05-2.31409E-20-8.13938E-21 7.86960E-22-2.54100E-22
 -1         8-2.95292E-05-2.95292E-05 1.48221E-20-5.69169E-21 6.75947E-21-6.02703E-22
 -1         9-2.95292E-05-2.95292E-05 2.34447E-13-5.32224E-14-1.34408E-14 7.03520E-14
 -1        10-2.95292E-05-2.95292E-05 1.92477E-13 2.02628E-13 1.40481E-14-2.11998E-13
 -1        11-2.95292E-05-2.95292E-05-5.02439E-14 4.73199E-15-2.07718E-14 3.14236E-14
 -1        12-4.42938E-05-4.42938E-05-4.97298E-13 1.30470E-13 3.33720E-14 1.00076E-13
 -1        13-4.42938E-05-4.42938E-05 2.87494E-13 8.17025E-15-1.66066E-13 1.14719E-19
 -1        14-2.95292E-05-2.95292E-05 5.15126E-15 1.51263E-14 1.08309E-13 3.13890E-15
 -1        15-2.95292E-05-2.95292E-05-2.06088E-13-9.39970E-14-6.69656E-14-1.04340E-13
 -1        16-2.95292E-05-2.95292E-05-4.23632E-14-2.12806E-14 1.42124E-13 3.69443E-14
 -1        17-2.95292E-05-2.95292E-05 1.43509E-13-6.79925E-14 1.32392E-14 1.31563E-13
 -1        18-4.42938E-05-4.42938E-05 5.96958E-14-4.19811E-15-4.78481E-14 1.80290E-13
 -1        19-4.42938E-05-4.42938E-05 2.33727E-13-2.18930E-15-8.44357E-15 1.42617E-19
 -1        20-2.95292E-05-2.95292E-05 5.10217E-15 8.21988E-15 1.38693E-14-6.27174E-15
 -1        21-2.95292E-05-2.95292E-05 3.40536E-14-6.41718E-14 3.84305E-14-1.07720E-14
 -1        22-2.95292E-05-2.95292E-05 2.60012E-13 5.89689E-14-6.32645E-14-1.08041E-13
 -1        23-2.95292E-05-2.95292E-05 2.16577E-13 2.39039E-14-8.98594E-14-1.95055E-13
 -1        24-4.42938E-05-4.42938E-05 2.80496E-13-2.66254E-13 2.08908E-13 2.72093E-13
 -1        25-4.42938E-05-4.42938E-05 6.18882E-13 1.30724E-13-1.93311E-13-3.02212E-19
 -1        26-2.95292E-05-2.95292E-05-8.26828E-14 8.35124E-14-2.22492E-13-1.39470E-14
 -1        27-2.95292E-05-2.95292E-05-1.66397E-13 1.19582E-13-4.68582E-13-5.51617E-16
 -1        28-2.95292E-05-2.95292E-05-1.38245E-13 1.06216E-13 3.86279E-13 1.41905E-13
 -1        29-2.95292E-05-2.95292E-05-2.06114E-13 1.36849E-13-3.24103E-13-2.00569E-13
 -1        30-4.42938E-05-4.42938E-05 5.30993E-13 2.00264E-13-2.67861E-13 2.39325E-13
 -1        31-8.85875E-05-8.85875E-05 1.08148E-12-7.00572E-14 1.02554E-12 2.40643E-19
 -1        32-4.42938E-05-4.42938E-05-1.48960E-14-4.04842E-14 9.16029E-14 2.36595E-14
 -1        33-4.42938E-05-4.42938E-05 3.11052E-13-1.27485E-15 5.59097E-13 7.48632E-14
 -1        34-4.42938E-05-4.42938E-05 2.37969E-13 4.91607E-14-8.10931E-13 2.84177E-14
 -1        35-4.42938E-05-4.42938E-05-1.41949E-14 1.82520E-13 2.26424E-13 4.19450E-13
 -1        36-8.85875E-05-8.85875E-05-8.46363E-13-1.57690E-13 5.74186E-13-6.68328E-13
 -1        37-8.85875E-05-8.85875E-05-3.76901E-20-8.02105E-22-1.36236E-20 1.80811E-21
 -1        38-4.42938E-05-4.42938E-05 6.20055E-21 1.23148E-20-4.08702E-24-5.22640E-21
 -1        39-4.42938E-05-4.42938E-05 2.39309E-13 3.46226E-14 2.80088E-14-1.55164E-14
 -1        40-4.42938E-05-4.42938E-05 3.94023E-13-1.59558E-13-2.44220E-14-3.18450E-14
 -1        41-4.42938E-05-4.42938E-05-5.01257E-13-2.23018E-13 1.44184E-13 8.71811E-14
 -1        42-8.85875E-05-8.85875E-05-2.43605E-13-1.46751E-13-2.44332E-13-5.07878E-13
 -1        43-4.42938E-05-4.42938E-05 6.20055E-21 8.12843E-21-6.20914E-21 5.42432E-21
 -1        44-2.95292E-05-2.95292E-05 5.94956E-21 1.38962E-20 7.05394E-21 3.18291E-21
 -1        45-2.95292E-05-2.95292E-05-1.94878E-13 3.70282E-14 5.23177E-15 1.60849E-14
 -1        46-2.95292E-05-2.95292E-05-1.79121E-13-4.77823E-14-2.23321E-15-4.60247E-14
 -1        47-2.95292E-05-2.95292E-05 2.21383E-13-1.26072E-13 7.53507E-14 1.28919E-13
 -1        48-4.42938E-05-4.42938E-05 4.56569E-14 1.41854E-13-8.87934E-14 2.18161E-13
 -1        49-4.42938E-05-4.42938E-05-3.40548E-13-2.18937E-15 2.02928E-13-1.59938E-14
 -1        50-2.95292E-05-2.95292E-05 1.99229E-14-4.95508E-15 2.89918E-14-7.52371E-15
 -1        51-2.95292E-05-2.95292E-05 2.23785E-13 2.08117E-13 2.77149E-14-4.01716E-14
 -1        52-2.95292E-05-2.95292E-05-1.48778E-14 1.91147E-13 1.76670E-13 2.39106E-13
 -1        53-2.95292E-05-2.95292E-05-5.67167E-14-5.50636E-16-5.08730E-14 2.09054E-13
 -1        54-4.42938E-05-4.42938E-05-8.88910E-13 3.01290E-13 7.99116E-14-6.45444E-13
 -1        55-4.42938E-05-4.42938E-05-4.23959E-13 5.86432E-16-2.01438E-13 5.48369E-15
 -1        56-2.95292E-05-2.95292E-05 1.11398E-16-3.10455E-15-7.60924E-14-2.61604E-15
 -1        57-2.95292E-05-2.95292E-05-1.22356E-13-7.94235E-14-5.50772E-14 1.26791E-13
 -1        58-2.95292E-05-2.95292E-05-3.21537E-13-2.43143E-13 1.06017E-14-2.96594E-14
 -1        59-2.95292E-05-2.95292E-05 4.77377E-13-4.72989E-13-1.98126E-14-6.48936E-14
 -1        60-4.42938E-05-4.42938E-05-7.89518E-14-3.37380E-14 8.28879E-14 2.53394E-13
 -1        61-4.42938E-05-4.42938E-05-2.20903E-13-3.50284E-14 3.13880E-13-3.34247E-14
 -1        62-2.95292E-05-2.95292E-05 1.45582E-13 1.46182E-14-5.66138E-14-3.62299E-14
 -1        63-2.95292E-05-2.95292E-05 4.22063E-13 1.26307E-13-2.04393E-14-3.90270E-14
 -1        64-2.95292E-05-2.95292E-05 2.53440E-13-5.89921E-14 1.08953E-13 5.26059E-14
 -1        65-2.95292E-05-2.95292E-05 3.44518E-13 1.54724E-13 3.23565E-14-5.69062E-15
 -1        66-4.42938E-05-4.42938E-05-4.08252E-14 2.32632E-14-5.20237E-14-2.10465E-13
 -1        67-8.85875E-05-8.85875E-05-4.10854E-13 1.87688E-14-4.65589E-13 8.29668E-14
 -1        68-4.42938E-05-4.42938E-05 4.21118E-13 6.63401E-14 4.32043E-14 6.51428E-14
 -1        69-4.42938E-05-4.42938E-05-6.97365E-13 2.23786E-13-8.12020E-14-1.86707E-14
 -1        70-4.42938E-05-4.42938E-05-4.18202E-14-6.42888E-15 1.90677E-13-2.77858E-13
 -1        71-4.42938E-05-4.42938E-05-6.25419E-13-1.25835E-13 1.30616E-13 1.76222E-13
 -1        72-8.85875E-05-8.85875E-05 1.27840E-12 1.01931E-15-2.55133E-13-9.08994E-14
 -3
    1PSTEP                       186          62           1          
  100CL  162 5.16781E-01          72                     0   62           1
 -4  TOSTRAIN    6    1
 -5  EXX         1    4    1    1
 -5  EYY         1    4    2    2
 -5  EZZ         1    4    3    3
 -5  EXY         1    4    1    2
 -5  EYZ         1    4    2    3
 -5  EZX         1    4    3    1
 -1         1-2.95292E-10-2.95292E-10 2.53107E-10 2.03157E-27 2.28173E-27 8.74252E-27
 -1         2-1.47646E-10-1.47646E-10 1.26554E-10-1.44899E-27-2.75971E-27-3.35791E-26
 -1         3-1.47646E-10-1.47646E-10 1.26554E-10-3.55642E-19-1.16818E-25-6.60778E-19
 -1         4-1.47646E-10-1.47646E-10 1.26554E-10 2.02808E-18-3.56288E-25 7.14028E-19
 -1         5-1.47646E-10-1.47646E-10 1.26554E-10 5.71859E-19 9.43419E-25-8.64368E-19
 -1         6-2.95292E-10-2.95292E-10 2.53107E-10-1.26379E-18-6.96976E-24-1.09666E-18
 -1         7-1.47646E-10-1.47646E-10 1.26554E-10-5.03866E-26 4.87166E-27-1.57300E-27
 -1         8-9.84306E-11-9.84306E-11 8.43691E-11-3.52343E-26 4.18443E-26-3.73102E-27
 -1         9-9.84306E-11-9.84306E-11 8.43691E-11-3.29472E-19-8.32049E-20 4.35513E-19
 -1        10-9.84306E-11-9.84306E-11 8.43691E-11 1.25436E-18 8.69645E-20-1.31237E-18
 -1        11-9.84306E-11-9.84306E-11 8.43691E-11 2.92933E-20-1.28588E-19 1.94527E-19
 -1        12-1.47646E-10-1.47646E-10 1.26554E-10 8.07669E-19 2.06588E-19 6.19517E-19
 -1        13-1.47646E-10-1.47646E-10 1.26554E-10 5.05778E-20-1.02803E-18 7.10168E-25
 -1        14-9.84306E-11-9.84306E-11 8.43691E-11 9.36387E-20 6.70484E-19 1.94313E-20
 -1        15-9.84306E-11-9.84306E-11 8.43691E-11-5.81886E-19-4.14549E-19-6.45915E-19
 -1        16-9.84306E-11-9.84306E-11 8.43691E-11-1.31737E-19 8.79817E-19 2.28703E-19
 -1        17-9.84306E-11-9.84306E-11 8.43691E-11-4.20906E-19 8.19568E-20 8.14441E-19
 -1        18-1.47646E-10-1.47646E-10 1.26554E-10-2.59883E-20-2.96203E-19 1.11608E-18
 -1        19-1.47646E-10-1.47646E-10 1.26554E-10-1.35528E-20-5.22697E-20 8.82869E-25
 -1        20-9.84306E-11-9.84306E-11 8.43691E-11 5.08850E-20 8.58573E-20-3.88250E-20
 -1        21-9.84306E-11-9.84306E-11 8.43691E-11-3.97254E-19 2.37903E-19-6.66839E-20
 -1        22-9.84306E-11-9.84306E-11 8.43691E-11 3.65046E-19-3.91637E-19-6.68826E-19
 -1        23-9.84306E-11-9.84306E-11 8.43691E-11 1.47976E-19-5.56273E-19-1.20748E-18
 -1        24-1.47646E-10-1.47646E-10 1.26554E-10-1.64824E-18 1.29324E-18 1.68439E-18
 -1        25-1.47646E-10-1.47646E-10 1.26554E-10 8.09245E-19-1.19669E-18-1.87084E-24
 -1        26-9.84306E-11-9.84306E-11 8.43691E-11 5.16982E-19-1.37733E-18-8.63383E-20
 -1        27-9.84306E-11-9.84306E-11 8.43691E-11 7.40269E-19-2.90075E-18-3.41477E-21
 -1        28-9.84306E-11-9.84306E-11 8.43691E-11 6.57527E-19 2.39125E-18 8.78462E-19
 -1        29-9.84306E-11-9.84306E-11 8.43691E-11 8.47159E-19-2.00635E-18-1.24162E-18
 -1        30-1.47646E-10-1.47646E-10 1.26554E-10 1.23973E-18-1.65819E-18 1.48154E-18
 -1        31-2.95292E-10-2.95292E-10 2.53107E-10-4.33688E-19 6.34858E-18 1.48969E-24
 -1        32-1.47646E-10-1.47646E-10 1.26554E-10-2.50616E-19 5.67066E-19 1.46464E-19
 -1        33-1.47646E-10-1.47646E-10 1.26554E-10-7.89196E-21 3.46107E-18 4.63439E-19
 -1        34-1.47646E-10-1.47646E-10 1.26554E-10 3.04328E-19-5.02005E-18 1.75919E-19
 -1        35-1.47646E-10-1.47646E-10 1.26554E-10 1.12988E-18 1.40167E-18 2.59659E-18
 -1        36-2.95292E-10-2.95292E-10 2.53107E-10-9.76177E-19 3.55449E-18-4.13727E-18
 -1        37-2.95292E-10-2.95292E-10 2.53107E-10-4.96541E-27-8.43367E-26 1.11930E-26
 -1        38-1.47646E-10-1.47646E-10 1.26554E-10 7.62347E-26-2.53006E-29-3.23539E-26
 -1        39-1.47646E-10-1.47646E-10 1.26554E-10 2.14330E-19 1.73388E-19-9.60536E-20
 -1        40-1.47646E-10-1.47646E-10 1.26554E-10-9.87740E-19-1.51184E-19-1.97136E-19
 -1        41-1.47646E-10-1.47646E-10 1.26554E-10-1.38059E-18 8.92568E-19 5.39693E-19
 -1        42-2.95292E-10-2.95292E-10 2.53107E-10-9.08457E-19-1.51253E-18-3.14401E-18
 -1        43-1.47646E-10-1.47646E-10 1.26554E-10 5.03188E-26-3.84375E-26 3.35791E-26
 -1        44-9.84306E-11-9.84306E-11 8.43691E-11 8.60242E-26 4.36673E-26 1.97037E-26
 -1        45-9.84306E-11-9.84306E-11 8.43691E-11 2.29222E-19 3.23871E-20 9.95735E-20
 -1        46-9.84306E-11-9.84306E-11 8.43691E-11-2.95795E-19-1.38246E-20-2.84915E-19
 -1        47-9.84306E-11-9.84306E-11 8.43691E-11-7.80444E-19 4.66457E-19 7.98071E-19
 -1        48-1.47646E-10-1.47646E-10 1.26554E-10 8.78142E-19-5.49673E-19 1.35052E-18
 -1        49-1.47646E-10-1.47646E-10 1.26554E-10-1.35532E-20 1.25622E-18-9.90092E-20
 -1        50-9.84306E-11-9.84306E-11 8.43691E-11-3.06743E-20 1.79473E-19-4.65754E-20
 -1        51-9.84306E-11-9.84306E-11 8.43691E-11 1.28834E-18 1.71569E-19-2.48682E-19
 -1        52-9.84306E-11-9.84306E-11 8.43691E-11 1.18329E-18 1.09367E-18 1.48018E-18
 -1        53-9.84306E-11-9.84306E-11 8.43691E-11-3.40870E-21-3.14928E-19 1.29414E-18
 -1        54-1.47646E-10-1.47646E-10 1.26554E-10 1.86513E-18 4.94691E-19-3.99561E-18
 -1        55-1.47646E-10-1.47646E-10 1.26554E-10 3.63029E-21-1.24700E-18 3.39466E-20
 -1        56-9.84306E-11-9.84306E-11 8.43691E-11-1.92187E-20-4.71048E-19-1.61945E-20
 -1        57-9.84306E-11-9.84306E-11 8.43691E-11-4.91669E-19-3.40954E-19 7.84896E-19
 -1        58-9.84306E-11-9.84306E-11 8.43691E-11-1.50517E-18 6.56294E-20-1.83606E-19
 -1        59-9.84306E-11-9.84306E-11 8.43691E-11-2.92803E-18-1.22650E-19-4.01722E-19
 -1        60-1.47646E-10-1.47646E-10 1.26554E-10-2.08854E-19 5.13116E-19 1.56863E-18
 -1        61-1.47646E-10-1.47646E-10 1.26554E-10-2.16842E-19 1.94307E-18-2.06915E-19
 -1        62-9.84306E-11-9.84306E-11 8.43691E-11 9.04939E-20-3.50466E-19-2.24280E-19
 -1        63-9.84306E-11-9.84306E-11 8.43691E-11 7.81899E-19-1.26529E-19-2.41596E-19
 -1        64-9.84306E-11-9.84306E-11 8.43691E-11-3.65189E-19 6.74472E-19 3.25656E-19
 -1        65-9.84306E-11-9.84306E-11 8.43691E-11 9.57817E-19 2.00302E-19-3.52276E-20
 -1        66-1.47646E-10-1.47646E-10 1.26554E-10 1.44010E-19-3.22051E-19-1.30288E-18
 -1        67-2.95292E-10-2.95292E-10 2.53107E-10 1.16188E-19-2.88222E-18 5.13604E-19
 -1        68-1.47646E-10-1.47646E-10 1.26554E-10 4.10677E-19 2.67455E-19 4.03265E-19
 -1        69-1.47646E-10-1.47646E-10 1.26554E-10 1.38534E-18-5.02679E-19-1.15581E-19
 -1        70-1.47646E-10-1.47646E-10 1.26554E-10-3.97978E-20 1.18038E-18-1.72007E-18
 -1        71-1.47646E-10-1.47646E-10 1.26554E-10-7.78978E-19 8.08575E-19 1.09090E-18
 -1        72-2.95292E-10-2.95292E-10 2.53107E-10 6.31002E-21-1.57940E-18-5.62711E-19
 -3
    1PSTEP                       187          63           1          
  100CL  163 5.25781E-01          72                     0   63           1
 -4  DISP        4    1
 -5  D1          1    2    1    0
 -5  D2          1    2    2    0
 -5  D3          1    2    3    0
 -5  ALL         1    2    0    0    1ALL
 -1         1 0.00000E+00 0.00000E+00 0.00000E+00
 -1         2-1.50223E-07 0.00000E+00 0.00000E+00
 -1         3-7.88672E+00 0.00000E+00 0.00000E+00
 -1         4-7.88672E+00 0.00000E+00 0.00000E+00
 -1         5-1.57734E+01 0.00000E+00 0.00000E+00
 -1         6-1.57734E+01 0.00000E+00 0.00000E+00
 -1         7 0.00000E+00-1.50223E-07 0.00000E+00
 -1         8-1.50223E-07-1.50223E-07 0.00000E+00
 -1         9-7.88672E+00-1.50223E-07 0.00000E+00
 -1        10-7.88672E+00-1.50223E-07 0.00000E+00
 -1        11-1.57734E+01-1.50223E-07 0.00000E+00
 -1        12-1.57734E+01-1.50223E-07 0.00000E+00
 -1        13 0.00000E+00-7.88672E+00 0.00000E+00
 -1        14-1.50223E-07-7.88672E+00 0.00000E+00
 -1        15-7.88672E+00-7.88672E+00 0.00000E+00
 -1        16-7.88672E+00-7.88672E+00 0.00000E+00
 -1        17-1.57734E+01-7.88672E+00 0.00000E+00
 -1        18-1.57734E+01-7.88672E+00 0.00000E+00
 -1        19 0.00000E+00-7.88672E+00 0.00000E+00
 -1        20-1.50223E-07-7.88672E+00 0.00000E+00
 -1        21-7.88672E+00-7.88672E+00 0.00000E+00
 -1        22-7.88672E+00-7.88672E+00 0.00000E+00
 -1        23-1.57734E+01-7.88672E+00 0.00000E+00
 -1        24-1.57734E+01-7.88672E+00 0.00000E+00
 -1        25 0.00000E+00-1.57734E+01 0.00000E+00
 -1        26-1.50223E-07-1.57734E+01 0.00000E+00
 -1        27-7.88672E+00-1.57734E+01 0.00000E+00
 -1        28-7.88672E+00-1.57734E+01 0.00000E+00
 -1        29-1.57734E+01-1.57734E+01 0.00000E+00
 -1        30-1.57734E+01-1.57734E+01 0.00000E+00
 -1        31 0.00000E+00-1.57734E+01 0.00000E+00
 -1        32-1.50223E-07-1.57734E+01 0.00000E+00
 -1        33-7.88672E+00-1.57734E+01 0.00000E+00
 -1        34-7.88672E+00-1.57734E+01 0.00000E+00
 -1        35-1.57734E+01-1.57734E+01 0.00000E+00
 -1        36-1.57734E+01-1.57734E+01 0.00000E+00
 -1        37 0.00000E+00 0.00000E+00 1.80268E-07
 -1        38-1.50223E-07 0.00000E+00 1.80268E-07
 -1        39-7.88672E+00 0.00000E+00 1.80268E-07
 -1        40-7.88672E+00 0.00000E+00 1.80268E-07
 -1        41-1.57734E+01 0.00000E+00 1.80268E-07
 -1        42-1.57734E+01 0.00000E+00 1.80268E-07
 -1        43 0.00000E+00-1.50223E-07 1.80268E-07
 -1        44-1.50223E-07-1.50223E-07 1.80268E-07
 -1        45-7.88672E+00-1.50223E-07 1.80268E-07
 -1        46-7.88672E+00-1.50223E-07 1.80268E-07
 -1        47-1.57734E+01-1.50223E-07 1.80268E-07
 -1        48-1.57734E+01-1.50223E-07 1.80268E-07
 -1        49 0.00000E+00-7.88672E+00 1.80268E-07
 -1        50-1.50223E-07-7.88672E+00 1.80268E-07
 -1        51-7.88672E+00-7.88672E+00 1.80268E-07
 -1        52-7.88672E+00-7.88672E+00 1.80268E-07
 -1        53-1.57734E+01-7.88672E+00 1.80268E-07
 -1        54-1.57734E+01-7.88672E+00 1.80268E-07
 -1        55 0.00000E+00-7.88672E+00 1.80268E-07
 -1        56-1.50223E-07-7.88672E+00 1.80268E-07
 -1        57-7.88672E+00-7.88672E+00 1.80268E-07
 -1        58-7.88672E+00-7.88672E+00 1.80268E-07
 -1        59-1.57734E+01-7.88672E+00 1.80268E-07
 -1        60-1.57734E+01-7.88672E+00 1.80268E-07
 -1        61 0.00000E+00-1.57734E+01 1.80268E-07
 -1        62-1.50223E-07-1.57734E+01 1.80268E-07
 -1        63-7.88672E+00-1.57734E+01 1.80268E-07
 -1        64-7.88672E+00-1.57734E+01 1.80268E-07
 -1        65-1.57734E+01-1.57734E+01 1.80268E-07
 -1        66-1.57734E+01-1.57734E+01 1.80268E-07
 -1        67 0.00000E+00-1.57734E+01 1.80268E-07
 -1        68-1.50223E-07-1.57734E+01 1.80268E-07
 -1        69-7.88672E+00-1.57734E+01 1.80268E-07
 -1        70-7.88672E+00-1.57734E+01 1.80268E-07
 -1        71-1.57734E+01-1.57734E+01 1.80268E-07
 -1        72-1.57734E+01-1.57734E+01 1.80268E-07
 -3
    1PSTEP                       188          63           1          
  100CL  163 5.25781E-01          72                     0   63           1
 -4  STRESS      6    1
 -5  SXX         1    4    1    1
 -5  SYY         1    4    2    2
 -5  SZZ         1    4    3    3
 -5  SXY         1    4    1    2
 -5  SYZ         1    4    2    3
 -5  SZX         1    4    3    1
 -1         1-9.01303E-05-9.01303E-05 4.80974E-20-1.32138E-21-2.12112E-21-6.31299E-22
 -1         2-4.50652E-05-4.50652E-05 3.10681E-20-1.85034E-20 7.61721E-22-7.28080E-21
 -1         3-4.50652E-05-4.50652E-05-1.87886E-13-2.14204E-13 2.46653E-20-1.19876E-13
 -1         4-4.50652E-05-4.50652E-05-1.45824E-13 1.28280E-13-4.72882E-20-6.20567E-14
 -1         5-4.50652E-05-4.50652E-05 8.83248E-14 2.90184E-13-1.08118E-19 1.17990E-13
 -1         6-9.01303E-05-9.01303E-05 1.32957E-13 1.30788E-13-2.31869E-20 1.01944E-13
 -1         7-4.50652E-05-4.50652E-05 1.38846E-20 8.10512E-21-7.01665E-21 1.17780E-21
 -1         8-3.00434E-05-3.00434E-05-2.17607E-20-6.49169E-21-3.87313E-21 1.66889E-20
 -1         9-3.00434E-05-3.00434E-05 1.67155E-13-1.51974E-13-3.39180E-15 4.30907E-14
 -1        10-3.00434E-05-3.00434E-05 1.59704E-13 1.23338E-13-2.91283E-15-6.98060E-14
 -1        11-3.00434E-05-3.00434E-05-1.14262E-13 1.73721E-13-3.76470E-14-1.60124E-13
 -1        12-4.50652E-05-4.50652E-05-4.24734E-13-1.82101E-13 6.37320E-14-7.59191E-14
 -1        13-4.50652E-05-4.50652E-05-7.33688E-15-5.25832E-14 1.09375E-13 3.39189E-20
 -1        14-3.00434E-05-3.00434E-05 7.31435E-14-3.55012E-14-3.73173E-14 1.61961E-15
 -1        15-3.00434E-05-3.00434E-05-1.49350E-13-6.60980E-16-3.85857E-14 1.11552E-13
 -1        16-3.00434E-05-3.00434E-05-1.78355E-13 8.14508E-15 8.43256E-14-1.07019E-13
 -1        17-3.00434E-05-3.00434E-05-4.19757E-13-3.33173E-13-1.33959E-13-1.05655E-13
 -1        18-4.50652E-05-4.50652E-05-5.20210E-14-1.42926E-13 1.27247E-13-2.75758E-13
 -1        19-4.50652E-05-4.50652E-05-3.56470E-14 4.66020E-14 3.09648E-14 1.17664E-20
 -1        20-3.00434E-05-3.00434E-05 3.07437E-14 3.06223E-14 1.91547E-13 6.33357E-15
 -1        21-3.00434E-05-3.00434E-05 6.29115E-14-3.37889E-14-6.73835E-14-6.44569E-14
 -1        22-3.00434E-05-3.00434E-05-8.92041E-14 2.20068E-14 2.47936E-14 1.57682E-13
 -1        23-3.00434E-05-3.00434E-05 1.44684E-13-1.77926E-14 1.66618E-13 1.73309E-13
 -1        24-4.50652E-05-4.50652E-05 7.18673E-13 8.40929E-14 1.84447E-14 4.10548E-13
 -1        25-4.50652E-05-4.50652E-05 7.15105E-13 6.07032E-13-1.48269E-13-4.93755E-20
 -1        26-3.00434E-05-3.00434E-05-2.02404E-13 3.49180E-13-9.87507E-14 1.76078E-15
 -1        27-3.00434E-05-3.00434E-05-4.36950E-14 1.21877E-13-1.22999E-13-1.11695E-13
 -1        28-3.00434E-05-3.00434E-05 6.91487E-14 5.86787E-14-8.60612E-15 8.53472E-14
 -1        29-3.00434E-05-3.00434E-05-1.37938E-13 1.93246E-13 6.74975E-14-1.89466E-13
 -1        30-4.50652E-05-4.50652E-05 3.09104E-13-2.87146E-13-5.26565E-13 4.69044E-14
 -1        31-9.01303E-05-9.01303E-05 1.49292E-12-4.55363E-13 7.66268E-13 5.49990E-19
 -1        32-4.50652E-05-4.50652E-05-3.55623E-13-3.10944E-13-9.35481E-14 3.49633E-14
 -1        33-4.50652E-05-4.50652E-05 1.32214E-13-2.46462E-13 5.12800E-13 3.73528E-13
 -1        34-4.50652E-05-4.50652E-05-2.93105E-13-2.70775E-13-5.77470E-13-3.22589E-13
 -1        35-4.50652E-05-4.50652E-05-7.12903E-13 6.73369E-13 3.59895E-13 1.64180E-13
 -1        36-9.01303E-05-9.01303E-05 7.42624E-13-2.43077E-13 2.23108E-13-3.74489E-13
 -1        37-9.01303E-05-9.01303E-05-7.70185E-20-4.89953E-22 3.13232E-20 1.07405E-20
 -1        38-4.50652E-05-4.50652E-05-3.72071E-21 2.51691E-20-9.16380E-21-1.30835E-21
 -1        39-4.50652E-05-4.50652E-05-3.00653E-13-8.53536E-14 1.60696E-14-6.96081E-14
 -1        40-4.50652E-05-4.50652E-05-2.57082E-13 7.80430E-14-5.22641E-15-1.73277E-13
 -1        41-4.50652E-05-4.50652E-05-4.14179E-14-2.65714E-13 4.61830E-14-1.15107E-13
 -1        42-9.01303E-05-9.01303E-05 3.78323E-13-3.13425E-13-9.28303E-14-1.64388E-13
 -1        43-4.50652E-05-4.50652E-05 6.04098E-20-8.74303E-22 1.39835E-20-1.79034E-20
 -1        44-3.00434E-05-3.00434E-05 4.29579E-21 1.63599E-20-1.12543E-20 3.25511E-21
 -1        45-3.00434E-05-3.00434E-05-5.25114E-14-6.21979E-14 7.32128E-15 3.35590E-14
 -1        46-3.00434E-05-3.00434E-05-5.89571E-14 7.85556E-14-6.39708E-15-5.04911E-14
 -1        47-3.00434E-05-3.00434E-05 1.93304E-13-1.42381E-13-6.85832E-15-2.05550E-13
 -1        48-4.50652E-05-4.50652E-05 2.89039E-13 8.70522E-14 1.73169E-14 2.28883E-13
 -1        49-4.50652E-05-4.50652E-05 3.08850E-13 1.67942E-13-2.54460E-13-2.58706E-16
 -1        50-3.00434E-05-3.00434E-05-1.23261E-13 1.18115E-13 4.43948E-14 1.44712E-15
 -1        51-3.00434E-05-3.00434E-05-9.41579E-14-6.14144E-14-8.86877E-14-6.85405E-14
 -1        52-3.00434E-05-3.00434E-05 1.96894E-13 2.94090E-14-9.14628E-14 2.14897E-13
 -1        53-3.00434E-05-3.00434E-05 4.01402E-13 1.01564E-13-1.04901E-13 4.66282E-14
 -1        54-4.50652E-05-4.50652E-05-1.10917E-14 4.20753E-13 3.22436E-13 1.03609E-14
 -1        55-4.50652E-05-4.50652E-05 2.95388E-13-1.66339E-13 1.15107E-13-1.43746E-14
 -1        56-3.00434E-05-3.00434E-05-1.55762E-13-1.04739E-13-9.54480E-14-3.24952E-15
 -1        57-3.00434E-05-3.00434E-05 4.40993E-14 6.62871E-14 1.93299E-13-2.13881E-14
 -1        58-3.00434E-05-3.00434E-05 1.89289E-13 1.88933E-13-6.77191E-14-2.22445E-13
 -1        59-3.00434E-05-3.00434E-05 1.32564E-13-1.76178E-13 9.40280E-14-9.87529E-14
 -1        60-4.50652E-05-4.50652E-05-7.29200E-13-1.96410E-13-2.11849E-13-2.12863E-13
 -1        61-4.50652E-05-4.50652E-05-1.83461E-13-2.27681E-13-4.29775E-14-5.49399E-14
 -1        62-3.00434E-05-3.00434E-05-2.45988E-13-1.77129E-13-1.67022E-13-3.48658E-14
 -1        63-3.00434E-05-3.00434E-05-3.94317E-14-1.27430E-13 3.05393E-14-2.63199E-14
 -1        64-3.00434E-05-3.00434E-05 2.66922E-13-2.22450E-13-2.70246E-13 7.88005E-14
 -1        65-3.00434E-05-3.00434E-05-4.55900E-14-1.53010E-14-3.55444E-13 2.09628E-13
 -1        66-4.50652E-05-4.50652E-05 1.69985E-13 1.80427E-13 2.66141E-13-1.68336E-13
 -1        67-9.01303E-05-9.01303E-05-6.30010E-13 6.07364E-13-1.34423E-13 8.04325E-15
 -1        68-4.50652E-05-4.50652E-05 5.08148E-13 2.65670E-13 3.85953E-13 3.89847E-14
 -1        69-4.50652E-05-4.50652E-05-2.21325E-13-9.02002E-14-7.21499E-14-2.58193E-13
 -1        70-4.50652E-05-4.50652E-05-4.24631E-13-1.84997E-13 5.80908E-13 1.81858E-13
 -1        71-4.50652E-05-4.50652E-05 2.90754E-13-4.61571E-13 3.15119E-13-1.59324E-13
 -1        72-9.01303E-05-9.01303E-05-3.98949E-13-1.33138E-13-1.06332E-13 8.08504E-14
 -3
    1PSTEP                       189          63           1          
  100CL  163 5.25781E-01          72                     0   63           1
 -4  TOSTRAIN    6    1
 -5  EXX         1    4    1    1
 -5  EYY         1    4    2    2
 -5  EZZ         1    4    3    3
 -5  EXY         1    4    1    2
 -5  EYZ         1    4    2    3
 -5  EZX         1    4    3    1
 -1         1-3.00434E-10-3.00434E-10 2.57515E-10-8.17998E-27-1.31307E-26-3.90804E-27
 -1         2-1.50217E-10-1.50217E-10 1.28758E-10-1.14545E-25 4.71542E-27-4.50717E-26
 -1         3-1.50217E-10-1.50217E-10 1.28758E-10-1.32602E-18 1.52690E-25-7.42092E-19
 -1         4-1.50217E-10-1.50217E-10 1.28758E-10 7.94114E-19-2.92737E-25-3.84160E-19
 -1         5-1.50217E-10-1.50217E-10 1.28758E-10 1.79637E-18-6.69302E-25 7.30412E-19
 -1         6-3.00434E-10-3.00434E-10 2.57515E-10 8.09638E-19-1.43538E-25 6.31079E-19
 -1         7-1.50217E-10-1.50217E-10 1.28758E-10 5.01745E-26-4.34364E-26 7.29114E-27
 -1         8-1.00145E-10-1.00145E-10 8.58384E-11-4.01867E-26-2.39765E-26 1.03312E-25
 -1         9-1.00145E-10-1.00145E-10 8.58384E-11-9.40791E-19-2.09968E-20 2.66752E-19
 -1        10-1.00145E-10-1.00145E-10 8.58384E-11 7.63523E-19-1.80318E-20-4.32132E-19
 -1        11-1.00145E-10-1.00145E-10 8.58384E-11 1.07542E-18-2.33053E-19-9.91243E-19
 -1        12-1.50217E-10-1.50217E-10 1.28758E-10-1.12729E-18 3.94532E-19-4.69976E-19
 -1        13-1.50217E-10-1.50217E-10 1.28758E-10-3.25515E-19 6.77086E-19 2.09974E-25
 -1        14-1.00145E-10-1.00145E-10 8.58384E-11-2.19769E-19-2.31012E-19 1.00262E-20
 -1        15-1.00145E-10-1.00145E-10 8.58384E-11-4.09178E-21-2.38864E-19 6.90558E-19
 -1        16-1.00145E-10-1.00145E-10 8.58384E-11 5.04219E-20 5.22016E-19-6.62498E-19
 -1        17-1.00145E-10-1.00145E-10 8.58384E-11-2.06250E-18-8.29271E-19-6.54058E-19
 -1        18-1.50217E-10-1.50217E-10 1.28758E-10-8.84783E-19 7.87718E-19-1.70707E-18
 -1        19-1.50217E-10-1.50217E-10 1.28758E-10 2.88488E-19 1.91687E-19 7.28394E-26
 -1        20-1.00145E-10-1.00145E-10 8.58384E-11 1.89566E-19 1.18577E-18 3.92078E-20
 -1        21-1.00145E-10-1.00145E-10 8.58384E-11-2.09169E-19-4.17136E-19-3.99019E-19
 -1        22-1.00145E-10-1.00145E-10 8.58384E-11 1.36233E-19 1.53484E-19 9.76128E-19
 -1        23-1.00145E-10-1.00145E-10 8.58384E-11-1.10145E-19 1.03145E-18 1.07287E-18
 -1        24-1.50217E-10-1.50217E-10 1.28758E-10 5.20575E-19 1.14182E-19 2.54149E-18
 -1        25-1.50217E-10-1.50217E-10 1.28758E-10 3.75782E-18-9.17857E-19-3.05658E-25
 -1        26-1.00145E-10-1.00145E-10 8.58384E-11 2.16159E-18-6.11314E-19 1.09001E-20
 -1        27-1.00145E-10-1.00145E-10 8.58384E-11 7.54474E-19-7.61424E-19-6.91443E-19
 -1        28-1.00145E-10-1.00145E-10 8.58384E-11 3.63249E-19-5.32760E-20 5.28340E-19
 -1        29-1.00145E-10-1.00145E-10 8.58384E-11 1.19628E-18 4.17842E-19-1.17288E-18
 -1        30-1.50217E-10-1.50217E-10 1.28758E-10-1.77757E-18-3.25969E-18 2.90361E-19
 -1        31-3.00434E-10-3.00434E-10 2.57515E-10-2.81891E-18 4.74356E-18 3.40470E-24
 -1        32-1.50217E-10-1.50217E-10 1.28758E-10-1.92489E-18-5.79108E-19 2.16440E-19
 -1        33-1.50217E-10-1.50217E-10 1.28758E-10-1.52572E-18 3.17447E-18 2.31232E-18
 -1        34-1.50217E-10-1.50217E-10 1.28758E-10-1.67622E-18-3.57481E-18-1.99698E-18
 -1        35-1.50217E-10-1.50217E-10 1.28758E-10 4.16848E-18 2.22792E-18 1.01635E-18
 -1        36-3.00434E-10-3.00434E-10 2.57515E-10-1.50476E-18 1.38115E-18-2.31826E-18
 -1        37-3.00434E-10-3.00434E-10 2.57515E-10-3.03304E-27 1.93906E-25 6.64886E-26
 -1        38-1.50217E-10-1.50217E-10 1.28758E-10 1.55809E-25-5.67283E-26-8.09933E-27
 -1        39-1.50217E-10-1.50217E-10 1.28758E-10-5.28380E-19 9.94787E-20-4.30908E-19
 -1        40-1.50217E-10-1.50217E-10 1.28758E-10 4.83124E-19-3.23540E-20-1.07266E-18
 -1        41-1.50217E-10-1.50217E-10 1.28758E-10-1.64489E-18 2.85895E-19-7.12569E-19
 -1        42-3.00434E-10-3.00434E-10 2.57515E-10-1.94025E-18-5.74664E-19-1.01764E-18
 -1        43-1.50217E-10-1.50217E-10 1.28758E-10-5.41235E-27 8.65644E-26-1.10831E-25
 -1        44-1.00145E-10-1.00145E-10 8.58384E-11 1.01275E-25-6.96696E-26 2.01507E-26
 -1        45-1.00145E-10-1.00145E-10 8.58384E-11-3.85035E-19 4.53222E-20 2.07746E-19
 -1        46-1.00145E-10-1.00145E-10 8.58384E-11 4.86297E-19-3.96010E-20-3.12564E-19
 -1        47-1.00145E-10-1.00145E-10 8.58384E-11-8.81408E-19-4.24563E-20-1.27246E-18
 -1        48-1.50217E-10-1.50217E-10 1.28758E-10 5.38895E-19 1.07200E-19 1.41689E-18
 -1        49-1.50217E-10-1.50217E-10 1.28758E-10 1.03964E-18-1.57523E-18-1.60151E-21
 -1        50-1.00145E-10-1.00145E-10 8.58384E-11 7.31189E-19 2.74825E-19 8.95837E-21
 -1        51-1.00145E-10-1.00145E-10 8.58384E-11-3.80184E-19-5.49019E-19-4.24298E-19
 -1        52-1.00145E-10-1.00145E-10 8.58384E-11 1.82056E-19-5.66198E-19 1.33031E-18
 -1        53-1.00145E-10-1.00145E-10 8.58384E-11 6.28732E-19-6.49389E-19 2.88651E-19
 -1        54-1.50217E-10-1.50217E-10 1.28758E-10 2.60466E-18 1.99603E-18 6.41389E-20
 -1        55-1.50217E-10-1.50217E-10 1.28758E-10-1.02972E-18 7.12570E-19-8.89857E-20
 -1        56-1.00145E-10-1.00145E-10 8.58384E-11-6.48385E-19-5.90869E-19-2.01161E-20
 -1        57-1.00145E-10-1.00145E-10 8.58384E-11 4.10349E-19 1.19661E-18-1.32403E-19
 -1        58-1.00145E-10-1.00145E-10 8.58384E-11 1.16958E-18-4.19213E-19-1.37704E-18
 -1        59-1.00145E-10-1.00145E-10 8.58384E-11-1.09062E-18 5.82078E-19-6.11328E-19
 -1        60-1.50217E-10-1.50217E-10 1.28758E-10-1.21587E-18-1.31145E-18-1.31772E-18
 -1        61-1.50217E-10-1.50217E-10 1.28758E-10-1.40946E-18-2.66051E-19-3.40104E-19
 -1        62-1.00145E-10-1.00145E-10 8.58384E-11-1.09651E-18-1.03394E-18-2.15836E-19
 -1        63-1.00145E-10-1.00145E-10 8.58384E-11-7.88852E-19 1.89053E-19-1.62933E-19
 -1        64-1.00145E-10-1.00145E-10 8.58384E-11-1.37707E-18-1.67295E-18 4.87813E-19
 -1        65-1.00145E-10-1.00145E-10 8.58384E-11-9.47202E-20-2.20037E-18 1.29770E-18
 -1        66-1.50217E-10-1.50217E-10 1.28758E-10 1.11693E-18 1.64754E-18-1.04208E-18
 -1        67-3.00434E-10-3.00434E-10 2.57515E-10 3.75987E-18-8.32144E-19 4.97915E-20
 -1        68-1.50217E-10-1.50217E-10 1.28758E-10 1.64463E-18 2.38923E-18 2.41334E-19
 -1        69-1.50217E-10-1.50217E-10 1.28758E-10-5.58382E-19-4.46642E-19-1.59834E-18
 -1        70-1.50217E-10-1.50217E-10 1.28758E-10-1.14522E-18 3.59610E-18 1.12579E-18
 -1        71-1.50217E-10-1.50217E-10 1.28758E-10-2.85734E-18 1.95074E-18-9.86292E-19
 -1        72-3.00434E-10-3.00434E-10 2.57515E-10-8.24189E-19-6.58247E-19 5.00503E-19
 -3
    1PSTEP                       190          64           1          
  100CL  164 5.34781E-01          72                     0   64           1
 -4  DISP        4    1
 -5  D1          1    2    1    0
 -5  D2          1    2    2    0
 -5  D3          1    2    3    0
 -5  ALL         1    2    0    0    1ALL
 -1         1 0.00000E+00 0.00000E+00 0.00000E+00
 -1         2-1.52795E-07 0.00000E+00 0.00000E+00
 -1         3-8.02172E+00 0.00000E+00 0.00000E+00
 -1         4-8.02172E+00 0.00000E+00 0.00000E+00
 -1         5-1.60434E+01 0.00000E+00 0.00000E+00
 -1         6-1.60434E+01 0.00000E+00 0.00000E+00
 -1         7 0.00000E+00-1.52795E-07 0.00000E+00
 -1         8-1.52795E-07-1.52795E-07 0.00000E+00
 -1         9-8.02172E+00-1.52795E-07 0.00000E+00
 -1        10-8.02172E+00-1.52795E-07 0.00000E+00
 -1        11-1.60434E+01-1.52795E-07 0.00000E+00
 -1        12-1.60434E+01-1.52795E-07 0.00000E+00
 -1        13 0.00000E+00-8.02172E+00 0.00000E+00
 -1        14-1.52795E-07-8.02172E+00 0.00000E+00
 -1        15-8.02172E+00-8.02172E+00 0.00000E+00
 -1        16-8.02172E+00-8.02172E+00 0.00000E+00
 -1        17-1.60434E+01-8.02172E+00 0.00000E+00
 -1        18-1.60434E+01-8.02172E+00 0.00000E+00
 -1        19 0.00000E+00-8.02172E+00 0.00000E+00
 -1        20-1.52795E-07-8.02172E+00 0.00000E+00
 -1        21-8.02172E+00-8.02172E+00 0.00000E+00
 -1        22-8.02172E+00-8.02172E+00 0.00000E+00
 -1        23-1.60434E+01-8.02172E+00 0.00000E+00
 -1        24-1.60434E+01-8.02172E+00 0.00000E+00
 -1        25 0.00000E+00-1.60434E+01 0.00000E+00
 -1        26-1.52795E-07-1.60434E+01 0.00000E+00
 -1        27-8.02172E+00-1.60434E+01 0.00000E+00
 -1        28-8.02172E+00-1.60434E+01 0.00000E+00
 -1        29-1.60434E+01-1.60434E+01 0.00000E+00
 -1        30-1.60434E+01-1.60434E+01 0.00000E+00
 -1        31 0.00000E+00-1.60434E+01 0.00000E+00
 -1        32-1.52795E-07-1.60434E+01 0.00000E+00
 -1        33-8.02172E+00-1.60434E+01 0.00000E+00
 -1        34-8.02172E+00-1.60434E+01 0.00000E+00
 -1        35-1.60434E+01-1.60434E+01 0.00000E+00
 -1        36-1.60434E+01-1.60434E+01 0.00000E+00
 -1        37 0.00000E+00 0.00000E+00 1.83354E-07
 -1        38-1.52795E-07 0.00000E+00 1.83354E-07
 -1        39-8.02172E+00 0.00000E+00 1.83354E-07
 -1        40-8.02172E+00 0.00000E+00 1.83354E-07
 -1        41-1.60434E+01 0.00000E+00 1.83354E-07
 -1        42-1.60434E+01 0.00000E+00 1.83354E-07
 -1        43 0.00000E+00-1.52795E-07 1.83354E-07
 -1        44-1.52795E-07-1.52795E-07 1.83354E-07
 -1        45-8.02172E+00-1.52795E-07 1.83354E-07
 -1        46-8.02172E+00-1.52795E-07 1.83354E-07
 -1        47-1.60434E+01-1.52795E-07 1.83354E-07
 -1        48-1.60434E+01-1.52795E-07 1.83354E-07
 -1        49 0.00000E+00-8.02172E+00 1.83354E-07
 -1        50-1.52795E-07-8.02172E+00 1.83354E-07
 -1        51-8.02172E+00-8.02172E+00 1.83354E-07
 -1        52-8.02172E+00-8.02172E+00 1.83354E-07
 -1        53-1.60434E+01-8.02172E+00 1.83354E-07
 -1        54-1.60434E+01-8.02172E+00 1.83354E-07
 -1        55 0.00000E+00-8.02172E+00 1.83354E-07
 -1        56-1.52795E-07-8.02172E+00 1.83354E-07
 -1        57-8.02172E+00-8.02172E+00 1.83354E-07
 -1        58-8.02172E+00-8.02172E+00 1.83354E-07
 -1        59-1.60434E+01-8.02172E+00 1.83354E-07
 -1        60-1.60434E+01-8.02172E+00 1.83354E-07
 -1        61 0.00000E+00-1.60434E+01 1.83354E-07
 -1        62-1.52795E-07-1.60434E+01 1.83354E-07
 -1        63-8.02172E+00-1.60434E+01 1.83354E-07
 -1        64-8.02172E+00-1.60434E+01 1.83354E-07
 -1        65-1.60434E+01-1.60434E+01 1.83354E-07
 -1        66-1.60434E+01-1.60434E+01 1.83354E-07
 -1        67 0.00000E+00-1.60434E+01 1.83354E-07
 -1        68-1.52795E-07-1.60434E+01 1.83354E-07
 -1        69-8.02172E+00-1.60434E+01 1.83354E-07
 -1        70-8.02172E+00-1.60434E+01 1.83354E-07
 -1        71-1.60434E+01-1.60434E+01 1.83354E-07
 -1        72-1.60434E+01-1.60434E+01 1.83354E-07
 -3
    1PSTEP                       191          64           1          
  100CL  164 5.34781E-01          72                     0   64           1
 -4  STRESS      6    1
 -5  SXX         1    4    1    1
 -5  SYY         1    4    2    2
 -5  SZZ         1    4    3    3
 -5  SXY         1    4    1    2
 -5  SYZ         1    4    2    3
 -5  SZX         1    4    3    1
 -1         1-9.16731E-05-9.16731E-05 1.81550E-21 1.08752E-21 5.27200E-22 1.52906E-21
 -1         2-4.58366E-05-4.58366E-05-1.94208E-20 1.69956E-20 5.25691E-22 1.09699E-20
 -1         3-4.58366E-05-4.58366E-05 8.32417E-14 5.95975E-14 8.75919E-20-8.92279E-14
 -1         4-4.58366E-05-4.58366E-05 1.21835E-13-1.01075E-13-1.44385E-19 1.55064E-13
 -1         5-4.58366E-05-4.58366E-05-2.76357E-13-3.14504E-13-6.45057E-20 2.93882E-14
 -1         6-9.16731E-05-9.16731E-05-3.67500E-13 5.36123E-13-5.01184E-20 1.18066E-13
 -1         7-4.58366E-05-4.58366E-05 3.72689E-20-2.49287E-20-1.58056E-20-6.27645E-22
 -1         8-3.05577E-05-3.05577E-05-1.58111E-20-5.65128E-21 9.62105E-21-4.77625E-21
 -1         9-3.05577E-05-3.05577E-05 3.05417E-14 1.26731E-14-4.76875E-15-4.32779E-14
 -1        10-3.05577E-05-3.05577E-05-7.96347E-14-4.74521E-14 5.49813E-15-4.93738E-14
 -1        11-3.05577E-05-3.05577E-05 6.34519E-14-2.20180E-13-1.67881E-15 8.79308E-14
 -1        12-4.58366E-05-4.58366E-05 1.88635E-13 1.49788E-13 8.58083E-15 3.03198E-13
 -1        13-4.58366E-05-4.58366E-05-1.86911E-13 1.01121E-19 3.87053E-14 6.97553E-20
 -1        14-3.05577E-05-3.05577E-05-1.30786E-13-4.30885E-15-1.15529E-13 3.84768E-15
 -1        15-3.05577E-05-3.05577E-05 1.36663E-13 1.04960E-13-3.65252E-14 4.11346E-14
 -1        16-3.05577E-05-3.05577E-05-2.12176E-13 1.66077E-13 2.09079E-13 1.45003E-16
 -1        17-3.05577E-05-3.05577E-05 8.31910E-14 1.13133E-13 3.94610E-14-1.19201E-13
 -1        18-4.58366E-05-4.58366E-05 1.40316E-13 2.12078E-13-1.62822E-13 4.29138E-15
 -1        19-4.58366E-05-4.58366E-05-1.06605E-13 1.01121E-19-1.30220E-13-2.89081E-21
 -1        20-3.05577E-05-3.05577E-05-1.12340E-13-4.30885E-15-5.36369E-14 4.22721E-15
 -1        21-3.05577E-05-3.05577E-05 2.28578E-14-1.55548E-13 3.71458E-14-7.79062E-14
 -1        22-3.05577E-05-3.05577E-05-1.99309E-13-4.74414E-14-1.80198E-14-3.06385E-14
 -1        23-3.05577E-05-3.05577E-05-2.68954E-13 1.75883E-13 1.00724E-13 2.79116E-13
 -1        24-4.58366E-05-4.58366E-05-6.84591E-14 4.98467E-14 1.27990E-13-2.36497E-13
 -1        25-4.58366E-05-4.58366E-05 4.72548E-14 2.61450E-13-5.21695E-13-4.13373E-20
 -1        26-3.05577E-05-3.05577E-05-1.65244E-13 1.94392E-13 8.49932E-14 3.53213E-14
 -1        27-3.05577E-05-3.05577E-05 2.69250E-13 3.74260E-13-3.54856E-13-2.38466E-14
 -1        28-3.05577E-05-3.05577E-05 6.08254E-14 1.99038E-13 1.11340E-13-4.97838E-15
 -1        29-3.05577E-05-3.05577E-05-1.51965E-13 2.24929E-14-9.98739E-14-2.53113E-13
 -1        30-4.58366E-05-4.58366E-05-4.13306E-13 4.32010E-13-3.16255E-13 8.06137E-14
 -1        31-9.16731E-05-9.16731E-05 3.03477E-13-1.40111E-13-7.62539E-13-1.49014E-19
 -1        32-4.58366E-05-4.58366E-05 8.21307E-15-3.99170E-14 3.40545E-14-1.63429E-14
 -1        33-4.58366E-05-4.58366E-05 7.18230E-14 2.75658E-13-3.47301E-13-6.96248E-14
 -1        34-4.58366E-05-4.58366E-05-2.12438E-13-2.03781E-13-9.27208E-14 8.74550E-14
 -1        35-4.58366E-05-4.58366E-05 2.57548E-13-2.73927E-13 3.14536E-13 3.19230E-13
 -1        36-9.16731E-05-9.16731E-05 5.28108E-13 2.30660E-14 1.10402E-13 3.22414E-13
 -1        37-9.16731E-05-9.16731E-05-4.74333E-20-2.48897E-21 1.48503E-20 6.23848E-21
 -1        38-4.58366E-05-4.58366E-05 3.72689E-20-1.02378E-20-1.67978E-21 1.36112E-20
 -1        39-4.58366E-05-4.58366E-05-2.10372E-13-1.09947E-13 4.18624E-14-2.42489E-14
 -1        40-4.58366E-05-4.58366E-05-1.39438E-13-4.25106E-14-3.96809E-14-1.51611E-13
 -1        41-4.58366E-05-4.58366E-05-1.81716E-13 8.86286E-14-5.63798E-16 1.50356E-13
 -1        42-9.16731E-05-9.16731E-05-1.31603E-13-1.76161E-13-4.47025E-16 1.70443E-13
 -1        43-4.58366E-05-4.58366E-05-7.68401E-21 2.16288E-20-1.29221E-20-6.20711E-21
 -1        44-3.05577E-05-3.05577E-05 8.42967E-21 8.42365E-21 8.91491E-21-9.20889E-21
 -1        45-3.05577E-05-3.05577E-05 3.18292E-14-8.27775E-14 2.31395E-14 5.69432E-14
 -1        46-3.05577E-05-3.05577E-05-5.67864E-14-5.99753E-15-2.09557E-14-6.04165E-14
 -1        47-3.05577E-05-3.05577E-05-1.88703E-13 7.81645E-14-2.05463E-15 2.10699E-13
 -1        48-4.58366E-05-4.58366E-05-1.66289E-13-2.98475E-13 8.35733E-15-1.53449E-13
 -1        49-4.58366E-05-4.58366E-05 9.40608E-14 1.03411E-19-1.50627E-13 2.50825E-15
 -1        50-3.05577E-05-3.05577E-05 6.96633E-14-3.77745E-15-1.42576E-13 5.51981E-15
 -1        51-3.05577E-05-3.05577E-05 3.01945E-13 1.97767E-13 5.56942E-14-1.53914E-13
 -1        52-3.05577E-05-3.05577E-05 4.98606E-14 6.94367E-14-1.34620E-13 1.12276E-13
 -1        53-3.05577E-05-3.05577E-05 7.91270E-14 1.79849E-13 7.95282E-14 2.30715E-13
 -1        54-4.58366E-05-4.58366E-05 5.44215E-15-2.59453E-13-1.31711E-13-1.51474E-13
 -1        55-4.58366E-05-4.58366E-05 1.75562E-13 1.03411E-19 1.12970E-13-1.85463E-14
 -1        56-3.05577E-05-3.05577E-05 8.89063E-14-3.77745E-15 8.63260E-14-8.13702E-15
 -1        57-3.05577E-05-3.05577E-05-4.08301E-15 1.76214E-15 3.00045E-14-4.59840E-15
 -1        58-3.05577E-05-3.05577E-05-1.52246E-13-9.47453E-14 9.10595E-15-1.50671E-13
 -1        59-3.05577E-05-3.05577E-05-1.48704E-13 1.76778E-13 1.93928E-15-1.60561E-13
 -1        60-4.58366E-05-4.58366E-05-1.53367E-13 7.11084E-14 3.14838E-13 1.52417E-13
 -1        61-4.58366E-05-4.58366E-05 1.58517E-13-7.00560E-14 1.86689E-13-4.52443E-14
 -1        62-3.05577E-05-3.05577E-05-9.10692E-14-9.13148E-14-3.11052E-14 5.15845E-15
 -1        63-3.05577E-05-3.05577E-05-1.12419E-13-3.35560E-13 1.50134E-13 7.88655E-14
 -1        64-3.05577E-05-3.05577E-05-3.49691E-13-1.59323E-14-9.18797E-14-9.66354E-14
 -1        65-3.05577E-05-3.05577E-05 1.32405E-13 1.27434E-14 1.28574E-13-2.73601E-13
 -1        66-4.58366E-05-4.58366E-05 2.32430E-13-2.20839E-13 6.44608E-14 3.58021E-14
 -1        67-9.16731E-05-9.16731E-05 2.34837E-13 3.75392E-14 7.11922E-13 3.07874E-14
 -1        68-4.58366E-05-4.58366E-05-2.61070E-14-4.81465E-14-2.47752E-13-9.49177E-16
 -1        69-4.58366E-05-4.58366E-05 5.39715E-13-4.40858E-13 3.33260E-13-1.15402E-13
 -1        70-4.58366E-05-4.58366E-05 4.16942E-13 1.63242E-13-1.10461E-13-1.13371E-13
 -1        71-4.58366E-05-4.58366E-05-1.60679E-13 4.52402E-14 1.70256E-13 2.74000E-13
 -1        72-9.16731E-05-9.16731E-05-8.25521E-13 2.03983E-13-4.66085E-13-1.60218E-13
 -3
    1PSTEP                       192          64           1          
  100CL  164 5.34781E-01          72                     0   64           1
 -4  TOSTRAIN    6    1
 -5  EXX         1    4    1    1
 -5  EYY         1    4    2    2
 -5  EZZ         1    4    3    3
 -5  EXY         1    4    1    2
 -5  EYZ         1    4    2    3
 -5  EZX         1    4    3    1
 -1         1-3.05577E-10-3.05577E-10 2.61923E-10 6.73228E-27 3.26362E-27 9.46559E-27
 -1         2-1.52789E-10-1.52789E-10 1.30962E-10 1.05211E-25 3.25428E-27 6.79090E-26
 -1         3-1.52789E-10-1.52789E-10 1.30962E-10 3.68937E-19 5.42236E-25-5.52363E-19
 -1         4-1.52789E-10-1.52789E-10 1.30962E-10-6.25701E-19-8.93815E-25 9.59919E-19
 -1         5-1.52789E-10-1.52789E-10 1.30962E-10-1.94693E-18-3.99321E-25 1.81927E-19
 -1         6-3.05577E-10-3.05577E-10 2.61923E-10 3.31886E-18-3.10257E-25 7.30887E-19
 -1         7-1.52789E-10-1.52789E-10 1.30962E-10-1.54321E-25-9.78445E-26-3.88542E-27
 -1         8-1.01859E-10-1.01859E-10 8.73077E-11-3.49841E-26 5.95589E-26-2.95673E-26
 -1         9-1.01859E-10-1.01859E-10 8.73077E-11 7.84526E-20-2.95208E-20-2.67911E-19
 -1        10-1.01859E-10-1.01859E-10 8.73077E-11-2.93751E-19 3.40360E-20-3.05647E-19
 -1        11-1.01859E-10-1.01859E-10 8.73077E-11-1.36302E-18-1.03926E-20 5.44333E-19
 -1        12-1.52789E-10-1.52789E-10 1.30962E-10 9.27257E-19 5.31194E-20 1.87694E-18
 -1        13-1.52789E-10-1.52789E-10 1.30962E-10 6.25988E-25 2.39604E-19 4.31819E-25
 -1        14-1.01859E-10-1.01859E-10 8.73077E-11-2.66739E-20-7.15178E-19 2.38190E-20
 -1        15-1.01859E-10-1.01859E-10 8.73077E-11 6.49753E-19-2.26108E-19 2.54643E-19
 -1        16-1.01859E-10-1.01859E-10 8.73077E-11 1.02809E-18 1.29430E-18 8.97635E-22
 -1        17-1.01859E-10-1.01859E-10 8.73077E-11 7.00347E-19 2.44282E-19-7.37912E-19
 -1        18-1.52789E-10-1.52789E-10 1.30962E-10 1.31286E-18-1.00795E-18 2.65657E-20
 -1        19-1.52789E-10-1.52789E-10 1.30962E-10 6.25988E-25-8.06125E-19-1.78955E-26
 -1        20-1.01859E-10-1.01859E-10 8.73077E-11-2.66739E-20-3.32038E-19 2.61684E-20
 -1        21-1.01859E-10-1.01859E-10 8.73077E-11-9.62915E-19 2.29950E-19-4.82277E-19
 -1        22-1.01859E-10-1.01859E-10 8.73077E-11-2.93685E-19-1.11551E-19-1.89667E-19
 -1        23-1.01859E-10-1.01859E-10 8.73077E-11 1.08880E-18 6.23530E-19 1.72786E-18
 -1        24-1.52789E-10-1.52789E-10 1.30962E-10 3.08575E-19 7.92320E-19-1.46403E-18
 -1        25-1.52789E-10-1.52789E-10 1.30962E-10 1.61850E-18-3.22954E-18-2.55898E-25
 -1        26-1.01859E-10-1.01859E-10 8.73077E-11 1.20338E-18 5.26148E-19 2.18656E-19
 -1        27-1.01859E-10-1.01859E-10 8.73077E-11 2.31685E-18-2.19673E-18-1.47622E-19
 -1        28-1.01859E-10-1.01859E-10 8.73077E-11 1.23214E-18 6.89248E-19-3.08186E-20
 -1        29-1.01859E-10-1.01859E-10 8.73077E-11 1.39242E-19-6.18267E-19-1.56689E-18
 -1        30-1.52789E-10-1.52789E-10 1.30962E-10 2.67435E-18-1.95777E-18 4.99037E-19
 -1        31-3.05577E-10-3.05577E-10 2.61923E-10-8.67356E-19-4.72048E-18-9.22470E-25
 -1        32-1.52789E-10-1.52789E-10 1.30962E-10-2.47105E-19 2.10814E-19-1.01171E-19
 -1        33-1.52789E-10-1.52789E-10 1.30962E-10 1.70646E-18-2.14996E-18-4.31011E-19
 -1        34-1.52789E-10-1.52789E-10 1.30962E-10-1.26150E-18-5.73986E-19 5.41388E-19
 -1        35-1.52789E-10-1.52789E-10 1.30962E-10-1.69574E-18 1.94713E-18 1.97618E-18
 -1        36-3.05577E-10-3.05577E-10 2.61923E-10 1.42789E-19 6.83441E-19 1.99590E-18
 -1        37-3.05577E-10-3.05577E-10 2.61923E-10-1.54079E-26 9.19302E-26 3.86192E-26
 -1        38-1.52789E-10-1.52789E-10 1.30962E-10-6.33771E-26-1.03987E-26 8.42598E-26
 -1        39-1.52789E-10-1.52789E-10 1.30962E-10-6.80625E-19 2.59148E-19-1.50112E-19
 -1        40-1.52789E-10-1.52789E-10 1.30962E-10-2.63161E-19-2.45644E-19-9.38544E-19
 -1        41-1.52789E-10-1.52789E-10 1.30962E-10 5.48653E-19-3.49018E-21 9.30773E-19
 -1        42-3.05577E-10-3.05577E-10 2.61923E-10-1.09052E-18-2.76730E-21 1.05513E-18
 -1        43-1.52789E-10-1.52789E-10 1.30962E-10 1.33893E-25-7.99939E-26-3.84250E-26
 -1        44-1.01859E-10-1.01859E-10 8.73077E-11 5.21464E-26 5.51875E-26-5.70074E-26
 -1        45-1.01859E-10-1.01859E-10 8.73077E-11-5.12432E-19 1.43244E-19 3.52505E-19
 -1        46-1.01859E-10-1.01859E-10 8.73077E-11-3.71276E-20-1.29726E-19-3.74007E-19
 -1        47-1.01859E-10-1.01859E-10 8.73077E-11 4.83876E-19-1.27191E-20 1.30433E-18
 -1        48-1.52789E-10-1.52789E-10 1.30962E-10-1.84770E-18 5.17359E-20-9.49925E-19
 -1        49-1.52789E-10-1.52789E-10 1.30962E-10 6.40163E-25-9.32453E-19 1.55273E-20
 -1        50-1.01859E-10-1.01859E-10 8.73077E-11-2.33842E-20-8.82614E-19 3.41702E-20
 -1        51-1.01859E-10-1.01859E-10 8.73077E-11 1.22427E-18 3.44774E-19-9.52804E-19
 -1        52-1.01859E-10-1.01859E-10 8.73077E-11 4.29846E-19-8.33364E-19 6.95040E-19
 -1        53-1.01859E-10-1.01859E-10 8.73077E-11 1.11335E-18 4.92317E-19 1.42824E-18
 -1        54-1.52789E-10-1.52789E-10 1.30962E-10-1.60614E-18-8.15356E-19-9.37694E-19
 -1        55-1.52789E-10-1.52789E-10 1.30962E-10 6.40163E-25 6.99339E-19-1.14811E-19
 -1        56-1.01859E-10-1.01859E-10 8.73077E-11-2.33842E-20 5.34399E-19-5.03720E-20
 -1        57-1.01859E-10-1.01859E-10 8.73077E-11 1.09085E-20 1.85742E-19-2.84663E-20
 -1        58-1.01859E-10-1.01859E-10 8.73077E-11-5.86519E-19 5.63701E-20-9.32724E-19
 -1        59-1.01859E-10-1.01859E-10 8.73077E-11 1.09434E-18 1.20051E-20-9.93950E-19
 -1        60-1.52789E-10-1.52789E-10 1.30962E-10 4.40195E-19 1.94900E-18 9.43534E-19
 -1        61-1.52789E-10-1.52789E-10 1.30962E-10-4.33680E-19 1.15569E-18-2.80084E-19
 -1        62-1.01859E-10-1.01859E-10 8.73077E-11-5.65282E-19-1.92556E-19 3.19333E-20
 -1        63-1.01859E-10-1.01859E-10 8.73077E-11-2.07728E-18 9.29403E-19 4.88215E-19
 -1        64-1.01859E-10-1.01859E-10 8.73077E-11-9.86284E-20-5.68779E-19-5.98219E-19
 -1        65-1.01859E-10-1.01859E-10 8.73077E-11 7.88880E-20 7.95933E-19-1.69372E-18
 -1        66-1.52789E-10-1.52789E-10 1.30962E-10-1.36710E-18 3.99043E-19 2.21632E-19
 -1        67-3.05577E-10-3.05577E-10 2.61923E-10 2.32385E-19 4.40713E-18 1.90589E-19
 -1        68-1.52789E-10-1.52789E-10 1.30962E-10-2.98050E-19-1.53370E-18-5.87586E-21
 -1        69-1.52789E-10-1.52789E-10 1.30962E-10-2.72912E-18 2.06304E-18-7.14395E-19
 -1        70-1.52789E-10-1.52789E-10 1.30962E-10 1.01055E-18-6.83803E-19-7.01818E-19
 -1        71-1.52789E-10-1.52789E-10 1.30962E-10 2.80058E-19 1.05397E-18 1.69619E-18
 -1        72-3.05577E-10-3.05577E-10 2.61923E-10 1.26275E-18-2.88529E-18-9.91825E-19
 -3
    1PSTEP                       193          65           1          
  100CL  165 5.43781E-01          72                     0   65           1
 -4  DISP        4    1
 -5  D1          1    2    1    0
 -5  D2          1    2    2    0
 -5  D3          1    2    3    0
 -5  ALL         1    2    0    0    1ALL
 -1         1 0.00000E+00 0.00000E+00 0.00000E+00
 -1         2-1.55366E-07 0.00000E+00 0.00000E+00
 -1         3-8.15672E+00 0.00000E+00 0.00000E+00
 -1         4-8.15672E+00 0.00000E+00 0.00000E+00
 -1         5-1.63134E+01 0.00000E+00 0.00000E+00
 -1         6-1.63134E+01 0.00000E+00 0.00000E+00
 -1         7 0.00000E+00-1.55366E-07 0.00000E+00
 -1         8-1.55366E-07-1.55366E-07 0.00000E+00
 -1         9-8.15672E+00-1.55366E-07 0.00000E+00
 -1        10-8.15672E+00-1.55366E-07 0.00000E+00
 -1        11-1.63134E+01-1.55366E-07 0.00000E+00
 -1        12-1.63134E+01-1.55366E-07 0.00000E+00
 -1        13 0.00000E+00-8.15672E+00 0.00000E+00
 -1        14-1.55366E-07-8.15672E+00 0.00000E+00
 -1        15-8.15672E+00-8.15672E+00 0.00000E+00
 -1        16-8.15672E+00-8.15672E+00 0.00000E+00
 -1        17-1.63134E+01-8.15672E+00 0.00000E+00
 -1        18-1.63134E+01-8.15672E+00 0.00000E+00
 -1        19 0.00000E+00-8.15672E+00 0.00000E+00
 -1        20-1.55366E-07-8.15672E+00 0.00000E+00
 -1        21-8.15672E+00-8.15672E+00 0.00000E+00
 -1        22-8.15672E+00-8.15672E+00 0.00000E+00
 -1        23-1.63134E+01-8.15672E+00 0.00000E+00
 -1        24-1.63134E+01-8.15672E+00 0.00000E+00
 -1        25 0.00000E+00-1.63134E+01 0.00000E+00
 -1        26-1.55366E-07-1.63134E+01 0.00000E+00
 -1        27-8.15672E+00-1.63134E+01 0.00000E+00
 -1        28-8.15672E+00-1.63134E+01 0.00000E+00
 -1        29-1.63134E+01-1.63134E+01 0.00000E+00
 -1        30-1.63134E+01-1.63134E+01 0.00000E+00
 -1        31 0.00000E+00-1.63134E+01 0.00000E+00
 -1        32-1.55366E-07-1.63134E+01 0.00000E+00
 -1        33-8.15672E+00-1.63134E+01 0.00000E+00
 -1        34-8.15672E+00-1.63134E+01 0.00000E+00
 -1        35-1.63134E+01-1.63134E+01 0.00000E+00
 -1        36-1.63134E+01-1.63134E+01 0.00000E+00
 -1        37 0.00000E+00 0.00000E+00 1.86439E-07
 -1        38-1.55366E-07 0.00000E+00 1.86439E-07
 -1        39-8.15672E+00 0.00000E+00 1.86439E-07
 -1        40-8.15672E+00 0.00000E+00 1.86439E-07
 -1        41-1.63134E+01 0.00000E+00 1.86439E-07
 -1        42-1.63134E+01 0.00000E+00 1.86439E-07
 -1        43 0.00000E+00-1.55366E-07 1.86439E-07
 -1        44-1.55366E-07-1.55366E-07 1.86439E-07
 -1        45-8.15672E+00-1.55366E-07 1.86439E-07
 -1        46-8.15672E+00-1.55366E-07 1.86439E-07
 -1        47-1.63134E+01-1.55366E-07 1.86439E-07
 -1        48-1.63134E+01-1.55366E-07 1.86439E-07
 -1        49 0.00000E+00-8.15672E+00 1.86439E-07
 -1        50-1.55366E-07-8.15672E+00 1.86439E-07
 -1        51-8.15672E+00-8.15672E+00 1.86439E-07
 -1        52-8.15672E+00-8.15672E+00 1.86439E-07
 -1        53-1.63134E+01-8.15672E+00 1.86439E-07
 -1        54-1.63134E+01-8.15672E+00 1.86439E-07
 -1        55 0.00000E+00-8.15672E+00 1.86439E-07
 -1        56-1.55366E-07-8.15672E+00 1.86439E-07
 -1        57-8.15672E+00-8.15672E+00 1.86439E-07
 -1        58-8.15672E+00-8.15672E+00 1.86439E-07
 -1        59-1.63134E+01-8.15672E+00 1.86439E-07
 -1        60-1.63134E+01-8.15672E+00 1.86439E-07
 -1        61 0.00000E+00-1.63134E+01 1.86439E-07
 -1        62-1.55366E-07-1.63134E+01 1.86439E-07
 -1        63-8.15672E+00-1.63134E+01 1.86439E-07
 -1        64-8.15672E+00-1.63134E+01 1.86439E-07
 -1        65-1.63134E+01-1.63134E+01 1.86439E-07
 -1        66-1.63134E+01-1.63134E+01 1.86439E-07
 -1        67 0.00000E+00-1.63134E+01 1.86439E-07
 -1        68-1.55366E-07-1.63134E+01 1.86439E-07
 -1        69-8.15672E+00-1.63134E+01 1.86439E-07
 -1        70-8.15672E+00-1.63134E+01 1.86439E-07
 -1        71-1.63134E+01-1.63134E+01 1.86439E-07
 -1        72-1.63134E+01-1.63134E+01 1.86439E-07
 -3
    1PSTEP                       194          65           1          
  100CL  165 5.43781E-01          72                     0   65           1
 -4  STRESS      6    1
 -5  SXX         1    4    1    1
 -5  SYY         1    4    2    2
 -5  SZZ         1    4    3    3
 -5  SXY         1    4    1    2
 -5  SYZ         1    4    2    3
 -5  SZX         1    4    3    1
 -1         1-9.32159E-05-9.32159E-05-1.28879E-20 9.86189E-22 2.90299E-21-7.91572E-22
 -1         2-4.66080E-05-4.66080E-05 8.01632E-21 1.04155E-20-3.55804E-22 1.61102E-21
 -1         3-4.66080E-05-4.66080E-05-5.06497E-14 3.08210E-14-4.88699E-20 3.10947E-14
 -1         4-4.66080E-05-4.66080E-05-8.50210E-15-1.81708E-15-1.51706E-19-1.69127E-14
 -1         5-4.66080E-05-4.66080E-05 2.91543E-14 4.53009E-14 1.52888E-19 1.82951E-13
 -1         6-9.32159E-05-9.32159E-05 1.79603E-14 8.21811E-14-3.92831E-19-2.76275E-13
 -1         7-4.66080E-05-4.66080E-05-6.86544E-21-6.31103E-21 2.00395E-21 1.20485E-21
 -1         8-3.10720E-05-3.10720E-05-1.70811E-20 1.64341E-21 1.27509E-20 4.44756E-22
 -1         9-3.10720E-05-3.10720E-05 8.78453E-15-1.73998E-14-1.45373E-14 2.22319E-13
 -1        10-3.10720E-05-3.10720E-05-6.30045E-14 5.91142E-14 5.85985E-15-3.05552E-14
 -1        11-3.10720E-05-3.10720E-05-8.97964E-14 4.06517E-14-1.00404E-14-2.33459E-13
 -1        12-4.66080E-05-4.66080E-05-4.21012E-13 9.78054E-14-7.64364E-15 2.79110E-13
 -1        13-4.66080E-05-4.66080E-05 1.57636E-13 3.08800E-14 7.81093E-14 4.86683E-20
 -1        14-3.10720E-05-3.10720E-05 1.32726E-15 2.70537E-14-1.00849E-14 4.27518E-15
 -1        15-3.10720E-05-3.10720E-05-2.86642E-13-2.20441E-13-1.68175E-13-1.46970E-13
 -1        16-3.10720E-05-3.10720E-05-2.50459E-13-5.17959E-14 2.09823E-13 5.59388E-14
 -1        17-3.10720E-05-3.10720E-05 1.96441E-13 1.24933E-15 1.18581E-13-3.26245E-14
 -1        18-4.66080E-05-4.66080E-05 1.01452E-13 2.35882E-13-2.53908E-13 2.98823E-13
 -1        19-4.66080E-05-4.66080E-05 1.54973E-13-3.64313E-14 6.53194E-14-3.05761E-20
 -1        20-3.10720E-05-3.10720E-05-2.24487E-14-1.78206E-14 1.70453E-14-1.90556E-15
 -1        21-3.10720E-05-3.10720E-05 1.17462E-14-2.27891E-13 1.04740E-13-1.70567E-14
 -1        22-3.10720E-05-3.10720E-05 6.18574E-14 3.90265E-14-1.38832E-13-8.45824E-14
 -1        23-3.10720E-05-3.10720E-05 1.79639E-14-6.01946E-15-9.68707E-14-1.63692E-14
 -1        24-4.66080E-05-4.66080E-05-4.20402E-13 2.66017E-13 2.22283E-13-9.33496E-14
 -1        25-4.66080E-05-4.66080E-05-1.18058E-13 1.20621E-18 5.58605E-14 2.43138E-19
 -1        26-3.10720E-05-3.10720E-05-9.49704E-14 8.29379E-15-1.66611E-13 3.33884E-14
 -1        27-3.10720E-05-3.10720E-05-2.86556E-13-1.62193E-13-1.08251E-13-2.30122E-13
 -1        28-3.10720E-05-3.10720E-05 1.62184E-13 8.24200E-14 1.77049E-13 2.12608E-13
 -1        29-3.10720E-05-3.10720E-05-2.05160E-13-3.27155E-13 4.17994E-14-1.78784E-13
 -1        30-4.66080E-05-4.66080E-05 3.63028E-13 2.30225E-13-2.64340E-13-2.82944E-13
 -1        31-9.32159E-05-9.32159E-05-4.04288E-13 2.41242E-18 1.96488E-13 1.21214E-19
 -1        32-4.66080E-05-4.66080E-05-1.10098E-13 1.24407E-14 2.18639E-13-4.88614E-14
 -1        33-4.66080E-05-4.66080E-05 7.13007E-14-1.97516E-13 5.75668E-13 3.32593E-13
 -1        34-4.66080E-05-4.66080E-05-3.19172E-14-4.72019E-14-4.47289E-13-1.97174E-13
 -1        35-4.66080E-05-4.66080E-05 1.52789E-13-4.99405E-13-1.02651E-13 2.12429E-13
 -1        36-9.32159E-05-9.32159E-05 1.34748E-12 5.25182E-13 7.82460E-13 7.83720E-13
 -1        37-9.32159E-05-9.32159E-05 3.09144E-20-4.94129E-22-1.46343E-20 1.01488E-20
 -1        38-4.66080E-05-4.66080E-05 5.76866E-20 6.57176E-21-2.52307E-20 7.08120E-21
 -1        39-4.66080E-05-4.66080E-05-4.75931E-14-3.34405E-14 4.23930E-14 1.72289E-13
 -1        40-4.66080E-05-4.66080E-05 5.88057E-14 9.44658E-14-1.75395E-14 1.34497E-13
 -1        41-4.66080E-05-4.66080E-05 4.88092E-13 2.02382E-13 6.58524E-14-3.80598E-13
 -1        42-9.32159E-05-9.32159E-05 9.66989E-13 5.80875E-14-8.12101E-14-2.90721E-13
 -1        43-4.66080E-05-4.66080E-05 2.14780E-21 5.89525E-21 1.79128E-21-1.17238E-20
 -1        44-3.10720E-05-3.10720E-05-1.60326E-20 1.13280E-20-5.36068E-21-8.17433E-21
 -1        45-3.10720E-05-3.10720E-05-1.07396E-13 2.28035E-14 1.37248E-14-1.28271E-13
 -1        46-3.10720E-05-3.10720E-05-1.36351E-13-5.14967E-14-5.83308E-15-1.16491E-13
 -1        47-3.10720E-05-3.10720E-05 3.22674E-14 1.97168E-13 3.38611E-14 2.16168E-13
 -1        48-4.66080E-05-4.66080E-05-2.22340E-13-1.55061E-13-4.82485E-14-1.28189E-13
 -1        49-4.66080E-05-4.66080E-05 1.29764E-13 1.15244E-13 9.45194E-14 4.33034E-15
 -1        50-3.10720E-05-3.10720E-05-3.03895E-14 7.46432E-14-8.61281E-14 7.16203E-15
 -1        51-3.10720E-05-3.10720E-05 4.56807E-14-6.96729E-14-8.71969E-14-3.87647E-14
 -1        52-3.10720E-05-3.10720E-05 1.48986E-14 1.18433E-13-9.43345E-15 3.38200E-14
 -1        53-3.10720E-05-3.10720E-05-1.48326E-13-1.71507E-13 1.68430E-13-1.81418E-14
 -1        54-4.66080E-05-4.66080E-05-2.53311E-13 4.40559E-14 4.39508E-15-2.01091E-13
 -1        55-4.66080E-05-4.66080E-05 1.07632E-13-1.35963E-13 1.22079E-13-8.87023E-15
 -1        56-3.10720E-05-3.10720E-05-6.71449E-14-9.28277E-14 8.92402E-14-7.81902E-15
 -1        57-3.10720E-05-3.10720E-05 8.00738E-14-1.38781E-14 8.95627E-14-9.43871E-14
 -1        58-3.10720E-05-3.10720E-05 1.31473E-13 1.46564E-14 7.74663E-16 1.17279E-13
 -1        59-3.10720E-05-3.10720E-05 5.72975E-14-5.50913E-14-8.33072E-14-1.58687E-14
 -1        60-4.66080E-05-4.66080E-05 2.44629E-13-5.87948E-14 6.21434E-14 1.13791E-13
 -1        61-4.66080E-05-4.66080E-05-1.37199E-13 7.15835E-19-1.94060E-13-3.28370E-14
 -1        62-3.10720E-05-3.10720E-05-2.64860E-15-8.40541E-14 1.04538E-13 1.14970E-14
 -1        63-3.10720E-05-3.10720E-05-7.02970E-14-1.37734E-14 3.63025E-14 8.10550E-14
 -1        64-3.10720E-05-3.10720E-05-2.24584E-13-8.87019E-14-2.65178E-14-1.32013E-13
 -1        65-3.10720E-05-3.10720E-05 4.22333E-14 2.30676E-13-5.26987E-14-2.00879E-14
 -1        66-4.66080E-05-4.66080E-05 3.22803E-13-2.16302E-14 1.46388E-13 1.79455E-14
 -1        67-9.32159E-05-9.32159E-05-8.58135E-13 1.43167E-18-8.15070E-14 2.74803E-14
 -1        68-4.66080E-05-4.66080E-05-1.79398E-13-1.26081E-13-3.72458E-14-3.51213E-14
 -1        69-4.66080E-05-4.66080E-05-5.08851E-13-4.70031E-14-6.58409E-13-7.00038E-14
 -1        70-4.66080E-05-4.66080E-05-2.19808E-13-3.47379E-14 4.35560E-13-3.64056E-14
 -1        71-4.66080E-05-4.66080E-05 3.37514E-14 4.04650E-13 1.29920E-13 1.66061E-13
 -1        72-9.32159E-05-9.32159E-05-6.68768E-13-4.80936E-13-1.95550E-13-2.75369E-13
 -3
    1PSTEP                       195          65           1          
  100CL  165 5.43781E-01          72                     0   65           1
 -4  TOSTRAIN    6    1
 -5  EXX         1    4    1    1
 -5  EYY         1    4    2    2
 -5  EZZ         1    4    3    3
 -5  EXY         1    4    1    2
 -5  EYZ         1    4    2    3
 -5  EZX         1    4    3    1
 -1         1-3.10720E-10-3.10720E-10 2.66331E-10 6.10498E-27 1.79709E-26-4.90021E-27
 -1         2-1.55360E-10-1.55360E-10 1.33166E-10 6.44769E-26-2.20259E-27 9.97295E-27
 -1         3-1.55360E-10-1.55360E-10 1.33166E-10 1.90797E-19-3.02528E-25 1.92491E-19
 -1         4-1.55360E-10-1.55360E-10 1.33166E-10-1.12486E-20-9.39132E-25-1.04698E-19
 -1         5-1.55360E-10-1.55360E-10 1.33166E-10 2.80434E-19 9.46450E-25 1.13255E-18
 -1         6-3.10720E-10-3.10720E-10 2.66331E-10 5.08740E-19-2.43181E-24-1.71027E-18
 -1         7-1.55360E-10-1.55360E-10 1.33166E-10-3.90683E-26 1.24054E-26 7.45859E-27
 -1         8-1.03573E-10-1.03573E-10 8.87771E-11 1.01735E-26 7.89344E-26 2.75325E-27
 -1         9-1.03573E-10-1.03573E-10 8.87771E-11-1.07713E-19-8.99926E-20 1.37626E-18
 -1        10-1.03573E-10-1.03573E-10 8.87771E-11 3.65945E-19 3.62753E-20-1.89151E-19
 -1        11-1.03573E-10-1.03573E-10 8.87771E-11 2.51653E-19-6.21549E-20-1.44522E-18
 -1        12-1.55360E-10-1.55360E-10 1.33166E-10 6.05462E-19-4.73178E-20 1.72782E-18
 -1        13-1.55360E-10-1.55360E-10 1.33166E-10 1.91162E-19 4.83534E-19 3.01280E-25
 -1        14-1.03573E-10-1.03573E-10 8.87771E-11 1.67475E-19-6.24304E-20 2.64654E-20
 -1        15-1.03573E-10-1.03573E-10 8.87771E-11-1.36463E-18-1.04108E-18-9.09817E-19
 -1        16-1.03573E-10-1.03573E-10 8.87771E-11-3.20641E-19 1.29890E-18 3.46288E-19
 -1        17-1.03573E-10-1.03573E-10 8.87771E-11 7.73397E-21 7.34070E-19-2.01961E-19
 -1        18-1.55360E-10-1.55360E-10 1.33166E-10 1.46022E-18-1.57181E-18 1.84986E-18
 -1        19-1.55360E-10-1.55360E-10 1.33166E-10-2.25527E-19 4.04358E-19-1.89281E-25
 -1        20-1.03573E-10-1.03573E-10 8.87771E-11-1.10318E-19 1.05518E-19-1.17963E-20
 -1        21-1.03573E-10-1.03573E-10 8.87771E-11-1.41075E-18 6.48390E-19-1.05589E-19
 -1        22-1.03573E-10-1.03573E-10 8.87771E-11 2.41593E-19-8.59435E-19-5.23605E-19
 -1        23-1.03573E-10-1.03573E-10 8.87771E-11-3.72633E-20-5.99676E-19-1.01333E-19
 -1        24-1.55360E-10-1.55360E-10 1.33166E-10 1.64677E-18 1.37604E-18-5.77879E-19
 -1        25-1.55360E-10-1.55360E-10 1.33166E-10 7.46701E-24 3.45803E-19 1.50514E-24
 -1        26-1.03573E-10-1.03573E-10 8.87771E-11 5.13425E-20-1.03140E-18 2.06690E-19
 -1        27-1.03573E-10-1.03573E-10 8.87771E-11-1.00405E-18-6.70122E-19-1.42456E-18
 -1        28-1.03573E-10-1.03573E-10 8.87771E-11 5.10219E-19 1.09602E-18 1.31615E-18
 -1        29-1.03573E-10-1.03573E-10 8.87771E-11-2.02525E-18 2.58758E-19-1.10676E-18
 -1        30-1.55360E-10-1.55360E-10 1.33166E-10 1.42520E-18-1.63639E-18-1.75156E-18
 -1        31-3.10720E-10-3.10720E-10 2.66331E-10 1.49340E-23 1.21636E-18 7.50374E-25
 -1        32-1.55360E-10-1.55360E-10 1.33166E-10 7.70137E-20 1.35348E-18-3.02475E-19
 -1        33-1.55360E-10-1.55360E-10 1.33166E-10-1.22272E-18 3.56366E-18 2.05891E-18
 -1        34-1.55360E-10-1.55360E-10 1.33166E-10-2.92202E-19-2.76893E-18-1.22060E-18
 -1        35-1.55360E-10-1.55360E-10 1.33166E-10-3.09156E-18-6.35460E-19 1.31504E-18
 -1        36-3.10720E-10-3.10720E-10 2.66331E-10 3.25113E-18 4.84380E-18 4.85160E-18
 -1        37-3.10720E-10-3.10720E-10 2.66331E-10-3.05889E-27-9.05930E-26 6.28259E-26
 -1        38-1.55360E-10-1.55360E-10 1.33166E-10 4.06823E-26-1.56190E-25 4.38360E-26
 -1        39-1.55360E-10-1.55360E-10 1.33166E-10-2.07012E-19 2.62433E-19 1.06655E-18
 -1        40-1.55360E-10-1.55360E-10 1.33166E-10 5.84788E-19-1.08578E-19 8.32598E-19
 -1        41-1.55360E-10-1.55360E-10 1.33166E-10 1.25284E-18 4.07658E-19-2.35608E-18
 -1        42-3.10720E-10-3.10720E-10 2.66331E-10 3.59589E-19-5.02729E-19-1.79970E-18
 -1        43-1.55360E-10-1.55360E-10 1.33166E-10 3.64944E-26 1.10889E-26-7.25758E-26
 -1        44-1.03573E-10-1.03573E-10 8.87771E-11 7.01259E-26-3.31852E-26-5.06030E-26
 -1        45-1.03573E-10-1.03573E-10 8.87771E-11 1.41164E-19 8.49629E-20-7.94057E-19
 -1        46-1.03573E-10-1.03573E-10 8.87771E-11-3.18789E-19-3.61095E-20-7.21136E-19
 -1        47-1.03573E-10-1.03573E-10 8.87771E-11 1.22056E-18 2.09616E-19 1.33819E-18
 -1        48-1.55360E-10-1.55360E-10 1.33166E-10-9.59901E-19-2.98681E-19-7.93552E-19
 -1        49-1.55360E-10-1.55360E-10 1.33166E-10 7.13413E-19 5.85120E-19 2.68068E-20
 -1        50-1.03573E-10-1.03573E-10 8.87771E-11 4.62077E-19-5.33174E-19 4.43364E-20
 -1        51-1.03573E-10-1.03573E-10 8.87771E-11-4.31309E-19-5.39790E-19-2.39972E-19
 -1        52-1.03573E-10-1.03573E-10 8.87771E-11 7.33154E-19-5.83975E-20 2.09362E-19
 -1        53-1.03573E-10-1.03573E-10 8.87771E-11-1.06171E-18 1.04266E-18-1.12306E-19
 -1        54-1.55360E-10-1.55360E-10 1.33166E-10 2.72727E-19 2.72077E-20-1.24485E-18
 -1        55-1.55360E-10-1.55360E-10 1.33166E-10-8.41673E-19 7.55729E-19-5.49110E-20
 -1        56-1.03573E-10-1.03573E-10 8.87771E-11-5.74648E-19 5.52439E-19-4.84035E-20
 -1        57-1.03573E-10-1.03573E-10 8.87771E-11-8.59122E-20 5.54436E-19-5.84301E-19
 -1        58-1.03573E-10-1.03573E-10 8.87771E-11 9.07304E-20 4.79553E-21 7.26013E-19
 -1        59-1.03573E-10-1.03573E-10 8.87771E-11-3.41042E-19-5.15712E-19-9.82350E-20
 -1        60-1.55360E-10-1.55360E-10 1.33166E-10-3.63968E-19 3.84697E-19 7.04423E-19
 -1        61-1.55360E-10-1.55360E-10 1.33166E-10 4.43136E-24-1.20132E-18-2.03277E-19
 -1        62-1.03573E-10-1.03573E-10 8.87771E-11-5.20335E-19 6.47139E-19 7.11716E-20
 -1        63-1.03573E-10-1.03573E-10 8.87771E-11-8.52638E-20 2.24730E-19 5.01769E-19
 -1        64-1.03573E-10-1.03573E-10 8.87771E-11-5.49107E-19-1.64158E-19-8.17221E-19
 -1        65-1.03573E-10-1.03573E-10 8.87771E-11 1.42799E-18-3.26230E-19-1.24354E-19
 -1        66-1.55360E-10-1.55360E-10 1.33166E-10-1.33901E-19 9.06209E-19 1.11091E-19
 -1        67-3.10720E-10-3.10720E-10 2.66331E-10 8.86271E-24-5.04567E-19 1.70116E-19
 -1        68-1.55360E-10-1.55360E-10 1.33166E-10-7.80503E-19-2.30569E-19-2.17417E-19
 -1        69-1.55360E-10-1.55360E-10 1.33166E-10-2.90972E-19-4.07586E-18-4.33357E-19
 -1        70-1.55360E-10-1.55360E-10 1.33166E-10-2.15044E-19 2.69632E-18-2.25368E-19
 -1        71-1.55360E-10-1.55360E-10 1.33166E-10 2.50498E-18 8.04267E-19 1.02800E-18
 -1        72-3.10720E-10-3.10720E-10 2.66331E-10-2.97722E-18-1.21055E-18-1.70466E-18
 -3
    1PSTEP                       196          66           1          
  100CL  166 5.52781E-01          72                     0   66           1
 -4  DISP        4    1
 -5  D1          1    2    1    0
 -5  D2          1    2    2    0
 -5  D3          1    2    3    0
 -5  ALL         1    2    0    0    1ALL
 -1         1 0.00000E+00 0.00000E+00 0.00000E+00
 -1         2-1.57937E-07 0.00000E+00 0.00000E+00
 -1         3-8.29172E+00 0.00000E+00 0.00000E+00
 -1         4-8.29172E+00 0.00000E+00 0.00000E+00
 -1         5-1.65834E+01 0.00000E+00 0.00000E+00
 -1         6-1.65834E+01 0.00000E+00 0.00000E+00
 -1         7 0.00000E+00-1.57937E-07 0.00000E+00
 -1         8-1.57937E-07-1.57937E-07 0.00000E+00
 -1         9-8.29172E+00-1.57937E-07 0.00000E+00
 -1        10-8.29172E+00-1.57937E-07 0.00000E+00
 -1        11-1.65834E+01-1.57937E-07 0.00000E+00
 -1        12-1.65834E+01-1.57937E-07 0.00000E+00
 -1        13 0.00000E+00-8.29172E+00 0.00000E+00
 -1        14-1.57937E-07-8.29172E+00 0.00000E+00
 -1        15-8.29172E+00-8.29172E+00 0.00000E+00
 -1        16-8.29172E+00-8.29172E+00 0.00000E+00
 -1        17-1.65834E+01-8.29172E+00 0.00000E+00
 -1        18-1.65834E+01-8.29172E+00 0.00000E+00
 -1        19 0.00000E+00-8.29172E+00 0.00000E+00
 -1        20-1.57937E-07-8.29172E+00 0.00000E+00
 -1        21-8.29172E+00-8.29172E+00 0.00000E+00
 -1        22-8.29172E+00-8.29172E+00 0.00000E+00
 -1        23-1.65834E+01-8.29172E+00 0.00000E+00
 -1        24-1.65834E+01-8.29172E+00 0.00000E+00
 -1        25 0.00000E+00-1.65834E+01 0.00000E+00
 -1        26-1.57937E-07-1.65834E+01 0.00000E+00
 -1        27-8.29172E+00-1.65834E+01 0.00000E+00
 -1        28-8.29172E+00-1.65834E+01 0.00000E+00
 -1        29-1.65834E+01-1.65834E+01 0.00000E+00
 -1        30-1.65834E+01-1.65834E+01 0.00000E+00
 -1        31 0.00000E+00-1.65834E+01 0.00000E+00
 -1        32-1.57937E-07-1.65834E+01 0.00000E+00
 -1        33-8.29172E+00-1.65834E+01 0.00000E+00
 -1        34-8.29172E+00-1.65834E+01 0.00000E+00
 -1        35-1.65834E+01-1.65834E+01 0.00000E+00
 -1        36-1.65834E+01-1.65834E+01 0.00000E+00
 -1        37 0.00000E+00 0.00000E+00 1.89525E-07
 -1        38-1.57937E-07 0.00000E+00 1.89525E-07
 -1        39-8.29172E+00 0.00000E+00 1.89525E-07
 -1        40-8.29172E+00 0.00000E+00 1.89525E-07
 -1        41-1.65834E+01 0.00000E+00 1.89525E-07
 -1        42-1.65834E+01 0.00000E+00 1.89525E-07
 -1        43 0.00000E+00-1.57937E-07 1.89525E-07
 -1        44-1.57937E-07-1.57937E-07 1.89525E-07
 -1        45-8.29172E+00-1.57937E-07 1.89525E-07
 -1        46-8.29172E+00-1.57937E-07 1.89525E-07
 -1        47-1.65834E+01-1.57937E-07 1.89525E-07
 -1        48-1.65834E+01-1.57937E-07 1.89525E-07
 -1        49 0.00000E+00-8.29172E+00 1.89525E-07
 -1        50-1.57937E-07-8.29172E+00 1.89525E-07
 -1        51-8.29172E+00-8.29172E+00 1.89525E-07
 -1        52-8.29172E+00-8.29172E+00 1.89525E-07
 -1        53-1.65834E+01-8.29172E+00 1.89525E-07
 -1        54-1.65834E+01-8.29172E+00 1.89525E-07
 -1        55 0.00000E+00-8.29172E+00 1.89525E-07
 -1        56-1.57937E-07-8.29172E+00 1.89525E-07
 -1        57-8.29172E+00-8.29172E+00 1.89525E-07
 -1        58-8.29172E+00-8.29172E+00 1.89525E-07
 -1        59-1.65834E+01-8.29172E+00 1.89525E-07
 -1        60-1.65834E+01-8.29172E+00 1.89525E-07
 -1        61 0.00000E+00-1.65834E+01 1.89525E-07
 -1        62-1.57937E-07-1.65834E+01 1.89525E-07
 -1        63-8.29172E+00-1.65834E+01 1.89525E-07
 -1        64-8.29172E+00-1.65834E+01 1.89525E-07
 -1        65-1.65834E+01-1.65834E+01 1.89525E-07
 -1        66-1.65834E+01-1.65834E+01 1.89525E-07
 -1        67 0.00000E+00-1.65834E+01 1.89525E-07
 -1        68-1.57937E-07-1.65834E+01 1.89525E-07
 -1        69-8.29172E+00-1.65834E+01 1.89525E-07
 -1        70-8.29172E+00-1.65834E+01 1.89525E-07
 -1        71-1.65834E+01-1.65834E+01 1.89525E-07
 -1        72-1.65834E+01-1.65834E+01 1.89525E-07
 -3
    1PSTEP                       197          66           1          
  100CL  166 5.52781E-01          72                     0   66           1
 -4  STRESS      6    1
 -5  SXX         1    4    1    1
 -5  SYY         1    4    2    2
 -5  SZZ         1    4    3    3
 -5  SXY         1    4    1    2
 -5  SYZ         1    4    2    3
 -5  SZX         1    4    3    1
 -1         1-9.47587E-05-9.47587E-05 4.99129E-20-8.05361E-22 1.81312E-21 2.31520E-22
 -1         2-4.73794E-05-4.73794E-05 1.90882E-20-2.19384E-20-7.36865E-22-1.71249E-20
 -1         3-4.73794E-05-4.73794E-05-2.87182E-14 3.70028E-14-2.30363E-20 7.09299E-14
 -1         4-4.73794E-05-4.73794E-05-1.51666E-14-1.67537E-14 5.68514E-20-1.43373E-13
 -1         5-4.73793E-05-4.73793E-05 5.73084E-13 4.94715E-13-3.78251E-19-8.86542E-14
 -1         6-9.47587E-05-9.47587E-05 1.25820E-12 6.02279E-14 1.36974E-19 6.49850E-13
 -1         7-4.73794E-05-4.73794E-05 6.20055E-21-1.60439E-21-1.68151E-21-1.06171E-21
 -1         8-3.15862E-05-3.15862E-05 1.87343E-20-1.54267E-20-2.60809E-21 7.96351E-21
 -1         9-3.15862E-05-3.15862E-05-8.71438E-14 3.54953E-14 2.84996E-15 4.94517E-14
 -1        10-3.15862E-05-3.15862E-05-2.76027E-15-1.20100E-15-1.25275E-14 3.64485E-14
 -1        11-3.15862E-05-3.15862E-05-3.08950E-13 4.26521E-13-5.34934E-14-4.33809E-14
 -1        12-4.73794E-05-4.73794E-05-4.80843E-13-9.14790E-14 7.44191E-14-2.20351E-14
 -1        13-4.73794E-05-4.73794E-05-6.00862E-14-4.12056E-17-7.43525E-16-6.17593E-20
 -1        14-3.15862E-05-3.15862E-05-2.20540E-16 4.89381E-15-1.39712E-13 5.35761E-15
 -1        15-3.15862E-05-3.15862E-05 1.64408E-13 1.31860E-13-2.00804E-14-4.88015E-14
 -1        16-3.15862E-05-3.15862E-05-6.60631E-14 7.85085E-14 1.02564E-13 1.29439E-14
 -1        17-3.15862E-05-3.15862E-05-4.37362E-13-3.00980E-13 4.74295E-14 4.53484E-14
 -1        18-4.73794E-05-4.73794E-05 5.59816E-14 2.31611E-13-1.68559E-13-1.70993E-13
 -1        19-4.73794E-05-4.73794E-05 2.30410E-14 2.18973E-15-1.68519E-14-5.18159E-21
 -1        20-3.15862E-05-3.15862E-05 7.11486E-14 6.38110E-15-2.27021E-14 9.96694E-15
 -1        21-3.15862E-05-3.15862E-05 8.98493E-14-9.01846E-14 9.56577E-14 3.67358E-14
 -1        22-3.15862E-05-3.15862E-05-1.25653E-14-9.65461E-14-3.29016E-14-1.94331E-13
 -1        23-3.15862E-05-3.15862E-05 1.36642E-13-1.82176E-14 6.98421E-15 1.83209E-13
 -1        24-4.73793E-05-4.73793E-05 6.71326E-13 3.99398E-13-8.75783E-15-5.33177E-14
 -1        25-4.73794E-05-4.73794E-05-6.74494E-13-6.15163E-13-6.76951E-13 1.90847E-19
 -1        26-3.15862E-05-3.15862E-05 5.41532E-13-3.91470E-13 1.85631E-13 1.62770E-14
 -1        27-3.15862E-05-3.15862E-05-4.70075E-13-1.75548E-13-5.20287E-13-1.51729E-13
 -1        28-3.15862E-05-3.15862E-05 3.79923E-13-1.23780E-13 2.22089E-13 1.42499E-13
 -1        29-3.15862E-05-3.15862E-05 6.94636E-14-1.25227E-13-3.06325E-13 7.17734E-14
 -1        30-4.73793E-05-4.73793E-05 1.49486E-12-5.59951E-13 1.96485E-13 2.39015E-13
 -1        31-9.47587E-05-9.47587E-05-8.06405E-13 4.50999E-13 9.52044E-13-9.26752E-19
 -1        32-4.73793E-05-4.73793E-05 6.85925E-13 2.53457E-13-2.58383E-14-1.45349E-15
 -1        33-4.73794E-05-4.73794E-05-5.11241E-13 1.54015E-13 8.45560E-13-7.81574E-15
 -1        34-4.73793E-05-4.73793E-05 9.23932E-13 4.56000E-13-1.67781E-13-2.77160E-13
 -1        35-4.73794E-05-4.73794E-05-9.06315E-13 9.17158E-13-4.69904E-14-4.26971E-13
 -1        36-9.47587E-05-9.47587E-05 2.22817E-13 2.69687E-13 5.49004E-13 5.46825E-13
 -1        37-9.47587E-05-9.47587E-05-4.94277E-20-1.73395E-22 1.83933E-20 7.16552E-21
 -1        38-4.73794E-05-4.73794E-05-2.31415E-20 1.77198E-20 1.53825E-20-1.39445E-20
 -1        39-4.73794E-05-4.73794E-05 5.57249E-14-1.20151E-13-1.63823E-14 9.22236E-14
 -1        40-4.73794E-05-4.73794E-05 2.08375E-14-4.43548E-15 2.88272E-14-3.23639E-14
 -1        41-4.73794E-05-4.73794E-05-6.07783E-13-1.76973E-13 2.67436E-14 4.48079E-13
 -1        42-9.47587E-05-9.47587E-05-4.53973E-13-1.35143E-13-5.25693E-15-1.43467E-12
 -1        43-4.73794E-05-4.73794E-05 2.49564E-20-1.48414E-21 6.60857E-21 5.25044E-21
 -1        44-3.15862E-05-3.15862E-05 1.27255E-20 1.08815E-20 8.13815E-21 1.28846E-20
 -1        45-3.15862E-05-3.15862E-05-1.77130E-14-1.00418E-13-8.07152E-15-3.02974E-14
 -1        46-3.15862E-05-3.15862E-05 3.43777E-14 2.13689E-14 6.69064E-15-5.93264E-14
 -1        47-3.15862E-05-3.15862E-05 3.74964E-13-5.97624E-13-3.56641E-14-1.97362E-13
 -1        48-4.73793E-05-4.73793E-05 8.69812E-13 8.38517E-14 7.17906E-14 1.70077E-13
 -1        49-4.73794E-05-4.73794E-05 6.75481E-15 2.18977E-15-1.34154E-13-1.42847E-14
 -1        50-3.15862E-05-3.15862E-05-1.13284E-13 1.28341E-14-1.12037E-13-4.16545E-15
 -1        51-3.15862E-05-3.15862E-05-1.52946E-13-3.33481E-14 6.72588E-14-1.30640E-13
 -1        52-3.15862E-05-3.15862E-05-1.94715E-13 7.41300E-14 1.07667E-14 4.98674E-14
 -1        53-3.15862E-05-3.15862E-05-3.43455E-13-3.85939E-13 1.64054E-14 1.92899E-13
 -1        54-4.73794E-05-4.73794E-05-9.67725E-14-1.25913E-13-1.14680E-13-6.50532E-14
 -1        55-4.73794E-05-4.73794E-05 1.04401E-13-1.13797E-13 2.51526E-13-4.71401E-15
 -1        56-3.15862E-05-3.15862E-05-3.22355E-14-6.44907E-14-1.78906E-16 6.82427E-15
 -1        57-3.15862E-05-3.15862E-05 1.37393E-14-8.58062E-14 1.06052E-14 1.54483E-13
 -1        58-3.15862E-05-3.15862E-05 7.72764E-14 5.34944E-14 2.14220E-14-6.39920E-14
 -1        59-3.15862E-05-3.15862E-05 1.39889E-13-3.96677E-13 1.92995E-13-1.33816E-15
 -1        60-4.73793E-05-4.73794E-05 2.80204E-13 1.93147E-13-1.75348E-13 1.00496E-13
 -1        61-4.73793E-05-4.73793E-05 6.96063E-13 6.50189E-13 4.31450E-14 7.61032E-14
 -1        62-3.15862E-05-3.15862E-05-4.09983E-13 4.27955E-13-9.66056E-14 6.70123E-14
 -1        63-3.15862E-05-3.15862E-05 3.80803E-13 2.81251E-13 5.22542E-14 1.22723E-13
 -1        64-3.15862E-05-3.15862E-05-5.06235E-14 3.07436E-13-8.55369E-14 1.70840E-13
 -1        65-3.15862E-05-3.15862E-05 2.73533E-13 3.27517E-13-1.14363E-13-5.73973E-15
 -1        66-4.73794E-05-4.73794E-05-9.92997E-13 5.75894E-13-9.53507E-14-2.53971E-13
 -1        67-9.47587E-05-9.47587E-05 1.82606E-12-3.80946E-13-1.54489E-13-1.65927E-13
 -1        68-4.73794E-05-4.73794E-05-7.95671E-13-1.98731E-13 3.25026E-13-8.44163E-14
 -1        69-4.73794E-05-4.73793E-05 7.14727E-13-5.29579E-14-1.33556E-13-3.93373E-13
 -1        70-4.73794E-05-4.73794E-05-9.32533E-13-5.40126E-13 2.62962E-13-3.08436E-14
 -1        71-4.73793E-05-4.73793E-05 1.64980E-12-1.20456E-12 3.26804E-13-9.34501E-15
 -1        72-9.47587E-05-9.47587E-05-6.62404E-13-4.21195E-13 3.19044E-13-2.81394E-13
 -3
    1PSTEP                       198          66           1          
  100CL  166 5.52781E-01          72                     0   66           1
 -4  TOSTRAIN    6    1
 -5  EXX         1    4    1    1
 -5  EYY         1    4    2    2
 -5  EZZ         1    4    3    3
 -5  EXY         1    4    1    2
 -5  EYZ         1    4    2    3
 -5  EZX         1    4    3    1
 -1         1-3.15862E-10-3.15862E-10 2.70739E-10-4.98557E-27 1.12241E-26 1.43322E-27
 -1         2-1.57931E-10-1.57931E-10 1.35370E-10-1.35809E-25-4.56155E-27-1.06011E-25
 -1         3-1.57931E-10-1.57931E-10 1.35370E-10 2.29065E-19-1.42606E-25 4.39090E-19
 -1         4-1.57931E-10-1.57931E-10 1.35370E-10-1.03713E-19 3.51937E-25-8.87549E-19
 -1         5-1.57931E-10-1.57931E-10 1.35370E-10 3.06252E-18-2.34155E-24-5.48812E-19
 -1         6-3.15862E-10-3.15862E-10 2.70739E-10 3.72840E-19 8.47937E-25 4.02288E-18
 -1         7-1.57931E-10-1.57931E-10 1.35370E-10-9.93195E-27-1.04094E-26-6.57247E-27
 -1         8-1.05287E-10-1.05287E-10 9.02464E-11-9.54987E-26-1.61453E-26 4.92979E-26
 -1         9-1.05287E-10-1.05287E-10 9.02464E-11 2.19733E-19 1.76426E-20 3.06129E-19
 -1        10-1.05287E-10-1.05287E-10 9.02464E-11-7.43475E-21-7.75511E-20 2.25634E-19
 -1        11-1.05287E-10-1.05287E-10 9.02464E-11 2.64037E-18-3.31149E-19-2.68548E-19
 -1        12-1.57931E-10-1.57931E-10 1.35370E-10-5.66298E-19 4.60690E-19-1.36408E-19
 -1        13-1.57931E-10-1.57931E-10 1.35370E-10-2.55082E-22-4.60277E-21-3.82320E-25
 -1        14-1.05287E-10-1.05287E-10 9.02464E-11 3.02950E-20-8.64882E-19 3.31662E-20
 -1        15-1.05287E-10-1.05287E-10 9.02464E-11 8.16275E-19-1.24308E-19-3.02104E-19
 -1        16-1.05287E-10-1.05287E-10 9.02464E-11 4.86005E-19 6.34920E-19 8.01289E-20
 -1        17-1.05287E-10-1.05287E-10 9.02464E-11-1.86321E-18 2.93611E-19 2.80728E-19
 -1        18-1.57931E-10-1.57931E-10 1.35370E-10 1.43378E-18-1.04346E-18-1.05853E-18
 -1        19-1.57931E-10-1.57931E-10 1.35370E-10 1.35555E-20-1.04321E-19-3.20765E-26
 -1        20-1.05287E-10-1.05287E-10 9.02464E-11 3.95021E-20-1.40537E-19 6.17001E-20
 -1        21-1.05287E-10-1.05287E-10 9.02464E-11-5.58285E-19 5.92167E-19 2.27412E-19
 -1        22-1.05287E-10-1.05287E-10 9.02464E-11-5.97666E-19-2.03677E-19-1.20300E-18
 -1        23-1.05287E-10-1.05287E-10 9.02464E-11-1.12776E-19 4.32356E-20 1.13415E-18
 -1        24-1.57931E-10-1.57931E-10 1.35370E-10 2.47246E-18-5.42151E-20-3.30062E-19
 -1        25-1.57931E-10-1.57931E-10 1.35370E-10-3.80815E-18-4.19065E-18 1.18144E-24
 -1        26-1.05287E-10-1.05287E-10 9.02464E-11-2.42339E-18 1.14914E-18 1.00762E-19
 -1        27-1.05287E-10-1.05287E-10 9.02464E-11-1.08673E-18-3.22082E-18-9.39273E-19
 -1        28-1.05287E-10-1.05287E-10 9.02464E-11-7.66260E-19 1.37484E-18 8.82135E-19
 -1        29-1.05287E-10-1.05287E-10 9.02464E-11-7.75218E-19-1.89630E-18 4.44311E-19
 -1        30-1.57931E-10-1.57931E-10 1.35370E-10-3.46636E-18 1.21633E-18 1.47962E-18
 -1        31-3.15862E-10-3.15862E-10 2.70739E-10 2.79190E-18 5.89361E-18-5.73704E-24
 -1        32-1.57931E-10-1.57931E-10 1.35370E-10 1.56902E-18-1.59951E-19-8.99782E-21
 -1        33-1.57931E-10-1.57931E-10 1.35370E-10 9.53427E-19 5.23442E-18-4.83831E-20
 -1        34-1.57931E-10-1.57931E-10 1.35370E-10 2.82286E-18-1.03864E-18-1.71575E-18
 -1        35-1.57931E-10-1.57931E-10 1.35370E-10 5.67764E-18-2.90893E-19-2.64315E-18
 -1        36-3.15862E-10-3.15862E-10 2.70739E-10 1.66949E-18 3.39859E-18 3.38511E-18
 -1        37-3.15862E-10-3.15862E-10 2.70739E-10-1.07340E-27 1.13863E-25 4.43579E-26
 -1        38-1.57931E-10-1.57931E-10 1.35370E-10 1.09694E-25 9.52250E-26-8.63229E-26
 -1        39-1.57931E-10-1.57931E-10 1.35370E-10-7.43789E-19-1.01414E-19 5.70908E-19
 -1        40-1.57931E-10-1.57931E-10 1.35370E-10-2.74577E-20 1.78454E-19-2.00348E-19
 -1        41-1.57931E-10-1.57931E-10 1.35370E-10-1.09555E-18 1.65555E-19 2.77382E-18
 -1        42-3.15862E-10-3.15862E-10 2.70739E-10-8.36600E-19-3.25429E-20-8.88131E-18
 -1        43-1.57931E-10-1.57931E-10 1.35370E-10-9.18754E-27 4.09102E-26 3.25027E-26
 -1        44-1.05287E-10-1.05287E-10 9.02464E-11 6.73619E-26 5.03790E-26 7.97618E-26
 -1        45-1.05287E-10-1.05287E-10 9.02464E-11-6.21633E-19-4.99666E-20-1.87555E-19
 -1        46-1.05287E-10-1.05287E-10 9.02464E-11 1.32284E-19 4.14182E-20-3.67259E-19
 -1        47-1.05287E-10-1.05287E-10 9.02464E-11-3.69958E-18-2.20778E-19-1.22177E-18
 -1        48-1.57931E-10-1.57931E-10 1.35370E-10 5.19082E-19 4.44418E-19 1.05286E-18
 -1        49-1.57931E-10-1.57931E-10 1.35370E-10 1.35557E-20-8.30475E-19-8.84289E-20
 -1        50-1.05287E-10-1.05287E-10 9.02464E-11 7.94494E-20-6.93560E-19-2.57861E-20
 -1        51-1.05287E-10-1.05287E-10 9.02464E-11-2.06441E-19 4.16364E-19-8.08725E-19
 -1        52-1.05287E-10-1.05287E-10 9.02464E-11 4.58900E-19 6.66512E-20 3.08703E-19
 -1        53-1.05287E-10-1.05287E-10 9.02464E-11-2.38914E-18 1.01557E-19 1.19414E-18
 -1        54-1.57931E-10-1.57931E-10 1.35370E-10-7.79461E-19-7.09921E-19-4.02710E-19
 -1        55-1.57931E-10-1.57931E-10 1.35370E-10-7.04460E-19 1.55707E-18-2.91820E-20
 -1        56-1.05287E-10-1.05287E-10 9.02464E-11-3.99228E-19-1.10751E-21 4.22455E-20
 -1        57-1.05287E-10-1.05287E-10 9.02464E-11-5.31181E-19 6.56512E-20 9.56326E-19
 -1        58-1.05287E-10-1.05287E-10 9.02464E-11 3.31156E-19 1.32613E-19-3.96141E-19
 -1        59-1.05287E-10-1.05287E-10 9.02464E-11-2.45562E-18 1.19473E-18-8.28386E-21
 -1        60-1.57931E-10-1.57931E-10 1.35370E-10 1.19567E-18-1.08548E-18 6.22121E-19
 -1        61-1.57931E-10-1.57931E-10 1.35370E-10 4.02498E-18 2.67088E-19 4.71115E-19
 -1        62-1.05287E-10-1.05287E-10 9.02464E-11 2.64924E-18-5.98035E-19 4.14838E-19
 -1        63-1.05287E-10-1.05287E-10 9.02464E-11 1.74108E-18 3.23479E-19 7.59717E-19
 -1        64-1.05287E-10-1.05287E-10 9.02464E-11 1.90318E-18-5.29514E-19 1.05758E-18
 -1        65-1.05287E-10-1.05287E-10 9.02464E-11 2.02748E-18-7.07962E-19-3.55316E-20
 -1        66-1.57931E-10-1.57931E-10 1.35370E-10 3.56506E-18-5.90266E-19-1.57220E-18
 -1        67-3.15862E-10-3.15862E-10 2.70739E-10-2.35824E-18-9.56363E-19-1.02716E-18
 -1        68-1.57931E-10-1.57931E-10 1.35370E-10-1.23024E-18 2.01207E-18-5.22577E-19
 -1        69-1.57931E-10-1.57931E-10 1.35370E-10-3.27835E-19-8.26773E-19-2.43516E-18
 -1        70-1.57931E-10-1.57931E-10 1.35370E-10-3.34364E-18 1.62786E-18-1.90937E-19
 -1        71-1.57931E-10-1.57931E-10 1.35370E-10-7.45683E-18 2.02307E-18-5.78500E-20
 -1        72-3.15862E-10-3.15862E-10 2.70739E-10-2.60740E-18 1.97503E-18-1.74196E-18
 -3
    1PSTEP                       199          67           1          
  100CL  167 5.61781E-01          72                     0   67           1
 -4  DISP        4    1
 -5  D1          1    2    1    0
 -5  D2          1    2    2    0
 -5  D3          1    2    3    0
 -5  ALL         1    2    0    0    1ALL
 -1         1 0.00000E+00 0.00000E+00 0.00000E+00
 -1         2-1.60509E-07 0.00000E+00 0.00000E+00
 -1         3-8.42672E+00 0.00000E+00 0.00000E+00
 -1         4-8.42672E+00 0.00000E+00 0.00000E+00
 -1         5-1.68534E+01 0.00000E+00 0.00000E+00
 -1         6-1.68534E+01 0.00000E+00 0.00000E+00
 -1         7 0.00000E+00-1.60509E-07 0.00000E+00
 -1         8-1.60509E-07-1.60509E-07 0.00000E+00
 -1         9-8.42672E+00-1.60509E-07 0.00000E+00
 -1        10-8.42672E+00-1.60509E-07 0.00000E+00
 -1        11-1.68534E+01-1.60509E-07 0.00000E+00
 -1        12-1.68534E+01-1.60509E-07 0.00000E+00
 -1        13 0.00000E+00-8.42672E+00 0.00000E+00
 -1        14-1.60509E-07-8.42672E+00 0.00000E+00
 -1        15-8.42672E+00-8.42672E+00 0.00000E+00
 -1        16-8.42672E+00-8.42672E+00 0.00000E+00
 -1        17-1.68534E+01-8.42672E+00 0.00000E+00
 -1        18-1.68534E+01-8.42672E+00 0.00000E+00
 -1        19 0.00000E+00-8.42672E+00 0.00000E+00
 -1        20-1.60509E-07-8.42672E+00 0.00000E+00
 -1        21-8.42672E+00-8.42672E+00 0.00000E+00
 -1        22-8.42672E+00-8.42672E+00 0.00000E+00
 -1        23-1.68534E+01-8.42672E+00 0.00000E+00
 -1        24-1.68534E+01-8.42672E+00 0.00000E+00
 -1        25 0.00000E+00-1.68534E+01 0.00000E+00
 -1        26-1.60509E-07-1.68534E+01 0.00000E+00
 -1        27-8.42672E+00-1.68534E+01 0.00000E+00
 -1        28-8.42672E+00-1.68534E+01 0.00000E+00
 -1        29-1.68534E+01-1.68534E+01 0.00000E+00
 -1        30-1.68534E+01-1.68534E+01 0.00000E+00
 -1        31 0.00000E+00-1.68534E+01 0.00000E+00
 -1        32-1.60509E-07-1.68534E+01 0.00000E+00
 -1        33-8.42672E+00-1.68534E+01 0.00000E+00
 -1        34-8.42672E+00-1.68534E+01 0.00000E+00
 -1        35-1.68534E+01-1.68534E+01 0.00000E+00
 -1        36-1.68534E+01-1.68534E+01 0.00000E+00
 -1        37 0.00000E+00 0.00000E+00 1.92611E-07
 -1        38-1.60509E-07 0.00000E+00 1.92611E-07
 -1        39-8.42672E+00 0.00000E+00 1.92611E-07
 -1        40-8.42672E+00 0.00000E+00 1.92611E-07
 -1        41-1.68534E+01 0.00000E+00 1.92611E-07
 -1        42-1.68534E+01 0.00000E+00 1.92611E-07
 -1        43 0.00000E+00-1.60509E-07 1.92611E-07
 -1        44-1.60509E-07-1.60509E-07 1.92611E-07
 -1        45-8.42672E+00-1.60509E-07 1.92611E-07
 -1        46-8.42672E+00-1.60509E-07 1.92611E-07
 -1        47-1.68534E+01-1.60509E-07 1.92611E-07
 -1        48-1.68534E+01-1.60509E-07 1.92611E-07
 -1        49 0.00000E+00-8.42672E+00 1.92611E-07
 -1        50-1.60509E-07-8.42672E+00 1.92611E-07
 -1        51-8.42672E+00-8.42672E+00 1.92611E-07
 -1        52-8.42672E+00-8.42672E+00 1.92611E-07
 -1        53-1.68534E+01-8.42672E+00 1.92611E-07
 -1        54-1.68534E+01-8.42672E+00 1.92611E-07
 -1        55 0.00000E+00-8.42672E+00 1.92611E-07
 -1        56-1.60509E-07-8.42672E+00 1.92611E-07
 -1        57-8.42672E+00-8.42672E+00 1.92611E-07
 -1        58-8.42672E+00-8.42672E+00 1.92611E-07
 -1        59-1.68534E+01-8.42672E+00 1.92611E-07
 -1        60-1.68534E+01-8.42672E+00 1.92611E-07
 -1        61 0.00000E+00-1.68534E+01 1.92611E-07
 -1        62-1.60509E-07-1.68534E+01 1.92611E-07
 -1        63-8.42672E+00-1.68534E+01 1.92611E-07
 -1        64-8.42672E+00-1.68534E+01 1.92611E-07
 -1        65-1.68534E+01-1.68534E+01 1.92611E-07
 -1        66-1.68534E+01-1.68534E+01 1.92611E-07
 -1        67 0.00000E+00-1.68534E+01 1.92611E-07
 -1        68-1.60509E-07-1.68534E+01 1.92611E-07
 -1        69-8.42672E+00-1.68534E+01 1.92611E-07
 -1        70-8.42672E+00-1.68534E+01 1.92611E-07
 -1        71-1.68534E+01-1.68534E+01 1.92611E-07
 -1        72-1.68534E+01-1.68534E+01 1.92611E-07
 -3
    1PSTEP                       200          67           1          
  100CL  167 5.61781E-01          72                     0   67           1
 -4  STRESS      6    1
 -5  SXX         1    4    1    1
 -5  SYY         1    4    2    2
 -5  SZZ         1    4    3    3
 -5  SXY         1    4    1    2
 -5  SYZ         1    4    2    3
 -5  SZX         1    4    3    1
 -1         1-9.63015E-05-9.63015E-05 3.33945E-20-1.59216E-21-1.37593E-21 2.56437E-21
 -1         2-4.81507E-05-4.81507E-05 1.81577E-21-1.33333E-20 5.73738E-22-4.97607E-21
 -1         3-4.81507E-05-4.81507E-05 5.11686E-14-6.22150E-14-4.97321E-20 1.02449E-13
 -1         4-4.81507E-05-4.81507E-05-2.14727E-14 5.76646E-15-8.12247E-20 1.70102E-15
 -1         5-4.81507E-05-4.81507E-05 7.91283E-14 9.92438E-14-1.62644E-19-3.29102E-15
 -1         6-9.63015E-05-9.63015E-05 2.07337E-13 9.98612E-14 2.28038E-19 1.01480E-13
 -1         7-4.81507E-05-4.81507E-05-1.53678E-20 3.86457E-20 1.45363E-20-8.63508E-22
 -1         8-3.21005E-05-3.21005E-05 1.68593E-20 1.66415E-20-1.97224E-20 6.79565E-21
 -1         9-3.21005E-05-3.21005E-05 1.32278E-13-4.04018E-14 4.32743E-15-2.12049E-14
 -1        10-3.21005E-05-3.21005E-05 9.67024E-14 5.19089E-14-7.04474E-15-9.20343E-14
 -1        11-3.21005E-05-3.21005E-05 4.97192E-14-6.05174E-14-2.09005E-14-1.91870E-13
 -1        12-4.81507E-05-4.81507E-05 1.23766E-13 3.31584E-13 3.69334E-14 6.43463E-13
 -1        13-4.81507E-05-4.81507E-05 1.36543E-13 2.31153E-13-4.90514E-14 2.90954E-20
 -1        14-3.21005E-05-3.21005E-05-4.59530E-14 1.53392E-13 4.45863E-14-3.81749E-15
 -1        15-3.21005E-05-3.21005E-05-1.98442E-13-4.24293E-14 1.20207E-14-3.54095E-14
 -1        16-3.21005E-05-3.21005E-05 1.66746E-13-1.20020E-13-5.02808E-14-2.42209E-14
 -1        17-3.21005E-05-3.21005E-05-6.31383E-14-1.90037E-13-6.72231E-14 8.03763E-14
 -1        18-4.81507E-05-4.81507E-05-5.04639E-14 1.90687E-13-9.06029E-14-1.18447E-13
 -1        19-4.81507E-05-4.81507E-05 8.77782E-14-9.66343E-14 2.07849E-13-8.88187E-20
 -1        20-3.21005E-05-3.21005E-05-1.60419E-13-6.51331E-14-6.23096E-14 7.05059E-15
 -1        21-3.21005E-05-3.21005E-05-2.44380E-13 7.38884E-14-3.19081E-14 7.90115E-14
 -1        22-3.21005E-05-3.21005E-05-3.45130E-14 3.96658E-15 6.92548E-14 2.72436E-14
 -1        23-3.21005E-05-3.21005E-05 1.71837E-13-1.58977E-13 1.19659E-13-4.55609E-13
 -1        24-4.81507E-05-4.81507E-05 2.01468E-13 1.68072E-14 1.06356E-13 1.64977E-13
 -1        25-4.81507E-05-4.81507E-05-2.02892E-13 7.97690E-19-1.97374E-13 1.23669E-19
 -1        26-3.21005E-05-3.21005E-05-2.11117E-14-7.97849E-16 3.42653E-14 1.84498E-14
 -1        27-3.21005E-05-3.21005E-05-2.44211E-13-2.96483E-14-2.24760E-13-1.22387E-13
 -1        28-3.21005E-05-3.21005E-05-1.59023E-13 2.03659E-14 5.84369E-14 7.93850E-14
 -1        29-3.21005E-05-3.21005E-05-1.82573E-13-1.09795E-13-5.28889E-13-1.61843E-13
 -1        30-4.81507E-05-4.81507E-05-2.24602E-13 1.61803E-13-3.30808E-14 2.26737E-13
 -1        31-9.63015E-05-9.63015E-05-4.43837E-13 1.59583E-18 4.37276E-13-2.54566E-19
 -1        32-4.81507E-05-4.81507E-05-9.34363E-14-1.19677E-15 9.56678E-14-2.66185E-14
 -1        33-4.81507E-05-4.81507E-05-1.69082E-13-6.56102E-14-1.59884E-13 1.15013E-13
 -1        34-4.81507E-05-4.81507E-05 6.52284E-14 1.37589E-13 1.82324E-13 9.53189E-15
 -1        35-4.81507E-05-4.81507E-05 4.60785E-14-1.10520E-13 3.56120E-13 5.47408E-14
 -1        36-9.63015E-05-9.63015E-05 2.33231E-13-8.07572E-14 4.02368E-13-4.45810E-14
 -1        37-9.63015E-05-9.63015E-05 3.63154E-21 2.00952E-21 2.44576E-20-1.46451E-20
 -1        38-4.81507E-05-4.81507E-05-3.88415E-20 1.80548E-21 2.55763E-21-1.32943E-20
 -1        39-4.81507E-05-4.81507E-05 1.61383E-13 1.96454E-14 2.06552E-15 6.18738E-14
 -1        40-4.81507E-05-4.81507E-05 5.29189E-14-1.26482E-14 9.77649E-15-2.41401E-13
 -1        41-4.81507E-05-4.81507E-05 1.15452E-13 4.14349E-13-6.28186E-15 2.52463E-13
 -1        42-9.63015E-05-9.63015E-05 5.66777E-13 4.46338E-14 7.15461E-15-4.17233E-13
 -1        43-4.81507E-05-4.81507E-05 2.52890E-20-1.78535E-20 2.31751E-20-1.15305E-20
 -1        44-3.21005E-05-3.21005E-05-2.01663E-20-8.51654E-21-1.76357E-20-1.02865E-21
 -1        45-3.21005E-05-3.21005E-05 8.72394E-15 1.45596E-15 5.70447E-15 2.32767E-14
 -1        46-3.21005E-05-3.21005E-05-5.07334E-14 1.17493E-14-5.27026E-16 1.66277E-13
 -1        47-3.21005E-05-3.21005E-05-3.20126E-13 3.35081E-13-2.50883E-14-7.92529E-15
 -1        48-4.81507E-05-4.81507E-05-2.87605E-13-2.82271E-13 4.05106E-14-1.41752E-13
 -1        49-4.81507E-05-4.81507E-05 1.32249E-13 2.67386E-13 1.22761E-13 2.39246E-14
 -1        50-3.21005E-05-3.21005E-05 2.13891E-13 1.92762E-13-1.34304E-13 1.21322E-14
 -1        51-3.21005E-05-3.21005E-05 2.46547E-13 2.06199E-13-1.28906E-13-1.16290E-13
 -1        52-3.21005E-05-3.21005E-05-1.04015E-13 1.80062E-13 1.28124E-13 2.08489E-13
 -1        53-3.21005E-05-3.21005E-05-2.98298E-14-2.21365E-13 1.14860E-13 1.76586E-13
 -1        54-4.81507E-05-4.81507E-05-2.05259E-13-2.08128E-13-8.50798E-14-1.73994E-13
 -1        55-4.81507E-05-4.81507E-05 1.17719E-13 1.62899E-13-2.47749E-13-2.52494E-14
 -1        56-3.21005E-05-3.21005E-05 1.22248E-13 1.23105E-13 1.59560E-13-9.78228E-15
 -1        57-3.21005E-05-3.21005E-05 1.02221E-13-2.56527E-13 1.30740E-13 1.34827E-13
 -1        58-3.21005E-05-3.21005E-05-6.23974E-14-6.26534E-14-2.22297E-13-1.34206E-13
 -1        59-3.21005E-05-3.21005E-05-8.89837E-14-2.67229E-13-1.47894E-13 1.50314E-14
 -1        60-4.81507E-05-4.81507E-05 1.49948E-14 4.86274E-14 1.42702E-13 1.25055E-13
 -1        61-4.81507E-05-4.81507E-05-4.26118E-13 5.28169E-19 2.78365E-13 8.11738E-15
 -1        62-3.21005E-05-3.21005E-05-1.43658E-13-5.14714E-14-1.17967E-13 2.38613E-14
 -1        63-3.21005E-05-3.21005E-05 1.22636E-13 1.54925E-13-8.75073E-14-1.39141E-13
 -1        64-3.21005E-05-3.21005E-05 3.35449E-14 2.11579E-13-9.94498E-15 1.23300E-13
 -1        65-3.21005E-05-3.21005E-05 3.18203E-13 5.90286E-14 2.27583E-13-2.36532E-13
 -1        66-4.81507E-05-4.81507E-05 8.15045E-14-2.09106E-13-4.30910E-13 4.35104E-13
 -1        67-9.63015E-05-9.63015E-05-1.11832E-12 1.05465E-18-5.63182E-13-1.79595E-14
 -1        68-4.81507E-05-4.81507E-05-3.91271E-13-7.72071E-14 2.88963E-14-3.55980E-14
 -1        69-4.81507E-05-4.81507E-05-1.16666E-13-4.14979E-14 3.04927E-13 8.63746E-14
 -1        70-4.81507E-05-4.81507E-05-2.12027E-13-1.24101E-13-3.89346E-13-1.10110E-13
 -1        71-4.81507E-05-4.81507E-05-3.96530E-13 1.77144E-14-3.17564E-13 1.35483E-14
 -1        72-9.63015E-05-9.63015E-05-3.13555E-13 1.10467E-13 1.76092E-13-3.21870E-14
 -3
    1PSTEP                       201          67           1          
  100CL  167 5.61781E-01          72                     0   67           1
 -4  TOSTRAIN    6    1
 -5  EXX         1    4    1    1
 -5  EYY         1    4    2    2
 -5  EZZ         1    4    3    3
 -5  EXY         1    4    1    2
 -5  EYZ         1    4    2    3
 -5  EZX         1    4    3    1
 -1         1-3.21005E-10-3.21005E-10 2.75147E-10-9.85625E-27-8.51764E-27 1.58747E-26
 -1         2-1.60502E-10-1.60502E-10 1.37574E-10-8.25392E-26 3.55171E-27-3.08043E-26
 -1         3-1.60502E-10-1.60503E-10 1.37574E-10-3.85140E-19-3.07866E-25 6.34209E-19
 -1         4-1.60502E-10-1.60502E-10 1.37574E-10 3.56971E-20-5.02820E-25 1.05301E-20
 -1         5-1.60502E-10-1.60502E-10 1.37574E-10 6.14366E-19-1.00684E-24-2.03730E-20
 -1         6-3.21005E-10-3.21005E-10 2.75147E-10 6.18188E-19 1.41166E-24 6.28207E-19
 -1         7-1.60502E-10-1.60502E-10 1.37574E-10 2.39235E-25 8.99868E-26-5.34552E-27
 -1         8-1.07002E-10-1.07002E-10 9.17157E-11 1.03019E-25-1.22091E-25 4.20683E-26
 -1         9-1.07002E-10-1.07002E-10 9.17157E-11-2.50106E-19 2.67888E-20-1.31268E-19
 -1        10-1.07002E-10-1.07002E-10 9.17157E-11 3.21341E-19-4.36103E-20-5.69736E-19
 -1        11-1.07002E-10-1.07002E-10 9.17157E-11-3.74632E-19-1.29384E-19-1.18777E-18
 -1        12-1.60502E-10-1.60503E-10 1.37574E-10 2.05266E-18 2.28635E-19 3.98334E-18
 -1        13-1.60502E-10-1.60502E-10 1.37574E-10 1.43095E-18-3.03652E-19 1.80114E-25
 -1        14-1.07002E-10-1.07002E-10 9.17157E-11 9.49568E-19 2.76010E-19-2.36321E-20
 -1        15-1.07002E-10-1.07002E-10 9.17157E-11-2.62657E-19 7.44139E-20-2.19202E-19
 -1        16-1.07002E-10-1.07002E-10 9.17157E-11-7.42981E-19-3.11262E-19-1.49939E-19
 -1        17-1.07002E-10-1.07002E-10 9.17157E-11-1.17642E-18-4.16143E-19 4.97567E-19
 -1        18-1.60503E-10-1.60502E-10 1.37574E-10 1.18044E-18-5.60875E-19-7.33242E-19
 -1        19-1.60502E-10-1.60502E-10 1.37574E-10-5.98212E-19 1.28668E-18-5.49830E-25
 -1        20-1.07002E-10-1.07002E-10 9.17157E-11-4.03205E-19-3.85726E-19 4.36465E-20
 -1        21-1.07002E-10-1.07002E-10 9.17157E-11 4.57405E-19-1.97526E-19 4.89119E-19
 -1        22-1.07002E-10-1.07002E-10 9.17157E-11 2.45550E-20 4.28720E-19 1.68651E-19
 -1        23-1.07002E-10-1.07002E-10 9.17157E-11-9.84143E-19 7.40748E-19-2.82044E-18
 -1        24-1.60502E-10-1.60502E-10 1.37574E-10 1.04044E-19 6.58397E-19 1.02129E-18
 -1        25-1.60502E-10-1.60503E-10 1.37574E-10 4.93808E-24-1.22184E-18 7.65567E-25
 -1        26-1.07002E-10-1.07002E-10 9.17157E-11-4.93906E-21 2.12119E-19 1.14213E-19
 -1        27-1.07002E-10-1.07002E-10 9.17157E-11-1.83537E-19-1.39137E-18-7.57637E-19
 -1        28-1.07002E-10-1.07002E-10 9.17157E-11 1.26075E-19 3.61752E-19 4.91431E-19
 -1        29-1.07002E-10-1.07002E-10 9.17157E-11-6.79686E-19-3.27407E-18-1.00188E-18
 -1        30-1.60503E-10-1.60502E-10 1.37574E-10 1.00164E-18-2.04786E-19 1.40361E-18
 -1        31-3.21005E-10-3.21005E-10 2.75147E-10 9.87896E-24 2.70695E-18-1.57588E-24
 -1        32-1.60502E-10-1.60503E-10 1.37574E-10-7.40860E-21 5.92230E-19-1.64781E-19
 -1        33-1.60502E-10-1.60503E-10 1.37574E-10-4.06158E-19-9.89758E-19 7.11985E-19
 -1        34-1.60502E-10-1.60503E-10 1.37574E-10 8.51742E-19 1.12867E-18 5.90070E-20
 -1        35-1.60502E-10-1.60503E-10 1.37574E-10-6.84168E-19 2.20455E-18 3.38871E-19
 -1        36-3.21005E-10-3.21005E-10 2.75147E-10-4.99926E-19 2.49085E-18-2.75978E-19
 -1        37-3.21005E-10-3.21005E-10 2.75147E-10 1.24399E-26 1.51404E-25-9.06602E-26
 -1        38-1.60502E-10-1.60502E-10 1.37574E-10 1.11768E-26 1.58329E-26-8.22977E-26
 -1        39-1.60502E-10-1.60502E-10 1.37574E-10 1.21614E-19 1.27866E-20 3.83028E-19
 -1        40-1.60502E-10-1.60502E-10 1.37574E-10-7.82986E-20 6.05211E-20-1.49439E-18
 -1        41-1.60502E-10-1.60502E-10 1.37574E-10 2.56502E-18-3.88877E-20 1.56287E-18
 -1        42-3.21005E-10-3.21005E-10 2.75147E-10 2.76305E-19 4.42904E-20-2.58287E-18
 -1        43-1.60502E-10-1.60502E-10 1.37574E-10-1.10522E-25 1.43465E-25-7.13791E-26
 -1        44-1.07002E-10-1.07002E-10 9.17157E-11-5.27215E-26-1.09173E-25-6.36784E-27
 -1        45-1.07002E-10-1.07002E-10 9.17157E-11 9.01310E-21 3.53134E-20 1.44094E-19
 -1        46-1.07002E-10-1.07002E-10 9.17157E-11 7.27338E-20-3.26254E-21 1.02933E-18
 -1        47-1.07002E-10-1.07002E-10 9.17157E-11 2.07431E-18-1.55308E-19-4.90613E-20
 -1        48-1.60503E-10-1.60502E-10 1.37574E-10-1.74739E-18 2.50780E-19-8.77513E-19
 -1        49-1.60503E-10-1.60502E-10 1.37574E-10 1.65525E-18 7.59947E-19 1.48105E-19
 -1        50-1.07002E-10-1.07002E-10 9.17157E-11 1.19329E-18-8.31405E-19 7.51044E-20
 -1        51-1.07002E-10-1.07002E-10 9.17157E-11 1.27647E-18-7.97993E-19-7.19889E-19
 -1        52-1.07002E-10-1.07002E-10 9.17157E-11 1.11467E-18 7.93148E-19 1.29065E-18
 -1        53-1.07002E-10-1.07002E-10 9.17157E-11-1.37035E-18 7.11038E-19 1.09315E-18
 -1        54-1.60502E-10-1.60503E-10 1.37574E-10-1.28841E-18-5.26685E-19-1.07710E-18
 -1        55-1.60502E-10-1.60502E-10 1.37574E-10 1.00843E-18-1.53368E-18-1.56306E-19
 -1        56-1.07002E-10-1.07002E-10 9.17157E-11 7.62077E-19 9.87750E-19-6.05570E-20
 -1        57-1.07002E-10-1.07002E-10 9.17157E-11-1.58802E-18 8.09340E-19 8.34641E-19
 -1        58-1.07002E-10-1.07002E-10 9.17157E-11-3.87855E-19-1.37612E-18-8.30796E-19
 -1        59-1.07002E-10-1.07002E-10 9.17157E-11-1.65428E-18-9.15536E-19 9.30513E-20
 -1        60-1.60502E-10-1.60502E-10 1.37574E-10 3.01027E-19 8.83396E-19 7.74150E-19
 -1        61-1.60502E-10-1.60503E-10 1.37574E-10 3.26962E-24 1.72321E-18 5.02504E-20
 -1        62-1.07002E-10-1.07002E-10 9.17157E-11-3.18633E-19-7.30271E-19 1.47713E-19
 -1        63-1.07002E-10-1.07002E-10 9.17157E-11 9.59058E-19-5.41712E-19-8.61351E-19
 -1        64-1.07002E-10-1.07002E-10 9.17157E-11 1.30977E-18-6.15642E-20 7.63287E-19
 -1        65-1.07002E-10-1.07002E-10 9.17157E-11 3.65415E-19 1.40885E-18-1.46425E-18
 -1        66-1.60502E-10-1.60503E-10 1.37574E-10-1.29447E-18-2.66754E-18 2.69350E-18
 -1        67-3.21005E-10-3.21005E-10 2.75147E-10 6.52880E-24-3.48637E-18-1.11178E-19
 -1        68-1.60503E-10-1.60503E-10 1.37574E-10-4.77949E-19 1.78882E-19-2.20369E-19
 -1        69-1.60503E-10-1.60502E-10 1.37574E-10-2.56892E-19 1.88764E-18 5.34700E-19
 -1        70-1.60503E-10-1.60503E-10 1.37574E-10-7.68243E-19-2.41024E-18-6.81634E-19
 -1        71-1.60503E-10-1.60502E-10 1.37574E-10 1.09661E-19-1.96587E-18 8.38706E-20
 -1        72-3.21005E-10-3.21005E-10 2.75147E-10 6.83841E-19 1.09010E-18-1.99253E-19
 -3
    1PSTEP                       202          68           1          
  100CL  168 5.70781E-01          72                     0   68           1
 -4  DISP        4    1
 -5  D1          1    2    1    0
 -5  D2          1    2    2    0
 -5  D3          1    2    3    0
 -5  ALL         1    2    0    0    1ALL
 -1         1 0.00000E+00 0.00000E+00 0.00000E+00
 -1         2-1.63080E-07 0.00000E+00 0.00000E+00
 -1         3-8.56172E+00 0.00000E+00 0.00000E+00
 -1         4-8.56172E+00 0.00000E+00 0.00000E+00
 -1         5-1.71234E+01 0.00000E+00 0.00000E+00
 -1         6-1.71234E+01 0.00000E+00 0.00000E+00
 -1         7 0.00000E+00-1.63080E-07 0.00000E+00
 -1         8-1.63080E-07-1.63080E-07 0.00000E+00
 -1         9-8.56172E+00-1.63080E-07 0.00000E+00
 -1        10-8.56172E+00-1.63080E-07 0.00000E+00
 -1        11-1.71234E+01-1.63080E-07 0.00000E+00
 -1        12-1.71234E+01-1.63080E-07 0.00000E+00
 -1        13 0.00000E+00-8.56172E+00 0.00000E+00
 -1        14-1.63080E-07-8.56172E+00 0.00000E+00
 -1        15-8.56172E+00-8.56172E+00 0.00000E+00
 -1        16-8.56172E+00-8.56172E+00 0.00000E+00
 -1        17-1.71234E+01-8.56172E+00 0.00000E+00
 -1        18-1.71234E+01-8.56172E+00 0.00000E+00
 -1        19 0.00000E+00-8.56172E+00 0.00000E+00
 -1        20-1.63080E-07-8.56172E+00 0.00000E+00
 -1        21-8.56172E+00-8.56172E+00 0.00000E+00
 -1        22-8.56172E+00-8.56172E+00 0.00000E+00
 -1        23-1.71234E+01-8.56172E+00 0.00000E+00
 -1        24-1.71234E+01-8.56172E+00 0.00000E+00
 -1        25 0.00000E+00-1.71234E+01 0.00000E+00
 -1        26-1.63080E-07-1.71234E+01 0.00000E+00
 -1        27-8.56172E+00-1.71234E+01 0.00000E+00
 -1        28-8.56172E+00-1.71234E+01 0.00000E+00
 -1        29-1.71234E+01-1.71234E+01 0.00000E+00
 -1        30-1.71234E+01-1.71234E+01 0.00000E+00
 -1        31 0.00000E+00-1.71234E+01 0.00000E+00
 -1        32-1.63080E-07-1.71234E+01 0.00000E+00
 -1        33-8.56172E+00-1.71234E+01 0.00000E+00
 -1        34-8.56172E+00-1.71234E+01 0.00000E+00
 -1        35-1.71234E+01-1.71234E+01 0.00000E+00
 -1        36-1.71234E+01-1.71234E+01 0.00000E+00
 -1        37 0.00000E+00 0.00000E+00 1.95696E-07
 -1        38-1.63080E-07 0.00000E+00 1.95696E-07
 -1        39-8.56172E+00 0.00000E+00 1.95696E-07
 -1        40-8.56172E+00 0.00000E+00 1.95696E-07
 -1        41-1.71234E+01 0.00000E+00 1.95696E-07
 -1        42-1.71234E+01 0.00000E+00 1.95696E-07
 -1        43 0.00000E+00-1.63080E-07 1.95696E-07
 -1        44-1.63080E-07-1.63080E-07 1.95696E-07
 -1        45-8.56172E+00-1.63080E-07 1.95696E-07
 -1        46-8.56172E+00-1.63080E-07 1.95696E-07
 -1        47-1.71234E+01-1.63080E-07 1.95696E-07
 -1        48-1.71234E+01-1.63080E-07 1.95696E-07
 -1        49 0.00000E+00-8.56172E+00 1.95696E-07
 -1        50-1.63080E-07-8.56172E+00 1.95696E-07
 -1        51-8.56172E+00-8.56172E+00 1.95696E-07
 -1        52-8.56172E+00-8.56172E+00 1.95696E-07
 -1        53-1.71234E+01-8.56172E+00 1.95696E-07
 -1        54-1.71234E+01-8.56172E+00 1.95696E-07
 -1        55 0.00000E+00-8.56172E+00 1.95696E-07
 -1        56-1.63080E-07-8.56172E+00 1.95696E-07
 -1        57-8.56172E+00-8.56172E+00 1.95696E-07
 -1        58-8.56172E+00-8.56172E+00 1.95696E-07
 -1        59-1.71234E+01-8.56172E+00 1.95696E-07
 -1        60-1.71234E+01-8.56172E+00 1.95696E-07
 -1        61 0.00000E+00-1.71234E+01 1.95696E-07
 -1        62-1.63080E-07-1.71234E+01 1.95696E-07
 -1        63-8.56172E+00-1.71234E+01 1.95696E-07
 -1        64-8.56172E+00-1.71234E+01 1.95696E-07
 -1        65-1.71234E+01-1.71234E+01 1.95696E-07
 -1        66-1.71234E+01-1.71234E+01 1.95696E-07
 -1        67 0.00000E+00-1.71234E+01 1.95696E-07
 -1        68-1.63080E-07-1.71234E+01 1.95696E-07
 -1        69-8.56172E+00-1.71234E+01 1.95696E-07
 -1        70-8.56172E+00-1.71234E+01 1.95696E-07
 -1        71-1.71234E+01-1.71234E+01 1.95696E-07
 -1        72-1.71234E+01-1.71234E+01 1.95696E-07
 -3
    1PSTEP                       203          68           1          
  100CL  168 5.70781E-01          72                     0   68           1
 -4  STRESS      6    1
 -5  SXX         1    4    1    1
 -5  SYY         1    4    2    2
 -5  SZZ         1    4    3    3
 -5  SXY         1    4    1    2
 -5  SYZ         1    4    2    3
 -5  SZX         1    4    3    1
 -1         1-9.78443E-05-9.78443E-05 3.14007E-20 4.96215E-22-9.08522E-22-2.10157E-21
 -1         2-4.89221E-05-4.89221E-05-1.90885E-20 3.63830E-21 1.69506E-21 1.91550E-21
 -1         3-4.89221E-05-4.89221E-05 1.36259E-13 5.65070E-15-1.57800E-19 7.94548E-14
 -1         4-4.89221E-05-4.89221E-05 1.70047E-13-2.10911E-14-5.49186E-20-1.16704E-13
 -1         5-4.89221E-05-4.89221E-05 9.24130E-14 2.66888E-13-3.25615E-20 9.12416E-15
 -1         6-9.78443E-05-9.78443E-05-3.47197E-14 3.04668E-13 1.61988E-19 7.93165E-13
 -1         7-4.89221E-05-4.89221E-05-3.05582E-21 7.10092E-21 9.52069E-22 6.88981E-24
 -1         8-3.26148E-05-3.26148E-05 1.04669E-20 6.80303E-21-2.36900E-21 1.18043E-21
 -1         9-3.26148E-05-3.26148E-05-1.34638E-13-1.61599E-14-2.03742E-15-2.20392E-13
 -1        10-3.26148E-05-3.26148E-05-7.67951E-14 1.30019E-14 2.73044E-15 1.13640E-13
 -1        11-3.26148E-05-3.26148E-05 2.64812E-14 1.84107E-13-5.85922E-15 5.57441E-14
 -1        12-4.89221E-05-4.89221E-05-9.69735E-14-9.47489E-14 3.39993E-14-2.73610E-13
 -1        13-4.89221E-05-4.89221E-05 2.84966E-14 8.71594E-15 4.49033E-14 1.24162E-20
 -1        14-3.26148E-05-3.26148E-05 3.77886E-14 1.01468E-14 6.14318E-14 3.76767E-15
 -1        15-3.26148E-05-3.26148E-05 1.08628E-13 2.37536E-13 1.18421E-13-8.53444E-14
 -1        16-3.26148E-05-3.26148E-05-8.81374E-14 1.99484E-13 6.81288E-14 1.49326E-13
 -1        17-3.26148E-05-3.26148E-05 2.04108E-13 1.50922E-14 8.30285E-14 5.22193E-14
 -1        18-4.89221E-05-4.89221E-05-1.76326E-13 1.58201E-13-1.52532E-13-3.36742E-13
 -1        19-4.89221E-05-4.89221E-05-1.83078E-14-3.04913E-14 1.23970E-13-1.19868E-20
 -1        20-3.26148E-05-3.26148E-05-2.90946E-15-1.59914E-14 1.16778E-13 3.34937E-15
 -1        21-3.26148E-05-3.26148E-05 5.44711E-14 1.20078E-13-1.52148E-13 8.24758E-14
 -1        22-3.26148E-05-3.26148E-05-1.35963E-13-6.23781E-14-2.91938E-15-1.73640E-13
 -1        23-3.26148E-05-3.26148E-05-1.34370E-14 5.12080E-14-8.34482E-14 5.10342E-14
 -1        24-4.89221E-05-4.89221E-05 1.33825E-13-4.39809E-14 2.29626E-13 3.00394E-13
 -1        25-4.89221E-05-4.89221E-05-4.53899E-14 3.92071E-19 2.77046E-13 3.44104E-20
 -1        26-3.26148E-05-3.26148E-05-4.67847E-16-1.40666E-14-1.81205E-13 9.53123E-15
 -1        27-3.26148E-05-3.26148E-05-3.35352E-13-2.69152E-13-1.57722E-13-1.37554E-13
 -1        28-3.26148E-05-3.26148E-05 1.54796E-13-2.73167E-13 2.52790E-14-3.71633E-14
 -1        29-3.26148E-05-3.26148E-05-1.46442E-14 1.23815E-14 2.35046E-14 6.57248E-14
 -1        30-4.89221E-05-4.89221E-05 2.32915E-13 1.57110E-13 5.63742E-14-7.48950E-14
 -1        31-9.78443E-05-9.78443E-05 4.25686E-13 7.84142E-19-2.69805E-13-3.39493E-19
 -1        32-4.89221E-05-4.89221E-05 1.18274E-13-2.10999E-14-1.21079E-13 1.18802E-14
 -1        33-4.89221E-05-4.89221E-05 9.23789E-14 2.75518E-13 3.68295E-14 1.08735E-14
 -1        34-4.89221E-05-4.89221E-05 2.40648E-13 3.88102E-14-3.31358E-13-2.94754E-14
 -1        35-4.89221E-05-4.89221E-05 2.46517E-13 7.27459E-14-2.03358E-13-9.30375E-14
 -1        36-9.78443E-05-9.78443E-05 3.99988E-14-9.01447E-14-3.89287E-14-7.80212E-14
 -1        37-9.78443E-05-9.78443E-05 4.31372E-20-8.36178E-22-6.20294E-21-1.81559E-20
 -1        38-4.89221E-05-4.89221E-05-2.06608E-20 1.90261E-21 1.15747E-20-4.96543E-21
 -1        39-4.89221E-05-4.89221E-05-1.44741E-14-1.47958E-14-4.75603E-15-2.31618E-14
 -1        40-4.89221E-05-4.89221E-05 3.43322E-14 5.52176E-14 1.64345E-14-1.52611E-13
 -1        41-4.89221E-05-4.89221E-05 2.24888E-13-2.69779E-13-8.64504E-15-1.76828E-13
 -1        42-9.78443E-05-9.78443E-05 4.09940E-13-2.83090E-13-3.88279E-14 8.78037E-14
 -1        43-4.89221E-05-4.89221E-05-2.49567E-20-2.46405E-21-1.69514E-21 6.43574E-21
 -1        44-3.26148E-05-3.26148E-05 1.43791E-20 6.17429E-22 4.21743E-21 2.61435E-21
 -1        45-3.26148E-05-3.26148E-05 4.07159E-14-1.99109E-14-5.20800E-15 1.81371E-13
 -1        46-3.26148E-05-3.26148E-05 1.08571E-13 5.85872E-14 1.36868E-14 5.93558E-14
 -1        47-3.26148E-05-3.26148E-05 1.41069E-13-2.17070E-13-1.16226E-14-2.04069E-13
 -1        48-4.89221E-05-4.89221E-05 1.64762E-13 1.37797E-13 1.45853E-14 5.80498E-13
 -1        49-4.89221E-05-4.89221E-05 1.31668E-13-1.56327E-16-1.58387E-13-2.49548E-15
 -1        50-3.26148E-05-3.26148E-05-3.79193E-14 3.64631E-15 1.69935E-13 2.10401E-15
 -1        51-3.26148E-05-3.26148E-05-9.03085E-14 4.63215E-14 1.08198E-14-1.83189E-13
 -1        52-3.26148E-05-3.26148E-05-6.69483E-14 2.14898E-14-1.16369E-13 1.38650E-13
 -1        53-3.26148E-05-3.26148E-05 1.94493E-13-1.25383E-13-8.98502E-14 1.56538E-13
 -1        54-4.89221E-05-4.89221E-05-5.42432E-14-2.03785E-13 1.04760E-13 1.17131E-13
 -1        55-4.89221E-05-4.89221E-05 8.35460E-14-1.05040E-13 2.13610E-13-8.19260E-15
 -1        56-3.26148E-05-3.26148E-05-7.94959E-14-6.62764E-14-3.37795E-13-2.11236E-15
 -1        57-3.26148E-05-3.26148E-05-4.25579E-14-1.36728E-13 1.32423E-13 1.71929E-13
 -1        58-3.26148E-05-3.26148E-05-3.08628E-13-7.84546E-14-1.59259E-13-2.85196E-13
 -1        59-3.26148E-05-3.26148E-05 4.16807E-14-1.72602E-13 5.98393E-14-3.44685E-15
 -1        60-4.89221E-05-4.89221E-05 7.99962E-14 6.05548E-14-3.98720E-14-3.93970E-13
 -1        61-4.89221E-05-4.89221E-05-2.22359E-13 3.79045E-19-2.40218E-13 1.87677E-14
 -1        62-3.26148E-05-3.26148E-05-3.96350E-14-1.63219E-14 1.27183E-13 2.20430E-14
 -1        63-3.26148E-05-3.26148E-05 1.38809E-13 4.07589E-13-1.71455E-13 4.95368E-14
 -1        64-3.26148E-05-3.26148E-05-3.71906E-13 5.30004E-13 1.10635E-13 1.97776E-13
 -1        65-3.26148E-05-3.26148E-05-2.73815E-14 1.54527E-14 2.20069E-13 1.93459E-13
 -1        66-4.89221E-05-4.89221E-05 3.35891E-13-1.47181E-13 1.51518E-14 1.60321E-13
 -1        67-9.78443E-05-9.78443E-05 6.15994E-14 7.58089E-19 1.88811E-13-7.38707E-14
 -1        68-4.89221E-05-4.89221E-05 5.44491E-14-2.44829E-14 4.15339E-14-2.50549E-14
 -1        69-4.89221E-05-4.89221E-05 7.80053E-13-4.01949E-15 1.87933E-13-1.85202E-13
 -1        70-4.89221E-05-4.89221E-05-3.68214E-13 1.08175E-13 1.50387E-13-2.44782E-13
 -1        71-4.89221E-05-4.89221E-05-8.39730E-14-4.76494E-14 2.54265E-13 1.68746E-13
 -1        72-9.78443E-05-9.78443E-05-7.86334E-13 2.34317E-13-3.41843E-13-3.77261E-13
 -3
    1PSTEP                       204          68           1          
  100CL  168 5.70781E-01          72                     0   68           1
 -4  TOSTRAIN    6    1
 -5  EXX         1    4    1    1
 -5  EYY         1    4    2    2
 -5  EZZ         1    4    3    3
 -5  EXY         1    4    1    2
 -5  EYZ         1    4    2    3
 -5  EZX         1    4    3    1
 -1         1-3.26148E-10-3.26148E-10 2.79555E-10 3.07181E-27-5.62418E-27-1.30097E-26
 -1         2-1.63074E-10-1.63074E-10 1.39778E-10 2.25228E-26 1.04932E-26 1.18578E-26
 -1         3-1.63074E-10-1.63074E-10 1.39778E-10 3.49805E-20-9.76855E-25 4.91863E-19
 -1         4-1.63074E-10-1.63074E-10 1.39778E-10-1.30564E-19-3.39972E-25-7.22452E-19
 -1         5-1.63074E-10-1.63074E-10 1.39778E-10 1.65216E-18-2.01571E-25 5.64829E-20
 -1         6-3.26148E-10-3.26148E-10 2.79555E-10 1.88604E-18 1.00278E-24 4.91007E-18
 -1         7-1.63074E-10-1.63074E-10 1.39778E-10 4.39581E-26 5.89376E-27 4.26512E-29
 -1         8-1.08716E-10-1.08716E-10 9.31850E-11 4.21140E-26-1.46652E-26 7.30745E-27
 -1         9-1.08716E-10-1.08716E-10 9.31850E-11-1.00038E-19-1.26126E-20-1.36433E-18
 -1        10-1.08716E-10-1.08716E-10 9.31850E-11 8.04877E-20 1.69027E-20 7.03485E-19
 -1        11-1.08716E-10-1.08716E-10 9.31850E-11 1.13971E-18-3.62713E-20 3.45083E-19
 -1        12-1.63074E-10-1.63074E-10 1.39778E-10-5.86541E-19 2.10472E-19-1.69378E-18
 -1        13-1.63074E-10-1.63074E-10 1.39778E-10 5.39558E-20 2.77973E-19 7.68624E-26
 -1        14-1.08716E-10-1.08716E-10 9.31850E-11 6.28133E-20 3.80292E-19 2.33237E-20
 -1        15-1.08716E-10-1.08716E-10 9.31850E-11 1.47046E-18 7.33081E-19-5.28323E-19
 -1        16-1.08716E-10-1.08716E-10 9.31850E-11 1.23490E-18 4.21749E-19 9.24398E-19
 -1        17-1.08716E-10-1.08716E-10 9.31850E-11 9.34279E-20 5.13986E-19 3.23262E-19
 -1        18-1.63074E-10-1.63074E-10 1.39778E-10 9.79340E-19-9.44246E-19-2.08459E-18
 -1        19-1.63074E-10-1.63074E-10 1.39778E-10-1.88756E-19 7.67434E-19-7.42040E-26
 -1        20-1.08716E-10-1.08716E-10 9.31850E-11-9.89945E-20 7.22912E-19 2.07342E-20
 -1        21-1.08716E-10-1.08716E-10 9.31850E-11 7.43338E-19-9.41871E-19 5.10565E-19
 -1        22-1.08716E-10-1.08716E-10 9.31850E-11-3.86150E-19-1.80723E-20-1.07491E-18
 -1        23-1.08716E-10-1.08716E-10 9.31850E-11 3.17002E-19-5.16584E-19 3.15926E-19
 -1        24-1.63074E-10-1.63074E-10 1.39778E-10-2.72263E-19 1.42150E-18 1.85958E-18
 -1        25-1.63074E-10-1.63074E-10 1.39778E-10 2.42711E-24 1.71505E-18 2.13017E-25
 -1        26-1.08716E-10-1.08716E-10 9.31850E-11-8.70790E-20-1.12175E-18 5.90028E-20
 -1        27-1.08716E-10-1.08716E-10 9.31850E-11-1.66618E-18-9.76372E-19-8.51523E-19
 -1        28-1.08716E-10-1.08716E-10 9.31850E-11-1.69104E-18 1.56489E-19-2.30058E-19
 -1        29-1.08716E-10-1.08716E-10 9.31850E-11 7.66473E-20 1.45505E-19 4.06868E-19
 -1        30-1.63074E-10-1.63074E-10 1.39778E-10 9.72584E-19 3.48983E-19-4.63636E-19
 -1        31-3.26148E-10-3.26148E-10 2.79555E-10 4.85421E-24-1.67022E-18-2.10162E-24
 -1        32-1.63074E-10-1.63074E-10 1.39778E-10-1.30619E-19-7.49538E-19 7.35443E-20
 -1        33-1.63074E-10-1.63074E-10 1.39778E-10 1.70559E-18 2.27992E-19 6.73120E-20
 -1        34-1.63074E-10-1.63074E-10 1.39778E-10 2.40254E-19-2.05126E-18-1.82466E-19
 -1        35-1.63074E-10-1.63074E-10 1.39778E-10 4.50332E-19-1.25888E-18-5.75947E-19
 -1        36-3.26148E-10-3.26148E-10 2.79555E-10-5.58039E-19-2.40987E-19-4.82988E-19
 -1        37-3.26148E-10-3.26148E-10 2.79555E-10-5.17634E-27-3.83991E-26-1.12394E-25
 -1        38-1.63074E-10-1.63074E-10 1.39778E-10 1.17781E-26 7.16529E-26-3.07384E-26
 -1        39-1.63074E-10-1.63074E-10 1.39778E-10-9.15933E-20-2.94421E-20-1.43382E-19
 -1        40-1.63074E-10-1.63074E-10 1.39778E-10 3.41823E-19 1.01737E-19-9.44736E-19
 -1        41-1.63074E-10-1.63074E-10 1.39778E-10-1.67006E-18-5.35169E-20-1.09465E-18
 -1        42-3.26148E-10-3.26148E-10 2.79555E-10-1.75246E-18-2.40363E-19 5.43546E-19
 -1        43-1.63074E-10-1.63074E-10 1.39778E-10-1.52537E-26-1.04937E-26 3.98403E-26
 -1        44-1.08716E-10-1.08716E-10 9.31850E-11 3.82218E-27 2.61079E-26 1.61841E-26
 -1        45-1.08716E-10-1.08716E-10 9.31850E-11-1.23258E-19-3.22400E-20 1.12277E-18
 -1        46-1.08716E-10-1.08716E-10 9.31850E-11 3.62682E-19 8.47278E-20 3.67441E-19
 -1        47-1.08716E-10-1.08716E-10 9.31850E-11-1.34377E-18-7.19492E-20-1.26329E-18
 -1        48-1.63074E-10-1.63074E-10 1.39778E-10 8.53028E-19 9.02900E-20 3.59356E-18
 -1        49-1.63074E-10-1.63074E-10 1.39778E-10-9.67742E-22-9.80489E-19-1.54482E-20
 -1        50-1.08716E-10-1.08716E-10 9.31850E-11 2.25724E-20 1.05198E-18 1.30248E-20
 -1        51-1.08716E-10-1.08716E-10 9.31850E-11 2.86752E-19 6.69797E-20-1.13403E-18
 -1        52-1.08716E-10-1.08716E-10 9.31850E-11 1.33032E-19-7.20381E-19 8.58311E-19
 -1        53-1.08716E-10-1.08716E-10 9.31850E-11-7.76180E-19-5.56215E-19 9.69048E-19
 -1        54-1.63074E-10-1.63074E-10 1.39778E-10-1.26152E-18 6.48517E-19 7.25096E-19
 -1        55-1.63074E-10-1.63074E-10 1.39778E-10-6.50250E-19 1.32235E-18-5.07161E-20
 -1        56-1.08716E-10-1.08716E-10 9.31850E-11-4.10282E-19-2.09111E-18-1.30765E-20
 -1        57-1.08716E-10-1.08716E-10 9.31850E-11-8.46414E-19 8.19764E-19 1.06432E-18
 -1        58-1.08716E-10-1.08716E-10 9.31850E-11-4.85671E-19-9.85889E-19-1.76550E-18
 -1        59-1.08716E-10-1.08716E-10 9.31850E-11-1.06849E-18 3.70433E-19-2.13377E-20
 -1        60-1.63074E-10-1.63074E-10 1.39778E-10 3.74863E-19-2.46826E-19-2.43886E-18
 -1        61-1.63074E-10-1.63074E-10 1.39778E-10 2.34647E-24-1.48706E-18 1.16181E-19
 -1        62-1.08716E-10-1.08716E-10 9.31850E-11-1.01041E-19 7.87326E-19 1.36457E-19
 -1        63-1.08716E-10-1.08716E-10 9.31850E-11 2.52317E-18-1.06139E-18 3.06657E-19
 -1        64-1.08716E-10-1.08716E-10 9.31850E-11 3.28098E-18 6.84883E-19 1.22433E-18
 -1        65-1.08716E-10-1.08716E-10 9.31850E-11 9.56599E-20 1.36233E-18 1.19760E-18
 -1        66-1.63074E-10-1.63074E-10 1.39778E-10-9.11118E-19 9.37966E-20 9.92460E-19
 -1        67-3.26148E-10-3.26148E-10 2.79555E-10 4.69293E-24 1.16883E-18-4.57294E-19
 -1        68-1.63074E-10-1.63074E-10 1.39778E-10-1.51561E-19 2.57115E-19-1.55102E-19
 -1        69-1.63074E-10-1.63074E-10 1.39778E-10-2.48825E-20 1.16340E-18-1.14649E-18
 -1        70-1.63074E-10-1.63074E-10 1.39778E-10 6.69656E-19 9.30964E-19-1.51532E-18
 -1        71-1.63074E-10-1.63074E-10 1.39778E-10-2.94972E-19 1.57402E-18 1.04462E-18
 -1        72-3.26148E-10-3.26148E-10 2.79555E-10 1.45054E-18-2.11617E-18-2.33543E-18
 -3
    1PSTEP                       205          69           1          
  100CL  169 5.79781E-01          72                     0   69           1
 -4  DISP        4    1
 -5  D1          1    2    1    0
 -5  D2          1    2    2    0
 -5  D3          1    2    3    0
 -5  ALL         1    2    0    0    1ALL
 -1         1 0.00000E+00 0.00000E+00 0.00000E+00
 -1         2-1.65652E-07 0.00000E+00 0.00000E+00
 -1         3-8.69672E+00 0.00000E+00 0.00000E+00
 -1         4-8.69672E+00 0.00000E+00 0.00000E+00
 -1         5-1.73934E+01 0.00000E+00 0.00000E+00
 -1         6-1.73934E+01 0.00000E+00 0.00000E+00
 -1         7 0.00000E+00-1.65652E-07 0.00000E+00
 -1         8-1.65652E-07-1.65652E-07 0.00000E+00
 -1         9-8.69672E+00-1.65652E-07 0.00000E+00
 -1        10-8.69672E+00-1.65652E-07 0.00000E+00
 -1        11-1.73934E+01-1.65652E-07 0.00000E+00
 -1        12-1.73934E+01-1.65652E-07 0.00000E+00
 -1        13 0.00000E+00-8.69672E+00 0.00000E+00
 -1        14-1.65652E-07-8.69672E+00 0.00000E+00
 -1        15-8.69672E+00-8.69672E+00 0.00000E+00
 -1        16-8.69672E+00-8.69672E+00 0.00000E+00
 -1        17-1.73934E+01-8.69672E+00 0.00000E+00
 -1        18-1.73934E+01-8.69672E+00 0.00000E+00
 -1        19 0.00000E+00-8.69672E+00 0.00000E+00
 -1        20-1.65652E-07-8.69672E+00 0.00000E+00
 -1        21-8.69672E+00-8.69672E+00 0.00000E+00
 -1        22-8.69672E+00-8.69672E+00 0.00000E+00
 -1        23-1.73934E+01-8.69672E+00 0.00000E+00
 -1        24-1.73934E+01-8.69672E+00 0.00000E+00
 -1        25 0.00000E+00-1.73934E+01 0.00000E+00
 -1        26-1.65652E-07-1.73934E+01 0.00000E+00
 -1        27-8.69672E+00-1.73934E+01 0.00000E+00
 -1        28-8.69672E+00-1.73934E+01 0.00000E+00
 -1        29-1.73934E+01-1.73934E+01 0.00000E+00
 -1        30-1.73934E+01-1.73934E+01 0.00000E+00
 -1        31 0.00000E+00-1.73934E+01 0.00000E+00
 -1        32-1.65652E-07-1.73934E+01 0.00000E+00
 -1        33-8.69672E+00-1.73934E+01 0.00000E+00
 -1        34-8.69672E+00-1.73934E+01 0.00000E+00
 -1        35-1.73934E+01-1.73934E+01 0.00000E+00
 -1        36-1.73934E+01-1.73934E+01 0.00000E+00
 -1        37 0.00000E+00 0.00000E+00 1.98782E-07
 -1        38-1.65652E-07 0.00000E+00 1.98782E-07
 -1        39-8.69672E+00 0.00000E+00 1.98782E-07
 -1        40-8.69672E+00 0.00000E+00 1.98782E-07
 -1        41-1.73934E+01 0.00000E+00 1.98782E-07
 -1        42-1.73934E+01 0.00000E+00 1.98782E-07
 -1        43 0.00000E+00-1.65652E-07 1.98782E-07
 -1        44-1.65652E-07-1.65652E-07 1.98782E-07
 -1        45-8.69672E+00-1.65652E-07 1.98782E-07
 -1        46-8.69672E+00-1.65652E-07 1.98782E-07
 -1        47-1.73934E+01-1.65652E-07 1.98782E-07
 -1        48-1.73934E+01-1.65652E-07 1.98782E-07
 -1        49 0.00000E+00-8.69672E+00 1.98782E-07
 -1        50-1.65652E-07-8.69672E+00 1.98782E-07
 -1        51-8.69672E+00-8.69672E+00 1.98782E-07
 -1        52-8.69672E+00-8.69672E+00 1.98782E-07
 -1        53-1.73934E+01-8.69672E+00 1.98782E-07
 -1        54-1.73934E+01-8.69672E+00 1.98782E-07
 -1        55 0.00000E+00-8.69672E+00 1.98782E-07
 -1        56-1.65652E-07-8.69672E+00 1.98782E-07
 -1        57-8.69672E+00-8.69672E+00 1.98782E-07
 -1        58-8.69672E+00-8.69672E+00 1.98782E-07
 -1        59-1.73934E+01-8.69672E+00 1.98782E-07
 -1        60-1.73934E+01-8.69672E+00 1.98782E-07
 -1        61 0.00000E+00-1.73934E+01 1.98782E-07
 -1        62-1.65652E-07-1.73934E+01 1.98782E-07
 -1        63-8.69672E+00-1.73934E+01 1.98782E-07
 -1        64-8.69672E+00-1.73934E+01 1.98782E-07
 -1        65-1.73934E+01-1.73934E+01 1.98782E-07
 -1        66-1.73934E+01-1.73934E+01 1.98782E-07
 -1        67 0.00000E+00-1.73934E+01 1.98782E-07
 -1        68-1.65652E-07-1.73934E+01 1.98782E-07
 -1        69-8.69672E+00-1.73934E+01 1.98782E-07
 -1        70-8.69672E+00-1.73934E+01 1.98782E-07
 -1        71-1.73934E+01-1.73934E+01 1.98782E-07
 -1        72-1.73934E+01-1.73934E+01 1.98782E-07
 -3
    1PSTEP                       206          69           1          
  100CL  169 5.79781E-01          72                     0   69           1
 -4  STRESS      6    1
 -5  SXX         1    4    1    1
 -5  SYY         1    4    2    2
 -5  SZZ         1    4    3    3
 -5  SXY         1    4    1    2
 -5  SYZ         1    4    2    3
 -5  SZX         1    4    3    1
 -1         1-9.93871E-05-9.93871E-05 1.43949E-20-4.62747E-22-1.86425E-21 6.69484E-22
 -1         2-4.96935E-05-4.96935E-05 1.03701E-19-2.81230E-20-2.15028E-23-1.52501E-20
 -1         3-4.96935E-05-4.96935E-05-2.19245E-13 2.87892E-14-7.97480E-21-1.62762E-13
 -1         4-4.96935E-05-4.96935E-05-1.82168E-13 1.38956E-14-5.29038E-20 2.59675E-13
 -1         5-4.96935E-05-4.96935E-05 3.05065E-14 5.59298E-13-2.75827E-19 8.43037E-14
 -1         6-9.93871E-05-9.93871E-05 7.30762E-15-6.65595E-14 6.09240E-20-1.88295E-13
 -1         7-4.96935E-05-4.96935E-05-1.77346E-20 9.35122E-20 4.04720E-20-2.26991E-22
 -1         8-3.31290E-05-3.31290E-05 1.33827E-19 4.37471E-20-1.22995E-19 3.43467E-20
 -1         9-3.31290E-05-3.31290E-05-1.49653E-13-2.69688E-15-9.13947E-15-5.95330E-15
 -1        10-3.31290E-05-3.31290E-05-1.73932E-13 8.56467E-14 1.43404E-15-1.58340E-13
 -1        11-3.31290E-05-3.31290E-05-1.14166E-13 2.25495E-13-5.21908E-14-1.08631E-13
 -1        12-4.96935E-05-4.96935E-05-4.16079E-13 6.34894E-14 9.63460E-14-1.37761E-13
 -1        13-4.96935E-05-4.96935E-05-9.63192E-14-2.22399E-13-3.72610E-14 3.67213E-20
 -1        14-3.31290E-05-3.31290E-05-6.00090E-15-1.56152E-13-2.99628E-15-2.40812E-15
 -1        15-3.31290E-05-3.31290E-05-1.34979E-13-7.42134E-14-4.58764E-15-3.21009E-14
 -1        16-3.31290E-05-3.31290E-05 2.35968E-13-7.13222E-14 1.27625E-13-4.79334E-14
 -1        17-3.31290E-05-3.31290E-05 2.25855E-14 1.89438E-13-7.51598E-14-3.78330E-14
 -1        18-4.96935E-05-4.96935E-05 1.39134E-13-3.61799E-13 1.44985E-14 4.60446E-14
 -1        19-4.96935E-05-4.96935E-05-2.67809E-16 6.17707E-14 1.61656E-13-8.43320E-21
 -1        20-3.31290E-05-3.31290E-05 3.11777E-14 3.32949E-14-4.50641E-14 3.62412E-16
 -1        21-3.31290E-05-3.31290E-05-4.15481E-13 1.73871E-13-9.30161E-14 6.68981E-14
 -1        22-3.31290E-05-3.31290E-05 1.54410E-13 2.23752E-13-6.52575E-14-5.08711E-14
 -1        23-3.31290E-05-3.31290E-05-2.02399E-13 2.54572E-13-1.39663E-13-4.40515E-14
 -1        24-4.96935E-05-4.96935E-05 3.44890E-14 2.43462E-13 3.37131E-13-2.83173E-13
 -1        25-4.96935E-05-4.96935E-05-5.00523E-13 7.51276E-19-3.80350E-14-3.42439E-19
 -1        26-3.31290E-05-3.31290E-05-5.31601E-13-1.02226E-14-3.58215E-13 4.02617E-14
 -1        27-3.31290E-05-3.31290E-05-3.15001E-13-5.84195E-14-2.86882E-13 1.29256E-14
 -1        28-3.31290E-05-3.31290E-05-4.77985E-13-4.34338E-14-3.03900E-14 2.37994E-14
 -1        29-3.31290E-05-3.31290E-05-3.56483E-13 4.31893E-13-2.12265E-13-1.41079E-15
 -1        30-4.96935E-05-4.96935E-05-5.28615E-13-7.66358E-14-9.33169E-14 2.12115E-13
 -1        31-9.93871E-05-9.93871E-05-5.58644E-13 1.50300E-18-1.33464E-13-6.22718E-19
 -1        32-4.96935E-05-4.96935E-05-2.39436E-13-1.53339E-14 1.07368E-14 2.60102E-14
 -1        33-4.96935E-05-4.96935E-05-4.09931E-13-7.54587E-14 3.53630E-13-3.55291E-14
 -1        34-4.96935E-05-4.96935E-05-1.84467E-13-5.42681E-14 4.67544E-15-1.27133E-13
 -1        35-4.96935E-05-4.96935E-05-5.36578E-13 4.96166E-13 1.63838E-13-1.54879E-13
 -1        36-9.93871E-05-9.93871E-05-1.39359E-12 2.50801E-13-7.61317E-13 2.05933E-13
 -1        37-9.93871E-05-9.93871E-05 7.28508E-20-7.50676E-22 3.46758E-20-1.90073E-20
 -1        38-4.96935E-05-4.96935E-05-3.34627E-19 6.84247E-20 6.01352E-20-2.50885E-20
 -1        39-4.96935E-05-4.96935E-05-2.63574E-13-1.54235E-13 2.23233E-14-1.64791E-13
 -1        40-4.96935E-05-4.96935E-05-1.93190E-13 1.22769E-13-7.07554E-15 1.32044E-13
 -1        41-4.96935E-05-4.96935E-05 1.05812E-13-3.96901E-13 4.18276E-14-2.58362E-14
 -1        42-9.93871E-05-9.93871E-05 8.91372E-13 1.80392E-13-9.07266E-14-5.26715E-13
 -1        43-4.96935E-05-4.96935E-05 1.74122E-19-2.27241E-19 5.87420E-20 3.22127E-20
 -1        44-3.31290E-05-3.31290E-05-4.99732E-20-1.05627E-19-8.28903E-20 5.59731E-20
 -1        45-3.31290E-05-3.31290E-05-1.66070E-13-5.54221E-14 5.74274E-15 9.07688E-14
 -1        46-3.31290E-05-3.31290E-05-1.68145E-13-3.03236E-14-3.28294E-15-3.91812E-14
 -1        47-3.31290E-05-3.31290E-05 4.11205E-14-2.29750E-13-2.43055E-14-3.49620E-13
 -1        48-4.96935E-05-4.96935E-05 1.83577E-13 3.23791E-13 5.09826E-14 7.15736E-13
 -1        49-4.96935E-05-4.96935E-05-4.97768E-14 1.52776E-13-7.51627E-14 8.72570E-15
 -1        50-3.31290E-05-3.31290E-05-1.45732E-13 9.78437E-14 2.94215E-13 3.40899E-15
 -1        51-3.31290E-05-3.31290E-05-1.73170E-13-6.28847E-15 6.18734E-15-2.59870E-14
 -1        52-3.31290E-05-3.31290E-05-3.35965E-13 3.48355E-14-4.60236E-14-6.49441E-14
 -1        53-3.31290E-05-3.31290E-05 8.57606E-14-6.01465E-14-4.67441E-14 2.88547E-13
 -1        54-4.96935E-05-4.96935E-05 4.89137E-13 1.39174E-13-5.32667E-15-3.35959E-13
 -1        55-4.96935E-05-4.96935E-05 5.50019E-14-1.54145E-13 1.24443E-13-7.38775E-15
 -1        56-3.31290E-05-3.31290E-05-1.02735E-13-1.06770E-13-8.10741E-14-4.56275E-15
 -1        57-3.31290E-05-3.31290E-05 5.02788E-14-2.10358E-13 3.22278E-14-1.78950E-13
 -1        58-3.31290E-05-3.31290E-05 6.36771E-14-1.37411E-13-3.09861E-15 2.86848E-13
 -1        59-3.31290E-05-3.31290E-05 5.72071E-14 3.68693E-14-1.55661E-13-1.20801E-13
 -1        60-4.96935E-05-4.96935E-05 3.07365E-14-1.17779E-13 6.86782E-14 3.68194E-13
 -1        61-4.96935E-05-4.96935E-05-7.13924E-13 5.81462E-19-3.87558E-13-4.50570E-14
 -1        62-3.31290E-05-3.31290E-05-2.08764E-14-4.23129E-14 3.17040E-14 1.02239E-14
 -1        63-3.31290E-05-3.31290E-05 3.36019E-13 4.11262E-13-4.65997E-13-1.49414E-13
 -1        64-3.31290E-05-3.31290E-05-2.15185E-13 3.46577E-13 2.68233E-14 7.84943E-14
 -1        65-3.31290E-05-3.31290E-05 2.79609E-13-1.18633E-13-5.00634E-13-7.19026E-14
 -1        66-4.96935E-05-4.96935E-05 5.92759E-14 3.44490E-13 9.80552E-14 1.49992E-13
 -1        67-9.93871E-05-9.93871E-05 5.92688E-13 1.16124E-18 3.73544E-13-5.32111E-15
 -1        68-4.96935E-05-4.96935E-05 2.23675E-13-6.34693E-14 3.34107E-13 2.33500E-14
 -1        69-4.96935E-05-4.96935E-05 5.95062E-13-1.58560E-14-9.70501E-14 2.15223E-13
 -1        70-4.96935E-05-4.96935E-05-9.22100E-13-4.59188E-14 2.72503E-13-9.68502E-14
 -1        71-4.96935E-05-4.96935E-05 4.45374E-13-5.01327E-13-1.45089E-13-5.82219E-14
 -1        72-9.93871E-05-9.93871E-05 1.06637E-12 3.85631E-13 6.87711E-13-4.23560E-13
 -3
    1PSTEP                       207          69           1          
  100CL  169 5.79781E-01          72                     0   69           1
 -4  TOSTRAIN    6    1
 -5  EXX         1    4    1    1
 -5  EYY         1    4    2    2
 -5  EZZ         1    4    3    3
 -5  EXY         1    4    1    2
 -5  EYZ         1    4    2    3
 -5  EZX         1    4    3    1
 -1         1-3.31290E-10-3.31290E-10 2.83963E-10-2.86462E-27-1.15406E-26 4.14443E-27
 -1         2-1.65645E-10-1.65645E-10 1.41982E-10-1.74095E-25-1.33112E-28-9.44053E-26
 -1         3-1.65645E-10-1.65645E-10 1.41982E-10 1.78219E-19-4.93678E-26-1.00757E-18
 -1         4-1.65645E-10-1.65645E-10 1.41982E-10 8.60204E-20-3.27500E-25 1.60751E-18
 -1         5-1.65645E-10-1.65645E-10 1.41982E-10 3.46232E-18-1.70750E-24 5.21880E-19
 -1         6-3.31290E-10-3.31290E-10 2.83963E-10-4.12035E-19 3.77149E-25-1.16564E-18
 -1         7-1.65645E-10-1.65645E-10 1.41982E-10 5.78885E-25 2.50541E-25-1.40518E-27
 -1         8-1.10430E-10-1.10430E-10 9.46544E-11 2.70815E-25-7.61396E-25 2.12622E-25
 -1         9-1.10430E-10-1.10430E-10 9.46544E-11-1.66950E-20-5.65777E-20-3.68538E-20
 -1        10-1.10430E-10-1.10430E-10 9.46544E-11 5.30194E-19 8.87738E-21-9.80198E-19
 -1        11-1.10430E-10-1.10430E-10 9.46544E-11 1.39592E-18-3.23086E-19-6.72478E-19
 -1        12-1.65645E-10-1.65645E-10 1.41982E-10 3.93030E-19 5.96427E-19-8.52804E-19
 -1        13-1.65645E-10-1.65645E-10 1.41982E-10-1.37676E-18-2.30663E-19 2.27322E-25
 -1        14-1.10430E-10-1.10430E-10 9.46544E-11-9.66653E-19-1.85484E-20-1.49074E-20
 -1        15-1.10430E-10-1.10430E-10 9.46544E-11-4.59416E-19-2.83997E-20-1.98720E-19
 -1        16-1.10430E-10-1.10430E-10 9.46544E-11-4.41518E-19 7.90057E-19-2.96730E-19
 -1        17-1.10430E-10-1.10430E-10 9.46544E-11 1.17271E-18-4.65275E-19-2.34204E-19
 -1        18-1.65645E-10-1.65645E-10 1.41982E-10-2.23971E-18 8.97526E-20 2.85038E-19
 -1        19-1.65645E-10-1.65645E-10 1.41982E-10 3.82390E-19 1.00073E-18-5.22055E-26
 -1        20-1.10430E-10-1.10430E-10 9.46544E-11 2.06111E-19-2.78968E-19 2.24351E-21
 -1        21-1.10430E-10-1.10430E-10 9.46544E-11 1.07634E-18-5.75814E-19 4.14131E-19
 -1        22-1.10430E-10-1.10430E-10 9.46544E-11 1.38513E-18-4.03975E-19-3.14916E-19
 -1        23-1.10430E-10-1.10430E-10 9.46544E-11 1.57592E-18-8.64580E-19-2.72700E-19
 -1        24-1.65645E-10-1.65645E-10 1.41982E-10 1.50715E-18 2.08700E-18-1.75297E-18
 -1        25-1.65645E-10-1.65645E-10 1.41982E-10 4.65076E-24-2.35455E-19-2.11986E-24
 -1        26-1.10430E-10-1.10430E-10 9.46544E-11-6.32829E-20-2.21752E-18 2.49239E-19
 -1        27-1.10430E-10-1.10430E-10 9.46544E-11-3.61644E-19-1.77594E-18 8.00154E-20
 -1        28-1.10430E-10-1.10430E-10 9.46544E-11-2.68876E-19-1.88128E-19 1.47330E-19
 -1        29-1.10430E-10-1.10430E-10 9.46544E-11 2.67363E-18-1.31402E-18-8.73343E-21
 -1        30-1.65645E-10-1.65645E-10 1.41982E-10-4.74412E-19-5.77676E-19 1.31310E-18
 -1        31-3.31290E-10-3.31290E-10 2.83963E-10 9.30431E-24-8.26207E-19-3.85492E-24
 -1        32-1.65645E-10-1.65645E-10 1.41982E-10-9.49243E-20 6.64659E-20 1.61016E-19
 -1        33-1.65645E-10-1.65645E-10 1.41982E-10-4.67125E-19 2.18914E-18-2.19942E-19
 -1        34-1.65645E-10-1.65645E-10 1.41982E-10-3.35945E-19 2.89432E-20-7.87012E-19
 -1        35-1.65645E-10-1.65645E-10 1.41982E-10 3.07150E-18 1.01424E-18-9.58776E-19
 -1        36-3.31290E-10-3.31290E-10 2.83963E-10 1.55258E-18-4.71291E-18 1.27483E-18
 -1        37-3.31290E-10-3.31290E-10 2.83963E-10-4.64704E-27 2.14660E-25-1.17664E-25
 -1        38-1.65645E-10-1.65645E-10 1.41982E-10 4.23581E-25 3.72265E-25-1.55310E-25
 -1        39-1.65645E-10-1.65645E-10 1.41982E-10-9.54790E-19 1.38192E-19-1.02013E-18
 -1        40-1.65645E-10-1.65645E-10 1.41982E-10 7.59998E-19-4.38009E-20 8.17414E-19
 -1        41-1.65645E-10-1.65645E-10 1.41982E-10-2.45701E-18 2.58933E-19-1.59938E-19
 -1        42-3.31290E-10-3.31290E-10 2.83963E-10 1.11671E-18-5.61641E-19-3.26061E-18
 -1        43-1.65645E-10-1.65645E-10 1.41982E-10-1.40673E-24 3.63641E-25 1.99412E-25
 -1        44-1.10430E-10-1.10430E-10 9.46544E-11-6.53883E-25-5.13130E-25 3.46500E-25
 -1        45-1.10430E-10-1.10430E-10 9.46544E-11-3.43089E-19 3.55503E-20 5.61902E-19
 -1        46-1.10430E-10-1.10430E-10 9.46544E-11-1.87718E-19-2.03230E-20-2.42550E-19
 -1        47-1.10430E-10-1.10430E-10 9.46544E-11-1.42226E-18-1.50463E-19-2.16432E-18
 -1        48-1.65645E-10-1.65645E-10 1.41982E-10 2.00442E-18 3.15607E-19 4.43075E-18
 -1        49-1.65645E-10-1.65645E-10 1.41982E-10 9.45755E-19-4.65293E-19 5.40162E-20
 -1        50-1.10430E-10-1.10430E-10 9.46544E-11 6.05699E-19 1.82133E-18 2.11033E-20
 -1        51-1.10430E-10-1.10430E-10 9.46544E-11-3.89286E-20 3.83026E-20-1.60872E-19
 -1        52-1.10430E-10-1.10430E-10 9.46544E-11 2.15649E-19-2.84908E-19-4.02035E-19
 -1        53-1.10430E-10-1.10430E-10 9.46544E-11-3.72335E-19-2.89368E-19 1.78625E-18
 -1        54-1.65645E-10-1.65645E-10 1.41982E-10 8.61555E-19-3.29746E-20-2.07975E-18
 -1        55-1.65645E-10-1.65645E-10 1.41982E-10-9.54232E-19 7.70359E-19-4.57337E-20
 -1        56-1.10430E-10-1.10430E-10 9.46544E-11-6.60959E-19-5.01887E-19-2.82456E-20
 -1        57-1.10430E-10-1.10430E-10 9.46544E-11-1.30221E-18 1.99505E-19-1.10778E-18
 -1        58-1.10430E-10-1.10430E-10 9.46544E-11-8.50641E-19-1.91819E-20 1.77572E-18
 -1        59-1.10430E-10-1.10430E-10 9.46544E-11 2.28238E-19-9.63615E-19-7.47818E-19
 -1        60-1.65645E-10-1.65645E-10 1.41982E-10-7.29108E-19 4.25151E-19 2.27930E-18
 -1        61-1.65645E-10-1.65645E-10 1.41982E-10 3.59953E-24-2.39917E-18-2.78924E-19
 -1        62-1.10430E-10-1.10430E-10 9.46544E-11-2.61937E-19 1.96263E-19 6.32909E-20
 -1        63-1.10430E-10-1.10430E-10 9.46544E-11 2.54591E-18-2.88474E-18-9.24947E-19
 -1        64-1.10430E-10-1.10430E-10 9.46544E-11 2.14548E-18 1.66049E-19 4.85917E-19
 -1        65-1.10430E-10-1.10430E-10 9.46544E-11-7.34392E-19-3.09917E-18-4.45111E-19
 -1        66-1.65645E-10-1.65645E-10 1.41982E-10 2.13256E-18 6.07008E-19 9.28521E-19
 -1        67-3.31290E-10-3.31290E-10 2.83963E-10 7.18861E-24 2.31241E-18-3.29402E-20
 -1        68-1.65645E-10-1.65645E-10 1.41982E-10-3.92905E-19 2.06828E-18 1.44547E-19
 -1        69-1.65645E-10-1.65645E-10 1.41982E-10-9.81561E-20-6.00786E-19 1.33233E-18
 -1        70-1.65645E-10-1.65645E-10 1.41982E-10-2.84259E-19 1.68692E-18-5.99549E-19
 -1        71-1.65645E-10-1.65645E-10 1.41982E-10-3.10345E-18-8.98173E-19-3.60421E-19
 -1        72-3.31290E-10-3.31290E-10 2.83963E-10 2.38724E-18 4.25726E-18-2.62204E-18
 -3
    1PSTEP                       208          70           1          
  100CL  170 5.88781E-01          72                     0   70           1
 -4  DISP        4    1
 -5  D1          1    2    1    0
 -5  D2          1    2    2    0
 -5  D3          1    2    3    0
 -5  ALL         1    2    0    0    1ALL
 -1         1 0.00000E+00 0.00000E+00 0.00000E+00
 -1         2-1.68223E-07 0.00000E+00 0.00000E+00
 -1         3-8.83172E+00 0.00000E+00 0.00000E+00
 -1         4-8.83172E+00 0.00000E+00 0.00000E+00
 -1         5-1.76634E+01 0.00000E+00 0.00000E+00
 -1         6-1.76634E+01 0.00000E+00 0.00000E+00
 -1         7 0.00000E+00-1.68223E-07 0.00000E+00
 -1         8-1.68223E-07-1.68223E-07 0.00000E+00
 -1         9-8.83172E+00-1.68223E-07 0.00000E+00
 -1        10-8.83172E+00-1.68223E-07 0.00000E+00
 -1        11-1.76634E+01-1.68223E-07 0.00000E+00
 -1        12-1.76634E+01-1.68223E-07 0.00000E+00
 -1        13 0.00000E+00-8.83172E+00 0.00000E+00
 -1        14-1.68223E-07-8.83172E+00 0.00000E+00
 -1        15-8.83172E+00-8.83172E+00 0.00000E+00
 -1        16-8.83172E+00-8.83172E+00 0.00000E+00
 -1        17-1.76634E+01-8.83172E+00 0.00000E+00
 -1        18-1.76634E+01-8.83172E+00 0.00000E+00
 -1        19 0.00000E+00-8.83172E+00 0.00000E+00
 -1        20-1.68223E-07-8.83172E+00 0.00000E+00
 -1        21-8.83172E+00-8.83172E+00 0.00000E+00
 -1        22-8.83172E+00-8.83172E+00 0.00000E+00
 -1        23-1.76634E+01-8.83172E+00 0.00000E+00
 -1        24-1.76634E+01-8.83172E+00 0.00000E+00
 -1        25 0.00000E+00-1.76634E+01 0.00000E+00
 -1        26-1.68223E-07-1.76634E+01 0.00000E+00
 -1        27-8.83172E+00-1.76634E+01 0.00000E+00
 -1        28-8.83172E+00-1.76634E+01 0.00000E+00
 -1        29-1.76634E+01-1.76634E+01 0.00000E+00
 -1        30-1.76634E+01-1.76634E+01 0.00000E+00
 -1        31 0.00000E+00-1.76634E+01 0.00000E+00
 -1        32-1.68223E-07-1.76634E+01 0.00000E+00
 -1        33-8.83172E+00-1.76634E+01 0.00000E+00
 -1        34-8.83172E+00-1.76634E+01 0.00000E+00
 -1        35-1.76634E+01-1.76634E+01 0.00000E+00
 -1        36-1.76634E+01-1.76634E+01 0.00000E+00
 -1        37 0.00000E+00 0.00000E+00 2.01868E-07
 -1        38-1.68223E-07 0.00000E+00 2.01868E-07
 -1        39-8.83172E+00 0.00000E+00 2.01868E-07
 -1        40-8.83172E+00 0.00000E+00 2.01868E-07
 -1        41-1.76634E+01 0.00000E+00 2.01868E-07
 -1        42-1.76634E+01 0.00000E+00 2.01868E-07
 -1        43 0.00000E+00-1.68223E-07 2.01868E-07
 -1        44-1.68223E-07-1.68223E-07 2.01868E-07
 -1        45-8.83172E+00-1.68223E-07 2.01868E-07
 -1        46-8.83172E+00-1.68223E-07 2.01868E-07
 -1        47-1.76634E+01-1.68223E-07 2.01868E-07
 -1        48-1.76634E+01-1.68223E-07 2.01868E-07
 -1        49 0.00000E+00-8.83172E+00 2.01868E-07
 -1        50-1.68223E-07-8.83172E+00 2.01868E-07
 -1        51-8.83172E+00-8.83172E+00 2.01868E-07
 -1        52-8.83172E+00-8.83172E+00 2.01868E-07
 -1        53-1.76634E+01-8.83172E+00 2.01868E-07
 -1        54-1.76634E+01-8.83172E+00 2.01868E-07
 -1        55 0.00000E+00-8.83172E+00 2.01868E-07
 -1        56-1.68223E-07-8.83172E+00 2.01868E-07
 -1        57-8.83172E+00-8.83172E+00 2.01868E-07
 -1        58-8.83172E+00-8.83172E+00 2.01868E-07
 -1        59-1.76634E+01-8.83172E+00 2.01868E-07
 -1        60-1.76634E+01-8.83172E+00 2.01868E-07
 -1        61 0.00000E+00-1.76634E+01 2.01868E-07
 -1        62-1.68223E-07-1.76634E+01 2.01868E-07
 -1        63-8.83172E+00-1.76634E+01 2.01868E-07
 -1        64-8.83172E+00-1.76634E+01 2.01868E-07
 -1        65-1.76634E+01-1.76634E+01 2.01868E-07
 -1        66-1.76634E+01-1.76634E+01 2.01868E-07
 -1        67 0.00000E+00-1.76634E+01 2.01868E-07
 -1        68-1.68223E-07-1.76634E+01 2.01868E-07
 -1        69-8.83172E+00-1.76634E+01 2.01868E-07
 -1        70-8.83172E+00-1.76634E+01 2.01868E-07
 -1        71-1.76634E+01-1.76634E+01 2.01868E-07
 -1        72-1.76634E+01-1.76634E+01 2.01868E-07
 -3
    1PSTEP                       209          70           1          
  100CL  170 5.88781E-01          72                     0   70           1
 -4  STRESS      6    1
 -5  SXX         1    4    1    1
 -5  SYY         1    4    2    2
 -5  SZZ         1    4    3    3
 -5  SXY         1    4    1    2
 -5  SYZ         1    4    2    3
 -5  SZX         1    4    3    1
 -1         1-1.00930E-04-1.00930E-04-1.85133E-20 5.34508E-22-2.51647E-22 2.85250E-22
 -1         2-5.04649E-05-5.04649E-05 1.85128E-20-8.37743E-21 3.48366E-22-9.21335E-21
 -1         3-5.04649E-05-5.04649E-05-1.83079E-13-1.60101E-13-5.62192E-21-2.13029E-13
 -1         4-5.04649E-05-5.04649E-05-1.59943E-13-8.98893E-14-1.48311E-19 2.20854E-13
 -1         5-5.04649E-05-5.04649E-05 3.78741E-13 1.54480E-13 2.30417E-19 1.17014E-13
 -1         6-1.00930E-04-1.00930E-04 6.79779E-13-2.47371E-13-6.08524E-19-1.33469E-13
 -1         7-5.04649E-05-5.04649E-05 5.91698E-20-1.78391E-20-1.30988E-20-7.76905E-22
 -1         8-3.36433E-05-3.36433E-05 3.75007E-21-1.76558E-20 5.41534E-21 1.01347E-21
 -1         9-3.36433E-05-3.36433E-05 1.03690E-13-1.14908E-13-9.60530E-15 1.52522E-13
 -1        10-3.36433E-05-3.36433E-05 3.22389E-15-8.17792E-14 9.32671E-15-1.86432E-13
 -1        11-3.36433E-05-3.36433E-05 1.19483E-14 1.03720E-13-2.55798E-15-1.19071E-14
 -1        12-5.04649E-05-5.04649E-05-4.58029E-13 1.08188E-13 2.06492E-14-3.24820E-14
 -1        13-5.04649E-05-5.04649E-05-1.66649E-14 1.58720E-19-2.24793E-14-2.12627E-20
 -1        14-3.36433E-05-3.36433E-05-1.76085E-14-1.00078E-14-1.17226E-13 7.58176E-16
 -1        15-3.36433E-05-3.36433E-05-3.00619E-13-1.78767E-13-9.73836E-14-6.39696E-14
 -1        16-3.36433E-05-3.36433E-05 1.41530E-13-2.51939E-14 1.16798E-13-1.87458E-14
 -1        17-3.36433E-05-3.36433E-05 1.16945E-13-1.20691E-13 4.17541E-14 1.53401E-14
 -1        18-5.04649E-05-5.04649E-05 2.90285E-14-3.23694E-15-2.95173E-14-1.92625E-14
 -1        19-5.04649E-05-5.04649E-05 6.11086E-14 1.58946E-19 1.41525E-14 2.54856E-20
 -1        20-3.36433E-05-3.36433E-05 4.53647E-14-1.00078E-14 1.13756E-13 5.20171E-15
 -1        21-3.36433E-05-3.36433E-05-1.36837E-13 9.86592E-14 3.44175E-14 9.26150E-14
 -1        22-3.36433E-05-3.36433E-05 3.67822E-13 8.69688E-15-6.23561E-14-9.89973E-14
 -1        23-3.36433E-05-3.36433E-05 4.55839E-14-1.88664E-13-3.68290E-14 1.27004E-13
 -1        24-5.04649E-05-5.04649E-05 4.40023E-14 3.56173E-13-2.68874E-13 1.11836E-13
 -1        25-5.04649E-05-5.04649E-05-2.23503E-13-4.69275E-15 1.26147E-13 3.84569E-19
 -1        26-3.36433E-05-3.36433E-05-9.23105E-14-3.40043E-14-7.11772E-14 9.39624E-15
 -1        27-3.36433E-05-3.36433E-05-9.57306E-14-5.53384E-14 2.15891E-13 2.78907E-14
 -1        28-3.36433E-05-3.36433E-05-8.30105E-14-1.44793E-14 9.99726E-14-5.42595E-14
 -1        29-3.36433E-05-3.36433E-05 9.43546E-15-9.59430E-14-2.44831E-13-4.53738E-13
 -1        30-5.04649E-05-5.04649E-05-4.31133E-14-1.42170E-13 2.99139E-13 4.57852E-13
 -1        31-1.00930E-04-1.00930E-04 4.50015E-13 2.51283E-15-4.55416E-13-2.19077E-19
 -1        32-5.04649E-05-5.04649E-05 2.02368E-15-4.50574E-14 2.19331E-13-1.87938E-15
 -1        33-5.04649E-05-5.04649E-05 3.89455E-13-9.79026E-14-3.19143E-13 1.03594E-13
 -1        34-5.04649E-05-5.04649E-05-8.59163E-14 3.38706E-14-1.36194E-14 1.36794E-14
 -1        35-5.04649E-05-5.04649E-05-7.59620E-15-3.06436E-13 6.86514E-14 4.67866E-13
 -1        36-1.00930E-04-1.00930E-04 1.85228E-13 9.28752E-13 6.17584E-14-7.96040E-14
 -1        37-1.00930E-04-1.00930E-04-1.06117E-19-5.32356E-22 2.89028E-20 3.89765E-20
 -1        38-5.04649E-05-5.04649E-05 3.56963E-20 2.05013E-21-6.99641E-21 9.84573E-21
 -1        39-5.04649E-05-5.04649E-05 2.53959E-13 1.78318E-13 3.95327E-14-9.73886E-14
 -1        40-5.04649E-05-5.04649E-05 3.36731E-13-6.09672E-14-3.00015E-14-1.19812E-13
 -1        41-5.04649E-05-5.04649E-05-2.84200E-13-9.33502E-14 8.12241E-14 9.64830E-14
 -1        42-1.00930E-04-1.00930E-04-5.43258E-13 4.54096E-13-1.87234E-13 3.73889E-13
 -1        43-5.04649E-05-5.04649E-05-4.96077E-21 1.49020E-20 1.47843E-21-5.59713E-21
 -1        44-3.36433E-05-3.36433E-05 1.65341E-21 1.14788E-20 5.18820E-22-1.48701E-21
 -1        45-3.36433E-05-3.36433E-05-3.84174E-14 1.14774E-13 1.67498E-14 4.54366E-14
 -1        46-3.36433E-05-3.36433E-05-9.91262E-14 4.77418E-14-1.06742E-14 5.44709E-14
 -1        47-3.36433E-05-3.36433E-05 2.00485E-13 1.15203E-13 5.15912E-14-2.57083E-13
 -1        48-5.04649E-05-5.04649E-05-1.23803E-13-3.68068E-13-7.29673E-14 1.92478E-13
 -1        49-5.04649E-05-5.04649E-05-1.18071E-13 1.91030E-19-1.30517E-13-7.88393E-15
 -1        50-3.36433E-05-3.36433E-05 9.86824E-14-3.78685E-15 3.05163E-14-4.49776E-15
 -1        51-3.36433E-05-3.36433E-05 2.23979E-13 2.43791E-13-1.37138E-13-1.17254E-13
 -1        52-3.36433E-05-3.36433E-05-2.71251E-14 2.32641E-13 8.24047E-14 1.55249E-13
 -1        53-3.36433E-05-3.36433E-05-3.13076E-13 8.07185E-14-3.86683E-15-1.42392E-13
 -1        54-5.04649E-05-5.04649E-05-3.21237E-14-2.90581E-13-1.94011E-13 2.59427E-13
 -1        55-5.04649E-05-5.04649E-05-2.63004E-14 1.90187E-19-5.98864E-14-1.20936E-15
 -1        56-3.36433E-05-3.36433E-05 1.70987E-13-3.78685E-15 1.11531E-14 4.39545E-15
 -1        57-3.36433E-05-3.36433E-05 2.59328E-13-1.33892E-13 1.12796E-13 1.36325E-13
 -1        58-3.36433E-05-3.36433E-05-3.16033E-13 1.42277E-13-2.06125E-13-1.16186E-13
 -1        59-3.36433E-05-3.36433E-05-1.79079E-13 2.15242E-13-1.02140E-13 2.85959E-13
 -1        60-5.04649E-05-5.04649E-05 3.25013E-13 5.40609E-14 1.74122E-13-4.53996E-13
 -1        61-5.04649E-05-5.04649E-05 4.58000E-14 2.43936E-13-4.45603E-13 4.73391E-14
 -1        62-3.36433E-05-3.36433E-05 1.92308E-13 1.16840E-13 1.11470E-13 4.09554E-14
 -1        63-3.36433E-05-3.36433E-05-6.19456E-13-9.11758E-14-2.03549E-13 3.00584E-15
 -1        64-3.36433E-05-3.36433E-05 3.58929E-13 1.19270E-13 8.79913E-14 8.31730E-14
 -1        65-3.36433E-05-3.36433E-05-4.29729E-13-8.92912E-15-8.43079E-14-2.60854E-13
 -1        66-5.04649E-05-5.04649E-05-5.30763E-14 2.32004E-13 3.32790E-13 2.83233E-13
 -1        67-1.00930E-04-1.00930E-04 9.21533E-13-1.30726E-13-2.39013E-13-1.51740E-13
 -1        68-5.04649E-05-5.04649E-05 3.95407E-13-1.34039E-13-5.52962E-14-7.77492E-14
 -1        69-5.04649E-05-5.04649E-05 2.83946E-13-1.46851E-13 1.61595E-13-1.36426E-13
 -1        70-5.04649E-05-5.04649E-05 3.69786E-13 2.16551E-13-1.95744E-13 1.08139E-13
 -1        71-5.04649E-05-5.04649E-05-2.93402E-13 1.99092E-13 1.56963E-13 1.33503E-13
 -1        72-1.00930E-04-1.00930E-04 3.65164E-13-1.12203E-12-7.21907E-13-7.66184E-13
 -3
    1PSTEP                       210          70           1          
  100CL  170 5.88781E-01          72                     0   70           1
 -4  TOSTRAIN    6    1
 -5  EXX         1    4    1    1
 -5  EYY         1    4    2    2
 -5  EZZ         1    4    3    3
 -5  EXY         1    4    1    2
 -5  EYZ         1    4    2    3
 -5  EZX         1    4    3    1
 -1         1-3.36433E-10-3.36433E-10 2.88371E-10 3.30886E-27-1.55781E-27 1.76583E-27
 -1         2-1.68216E-10-1.68216E-10 1.44186E-10-5.18603E-26 2.15655E-27-5.70350E-26
 -1         3-1.68216E-10-1.68216E-10 1.44186E-10-9.91101E-19-3.48023E-26-1.31875E-18
 -1         4-1.68216E-10-1.68216E-10 1.44186E-10-5.56458E-19-9.18113E-25 1.36719E-18
 -1         5-1.68216E-10-1.68216E-10 1.44186E-10 9.56302E-19 1.42639E-24 7.24373E-19
 -1         6-3.36433E-10-3.36433E-10 2.88371E-10-1.53134E-18-3.76705E-24-8.26239E-19
 -1         7-1.68216E-10-1.68216E-10 1.44186E-10-1.10432E-25-8.10876E-26-4.80941E-27
 -1         8-1.12144E-10-1.12144E-10 9.61237E-11-1.09298E-25 3.35235E-26 6.27387E-27
 -1         9-1.12144E-10-1.12144E-10 9.61237E-11-7.11333E-19-5.94614E-20 9.44186E-19
 -1        10-1.12144E-10-1.12144E-10 9.61237E-11-5.06252E-19 5.77368E-20-1.15410E-18
 -1        11-1.12144E-10-1.12144E-10 9.61237E-11 6.42073E-19-1.58351E-20-7.37105E-20
 -1        12-1.68216E-10-1.68216E-10 1.44186E-10 6.69734E-19 1.27828E-19-2.01079E-19
 -1        13-1.68216E-10-1.68216E-10 1.44186E-10 9.82552E-25-1.39158E-19-1.31626E-25
 -1        14-1.12144E-10-1.12144E-10 9.61237E-11-6.19529E-20-7.25684E-19 4.69347E-21
 -1        15-1.12144E-10-1.12144E-10 9.61237E-11-1.10665E-18-6.02851E-19-3.96002E-19
 -1        16-1.12144E-10-1.12144E-10 9.61237E-11-1.55963E-19 7.23035E-19-1.16045E-19
 -1        17-1.12144E-10-1.12144E-10 9.61237E-11-7.47135E-19 2.58478E-19 9.49624E-20
 -1        18-1.68216E-10-1.68216E-10 1.44186E-10-2.00382E-20-1.82726E-19-1.19244E-19
 -1        19-1.68216E-10-1.68216E-10 1.44186E-10 9.83951E-25 8.76109E-20 1.57768E-25
 -1        20-1.12144E-10-1.12144E-10 9.61237E-11-6.19529E-20 7.04204E-19 3.22011E-20
 -1        21-1.12144E-10-1.12144E-10 9.61237E-11 6.10748E-19 2.13061E-19 5.73331E-19
 -1        22-1.12144E-10-1.12144E-10 9.61237E-11 5.38378E-20-3.86014E-19-6.12841E-19
 -1        23-1.12144E-10-1.12144E-10 9.61237E-11-1.16792E-18-2.27989E-19 7.86215E-19
 -1        24-1.68216E-10-1.68216E-10 1.44186E-10 2.20488E-18-1.66446E-18 6.92318E-19
 -1        25-1.68216E-10-1.68216E-10 1.44186E-10-2.90504E-20 7.80909E-19 2.38066E-24
 -1        26-1.12144E-10-1.12144E-10 9.61237E-11-2.10503E-19-4.40621E-19 5.81672E-20
 -1        27-1.12144E-10-1.12144E-10 9.61237E-11-3.42571E-19 1.33647E-18 1.72657E-19
 -1        28-1.12144E-10-1.12144E-10 9.61237E-11-8.96339E-20 6.18878E-19-3.35892E-19
 -1        29-1.12144E-10-1.12144E-10 9.61237E-11-5.93933E-19-1.51562E-18-2.80886E-18
 -1        30-1.68216E-10-1.68216E-10 1.44186E-10-8.80101E-19 1.85181E-18 2.83432E-18
 -1        31-3.36433E-10-3.36433E-10 2.88371E-10 1.55556E-20-2.81924E-18-1.35619E-24
 -1        32-1.68216E-10-1.68216E-10 1.44186E-10-2.78926E-19 1.35776E-18-1.16343E-20
 -1        33-1.68216E-10-1.68216E-10 1.44186E-10-6.06064E-19-1.97565E-18 6.41299E-19
 -1        34-1.68216E-10-1.68216E-10 1.44186E-10 2.09675E-19-8.43104E-20 8.46823E-20
 -1        35-1.68216E-10-1.68216E-10 1.44186E-10-1.89698E-18 4.24985E-19 2.89631E-18
 -1        36-3.36433E-10-3.36433E-10 2.88371E-10 5.74942E-18 3.82314E-19-4.92787E-19
 -1        37-3.36433E-10-3.36433E-10 2.88371E-10-3.29554E-27 1.78922E-25 2.41283E-25
 -1        38-1.68216E-10-1.68216E-10 1.44186E-10 1.26913E-26-4.33111E-26 6.09498E-26
 -1        39-1.68216E-10-1.68216E-10 1.44186E-10 1.10387E-18 2.44726E-19-6.02882E-19
 -1        40-1.68216E-10-1.68216E-10 1.44186E-10-3.77416E-19-1.85724E-19-7.41695E-19
 -1        41-1.68216E-10-1.68216E-10 1.44186E-10-5.77882E-19 5.02816E-19 5.97276E-19
 -1        42-3.36433E-10-3.36433E-10 2.88371E-10 2.81107E-18-1.15906E-18 2.31455E-18
 -1        43-1.68216E-10-1.68216E-10 1.44186E-10 9.22502E-26 9.15220E-27-3.46489E-26
 -1        44-1.12144E-10-1.12144E-10 9.61237E-11 7.10595E-26 3.21174E-27-9.20532E-27
 -1        45-1.12144E-10-1.12144E-10 9.61237E-11 7.10504E-19 1.03690E-19 2.81274E-19
 -1        46-1.12144E-10-1.12144E-10 9.61237E-11 2.95544E-19-6.60783E-20 3.37201E-19
 -1        47-1.12144E-10-1.12144E-10 9.61237E-11 7.13161E-19 3.19374E-19-1.59146E-18
 -1        48-1.68216E-10-1.68216E-10 1.44186E-10-2.27851E-18-4.51702E-19 1.19153E-18
 -1        49-1.68216E-10-1.68216E-10 1.44186E-10 1.18257E-24-8.07961E-19-4.88053E-20
 -1        50-1.12144E-10-1.12144E-10 9.61237E-11-2.34424E-20 1.88911E-19-2.78433E-20
 -1        51-1.12144E-10-1.12144E-10 9.61237E-11 1.50918E-18-8.48949E-19-7.25858E-19
 -1        52-1.12144E-10-1.12144E-10 9.61237E-11 1.44016E-18 5.10125E-19 9.61068E-19
 -1        53-1.12144E-10-1.12144E-10 9.61237E-11 4.99686E-19-2.39375E-20-8.81473E-19
 -1        54-1.68216E-10-1.68216E-10 1.44186E-10-1.79884E-18-1.20102E-18 1.60598E-18
 -1        55-1.68216E-10-1.68216E-10 1.44186E-10 1.17735E-24-3.70725E-19-7.48652E-21
 -1        56-1.12144E-10-1.12144E-10 9.61237E-11-2.34424E-20 6.90427E-20 2.72099E-20
 -1        57-1.12144E-10-1.12144E-10 9.61237E-11-8.28857E-19 6.98262E-19 8.43914E-19
 -1        58-1.12144E-10-1.12144E-10 9.61237E-11 8.80762E-19-1.27601E-18-7.19249E-19
 -1        59-1.12144E-10-1.12144E-10 9.61237E-11 1.33245E-18-6.32294E-19 1.77022E-18
 -1        60-1.68216E-10-1.68216E-10 1.44186E-10 3.34663E-19 1.07790E-18-2.81045E-18
 -1        61-1.68216E-10-1.68216E-10 1.44186E-10 1.51008E-18-2.75849E-18 2.93051E-19
 -1        62-1.12144E-10-1.12144E-10 9.61237E-11 7.23296E-19 6.90052E-19 2.53533E-19
 -1        63-1.12144E-10-1.12144E-10 9.61237E-11-5.64422E-19-1.26007E-18 1.86076E-20
 -1        64-1.12144E-10-1.12144E-10 9.61237E-11 7.38335E-19 5.44708E-19 5.14880E-19
 -1        65-1.12144E-10-1.12144E-10 9.61237E-11-5.52755E-20-5.21906E-19-1.61481E-18
 -1        66-1.68216E-10-1.68216E-10 1.44186E-10 1.43621E-18 2.06013E-18 1.75335E-18
 -1        67-3.36433E-10-3.36433E-10 2.88371E-10-8.09254E-19-1.47960E-18-9.39341E-19
 -1        68-1.68216E-10-1.68216E-10 1.44186E-10-8.29766E-19-3.42310E-19-4.81304E-19
 -1        69-1.68216E-10-1.68216E-10 1.44186E-10-9.09077E-19 1.00035E-18-8.44540E-19
 -1        70-1.68216E-10-1.68216E-10 1.44186E-10 1.34055E-18-1.21175E-18 6.69432E-19
 -1        71-1.68216E-10-1.68216E-10 1.44186E-10 1.23247E-18 9.71677E-19 8.26448E-19
 -1        72-3.36433E-10-3.36433E-10 2.88371E-10-6.94589E-18-4.46895E-18-4.74304E-18
 -3
    1PSTEP                       211          71           1          
  100CL  171 5.97781E-01          72                     0   71           1
 -4  DISP        4    1
 -5  D1          1    2    1    0
 -5  D2          1    2    2    0
 -5  D3          1    2    3    0
 -5  ALL         1    2    0    0    1ALL
 -1         1 0.00000E+00 0.00000E+00 0.00000E+00
 -1         2-1.70795E-07 0.00000E+00 0.00000E+00
 -1         3-8.96672E+00 0.00000E+00 0.00000E+00
 -1         4-8.96672E+00 0.00000E+00 0.00000E+00
 -1         5-1.79334E+01 0.00000E+00 0.00000E+00
 -1         6-1.79334E+01 0.00000E+00 0.00000E+00
 -1         7 0.00000E+00-1.70795E-07 0.00000E+00
 -1         8-1.70795E-07-1.70795E-07 0.00000E+00
 -1         9-8.96672E+00-1.70795E-07 0.00000E+00
 -1        10-8.96672E+00-1.70795E-07 0.00000E+00
 -1        11-1.79334E+01-1.70795E-07 0.00000E+00
 -1        12-1.79334E+01-1.70795E-07 0.00000E+00
 -1        13 0.00000E+00-8.96672E+00 0.00000E+00
 -1        14-1.70795E-07-8.96672E+00 0.00000E+00
 -1        15-8.96672E+00-8.96672E+00 0.00000E+00
 -1        16-8.96672E+00-8.96672E+00 0.00000E+00
 -1        17-1.79334E+01-8.96672E+00 0.00000E+00
 -1        18-1.79334E+01-8.96672E+00 0.00000E+00
 -1        19 0.00000E+00-8.96672E+00 0.00000E+00
 -1        20-1.70795E-07-8.96672E+00 0.00000E+00
 -1        21-8.96672E+00-8.96672E+00 0.00000E+00
 -1        22-8.96672E+00-8.96672E+00 0.00000E+00
 -1        23-1.79334E+01-8.96672E+00 0.00000E+00
 -1        24-1.79334E+01-8.96672E+00 0.00000E+00
 -1        25 0.00000E+00-1.79334E+01 0.00000E+00
 -1        26-1.70795E-07-1.79334E+01 0.00000E+00
 -1        27-8.96672E+00-1.79334E+01 0.00000E+00
 -1        28-8.96672E+00-1.79334E+01 0.00000E+00
 -1        29-1.79334E+01-1.79334E+01 0.00000E+00
 -1        30-1.79334E+01-1.79334E+01 0.00000E+00
 -1        31 0.00000E+00-1.79334E+01 0.00000E+00
 -1        32-1.70795E-07-1.79334E+01 0.00000E+00
 -1        33-8.96672E+00-1.79334E+01 0.00000E+00
 -1        34-8.96672E+00-1.79334E+01 0.00000E+00
 -1        35-1.79334E+01-1.79334E+01 0.00000E+00
 -1        36-1.79334E+01-1.79334E+01 0.00000E+00
 -1        37 0.00000E+00 0.00000E+00 2.04954E-07
 -1        38-1.70795E-07 0.00000E+00 2.04954E-07
 -1        39-8.96672E+00 0.00000E+00 2.04954E-07
 -1        40-8.96672E+00 0.00000E+00 2.04954E-07
 -1        41-1.79334E+01 0.00000E+00 2.04954E-07
 -1        42-1.79334E+01 0.00000E+00 2.04954E-07
 -1        43 0.00000E+00-1.70795E-07 2.04954E-07
 -1        44-1.70795E-07-1.70795E-07 2.04954E-07
 -1        45-8.96672E+00-1.70795E-07 2.04954E-07
 -1        46-8.96672E+00-1.70795E-07 2.04954E-07
 -1        47-1.79334E+01-1.70795E-07 2.04954E-07
 -1        48-1.79334E+01-1.70795E-07 2.04954E-07
 -1        49 0.00000E+00-8.96672E+00 2.04954E-07
 -1        50-1.70795E-07-8.96672E+00 2.04954E-07
 -1        51-8.96672E+00-8.96672E+00 2.04954E-07
 -1        52-8.96672E+00-8.96672E+00 2.04954E-07
 -1        53-1.79334E+01-8.96672E+00 2.04954E-07
 -1        54-1.79334E+01-8.96672E+00 2.04954E-07
 -1        55 0.00000E+00-8.96672E+00 2.04954E-07
 -1        56-1.70795E-07-8.96672E+00 2.04954E-07
 -1        57-8.96672E+00-8.96672E+00 2.04954E-07
 -1        58-8.96672E+00-8.96672E+00 2.04954E-07
 -1        59-1.79334E+01-8.96672E+00 2.04954E-07
 -1        60-1.79334E+01-8.96672E+00 2.04954E-07
 -1        61 0.00000E+00-1.79334E+01 2.04954E-07
 -1        62-1.70795E-07-1.79334E+01 2.04954E-07
 -1        63-8.96672E+00-1.79334E+01 2.04954E-07
 -1        64-8.96672E+00-1.79334E+01 2.04954E-07
 -1        65-1.79334E+01-1.79334E+01 2.04954E-07
 -1        66-1.79334E+01-1.79334E+01 2.04954E-07
 -1        67 0.00000E+00-1.79334E+01 2.04954E-07
 -1        68-1.70795E-07-1.79334E+01 2.04954E-07
 -1        69-8.96672E+00-1.79334E+01 2.04954E-07
 -1        70-8.96672E+00-1.79334E+01 2.04954E-07
 -1        71-1.79334E+01-1.79334E+01 2.04954E-07
 -1        72-1.79334E+01-1.79334E+01 2.04954E-07
 -3
    1PSTEP                       212          71           1          
  100CL  171 5.97781E-01          72                     0   71           1
 -4  STRESS      6    1
 -5  SXX         1    4    1    1
 -5  SYY         1    4    2    2
 -5  SZZ         1    4    3    3
 -5  SXY         1    4    1    2
 -5  SYZ         1    4    2    3
 -5  SZX         1    4    3    1
 -1         1-1.02473E-04-1.02473E-04-7.92714E-21-5.14463E-22-3.06281E-21-1.18287E-21
 -1         2-5.12363E-05-5.12363E-05 1.59435E-20-2.42518E-20 1.30723E-21-5.59412E-21
 -1         3-5.12363E-05-5.12363E-05-4.24549E-14-2.66745E-13 1.24026E-20-5.79916E-14
 -1         4-5.12363E-05-5.12363E-05-7.38910E-14 2.11156E-13-6.73917E-21 1.03224E-13
 -1         5-5.12363E-05-5.12363E-05-7.02402E-14 5.43780E-15 5.73484E-21-2.22933E-13
 -1         6-1.02473E-04-1.02473E-04 1.54962E-14 4.44780E-13-4.13215E-19 2.16632E-13
 -1         7-5.12363E-05-5.12363E-05 1.47926E-20 1.53451E-20 1.04518E-20 2.52827E-22
 -1         8-3.41576E-05-3.41576E-05-3.96682E-20-6.53044E-21-4.03928E-21 1.72501E-20
 -1         9-3.41576E-05-3.41576E-05 2.47545E-13-1.97026E-13-1.33076E-14 6.56104E-14
 -1        10-3.41576E-05-3.41576E-05 1.83623E-13 1.68565E-13 2.01568E-16-2.24637E-13
 -1        11-3.41576E-05-3.41576E-05 9.29357E-14 1.69190E-15-3.20006E-14 2.32279E-13
 -1        12-5.12363E-05-5.12363E-05-1.55279E-13-3.68659E-14 4.11825E-14 4.19534E-14
 -1        13-5.12363E-05-5.12363E-05 2.03538E-13 2.65516E-13 2.27010E-13 1.30376E-20
 -1        14-3.41576E-05-3.41576E-05-5.53450E-14 1.67397E-13-7.69334E-14-2.73498E-15
 -1        15-3.41576E-05-3.41576E-05 1.82408E-13-2.20073E-14-1.94009E-13 1.36418E-14
 -1        16-3.41576E-05-3.41576E-05 2.34049E-13-6.49819E-14 1.66125E-13 8.17973E-14
 -1        17-3.41576E-05-3.41576E-05 1.17717E-13 3.67666E-14 1.14687E-13-3.30441E-14
 -1        18-5.12363E-05-5.12363E-05-4.56620E-13 1.25689E-13-1.66986E-13 5.76926E-14
 -1        19-5.12363E-05-5.12363E-05 2.46786E-13-6.89647E-14-4.45692E-14-7.03989E-20
 -1        20-3.41576E-05-3.41576E-05-9.80333E-14-5.55899E-14-1.98323E-14 9.97921E-15
 -1        21-3.41576E-05-3.41576E-05 5.44555E-14-6.54776E-14-2.20437E-15 8.60922E-14
 -1        22-3.41576E-05-3.41576E-05 7.65998E-14-2.01573E-13-1.22501E-13-7.66369E-14
 -1        23-3.41576E-05-3.41576E-05-3.85447E-14 2.95336E-14 1.44938E-13 1.93377E-13
 -1        24-5.12363E-05-5.12363E-05 1.60119E-13-2.54149E-13 5.58452E-14 9.99297E-14
 -1        25-5.12363E-05-5.12363E-05-1.71004E-13 4.08187E-19 4.80947E-13 1.31372E-19
 -1        26-3.41576E-05-3.41576E-05-8.04267E-14-1.45952E-14-1.95226E-13 2.75169E-15
 -1        27-3.41576E-05-3.41576E-05 1.22400E-13 1.35532E-13 9.52772E-14 4.85258E-14
 -1        28-3.41576E-05-3.41576E-05 2.67994E-14 6.83679E-14-1.19774E-13 8.23319E-14
 -1        29-3.41576E-05-3.41576E-05-6.39463E-14-2.00244E-15 4.91447E-14 1.52589E-13
 -1        30-5.12363E-05-5.12363E-05 2.68825E-13 2.31690E-13-2.24764E-13 7.07056E-15
 -1        31-1.02473E-04-1.02473E-04 2.79536E-13 8.16373E-19-6.45554E-13-2.67101E-19
 -1        32-5.12363E-05-5.12363E-05 9.01564E-15-2.18928E-14-3.85183E-14 1.44859E-15
 -1        33-5.12363E-05-5.12363E-05 2.33700E-13 1.11476E-13 3.86337E-14-4.17104E-14
 -1        34-5.12363E-05-5.12363E-05 1.06876E-13 8.12141E-14-2.38952E-13-1.04068E-13
 -1        35-5.12363E-05-5.12363E-05 1.57155E-13 1.78456E-13-4.68239E-13-3.82528E-13
 -1        36-1.02473E-04-1.02473E-04-6.41271E-13-8.34771E-13 5.55867E-13 7.12345E-13
 -1        37-1.02473E-04-1.02473E-04-3.68472E-20 2.10594E-21 4.80017E-20 4.45305E-22
 -1        38-5.12363E-05-5.12363E-05 8.92407E-21 1.46671E-20-1.38446E-20-4.49346E-21
 -1        39-5.12363E-05-5.12363E-05 1.56996E-17-6.31472E-14 2.25474E-14-4.16347E-14
 -1        40-5.12363E-05-5.12363E-05 1.11335E-14 2.55017E-14-3.23188E-15 2.21370E-14
 -1        41-5.12363E-05-5.12363E-05-2.62047E-13-1.99723E-13 8.38575E-14 2.81813E-13
 -1        42-1.02473E-04-1.02473E-04 6.45331E-15-3.20629E-13-1.30422E-13-5.22177E-13
 -1        43-5.12363E-05-5.12363E-05 6.87587E-20-7.97877E-21 3.17061E-20-3.70100E-20
 -1        44-3.41576E-05-3.41576E-05-2.22036E-20 6.60890E-21-1.33764E-20-8.30476E-21
 -1        45-3.41576E-05-3.41576E-05-2.62539E-14-3.91760E-14 1.72406E-15-1.43904E-14
 -1        46-3.41576E-05-3.41576E-05-6.18075E-14 5.17456E-14-1.95301E-15-2.07533E-14
 -1        47-3.41576E-05-3.41576E-05-3.49357E-14-1.35179E-13 2.39044E-14-2.00939E-13
 -1        48-5.12363E-05-5.12363E-05-1.59801E-13 1.71808E-13-2.40285E-14 2.92548E-13
 -1        49-5.12363E-05-5.12363E-05-2.60996E-13-2.81310E-13 6.44574E-14 1.76928E-14
 -1        50-3.41576E-05-3.41576E-05 6.84317E-14-1.79353E-13-1.42137E-13 9.06018E-15
 -1        51-3.41576E-05-3.41576E-05-1.63050E-13 1.33002E-14 2.21449E-14-8.29050E-14
 -1        52-3.41576E-05-3.41576E-05 2.47520E-14 7.86136E-14-5.93318E-14-6.17391E-14
 -1        53-3.41576E-05-3.41576E-05 7.09269E-14-2.65492E-13 5.14245E-14 1.67390E-13
 -1        54-5.12363E-05-5.12363E-05-4.10003E-13 2.49058E-13-9.80605E-14-4.41330E-14
 -1        55-5.12363E-05-5.12363E-05-1.77699E-13-3.78345E-14 3.18909E-14-2.52195E-14
 -1        56-3.41576E-05-3.41576E-05 5.24433E-14-1.70365E-14-1.66982E-14-6.83377E-15
 -1        57-3.41576E-05-3.41576E-05-1.15435E-13 1.04389E-13-1.08857E-13 1.21486E-13
 -1        58-3.41576E-05-3.41576E-05 2.01193E-14 6.14140E-14 1.93771E-13-7.30657E-14
 -1        59-3.41576E-05-3.41576E-05-4.68728E-14 1.29293E-13-3.64578E-14-1.81332E-13
 -1        60-5.12363E-05-5.12363E-05-8.58180E-15-3.92288E-13 2.88835E-13 4.54262E-14
 -1        61-5.12363E-05-5.12363E-05-2.86651E-13 3.95376E-19-2.57503E-13 3.34694E-14
 -1        62-3.41576E-05-3.41576E-05-5.24420E-14-1.70953E-14 1.97219E-13 2.50646E-14
 -1        63-3.41576E-05-3.41576E-05-3.32478E-13 4.65591E-14-3.91294E-13-6.37803E-14
 -1        64-3.41576E-05-3.41576E-05-2.08297E-13 1.57738E-13 2.47372E-13 4.35156E-14
 -1        65-3.41576E-05-3.41576E-05-3.19072E-13 3.01454E-14-2.39220E-13 1.30261E-13
 -1        66-5.12363E-05-5.12363E-05-2.55245E-14 7.98728E-14 2.98718E-13-3.00631E-13
 -1        67-1.02473E-04-1.02473E-04 3.69918E-14 7.90753E-19 9.87196E-14-7.79547E-14
 -1        68-5.12363E-05-5.12363E-05 4.53676E-14-2.56430E-14-1.13835E-13-3.75286E-14
 -1        69-5.12363E-05-5.12363E-05-1.18944E-13-2.27341E-13 3.52055E-13 1.37363E-13
 -1        70-5.12363E-05-5.12363E-05 1.56499E-14-1.28390E-14-1.01014E-13-8.77707E-14
 -1        71-5.12363E-05-5.12363E-05-4.13036E-13-3.67421E-13 5.64200E-13-6.95468E-14
 -1        72-1.02473E-04-1.02473E-04 1.69595E-13 3.12500E-13-3.81395E-13 1.52861E-13
 -3
    1PSTEP                       213          71           1          
  100CL  171 5.97781E-01          72                     0   71           1
 -4  TOSTRAIN    6    1
 -5  EXX         1    4    1    1
 -5  EYY         1    4    2    2
 -5  EZZ         1    4    3    3
 -5  EXY         1    4    1    2
 -5  EYZ         1    4    2    3
 -5  EZX         1    4    3    1
 -1         1-3.41576E-10-3.41576E-10 2.92779E-10-3.18477E-27-1.89603E-26-7.32255E-27
 -1         2-1.70788E-10-1.70788E-10 1.46390E-10-1.50130E-25 8.09238E-27-3.46302E-26
 -1         3-1.70788E-10-1.70788E-10 1.46390E-10-1.65128E-18 7.67781E-26-3.58996E-19
 -1         4-1.70788E-10-1.70788E-10 1.46390E-10 1.30716E-18-4.17187E-26 6.39004E-19
 -1         5-1.70788E-10-1.70788E-10 1.46390E-10 3.36626E-20 3.55014E-26-1.38006E-18
 -1         6-3.41576E-10-3.41576E-10 2.92779E-10 2.75340E-18-2.55800E-24 1.34105E-18
 -1         7-1.70788E-10-1.70788E-10 1.46390E-10 9.49937E-26 6.47015E-26 1.56512E-27
 -1         8-1.13859E-10-1.13859E-10 9.75930E-11-4.04265E-26-2.50051E-26 1.06786E-25
 -1         9-1.13859E-10-1.13859E-10 9.75930E-11-1.21969E-18-8.23801E-20 4.06160E-19
 -1        10-1.13859E-10-1.13859E-10 9.75930E-11 1.04350E-18 1.24780E-21-1.39061E-18
 -1        11-1.13859E-10-1.13859E-10 9.75930E-11 1.04737E-20-1.98099E-19 1.43792E-18
 -1        12-1.70788E-10-1.70788E-10 1.46390E-10-2.28218E-19 2.54939E-19 2.59711E-19
 -1        13-1.70788E-10-1.70788E-10 1.46390E-10 1.64367E-18 1.40530E-18 8.07089E-26
 -1        14-1.13859E-10-1.13859E-10 9.75930E-11 1.03627E-18-4.76255E-19-1.69308E-20
 -1        15-1.13859E-10-1.13859E-10 9.75930E-11-1.36236E-19-1.20101E-18 8.44492E-20
 -1        16-1.13859E-10-1.13859E-10 9.75930E-11-4.02269E-19 1.02839E-18 5.06364E-19
 -1        17-1.13859E-10-1.13859E-10 9.75930E-11 2.27603E-19 7.09969E-19-2.04559E-19
 -1        18-1.70788E-10-1.70788E-10 1.46390E-10 7.78078E-19-1.03372E-18 3.57145E-19
 -1        19-1.70788E-10-1.70788E-10 1.46390E-10-4.26924E-19-2.75905E-19-4.35803E-25
 -1        20-1.13859E-10-1.13859E-10 9.75930E-11-3.44128E-19-1.22771E-19 6.17761E-20
 -1        21-1.13859E-10-1.13859E-10 9.75930E-11-4.05338E-19-1.36461E-20 5.32952E-19
 -1        22-1.13859E-10-1.13859E-10 9.75930E-11-1.24783E-18-7.58337E-19-4.74419E-19
 -1        23-1.13859E-10-1.13859E-10 9.75930E-11 1.82827E-19 8.97236E-19 1.19709E-18
 -1        24-1.70788E-10-1.70788E-10 1.46390E-10-1.57331E-18 3.45709E-19 6.18612E-19
 -1        25-1.70788E-10-1.70788E-10 1.46390E-10 2.52687E-24 2.97729E-18 8.13257E-25
 -1        26-1.13859E-10-1.13859E-10 9.75930E-11-9.03513E-20-1.20854E-18 1.70342E-20
 -1        27-1.13859E-10-1.13859E-10 9.75930E-11 8.39007E-19 5.89811E-19 3.00398E-19
 -1        28-1.13859E-10-1.13859E-10 9.75930E-11 4.23230E-19-7.41457E-19 5.09674E-19
 -1        29-1.13859E-10-1.13859E-10 9.75930E-11-1.23960E-20 3.04229E-19 9.44597E-19
 -1        30-1.70788E-10-1.70788E-10 1.46390E-10 1.43427E-18-1.39140E-18 4.37701E-20
 -1        31-3.41576E-10-3.41576E-10 2.92779E-10 5.05374E-24-3.99628E-18-1.65348E-24
 -1        32-1.70788E-10-1.70788E-10 1.46390E-10-1.35527E-19-2.38447E-19 8.96743E-21
 -1        33-1.70788E-10-1.70788E-10 1.46390E-10 6.90087E-19 2.39161E-19-2.58207E-19
 -1        34-1.70788E-10-1.70788E-10 1.46390E-10 5.02754E-19-1.47923E-18-6.44228E-19
 -1        35-1.70788E-10-1.70788E-10 1.46390E-10 1.10473E-18-2.89862E-18-2.36803E-18
 -1        36-3.41576E-10-3.41576E-10 2.92779E-10-5.16763E-18 3.44108E-18 4.40975E-18
 -1        37-3.41576E-10-3.41576E-10 2.92779E-10 1.30368E-26 2.97153E-25 2.75665E-27
 -1        38-1.70788E-10-1.70788E-10 1.46390E-10 9.07964E-26-8.57049E-26-2.78167E-26
 -1        39-1.70788E-10-1.70788E-10 1.46390E-10-3.90911E-19 1.39579E-19-2.57739E-19
 -1        40-1.70788E-10-1.70788E-10 1.46390E-10 1.57868E-19-2.00068E-20 1.37039E-19
 -1        41-1.70788E-10-1.70788E-10 1.46390E-10-1.23638E-18 5.19118E-19 1.74456E-18
 -1        42-3.41576E-10-3.41576E-10 2.92779E-10-1.98485E-18-8.07376E-19-3.23253E-18
 -1        43-1.70788E-10-1.70788E-10 1.46390E-10-4.93924E-26 1.96276E-25-2.29109E-25
 -1        44-1.13859E-10-1.13859E-10 9.75930E-11 4.09122E-26-8.28060E-26-5.14104E-26
 -1        45-1.13859E-10-1.13859E-10 9.75930E-11-2.42518E-19 1.06727E-20-8.90837E-20
 -1        46-1.13859E-10-1.13859E-10 9.75930E-11 3.20330E-19-1.20901E-20-1.28473E-19
 -1        47-1.13859E-10-1.13859E-10 9.75930E-11-8.36821E-19 1.47979E-19-1.24391E-18
 -1        48-1.70788E-10-1.70788E-10 1.46390E-10 1.06357E-18-1.48748E-19 1.81101E-18
 -1        49-1.70788E-10-1.70788E-10 1.46390E-10-1.74144E-18 3.99022E-19 1.09527E-19
 -1        50-1.13859E-10-1.13859E-10 9.75930E-11-1.11028E-18-8.79897E-19 5.60868E-20
 -1        51-1.13859E-10-1.13859E-10 9.75930E-11 8.23343E-20 1.37087E-19-5.13221E-19
 -1        52-1.13859E-10-1.13859E-10 9.75930E-11 4.86656E-19-3.67292E-19-3.82195E-19
 -1        53-1.13859E-10-1.13859E-10 9.75930E-11-1.64352E-18 3.18342E-19 1.03622E-18
 -1        54-1.70788E-10-1.70788E-10 1.46390E-10 1.54179E-18-6.07041E-19-2.73204E-19
 -1        55-1.70788E-10-1.70788E-10 1.46390E-10-2.34213E-19 1.97420E-19-1.56121E-19
 -1        56-1.13859E-10-1.13859E-10 9.75930E-11-1.05464E-19-1.03370E-19-4.23043E-20
 -1        57-1.13859E-10-1.13859E-10 9.75930E-11 6.46215E-19-6.73876E-19 7.52055E-19
 -1        58-1.13859E-10-1.13859E-10 9.75930E-11 3.80182E-19 1.19953E-18-4.52312E-19
 -1        59-1.13859E-10-1.13859E-10 9.75930E-11 8.00387E-19-2.25691E-19-1.12253E-18
 -1        60-1.70788E-10-1.70788E-10 1.46390E-10-2.42845E-18 1.78802E-18 2.81210E-19
 -1        61-1.70788E-10-1.70788E-10 1.46390E-10 2.44757E-24-1.59407E-18 2.07192E-19
 -1        62-1.13859E-10-1.13859E-10 9.75930E-11-1.05828E-19 1.22088E-18 1.55162E-19
 -1        63-1.13859E-10-1.13859E-10 9.75930E-11 2.88223E-19-2.42229E-18-3.94830E-19
 -1        64-1.13859E-10-1.13859E-10 9.75930E-11 9.76475E-19 1.53135E-18 2.69382E-19
 -1        65-1.13859E-10-1.13859E-10 9.75930E-11 1.86614E-19-1.48088E-18 8.06377E-19
 -1        66-1.70788E-10-1.70788E-10 1.46390E-10 4.94450E-19 1.84920E-18-1.86105E-18
 -1        67-3.41576E-10-3.41576E-10 2.92779E-10 4.89513E-24 6.11122E-19-4.82577E-19
 -1        68-1.70788E-10-1.70788E-10 1.46390E-10-1.58742E-19-7.04692E-19-2.32320E-19
 -1        69-1.70788E-10-1.70788E-10 1.46390E-10-1.40735E-18 2.17939E-18 8.50340E-19
 -1        70-1.70788E-10-1.70788E-10 1.46390E-10-7.94796E-20-6.25326E-19-5.43342E-19
 -1        71-1.70788E-10-1.70788E-10 1.46390E-10-2.27451E-18 3.49266E-18-4.30528E-19
 -1        72-3.41576E-10-3.41576E-10 2.92779E-10 1.93452E-18-2.36102E-18 9.46284E-19
 -3
    1PSTEP                       214          72           1          
  100CL  172 6.06781E-01          72                     0   72           1
 -4  DISP        4    1
 -5  D1          1    2    1    0
 -5  D2          1    2    2    0
 -5  D3          1    2    3    0
 -5  ALL         1    2    0    0    1ALL
 -1         1 0.00000E+00 0.00000E+00 0.00000E+00
 -1         2-1.73366E-07 0.00000E+00 0.00000E+00
 -1         3-9.10172E+00 0.00000E+00 0.00000E+00
 -1         4-9.10172E+00 0.00000E+00 0.00000E+00
 -1         5-1.82034E+01 0.00000E+00 0.00000E+00
 -1         6-1.82034E+01 0.00000E+00 0.00000E+00
 -1         7 0.00000E+00-1.73366E-07 0.00000E+00
 -1         8-1.73366E-07-1.73366E-07 0.00000E+00
 -1         9-9.10172E+00-1.73366E-07 0.00000E+00
 -1        10-9.10172E+00-1.73366E-07 0.00000E+00
 -1        11-1.82034E+01-1.73366E-07 0.00000E+00
 -1        12-1.82034E+01-1.73366E-07 0.00000E+00
 -1        13 0.00000E+00-9.10172E+00 0.00000E+00
 -1        14-1.73366E-07-9.10172E+00 0.00000E+00
 -1        15-9.10172E+00-9.10172E+00 0.00000E+00
 -1        16-9.10172E+00-9.10172E+00 0.00000E+00
 -1        17-1.82034E+01-9.10172E+00 0.00000E+00
 -1        18-1.82034E+01-9.10172E+00 0.00000E+00
 -1        19 0.00000E+00-9.10172E+00 0.00000E+00
 -1        20-1.73366E-07-9.10172E+00 0.00000E+00
 -1        21-9.10172E+00-9.10172E+00 0.00000E+00
 -1        22-9.10172E+00-9.10172E+00 0.00000E+00
 -1        23-1.82034E+01-9.10172E+00 0.00000E+00
 -1        24-1.82034E+01-9.10172E+00 0.00000E+00
 -1        25 0.00000E+00-1.82034E+01 0.00000E+00
 -1        26-1.73366E-07-1.82034E+01 0.00000E+00
 -1        27-9.10172E+00-1.82034E+01 0.00000E+00
 -1        28-9.10172E+00-1.82034E+01 0.00000E+00
 -1        29-1.82034E+01-1.82034E+01 0.00000E+00
 -1        30-1.82034E+01-1.82034E+01 0.00000E+00
 -1        31 0.00000E+00-1.82034E+01 0.00000E+00
 -1        32-1.73366E-07-1.82034E+01 0.00000E+00
 -1        33-9.10172E+00-1.82034E+01 0.00000E+00
 -1        34-9.10172E+00-1.82034E+01 0.00000E+00
 -1        35-1.82034E+01-1.82034E+01 0.00000E+00
 -1        36-1.82034E+01-1.82034E+01 0.00000E+00
 -1        37 0.00000E+00 0.00000E+00 2.08039E-07
 -1        38-1.73366E-07 0.00000E+00 2.08039E-07
 -1        39-9.10172E+00 0.00000E+00 2.08039E-07
 -1        40-9.10172E+00 0.00000E+00 2.08039E-07
 -1        41-1.82034E+01 0.00000E+00 2.08039E-07
 -1        42-1.82034E+01 0.00000E+00 2.08039E-07
 -1        43 0.00000E+00-1.73366E-07 2.08039E-07
 -1        44-1.73366E-07-1.73366E-07 2.08039E-07
 -1        45-9.10172E+00-1.73366E-07 2.08039E-07
 -1        46-9.10172E+00-1.73366E-07 2.08039E-07
 -1        47-1.82034E+01-1.73366E-07 2.08039E-07
 -1        48-1.82034E+01-1.73366E-07 2.08039E-07
 -1        49 0.00000E+00-9.10172E+00 2.08039E-07
 -1        50-1.73366E-07-9.10172E+00 2.08039E-07
 -1        51-9.10172E+00-9.10172E+00 2.08039E-07
 -1        52-9.10172E+00-9.10172E+00 2.08039E-07
 -1        53-1.82034E+01-9.10172E+00 2.08039E-07
 -1        54-1.82034E+01-9.10172E+00 2.08039E-07
 -1        55 0.00000E+00-9.10172E+00 2.08039E-07
 -1        56-1.73366E-07-9.10172E+00 2.08039E-07
 -1        57-9.10172E+00-9.10172E+00 2.08039E-07
 -1        58-9.10172E+00-9.10172E+00 2.08039E-07
 -1        59-1.82034E+01-9.10172E+00 2.08039E-07
 -1        60-1.82034E+01-9.10172E+00 2.08039E-07
 -1        61 0.00000E+00-1.82034E+01 2.08039E-07
 -1        62-1.73366E-07-1.82034E+01 2.08039E-07
 -1        63-9.10172E+00-1.82034E+01 2.08039E-07
 -1        64-9.10172E+00-1.82034E+01 2.08039E-07
 -1        65-1.82034E+01-1.82034E+01 2.08039E-07
 -1        66-1.82034E+01-1.82034E+01 2.08039E-07
 -1        67 0.00000E+00-1.82034E+01 2.08039E-07
 -1        68-1.73366E-07-1.82034E+01 2.08039E-07
 -1        69-9.10172E+00-1.82034E+01 2.08039E-07
 -1        70-9.10172E+00-1.82034E+01 2.08039E-07
 -1        71-1.82034E+01-1.82034E+01 2.08039E-07
 -1        72-1.82034E+01-1.82034E+01 2.08039E-07
 -3
    1PSTEP                       215          72           1          
  100CL  172 6.06781E-01          72                     0   72           1
 -4  STRESS      6    1
 -5  SXX         1    4    1    1
 -5  SYY         1    4    2    2
 -5  SZZ         1    4    3    3
 -5  SXY         1    4    1    2
 -5  SYZ         1    4    2    3
 -5  SZX         1    4    3    1
 -1         1-1.04015E-04-1.04015E-04 2.48038E-20-2.11101E-22-6.37938E-22-1.22154E-21
 -1         2-5.20077E-05-5.20077E-05-1.65184E-20 2.23128E-20 8.36116E-22 3.00336E-21
 -1         3-5.20077E-05-5.20077E-05-3.25950E-13-1.39367E-13 1.73703E-20-4.99399E-14
 -1         4-5.20077E-05-5.20077E-05-3.14086E-13 5.91506E-14-6.90656E-20 4.36302E-15
 -1         5-5.20077E-05-5.20077E-05 4.99111E-14 2.72240E-13-3.90458E-20 1.14153E-13
 -1         6-1.04015E-04-1.04015E-04-1.76067E-13 2.64719E-13 4.12372E-19-3.87316E-13
 -1         7-5.20077E-05-5.20077E-05-1.62107E-20-4.12152E-20-1.96776E-21 1.95307E-22
 -1         8-3.46718E-05-3.46718E-05-7.07444E-20-1.25312E-20 4.17363E-20-2.06267E-20
 -1         9-3.46718E-05-3.46718E-05 2.41217E-13-1.23280E-13-3.14615E-14-3.29781E-14
 -1        10-3.46718E-05-3.46718E-05 9.26336E-14 2.01684E-14 1.52300E-14 5.30189E-14
 -1        11-3.46718E-05-3.46718E-05 5.55778E-13 8.31009E-14-4.35856E-14-3.81004E-14
 -1        12-5.20077E-05-5.20077E-05 5.02478E-13 5.13916E-14 8.10920E-14-1.56683E-13
 -1        13-5.20077E-05-5.20077E-05 1.24224E-13-2.31115E-13-1.04569E-13-1.12903E-19
 -1        14-3.46718E-05-3.46718E-05-1.11740E-13-1.29063E-13-2.34860E-14 1.14536E-14
 -1        15-3.46718E-05-3.46718E-05 9.39473E-14 3.25108E-14-1.51417E-13-6.44763E-14
 -1        16-3.46718E-05-3.46718E-05 5.39603E-14-4.22858E-14 2.32133E-13 1.87358E-13
 -1        17-3.46718E-05-3.46718E-05 6.44329E-14 1.94028E-13-4.06946E-14-8.25521E-14
 -1        18-5.20077E-05-5.20077E-05 1.95262E-13-4.84442E-14-8.44634E-14-3.51140E-14
 -1        19-5.20077E-05-5.20077E-05 2.51343E-14 6.19269E-14 3.43266E-13 2.31442E-20
 -1        20-3.46718E-05-3.46718E-05-3.55677E-14 6.62985E-14-1.24783E-14-1.98635E-14
 -1        21-3.46718E-05-3.46718E-05 2.14371E-14-6.79282E-14-1.81161E-14-3.40092E-14
 -1        22-3.46718E-05-3.46718E-05-1.19415E-13-4.78868E-14-4.83171E-14 3.86233E-14
 -1        23-3.46718E-05-3.46718E-05 2.36504E-13 3.10578E-13-7.33561E-15 8.23995E-14
 -1        24-5.20077E-05-5.20077E-05-2.84041E-13 2.38734E-14 2.78592E-13-3.28045E-13
 -1        25-5.20077E-05-5.20077E-05-1.08523E-13 3.42614E-19-2.21758E-13-1.38528E-19
 -1        26-3.46718E-05-3.46718E-05-9.50076E-14-1.42440E-14-1.18133E-13 2.11189E-14
 -1        27-3.46718E-05-3.46718E-05-1.79653E-13-1.05202E-14-1.14035E-13-4.17535E-14
 -1        28-3.46718E-05-3.46718E-05-1.09287E-13-3.47587E-14 2.11175E-14 4.87427E-15
 -1        29-3.46718E-05-3.46718E-05 3.90325E-15 2.94781E-13-3.32916E-13 4.00585E-15
 -1        30-5.20077E-05-5.20077E-05-1.69287E-13 1.77432E-13-3.05637E-14-4.97485E-13
 -1        31-1.04015E-04-1.04015E-04 3.56802E-13 6.85229E-19-2.53882E-13-6.95166E-19
 -1        32-5.20077E-05-5.20077E-05-6.36138E-15-2.13661E-14-4.05359E-13 3.30556E-14
 -1        33-5.20077E-05-5.20077E-05 1.25295E-14 6.40994E-14-2.66225E-13 2.70195E-15
 -1        34-5.20077E-05-5.20077E-05 1.90204E-13 9.82262E-14-2.99932E-13 5.05809E-14
 -1        35-5.20077E-05-5.20077E-05 2.12227E-13 4.71961E-13-1.02406E-15-1.12642E-13
 -1        36-1.04015E-04-1.04015E-04 3.28504E-14 1.32505E-13 1.02280E-12 1.09536E-12
 -1        37-1.04015E-04-1.04015E-04 2.25021E-20-2.33562E-21-3.75207E-20 4.90926E-20
 -1        38-5.20077E-05-5.20077E-05 1.24630E-19-2.49422E-20-5.44029E-20 2.84470E-20
 -1        39-5.20077E-05-5.20077E-05 2.02097E-13 1.86043E-13 6.06524E-14-1.21808E-13
 -1        40-5.20077E-05-5.20077E-05 3.61039E-13-1.50470E-13-3.32436E-14 2.04218E-13
 -1        41-5.20077E-05-5.20077E-05-9.61528E-14-2.54956E-13 2.57938E-14 5.02566E-14
 -1        42-1.04015E-04-1.04015E-04 1.46980E-13-3.93725E-13-1.03007E-13 2.69238E-13
 -1        43-5.20077E-05-5.20077E-05-9.86757E-20 4.42361E-20-2.04091E-20-9.20137E-21
 -1        44-3.46718E-05-3.46718E-05-3.08546E-20 1.36411E-20 4.91033E-21-2.76041E-20
 -1        45-3.46718E-05-3.46718E-05-1.29196E-13 1.52617E-13 8.97342E-15 6.39317E-14
 -1        46-3.46718E-05-3.46718E-05-1.79727E-13-3.02861E-14-6.93237E-15 1.25647E-14
 -1        47-3.46718E-05-3.46718E-05-3.03449E-13-1.57299E-13-2.63897E-14 1.29219E-13
 -1        48-5.20077E-05-5.20077E-05-4.78774E-13 7.07731E-14 2.95883E-14 1.22454E-13
 -1        49-5.20077E-05-5.20077E-05-9.27883E-14 1.83267E-13 2.14896E-13-3.36981E-14
 -1        50-3.46718E-05-3.46718E-05 1.11375E-13 1.03348E-13-2.36517E-14-1.10117E-14
 -1        51-3.46718E-05-3.46718E-05 9.36746E-14 4.05906E-14 9.47644E-14 1.95057E-14
 -1        52-3.46718E-05-3.46718E-05-9.20893E-14 2.56045E-14-7.15933E-14 8.33812E-14
 -1        53-3.46718E-05-3.46718E-05-1.03008E-13-3.63272E-13 7.31927E-14 3.98177E-13
 -1        54-5.20077E-05-5.20077E-05-3.16936E-13 6.39273E-14-5.91261E-14-3.00981E-13
 -1        55-5.20077E-05-5.20077E-05-2.90527E-13-4.91053E-14-2.41465E-13 5.16411E-14
 -1        56-3.46718E-05-3.46718E-05 1.21781E-13-5.15671E-14 8.22531E-14 1.45639E-14
 -1        57-3.46718E-05-3.46718E-05 4.61472E-14-7.00931E-14 2.08375E-13 3.23489E-14
 -1        58-3.46718E-05-3.46718E-05-1.72229E-13-6.60777E-14 5.29504E-14-2.23083E-14
 -1        59-3.46718E-05-3.46718E-05 3.95274E-14-2.80032E-13-5.25604E-14-2.86679E-13
 -1        60-5.20077E-05-5.20077E-05 1.14997E-13-5.02260E-14-4.84937E-14 3.15463E-13
 -1        61-5.20077E-05-5.20077E-05-8.36353E-14 3.47245E-19-4.52197E-13 1.21599E-14
 -1        62-3.46718E-05-3.46718E-05 5.29378E-14-1.29584E-14-2.47062E-13 2.92256E-14
 -1        63-3.46718E-05-3.46718E-05-2.31397E-13 2.04520E-13-4.18112E-13-1.63697E-14
 -1        64-3.46718E-05-3.46718E-05 1.04940E-13 2.27271E-13-1.98479E-13 1.99445E-13
 -1        65-3.46718E-05-3.46718E-05-4.10539E-14-2.33903E-13-1.39734E-13-8.80483E-14
 -1        66-5.20077E-05-5.20077E-05-7.52343E-14-2.09829E-14-2.74433E-13 6.33333E-13
 -1        67-1.04015E-04-1.04015E-04 4.12363E-13 6.94490E-19 5.83320E-13-9.63000E-14
 -1        68-5.20077E-05-5.20077E-05 2.18449E-13-1.94377E-14 4.59804E-13-1.50941E-14
 -1        69-5.20077E-05-5.20077E-05-2.17814E-13-3.44113E-13 5.38654E-13 5.34883E-14
 -1        70-5.20077E-05-5.20077E-05-5.96721E-13-2.62252E-13 6.31667E-13-9.98711E-14
 -1        71-5.20077E-05-5.20077E-05 3.45686E-13-3.30680E-13 2.79822E-13-3.19541E-14
 -1        72-1.04015E-04-1.04015E-04 2.13227E-13-1.92551E-13-3.92828E-13-7.55647E-13
 -3
    1PSTEP                       216          72           1          
  100CL  172 6.06781E-01          72                     0   72           1
 -4  TOSTRAIN    6    1
 -5  EXX         1    4    1    1
 -5  EYY         1    4    2    2
 -5  EZZ         1    4    3    3
 -5  EXY         1    4    1    2
 -5  EYZ         1    4    2    3
 -5  EZX         1    4    3    1
 -1         1-3.46718E-10-3.46718E-10 2.97187E-10-1.30681E-27-3.94914E-27-7.56192E-27
 -1         2-1.73359E-10-1.73359E-10 1.48594E-10 1.38127E-25 5.17595E-27 1.85922E-26
 -1         3-1.73359E-10-1.73359E-10 1.48594E-10-8.62747E-19 1.07530E-25-3.09152E-19
 -1         4-1.73359E-10-1.73359E-10 1.48594E-10 3.66170E-19-4.27549E-25 2.70092E-20
 -1         5-1.73359E-10-1.73359E-10 1.48594E-10 1.68529E-18-2.41712E-25 7.06659E-19
 -1         6-3.46718E-10-3.46718E-10 2.97187E-10 1.63873E-18 2.55278E-24-2.39767E-18
 -1         7-1.73359E-10-1.73359E-10 1.48594E-10-2.55142E-25-1.21814E-26 1.20904E-27
 -1         8-1.15573E-10-1.15573E-10 9.90624E-11-7.75743E-26 2.58368E-25-1.27689E-25
 -1         9-1.15573E-10-1.15573E-10 9.90624E-11-7.63162E-19-1.94762E-19-2.04150E-19
 -1        10-1.15573E-10-1.15573E-10 9.90624E-11 1.24852E-19 9.42810E-20 3.28212E-19
 -1        11-1.15573E-10-1.15573E-10 9.90624E-11 5.14434E-19-2.69816E-19-2.35860E-19
 -1        12-1.73359E-10-1.73359E-10 1.48594E-10 3.18139E-19 5.01998E-19-9.69944E-19
 -1        13-1.73359E-10-1.73359E-10 1.48594E-10-1.43071E-18-6.47331E-19-6.98923E-25
 -1        14-1.15573E-10-1.15573E-10 9.90624E-11-7.98961E-19-1.45390E-19 7.09032E-20
 -1        15-1.15573E-10-1.15573E-10 9.90624E-11 2.01258E-19-9.37341E-19-3.99139E-19
 -1        16-1.15573E-10-1.15573E-10 9.90624E-11-2.61769E-19 1.43701E-18 1.15984E-18
 -1        17-1.15573E-10-1.15573E-10 9.90624E-11 1.20113E-18-2.51919E-19-5.11037E-19
 -1        18-1.73359E-10-1.73359E-10 1.48594E-10-2.99892E-19-5.22868E-19-2.17373E-19
 -1        19-1.73359E-10-1.73359E-10 1.48594E-10 3.83357E-19 2.12498E-18 1.43274E-25
 -1        20-1.15573E-10-1.15573E-10 9.90624E-11 4.10419E-19-7.72467E-20-1.22965E-19
 -1        21-1.15573E-10-1.15573E-10 9.90624E-11-4.20508E-19-1.12147E-19-2.10533E-19
 -1        22-1.15573E-10-1.15573E-10 9.90624E-11-2.96442E-19-2.99106E-19 2.39097E-19
 -1        23-1.15573E-10-1.15573E-10 9.90624E-11 1.92262E-18-4.54109E-20 5.10092E-19
 -1        24-1.73359E-10-1.73359E-10 1.48594E-10 1.47788E-19 1.72462E-18-2.03076E-18
 -1        25-1.73359E-10-1.73359E-10 1.48594E-10 2.12095E-24-1.37279E-18-8.57554E-25
 -1        26-1.15573E-10-1.15573E-10 9.90624E-11-8.81775E-20-7.31302E-19 1.30736E-19
 -1        27-1.15573E-10-1.15573E-10 9.90624E-11-6.51252E-20-7.05932E-19-2.58474E-19
 -1        28-1.15573E-10-1.15573E-10 9.90624E-11-2.15173E-19 1.30727E-19 3.01741E-20
 -1        29-1.15573E-10-1.15573E-10 9.90624E-11 1.82483E-18-2.06091E-18 2.47981E-20
 -1        30-1.73359E-10-1.73359E-10 1.48594E-10 1.09839E-18-1.89204E-19-3.07967E-18
 -1        31-3.46718E-10-3.46718E-10 2.97187E-10 4.24189E-24-1.57165E-18-4.30341E-24
 -1        32-1.73359E-10-1.73359E-10 1.48594E-10-1.32266E-19-2.50936E-18 2.04630E-19
 -1        33-1.73359E-10-1.73359E-10 1.48594E-10 3.96806E-19-1.64806E-18 1.67263E-20
 -1        34-1.73359E-10-1.73359E-10 1.48594E-10 6.08067E-19-1.85672E-18 3.13120E-19
 -1        35-1.73359E-10-1.73359E-10 1.48594E-10 2.92166E-18-6.33943E-21-6.97310E-19
 -1        36-3.46718E-10-3.46718E-10 2.97187E-10 8.20268E-19 6.33162E-18 6.78080E-18
 -1        37-3.46718E-10-3.46718E-10 2.97187E-10-1.44586E-26-2.32271E-25 3.03906E-25
 -1        38-1.73359E-10-1.73359E-10 1.48594E-10-1.54404E-25-3.36780E-25 1.76100E-25
 -1        39-1.73359E-10-1.73359E-10 1.48594E-10 1.15169E-18 3.75467E-19-7.54051E-19
 -1        40-1.73359E-10-1.73359E-10 1.48594E-10-9.31479E-19-2.05794E-19 1.26420E-18
 -1        41-1.73359E-10-1.73359E-10 1.48594E-10-1.57830E-18 1.59676E-19 3.11112E-19
 -1        42-3.46718E-10-3.46718E-10 2.97187E-10-2.43734E-18-6.37663E-19 1.66671E-18
 -1        43-1.73359E-10-1.73359E-10 1.48594E-10 2.73842E-25-1.26342E-25-5.69609E-26
 -1        44-1.15573E-10-1.15573E-10 9.90624E-11 8.44450E-26 3.03973E-26-1.70883E-25
 -1        45-1.15573E-10-1.15573E-10 9.90624E-11 9.44774E-19 5.55497E-20 3.95768E-19
 -1        46-1.15573E-10-1.15573E-10 9.90624E-11-1.87486E-19-4.29147E-20 7.77814E-20
 -1        47-1.15573E-10-1.15573E-10 9.90624E-11-9.73755E-19-1.63365E-19 7.99927E-19
 -1        48-1.73359E-10-1.73359E-10 1.48594E-10 4.38119E-19 1.83166E-19 7.58050E-19
 -1        49-1.73359E-10-1.73359E-10 1.48594E-10 1.13451E-18 1.33031E-18-2.08607E-19
 -1        50-1.15573E-10-1.15573E-10 9.90624E-11 6.39771E-19-1.46416E-19-6.81677E-20
 -1        51-1.15573E-10-1.15573E-10 9.90624E-11 2.51275E-19 5.86637E-19 1.20749E-19
 -1        52-1.15573E-10-1.15573E-10 9.90624E-11 1.58504E-19-4.43197E-19 5.16170E-19
 -1        53-1.15573E-10-1.15573E-10 9.90624E-11-2.24882E-18 4.53098E-19 2.46491E-18
 -1        54-1.73359E-10-1.73359E-10 1.48594E-10 3.95740E-19-3.66019E-19-1.86322E-18
 -1        55-1.73359E-10-1.73359E-10 1.48594E-10-3.03985E-19-1.49478E-18 3.19683E-19
 -1        56-1.15573E-10-1.15573E-10 9.90624E-11-3.19225E-19 5.09186E-19 9.01575E-20
 -1        57-1.15573E-10-1.15573E-10 9.90624E-11-4.33910E-19 1.28994E-18 2.00255E-19
 -1        58-1.15573E-10-1.15573E-10 9.90624E-11-4.09052E-19 3.27788E-19-1.38099E-19
 -1        59-1.15573E-10-1.15573E-10 9.90624E-11-1.73353E-18-3.25374E-19-1.77468E-18
 -1        60-1.73359E-10-1.73359E-10 1.48594E-10-3.10923E-19-3.00199E-19 1.95287E-18
 -1        61-1.73359E-10-1.73359E-10 1.48594E-10 2.14961E-24-2.79931E-18 7.52755E-20
 -1        62-1.15573E-10-1.15573E-10 9.90624E-11-8.02190E-20-1.52943E-18 1.80920E-19
 -1        63-1.15573E-10-1.15573E-10 9.90624E-11 1.26607E-18-2.58831E-18-1.01336E-19
 -1        64-1.15573E-10-1.15573E-10 9.90624E-11 1.40692E-18-1.22868E-18 1.23466E-18
 -1        65-1.15573E-10-1.15573E-10 9.90624E-11-1.44797E-18-8.65017E-19-5.45061E-19
 -1        66-1.73359E-10-1.73359E-10 1.48594E-10-1.29894E-19-1.69887E-18 3.92063E-18
 -1        67-3.46718E-10-3.46718E-10 2.97187E-10 4.29922E-24 3.61103E-18-5.96143E-19
 -1        68-1.73359E-10-1.73359E-10 1.48594E-10-1.20328E-19 2.84640E-18-9.34396E-20
 -1        69-1.73359E-10-1.73359E-10 1.48594E-10-2.13022E-18 3.33452E-18 3.31118E-19
 -1        70-1.73359E-10-1.73359E-10 1.48594E-10-1.62347E-18 3.91032E-18-6.18250E-19
 -1        71-1.73359E-10-1.73359E-10 1.48594E-10-2.04706E-18 1.73223E-18-1.97811E-19
 -1        72-3.46718E-10-3.46718E-10 2.97187E-10-1.19198E-18-2.43179E-18-4.67781E-18
 -3
    1PSTEP                       217          73           1          
  100CL  173 6.15781E-01          72                     0   73           1
 -4  DISP        4    1
 -5  D1          1    2    1    0
 -5  D2          1    2    2    0
 -5  D3          1    2    3    0
 -5  ALL         1    2    0    0    1ALL
 -1         1 0.00000E+00 0.00000E+00 0.00000E+00
 -1         2-1.75938E-07 0.00000E+00 0.00000E+00
 -1         3-9.23672E+00 0.00000E+00 0.00000E+00
 -1         4-9.23672E+00 0.00000E+00 0.00000E+00
 -1         5-1.84734E+01 0.00000E+00 0.00000E+00
 -1         6-1.84734E+01 0.00000E+00 0.00000E+00
 -1         7 0.00000E+00-1.75938E-07 0.00000E+00
 -1         8-1.75938E-07-1.75938E-07 0.00000E+00
 -1         9-9.23672E+00-1.75938E-07 0.00000E+00
 -1        10-9.23672E+00-1.75938E-07 0.00000E+00
 -1        11-1.84734E+01-1.75938E-07 0.00000E+00
 -1        12-1.84734E+01-1.75938E-07 0.00000E+00
 -1        13 0.00000E+00-9.23672E+00 0.00000E+00
 -1        14-1.75938E-07-9.23672E+00 0.00000E+00
 -1        15-9.23672E+00-9.23672E+00 0.00000E+00
 -1        16-9.23672E+00-9.23672E+00 0.00000E+00
 -1        17-1.84734E+01-9.23672E+00 0.00000E+00
 -1        18-1.84734E+01-9.23672E+00 0.00000E+00
 -1        19 0.00000E+00-9.23672E+00 0.00000E+00
 -1        20-1.75938E-07-9.23672E+00 0.00000E+00
 -1        21-9.23672E+00-9.23672E+00 0.00000E+00
 -1        22-9.23672E+00-9.23672E+00 0.00000E+00
 -1        23-1.84734E+01-9.23672E+00 0.00000E+00
 -1        24-1.84734E+01-9.23672E+00 0.00000E+00
 -1        25 0.00000E+00-1.84734E+01 0.00000E+00
 -1        26-1.75938E-07-1.84734E+01 0.00000E+00
 -1        27-9.23672E+00-1.84734E+01 0.00000E+00
 -1        28-9.23672E+00-1.84734E+01 0.00000E+00
 -1        29-1.84734E+01-1.84734E+01 0.00000E+00
 -1        30-1.84734E+01-1.84734E+01 0.00000E+00
 -1        31 0.00000E+00-1.84734E+01 0.00000E+00
 -1        32-1.75938E-07-1.84734E+01 0.00000E+00
 -1        33-9.23672E+00-1.84734E+01 0.00000E+00
 -1        34-9.23672E+00-1.84734E+01 0.00000E+00
 -1        35-1.84734E+01-1.84734E+01 0.00000E+00
 -1        36-1.84734E+01-1.84734E+01 0.00000E+00
 -1        37 0.00000E+00 0.00000E+00 2.11125E-07
 -1        38-1.75938E-07 0.00000E+00 2.11125E-07
 -1        39-9.23672E+00 0.00000E+00 2.11125E-07
 -1        40-9.23672E+00 0.00000E+00 2.11125E-07
 -1        41-1.84734E+01 0.00000E+00 2.11125E-07
 -1        42-1.84734E+01 0.00000E+00 2.11125E-07
 -1        43 0.00000E+00-1.75938E-07 2.11125E-07
 -1        44-1.75938E-07-1.75938E-07 2.11125E-07
 -1        45-9.23672E+00-1.75938E-07 2.11125E-07
 -1        46-9.23672E+00-1.75938E-07 2.11125E-07
 -1        47-1.84734E+01-1.75938E-07 2.11125E-07
 -1        48-1.84734E+01-1.75938E-07 2.11125E-07
 -1        49 0.00000E+00-9.23672E+00 2.11125E-07
 -1        50-1.75938E-07-9.23672E+00 2.11125E-07
 -1        51-9.23672E+00-9.23672E+00 2.11125E-07
 -1        52-9.23672E+00-9.23672E+00 2.11125E-07
 -1        53-1.84734E+01-9.23672E+00 2.11125E-07
 -1        54-1.84734E+01-9.23672E+00 2.11125E-07
 -1        55 0.00000E+00-9.23672E+00 2.11125E-07
 -1        56-1.75938E-07-9.23672E+00 2.11125E-07
 -1        57-9.23672E+00-9.23672E+00 2.11125E-07
 -1        58-9.23672E+00-9.23672E+00 2.11125E-07
 -1        59-1.84734E+01-9.23672E+00 2.11125E-07
 -1        60-1.84734E+01-9.23672E+00 2.11125E-07
 -1        61 0.00000E+00-1.84734E+01 2.11125E-07
 -1        62-1.75938E-07-1.84734E+01 2.11125E-07
 -1        63-9.23672E+00-1.84734E+01 2.11125E-07
 -1        64-9.23672E+00-1.84734E+01 2.11125E-07
 -1        65-1.84734E+01-1.84734E+01 2.11125E-07
 -1        66-1.84734E+01-1.84734E+01 2.11125E-07
 -1        67 0.00000E+00-1.84734E+01 2.11125E-07
 -1        68-1.75938E-07-1.84734E+01 2.11125E-07
 -1        69-9.23672E+00-1.84734E+01 2.11125E-07
 -1        70-9.23672E+00-1.84734E+01 2.11125E-07
 -1        71-1.84734E+01-1.84734E+01 2.11125E-07
 -1        72-1.84734E+01-1.84734E+01 2.11125E-07
 -3
    1PSTEP                       218          73           1          
  100CL  173 6.15781E-01          72                     0   73           1
 -4  STRESS      6    1
 -5  SXX         1    4    1    1
 -5  SYY         1    4    2    2
 -5  SZZ         1    4    3    3
 -5  SXY         1    4    1    2
 -5  SYZ         1    4    2    3
 -5  SZX         1    4    3    1
 -1         1-1.05558E-04-1.05558E-04 1.98425E-20 7.28989E-22 1.17821E-21 1.49882E-21
 -1         2-5.27791E-05-5.27791E-05 1.10721E-20 6.47125E-21-5.76274E-22-6.66032E-21
 -1         3-5.27791E-05-5.27791E-05-2.16893E-13 4.03647E-14 5.71682E-21-4.14957E-14
 -1         4-5.27791E-05-5.27791E-05-1.63016E-13-2.93026E-14-1.61365E-19 1.54864E-13
 -1         5-5.27791E-05-5.27791E-05-6.53874E-13-5.70321E-13-2.16231E-19-4.45144E-13
 -1         6-1.05558E-04-1.05558E-04-1.15119E-12 6.01649E-13-3.78918E-20 6.82467E-13
 -1         7-5.27791E-05-5.27791E-05 5.17292E-20-4.35001E-20-1.49779E-20-1.29481E-21
 -1         8-3.51861E-05-3.51861E-05-7.31654E-20-2.49289E-20 2.62776E-20 4.60396E-22
 -1         9-3.51861E-05-3.51861E-05 4.39840E-14 3.71174E-15-1.06350E-14-1.28112E-14
 -1        10-3.51861E-05-3.51861E-05-4.06566E-14 4.25654E-15 6.51827E-15 4.78103E-14
 -1        11-3.51861E-05-3.51861E-05 2.85720E-13-3.98519E-13-1.67410E-14 2.77782E-13
 -1        12-5.27791E-05-5.27791E-05 5.97114E-13 2.75943E-13-5.20701E-15-5.29680E-14
 -1        13-5.27791E-05-5.27791E-05-2.38398E-13 3.97191E-14-9.87883E-14-6.80792E-20
 -1        14-3.51861E-05-3.51861E-05-1.22614E-13 1.41173E-14-1.16780E-13 7.39147E-16
 -1        15-3.51861E-05-3.51861E-05 2.47295E-13-1.57578E-13 1.14002E-14-2.26231E-13
 -1        16-3.51861E-05-3.51861E-05 2.72783E-14-1.92702E-14-7.36048E-14 4.71318E-14
 -1        17-3.51861E-05-3.51861E-05-1.00488E-13-3.24993E-14-9.13083E-14-2.88006E-13
 -1        18-5.27791E-05-5.27791E-05 3.73396E-13-8.35479E-14 1.57440E-13 9.39439E-14
 -1        19-5.27791E-05-5.27791E-05-1.73341E-13 7.81827E-14 1.58913E-13-7.56281E-20
 -1        20-3.51861E-05-3.51861E-05-1.10670E-13 3.97597E-14-1.80101E-14 1.21133E-14
 -1        21-3.51861E-05-3.51861E-05 3.57242E-13-4.39554E-14-1.04700E-13 3.30921E-13
 -1        22-3.51861E-05-3.51861E-05 9.45239E-14-6.28720E-14-8.62807E-14 2.43813E-14
 -1        23-3.51861E-05-3.51861E-05-1.01886E-13 1.53971E-13 6.29281E-14 1.64934E-13
 -1        24-5.27791E-05-5.27791E-05-2.79108E-13 8.07712E-14-1.03653E-13 1.64776E-14
 -1        25-5.27791E-05-5.27791E-05-1.07196E-13 2.67552E-19-6.55939E-14-7.12222E-20
 -1        26-3.51861E-05-3.51861E-05-6.94116E-14-1.22495E-14-3.70540E-13 1.93218E-14
 -1        27-3.51861E-05-3.51861E-05 2.23860E-13 5.18741E-14-1.90556E-13 5.77506E-14
 -1        28-3.51861E-05-3.51861E-05 7.27519E-15 7.86895E-14-3.96092E-14-2.75685E-14
 -1        29-3.51861E-05-3.51861E-05-2.94240E-13 2.18634E-14-5.16584E-13-3.88472E-13
 -1        30-5.27791E-05-5.27791E-05-1.07733E-12 9.80754E-14-1.78890E-13 2.52295E-13
 -1        31-1.05558E-04-1.05558E-04 3.16151E-13 5.35105E-19-2.98657E-14-7.49685E-19
 -1        32-5.27791E-05-5.27791E-05-6.03257E-14-1.83742E-14 2.70270E-13 3.19951E-14
 -1        33-5.27791E-05-5.27791E-05 3.81242E-13 1.15610E-15 4.92566E-13-8.17013E-14
 -1        34-5.27791E-05-5.27791E-05 3.84071E-13 4.00912E-14-6.95857E-13 7.55225E-14
 -1        35-5.27791E-05-5.27791E-05 1.76023E-13 3.00719E-14 3.46819E-13-1.14700E-13
 -1        36-1.05558E-04-1.05558E-04 1.64216E-13 2.72781E-13-9.43052E-13 2.05019E-13
 -1        37-1.05558E-04-1.05558E-04-7.86551E-20-2.46239E-21 5.71357E-20 6.64731E-20
 -1        38-5.27791E-05-5.27791E-05 6.34659E-20 1.66195E-20-5.67904E-20 2.58268E-20
 -1        39-5.27791E-05-5.27791E-05-1.22732E-13-1.29180E-13 4.38822E-14 5.59124E-14
 -1        40-5.27791E-05-5.27791E-05-1.48225E-14 2.92617E-14-2.84530E-14-5.01856E-14
 -1        41-5.27791E-05-5.27791E-05 3.65683E-13 3.40775E-13 4.06495E-15 1.72372E-14
 -1        42-1.05558E-04-1.05558E-04 9.71526E-13 1.17172E-13 8.03331E-14-6.94643E-13
 -1        43-5.27791E-05-5.27791E-05 2.28089E-20 2.77165E-20 1.72788E-20-4.55346E-20
 -1        44-3.51861E-05-3.51861E-05-2.46838E-20 3.03781E-20-1.19627E-20-2.90328E-20
 -1        45-3.51861E-05-3.51861E-05-1.16543E-13-8.20980E-14 1.86198E-14-3.13529E-14
 -1        46-3.51861E-05-3.51861E-05-1.65162E-13 5.53520E-14-1.24503E-14-5.52953E-15
 -1        47-3.51861E-05-3.51861E-05-4.79464E-13 2.46687E-13-1.40309E-14 3.54650E-14
 -1        48-5.27791E-05-5.27791E-05-5.08863E-13-4.60885E-14 3.49596E-14 2.51831E-14
 -1        49-5.27791E-05-5.27791E-05-6.65510E-14-4.31572E-14-2.77840E-14 4.03627E-15
 -1        50-3.51861E-05-3.51861E-05 3.13573E-14-2.52097E-14 7.26333E-14 3.43004E-15
 -1        51-3.51861E-05-3.51861E-05-1.68720E-13 2.05482E-14-1.11090E-13 6.78358E-14
 -1        52-3.51861E-05-3.51861E-05 4.59654E-13-1.12208E-13-3.57814E-14 2.42926E-13
 -1        53-3.51861E-05-3.51861E-05-7.55806E-14 1.65074E-13 6.72623E-14 5.07978E-13
 -1        54-5.27791E-05-5.27791E-05-3.43754E-13 1.86139E-14 1.83553E-13-4.93514E-13
 -1        55-5.27791E-05-5.27791E-05 3.43355E-14 1.00389E-13 1.72912E-13-1.48209E-14
 -1        56-3.51861E-05-3.51861E-05 6.71863E-14 7.04879E-14-1.82730E-14 2.23276E-15
 -1        57-3.51861E-05-3.51861E-05-2.87482E-13 9.95430E-14 2.35267E-13-3.81361E-14
 -1        58-3.51861E-05-3.51861E-05-1.11326E-13 9.77405E-14-1.16854E-13-1.85105E-13
 -1        59-3.51861E-05-3.51861E-05-9.39774E-14-1.71981E-13-3.67447E-14 1.79354E-13
 -1        60-5.27791E-05-5.27791E-05-7.14619E-13-5.63348E-14-1.23642E-13-1.50761E-13
 -1        61-5.27791E-05-5.27791E-05-1.78974E-13 2.82824E-19-4.77140E-13 2.69865E-14
 -1        62-3.51861E-05-3.51861E-05 1.40898E-14-9.43763E-15-8.19359E-14 3.73128E-14
 -1        63-3.51861E-05-3.51861E-05-1.94333E-13 7.98136E-14-3.86419E-13-1.02606E-13
 -1        64-3.51861E-05-3.51861E-05-1.10172E-14 1.14527E-13 5.17545E-14-1.53036E-14
 -1        65-3.51861E-05-3.51861E-05 3.07307E-13-3.54680E-14 4.44625E-14 1.67635E-13
 -1        66-5.27791E-05-5.27791E-05 3.55554E-13 4.47177E-13-2.47911E-13-5.67518E-14
 -1        67-1.05558E-04-1.05558E-04 1.85248E-13 5.65648E-19 4.87714E-13-1.23211E-13
 -1        68-5.27791E-05-5.27791E-05 7.12532E-14-1.41564E-14 1.90464E-13-2.96100E-14
 -1        69-5.27791E-05-5.27791E-05-8.51117E-16-1.81524E-13 3.60171E-13 1.53595E-13
 -1        70-5.27791E-05-5.27791E-05-5.58467E-13-6.24885E-14 3.30617E-13-1.58278E-13
 -1        71-5.27791E-05-5.27791E-05 4.26728E-13-3.03865E-13 1.04937E-14-2.61526E-13
 -1        72-1.05558E-04-1.05558E-04 1.18074E-12-1.61920E-13 7.49281E-13-8.95564E-15
 -3
    1PSTEP                       219          73           1          
  100CL  173 6.15781E-01          72                     0   73           1
 -4  TOSTRAIN    6    1
 -5  EXX         1    4    1    1
 -5  EYY         1    4    2    2
 -5  EZZ         1    4    3    3
 -5  EXY         1    4    1    2
 -5  EYZ         1    4    2    3
 -5  EZX         1    4    3    1
 -1         1-3.51861E-10-3.51861E-10 3.01595E-10 4.51279E-27 7.29366E-27 9.27838E-27
 -1         2-1.75930E-10-1.75930E-10 1.50798E-10 4.00601E-26-3.56741E-27-4.12306E-26
 -1         3-1.75930E-10-1.75930E-10 1.50798E-10 2.49877E-19 3.53898E-26-2.56878E-19
 -1         4-1.75930E-10-1.75930E-10 1.50798E-10-1.81397E-19-9.98928E-25 9.58680E-19
 -1         5-1.75930E-10-1.75930E-10 1.50798E-10-3.53056E-18-1.33857E-24-2.75565E-18
 -1         6-3.51861E-10-3.51861E-10 3.01595E-10 3.72449E-18-2.34569E-25 4.22480E-18
 -1         7-1.75930E-10-1.75930E-10 1.50798E-10-2.69286E-25-9.27205E-26-8.01551E-27
 -1         8-1.17287E-10-1.17287E-10 1.00532E-10-1.54322E-25 1.62671E-25 2.85007E-27
 -1         9-1.17287E-10-1.17287E-10 1.00532E-10 2.29774E-20-6.58356E-20-7.93076E-20
 -1        10-1.17287E-10-1.17287E-10 1.00532E-10 2.63500E-20 4.03512E-20 2.95969E-19
 -1        11-1.17287E-10-1.17287E-10 1.00532E-10-2.46702E-18-1.03635E-19 1.71961E-18
 -1        12-1.75930E-10-1.75930E-10 1.50798E-10 1.70822E-18-3.22339E-20-3.27897E-19
 -1        13-1.75930E-10-1.75930E-10 1.50798E-10 2.45880E-19-6.11547E-19-4.21443E-25
 -1        14-1.17287E-10-1.17287E-10 1.00532E-10 8.73930E-20-7.22923E-19 4.57567E-21
 -1        15-1.17287E-10-1.17287E-10 1.00532E-10-9.75483E-19 7.05729E-20-1.40048E-18
 -1        16-1.17287E-10-1.17287E-10 1.00532E-10-1.19292E-19-4.55649E-19 2.91768E-19
 -1        17-1.17287E-10-1.17287E-10 1.00532E-10-2.01186E-19-5.65242E-19-1.78289E-18
 -1        18-1.75930E-10-1.75930E-10 1.50798E-10-5.17201E-19 9.74629E-19 5.81558E-19
 -1        19-1.75930E-10-1.75930E-10 1.50798E-10 4.83988E-19 9.83746E-19-4.68174E-25
 -1        20-1.17287E-10-1.17287E-10 1.00532E-10 2.46132E-19-1.11491E-19 7.49874E-20
 -1        21-1.17287E-10-1.17287E-10 1.00532E-10-2.72105E-19-6.48145E-19 2.04856E-18
 -1        22-1.17287E-10-1.17287E-10 1.00532E-10-3.89208E-19-5.34119E-19 1.50932E-19
 -1        23-1.17287E-10-1.17287E-10 1.00532E-10 9.53155E-19 3.89555E-19 1.02102E-18
 -1        24-1.75930E-10-1.75930E-10 1.50798E-10 5.00012E-19-6.41663E-19 1.02004E-19
 -1        25-1.75930E-10-1.75930E-10 1.50798E-10 1.65628E-24-4.06058E-19-4.40899E-25
 -1        26-1.17287E-10-1.17287E-10 1.00532E-10-7.58302E-20-2.29382E-18 1.19611E-19
 -1        27-1.17287E-10-1.17287E-10 1.00532E-10 3.21125E-19-1.17963E-18 3.57504E-19
 -1        28-1.17287E-10-1.17287E-10 1.00532E-10 4.87126E-19-2.45200E-19-1.70662E-19
 -1        29-1.17287E-10-1.17287E-10 1.00532E-10 1.35345E-19-3.19790E-18-2.40483E-18
 -1        30-1.75930E-10-1.75930E-10 1.50798E-10 6.07134E-19-1.10741E-18 1.56183E-18
 -1        31-3.51861E-10-3.51861E-10 3.01595E-10 3.31255E-24-1.84883E-19-4.64091E-24
 -1        32-1.75930E-10-1.75930E-10 1.50798E-10-1.13745E-19 1.67310E-18 1.98065E-19
 -1        33-1.75930E-10-1.75930E-10 1.50798E-10 7.15681E-21 3.04922E-18-5.05770E-19
 -1        34-1.75930E-10-1.75930E-10 1.50798E-10 2.48184E-19-4.30769E-18 4.67520E-19
 -1        35-1.75930E-10-1.75930E-10 1.50798E-10 1.86160E-19 2.14698E-18-7.10045E-19
 -1        36-3.51861E-10-3.51861E-10 3.01595E-10 1.68864E-18-5.83794E-18 1.26916E-18
 -1        37-3.51861E-10-3.51861E-10 3.01595E-10-1.52434E-26 3.53697E-25 4.11500E-25
 -1        38-1.75930E-10-1.75930E-10 1.50798E-10 1.02882E-25-3.51560E-25 1.59880E-25
 -1        39-1.75930E-10-1.75930E-10 1.50798E-10-7.99684E-19 2.71652E-19 3.46124E-19
 -1        40-1.75930E-10-1.75930E-10 1.50798E-10 1.81144E-19-1.76137E-19-3.10673E-19
 -1        41-1.75930E-10-1.75930E-10 1.50798E-10 2.10956E-18 2.51640E-20 1.06706E-19
 -1        42-3.51861E-10-3.51861E-10 3.01595E-10 7.25347E-19 4.97300E-19-4.30017E-18
 -1        43-1.75930E-10-1.75930E-10 1.50798E-10 1.71578E-25 1.06964E-25-2.81881E-25
 -1        44-1.17287E-10-1.17287E-10 1.00532E-10 1.88055E-25-7.40545E-26-1.79727E-25
 -1        45-1.17287E-10-1.17287E-10 1.00532E-10-5.08226E-19 1.15266E-19-1.94090E-19
 -1        46-1.17287E-10-1.17287E-10 1.00532E-10 3.42655E-19-7.70731E-20-3.42304E-20
 -1        47-1.17287E-10-1.17287E-10 1.00532E-10 1.52711E-18-8.68581E-20 2.19545E-19
 -1        48-1.75930E-10-1.75930E-10 1.50798E-10-2.85310E-19 2.16416E-19 1.55896E-19
 -1        49-1.75930E-10-1.75930E-10 1.50798E-10-2.67164E-19-1.71996E-19 2.49864E-20
 -1        50-1.17287E-10-1.17287E-10 1.00532E-10-1.56060E-19 4.49634E-19 2.12336E-20
 -1        51-1.17287E-10-1.17287E-10 1.00532E-10 1.27203E-19-6.87700E-19 4.19936E-19
 -1        52-1.17287E-10-1.17287E-10 1.00532E-10-6.94622E-19-2.21504E-19 1.50383E-18
 -1        53-1.17287E-10-1.17287E-10 1.00532E-10 1.02189E-18 4.16386E-19 3.14462E-18
 -1        54-1.75930E-10-1.75930E-10 1.50798E-10 1.15229E-19 1.13628E-18-3.05509E-18
 -1        55-1.75930E-10-1.75930E-10 1.50798E-10 6.21457E-19 1.07041E-18-9.17487E-20
 -1        56-1.17287E-10-1.17287E-10 1.00532E-10 4.36354E-19-1.13119E-19 1.38219E-20
 -1        57-1.17287E-10-1.17287E-10 1.00532E-10 6.16219E-19 1.45641E-18-2.36081E-19
 -1        58-1.17287E-10-1.17287E-10 1.00532E-10 6.05060E-19-7.23384E-19-1.14589E-18
 -1        59-1.17287E-10-1.17287E-10 1.00532E-10-1.06465E-18-2.27467E-19 1.11029E-18
 -1        60-1.75930E-10-1.75930E-10 1.50798E-10-3.48739E-19-7.65402E-19-9.33283E-19
 -1        61-1.75930E-10-1.75930E-10 1.50798E-10 1.75081E-24-2.95372E-18 1.67059E-19
 -1        62-1.17287E-10-1.17287E-10 1.00532E-10-5.84234E-20-5.07222E-19 2.30984E-19
 -1        63-1.17287E-10-1.17287E-10 1.00532E-10 4.94084E-19-2.39212E-18-6.35178E-19
 -1        64-1.17287E-10-1.17287E-10 1.00532E-10 7.08978E-19 3.20385E-19-9.47369E-20
 -1        65-1.17287E-10-1.17287E-10 1.00532E-10-2.19564E-19 2.75244E-19 1.03774E-18
 -1        66-1.75930E-10-1.75930E-10 1.50798E-10 2.76824E-18-1.53469E-18-3.51320E-19
 -1        67-3.51861E-10-3.51861E-10 3.01595E-10 3.50163E-24 3.01918E-18-7.62734E-19
 -1        68-1.75930E-10-1.75930E-10 1.50798E-10-8.76351E-20 1.17906E-18-1.83300E-19
 -1        69-1.75930E-10-1.75930E-10 1.50798E-10-1.12372E-18 2.22963E-18 9.50827E-19
 -1        70-1.75930E-10-1.75930E-10 1.50798E-10-3.86834E-19 2.04668E-18-9.79819E-19
 -1        71-1.75930E-10-1.75930E-10 1.50798E-10-1.88107E-18 6.49608E-20-1.61897E-18
 -1        72-3.51861E-10-3.51861E-10 3.01595E-10-1.00236E-18 4.63840E-18-5.54397E-20
 -3
    1PSTEP                       220          74           1          
  100CL  174 6.24781E-01          72                     0   74           1
 -4  DISP        4    1
 -5  D1          1    2    1    0
 -5  D2          1    2    2    0
 -5  D3          1    2    3    0
 -5  ALL         1    2    0    0    1ALL
 -1         1 0.00000E+00 0.00000E+00 0.00000E+00
 -1         2-1.78509E-07 0.00000E+00 0.00000E+00
 -1         3-9.37172E+00 0.00000E+00 0.00000E+00
 -1         4-9.37172E+00 0.00000E+00 0.00000E+00
 -1         5-1.87434E+01 0.00000E+00 0.00000E+00
 -1         6-1.87434E+01 0.00000E+00 0.00000E+00
 -1         7 0.00000E+00-1.78509E-07 0.00000E+00
 -1         8-1.78509E-07-1.78509E-07 0.00000E+00
 -1         9-9.37172E+00-1.78509E-07 0.00000E+00
 -1        10-9.37172E+00-1.78509E-07 0.00000E+00
 -1        11-1.87434E+01-1.78509E-07 0.00000E+00
 -1        12-1.87434E+01-1.78509E-07 0.00000E+00
 -1        13 0.00000E+00-9.37172E+00 0.00000E+00
 -1        14-1.78509E-07-9.37172E+00 0.00000E+00
 -1        15-9.37172E+00-9.37172E+00 0.00000E+00
 -1        16-9.37172E+00-9.37172E+00 0.00000E+00
 -1        17-1.87434E+01-9.37172E+00 0.00000E+00
 -1        18-1.87434E+01-9.37172E+00 0.00000E+00
 -1        19 0.00000E+00-9.37172E+00 0.00000E+00
 -1        20-1.78509E-07-9.37172E+00 0.00000E+00
 -1        21-9.37172E+00-9.37172E+00 0.00000E+00
 -1        22-9.37172E+00-9.37172E+00 0.00000E+00
 -1        23-1.87434E+01-9.37172E+00 0.00000E+00
 -1        24-1.87434E+01-9.37172E+00 0.00000E+00
 -1        25 0.00000E+00-1.87434E+01 0.00000E+00
 -1        26-1.78509E-07-1.87434E+01 0.00000E+00
 -1        27-9.37172E+00-1.87434E+01 0.00000E+00
 -1        28-9.37172E+00-1.87434E+01 0.00000E+00
 -1        29-1.87434E+01-1.87434E+01 0.00000E+00
 -1        30-1.87434E+01-1.87434E+01 0.00000E+00
 -1        31 0.00000E+00-1.87434E+01 0.00000E+00
 -1        32-1.78509E-07-1.87434E+01 0.00000E+00
 -1        33-9.37172E+00-1.87434E+01 0.00000E+00
 -1        34-9.37172E+00-1.87434E+01 0.00000E+00
 -1        35-1.87434E+01-1.87434E+01 0.00000E+00
 -1        36-1.87434E+01-1.87434E+01 0.00000E+00
 -1        37 0.00000E+00 0.00000E+00 2.14211E-07
 -1        38-1.78509E-07 0.00000E+00 2.14211E-07
 -1        39-9.37172E+00 0.00000E+00 2.14211E-07
 -1        40-9.37172E+00 0.00000E+00 2.14211E-07
 -1        41-1.87434E+01 0.00000E+00 2.14211E-07
 -1        42-1.87434E+01 0.00000E+00 2.14211E-07
 -1        43 0.00000E+00-1.78509E-07 2.14211E-07
 -1        44-1.78509E-07-1.78509E-07 2.14211E-07
 -1        45-9.37172E+00-1.78509E-07 2.14211E-07
 -1        46-9.37172E+00-1.78509E-07 2.14211E-07
 -1        47-1.87434E+01-1.78509E-07 2.14211E-07
 -1        48-1.87434E+01-1.78509E-07 2.14211E-07
 -1        49 0.00000E+00-9.37172E+00 2.14211E-07
 -1        50-1.78509E-07-9.37172E+00 2.14211E-07
 -1        51-9.37172E+00-9.37172E+00 2.14211E-07
 -1        52-9.37172E+00-9.37172E+00 2.14211E-07
 -1        53-1.87434E+01-9.37172E+00 2.14211E-07
 -1        54-1.87434E+01-9.37172E+00 2.14211E-07
 -1        55 0.00000E+00-9.37172E+00 2.14211E-07
 -1        56-1.78509E-07-9.37172E+00 2.14211E-07
 -1        57-9.37172E+00-9.37172E+00 2.14211E-07
 -1        58-9.37172E+00-9.37172E+00 2.14211E-07
 -1        59-1.87434E+01-9.37172E+00 2.14211E-07
 -1        60-1.87434E+01-9.37172E+00 2.14211E-07
 -1        61 0.00000E+00-1.87434E+01 2.14211E-07
 -1        62-1.78509E-07-1.87434E+01 2.14211E-07
 -1        63-9.37172E+00-1.87434E+01 2.14211E-07
 -1        64-9.37172E+00-1.87434E+01 2.14211E-07
 -1        65-1.87434E+01-1.87434E+01 2.14211E-07
 -1        66-1.87434E+01-1.87434E+01 2.14211E-07
 -1        67 0.00000E+00-1.87434E+01 2.14211E-07
 -1        68-1.78509E-07-1.87434E+01 2.14211E-07
 -1        69-9.37172E+00-1.87434E+01 2.14211E-07
 -1        70-9.37172E+00-1.87434E+01 2.14211E-07
 -1        71-1.87434E+01-1.87434E+01 2.14211E-07
 -1        72-1.87434E+01-1.87434E+01 2.14211E-07
 -3
    1PSTEP                       221          74           1          
  100CL  174 6.24781E-01          72                     0   74           1
 -4  STRESS      6    1
 -5  SXX         1    4    1    1
 -5  SYY         1    4    2    2
 -5  SZZ         1    4    3    3
 -5  SXY         1    4    1    2
 -5  SYZ         1    4    2    3
 -5  SZX         1    4    3    1
 -1         1-1.07101E-04-1.07101E-04-4.85178E-22 1.12102E-21-1.83231E-21-1.98420E-21
 -1         2-5.35505E-05-5.35505E-05-2.25652E-20-3.17478E-20 1.12696E-21 3.41428E-21
 -1         3-5.35505E-05-5.35505E-05-5.28730E-15-1.83637E-13-5.53903E-21 2.99736E-14
 -1         4-5.35505E-05-5.35505E-05-3.22757E-14-9.89995E-14-7.16004E-20 9.01700E-14
 -1         5-5.35505E-05-5.35505E-05 5.09294E-14-5.49184E-14-9.87442E-20-1.86041E-13
 -1         6-1.07101E-04-1.07101E-04 1.21502E-14 4.42433E-13-2.40137E-19 3.17198E-13
 -1         7-5.35505E-05-5.35505E-05-3.66038E-20 4.09388E-20 2.99563E-21 3.04730E-22
 -1         8-3.57004E-05-3.57004E-05-2.57319E-20 5.75367E-21-2.03896E-20 2.70294E-20
 -1         9-3.57004E-05-3.57004E-05-4.40216E-14-1.22109E-13 7.87247E-15-3.93196E-14
 -1        10-3.57004E-05-3.57004E-05-4.54408E-14-1.52597E-14-1.10630E-14-9.44856E-14
 -1        11-3.57004E-05-3.57004E-05 3.10193E-14-7.39548E-14-5.21774E-14-3.41916E-16
 -1        12-5.35505E-05-5.35505E-05-3.25713E-13 1.39296E-14 4.62250E-14 1.45465E-13
 -1        13-5.35505E-05-5.35505E-05 4.33774E-14 4.88473E-21-2.54681E-13 1.41798E-20
 -1        14-3.57004E-05-3.57004E-05 1.81391E-14-1.14651E-14 1.23579E-13-8.76532E-15
 -1        15-3.57004E-05-3.57004E-05 7.86140E-14 3.68768E-14-7.24024E-15 7.03135E-14
 -1        16-3.57004E-05-3.57004E-05 1.63381E-13-6.21573E-14-5.04330E-14-1.57680E-14
 -1        17-3.57004E-05-3.57004E-05-3.64800E-13-1.83497E-13-8.86482E-14 2.08731E-14
 -1        18-5.35505E-05-5.35505E-05 1.27346E-13 3.33882E-13-2.24448E-13 2.59070E-13
 -1        19-5.35505E-05-5.35505E-05 6.31481E-14 4.88473E-21 4.36030E-13 5.12340E-20
 -1        20-3.57004E-05-3.57004E-05 1.55156E-14-1.14651E-14-1.82609E-13 4.55521E-15
 -1        21-3.57004E-05-3.57004E-05-9.70679E-14 8.43637E-14 7.99291E-14-5.58516E-14
 -1        22-3.57004E-05-3.57004E-05-4.46201E-14 1.43413E-13-1.74976E-13 1.42352E-13
 -1        23-3.57004E-05-3.57004E-05-3.28583E-13-1.58220E-13 1.63515E-14-4.71027E-14
 -1        24-5.35505E-05-5.35505E-05-2.66648E-15 2.20525E-13 1.01579E-13-1.44751E-13
 -1        25-5.35505E-05-5.35505E-05 1.18631E-13 1.70367E-19 5.72021E-14 4.28563E-20
 -1        26-3.57004E-05-3.57004E-05 3.57904E-14-1.75431E-14-6.83020E-14 5.46154E-15
 -1        27-3.57004E-05-3.57004E-05-1.27147E-13 2.94576E-14-1.14875E-13-8.60473E-15
 -1        28-3.57004E-05-3.57004E-05 1.34394E-13-4.23988E-14-1.15865E-13 1.04147E-13
 -1        29-3.57004E-05-3.57004E-05 1.17490E-13-3.50393E-13-4.78867E-14-2.98481E-13
 -1        30-5.35505E-05-5.35505E-05-2.53503E-13 6.13310E-14-1.78834E-13 8.00145E-14
 -1        31-1.07101E-04-1.07101E-04-2.26357E-13 3.41218E-19-4.80770E-14 2.56574E-19
 -1        32-5.35505E-05-5.35505E-05 6.38206E-14-2.63147E-14-2.47738E-13 2.73925E-14
 -1        33-5.35505E-05-5.35505E-05-1.09521E-13 1.14848E-13-2.32113E-14-1.07577E-13
 -1        34-5.35505E-05-5.35505E-05 2.27238E-13 1.49321E-13-2.20109E-15 6.48146E-14
 -1        35-5.35505E-05-5.35505E-05-9.35089E-14-1.62117E-13 2.15918E-13 3.96751E-13
 -1        36-1.07101E-04-1.07101E-04 4.39930E-13 5.47062E-13 3.09187E-13 1.87901E-13
 -1        37-1.07101E-04-1.07101E-04 6.36454E-20-8.20061E-22 2.01959E-20-5.31638E-20
 -1        38-5.35505E-05-5.35505E-05-7.18140E-20 1.85635E-20 1.13581E-20-2.27486E-20
 -1        39-5.35505E-05-5.35505E-05 9.60921E-14-8.10564E-14-3.27502E-16 6.50213E-16
 -1        40-5.35505E-05-5.35505E-05 9.45719E-15 9.23527E-14 9.61627E-15-3.18535E-13
 -1        41-5.35505E-05-5.35505E-05-3.37673E-13-1.93857E-13 8.79371E-14 5.13869E-14
 -1        42-1.07101E-04-1.07101E-04-2.42191E-13-2.43074E-13-8.60356E-14-3.40851E-13
 -1        43-5.35505E-05-5.35505E-05 3.61186E-20-7.79035E-21 1.40097E-20-2.07691E-20
 -1        44-3.57004E-05-3.57004E-05-3.14598E-20 7.45543E-21-1.35689E-20 1.44062E-20
 -1        45-3.57004E-05-3.57004E-05-2.70601E-15-3.85640E-14 7.65414E-15 1.41441E-13
 -1        46-3.57004E-05-3.57004E-05-4.38896E-14-6.97082E-14-4.65210E-15 2.42871E-13
 -1        47-3.57004E-05-3.57004E-05 1.92282E-13-1.33724E-13 6.44737E-15-4.42879E-14
 -1        48-5.35505E-05-5.35505E-05 1.77614E-13 3.11985E-13 3.20729E-15-1.68394E-13
 -1        49-5.35505E-05-5.35505E-05-8.35658E-14 1.03290E-19 2.22083E-13 5.96400E-15
 -1        50-3.57004E-05-3.57004E-05-4.02190E-14 7.18370E-15-7.76111E-14-4.78933E-15
 -1        51-3.57004E-05-3.57004E-05-3.80055E-13-1.34657E-13 2.85079E-14 1.46449E-13
 -1        52-3.57004E-05-3.57004E-05-2.78288E-13 9.95299E-14-6.04787E-14-6.69224E-14
 -1        53-3.57004E-05-3.57004E-05 7.26788E-14 1.41959E-13 3.14817E-15 2.73277E-13
 -1        54-5.35505E-05-5.35505E-05-5.83673E-13 1.19109E-13-8.86983E-14-4.26033E-13
 -1        55-5.35505E-05-5.35505E-05-2.18355E-14 1.03290E-19-1.45251E-13-3.51834E-15
 -1        56-3.57004E-05-3.57004E-05-1.48694E-14 7.18370E-15 9.38852E-14 2.20961E-15
 -1        57-3.57004E-05-3.57004E-05 2.60826E-14-1.66561E-14-1.04792E-13-7.24406E-14
 -1        58-3.57004E-05-3.57004E-05-1.09228E-13 4.19340E-14 1.40530E-13-6.21962E-14
 -1        59-3.57004E-05-3.57004E-05 4.71533E-13-1.26263E-13 8.91462E-14 2.23177E-13
 -1        60-5.35505E-05-5.35505E-05 2.39787E-13 1.57026E-13 9.50719E-14-1.20513E-13
 -1        61-5.35505E-05-5.35505E-05-5.26178E-13 2.65128E-19-4.79591E-13-2.50875E-14
 -1        62-3.57004E-05-3.57004E-05 2.58910E-13 3.76981E-16 2.45048E-14-1.12635E-14
 -1        63-3.57004E-05-3.57004E-05-4.65933E-14 2.63862E-13-2.39803E-13 1.17232E-13
 -1        64-3.57004E-05-3.57004E-05 1.13818E-13 4.53225E-13 1.60626E-13 2.14646E-13
 -1        65-3.57004E-05-3.57004E-05-3.90872E-13-4.51600E-14-3.51382E-13 1.14401E-13
 -1        66-5.35505E-05-5.35505E-05-6.21985E-13-7.86937E-14 5.54803E-13-2.61162E-14
 -1        67-1.07101E-04-1.07101E-04-9.73789E-13 5.28447E-19 4.84113E-13-4.12379E-14
 -1        68-5.35505E-05-5.35505E-05-4.22451E-13 5.65475E-16 3.75848E-13 6.77338E-15
 -1        69-5.35505E-05-5.35505E-05 4.90111E-13-5.60334E-13 3.63576E-13 1.91204E-13
 -1        70-5.35505E-05-5.35505E-05-1.03114E-12-2.47788E-13 2.58686E-13-2.96436E-13
 -1        71-5.35505E-05-5.35505E-05-2.25555E-13-2.49601E-13 4.89392E-13-2.47504E-13
 -1        72-1.07101E-04-1.07101E-04 9.63960E-13 3.59393E-13-6.79261E-13 8.75915E-14
 -3
    1PSTEP                       222          74           1          
  100CL  174 6.24781E-01          72                     0   74           1
 -4  TOSTRAIN    6    1
 -5  EXX         1    4    1    1
 -5  EYY         1    4    2    2
 -5  EZZ         1    4    3    3
 -5  EXY         1    4    1    2
 -5  EYZ         1    4    2    3
 -5  EZX         1    4    3    1
 -1         1-3.57004E-10-3.57004E-10 3.06003E-10 6.93965E-27-1.13428E-26-1.22831E-26
 -1         2-1.78502E-10-1.78502E-10 1.53002E-10-1.96534E-25 6.97643E-27 2.11360E-26
 -1         3-1.78502E-10-1.78502E-10 1.53002E-10-1.13680E-18-3.42892E-26 1.85551E-19
 -1         4-1.78502E-10-1.78502E-10 1.53002E-10-6.12854E-19-4.43241E-25 5.58195E-19
 -1         5-1.78502E-10-1.78502E-10 1.53002E-10-3.39971E-19-6.11274E-25-1.15168E-18
 -1         6-3.57004E-10-3.57004E-10 3.06003E-10 2.73887E-18-1.48656E-24 1.96361E-18
 -1         7-1.78502E-10-1.78502E-10 1.53002E-10 2.53431E-25 1.85444E-26 1.88642E-27
 -1         8-1.19001E-10-1.19001E-10 1.02001E-10 3.56180E-26-1.26222E-25 1.67325E-25
 -1         9-1.19001E-10-1.19001E-10 1.02001E-10-7.55912E-19 4.87343E-20-2.43407E-19
 -1        10-1.19001E-10-1.19001E-10 1.02001E-10-9.44646E-20-6.84852E-20-5.84911E-19
 -1        11-1.19001E-10-1.19001E-10 1.02001E-10-4.57815E-19-3.23003E-19-2.11663E-21
 -1        12-1.78502E-10-1.78502E-10 1.53002E-10 8.62308E-20 2.86155E-19 9.00495E-19
 -1        13-1.78502E-10-1.78502E-10 1.53002E-10 3.02388E-26-1.57660E-18 8.77796E-26
 -1        14-1.19001E-10-1.19001E-10 1.02001E-10-7.09742E-20 7.65012E-19-5.42615E-20
 -1        15-1.19001E-10-1.19001E-10 1.02001E-10 2.28285E-19-4.48205E-20 4.35274E-19
 -1        16-1.19001E-10-1.19001E-10 1.02001E-10-3.84783E-19-3.12204E-19-9.76115E-20
 -1        17-1.19001E-10-1.19001E-10 1.02001E-10-1.13594E-18-5.48775E-19 1.29214E-19
 -1        18-1.78502E-10-1.78502E-10 1.53002E-10 2.06689E-18-1.38944E-18 1.60377E-18
 -1        19-1.78502E-10-1.78502E-10 1.53002E-10 3.02388E-26 2.69923E-18 3.17163E-25
 -1        20-1.19001E-10-1.19001E-10 1.02001E-10-7.09742E-20-1.13044E-18 2.81989E-20
 -1        21-1.19001E-10-1.19001E-10 1.02001E-10 5.22251E-19 4.94799E-19-3.45748E-19
 -1        22-1.19001E-10-1.19001E-10 1.02001E-10 8.87792E-19-1.08319E-18 8.81224E-19
 -1        23-1.19001E-10-1.19001E-10 1.02001E-10-9.79455E-19 1.01223E-19-2.91588E-19
 -1        24-1.78502E-10-1.78502E-10 1.53002E-10 1.36516E-18 6.28823E-19-8.96080E-19
 -1        25-1.78502E-10-1.78502E-10 1.53002E-10 1.05465E-24 3.54108E-19 2.65301E-25
 -1        26-1.19001E-10-1.19001E-10 1.02001E-10-1.08600E-19-4.22822E-19 3.38095E-20
 -1        27-1.19001E-10-1.19001E-10 1.02001E-10 1.82356E-19-7.11130E-19-5.32674E-20
 -1        28-1.19001E-10-1.19001E-10 1.02001E-10-2.62469E-19-7.17259E-19 6.44719E-19
 -1        29-1.19001E-10-1.19001E-10 1.02001E-10-2.16910E-18-2.96442E-19-1.84774E-18
 -1        30-1.78502E-10-1.78502E-10 1.53002E-10 3.79668E-19-1.10707E-18 4.95328E-19
 -1        31-3.57004E-10-3.57004E-10 3.06003E-10 2.11230E-24-2.97619E-19 1.58832E-24
 -1        32-1.78502E-10-1.78502E-10 1.53002E-10-1.62901E-19-1.53362E-18 1.69572E-19
 -1        33-1.78502E-10-1.78502E-10 1.53002E-10 7.10964E-19-1.43689E-19-6.65953E-19
 -1        34-1.78502E-10-1.78502E-10 1.53002E-10 9.24366E-19-1.36258E-20 4.01234E-19
 -1        35-1.78502E-10-1.78502E-10 1.53002E-10-1.00358E-18 1.33664E-18 2.45608E-18
 -1        36-3.57004E-10-3.57004E-10 3.06003E-10 3.38658E-18 1.91401E-18 1.16320E-18
 -1        37-3.57004E-10-3.57004E-10 3.06003E-10-5.07657E-27 1.25022E-25-3.29109E-25
 -1        38-1.78502E-10-1.78502E-10 1.53002E-10 1.14917E-25 7.03122E-26-1.40825E-25
 -1        39-1.78502E-10-1.78502E-10 1.53002E-10-5.01777E-19-2.02739E-21 4.02513E-21
 -1        40-1.78502E-10-1.78502E-10 1.53002E-10 5.71707E-19 5.95293E-20-1.97188E-18
 -1        41-1.78502E-10-1.78502E-10 1.53002E-10-1.20007E-18 5.44372E-19 3.18109E-19
 -1        42-3.57004E-10-3.57004E-10 3.06003E-10-1.50474E-18-5.32601E-19-2.11003E-18
 -1        43-1.78502E-10-1.78502E-10 1.53002E-10-4.82260E-26 8.67269E-26-1.28571E-25
 -1        44-1.19001E-10-1.19001E-10 1.02001E-10 4.61526E-26-8.39978E-26 8.91810E-26
 -1        45-1.19001E-10-1.19001E-10 1.02001E-10-2.38730E-19 4.73827E-20 8.75590E-19
 -1        46-1.19001E-10-1.19001E-10 1.02001E-10-4.31527E-19-2.87987E-20 1.50349E-18
 -1        47-1.19001E-10-1.19001E-10 1.02001E-10-8.27814E-19 3.99123E-20-2.74163E-19
 -1        48-1.78502E-10-1.78502E-10 1.53002E-10 1.93134E-18 1.98547E-20-1.04244E-18
 -1        49-1.78502E-10-1.78502E-10 1.53002E-10 6.39417E-25 1.37480E-18 3.69200E-20
 -1        50-1.19001E-10-1.19001E-10 1.02001E-10 4.44705E-20-4.80450E-19-2.96482E-20
 -1        51-1.19001E-10-1.19001E-10 1.02001E-10-8.33591E-19 1.76478E-19 9.06588E-19
 -1        52-1.19001E-10-1.19001E-10 1.02001E-10 6.16138E-19-3.74392E-19-4.14281E-19
 -1        53-1.19001E-10-1.19001E-10 1.02001E-10 8.78796E-19 1.94887E-20 1.69171E-18
 -1        54-1.78502E-10-1.78502E-10 1.53002E-10 7.37342E-19-5.49085E-19-2.63735E-18
 -1        55-1.78502E-10-1.78502E-10 1.53002E-10 6.39417E-25-8.99170E-19-2.17802E-20
 -1        56-1.19001E-10-1.19001E-10 1.02001E-10 4.44705E-20 5.81194E-19 1.36786E-20
 -1        57-1.19001E-10-1.19001E-10 1.02001E-10-1.03109E-19-6.48714E-19-4.48442E-19
 -1        58-1.19001E-10-1.19001E-10 1.02001E-10 2.59591E-19 8.69950E-19-3.85024E-19
 -1        59-1.19001E-10-1.19001E-10 1.02001E-10-7.81630E-19 5.51857E-19 1.38157E-18
 -1        60-1.78502E-10-1.78502E-10 1.53002E-10 9.72063E-19 5.88541E-19-7.46034E-19
 -1        61-1.78502E-10-1.78502E-10 1.53002E-10 1.64127E-24-2.96890E-18-1.55304E-19
 -1        62-1.19001E-10-1.19001E-10 1.02001E-10 2.33369E-21 1.51696E-19-6.97265E-20
 -1        63-1.19001E-10-1.19001E-10 1.02001E-10 1.63343E-18-1.48450E-18 7.25724E-19
 -1        64-1.19001E-10-1.19001E-10 1.02001E-10 2.80568E-18 9.94351E-19 1.32876E-18
 -1        65-1.19001E-10-1.19001E-10 1.02001E-10-2.79562E-19-2.17522E-18 7.08195E-19
 -1        66-1.78502E-10-1.78502E-10 1.53002E-10-4.87152E-19 3.43449E-18-1.61672E-19
 -1        67-3.57004E-10-3.57004E-10 3.06003E-10 3.27134E-24 2.99689E-18-2.55282E-19
 -1        68-1.78502E-10-1.78502E-10 1.53002E-10 3.50056E-21 2.32668E-18 4.19305E-20
 -1        69-1.78502E-10-1.78502E-10 1.53002E-10-3.46874E-18 2.25071E-18 1.18364E-18
 -1        70-1.78502E-10-1.78502E-10 1.53002E-10-1.53392E-18 1.60139E-18-1.83508E-18
 -1        71-1.78502E-10-1.78502E-10 1.53002E-10-1.54515E-18 3.02957E-18-1.53217E-18
 -1        72-3.57004E-10-3.57004E-10 3.06003E-10 2.22481E-18-4.20495E-18 5.42233E-19
 -3
    1PSTEP                       223          75           1          
  100CL  175 6.33781E-01          72                     0   75           1
 -4  DISP        4    1
 -5  D1          1    2    1    0
 -5  D2          1    2    2    0
 -5  D3          1    2    3    0
 -5  ALL         1    2    0    0    1ALL
 -1         1 0.00000E+00 0.00000E+00 0.00000E+00
 -1         2-1.81080E-07 0.00000E+00 0.00000E+00
 -1         3-9.50672E+00 0.00000E+00 0.00000E+00
 -1         4-9.50672E+00 0.00000E+00 0.00000E+00
 -1         5-1.90134E+01 0.00000E+00 0.00000E+00
 -1         6-1.90134E+01 0.00000E+00 0.00000E+00
 -1         7 0.00000E+00-1.81080E-07 0.00000E+00
 -1         8-1.81080E-07-1.81080E-07 0.00000E+00
 -1         9-9.50672E+00-1.81080E-07 0.00000E+00
 -1        10-9.50672E+00-1.81080E-07 0.00000E+00
 -1        11-1.90134E+01-1.81080E-07 0.00000E+00
 -1        12-1.90134E+01-1.81080E-07 0.00000E+00
 -1        13 0.00000E+00-9.50672E+00 0.00000E+00
 -1        14-1.81080E-07-9.50672E+00 0.00000E+00
 -1        15-9.50672E+00-9.50672E+00 0.00000E+00
 -1        16-9.50672E+00-9.50672E+00 0.00000E+00
 -1        17-1.90134E+01-9.50672E+00 0.00000E+00
 -1        18-1.90134E+01-9.50672E+00 0.00000E+00
 -1        19 0.00000E+00-9.50672E+00 0.00000E+00
 -1        20-1.81080E-07-9.50672E+00 0.00000E+00
 -1        21-9.50672E+00-9.50672E+00 0.00000E+00
 -1        22-9.50672E+00-9.50672E+00 0.00000E+00
 -1        23-1.90134E+01-9.50672E+00 0.00000E+00
 -1        24-1.90134E+01-9.50672E+00 0.00000E+00
 -1        25 0.00000E+00-1.90134E+01 0.00000E+00
 -1        26-1.81080E-07-1.90134E+01 0.00000E+00
 -1        27-9.50672E+00-1.90134E+01 0.00000E+00
 -1        28-9.50672E+00-1.90134E+01 0.00000E+00
 -1        29-1.90134E+01-1.90134E+01 0.00000E+00
 -1        30-1.90134E+01-1.90134E+01 0.00000E+00
 -1        31 0.00000E+00-1.90134E+01 0.00000E+00
 -1        32-1.81080E-07-1.90134E+01 0.00000E+00
 -1        33-9.50672E+00-1.90134E+01 0.00000E+00
 -1        34-9.50672E+00-1.90134E+01 0.00000E+00
 -1        35-1.90134E+01-1.90134E+01 0.00000E+00
 -1        36-1.90134E+01-1.90134E+01 0.00000E+00
 -1        37 0.00000E+00 0.00000E+00 2.17296E-07
 -1        38-1.81080E-07 0.00000E+00 2.17296E-07
 -1        39-9.50672E+00 0.00000E+00 2.17296E-07
 -1        40-9.50672E+00 0.00000E+00 2.17296E-07
 -1        41-1.90134E+01 0.00000E+00 2.17296E-07
 -1        42-1.90134E+01 0.00000E+00 2.17296E-07
 -1        43 0.00000E+00-1.81080E-07 2.17296E-07
 -1        44-1.81080E-07-1.81080E-07 2.17296E-07
 -1        45-9.50672E+00-1.81080E-07 2.17296E-07
 -1        46-9.50672E+00-1.81080E-07 2.17296E-07
 -1        47-1.90134E+01-1.81080E-07 2.17296E-07
 -1        48-1.90134E+01-1.81080E-07 2.17296E-07
 -1        49 0.00000E+00-9.50672E+00 2.17296E-07
 -1        50-1.81080E-07-9.50672E+00 2.17296E-07
 -1        51-9.50672E+00-9.50672E+00 2.17296E-07
 -1        52-9.50672E+00-9.50672E+00 2.17296E-07
 -1        53-1.90134E+01-9.50672E+00 2.17296E-07
 -1        54-1.90134E+01-9.50672E+00 2.17296E-07
 -1        55 0.00000E+00-9.50672E+00 2.17296E-07
 -1        56-1.81080E-07-9.50672E+00 2.17296E-07
 -1        57-9.50672E+00-9.50672E+00 2.17296E-07
 -1        58-9.50672E+00-9.50672E+00 2.17296E-07
 -1        59-1.90134E+01-9.50672E+00 2.17296E-07
 -1        60-1.90134E+01-9.50672E+00 2.17296E-07
 -1        61 0.00000E+00-1.90134E+01 2.17296E-07
 -1        62-1.81080E-07-1.90134E+01 2.17296E-07
 -1        63-9.50672E+00-1.90134E+01 2.17296E-07
 -1        64-9.50672E+00-1.90134E+01 2.17296E-07
 -1        65-1.90134E+01-1.90134E+01 2.17296E-07
 -1        66-1.90134E+01-1.90134E+01 2.17296E-07
 -1        67 0.00000E+00-1.90134E+01 2.17296E-07
 -1        68-1.81080E-07-1.90134E+01 2.17296E-07
 -1        69-9.50672E+00-1.90134E+01 2.17296E-07
 -1        70-9.50672E+00-1.90134E+01 2.17296E-07
 -1        71-1.90134E+01-1.90134E+01 2.17296E-07
 -1        72-1.90134E+01-1.90134E+01 2.17296E-07
 -3
    1PSTEP                       224          75           1          
  100CL  175 6.33781E-01          72                     0   75           1
 -4  STRESS      6    1
 -5  SXX         1    4    1    1
 -5  SYY         1    4    2    2
 -5  SZZ         1    4    3    3
 -5  SXY         1    4    1    2
 -5  SYZ         1    4    2    3
 -5  SZX         1    4    3    1
 -1         1-1.08644E-04-1.08644E-04-5.26705E-21-7.17401E-22 1.51452E-22-3.59556E-22
 -1         2-5.43219E-05-5.43219E-05 1.09838E-20-2.48186E-20-1.03467E-22-8.51364E-21
 -1         3-5.43219E-05-5.43219E-05-6.20720E-14 4.47431E-14-3.17582E-20 1.09705E-13
 -1         4-5.43219E-05-5.43219E-05-4.86722E-14-4.56434E-14-1.45350E-19-2.96219E-13
 -1         5-5.43219E-05-5.43219E-05 2.18110E-13 2.43936E-13-3.95146E-19 6.94266E-14
 -1         6-1.08644E-04-1.08644E-04 4.64796E-13 2.00782E-13 3.84392E-19 2.09826E-13
 -1         7-5.43219E-05-5.43219E-05-9.34474E-21-8.18951E-21 9.91500E-22 2.51063E-22
 -1         8-3.62146E-05-3.62146E-05-1.44899E-19-2.17663E-20 1.40006E-20 2.48241E-20
 -1         9-3.62146E-05-3.62146E-05-2.70332E-14 1.02294E-16-1.20875E-14-6.05743E-14
 -1        10-3.62146E-05-3.62146E-05-1.32254E-13 2.18620E-14 1.24483E-14 2.05845E-13
 -1        11-3.62146E-05-3.62146E-05 9.25110E-14 3.53276E-15-3.49809E-14 2.40762E-14
 -1        12-5.43219E-05-5.43219E-05 2.42697E-13-6.13215E-14 7.80422E-14 7.53759E-14
 -1        13-5.43219E-05-5.43219E-05-1.77551E-13-1.75960E-14-1.32228E-13 3.02745E-21
 -1        14-3.62146E-05-3.62146E-05 1.58481E-14-1.16773E-14 1.44994E-13-4.89403E-16
 -1        15-3.62146E-05-3.62146E-05 1.63223E-14-1.60106E-13 7.48891E-15-1.08679E-13
 -1        16-3.62146E-05-3.62146E-05 1.34648E-13-8.20057E-14-1.31049E-13 4.30302E-14
 -1        17-3.62146E-05-3.62146E-05-3.12330E-14-2.13056E-13-2.55749E-14-1.07561E-13
 -1        18-5.43219E-05-5.43219E-05 5.25863E-13 9.33116E-14-3.18594E-13-3.47961E-13
 -1        19-5.43219E-05-5.43219E-05-8.07811E-15 3.94072E-14 1.40512E-13-1.04292E-20
 -1        20-3.62146E-05-3.62146E-05-3.56183E-14 2.63249E-14-2.00798E-14 1.30290E-15
 -1        21-3.62146E-05-3.62146E-05 8.86516E-14 2.50601E-14 8.77415E-14 2.94666E-15
 -1        22-3.62146E-05-3.62146E-05 2.73823E-13 1.97999E-13 8.29631E-14-1.64179E-14
 -1        23-3.62146E-05-3.62146E-05 5.69830E-14-1.05494E-13-3.84802E-14 8.98785E-15
 -1        24-5.43219E-05-5.43219E-05 2.11492E-13 3.31580E-13 2.26524E-13 2.04268E-13
 -1        25-5.43219E-05-5.43219E-05-1.79292E-13 7.47494E-14 3.68599E-14-4.65207E-19
 -1        26-3.62146E-05-3.62146E-05 2.07827E-14 3.81396E-14-3.08744E-13-5.23149E-15
 -1        27-3.62146E-05-3.62146E-05-2.70389E-13-6.67547E-14-1.61786E-13-8.23389E-15
 -1        28-3.62146E-05-3.62146E-05 1.32727E-13 2.81323E-14 9.56965E-14 1.98864E-14
 -1        29-3.62146E-05-3.62146E-05 1.90117E-13-1.81445E-14-1.48602E-13-1.50069E-13
 -1        30-5.43219E-05-5.43219E-05-1.06372E-13 4.22760E-13-2.01096E-13 3.35389E-14
 -1        31-1.08644E-04-1.08644E-04-2.35983E-13-4.00507E-14-6.17728E-13-1.18823E-19
 -1        32-5.43219E-05-5.43219E-05 2.42734E-13-3.75653E-14 9.15810E-14 4.64575E-14
 -1        33-5.43219E-05-5.43219E-05 1.32335E-13-6.95256E-14 3.92175E-13 2.27551E-13
 -1        34-5.43219E-05-5.43219E-05 1.98605E-13-7.20280E-14-1.11031E-13-4.22290E-15
 -1        35-5.43219E-05-5.43219E-05-7.04925E-14-1.10090E-13 3.52768E-13 3.29556E-13
 -1        36-1.08644E-04-1.08644E-04 1.22403E-12 5.67139E-13 2.17207E-13 2.69115E-13
 -1        37-1.08644E-04-1.08644E-04-1.41276E-19-2.06990E-22 5.78226E-20 4.53166E-20
 -1        38-5.43219E-05-5.43219E-05 6.69438E-20 4.19855E-20-8.31985E-20 1.40379E-20
 -1        39-5.43219E-05-5.43219E-05-1.31226E-13-1.19250E-13 3.92413E-14-2.73566E-14
 -1        40-5.43219E-05-5.43219E-05-4.05384E-14-7.79815E-15-2.92510E-14 2.93460E-13
 -1        41-5.43219E-05-5.43219E-05 9.02279E-14-3.52454E-13-2.46605E-14 3.43232E-13
 -1        42-1.08644E-04-1.08644E-04 7.57187E-13-2.07653E-13 2.23935E-14-1.80759E-13
 -1        43-5.43219E-05-5.43219E-05 8.72723E-20 2.37743E-20 2.55491E-20-9.03305E-20
 -1        44-3.62146E-05-3.62146E-05-6.82637E-20 4.39088E-20-4.06319E-20-3.48506E-20
 -1        45-3.62146E-05-3.62146E-05-4.68652E-14-7.16709E-14 1.40734E-14-2.09407E-15
 -1        46-3.62146E-05-3.62146E-05-1.00560E-13 6.94802E-14-7.05227E-15-1.76384E-13
 -1        47-3.62146E-05-3.62146E-05-4.39346E-13 5.92552E-14-5.14210E-14-1.52269E-13
 -1        48-5.43219E-05-5.43219E-05-2.81011E-13 5.04206E-14 8.92388E-14 6.97891E-14
 -1        49-5.43219E-05-5.43219E-05 3.75857E-13 3.94073E-14 1.41109E-14 2.84961E-15
 -1        50-3.62146E-05-3.62146E-05-8.43105E-14 2.88341E-14-1.08587E-13 1.41034E-15
 -1        51-3.62146E-05-3.62146E-05-2.12530E-13-2.14051E-13-1.34579E-13 6.68590E-14
 -1        52-3.62146E-05-3.62146E-05 1.51847E-13 3.76994E-14 1.28728E-13 9.12789E-14
 -1        53-3.62146E-05-3.62146E-05-6.48158E-14-7.21842E-14 6.27415E-14 3.54440E-13
 -1        54-5.43219E-05-5.43219E-05 3.51475E-13 1.45108E-13-6.59644E-14-1.44487E-13
 -1        55-5.43219E-05-5.43219E-05-3.10294E-13-2.45109E-13 9.48840E-14-3.50993E-15
 -1        56-3.62146E-05-3.62146E-05 2.18358E-14-1.60843E-13 3.82121E-14-1.03704E-15
 -1        57-3.62146E-05-3.62146E-05 1.32122E-13-1.70483E-13 3.56480E-14 9.16016E-14
 -1        58-3.62146E-05-3.62146E-05 5.17844E-13 1.00269E-13-1.58809E-13-1.15722E-13
 -1        59-3.62146E-05-3.62146E-05 6.40093E-15-1.14747E-13-3.00669E-13 2.35614E-14
 -1        60-5.43219E-05-5.43219E-05 3.18742E-13-2.05827E-13 2.03655E-13-3.08901E-13
 -1        61-5.43219E-05-5.43219E-05-4.69382E-13-5.05385E-13-4.72485E-13-3.38820E-14
 -1        62-3.62146E-05-3.62146E-05 1.16367E-13-2.97933E-13 4.45842E-14-2.78192E-14
 -1        63-3.62146E-05-3.62146E-05-2.01739E-13-5.56031E-14-2.14119E-13 9.17140E-14
 -1        64-3.62146E-05-3.62146E-05-2.07451E-13-1.34869E-14-4.62523E-14-1.50386E-15
 -1        65-3.62146E-05-3.62146E-05 1.89426E-13-8.39667E-14 5.22618E-14 4.50509E-14
 -1        66-5.43219E-05-5.43219E-05 7.17288E-13-2.31433E-13 4.43079E-14 2.92909E-13
 -1        67-1.08644E-04-1.08644E-04-5.88084E-13 2.70839E-13 5.84756E-13 5.24444E-14
 -1        68-5.43219E-05-5.43219E-05 5.00150E-13 1.93906E-13-4.24113E-14 7.26798E-14
 -1        69-5.43219E-05-5.43219E-05-6.26831E-14-1.05684E-13 5.47422E-14 1.09810E-13
 -1        70-5.43219E-05-5.43219E-05-1.31886E-13 6.29176E-14 1.45143E-13 6.00425E-14
 -1        71-5.43219E-05-5.43219E-05-1.09892E-12 6.80605E-13-2.16134E-13 3.71555E-14
 -1        72-1.08644E-04-1.08644E-04-2.75476E-13-4.18448E-13 2.41670E-13-5.64314E-13
 -3
    1PSTEP                       225          75           1          
  100CL  175 6.33781E-01          72                     0   75           1
 -4  TOSTRAIN    6    1
 -5  EXX         1    4    1    1
 -5  EYY         1    4    2    2
 -5  EZZ         1    4    3    3
 -5  EXY         1    4    1    2
 -5  EYZ         1    4    2    3
 -5  EZX         1    4    3    1
 -1         1-3.62146E-10-3.62146E-10 3.10411E-10-4.44106E-27 9.37559E-28-2.22582E-27
 -1         2-1.81073E-10-1.81073E-10 1.55206E-10-1.53639E-25-6.40510E-28-5.27035E-26
 -1         3-1.81073E-10-1.81073E-10 1.55206E-10 2.76981E-19-1.96598E-25 6.79128E-19
 -1         4-1.81073E-10-1.81073E-10 1.55206E-10-2.82554E-19-8.99786E-25-1.83374E-18
 -1         5-1.81073E-10-1.81073E-10 1.55206E-10 1.51008E-18-2.44614E-24 4.29784E-19
 -1         6-3.62146E-10-3.62146E-10 3.10411E-10 1.24293E-18 2.37957E-24 1.29892E-18
 -1         7-1.81073E-10-1.81073E-10 1.55206E-10-5.06970E-26 6.13786E-27 1.55420E-27
 -1         8-1.20715E-10-1.20715E-10 1.03470E-10-1.34744E-25 8.66701E-26 1.53673E-25
 -1         9-1.20715E-10-1.20715E-10 1.03470E-10 6.33250E-22-7.48272E-20-3.74984E-19
 -1        10-1.20715E-10-1.20715E-10 1.03470E-10 1.35336E-19 7.70609E-20 1.27428E-18
 -1        11-1.20715E-10-1.20715E-10 1.03470E-10 2.18694E-20-2.16548E-19 1.49043E-19
 -1        12-1.81073E-10-1.81073E-10 1.55206E-10-3.79609E-19 4.83118E-19 4.66613E-19
 -1        13-1.81073E-10-1.81073E-10 1.55206E-10-1.08928E-19-8.18553E-19 1.87413E-26
 -1        14-1.20715E-10-1.20715E-10 1.03470E-10-7.22882E-20 8.97582E-19-3.02964E-21
 -1        15-1.20715E-10-1.20715E-10 1.03470E-10-9.91135E-19 4.63600E-20-6.72777E-19
 -1        16-1.20715E-10-1.20715E-10 1.03470E-10-5.07655E-19-8.11253E-19 2.66377E-19
 -1        17-1.20715E-10-1.20715E-10 1.03470E-10-1.31892E-18-1.58321E-19-6.65856E-19
 -1        18-1.81073E-10-1.81073E-10 1.55206E-10 5.77643E-19-1.97225E-18-2.15405E-18
 -1        19-1.81073E-10-1.81073E-10 1.55206E-10 2.43950E-19 8.69838E-19-6.45618E-26
 -1        20-1.20715E-10-1.20715E-10 1.03470E-10 1.62963E-19-1.24303E-19 8.06556E-21
 -1        21-1.20715E-10-1.20715E-10 1.03470E-10 1.55134E-19 5.43162E-19 1.82413E-20
 -1        22-1.20715E-10-1.20715E-10 1.03470E-10 1.22571E-18 5.13581E-19-1.01635E-19
 -1        23-1.20715E-10-1.20715E-10 1.03470E-10-6.53057E-19-2.38211E-19 5.56391E-20
 -1        24-1.81073E-10-1.81073E-10 1.55206E-10 2.05264E-18 1.40229E-18 1.26452E-18
 -1        25-1.81073E-10-1.81073E-10 1.55206E-10 4.62735E-19 2.28180E-19-2.87986E-24
 -1        26-1.20715E-10-1.20715E-10 1.03470E-10 2.36102E-19-1.91127E-18-3.23854E-20
 -1        27-1.20715E-10-1.20715E-10 1.03470E-10-4.13244E-19-1.00153E-18-5.09717E-20
 -1        28-1.20715E-10-1.20715E-10 1.03470E-10 1.74153E-19 5.92407E-19 1.23106E-19
 -1        29-1.20715E-10-1.20715E-10 1.03470E-10-1.12323E-19-9.19915E-19-9.29001E-19
 -1        30-1.81073E-10-1.81073E-10 1.55206E-10 2.61709E-18-1.24488E-18 2.07622E-19
 -1        31-3.62146E-10-3.62146E-10 3.10411E-10-2.47933E-19-3.82403E-18-7.35573E-25
 -1        32-1.81073E-10-1.81073E-10 1.55206E-10-2.32547E-19 5.66930E-19 2.87594E-19
 -1        33-1.81073E-10-1.81073E-10 1.55206E-10-4.30397E-19 2.42775E-18 1.40865E-18
 -1        34-1.81073E-10-1.81073E-10 1.55206E-10-4.45888E-19-6.87334E-19-2.61418E-20
 -1        35-1.81073E-10-1.81073E-10 1.55206E-10-6.81512E-19 2.18380E-18 2.04011E-18
 -1        36-3.62146E-10-3.62146E-10 3.10411E-10 3.51086E-18 1.34462E-18 1.66595E-18
 -1        37-3.62146E-10-3.62146E-10 3.10411E-10-1.28137E-27 3.57949E-25 2.80532E-25
 -1        38-1.81073E-10-1.81073E-10 1.55206E-10 2.59910E-25-5.15038E-25 8.69012E-26
 -1        39-1.81073E-10-1.81073E-10 1.55206E-10-7.38213E-19 2.42923E-19-1.69350E-19
 -1        40-1.81073E-10-1.81073E-10 1.55206E-10-4.82743E-20-1.81078E-19 1.81666E-18
 -1        41-1.81073E-10-1.81073E-10 1.55206E-10-2.18186E-18-1.52660E-19 2.12477E-18
 -1        42-3.62146E-10-3.62146E-10 3.10411E-10-1.28547E-18 1.38627E-19-1.11898E-18
 -1        43-1.81073E-10-1.81073E-10 1.55206E-10 1.47174E-25 1.58161E-25-5.59189E-25
 -1        44-1.20715E-10-1.20715E-10 1.03470E-10 2.71817E-25-2.51531E-25-2.15742E-25
 -1        45-1.20715E-10-1.20715E-10 1.03470E-10-4.43677E-19 8.71213E-20-1.29633E-20
 -1        46-1.20715E-10-1.20715E-10 1.03470E-10 4.30116E-19-4.36569E-20-1.09190E-18
 -1        47-1.20715E-10-1.20715E-10 1.03470E-10 3.66818E-19-3.18320E-19-9.42620E-19
 -1        48-1.81073E-10-1.81073E-10 1.55206E-10 3.12127E-19 5.52430E-19 4.32028E-19
 -1        49-1.81073E-10-1.81073E-10 1.55206E-10 2.43950E-19 8.73530E-20 1.76404E-20
 -1        50-1.20715E-10-1.20715E-10 1.03470E-10 1.78497E-19-6.72205E-19 8.73065E-21
 -1        51-1.20715E-10-1.20715E-10 1.03470E-10-1.32508E-18-8.33110E-19 4.13889E-19
 -1        52-1.20715E-10-1.20715E-10 1.03470E-10 2.33377E-19 7.96888E-19 5.65060E-19
 -1        53-1.20715E-10-1.20715E-10 1.03470E-10-4.46855E-19 3.88400E-19 2.19415E-18
 -1        54-1.81073E-10-1.81073E-10 1.55206E-10 8.98288E-19-4.08351E-19-8.94443E-19
 -1        55-1.81073E-10-1.81073E-10 1.55206E-10-1.51734E-18 5.87377E-19-2.17281E-20
 -1        56-1.20715E-10-1.20715E-10 1.03470E-10-9.95696E-19 2.36551E-19-6.41980E-21
 -1        57-1.20715E-10-1.20715E-10 1.03470E-10-1.05537E-18 2.20678E-19 5.67057E-19
 -1        58-1.20715E-10-1.20715E-10 1.03470E-10 6.20715E-19-9.83105E-19-7.16373E-19
 -1        59-1.20715E-10-1.20715E-10 1.03470E-10-7.10341E-19-1.86129E-18 1.45857E-19
 -1        60-1.81073E-10-1.81073E-10 1.55206E-10-1.27417E-18 1.26072E-18-1.91224E-18
 -1        61-1.81073E-10-1.81073E-10 1.55206E-10-3.12858E-18-2.92490E-18-2.09746E-19
 -1        62-1.20715E-10-1.20715E-10 1.03470E-10-1.84435E-18 2.75997E-19-1.72214E-19
 -1        63-1.20715E-10-1.20715E-10 1.03470E-10-3.44210E-19-1.32550E-18 5.67753E-19
 -1        64-1.20715E-10-1.20715E-10 1.03470E-10-8.34901E-20-2.86324E-19-9.30962E-21
 -1        65-1.20715E-10-1.20715E-10 1.03470E-10-5.19794E-19 3.23526E-19 2.78887E-19
 -1        66-1.81073E-10-1.81073E-10 1.55206E-10-1.43268E-18 2.74287E-19 1.81325E-18
 -1        67-3.62146E-10-3.62146E-10 3.10411E-10 1.67663E-18 3.61992E-18 3.24656E-19
 -1        68-1.81073E-10-1.81073E-10 1.55206E-10 1.20037E-18-2.62546E-19 4.49922E-19
 -1        69-1.81073E-10-1.81073E-10 1.55206E-10-6.54233E-19 3.38880E-19 6.79773E-19
 -1        70-1.81073E-10-1.81073E-10 1.55206E-10 3.89490E-19 8.98506E-19 3.71692E-19
 -1        71-1.81073E-10-1.81073E-10 1.55206E-10 4.21327E-18-1.33797E-18 2.30010E-19
 -1        72-3.62146E-10-3.62146E-10 3.10411E-10-2.59039E-18 1.49605E-18-3.49337E-18
 -3
    1PSTEP                       226          76           1          
  100CL  176 6.42781E-01          72                     0   76           1
 -4  DISP        4    1
 -5  D1          1    2    1    0
 -5  D2          1    2    2    0
 -5  D3          1    2    3    0
 -5  ALL         1    2    0    0    1ALL
 -1         1 0.00000E+00 0.00000E+00 0.00000E+00
 -1         2-1.83652E-07 0.00000E+00 0.00000E+00
 -1         3-9.64172E+00 0.00000E+00 0.00000E+00
 -1         4-9.64172E+00 0.00000E+00 0.00000E+00
 -1         5-1.92834E+01 0.00000E+00 0.00000E+00
 -1         6-1.92834E+01 0.00000E+00 0.00000E+00
 -1         7 0.00000E+00-1.83652E-07 0.00000E+00
 -1         8-1.83652E-07-1.83652E-07 0.00000E+00
 -1         9-9.64172E+00-1.83652E-07 0.00000E+00
 -1        10-9.64172E+00-1.83652E-07 0.00000E+00
 -1        11-1.92834E+01-1.83652E-07 0.00000E+00
 -1        12-1.92834E+01-1.83652E-07 0.00000E+00
 -1        13 0.00000E+00-9.64172E+00 0.00000E+00
 -1        14-1.83652E-07-9.64172E+00 0.00000E+00
 -1        15-9.64172E+00-9.64172E+00 0.00000E+00
 -1        16-9.64172E+00-9.64172E+00 0.00000E+00
 -1        17-1.92834E+01-9.64172E+00 0.00000E+00
 -1        18-1.92834E+01-9.64172E+00 0.00000E+00
 -1        19 0.00000E+00-9.64172E+00 0.00000E+00
 -1        20-1.83652E-07-9.64172E+00 0.00000E+00
 -1        21-9.64172E+00-9.64172E+00 0.00000E+00
 -1        22-9.64172E+00-9.64172E+00 0.00000E+00
 -1        23-1.92834E+01-9.64172E+00 0.00000E+00
 -1        24-1.92834E+01-9.64172E+00 0.00000E+00
 -1        25 0.00000E+00-1.92834E+01 0.00000E+00
 -1        26-1.83652E-07-1.92834E+01 0.00000E+00
 -1        27-9.64172E+00-1.92834E+01 0.00000E+00
 -1        28-9.64172E+00-1.92834E+01 0.00000E+00
 -1        29-1.92834E+01-1.92834E+01 0.00000E+00
 -1        30-1.92834E+01-1.92834E+01 0.00000E+00
 -1        31 0.00000E+00-1.92834E+01 0.00000E+00
 -1        32-1.83652E-07-1.92834E+01 0.00000E+00
 -1        33-9.64172E+00-1.92834E+01 0.00000E+00
 -1        34-9.64172E+00-1.92834E+01 0.00000E+00
 -1        35-1.92834E+01-1.92834E+01 0.00000E+00
 -1        36-1.92834E+01-1.92834E+01 0.00000E+00
 -1        37 0.00000E+00 0.00000E+00 2.20382E-07
 -1        38-1.83652E-07 0.00000E+00 2.20382E-07
 -1        39-9.64172E+00 0.00000E+00 2.20382E-07
 -1        40-9.64172E+00 0.00000E+00 2.20382E-07
 -1        41-1.92834E+01 0.00000E+00 2.20382E-07
 -1        42-1.92834E+01 0.00000E+00 2.20382E-07
 -1        43 0.00000E+00-1.83652E-07 2.20382E-07
 -1        44-1.83652E-07-1.83652E-07 2.20382E-07
 -1        45-9.64172E+00-1.83652E-07 2.20382E-07
 -1        46-9.64172E+00-1.83652E-07 2.20382E-07
 -1        47-1.92834E+01-1.83652E-07 2.20382E-07
 -1        48-1.92834E+01-1.83652E-07 2.20382E-07
 -1        49 0.00000E+00-9.64172E+00 2.20382E-07
 -1        50-1.83652E-07-9.64172E+00 2.20382E-07
 -1        51-9.64172E+00-9.64172E+00 2.20382E-07
 -1        52-9.64172E+00-9.64172E+00 2.20382E-07
 -1        53-1.92834E+01-9.64172E+00 2.20382E-07
 -1        54-1.92834E+01-9.64172E+00 2.20382E-07
 -1        55 0.00000E+00-9.64172E+00 2.20382E-07
 -1        56-1.83652E-07-9.64172E+00 2.20382E-07
 -1        57-9.64172E+00-9.64172E+00 2.20382E-07
 -1        58-9.64172E+00-9.64172E+00 2.20382E-07
 -1        59-1.92834E+01-9.64172E+00 2.20382E-07
 -1        60-1.92834E+01-9.64172E+00 2.20382E-07
 -1        61 0.00000E+00-1.92834E+01 2.20382E-07
 -1        62-1.83652E-07-1.92834E+01 2.20382E-07
 -1        63-9.64172E+00-1.92834E+01 2.20382E-07
 -1        64-9.64172E+00-1.92834E+01 2.20382E-07
 -1        65-1.92834E+01-1.92834E+01 2.20382E-07
 -1        66-1.92834E+01-1.92834E+01 2.20382E-07
 -1        67 0.00000E+00-1.92834E+01 2.20382E-07
 -1        68-1.83652E-07-1.92834E+01 2.20382E-07
 -1        69-9.64172E+00-1.92834E+01 2.20382E-07
 -1        70-9.64172E+00-1.92834E+01 2.20382E-07
 -1        71-1.92834E+01-1.92834E+01 2.20382E-07
 -1        72-1.92834E+01-1.92834E+01 2.20382E-07
 -3
    1PSTEP                       227          76           1          
  100CL  176 6.42781E-01          72                     0   76           1
 -4  STRESS      6    1
 -5  SXX         1    4    1    1
 -5  SYY         1    4    2    2
 -5  SZZ         1    4    3    3
 -5  SXY         1    4    1    2
 -5  SYZ         1    4    2    3
 -5  SZX         1    4    3    1
 -1         1-1.10187E-04-1.10187E-04-5.26993E-20 2.76973E-22 1.91371E-21-4.68844E-22
 -1         2-5.50933E-05-5.50933E-05 4.90959E-20 5.23193E-21 4.10511E-22-1.21747E-20
 -1         3-5.50933E-05-5.50933E-05 1.67227E-14 3.90337E-14-9.27198E-20 1.22203E-14
 -1         4-5.50933E-05-5.50933E-05 7.43759E-14 1.25157E-13-1.65776E-19 2.41488E-13
 -1         5-5.50933E-05-5.50933E-05-3.83875E-14-3.91858E-13-4.58842E-20-2.03241E-13
 -1         6-1.10187E-04-1.10187E-04-5.28147E-13-2.45022E-13 9.61276E-20 2.35409E-13
 -1         7-5.50933E-05-5.50933E-05 4.45065E-21-4.87546E-20-6.89915E-21-1.24716E-22
 -1         8-3.67289E-05-3.67289E-05-1.54981E-19-2.83432E-20 3.98867E-20-6.73847E-21
 -1         9-3.67289E-05-3.67289E-05 3.13110E-14 1.21508E-14-6.96342E-15 1.52731E-13
 -1        10-3.67289E-05-3.67289E-05-1.36077E-14-7.14028E-14 1.18891E-14-2.38499E-13
 -1        11-3.67289E-05-3.67289E-05 3.08021E-13-3.24756E-13-2.37357E-14 2.61275E-13
 -1        12-5.50933E-05-5.50933E-05 1.64500E-13 1.25619E-13 1.91445E-14-1.42572E-13
 -1        13-5.50933E-05-5.50933E-05 1.36276E-14-3.73747E-14-9.76161E-14 1.87358E-20
 -1        14-3.67289E-05-3.67289E-05-4.63881E-14-2.05310E-14 1.56554E-13 9.82197E-15
 -1        15-3.67289E-05-3.67289E-05 1.36581E-13 2.27137E-14-6.82909E-14 1.68369E-14
 -1        16-3.67289E-05-3.67289E-05-2.30124E-13 2.73227E-14 2.10436E-14 3.25322E-15
 -1        17-3.67289E-05-3.67289E-05 7.81504E-14-1.12792E-13 7.26216E-14 8.17519E-14
 -1        18-5.50933E-05-5.50933E-05-9.49756E-14 9.56967E-14-1.16474E-13-1.70558E-13
 -1        19-5.50933E-05-5.50933E-05 4.27057E-14 1.00127E-14 2.52576E-13-5.56652E-20
 -1        20-3.67289E-05-3.67289E-05-1.62275E-14 1.10606E-14-4.48540E-14-8.54864E-15
 -1        21-3.67289E-05-3.67289E-05 6.00191E-14-2.44579E-14 2.96676E-14 1.33616E-13
 -1        22-3.67289E-05-3.67289E-05 1.48202E-13-2.07075E-14-4.80672E-14-3.10116E-14
 -1        23-3.67289E-05-3.67289E-05-5.78551E-14-4.67041E-14 8.16735E-15-2.58715E-14
 -1        24-5.50933E-05-5.50933E-05-4.60316E-14 1.17904E-13-1.23440E-13 6.79072E-14
 -1        25-5.50933E-05-5.50933E-05-2.18318E-13-6.19247E-14-1.29980E-13-5.63062E-19
 -1        26-3.67289E-05-3.67289E-05 8.36615E-14-5.82995E-14 1.91220E-13-1.57913E-14
 -1        27-3.67289E-05-3.67289E-05-1.38816E-14-1.32326E-13-3.02316E-13-1.62462E-13
 -1        28-3.67289E-05-3.67289E-05-4.88187E-14-3.30113E-14 4.20100E-14 5.57942E-14
 -1        29-3.67289E-05-3.67289E-05 1.27763E-13-8.54592E-15-1.69872E-13-1.44957E-13
 -1        30-5.50933E-05-5.50933E-05-3.78275E-13 6.05775E-13-1.42686E-13 1.32215E-13
 -1        31-1.10187E-04-1.10187E-04-6.86932E-13 4.19035E-14-5.60840E-13 4.13869E-19
 -1        32-5.50933E-05-5.50933E-05 3.58074E-13-4.57277E-15-3.56402E-13 5.11351E-14
 -1        33-5.50933E-05-5.50933E-05 1.98090E-14-1.92268E-13 4.08599E-13 2.65156E-13
 -1        34-5.50933E-05-5.50933E-05 2.54744E-13-4.45835E-14 6.00419E-14-1.94126E-13
 -1        35-5.50933E-05-5.50933E-05-1.51414E-13-2.95557E-13 9.48393E-14 3.60565E-14
 -1        36-1.10187E-04-1.10187E-04 1.49050E-12 1.84528E-13-1.21797E-13 9.49036E-14
 -1        37-1.10187E-04-1.10187E-04-1.24579E-19-4.86058E-23 6.65348E-21 1.01380E-19
 -1        38-5.50933E-05-5.50933E-05 1.27687E-19 1.09130E-20-1.04537E-19 3.87496E-20
 -1        39-5.50933E-05-5.50933E-05-1.86547E-15-5.18979E-14 2.89599E-14 1.89859E-13
 -1        40-5.50933E-05-5.50933E-05 1.15173E-13-3.27394E-14-2.10527E-14-4.23320E-14
 -1        41-5.50933E-05-5.50933E-05 3.30870E-13 2.54497E-13 2.25574E-14-1.66137E-13
 -1        42-1.10187E-04-1.10187E-04 4.40310E-13-1.05019E-12-1.23608E-14 8.58039E-13
 -1        43-5.50933E-05-5.50933E-05-3.89296E-20 3.91339E-20 4.02668E-21-6.07676E-20
 -1        44-3.67289E-05-3.67289E-05-8.40748E-20 3.05288E-20-3.16067E-20-4.71671E-20
 -1        45-3.67289E-05-3.67289E-05-9.92993E-14 1.08418E-13 1.23432E-14-7.85812E-14
 -1        46-3.67289E-05-3.67289E-05-1.04628E-13 2.57234E-14-2.14589E-15 5.67500E-14
 -1        47-3.67289E-05-3.67289E-05-1.28846E-13 1.05962E-13-8.69741E-15-1.28296E-13
 -1        48-5.50933E-05-5.50933E-05-3.75829E-13 8.67714E-14 1.29640E-14-1.34205E-13
 -1        49-5.50933E-05-5.50933E-05 3.21746E-13 2.52693E-13-5.20139E-14-3.09758E-15
 -1        50-3.67289E-05-3.67289E-05 1.45889E-13 1.47128E-13 7.16448E-14 7.75690E-15
 -1        51-3.67289E-05-3.67289E-05 1.70165E-13-1.09185E-13 9.53376E-15 7.51611E-15
 -1        52-3.67289E-05-3.67289E-05 2.85348E-13 8.40522E-15-9.65153E-14-9.58127E-14
 -1        53-3.67289E-05-3.67289E-05 3.57115E-13 3.81554E-14-1.20625E-13 2.69321E-14
 -1        54-5.50933E-05-5.50933E-05-7.05897E-14-7.00547E-14-1.20873E-13 2.52195E-13
 -1        55-5.50933E-05-5.50933E-05 2.92956E-13-6.77098E-14 2.50100E-13 3.36743E-15
 -1        56-3.67289E-05-3.67289E-05 1.37471E-13-6.64732E-14-1.01425E-14-6.30365E-15
 -1        57-3.67289E-05-3.67289E-05-1.55994E-14-1.57215E-13-1.03362E-13-8.13336E-14
 -1        58-3.67289E-05-3.67289E-05 7.67026E-14 5.01812E-15 1.24040E-13 8.89776E-14
 -1        59-3.67289E-05-3.67289E-05 1.68568E-13-1.70946E-14 7.61397E-14-8.64047E-14
 -1        60-5.50933E-05-5.50933E-05-1.00458E-13 1.34160E-13 1.50235E-13-2.91440E-13
 -1        61-5.50933E-05-5.50933E-05-1.05066E-14-1.61058E-13 1.07894E-14-7.47037E-14
 -1        62-3.67289E-05-3.67289E-05-3.03212E-13-5.45551E-14-2.10774E-13-6.55934E-14
 -1        63-3.67289E-05-3.67289E-05-1.39286E-13-2.71946E-14-9.03440E-14 1.04122E-13
 -1        64-3.67289E-05-3.67289E-05-2.60074E-13 1.67588E-13 1.66548E-13-1.40768E-13
 -1        65-3.67289E-05-3.67289E-05 3.44393E-14 1.01953E-13 6.64390E-14-3.37629E-13
 -1        66-5.50933E-05-5.50933E-05 5.53697E-13-7.20243E-13 9.65181E-14 2.40531E-13
 -1        67-1.10187E-04-1.10187E-04 4.29405E-14-3.66529E-13 7.31687E-13 1.36778E-13
 -1        68-5.50933E-05-5.50933E-05-6.51110E-14-1.04039E-13 1.37624E-13 1.19524E-13
 -1        69-5.50933E-05-5.50933E-05 1.81739E-14-3.64242E-13 1.91350E-14-1.88997E-13
 -1        70-5.50933E-05-5.50933E-05-1.21744E-14-5.10411E-15-9.65585E-14 2.04064E-13
 -1        71-5.50933E-05-5.50933E-05 6.22934E-13 5.97495E-14-1.33802E-13 8.68043E-14
 -1        72-1.10187E-04-1.10187E-04-1.23264E-12 9.56939E-14-2.63581E-13-2.83002E-13
 -3
    1PSTEP                       228          76           1          
  100CL  176 6.42781E-01          72                     0   76           1
 -4  TOSTRAIN    6    1
 -5  EXX         1    4    1    1
 -5  EYY         1    4    2    2
 -5  EZZ         1    4    3    3
 -5  EXY         1    4    1    2
 -5  EYZ         1    4    2    3
 -5  EZX         1    4    3    1
 -1         1-3.67289E-10-3.67289E-10 3.14819E-10 1.71459E-27 1.18468E-26-2.90237E-27
 -1         2-1.83644E-10-1.83644E-10 1.57410E-10 3.23881E-26 2.54126E-27-7.53674E-26
 -1         3-1.83644E-10-1.83644E-10 1.57410E-10 2.41637E-19-5.73980E-25 7.56496E-20
 -1         4-1.83644E-10-1.83644E-10 1.57410E-10 7.74780E-19-1.02623E-24 1.49492E-18
 -1         5-1.83644E-10-1.83644E-10 1.57410E-10-2.42579E-18-2.84045E-25-1.25816E-18
 -1         6-3.67289E-10-3.67289E-10 3.14819E-10-1.51680E-18 5.95076E-25 1.45730E-18
 -1         7-1.83644E-10-1.83644E-10 1.57410E-10-3.01814E-25-4.27090E-26-7.72050E-28
 -1         8-1.22430E-10-1.22430E-10 1.04940E-10-1.75458E-25 2.46918E-25-4.17143E-26
 -1         9-1.22430E-10-1.22430E-10 1.04940E-10 7.52194E-20-4.31069E-20 9.45475E-19
 -1        10-1.22430E-10-1.22430E-10 1.04940E-10-4.42017E-19 7.35994E-20-1.47643E-18
 -1        11-1.22430E-10-1.22430E-10 1.04940E-10-2.01040E-18-1.46935E-19 1.61742E-18
 -1        12-1.83644E-10-1.83644E-10 1.57410E-10 7.77643E-19 1.18513E-19-8.82586E-19
 -1        13-1.83644E-10-1.83644E-10 1.57410E-10-2.31367E-19-6.04290E-19 1.15984E-25
 -1        14-1.22430E-10-1.22430E-10 1.04940E-10-1.27097E-19 9.69144E-19 6.08027E-20
 -1        15-1.22430E-10-1.22430E-10 1.04940E-10 1.40609E-19-4.22753E-19 1.04228E-19
 -1        16-1.22430E-10-1.22430E-10 1.04940E-10 1.69141E-19 1.30270E-19 2.01390E-20
 -1        17-1.22430E-10-1.22430E-10 1.04940E-10-6.98238E-19 4.49562E-19 5.06083E-19
 -1        18-1.83644E-10-1.83644E-10 1.57410E-10 5.92408E-19-7.21029E-19-1.05584E-18
 -1        19-1.83644E-10-1.83644E-10 1.57410E-10 6.19834E-20 1.56356E-18-3.44594E-25
 -1        20-1.22430E-10-1.22430E-10 1.04940E-10 6.84702E-20-2.77668E-19-5.29202E-20
 -1        21-1.22430E-10-1.22430E-10 1.04940E-10-1.51406E-19 1.83657E-19 8.27144E-19
 -1        22-1.22430E-10-1.22430E-10 1.04940E-10-1.28190E-19-2.97559E-19-1.91977E-19
 -1        23-1.22430E-10-1.22430E-10 1.04940E-10-2.89121E-19 5.05598E-20-1.60157E-19
 -1        24-1.83644E-10-1.83644E-10 1.57410E-10 7.29885E-19-7.64150E-19 4.20378E-19
 -1        25-1.83644E-10-1.83644E-10 1.57410E-10-3.83343E-19-8.04637E-19-3.48562E-24
 -1        26-1.22430E-10-1.22430E-10 1.04940E-10-3.60901E-19 1.18374E-18-9.77557E-20
 -1        27-1.22430E-10-1.22430E-10 1.04940E-10-8.19163E-19-1.87148E-18-1.00572E-18
 -1        28-1.22430E-10-1.22430E-10 1.04940E-10-2.04355E-19 2.60062E-19 3.45393E-19
 -1        29-1.22430E-10-1.22430E-10 1.04940E-10-5.29033E-20-1.05159E-18-8.97352E-19
 -1        30-1.83644E-10-1.83644E-10 1.57410E-10 3.75004E-18-8.83295E-19 8.18473E-19
 -1        31-3.67289E-10-3.67289E-10 3.14819E-10 2.59403E-19-3.47187E-18 2.56204E-24
 -1        32-1.83644E-10-1.83644E-10 1.57410E-10-2.83076E-20-2.20630E-18 3.16551E-19
 -1        33-1.83644E-10-1.83644E-10 1.57410E-10-1.19023E-18 2.52942E-18 1.64144E-18
 -1        34-1.83644E-10-1.83644E-10 1.57410E-10-2.75993E-19 3.71688E-19-1.20173E-18
 -1        35-1.83644E-10-1.83644E-10 1.57410E-10-1.82964E-18 5.87100E-19 2.23207E-19
 -1        36-3.67289E-10-3.67289E-10 3.14819E-10 1.14232E-18-7.53979E-19 5.87499E-19
 -1        37-3.67289E-10-3.67289E-10 3.14819E-10-3.00893E-28 4.11882E-26 6.27589E-25
 -1        38-1.83644E-10-1.83644E-10 1.57410E-10 6.75565E-26-6.47134E-25 2.39878E-25
 -1        39-1.83644E-10-1.83644E-10 1.57410E-10-3.21272E-19 1.79276E-19 1.17531E-18
 -1        40-1.83644E-10-1.83644E-10 1.57410E-10-2.02673E-19-1.30326E-19-2.62055E-19
 -1        41-1.83644E-10-1.83644E-10 1.57410E-10 1.57546E-18 1.39641E-19-1.02847E-18
 -1        42-3.67289E-10-3.67289E-10 3.14819E-10-6.50119E-18-7.65195E-20 5.31167E-18
 -1        43-1.83644E-10-1.83644E-10 1.57410E-10 2.42258E-25 2.49271E-26-3.76181E-25
 -1        44-1.22430E-10-1.22430E-10 1.04940E-10 1.88988E-25-1.95660E-25-2.91987E-25
 -1        45-1.22430E-10-1.22430E-10 1.04940E-10 6.71161E-19 7.64105E-20-4.86455E-19
 -1        46-1.22430E-10-1.22430E-10 1.04940E-10 1.59240E-19-1.32841E-20 3.51310E-19
 -1        47-1.22430E-10-1.22430E-10 1.04940E-10 6.55958E-19-5.38411E-20-7.94212E-19
 -1        48-1.83644E-10-1.83644E-10 1.57410E-10 5.37156E-19 8.02534E-20-8.30791E-19
 -1        49-1.83644E-10-1.83644E-10 1.57410E-10 1.56429E-18-3.21991E-19-1.91755E-20
 -1        50-1.22430E-10-1.22430E-10 1.04940E-10 9.10795E-19 4.43515E-19 4.80189E-20
 -1        51-1.22430E-10-1.22430E-10 1.04940E-10-6.75906E-19 5.90185E-20 4.65283E-20
 -1        52-1.22430E-10-1.22430E-10 1.04940E-10 5.20323E-20-5.97476E-19-5.93126E-19
 -1        53-1.22430E-10-1.22430E-10 1.04940E-10 2.36200E-19-7.46728E-19 1.66722E-19
 -1        54-1.83644E-10-1.83644E-10 1.57410E-10-4.33672E-19-7.48262E-19 1.56121E-18
 -1        55-1.83644E-10-1.83644E-10 1.57410E-10-4.19156E-19 1.54824E-18 2.08460E-20
 -1        56-1.22430E-10-1.22430E-10 1.04940E-10-4.11501E-19-6.27869E-20-3.90226E-20
 -1        57-1.22430E-10-1.22430E-10 1.04940E-10-9.73236E-19-6.39857E-19-5.03494E-19
 -1        58-1.22430E-10-1.22430E-10 1.04940E-10 3.10646E-20 7.67866E-19 5.50814E-19
 -1        59-1.22430E-10-1.22430E-10 1.04940E-10-1.05824E-19 4.71341E-19-5.34886E-19
 -1        60-1.83644E-10-1.83644E-10 1.57410E-10 8.30516E-19 9.30029E-19-1.80415E-18
 -1        61-1.83644E-10-1.83644E-10 1.57410E-10-9.97025E-19 6.67915E-20-4.62451E-19
 -1        62-1.22430E-10-1.22430E-10 1.04940E-10-3.37722E-19-1.30479E-18-4.06054E-19
 -1        63-1.22430E-10-1.22430E-10 1.04940E-10-1.68348E-19-5.59273E-19 6.44564E-19
 -1        64-1.22430E-10-1.22430E-10 1.04940E-10 1.03745E-18 1.03101E-18-8.71421E-19
 -1        65-1.22430E-10-1.22430E-10 1.04940E-10 6.31139E-19 4.11289E-19-2.09009E-18
 -1        66-1.83644E-10-1.83644E-10 1.57410E-10-4.45865E-18 5.97493E-19 1.48900E-18
 -1        67-3.67289E-10-3.67289E-10 3.14819E-10-2.26899E-18 4.52949E-18 8.46720E-19
 -1        68-1.83644E-10-1.83644E-10 1.57410E-10-6.44051E-19 8.51961E-19 7.39909E-19
 -1        69-1.83644E-10-1.83644E-10 1.57410E-10-2.25483E-18 1.18455E-19-1.16998E-18
 -1        70-1.83644E-10-1.83644E-10 1.57410E-10-3.15969E-20-5.97743E-19 1.26325E-18
 -1        71-1.83644E-10-1.83644E-10 1.57410E-10 3.69878E-19-8.28299E-19 5.37360E-19
 -1        72-3.67289E-10-3.67289E-10 3.14819E-10 5.92391E-19-1.63169E-18-1.75192E-18
 -3
    1PSTEP                       229          77           1          
  100CL  177 6.51781E-01          72                     0   77           1
 -4  DISP        4    1
 -5  D1          1    2    1    0
 -5  D2          1    2    2    0
 -5  D3          1    2    3    0
 -5  ALL         1    2    0    0    1ALL
 -1         1 0.00000E+00 0.00000E+00 0.00000E+00
 -1         2-1.86223E-07 0.00000E+00 0.00000E+00
 -1         3-9.77672E+00 0.00000E+00 0.00000E+00
 -1         4-9.77672E+00 0.00000E+00 0.00000E+00
 -1         5-1.95534E+01 0.00000E+00 0.00000E+00
 -1         6-1.95534E+01 0.00000E+00 0.00000E+00
 -1         7 0.00000E+00-1.86223E-07 0.00000E+00
 -1         8-1.86223E-07-1.86223E-07 0.00000E+00
 -1         9-9.77672E+00-1.86223E-07 0.00000E+00
 -1        10-9.77672E+00-1.86223E-07 0.00000E+00
 -1        11-1.95534E+01-1.86223E-07 0.00000E+00
 -1        12-1.95534E+01-1.86223E-07 0.00000E+00
 -1        13 0.00000E+00-9.77672E+00 0.00000E+00
 -1        14-1.86223E-07-9.77672E+00 0.00000E+00
 -1        15-9.77672E+00-9.77672E+00 0.00000E+00
 -1        16-9.77672E+00-9.77672E+00 0.00000E+00
 -1        17-1.95534E+01-9.77672E+00 0.00000E+00
 -1        18-1.95534E+01-9.77672E+00 0.00000E+00
 -1        19 0.00000E+00-9.77672E+00 0.00000E+00
 -1        20-1.86223E-07-9.77672E+00 0.00000E+00
 -1        21-9.77672E+00-9.77672E+00 0.00000E+00
 -1        22-9.77672E+00-9.77672E+00 0.00000E+00
 -1        23-1.95534E+01-9.77672E+00 0.00000E+00
 -1        24-1.95534E+01-9.77672E+00 0.00000E+00
 -1        25 0.00000E+00-1.95534E+01 0.00000E+00
 -1        26-1.86223E-07-1.95534E+01 0.00000E+00
 -1        27-9.77672E+00-1.95534E+01 0.00000E+00
 -1        28-9.77672E+00-1.95534E+01 0.00000E+00
 -1        29-1.95534E+01-1.95534E+01 0.00000E+00
 -1        30-1.95534E+01-1.95534E+01 0.00000E+00
 -1        31 0.00000E+00-1.95534E+01 0.00000E+00
 -1        32-1.86223E-07-1.95534E+01 0.00000E+00
 -1        33-9.77672E+00-1.95534E+01 0.00000E+00
 -1        34-9.77672E+00-1.95534E+01 0.00000E+00
 -1        35-1.95534E+01-1.95534E+01 0.00000E+00
 -1        36-1.95534E+01-1.95534E+01 0.00000E+00
 -1        37 0.00000E+00 0.00000E+00 2.23468E-07
 -1        38-1.86223E-07 0.00000E+00 2.23468E-07
 -1        39-9.77672E+00 0.00000E+00 2.23468E-07
 -1        40-9.77672E+00 0.00000E+00 2.23468E-07
 -1        41-1.95534E+01 0.00000E+00 2.23468E-07
 -1        42-1.95534E+01 0.00000E+00 2.23468E-07
 -1        43 0.00000E+00-1.86223E-07 2.23468E-07
 -1        44-1.86223E-07-1.86223E-07 2.23468E-07
 -1        45-9.77672E+00-1.86223E-07 2.23468E-07
 -1        46-9.77672E+00-1.86223E-07 2.23468E-07
 -1        47-1.95534E+01-1.86223E-07 2.23468E-07
 -1        48-1.95534E+01-1.86223E-07 2.23468E-07
 -1        49 0.00000E+00-9.77672E+00 2.23468E-07
 -1        50-1.86223E-07-9.77672E+00 2.23468E-07
 -1        51-9.77672E+00-9.77672E+00 2.23468E-07
 -1        52-9.77672E+00-9.77672E+00 2.23468E-07
 -1        53-1.95534E+01-9.77672E+00 2.23468E-07
 -1        54-1.95534E+01-9.77672E+00 2.23468E-07
 -1        55 0.00000E+00-9.77672E+00 2.23468E-07
 -1        56-1.86223E-07-9.77672E+00 2.23468E-07
 -1        57-9.77672E+00-9.77672E+00 2.23468E-07
 -1        58-9.77672E+00-9.77672E+00 2.23468E-07
 -1        59-1.95534E+01-9.77672E+00 2.23468E-07
 -1        60-1.95534E+01-9.77672E+00 2.23468E-07
 -1        61 0.00000E+00-1.95534E+01 2.23468E-07
 -1        62-1.86223E-07-1.95534E+01 2.23468E-07
 -1        63-9.77672E+00-1.95534E+01 2.23468E-07
 -1        64-9.77672E+00-1.95534E+01 2.23468E-07
 -1        65-1.95534E+01-1.95534E+01 2.23468E-07
 -1        66-1.95534E+01-1.95534E+01 2.23468E-07
 -1        67 0.00000E+00-1.95534E+01 2.23468E-07
 -1        68-1.86223E-07-1.95534E+01 2.23468E-07
 -1        69-9.77672E+00-1.95534E+01 2.23468E-07
 -1        70-9.77672E+00-1.95534E+01 2.23468E-07
 -1        71-1.95534E+01-1.95534E+01 2.23468E-07
 -1        72-1.95534E+01-1.95534E+01 2.23468E-07
 -3
    1PSTEP                       230          77           1          
  100CL  177 6.51781E-01          72                     0   77           1
 -4  STRESS      6    1
 -5  SXX         1    4    1    1
 -5  SYY         1    4    2    2
 -5  SZZ         1    4    3    3
 -5  SXY         1    4    1    2
 -5  SYZ         1    4    2    3
 -5  SZX         1    4    3    1
 -1         1-1.11729E-04-1.11729E-04 5.71749E-20 5.16803E-22-4.06587E-21-3.66900E-21
 -1         2-5.58647E-05-5.58647E-05-3.94175E-20 2.99653E-20 1.79646E-21 7.80003E-21
 -1         3-5.58647E-05-5.58647E-05-1.63268E-14-6.49487E-14 1.73781E-20 1.07543E-13
 -1         4-5.58647E-05-5.58647E-05-2.22881E-14 8.47662E-14 4.32281E-20-1.30526E-13
 -1         5-5.58647E-05-5.58647E-05 1.17030E-13-2.09107E-13 1.32053E-19-5.84403E-14
 -1         6-1.11729E-04-1.11729E-04 2.25485E-13 6.55110E-13-9.11709E-19-2.91843E-13
 -1         7-5.58647E-05-5.58647E-05 9.85862E-20-6.83305E-20-3.31522E-20 7.56747E-22
 -1         8-3.72431E-05-3.72431E-05 1.87476E-21-2.57491E-20 4.58259E-20-2.27538E-20
 -1         9-3.72431E-05-3.72431E-05 5.42966E-14-2.21081E-14-1.98277E-14-2.06633E-14
 -1        10-3.72431E-05-3.72431E-05-1.43089E-14 2.55602E-14 1.01128E-14-7.38343E-14
 -1        11-3.72431E-05-3.72431E-05-9.90138E-14-5.41901E-15 6.67286E-15-7.33569E-14
 -1        12-5.58647E-05-5.58647E-05-5.13549E-13-4.30704E-14-1.23879E-14 2.00497E-13
 -1        13-5.58647E-05-5.58647E-05 1.91473E-15 9.80437E-14-2.90184E-14-8.05148E-21
 -1        14-3.72431E-05-3.72431E-05-7.36574E-14 6.91511E-14 4.99954E-14 7.53390E-15
 -1        15-3.72431E-05-3.72431E-05 1.45970E-14-3.57432E-14 1.97078E-13 1.42129E-14
 -1        16-3.72431E-05-3.72431E-05 8.25173E-14-2.32363E-14 2.86182E-14 1.95580E-13
 -1        17-3.72431E-05-3.72431E-05 2.65551E-13 1.92879E-14 2.39672E-13 3.65998E-13
 -1        18-5.58647E-05-5.58647E-05-7.58721E-15 1.18447E-13-2.25851E-13-3.36655E-13
 -1        19-5.58647E-05-5.58647E-05 4.26816E-14-2.62709E-14 8.03457E-14 5.70188E-20
 -1        20-3.72431E-05-3.72431E-05 1.54197E-14-1.37254E-14-9.13838E-14-5.01386E-15
 -1        21-3.72431E-05-3.72431E-05 5.69720E-14 2.80828E-14-1.97805E-13 8.79197E-14
 -1        22-3.72431E-05-3.72431E-05 1.54034E-13 3.97311E-14 1.50682E-13-1.14529E-13
 -1        23-3.72431E-05-3.72431E-05-6.47484E-14-1.04567E-13-1.14583E-13 7.05886E-14
 -1        24-5.58647E-05-5.58647E-05-4.19639E-13 2.37610E-13 1.88601E-13 2.94419E-13
 -1        25-5.58647E-05-5.58647E-05-2.96733E-13-2.83657E-13 6.75064E-14-2.52286E-20
 -1        26-3.72431E-05-3.72431E-05-4.48785E-14-1.90072E-13-2.78540E-14 2.16976E-14
 -1        27-3.72431E-05-3.72431E-05-3.77463E-13-9.39011E-14 5.80561E-14-1.59809E-13
 -1        28-3.72431E-05-3.72431E-05-2.17511E-14-5.11081E-14-1.35781E-13 8.63403E-14
 -1        29-3.72431E-05-3.72431E-05 1.04968E-13 9.39238E-14 3.19487E-13-5.98674E-14
 -1        30-5.58647E-05-5.58647E-05-2.16383E-13 5.43461E-14-3.69309E-13 1.91595E-13
 -1        31-1.11729E-04-1.11729E-04-2.56185E-13 2.73349E-13-8.76838E-13 5.86679E-20
 -1        32-5.58647E-05-5.58647E-05 2.73381E-14 1.35223E-13 4.31527E-13-1.45324E-14
 -1        33-5.58647E-05-5.58647E-05-4.07298E-13-2.47569E-13 2.45906E-13 1.13798E-13
 -1        34-5.58647E-05-5.58647E-05 1.41645E-13-4.24102E-14 1.98116E-13-6.58321E-14
 -1        35-5.58647E-05-5.58647E-05-7.95145E-13-3.26034E-13 1.24577E-13 2.60792E-13
 -1        36-1.11729E-04-1.11729E-04-1.79403E-13 4.00137E-13 6.06341E-13 4.27098E-13
 -1        37-1.11729E-04-1.11729E-04-5.30598E-20-1.30665E-21 4.48123E-20 2.93764E-20
 -1        38-5.58647E-05-5.58647E-05 8.09812E-20-2.81001E-20 4.70501E-21 2.40361E-20
 -1        39-5.58647E-05-5.58647E-05 4.77614E-14 4.85337E-14 2.48925E-14-2.73875E-14
 -1        40-5.58647E-05-5.58647E-05 1.36113E-13 1.49534E-14-1.38863E-14 2.34375E-13
 -1        41-5.58647E-05-5.58647E-05-2.43818E-13 6.63354E-14 8.29289E-14-3.42269E-13
 -1        42-1.11729E-04-1.11729E-04-5.90277E-13-2.52462E-13-1.22736E-13 5.14482E-13
 -1        43-5.58647E-05-5.58647E-05-4.52858E-20 6.81616E-20-8.71316E-21-1.01449E-21
 -1        44-3.72431E-05-3.72431E-05 4.64440E-20 2.71432E-20 4.77650E-20-2.32216E-20
 -1        45-3.72431E-05-3.72431E-05-8.68729E-14-1.05545E-13-3.23273E-15 7.41550E-14
 -1        46-3.72431E-05-3.72431E-05-9.26033E-14 1.08104E-13 8.55249E-16 2.05252E-14
 -1        47-3.72431E-05-3.72431E-05 2.90917E-13 7.39710E-14 6.19587E-14 8.17066E-14
 -1        48-5.58647E-05-5.58647E-05 2.43154E-14-6.16902E-14-7.37554E-14-1.74626E-14
 -1        49-5.58647E-05-5.58647E-05-3.20489E-14-2.62710E-14-1.42183E-14-2.18821E-14
 -1        50-3.72431E-05-3.72431E-05-2.01383E-13-3.12923E-14-1.73451E-13-7.05419E-15
 -1        51-3.72431E-05-3.72431E-05-1.98219E-13-3.24372E-15-2.03691E-13 6.13596E-14
 -1        52-3.72431E-05-3.72431E-05-8.60850E-14 6.09459E-14 3.71860E-14 1.82916E-13
 -1        53-3.72431E-05-3.72431E-05-3.81003E-13 1.68517E-13 4.20038E-14-5.50519E-13
 -1        54-5.58647E-05-5.58647E-05-3.48338E-13-4.29863E-13-1.23176E-13 6.23752E-13
 -1        55-5.58647E-05-5.58647E-05-3.08076E-14 7.03862E-15-1.73746E-13 1.52574E-14
 -1        56-3.72431E-05-3.72431E-05-1.38656E-13-9.08594E-15 1.88436E-13 5.15773E-15
 -1        57-3.72431E-05-3.72431E-05-8.53597E-14-1.06657E-13 5.84827E-14 1.16514E-13
 -1        58-3.72431E-05-3.72431E-05 3.31651E-14 2.17536E-15 2.76074E-14-6.99089E-14
 -1        59-3.72431E-05-3.72431E-05-4.23439E-14-3.22620E-14 9.93826E-14 1.71284E-13
 -1        60-5.58647E-05-5.58647E-05-2.99624E-14 1.19935E-13-2.40612E-14-3.13478E-13
 -1        61-5.58647E-05-5.58647E-05-7.96888E-14 3.18684E-13-4.22113E-13-4.05166E-14
 -1        62-3.72431E-05-3.72431E-05-3.69280E-13 1.67548E-13 6.01443E-14-5.31342E-15
 -1        63-3.72431E-05-3.72431E-05 3.53059E-13 7.78992E-14 4.12568E-14-1.17431E-14
 -1        64-3.72431E-05-3.72431E-05-1.71936E-14 2.20198E-14 3.52921E-13 5.23986E-14
 -1        65-3.72431E-05-3.72431E-05-3.03858E-13-1.80080E-13 2.30480E-13-3.81994E-13
 -1        66-5.58647E-05-5.58647E-05-3.65244E-13-2.95703E-13-4.59194E-13 1.41617E-13
 -1        67-1.11729E-04-1.11729E-04-4.81375E-13-2.03294E-13 5.75262E-13 4.43980E-14
 -1        68-5.58647E-05-5.58647E-05 3.03140E-13-1.69009E-13 4.62260E-15 7.66657E-15
 -1        69-5.58647E-05-5.58647E-05 6.43799E-13-1.90419E-13 6.96114E-14-1.83679E-13
 -1        70-5.58647E-05-5.58647E-05 3.55431E-14-1.78770E-13-4.93978E-13-9.02976E-14
 -1        71-5.58647E-05-5.58647E-05 5.14018E-13 1.90850E-13-1.90252E-13 6.79673E-14
 -1        72-1.11729E-04-1.11729E-04 9.15487E-14-2.64252E-13-2.09079E-13-4.57183E-13
 -3
    1PSTEP                       231          77           1          
  100CL  177 6.51781E-01          72                     0   77           1
 -4  TOSTRAIN    6    1
 -5  EXX         1    4    1    1
 -5  EYY         1    4    2    2
 -5  EZZ         1    4    3    3
 -5  EXY         1    4    1    2
 -5  EYZ         1    4    2    3
 -5  EZX         1    4    3    1
 -1         1-3.72432E-10-3.72432E-10 3.19227E-10 3.19925E-27-2.51697E-26-2.27128E-26
 -1         2-1.86216E-10-1.86216E-10 1.59614E-10 1.85500E-25 1.11210E-26 4.82859E-26
 -1         3-1.86216E-10-1.86216E-10 1.59614E-10-4.02063E-19 1.07579E-25 6.65742E-19
 -1         4-1.86216E-10-1.86216E-10 1.59614E-10 5.24743E-19 2.67603E-25-8.08018E-19
 -1         5-1.86216E-10-1.86216E-10 1.59614E-10-1.29447E-18 8.17473E-25-3.61773E-19
 -1         6-3.72432E-10-3.72432E-10 3.19227E-10 4.05545E-18-5.64391E-24-1.80665E-18
 -1         7-1.86216E-10-1.86216E-10 1.59614E-10-4.22998E-25-2.05228E-25 4.68462E-27
 -1         8-1.24144E-10-1.24144E-10 1.06409E-10-1.59399E-25 2.83684E-25-1.40857E-25
 -1         9-1.24144E-10-1.24144E-10 1.06409E-10-1.36860E-19-1.22743E-19-1.27916E-19
 -1        10-1.24144E-10-1.24144E-10 1.06409E-10 1.58230E-19 6.26030E-20-4.57069E-19
 -1        11-1.24144E-10-1.24144E-10 1.06409E-10-3.35463E-20 4.13082E-20-4.54114E-19
 -1        12-1.86216E-10-1.86216E-10 1.59614E-10-2.66626E-19-7.66869E-20 1.24117E-18
 -1        13-1.86216E-10-1.86216E-10 1.59614E-10 6.06937E-19-1.79638E-19-4.98425E-26
 -1        14-1.24144E-10-1.24144E-10 1.06409E-10 4.28078E-19 3.09495E-19 4.66384E-20
 -1        15-1.24144E-10-1.24144E-10 1.06409E-10-2.21268E-19 1.22000E-18 8.79846E-20
 -1        16-1.24144E-10-1.24144E-10 1.06409E-10-1.43844E-19 1.77160E-19 1.21073E-18
 -1        17-1.24144E-10-1.24144E-10 1.06409E-10 1.19401E-19 1.48368E-18 2.26570E-18
 -1        18-1.86216E-10-1.86216E-10 1.59614E-10 7.33246E-19-1.39813E-18-2.08406E-18
 -1        19-1.86216E-10-1.86216E-10 1.59614E-10-1.62629E-19 4.97378E-19 3.52974E-25
 -1        20-1.24144E-10-1.24144E-10 1.06409E-10-8.49665E-20-5.65709E-19-3.10382E-20
 -1        21-1.24144E-10-1.24144E-10 1.06409E-10 1.73846E-19-1.22450E-18 5.44265E-19
 -1        22-1.24144E-10-1.24144E-10 1.06409E-10 2.45954E-19 9.32791E-19-7.08991E-19
 -1        23-1.24144E-10-1.24144E-10 1.06409E-10-6.47318E-19-7.09323E-19 4.36977E-19
 -1        24-1.86216E-10-1.86216E-10 1.59614E-10 1.47092E-18 1.16753E-18 1.82260E-18
 -1        25-1.86216E-10-1.86216E-10 1.59614E-10-1.75597E-18 4.17897E-19-1.56177E-25
 -1        26-1.24144E-10-1.24144E-10 1.06409E-10-1.17664E-18-1.72429E-19 1.34319E-19
 -1        27-1.24144E-10-1.24144E-10 1.06409E-10-5.81293E-19 3.59395E-19-9.89292E-19
 -1        28-1.24144E-10-1.24144E-10 1.06409E-10-3.16383E-19-8.40547E-19 5.34488E-19
 -1        29-1.24144E-10-1.24144E-10 1.06409E-10 5.81433E-19 1.97778E-18-3.70608E-19
 -1        30-1.86216E-10-1.86216E-10 1.59614E-10 3.36428E-19-2.28620E-18 1.18607E-18
 -1        31-3.72432E-10-3.72432E-10 3.19227E-10 1.69216E-18-5.42804E-18 3.63182E-25
 -1        32-1.86216E-10-1.86216E-10 1.59614E-10 8.37096E-19 2.67136E-18-8.99625E-20
 -1        33-1.86216E-10-1.86216E-10 1.59614E-10-1.53257E-18 1.52228E-18 7.04461E-19
 -1        34-1.86216E-10-1.86216E-10 1.59614E-10-2.62540E-19 1.22643E-18-4.07532E-19
 -1        35-1.86216E-10-1.86216E-10 1.59614E-10-2.01831E-18 7.71192E-19 1.61443E-18
 -1        36-3.72432E-10-3.72432E-10 3.19227E-10 2.47704E-18 3.75354E-18 2.64394E-18
 -1        37-3.72432E-10-3.72432E-10 3.19227E-10-8.08880E-27 2.77409E-25 1.81854E-25
 -1        38-1.86216E-10-1.86216E-10 1.59614E-10-1.73953E-25 2.91263E-26 1.48795E-25
 -1        39-1.86216E-10-1.86216E-10 1.59614E-10 3.00447E-19 1.54096E-19-1.69542E-19
 -1        40-1.86216E-10-1.86216E-10 1.59614E-10 9.25685E-20-8.59626E-20 1.45089E-18
 -1        41-1.86216E-10-1.86216E-10 1.59614E-10 4.10648E-19 5.13370E-19-2.11881E-18
 -1        42-3.72432E-10-3.72432E-10 3.19227E-10-1.56286E-18-7.59794E-19 3.18489E-18
 -1        43-1.86216E-10-1.86216E-10 1.59614E-10 4.21953E-25-5.39386E-26-6.28017E-27
 -1        44-1.24144E-10-1.24144E-10 1.06409E-10 1.68029E-25 2.95688E-25-1.43753E-25
 -1        45-1.24144E-10-1.24144E-10 1.06409E-10-6.53376E-19-2.00121E-20 4.59055E-19
 -1        46-1.24144E-10-1.24144E-10 1.06409E-10 6.69217E-19 5.29440E-21 1.27061E-19
 -1        47-1.24144E-10-1.24144E-10 1.06409E-10 4.57916E-19 3.83554E-19 5.05803E-19
 -1        48-1.86216E-10-1.86216E-10 1.59614E-10-3.81892E-19-4.56581E-19-1.08102E-19
 -1        49-1.86216E-10-1.86216E-10 1.59614E-10-1.62630E-19-8.80178E-20-1.35461E-19
 -1        50-1.24144E-10-1.24144E-10 1.06409E-10-1.93714E-19-1.07375E-18-4.36688E-20
 -1        51-1.24144E-10-1.24144E-10 1.06409E-10-2.00801E-20-1.26095E-18 3.79845E-19
 -1        52-1.24144E-10-1.24144E-10 1.06409E-10 3.77284E-19 2.30199E-19 1.13234E-18
 -1        53-1.24144E-10-1.24144E-10 1.06409E-10 1.04320E-18 2.60023E-19-3.40797E-18
 -1        54-1.86216E-10-1.86216E-10 1.59614E-10-2.66106E-18-7.62520E-19 3.86132E-18
 -1        55-1.86216E-10-1.86216E-10 1.59614E-10 4.35724E-20-1.07557E-18 9.44507E-20
 -1        56-1.24144E-10-1.24144E-10 1.06409E-10-5.62463E-20 1.16651E-18 3.19288E-20
 -1        57-1.24144E-10-1.24144E-10 1.06409E-10-6.60260E-19 3.62035E-19 7.21279E-19
 -1        58-1.24144E-10-1.24144E-10 1.06409E-10 1.34665E-20 1.70903E-19-4.32769E-19
 -1        59-1.24144E-10-1.24144E-10 1.06409E-10-1.99717E-19 6.15226E-19 1.06033E-18
 -1        60-1.86216E-10-1.86216E-10 1.59614E-10 7.42453E-19-1.48950E-19-1.94058E-18
 -1        61-1.86216E-10-1.86216E-10 1.59614E-10 1.97281E-18-2.61308E-18-2.50817E-19
 -1        62-1.24144E-10-1.24144E-10 1.06409E-10 1.03720E-18 3.72322E-19-3.28926E-20
 -1        63-1.24144E-10-1.24144E-10 1.06409E-10 4.82233E-19 2.55400E-19-7.26956E-20
 -1        64-1.24144E-10-1.24144E-10 1.06409E-10 1.36313E-19 2.18475E-18 3.24372E-19
 -1        65-1.24144E-10-1.24144E-10 1.06409E-10-1.11478E-18 1.42678E-18-2.36472E-18
 -1        66-1.86216E-10-1.86216E-10 1.59614E-10-1.83054E-18-2.84263E-18 8.76675E-19
 -1        67-3.72432E-10-3.72432E-10 3.19227E-10-1.25848E-18 3.56114E-18 2.74845E-19
 -1        68-1.86216E-10-1.86216E-10 1.59614E-10-1.04624E-18 2.86161E-20 4.74597E-20
 -1        69-1.86216E-10-1.86216E-10 1.59614E-10-1.17878E-18 4.30928E-19-1.13706E-18
 -1        70-1.86216E-10-1.86216E-10 1.59614E-10-1.10667E-18-3.05796E-18-5.58985E-19
 -1        71-1.86216E-10-1.86216E-10 1.59614E-10 1.18145E-18-1.17775E-18 4.20750E-19
 -1        72-3.72432E-10-3.72432E-10 3.19227E-10-1.63584E-18-1.29430E-18-2.83018E-18
 -3
    1PSTEP                       232          78           1          
  100CL  178 6.60781E-01          72                     0   78           1
 -4  DISP        4    1
 -5  D1          1    2    1    0
 -5  D2          1    2    2    0
 -5  D3          1    2    3    0
 -5  ALL         1    2    0    0    1ALL
 -1         1 0.00000E+00 0.00000E+00 0.00000E+00
 -1         2-1.88795E-07 0.00000E+00 0.00000E+00
 -1         3-9.91172E+00 0.00000E+00 0.00000E+00
 -1         4-9.91172E+00 0.00000E+00 0.00000E+00
 -1         5-1.98234E+01 0.00000E+00 0.00000E+00
 -1         6-1.98234E+01 0.00000E+00 0.00000E+00
 -1         7 0.00000E+00-1.88795E-07 0.00000E+00
 -1         8-1.88795E-07-1.88795E-07 0.00000E+00
 -1         9-9.91172E+00-1.88795E-07 0.00000E+00
 -1        10-9.91172E+00-1.88795E-07 0.00000E+00
 -1        11-1.98234E+01-1.88795E-07 0.00000E+00
 -1        12-1.98234E+01-1.88795E-07 0.00000E+00
 -1        13 0.00000E+00-9.91172E+00 0.00000E+00
 -1        14-1.88795E-07-9.91172E+00 0.00000E+00
 -1        15-9.91172E+00-9.91172E+00 0.00000E+00
 -1        16-9.91172E+00-9.91172E+00 0.00000E+00
 -1        17-1.98234E+01-9.91172E+00 0.00000E+00
 -1        18-1.98234E+01-9.91172E+00 0.00000E+00
 -1        19 0.00000E+00-9.91172E+00 0.00000E+00
 -1        20-1.88795E-07-9.91172E+00 0.00000E+00
 -1        21-9.91172E+00-9.91172E+00 0.00000E+00
 -1        22-9.91172E+00-9.91172E+00 0.00000E+00
 -1        23-1.98234E+01-9.91172E+00 0.00000E+00
 -1        24-1.98234E+01-9.91172E+00 0.00000E+00
 -1        25 0.00000E+00-1.98234E+01 0.00000E+00
 -1        26-1.88795E-07-1.98234E+01 0.00000E+00
 -1        27-9.91172E+00-1.98234E+01 0.00000E+00
 -1        28-9.91172E+00-1.98234E+01 0.00000E+00
 -1        29-1.98234E+01-1.98234E+01 0.00000E+00
 -1        30-1.98234E+01-1.98234E+01 0.00000E+00
 -1        31 0.00000E+00-1.98234E+01 0.00000E+00
 -1        32-1.88795E-07-1.98234E+01 0.00000E+00
 -1        33-9.91172E+00-1.98234E+01 0.00000E+00
 -1        34-9.91172E+00-1.98234E+01 0.00000E+00
 -1        35-1.98234E+01-1.98234E+01 0.00000E+00
 -1        36-1.98234E+01-1.98234E+01 0.00000E+00
 -1        37 0.00000E+00 0.00000E+00 2.26554E-07
 -1        38-1.88795E-07 0.00000E+00 2.26554E-07
 -1        39-9.91172E+00 0.00000E+00 2.26554E-07
 -1        40-9.91172E+00 0.00000E+00 2.26554E-07
 -1        41-1.98234E+01 0.00000E+00 2.26554E-07
 -1        42-1.98234E+01 0.00000E+00 2.26554E-07
 -1        43 0.00000E+00-1.88795E-07 2.26554E-07
 -1        44-1.88795E-07-1.88795E-07 2.26554E-07
 -1        45-9.91172E+00-1.88795E-07 2.26554E-07
 -1        46-9.91172E+00-1.88795E-07 2.26554E-07
 -1        47-1.98234E+01-1.88795E-07 2.26554E-07
 -1        48-1.98234E+01-1.88795E-07 2.26554E-07
 -1        49 0.00000E+00-9.91172E+00 2.26554E-07
 -1        50-1.88795E-07-9.91172E+00 2.26554E-07
 -1        51-9.91172E+00-9.91172E+00 2.26554E-07
 -1        52-9.91172E+00-9.91172E+00 2.26554E-07
 -1        53-1.98234E+01-9.91172E+00 2.26554E-07
 -1        54-1.98234E+01-9.91172E+00 2.26554E-07
 -1        55 0.00000E+00-9.91172E+00 2.26554E-07
 -1        56-1.88795E-07-9.91172E+00 2.26554E-07
 -1        57-9.91172E+00-9.91172E+00 2.26554E-07
 -1        58-9.91172E+00-9.91172E+00 2.26554E-07
 -1        59-1.98234E+01-9.91172E+00 2.26554E-07
 -1        60-1.98234E+01-9.91172E+00 2.26554E-07
 -1        61 0.00000E+00-1.98234E+01 2.26554E-07
 -1        62-1.88795E-07-1.98234E+01 2.26554E-07
 -1        63-9.91172E+00-1.98234E+01 2.26554E-07
 -1        64-9.91172E+00-1.98234E+01 2.26554E-07
 -1        65-1.98234E+01-1.98234E+01 2.26554E-07
 -1        66-1.98234E+01-1.98234E+01 2.26554E-07
 -1        67 0.00000E+00-1.98234E+01 2.26554E-07
 -1        68-1.88795E-07-1.98234E+01 2.26554E-07
 -1        69-9.91172E+00-1.98234E+01 2.26554E-07
 -1        70-9.91172E+00-1.98234E+01 2.26554E-07
 -1        71-1.98234E+01-1.98234E+01 2.26554E-07
 -1        72-1.98234E+01-1.98234E+01 2.26554E-07
 -3
    1PSTEP                       233          78           1          
  100CL  178 6.60781E-01          72                     0   78           1
 -4  STRESS      6    1
 -5  SXX         1    4    1    1
 -5  SYY         1    4    2    2
 -5  SZZ         1    4    3    3
 -5  SXY         1    4    1    2
 -5  SYZ         1    4    2    3
 -5  SZX         1    4    3    1
 -1         1-1.13272E-04-1.13272E-04 1.03400E-19-7.20636E-22 9.68831E-22 9.66429E-22
 -1         2-5.66361E-05-5.66361E-05 2.33726E-21-1.40528E-19 1.08831E-22 1.70800E-20
 -1         3-5.66361E-05-5.66361E-05 1.74082E-13 1.96362E-13-7.42945E-20 9.94612E-15
 -1         4-5.66361E-05-5.66361E-05 1.46812E-13-1.58639E-13 2.84527E-20-3.71169E-14
 -1         5-5.66361E-05-5.66361E-05-1.06787E-13 1.17275E-13-3.69232E-19-1.93858E-13
 -1         6-1.13272E-04-1.13272E-04-3.60947E-13 6.28500E-14-2.82878E-19-8.17256E-13
 -1         7-5.66361E-05-5.66361E-05 3.30044E-19 1.60742E-19-3.63063E-20-4.25325E-22
 -1         8-3.77574E-05-3.77574E-05 3.31236E-19 1.37167E-20-1.58708E-19 9.71034E-20
 -1         9-3.77574E-05-3.77574E-05-2.12865E-13 1.35205E-13 6.08813E-15 3.47033E-14
 -1        10-3.77574E-05-3.77574E-05-1.39553E-13-9.03588E-14-1.10137E-14-1.29513E-13
 -1        11-3.77574E-05-3.77574E-05 2.75678E-13 3.32663E-15-4.84457E-14 3.17262E-14
 -1        12-5.66361E-05-5.66361E-05 8.45522E-14-3.93521E-15 9.41431E-14 1.25749E-13
 -1        13-5.66361E-05-5.66361E-05-7.60881E-14-2.38776E-15 1.58441E-13-2.84778E-20
 -1        14-3.77574E-05-3.77574E-05 2.08028E-14-1.60919E-14-2.02719E-14-4.07749E-15
 -1        15-3.77574E-05-3.77574E-05-1.81256E-13-3.24489E-15-1.84560E-14-6.69937E-14
 -1        16-3.77574E-05-3.77574E-05-2.55918E-14 2.25839E-13 2.10343E-14 7.88492E-14
 -1        17-3.77574E-05-3.77574E-05-5.40083E-15-2.45263E-13 1.03424E-13-2.13463E-14
 -1        18-5.66361E-05-5.66361E-05-7.20872E-13 5.36306E-13-2.11980E-13 6.91416E-14
 -1        19-5.66361E-05-5.66361E-05 2.64959E-14 1.24158E-13-3.43247E-14-8.58142E-20
 -1        20-3.77574E-05-3.77574E-05 3.12871E-14 6.82718E-14-1.17360E-13 8.31237E-15
 -1        21-3.77574E-05-3.77574E-05 7.36933E-14-2.03348E-13 4.08945E-14 1.77752E-13
 -1        22-3.77574E-05-3.77574E-05 1.75770E-13 1.20574E-13-1.39796E-13 4.54912E-14
 -1        23-3.77574E-05-3.77574E-05-2.04160E-14-1.45636E-13-6.27391E-14 3.14486E-13
 -1        24-5.66361E-05-5.66361E-05 6.45392E-13 3.46414E-14-1.35904E-14-2.90956E-13
 -1        25-5.66361E-05-5.66361E-05-9.07248E-13-2.61449E-13-2.85572E-13-4.11522E-19
 -1        26-3.77574E-05-3.77574E-05 2.65344E-13-2.09737E-13-9.94757E-14 7.97711E-15
 -1        27-3.77574E-05-3.77574E-05-9.22306E-13-5.45980E-13-3.34536E-13-1.67890E-13
 -1        28-3.77574E-05-3.77574E-05 1.84888E-13-3.96301E-13 5.57280E-14 1.33280E-13
 -1        29-3.77574E-05-3.77574E-05 9.15742E-14-1.28225E-13 8.35454E-14 1.39312E-13
 -1        30-5.66361E-05-5.66361E-05-6.75020E-13 6.45240E-13-4.07027E-13 1.92426E-13
 -1        31-1.13272E-04-1.13272E-04-5.09701E-13 1.40113E-13 4.60743E-13-3.54919E-19
 -1        32-5.66361E-05-5.66361E-05 6.80311E-13 1.68998E-14-5.34201E-13 4.12149E-14
 -1        33-5.66361E-05-5.66361E-05-6.43379E-13-6.26966E-13-1.27663E-13 1.77713E-13
 -1        34-5.66361E-05-5.66361E-05 1.06685E-12-1.06341E-13-1.92506E-13-4.46437E-14
 -1        35-5.66361E-05-5.66361E-05 4.53555E-13 2.44244E-13-6.33294E-14-3.84734E-13
 -1        36-1.13272E-04-1.13272E-04-9.91848E-13 5.53736E-13 4.40188E-13 5.39191E-14
 -1        37-1.13272E-04-1.13272E-04 4.30298E-20-4.36271E-22 3.99000E-19-2.29199E-19
 -1        38-5.66361E-05-5.66361E-05-4.62188E-19 3.73391E-20 2.87232E-19-9.82891E-20
 -1        39-5.66361E-05-5.66361E-05-2.89575E-13-1.30336E-13-2.24192E-14-4.81063E-14
 -1        40-5.66361E-05-5.66361E-05-3.70716E-13-8.77568E-14 3.24763E-14 9.96291E-14
 -1        41-5.66361E-05-5.66361E-05 2.13483E-13-3.02259E-13 5.53741E-14-3.99717E-13
 -1        42-1.13272E-04-1.13272E-04 9.80200E-13 3.23376E-13-9.34737E-14 9.85668E-13
 -1        43-5.66361E-05-5.66361E-05 5.36360E-19-1.20186E-19 1.58431E-19-2.65406E-20
 -1        44-3.77574E-05-3.77574E-05 2.02694E-19-5.50861E-20 3.34716E-20 8.04062E-20
 -1        45-3.77574E-05-3.77574E-05-7.53681E-14-1.12947E-13-8.85797E-15 4.86246E-14
 -1        46-3.77574E-05-3.77574E-05-3.79693E-14-4.31223E-14 1.06372E-14-6.15629E-14
 -1        47-3.77574E-05-3.77574E-05-1.41306E-13-6.93890E-14-1.15294E-14-1.33285E-14
 -1        48-5.66361E-05-5.66361E-05-1.90620E-13 7.27740E-14 4.74064E-14 2.79439E-14
 -1        49-5.66361E-05-5.66361E-05 3.12188E-14 2.81785E-15-1.90208E-13 1.76078E-14
 -1        50-3.77574E-05-3.77574E-05 3.93290E-16 4.72432E-15-6.05489E-14 7.66105E-15
 -1        51-3.77574E-05-3.77574E-05 1.96149E-13 4.72647E-14-6.51373E-14 7.62218E-14
 -1        52-3.77574E-05-3.77574E-05 1.97709E-13-4.91450E-14 1.02621E-13 3.15299E-14
 -1        53-3.77574E-05-3.77574E-05 3.15400E-13 1.14096E-13-2.37988E-13 1.11763E-13
 -1        54-5.66361E-05-5.66361E-05-6.37599E-14-1.27445E-13 3.26904E-13 3.54556E-14
 -1        55-5.66361E-05-5.66361E-05 1.72831E-13-1.46479E-13 2.81522E-13-1.71353E-14
 -1        56-3.77574E-05-3.77574E-05 3.68963E-14-9.48069E-14 1.23494E-14-3.11113E-15
 -1        57-3.77574E-05-3.77574E-05-1.49608E-13 1.17138E-13 8.05238E-14 4.10370E-14
 -1        58-3.77574E-05-3.77574E-05-1.56134E-13 3.97300E-14-2.14575E-13-8.45840E-14
 -1        59-3.77574E-05-3.77574E-05-2.91650E-13-1.42412E-15-1.93298E-13-1.90172E-13
 -1        60-5.66361E-05-5.66361E-05 1.41442E-13 1.40213E-13 9.07950E-14-5.27441E-14
 -1        61-5.66361E-05-5.66361E-05 3.03324E-13 7.00568E-14-7.60211E-14-2.74912E-14
 -1        62-3.77574E-05-3.77574E-05-3.91217E-13 3.85657E-14 1.29514E-13-1.03501E-14
 -1        63-3.77574E-05-3.77574E-05 4.34302E-13 1.54093E-13-2.56555E-13 5.27991E-14
 -1        64-3.77574E-05-3.77574E-05-4.45462E-13 2.82254E-13 2.98019E-13 7.96993E-14
 -1        65-3.77574E-05-3.77574E-05 3.11645E-13 4.57589E-13 1.23946E-13-3.76618E-13
 -1        66-5.66361E-05-5.66361E-05 2.57503E-13 6.22407E-14 1.73537E-13 2.67098E-13
 -1        67-1.13272E-04-1.13272E-04-1.41079E-12-3.75376E-14 4.96600E-13 1.81738E-14
 -1        68-5.66361E-05-5.66361E-05 2.18439E-13-3.09771E-14 2.71762E-14 5.03020E-14
 -1        69-5.66361E-05-5.66361E-05 8.93677E-13-2.94651E-14 5.73793E-13 7.45705E-14
 -1        70-5.66361E-05-5.66361E-05-4.44779E-13-3.82901E-13-5.18637E-13-1.04172E-13
 -1        71-5.66361E-05-5.66361E-05-1.41175E-12-5.22651E-13-1.35123E-15 5.23773E-13
 -1        72-1.13272E-04-1.13272E-04 8.50545E-13-2.63349E-13-3.98011E-13-9.82114E-13
 -3
    1PSTEP                       234          78           1          
  100CL  178 6.60781E-01          72                     0   78           1
 -4  TOSTRAIN    6    1
 -5  EXX         1    4    1    1
 -5  EYY         1    4    2    2
 -5  EZZ         1    4    3    3
 -5  EXY         1    4    1    2
 -5  EYZ         1    4    2    3
 -5  EZX         1    4    3    1
 -1         1-3.77574E-10-3.77574E-10 3.23635E-10-4.46108E-27 5.99753E-27 5.98266E-27
 -1         2-1.88787E-10-1.88787E-10 1.61817E-10-8.69933E-25 6.73714E-28 1.05733E-25
 -1         3-1.88787E-10-1.88787E-10 1.61817E-10 1.21557E-18-4.59919E-25 6.15712E-20
 -1         4-1.88787E-10-1.88787E-10 1.61817E-10-9.82052E-19 1.76136E-25-2.29771E-19
 -1         5-1.88787E-10-1.88787E-10 1.61817E-10 7.25986E-19-2.28572E-24-1.20007E-18
 -1         6-3.77574E-10-3.77574E-10 3.23635E-10 3.89072E-19-1.75115E-24-5.05921E-18
 -1         7-1.88787E-10-1.88787E-10 1.61817E-10 9.95072E-25-2.24753E-25-2.63296E-27
 -1         8-1.25858E-10-1.25858E-10 1.07878E-10 8.49131E-26-9.82478E-25 6.01117E-25
 -1         9-1.25858E-10-1.25858E-10 1.07878E-10 8.36983E-19 3.76884E-20 2.14830E-19
 -1        10-1.25858E-10-1.25858E-10 1.07878E-10-5.59364E-19-6.81797E-20-8.01750E-19
 -1        11-1.25858E-10-1.25858E-10 1.07878E-10 2.05934E-20-2.99902E-19 1.96400E-19
 -1        12-1.88787E-10-1.88787E-10 1.61817E-10-2.43608E-20 5.82791E-19 7.78448E-19
 -1        13-1.88787E-10-1.88787E-10 1.61817E-10-1.47814E-20 9.80824E-19-1.76291E-25
 -1        14-1.25858E-10-1.25858E-10 1.07878E-10-9.96168E-20-1.25493E-19-2.52416E-20
 -1        15-1.25858E-10-1.25858E-10 1.07878E-10-2.00874E-20-1.14251E-19-4.14723E-19
 -1        16-1.25858E-10-1.25858E-10 1.07878E-10 1.39805E-18 1.30212E-19 4.88114E-19
 -1        17-1.25858E-10-1.25858E-10 1.07878E-10-1.51829E-18 6.40244E-19-1.32144E-19
 -1        18-1.88787E-10-1.88787E-10 1.61817E-10 3.31999E-18-1.31226E-18 4.28019E-19
 -1        19-1.88787E-10-1.88787E-10 1.61817E-10 7.68596E-19-2.12486E-19-5.31231E-25
 -1        20-1.25858E-10-1.25858E-10 1.07878E-10 4.22635E-19-7.26512E-19 5.14575E-20
 -1        21-1.25858E-10-1.25858E-10 1.07878E-10-1.25882E-18 2.53156E-19 1.10037E-18
 -1        22-1.25858E-10-1.25858E-10 1.07878E-10 7.46410E-19-8.65405E-19 2.81612E-19
 -1        23-1.25858E-10-1.25858E-10 1.07878E-10-9.01556E-19-3.88385E-19 1.94682E-18
 -1        24-1.88787E-10-1.88787E-10 1.61817E-10 2.14446E-19-8.41310E-20-1.80116E-18
 -1        25-1.88787E-10-1.88787E-10 1.61817E-10-1.61849E-18-1.76783E-18-2.54752E-24
 -1        26-1.25858E-10-1.25858E-10 1.07878E-10-1.29837E-18-6.15802E-19 4.93821E-20
 -1        27-1.25858E-10-1.25858E-10 1.07878E-10-3.37988E-18-2.07094E-18-1.03932E-18
 -1        28-1.25858E-10-1.25858E-10 1.07878E-10-2.45329E-18 3.44983E-19 8.25066E-19
 -1        29-1.25858E-10-1.25858E-10 1.07878E-10-7.93775E-19 5.17186E-19 8.62410E-19
 -1        30-1.88787E-10-1.88787E-10 1.61817E-10 3.99434E-18-2.51969E-18 1.19121E-18
 -1        31-3.77574E-10-3.77574E-10 3.23635E-10 8.67368E-19 2.85222E-18-2.19712E-24
 -1        32-1.88787E-10-1.88787E-10 1.61817E-10 1.04618E-19-3.30696E-18 2.55140E-19
 -1        33-1.88787E-10-1.88787E-10 1.61817E-10-3.88122E-18-7.90294E-19 1.10013E-18
 -1        34-1.88787E-10-1.88787E-10 1.61817E-10-6.58300E-19-1.19170E-18-2.76366E-19
 -1        35-1.88787E-10-1.88787E-10 1.61817E-10 1.51198E-18-3.92039E-19-2.38169E-18
 -1        36-3.77574E-10-3.77574E-10 3.23635E-10 3.42789E-18 2.72497E-18 3.33785E-19
 -1        37-3.77574E-10-3.77574E-10 3.23635E-10-2.70073E-27 2.47000E-24-1.41885E-24
 -1        38-1.88787E-10-1.88787E-10 1.61817E-10 2.31147E-25 1.77810E-24-6.08457E-25
 -1        39-1.88787E-10-1.88787E-10 1.61817E-10-8.06844E-19-1.38786E-19-2.97801E-19
 -1        40-1.88787E-10-1.88787E-10 1.61817E-10-5.43256E-19 2.01044E-19 6.16752E-19
 -1        41-1.88787E-10-1.88787E-10 1.61817E-10-1.87113E-18 3.42792E-19-2.47444E-18
 -1        42-3.77574E-10-3.77574E-10 3.23635E-10 2.00185E-18-5.78647E-19 6.10176E-18
 -1        43-1.88787E-10-1.88787E-10 1.61817E-10-7.44012E-25 9.80765E-25-1.64299E-25
 -1        44-1.25858E-10-1.25858E-10 1.07878E-10-3.41009E-25 2.07205E-25 4.97753E-25
 -1        45-1.25858E-10-1.25858E-10 1.07878E-10-6.99194E-19-5.48351E-20 3.01009E-19
 -1        46-1.25858E-10-1.25858E-10 1.07878E-10-2.66948E-19 6.58494E-20-3.81104E-19
 -1        47-1.25858E-10-1.25858E-10 1.07878E-10-4.29551E-19-7.13723E-20-8.25095E-20
 -1        48-1.88787E-10-1.88787E-10 1.61817E-10 4.50505E-19 2.93468E-19 1.72986E-19
 -1        49-1.88787E-10-1.88787E-10 1.61817E-10 1.74439E-20-1.17748E-18 1.09000E-19
 -1        50-1.25858E-10-1.25858E-10 1.07878E-10 2.92458E-20-3.74826E-19 4.74255E-20
 -1        51-1.25858E-10-1.25858E-10 1.07878E-10 2.92591E-19-4.03231E-19 4.71849E-19
 -1        52-1.25858E-10-1.25858E-10 1.07878E-10-3.04231E-19 6.35276E-19 1.95185E-19
 -1        53-1.25858E-10-1.25858E-10 1.07878E-10 7.06311E-19-1.47326E-18 6.91863E-19
 -1        54-1.88787E-10-1.88787E-10 1.61817E-10-7.88944E-19 2.02369E-18 2.19487E-19
 -1        55-1.88787E-10-1.88787E-10 1.61817E-10-9.06775E-19 1.74276E-18-1.06076E-19
 -1        56-1.25858E-10-1.25858E-10 1.07878E-10-5.86900E-19 7.64489E-20-1.92594E-20
 -1        57-1.25858E-10-1.25858E-10 1.07878E-10 7.25140E-19 4.98481E-19 2.54039E-19
 -1        58-1.25858E-10-1.25858E-10 1.07878E-10 2.45948E-19-1.32832E-18-5.23615E-19
 -1        59-1.25858E-10-1.25858E-10 1.07878E-10-8.81601E-21-1.19660E-18-1.17726E-18
 -1        60-1.88787E-10-1.88787E-10 1.61817E-10 8.67987E-19 5.62064E-19-3.26511E-19
 -1        61-1.88787E-10-1.88787E-10 1.61817E-10 4.33685E-19-4.70607E-19-1.70184E-19
 -1        62-1.25858E-10-1.25858E-10 1.07878E-10 2.38740E-19 8.01752E-19-6.40720E-20
 -1        63-1.25858E-10-1.25858E-10 1.07878E-10 9.53909E-19-1.58820E-18 3.26852E-19
 -1        64-1.25858E-10-1.25858E-10 1.07878E-10 1.74729E-18 1.84488E-18 4.93377E-19
 -1        65-1.25858E-10-1.25858E-10 1.07878E-10 2.83270E-18 7.67288E-19-2.33144E-18
 -1        66-1.88787E-10-1.88787E-10 1.61817E-10 3.85299E-19 1.07428E-18 1.65346E-18
 -1        67-3.77574E-10-3.77574E-10 3.23635E-10-2.32376E-19 3.07419E-18 1.12505E-19
 -1        68-1.88787E-10-1.88787E-10 1.61817E-10-1.91763E-19 1.68233E-19 3.11393E-19
 -1        69-1.88787E-10-1.88787E-10 1.61817E-10-1.82403E-19 3.55205E-18 4.61627E-19
 -1        70-1.88787E-10-1.88787E-10 1.61817E-10-2.37034E-18-3.21061E-18-6.44875E-19
 -1        71-1.88787E-10-1.88787E-10 1.61817E-10-3.23546E-18-8.36475E-21 3.24240E-18
 -1        72-3.77574E-10-3.77574E-10 3.23635E-10-1.63026E-18-2.46388E-18-6.07975E-18
 -3
    1PSTEP                       235          79           1          
  100CL  179 6.69781E-01          72                     0   79           1
 -4  DISP        4    1
 -5  D1          1    2    1    0
 -5  D2          1    2    2    0
 -5  D3          1    2    3    0
 -5  ALL         1    2    0    0    1ALL
 -1         1 0.00000E+00 0.00000E+00 0.00000E+00
 -1         2-3.11446E-02 0.00000E+00 0.00000E+00
 -1         3-1.00311E+01 0.00000E+00 0.00000E+00
 -1         4-1.00623E+01 0.00000E+00 0.00000E+00
 -1         5-2.00623E+01 0.00000E+00 0.00000E+00
 -1         6-2.00934E+01 0.00000E+00 0.00000E+00
 -1         7 0.00000E+00-3.11446E-02 0.00000E+00
 -1         8-3.11446E-02-3.11446E-02 0.00000E+00
 -1         9-1.00311E+01-3.11446E-02 0.00000E+00
 -1        10-1.00623E+01-3.11446E-02 0.00000E+00
 -1        11-2.00623E+01-3.11446E-02 0.00000E+00
 -1        12-2.00934E+01-3.11446E-02 0.00000E+00
 -1        13 0.00000E+00-1.00311E+01 0.00000E+00
 -1        14-3.11446E-02-1.00311E+01 0.00000E+00
 -1        15-1.00311E+01-1.00311E+01 0.00000E+00
 -1        16-1.00623E+01-1.00311E+01 0.00000E+00
 -1        17-2.00623E+01-1.00311E+01 0.00000E+00
 -1        18-2.00934E+01-1.00311E+01 0.00000E+00
 -1        19 0.00000E+00-1.00623E+01 0.00000E+00
 -1        20-3.11446E-02-1.00623E+01 0.00000E+00
 -1        21-1.00311E+01-1.00623E+01 0.00000E+00
 -1        22-1.00623E+01-1.00623E+01 0.00000E+00
 -1        23-2.00623E+01-1.00623E+01 0.00000E+00
 -1        24-2.00934E+01-1.00623E+01 0.00000E+00
 -1        25 0.00000E+00-2.00623E+01 0.00000E+00
 -1        26-3.11446E-02-2.00623E+01 0.00000E+00
 -1        27-1.00311E+01-2.00623E+01 0.00000E+00
 -1        28-1.00623E+01-2.00623E+01 0.00000E+00
 -1        29-2.00623E+01-2.00623E+01 0.00000E+00
 -1        30-2.00934E+01-2.00623E+01 0.00000E+00
 -1        31 0.00000E+00-2.00934E+01 0.00000E+00
 -1        32-3.11446E-02-2.00934E+01 0.00000E+00
 -1        33-1.00311E+01-2.00934E+01 0.00000E+00
 -1        34-1.00623E+01-2.00934E+01 0.00000E+00
 -1        35-2.00623E+01-2.00934E+01 0.00000E+00
 -1        36-2.00934E+01-2.00934E+01 0.00000E+00
 -1        37 0.00000E+00 0.00000E+00 3.73713E-02
 -1        38-3.11446E-02 0.00000E+00 3.73713E-02
 -1        39-1.00311E+01 0.00000E+00 3.73713E-02
 -1        40-1.00623E+01 0.00000E+00 3.73713E-02
 -1        41-2.00623E+01 0.00000E+00 3.73713E-02
 -1        42-2.00934E+01 0.00000E+00 3.73713E-02
 -1        43 0.00000E+00-3.11446E-02 3.73713E-02
 -1        44-3.11446E-02-3.11446E-02 3.73713E-02
 -1        45-1.00311E+01-3.11446E-02 3.73713E-02
 -1        46-1.00623E+01-3.11446E-02 3.73713E-02
 -1        47-2.00623E+01-3.11446E-02 3.73713E-02
 -1        48-2.00934E+01-3.11446E-02 3.73713E-02
 -1        49 0.00000E+00-1.00311E+01 3.73713E-02
 -1        50-3.11446E-02-1.00311E+01 3.73713E-02
 -1        51-1.00311E+01-1.00311E+01 3.73713E-02
 -1        52-1.00623E+01-1.00311E+01 3.73713E-02
 -1        53-2.00623E+01-1.00311E+01 3.73713E-02
 -1        54-2.00934E+01-1.00311E+01 3.73713E-02
 -1        55 0.00000E+00-1.00623E+01 3.73713E-02
 -1        56-3.11446E-02-1.00623E+01 3.73713E-02
 -1        57-1.00311E+01-1.00623E+01 3.73713E-02
 -1        58-1.00623E+01-1.00623E+01 3.73713E-02
 -1        59-2.00623E+01-1.00623E+01 3.73713E-02
 -1        60-2.00934E+01-1.00623E+01 3.73713E-02
 -1        61 0.00000E+00-2.00623E+01 3.73713E-02
 -1        62-3.11446E-02-2.00623E+01 3.73713E-02
 -1        63-1.00311E+01-2.00623E+01 3.73713E-02
 -1        64-1.00623E+01-2.00623E+01 3.73713E-02
 -1        65-2.00623E+01-2.00623E+01 3.73713E-02
 -1        66-2.00934E+01-2.00623E+01 3.73713E-02
 -1        67 0.00000E+00-2.00934E+01 3.73713E-02
 -1        68-3.11446E-02-2.00934E+01 3.73713E-02
 -1        69-1.00311E+01-2.00934E+01 3.73713E-02
 -1        70-1.00623E+01-2.00934E+01 3.73713E-02
 -1        71-2.00623E+01-2.00934E+01 3.73713E-02
 -1        72-2.00934E+01-2.00934E+01 3.73713E-02
 -3
    1PSTEP                       236          79           1          
  100CL  179 6.69781E-01          72                     0   79           1
 -4  STRESS      6    1
 -5  SXX         1    4    1    1
 -5  SYY         1    4    2    2
 -5  SZZ         1    4    3    3
 -5  SXY         1    4    1    2
 -5  SYZ         1    4    2    3
 -5  SZX         1    4    3    1
 -1         1-1.86844E+01-1.86844E+01-3.69767E-12-1.60447E-16 6.20949E-16-4.99162E-16
 -1         2-9.34221E+00-9.34221E+00 1.81351E-11 1.71375E-11-3.38426E-18-1.97954E-11
 -1         3-9.34221E+00-9.34221E+00-1.03602E-11 2.08201E-11 2.67123E-16-1.81514E-11
 -1         4-9.34221E+00-9.34221E+00 2.23079E-11 1.95497E-11 4.91265E-17-2.19693E-11
 -1         5-9.34221E+00-9.34221E+00-7.57119E-12 2.40168E-11-2.41224E-16-1.54767E-11
 -1         6-1.86844E+01-1.86844E+01 1.77163E-11 7.61153E-13-4.65555E-16 6.82465E-13
 -1         7-9.34221E+00-9.34221E+00-3.01387E-12-1.84550E-11 1.81441E-11-1.80803E-17
 -1         8-6.22814E+00-6.22814E+00-7.67301E-12-8.78333E-13-6.54449E-12 5.57752E-12
 -1         9-6.22814E+00-6.22814E+00-4.85157E-12-1.38039E-11 1.97100E-11 6.05350E-12
 -1        10-6.22814E+00-6.22814E+00 1.12737E-12-1.50472E-11-1.47587E-11 1.38066E-12
 -1        11-6.22814E+00-6.22814E+00 1.54286E-11 4.26937E-12 3.21705E-12 7.28015E-12
 -1        12-9.34221E+00-9.34221E+00 1.96436E-11-1.75755E-11-2.17861E-11-4.59212E-13
 -1        13-9.34221E+00-9.34221E+00 3.85347E-12-1.94862E-11 1.62610E-11-3.31434E-16
 -1        14-6.22814E+00-6.22814E+00 1.62148E-11 6.79108E-12-6.07136E-12-1.83889E-11
 -1        15-6.22814E+00-6.22814E+00-2.70398E-12-4.30825E-12 1.87017E-11-1.67475E-11
 -1        16-6.22814E+00-6.22814E+00-1.86419E-12-3.64016E-12-1.62241E-11-1.44258E-11
 -1        17-6.22814E+00-6.22814E+00-1.34496E-11 4.61731E-12 3.55282E-12-1.85239E-11
 -1        18-9.34221E+00-9.34221E+00-1.10165E-11-2.65582E-11-1.60073E-11 4.47033E-13
 -1        19-9.34221E+00-9.34221E+00-4.12221E-12-1.85633E-11 1.45431E-11 4.45307E-16
 -1        20-6.22814E+00-6.22814E+00-1.48513E-11 7.40638E-12-6.92996E-12 2.33920E-11
 -1        21-6.22814E+00-6.22814E+00-4.44052E-12 7.14776E-12 2.59640E-11 2.38757E-11
 -1        22-6.22814E+00-6.22814E+00 4.51288E-12 7.91065E-12-2.42068E-11 2.39810E-11
 -1        23-6.22814E+00-6.22814E+00 5.73047E-12 1.28804E-11 6.94778E-12 2.26562E-11
 -1        24-9.34221E+00-9.34221E+00 2.53224E-11-1.33898E-11-2.20164E-11-2.74011E-13
 -1        25-9.34221E+00-9.34221E+00 9.59398E-12-1.41342E-11 1.79101E-11 2.30805E-16
 -1        26-6.22814E+00-6.22814E+00 3.06995E-12-1.78137E-13-1.02582E-11-1.10864E-11
 -1        27-6.22814E+00-6.22814E+00-2.42662E-12-1.21139E-11 1.43573E-11-1.26643E-11
 -1        28-6.22814E+00-6.22814E+00-1.71308E-11-1.54166E-11-2.29406E-11-1.51589E-11
 -1        29-6.22814E+00-6.22814E+00 2.08498E-11 2.89247E-12 1.60953E-11-1.07028E-11
 -1        30-9.34221E+00-9.34221E+00-1.15907E-11-1.03922E-11-1.42501E-11 1.52054E-13
 -1        31-1.86844E+01-1.86844E+01 5.33760E-13-1.24359E-13-3.18645E-13 6.54013E-16
 -1        32-9.34221E+00-9.34221E+00-5.13091E-13 1.38048E-11-4.81109E-14 1.52581E-11
 -1        33-9.34221E+00-9.34221E+00-8.19291E-12 1.18801E-11-7.03973E-14 1.46691E-11
 -1        34-9.34221E+00-9.34221E+00 6.51884E-12 6.92471E-12-2.83292E-13 1.33742E-11
 -1        35-9.34221E+00-9.34221E+00-7.27122E-12 1.47313E-11-1.38411E-13 1.20106E-11
 -1        36-1.86844E+01-1.86844E+01 8.98733E-12 9.82729E-14 7.33177E-13 6.11802E-13
 -1        37-1.86844E+01-1.86844E+01-1.06315E-11 1.50342E-16-2.14977E-11 3.81304E-11
 -1        38-9.34221E+00-9.34221E+00-4.40562E-11 5.65492E-11-2.21371E-11-7.29968E-13
 -1        39-9.34221E+00-9.34221E+00 4.30388E-11 5.82712E-11 2.18260E-12 1.99687E-11
 -1        40-9.34221E+00-9.34221E+00-3.28802E-11 5.31236E-11-7.29842E-12 1.60726E-11
 -1        41-9.34221E+00-9.34221E+00 3.37036E-11 6.03793E-11 2.69043E-11 2.21171E-12
 -1        42-1.86844E+01-1.86844E+01-1.15084E-11 2.65132E-13 3.78812E-11 3.43110E-11
 -1        43-9.34221E+00-9.34221E+00 5.26613E-11-5.75880E-11 7.39555E-12 7.67718E-12
 -1        44-6.22814E+00-6.22814E+00-9.70889E-12-6.92620E-13-2.13026E-11 1.06957E-11
 -1        45-6.22814E+00-6.22814E+00 2.69830E-11-3.72004E-11 2.11653E-11 2.49450E-11
 -1        46-6.22814E+00-6.22814E+00-3.94294E-11-4.04371E-11-1.96245E-11 2.05082E-11
 -1        47-6.22814E+00-6.22814E+00 7.07994E-12 3.73452E-12 2.11531E-11 1.34443E-11
 -1        48-9.34221E+00-9.34221E+00-4.87666E-11-5.53522E-11-2.84498E-12 9.68743E-12
 -1        49-9.34221E+00-9.34221E+00-5.83271E-11-5.53770E-11-4.36793E-12 7.75653E-12
 -1        50-6.22814E+00-6.22814E+00-2.40326E-11 4.13373E-11-3.03772E-11-1.32182E-11
 -1        51-6.22814E+00-6.22814E+00 1.71507E-11 3.45043E-12 1.76171E-11-2.29952E-11
 -1        52-6.22814E+00-6.22814E+00-1.40872E-11 1.23701E-12-1.42252E-11-2.12348E-11
 -1        53-6.22814E+00-6.22814E+00 3.25967E-11 4.18265E-11 2.43360E-11-2.05932E-11
 -1        54-9.34221E+00-9.34221E+00 3.37993E-11-5.61874E-11 1.83950E-11-4.20014E-12
 -1        55-9.34221E+00-9.34221E+00 6.53176E-11-5.35480E-11-6.12870E-12-7.69020E-12
 -1        56-6.22814E+00-6.22814E+00 3.26483E-11 4.25566E-11-3.12947E-11 1.82654E-11
 -1        57-6.22814E+00-6.22814E+00 1.11285E-11-6.49825E-12 2.50990E-11 2.04295E-11
 -1        58-6.22814E+00-6.22814E+00-1.21035E-11-8.69267E-12-2.20331E-11 2.06408E-11
 -1        59-6.22814E+00-6.22814E+00-3.43745E-11 3.92692E-11 2.78871E-11 2.21236E-11
 -1        60-9.34221E+00-9.34221E+00-5.92412E-11-5.94316E-11 1.25065E-11-6.59372E-13
 -1        61-9.34221E+00-9.34221E+00-6.17377E-11-6.10750E-11 5.78067E-12-1.10760E-11
 -1        62-6.22814E+00-6.22814E+00 8.68772E-13-1.72113E-12-1.75937E-11-1.84701E-11
 -1        63-6.22814E+00-6.22814E+00-3.87959E-11-3.35494E-11 1.51314E-11-3.02351E-11
 -1        64-6.22814E+00-6.22814E+00 2.58713E-11-3.39555E-11-1.24089E-11-3.30424E-11
 -1        65-6.22814E+00-6.22814E+00 8.53999E-12-6.18376E-12 1.16186E-11-2.59697E-11
 -1        66-9.34221E+00-9.34221E+00 5.04491E-11-6.33239E-11 2.15511E-12-2.34427E-11
 -1        67-1.86844E+01-1.86844E+01-1.16556E-11 1.15432E-13-2.39099E-11-1.84137E-11
 -1        68-9.34221E+00-9.34221E+00 6.36239E-11 5.85511E-11-1.03081E-11 6.05128E-12
 -1        69-9.34221E+00-9.34221E+00-5.78252E-11 5.84972E-11 1.05207E-12 2.78067E-12
 -1        70-9.34221E+00-9.34221E+00 7.83300E-11 5.79550E-11 1.56584E-11 1.74473E-12
 -1        71-9.34221E+00-9.34221E+00-8.36742E-11 5.42141E-11-6.15303E-12 1.08900E-11
 -1        72-1.86844E+01-1.86844E+01 1.50119E-11-1.02641E-12 3.03042E-11-3.65558E-12
 -3
    1PSTEP                       237          79           1          
  100CL  179 6.69781E-01          72                     0   79           1
 -4  TOSTRAIN    6    1
 -5  EXX         1    4    1    1
 -5  EYY         1    4    2    2
 -5  EZZ         1    4    3    3
 -5  EXY         1    4    1    2
 -5  EYZ         1    4    2    3
 -5  EZX         1    4    3    1
 -1         1-6.22847E-05-6.22847E-05 5.33869E-05-9.93526E-22 3.84438E-21-3.09072E-21
 -1         2-3.11424E-05-3.11424E-05 2.66935E-05 1.06119E-16-2.05380E-23-1.22536E-16
 -1         3-3.11424E-05-3.11424E-05 2.66935E-05 1.28923E-16 1.65376E-21-1.12359E-16
 -1         4-3.11424E-05-3.11424E-05 2.66935E-05 1.21056E-16 3.04132E-22-1.35992E-16
 -1         5-3.11424E-05-3.11424E-05 2.66935E-05 1.48718E-16-1.49382E-21-9.58024E-17
 -1         6-6.22847E-05-6.22847E-05 5.33869E-05 4.71324E-18-2.88284E-21 4.22452E-18
 -1         7-3.11424E-05-3.11424E-05 2.66935E-05-1.14278E-16 1.12314E-16-1.12197E-22
 -1         8-2.07616E-05-2.07616E-05 1.77956E-05-5.43885E-18-4.05110E-17 3.45253E-17
 -1         9-2.07616E-05-2.07616E-05 1.77956E-05-8.54771E-17 1.22007E-16 3.74717E-17
 -1        10-2.07616E-05-2.07616E-05 1.77956E-05-9.31757E-17-9.13574E-17 8.54642E-18
 -1        11-2.07616E-05-2.07616E-05 1.77956E-05 2.64369E-17 1.99139E-17 4.50648E-17
 -1        12-3.11424E-05-3.11424E-05 2.66935E-05-1.08831E-16-1.34858E-16-2.84257E-18
 -1        13-3.11424E-05-3.11424E-05 2.66935E-05-1.20664E-16 1.00657E-16-2.05164E-21
 -1        14-2.07616E-05-2.07616E-05 1.77956E-05 4.20520E-17-3.75823E-17-1.13829E-16
 -1        15-2.07616E-05-2.07616E-05 1.77956E-05-2.66777E-17 1.15765E-16-1.03668E-16
 -1        16-2.07616E-05-2.07616E-05 1.77956E-05-2.25408E-17-1.00428E-16-8.92969E-17
 -1        17-2.07616E-05-2.07616E-05 1.77956E-05 2.85915E-17 2.19923E-17-1.14664E-16
 -1        18-3.11424E-05-3.11424E-05 2.66935E-05-1.64455E-16-9.90863E-17 2.76718E-18
 -1        19-3.11424E-05-3.11424E-05 2.66935E-05-1.14948E-16 9.00232E-17 2.75679E-21
 -1        20-2.07616E-05-2.07616E-05 1.77956E-05 4.58621E-17-4.28971E-17 1.44798E-16
 -1        21-2.07616E-05-2.07616E-05 1.77956E-05 4.42606E-17 1.60720E-16 1.47793E-16
 -1        22-2.07616E-05-2.07616E-05 1.77956E-05 4.89846E-17-1.49842E-16 1.48444E-16
 -1        23-2.07616E-05-2.07616E-05 1.77956E-05 7.97584E-17 4.30074E-17 1.40244E-16
 -1        24-3.11424E-05-3.11424E-05 2.66935E-05-8.29131E-17-1.36284E-16-1.69615E-18
 -1        25-3.11424E-05-3.11424E-05 2.66935E-05-8.75221E-17 1.10865E-16 1.42887E-21
 -1        26-2.07616E-05-2.07616E-05 1.77956E-05-1.10307E-18-6.34991E-17-6.86257E-17
 -1        27-2.07616E-05-2.07616E-05 1.77956E-05-7.50121E-17 8.88733E-17-7.83934E-17
 -1        28-2.07616E-05-2.07616E-05 1.77956E-05-9.54635E-17-1.42004E-16-9.38349E-17
 -1        29-2.07616E-05-2.07616E-05 1.77956E-05 1.79109E-17 9.96313E-17-6.62514E-17
 -1        30-3.11424E-05-3.11424E-05 2.66935E-05-6.43510E-17-8.82097E-17 9.41228E-19
 -1        31-6.22847E-05-6.22847E-05 5.33869E-05-7.70061E-19-1.97244E-18 4.04930E-21
 -1        32-3.11424E-05-3.11424E-05 2.66935E-05 8.54824E-17-2.97810E-19 9.44490E-17
 -1        33-3.11424E-05-3.11424E-05 2.66935E-05 7.35646E-17-4.35766E-19 9.08030E-17
 -1        34-3.11424E-05-3.11424E-05 2.66935E-05 4.28795E-17-1.75360E-18 8.27877E-17
 -1        35-3.11424E-05-3.11424E-05 2.66935E-05 9.12197E-17-8.56779E-19 7.43467E-17
 -1        36-6.22847E-05-6.22847E-05 5.33869E-05 6.08529E-19 4.53843E-18 3.78711E-18
 -1        37-6.22847E-05-6.22847E-05 5.33869E-05 9.30951E-22-1.33103E-16 2.36085E-16
 -1        38-3.11424E-05-3.11424E-05 2.66935E-05 3.50166E-16-1.37062E-16-4.49126E-18
 -1        39-3.11424E-05-3.11424E-05 2.66935E-05 3.60829E-16 1.35136E-17 1.23663E-16
 -1        40-3.11424E-05-3.11424E-05 2.66935E-05 3.28954E-16-4.51883E-17 9.95452E-17
 -1        41-3.11424E-05-3.11424E-05 2.66935E-05 3.73883E-16 1.66578E-16 1.37153E-17
 -1        42-6.22847E-05-6.22847E-05 5.33869E-05 1.64176E-18 2.34542E-16 2.12438E-16
 -1        43-3.11424E-05-3.11424E-05 2.66935E-05-3.56599E-16 4.57637E-17 4.75335E-17
 -1        44-2.07616E-05-2.07616E-05 1.77956E-05-4.28887E-18-1.31886E-16 6.62144E-17
 -1        45-2.07616E-05-2.07616E-05 1.77956E-05-2.30354E-16 1.31017E-16 1.54439E-16
 -1        46-2.07616E-05-2.07616E-05 1.77956E-05-2.50396E-16-1.21484E-16 1.26975E-16
 -1        47-2.07616E-05-2.07616E-05 1.77956E-05 2.31250E-17 1.30965E-16 8.32302E-17
 -1        48-3.11424E-05-3.11424E-05 2.66935E-05-3.42754E-16-1.75835E-17 5.99793E-17
 -1        49-3.11424E-05-3.11424E-05 2.66935E-05-3.42907E-16-2.70680E-17 4.80247E-17
 -1        50-2.07616E-05-2.07616E-05 1.77956E-05 2.55970E-16-1.88072E-16-8.18144E-17
 -1        51-2.07616E-05-2.07616E-05 1.77956E-05 2.13659E-17 1.09050E-16-1.42352E-16
 -1        52-2.07616E-05-2.07616E-05 1.77956E-05 7.65985E-18-8.80524E-17-1.31455E-16
 -1        53-2.07616E-05-2.07616E-05 1.77956E-05 2.59000E-16 1.50672E-16-1.27478E-16
 -1        54-3.11424E-05-3.11424E-05 2.66935E-05-3.47926E-16 1.13916E-16-2.60050E-17
 -1        55-3.11424E-05-3.11424E-05 2.66935E-05-3.31582E-16-3.79673E-17-4.76140E-17
 -1        56-2.07616E-05-2.07616E-05 1.77956E-05 2.63521E-16-1.93752E-16 1.13057E-16
 -1        57-2.07616E-05-2.07616E-05 1.77956E-05-4.02387E-17 1.55364E-16 1.26456E-16
 -1        58-2.07616E-05-2.07616E-05 1.77956E-05-5.38271E-17-1.36384E-16 1.27764E-16
 -1        59-2.07616E-05-2.07616E-05 1.77956E-05 2.43164E-16 1.72653E-16 1.36947E-16
 -1        60-3.11424E-05-3.11424E-05 2.66935E-05-3.68015E-16 7.74657E-17-4.08281E-18
 -1        61-3.11424E-05-3.11424E-05 2.66935E-05-3.78191E-16 3.57654E-17-6.85773E-17
 -1        62-2.07616E-05-2.07616E-05 1.77956E-05-1.06576E-17-1.08917E-16-1.14342E-16
 -1        63-2.07616E-05-2.07616E-05 1.77956E-05-2.07746E-16 9.36658E-17-1.87184E-16
 -1        64-2.07616E-05-2.07616E-05 1.77956E-05-2.10261E-16-7.67970E-17-2.04561E-16
 -1        65-2.07616E-05-2.07616E-05 1.77956E-05-3.82913E-17 7.19139E-17-1.60777E-16
 -1        66-3.11424E-05-3.11424E-05 2.66935E-05-3.92117E-16 1.33626E-17-1.45146E-16
 -1        67-6.22847E-05-6.22847E-05 5.33869E-05 7.14781E-19-1.48040E-16-1.14009E-16
 -1        68-3.11424E-05-3.11424E-05 2.66935E-05 3.62562E-16-6.38227E-17 3.74448E-17
 -1        69-3.11424E-05-3.11424E-05 2.66935E-05 3.62229E-16 6.51397E-18 1.71959E-17
 -1        70-3.11424E-05-3.11424E-05 2.66935E-05 3.58871E-16 9.69500E-17 1.07833E-17
 -1        71-3.11424E-05-3.11424E-05 2.66935E-05 3.35707E-16-3.80968E-17 6.74077E-17
 -1        72-6.22847E-05-6.22847E-05 5.33869E-05-6.35577E-18 1.87630E-16-2.26328E-17
 -3
    1PSTEP                       238          80           1          
  100CL  180 6.78781E-01          72                     0   80           1
 -4  DISP        4    1
 -5  D1          1    2    1    0
 -5  D2          1    2    2    0
 -5  D3          1    2    3    0
 -5  ALL         1    2    0    0    1ALL
 -1         1 0.00000E+00 0.00000E+00 0.00000E+00
 -1         2-1.21140E-01 0.00000E+00 0.00000E+00
 -1         3-1.01211E+01 0.00000E+00 0.00000E+00
 -1         4-1.02423E+01 0.00000E+00 0.00000E+00
 -1         5-2.02423E+01 0.00000E+00 0.00000E+00
 -1         6-2.03634E+01 0.00000E+00 0.00000E+00
 -1         7 0.00000E+00-1.21140E-01 0.00000E+00
 -1         8-1.21140E-01-1.21140E-01 0.00000E+00
 -1         9-1.01211E+01-1.21140E-01 0.00000E+00
 -1        10-1.02423E+01-1.21140E-01 0.00000E+00
 -1        11-2.02423E+01-1.21140E-01 0.00000E+00
 -1        12-2.03634E+01-1.21140E-01 0.00000E+00
 -1        13 0.00000E+00-1.01211E+01 0.00000E+00
 -1        14-1.21140E-01-1.01211E+01 0.00000E+00
 -1        15-1.01211E+01-1.01211E+01 0.00000E+00
 -1        16-1.02423E+01-1.01211E+01 0.00000E+00
 -1        17-2.02423E+01-1.01211E+01 0.00000E+00
 -1        18-2.03634E+01-1.01211E+01 0.00000E+00
 -1        19 0.00000E+00-1.02423E+01 0.00000E+00
 -1        20-1.21140E-01-1.02423E+01 0.00000E+00
 -1        21-1.01211E+01-1.02423E+01 0.00000E+00
 -1        22-1.02423E+01-1.02423E+01 0.00000E+00
 -1        23-2.02423E+01-1.02423E+01 0.00000E+00
 -1        24-2.03634E+01-1.02423E+01 0.00000E+00
 -1        25 0.00000E+00-2.02423E+01 0.00000E+00
 -1        26-1.21140E-01-2.02423E+01 0.00000E+00
 -1        27-1.01211E+01-2.02423E+01 0.00000E+00
 -1        28-1.02423E+01-2.02423E+01 0.00000E+00
 -1        29-2.02423E+01-2.02423E+01 0.00000E+00
 -1        30-2.03634E+01-2.02423E+01 0.00000E+00
 -1        31 0.00000E+00-2.03634E+01 0.00000E+00
 -1        32-1.21140E-01-2.03634E+01 0.00000E+00
 -1        33-1.01211E+01-2.03634E+01 0.00000E+00
 -1        34-1.02423E+01-2.03634E+01 0.00000E+00
 -1        35-2.02423E+01-2.03634E+01 0.00000E+00
 -1        36-2.03634E+01-2.03634E+01 0.00000E+00
 -1        37 0.00000E+00 0.00000E+00 1.45335E-01
 -1        38-1.21140E-01 0.00000E+00 1.45335E-01
 -1        39-1.01211E+01 0.00000E+00 1.45335E-01
 -1        40-1.02423E+01 0.00000E+00 1.45335E-01
 -1        41-2.02423E+01 0.00000E+00 1.45335E-01
 -1        42-2.03634E+01 0.00000E+00 1.45335E-01
 -1        43 0.00000E+00-1.21140E-01 1.45335E-01
 -1        44-1.21140E-01-1.21140E-01 1.45335E-01
 -1        45-1.01211E+01-1.21140E-01 1.45335E-01
 -1        46-1.02423E+01-1.21140E-01 1.45335E-01
 -1        47-2.02423E+01-1.21140E-01 1.45335E-01
 -1        48-2.03634E+01-1.21140E-01 1.45335E-01
 -1        49 0.00000E+00-1.01211E+01 1.45335E-01
 -1        50-1.21140E-01-1.01211E+01 1.45335E-01
 -1        51-1.01211E+01-1.01211E+01 1.45335E-01
 -1        52-1.02423E+01-1.01211E+01 1.45335E-01
 -1        53-2.02423E+01-1.01211E+01 1.45335E-01
 -1        54-2.03634E+01-1.01211E+01 1.45335E-01
 -1        55 0.00000E+00-1.02423E+01 1.45335E-01
 -1        56-1.21140E-01-1.02423E+01 1.45335E-01
 -1        57-1.01211E+01-1.02423E+01 1.45335E-01
 -1        58-1.02423E+01-1.02423E+01 1.45335E-01
 -1        59-2.02423E+01-1.02423E+01 1.45335E-01
 -1        60-2.03634E+01-1.02423E+01 1.45335E-01
 -1        61 0.00000E+00-2.02423E+01 1.45335E-01
 -1        62-1.21140E-01-2.02423E+01 1.45335E-01
 -1        63-1.01211E+01-2.02423E+01 1.45335E-01
 -1        64-1.02423E+01-2.02423E+01 1.45335E-01
 -1        65-2.02423E+01-2.02423E+01 1.45335E-01
 -1        66-2.03634E+01-2.02423E+01 1.45335E-01
 -1        67 0.00000E+00-2.03634E+01 1.45335E-01
 -1        68-1.21140E-01-2.03634E+01 1.45335E-01
 -1        69-1.01211E+01-2.03634E+01 1.45335E-01
 -1        70-1.02423E+01-2.03634E+01 1.45335E-01
 -1        71-2.02423E+01-2.03634E+01 1.45335E-01
 -1        72-2.03634E+01-2.03634E+01 1.45335E-01
 -3
    1PSTEP                       239          80           1          
  100CL  180 6.78781E-01          72                     0   80           1
 -4  STRESS      6    1
 -5  SXX         1    4    1    1
 -5  SYY         1    4    2    2
 -5  SZZ         1    4    3    3
 -5  SXY         1    4    1    2
 -5  SYZ         1    4    2    3
 -5  SZX         1    4    3    1
 -1         1-7.26571E+01-7.26571E+01-3.74072E-11 3.30709E-16-1.26769E-15-5.46897E-16
 -1         2-3.63285E+01-3.63285E+01-1.91716E-11-5.68611E-12 8.36067E-16-7.88577E-13
 -1         3-3.63285E+01-3.63285E+01-1.65005E-11 2.04350E-12-1.75903E-16 1.19139E-12
 -1         4-3.63285E+01-3.63285E+01-1.07073E-11-9.29761E-12-3.06782E-16-3.06695E-12
 -1         5-3.63285E+01-3.63285E+01-1.18916E-11 1.06388E-11-1.01880E-16 3.24013E-12
 -1         6-7.26571E+01-7.26571E+01-3.73179E-11 2.20967E-14-5.76079E-17-1.39496E-13
 -1         7-3.63285E+01-3.63285E+01-2.70456E-11-5.59866E-13 2.81125E-13 6.95895E-17
 -1         8-2.42190E+01-2.42190E+01-1.96403E-11-4.16410E-12 2.75814E-12 1.06859E-13
 -1         9-2.42190E+01-2.42190E+01-2.39927E-11 4.71201E-12 2.97126E-12 8.27080E-13
 -1        10-2.42190E+01-2.42190E+01-2.06560E-11-2.94007E-12 9.84825E-13 2.37327E-12
 -1        11-2.42190E+01-2.42190E+01-1.27274E-11 2.26849E-12-5.27010E-12-3.90288E-12
 -1        12-3.63285E+01-3.63285E+01-3.00684E-11-7.14816E-12 2.41847E-12-4.02660E-13
 -1        13-3.63285E+01-3.63285E+01-5.86541E-12 8.76814E-12 8.00743E-12 5.77734E-16
 -1        14-2.42190E+01-2.42190E+01-5.71050E-12-3.44965E-12-5.07758E-13-5.49765E-12
 -1        15-2.42190E+01-2.42190E+01-2.74777E-12 2.88202E-12 3.20011E-12 4.49822E-12
 -1        16-2.42190E+01-2.42190E+01-2.65657E-12-7.50988E-12 3.91742E-12-1.42080E-12
 -1        17-2.42190E+01-2.42190E+01-1.41100E-11 7.50842E-12-3.34757E-12 1.64166E-12
 -1        18-3.63285E+01-3.63285E+01-2.16106E-11-2.91851E-12-6.23220E-12-3.72680E-13
 -1        19-3.63285E+01-3.63285E+01-4.19616E-11 5.63202E-12 1.05725E-11 1.12089E-16
 -1        20-2.42190E+01-2.42190E+01-3.17229E-11-5.54040E-12 6.49857E-12 3.63928E-12
 -1        21-2.42190E+01-2.42190E+01-3.61374E-11 8.26663E-12 1.12005E-11-3.10078E-13
 -1        22-2.42190E+01-2.42190E+01-2.98281E-11-2.50840E-12 4.38883E-12 4.60686E-12
 -1        23-2.42190E+01-2.42190E+01-1.01152E-11 6.12399E-12-1.13741E-11-5.74491E-12
 -1        24-3.63285E+01-3.63285E+01-1.94373E-11-5.48145E-12-4.45419E-12 6.57184E-14
 -1        25-3.63285E+01-3.63285E+01-3.24039E-11-6.65495E-13-5.61360E-12 5.08481E-16
 -1        26-2.42190E+01-2.42190E+01-2.16777E-11-7.43257E-13-6.16139E-12-8.87346E-13
 -1        27-2.42190E+01-2.42190E+01-2.08612E-11-1.61578E-12-7.59909E-12 1.61126E-12
 -1        28-2.42190E+01-2.42190E+01-1.55794E-11-6.98575E-12-3.08524E-12-3.49076E-12
 -1        29-2.42190E+01-2.42190E+01-5.77029E-12 3.35467E-12 6.26716E-12 1.62525E-12
 -1        30-3.63285E+01-3.63285E+01-8.13087E-12-2.94589E-12 3.13590E-12 7.11924E-15
 -1        31-7.26571E+01-7.26571E+01-4.90015E-11-6.69920E-14 3.79979E-13-1.00394E-15
 -1        32-3.63285E+01-3.63285E+01-2.31696E-11-4.82886E-13-1.82313E-13-1.96823E-13
 -1        33-3.63285E+01-3.63285E+01-2.83855E-11 2.17965E-12-3.91564E-13 1.04504E-12
 -1        34-3.63285E+01-3.63285E+01-2.91162E-11-5.75244E-12 3.85602E-14 6.96735E-12
 -1        35-3.63285E+01-3.63285E+01-3.70112E-11 8.15742E-12-3.99239E-13-1.03951E-11
 -1        36-7.26571E+01-7.26571E+01-4.53338E-11-9.20840E-13 3.77293E-13-1.99655E-13
 -1        37-7.26571E+01-7.26571E+01-3.95610E-11-7.22883E-16 1.83887E-13 2.99825E-13
 -1        38-3.63285E+01-3.63285E+01-1.21378E-11-4.35787E-12-7.03380E-13-6.38692E-13
 -1        39-3.63285E+01-3.63285E+01-1.64242E-11 1.80113E-12-8.00254E-13 5.53704E-13
 -1        40-3.63285E+01-3.63285E+01-1.68479E-11-8.80068E-14-1.13052E-12-3.41884E-12
 -1        41-3.63285E+01-3.63285E+01-3.44773E-11-1.71605E-12 3.40584E-12 4.43409E-12
 -1        42-7.26571E+01-7.26571E+01-3.91182E-11-8.26486E-14 3.46378E-12 3.27350E-12
 -1        43-3.63285E+01-3.63285E+01-2.60805E-11 4.82747E-12 3.73702E-13-6.41709E-13
 -1        44-2.42190E+01-2.42190E+01-1.36390E-11 3.13307E-13 2.28866E-12-3.20245E-13
 -1        45-2.42190E+01-2.42190E+01-1.40081E-11 1.38561E-12 2.43797E-12 8.45497E-14
 -1        46-2.42190E+01-2.42190E+01-1.48530E-11 5.49834E-13 2.30974E-13 1.62410E-12
 -1        47-2.42190E+01-2.42190E+01-1.60436E-11 3.70466E-12-2.99935E-12-4.24709E-12
 -1        48-3.63285E+01-3.63285E+01-1.33202E-11 6.94502E-12 4.15164E-12 2.76082E-13
 -1        49-3.63285E+01-3.63285E+01-1.83906E-11-3.54638E-12 1.86632E-12 8.49218E-13
 -1        50-2.42190E+01-2.42190E+01-2.93310E-12 1.11381E-12-5.10119E-12-4.92974E-12
 -1        51-2.42190E+01-2.42190E+01 6.03305E-13-3.32886E-12-3.42527E-12 1.06698E-12
 -1        52-2.42190E+01-2.42190E+01-1.38137E-11 1.39240E-12-6.65939E-13-4.47182E-12
 -1        53-2.42190E+01-2.42190E+01-3.36440E-11-3.28067E-12 4.07893E-12 1.49295E-12
 -1        54-3.63285E+01-3.63285E+01-2.09426E-11-4.87047E-12 3.11524E-12 6.24390E-13
 -1        55-3.63285E+01-3.63285E+01-2.56903E-11 4.32318E-12 4.75731E-12-3.18176E-13
 -1        56-2.42190E+01-2.42190E+01-9.74778E-12 6.36019E-12 1.59155E-12 3.42616E-12
 -1        57-2.42190E+01-2.42190E+01-9.76666E-12-7.98196E-12 4.22694E-12-9.51878E-13
 -1        58-2.42190E+01-2.42190E+01-1.79162E-11-3.11368E-12-2.21114E-13 3.99642E-12
 -1        59-2.42190E+01-2.42190E+01-1.57207E-11 8.85416E-12-4.01805E-12-5.65331E-12
 -1        60-3.63285E+01-3.63285E+01 1.97561E-12 1.26637E-11 5.03920E-12-1.23811E-13
 -1        61-3.63285E+01-3.63285E+01-2.39116E-11-5.66791E-12-2.10468E-12-4.54585E-13
 -1        62-2.42190E+01-2.42190E+01-1.05600E-11-3.02373E-12-3.68064E-12-1.18840E-12
 -1        63-2.42190E+01-2.42190E+01-1.57593E-11 3.69059E-12-3.94654E-12 1.63469E-12
 -1        64-2.42190E+01-2.42190E+01-1.92541E-11 1.08468E-11-1.33852E-12-3.14773E-12
 -1        65-2.42190E+01-2.42190E+01-2.17226E-11-1.39999E-11 1.49059E-12-1.56242E-13
 -1        66-3.63285E+01-3.63285E+01-2.13860E-11-1.12005E-11 2.95011E-12-1.94482E-12
 -1        67-7.26571E+01-7.26571E+01-2.72309E-11 2.52318E-15 6.97472E-12 2.54511E-13
 -1        68-3.63285E+01-3.63285E+01-4.11852E-12 1.13357E-12 4.32832E-12-7.05277E-14
 -1        69-3.63285E+01-3.63285E+01 6.88682E-12 2.79558E-13 6.52295E-12-1.79280E-12
 -1        70-3.63285E+01-3.63285E+01-9.05948E-12 1.11140E-11 2.27317E-12 3.33486E-12
 -1        71-3.63285E+01-3.63285E+01-3.55480E-11-9.48941E-12-6.14960E-12-6.07170E-12
 -1        72-7.26571E+01-7.26571E+01-1.43737E-11 4.30502E-13-6.07102E-13 7.79462E-12
 -3
    1PSTEP                       240          80           1          
  100CL  180 6.78781E-01          72                     0   80           1
 -4  TOSTRAIN    6    1
 -5  EXX         1    4    1    1
 -5  EYY         1    4    2    2
 -5  EZZ         1    4    3    3
 -5  EXY         1    4    1    2
 -5  EYZ         1    4    2    3
 -5  EZX         1    4    3    1
 -1         1-2.42240E-04-2.42240E-04 2.07635E-04 2.04951E-21-7.85379E-21-3.38752E-21
 -1         2-1.21120E-04-1.21120E-04 1.03817E-04-3.52388E-17 5.17933E-21-4.88049E-18
 -1         3-1.21120E-04-1.21120E-04 1.03817E-04 1.26643E-17-1.08712E-21 7.37351E-18
 -1         4-1.21120E-04-1.21120E-04 1.03817E-04-5.76205E-17-1.90380E-21-1.89813E-17
 -1         5-1.21120E-04-1.21120E-04 1.03817E-04 6.59320E-17-6.33017E-22 2.00531E-17
 -1         6-2.42240E-04-2.42240E-04 2.07635E-04 1.36941E-19-3.58965E-22-8.63333E-19
 -1         7-1.21120E-04-1.21120E-04 1.03817E-04-3.46968E-18 1.73987E-18 4.32548E-22
 -1         8-8.07468E-05-8.07468E-05 6.92116E-05-2.58063E-17 1.70700E-17 6.61351E-19
 -1         9-8.07468E-05-8.07468E-05 6.92116E-05 2.92019E-17 1.83891E-17 5.11878E-18
 -1        10-8.07468E-05-8.07468E-05 6.92116E-05-1.82206E-17 6.09505E-18 1.46881E-17
 -1        11-8.07468E-05-8.07468E-05 6.92116E-05 1.40586E-17-3.26165E-17-2.41548E-17
 -1        12-1.21120E-04-1.21120E-04 1.03817E-04-4.42996E-17 1.49678E-17-2.49206E-18
 -1        13-1.21120E-04-1.21120E-04 1.03817E-04 5.43392E-17 4.95578E-17 3.57664E-21
 -1        14-8.07468E-05-8.07468E-05 6.92116E-05-2.13787E-17-3.14251E-18-3.40249E-17
 -1        15-8.07468E-05-8.07468E-05 6.92116E-05 1.78609E-17 1.98054E-17 2.78394E-17
 -1        16-8.07468E-05-8.07468E-05 6.92116E-05-4.65413E-17 2.42448E-17-8.79329E-18
 -1        17-8.07468E-05-8.07468E-05 6.92116E-05 4.65322E-17-2.07180E-17 1.01602E-17
 -1        18-1.21120E-04-1.21120E-04 1.03817E-04-1.80870E-17-3.85709E-17-2.30651E-18
 -1        19-1.21120E-04-1.21120E-04 1.03817E-04 3.49036E-17 6.54331E-17 6.92689E-22
 -1        20-8.07468E-05-8.07468E-05 6.92116E-05-3.43357E-17 4.02195E-17 2.25234E-17
 -1        21-8.07468E-05-8.07468E-05 6.92116E-05 5.12311E-17 6.93196E-17-1.91907E-18
 -1        22-8.07468E-05-8.07468E-05 6.92116E-05-1.55454E-17 2.71624E-17 2.85117E-17
 -1        23-8.07468E-05-8.07468E-05 6.92116E-05 3.79524E-17-7.03938E-17-3.55551E-17
 -1        24-1.21120E-04-1.21120E-04 1.03817E-04-3.39704E-17-2.75669E-17 4.06727E-19
 -1        25-1.21120E-04-1.21120E-04 1.03817E-04-4.12430E-18-3.47424E-17 3.14827E-21
 -1        26-8.07468E-05-8.07468E-05 6.92116E-05-4.60622E-18-3.81327E-17-5.49176E-18
 -1        27-8.07468E-05-8.07468E-05 6.92116E-05-1.00136E-17-4.70306E-17 9.97207E-18
 -1        28-8.07468E-05-8.07468E-05 6.92116E-05-4.32931E-17-1.90945E-17-2.16042E-17
 -1        29-8.07468E-05-8.07468E-05 6.92116E-05 2.07901E-17 3.87873E-17 1.00586E-17
 -1        30-1.21120E-04-1.21120E-04 1.03817E-04-1.82567E-17 1.94080E-17 4.40612E-20
 -1        31-2.42240E-04-2.42240E-04 2.07635E-04-4.15172E-19 2.35169E-18-6.21511E-21
 -1        32-1.21120E-04-1.21120E-04 1.03817E-04-2.99261E-18-1.12834E-18-1.21813E-18
 -1        33-1.21120E-04-1.21120E-04 1.03817E-04 1.35080E-17-2.42337E-18 6.46772E-18
 -1        34-1.21120E-04-1.21120E-04 1.03817E-04-3.56498E-17 2.38646E-19 4.31207E-17
 -1        35-1.21120E-04-1.21120E-04 1.03817E-04 5.05543E-17-2.47088E-18-6.43349E-17
 -1        36-2.42240E-04-2.42240E-04 2.07635E-04-5.70676E-18 2.33505E-18-1.23566E-18
 -1        37-2.42240E-04-2.42240E-04 2.07635E-04-4.47995E-21 1.13909E-18 1.85728E-18
 -1        38-1.21120E-04-1.21120E-04 1.03817E-04-2.70072E-17-4.35712E-18-3.95201E-18
 -1        39-1.21120E-04-1.21120E-04 1.03817E-04 1.11622E-17-4.95721E-18 3.42340E-18
 -1        40-1.21120E-04-1.21120E-04 1.03817E-04-5.45408E-19-7.00308E-18-2.11626E-17
 -1        41-1.21120E-04-1.21120E-04 1.03817E-04-1.06350E-17 2.10977E-17 2.74516E-17
 -1        42-2.42240E-04-2.42240E-04 2.07635E-04-5.12202E-19 2.14566E-17 2.02778E-17
 -1        43-1.21120E-04-1.21120E-04 1.03817E-04 2.99174E-17 2.31335E-18-3.97510E-18
 -1        44-8.07468E-05-8.07468E-05 6.92116E-05 1.94167E-18 1.41618E-17-1.98438E-18
 -1        45-8.07468E-05-8.07468E-05 6.92116E-05 8.58707E-18 1.50856E-17 5.19746E-19
 -1        46-8.07468E-05-8.07468E-05 6.92116E-05 3.40751E-18 1.42529E-18 1.00480E-17
 -1        47-8.07468E-05-8.07468E-05 6.92116E-05 2.29590E-17-1.85502E-17-2.62853E-17
 -1        48-1.21120E-04-1.21120E-04 1.03817E-04 4.30406E-17 2.57040E-17 1.70842E-18
 -1        49-1.21120E-04-1.21120E-04 1.03817E-04-2.19781E-17 1.15169E-17 5.26052E-18
 -1        50-8.07468E-05-8.07468E-05 6.92116E-05 6.90267E-18-3.15979E-17-3.05069E-17
 -1        51-8.07468E-05-8.07468E-05 6.92116E-05-2.06301E-17-2.12376E-17 6.58594E-18
 -1        52-8.07468E-05-8.07468E-05 6.92116E-05 8.62916E-18-4.14637E-18-2.76936E-17
 -1        53-8.07468E-05-8.07468E-05 6.92116E-05-2.03315E-17 2.52854E-17 9.24368E-18
 -1        54-1.21120E-04-1.21120E-04 1.03817E-04-3.01840E-17 1.93331E-17 3.87011E-18
 -1        55-1.21120E-04-1.21120E-04 1.03817E-04 2.67922E-17 2.94092E-17-1.97096E-18
 -1        56-8.07468E-05-8.07468E-05 6.92116E-05 3.94163E-17 9.82328E-18 2.12033E-17
 -1        57-8.07468E-05-8.07468E-05 6.92116E-05-4.94669E-17 2.61218E-17-5.89497E-18
 -1        58-8.07468E-05-8.07468E-05 6.92116E-05-1.92966E-17-1.39335E-18 2.47299E-17
 -1        59-8.07468E-05-8.07468E-05 6.92116E-05 5.48723E-17-2.48266E-17-3.49901E-17
 -1        60-1.21120E-04-1.21120E-04 1.03817E-04 7.84814E-17 3.12404E-17-7.69095E-19
 -1        61-1.21120E-04-1.21120E-04 1.03817E-04-3.51259E-17-1.30067E-17-2.81594E-18
 -1        62-8.07468E-05-8.07468E-05 6.92116E-05-1.87391E-17-2.27645E-17-7.35666E-18
 -1        63-8.07468E-05-8.07468E-05 6.92116E-05 2.28719E-17-2.44028E-17 1.01182E-17
 -1        64-8.07468E-05-8.07468E-05 6.92116E-05 6.72212E-17-8.27542E-18-1.94801E-17
 -1        65-8.07468E-05-8.07468E-05 6.92116E-05-8.67619E-17 9.20146E-18-9.75395E-19
 -1        66-1.21120E-04-1.21120E-04 1.03817E-04-6.94133E-17 1.82567E-17-1.20491E-17
 -1        67-2.42240E-04-2.42240E-04 2.07635E-04 1.56370E-20 4.32046E-17 1.57657E-18
 -1        68-1.21120E-04-1.21120E-04 1.03817E-04 7.02512E-18 2.68102E-17-4.35787E-19
 -1        69-1.21120E-04-1.21120E-04 1.03817E-04 1.73252E-18 4.04037E-17-1.11143E-17
 -1        70-1.21120E-04-1.21120E-04 1.03817E-04 6.88772E-17 1.40816E-17 2.06207E-17
 -1        71-1.21120E-04-1.21120E-04 1.03817E-04-5.88091E-17-3.80954E-17-3.75560E-17
 -1        72-2.42240E-04-2.42240E-04 2.07635E-04 2.66797E-18-3.76018E-18 4.82839E-17
 -3
    1PSTEP                       241          81           1          
  100CL  181 6.87781E-01          72                     0   81           1
 -4  DISP        4    1
 -5  D1          1    2    1    0
 -5  D2          1    2    2    0
 -5  D3          1    2    3    0
 -5  ALL         1    2    0    0    1ALL
 -1         1 0.00000E+00 0.00000E+00 0.00000E+00
 -1         2-2.11132E-01 0.00000E+00 0.00000E+00
 -1         3-1.02112E+01 0.00000E+00 0.00000E+00
 -1         4-1.04223E+01 0.00000E+00 0.00000E+00
 -1         5-2.04223E+01 0.00000E+00 0.00000E+00
 -1         6-2.06334E+01 0.00000E+00 0.00000E+00
 -1         7 0.00000E+00-2.11132E-01 0.00000E+00
 -1         8-2.11132E-01-2.11132E-01 0.00000E+00
 -1         9-1.02112E+01-2.11132E-01 0.00000E+00
 -1        10-1.04223E+01-2.11132E-01 0.00000E+00
 -1        11-2.04223E+01-2.11132E-01 0.00000E+00
 -1        12-2.06334E+01-2.11132E-01 0.00000E+00
 -1        13 0.00000E+00-1.02112E+01 0.00000E+00
 -1        14-2.11132E-01-1.02112E+01 0.00000E+00
 -1        15-1.02112E+01-1.02112E+01 0.00000E+00
 -1        16-1.04223E+01-1.02112E+01 0.00000E+00
 -1        17-2.04223E+01-1.02112E+01 0.00000E+00
 -1        18-2.06334E+01-1.02112E+01 0.00000E+00
 -1        19 0.00000E+00-1.04223E+01 0.00000E+00
 -1        20-2.11132E-01-1.04223E+01 0.00000E+00
 -1        21-1.02112E+01-1.04223E+01 0.00000E+00
 -1        22-1.04223E+01-1.04223E+01 0.00000E+00
 -1        23-2.04223E+01-1.04223E+01 0.00000E+00
 -1        24-2.06334E+01-1.04223E+01 0.00000E+00
 -1        25 0.00000E+00-2.04223E+01 0.00000E+00
 -1        26-2.11132E-01-2.04223E+01 0.00000E+00
 -1        27-1.02112E+01-2.04223E+01 0.00000E+00
 -1        28-1.04223E+01-2.04223E+01 0.00000E+00
 -1        29-2.04223E+01-2.04223E+01 0.00000E+00
 -1        30-2.06334E+01-2.04223E+01 0.00000E+00
 -1        31 0.00000E+00-2.06334E+01 0.00000E+00
 -1        32-2.11132E-01-2.06334E+01 0.00000E+00
 -1        33-1.02112E+01-2.06334E+01 0.00000E+00
 -1        34-1.04223E+01-2.06334E+01 0.00000E+00
 -1        35-2.04223E+01-2.06334E+01 0.00000E+00
 -1        36-2.06334E+01-2.06334E+01 0.00000E+00
 -1        37 0.00000E+00 0.00000E+00 2.53258E-01
 -1        38-2.11132E-01 0.00000E+00 2.53258E-01
 -1        39-1.02112E+01 0.00000E+00 2.53258E-01
 -1        40-1.04223E+01 0.00000E+00 2.53258E-01
 -1        41-2.04223E+01 0.00000E+00 2.53258E-01
 -1        42-2.06334E+01 0.00000E+00 2.53258E-01
 -1        43 0.00000E+00-2.11132E-01 2.53258E-01
 -1        44-2.11132E-01-2.11132E-01 2.53258E-01
 -1        45-1.02112E+01-2.11132E-01 2.53258E-01
 -1        46-1.04223E+01-2.11132E-01 2.53258E-01
 -1        47-2.04223E+01-2.11132E-01 2.53258E-01
 -1        48-2.06334E+01-2.11132E-01 2.53258E-01
 -1        49 0.00000E+00-1.02112E+01 2.53258E-01
 -1        50-2.11132E-01-1.02112E+01 2.53258E-01
 -1        51-1.02112E+01-1.02112E+01 2.53258E-01
 -1        52-1.04223E+01-1.02112E+01 2.53258E-01
 -1        53-2.04223E+01-1.02112E+01 2.53258E-01
 -1        54-2.06334E+01-1.02112E+01 2.53258E-01
 -1        55 0.00000E+00-1.04223E+01 2.53258E-01
 -1        56-2.11132E-01-1.04223E+01 2.53258E-01
 -1        57-1.02112E+01-1.04223E+01 2.53258E-01
 -1        58-1.04223E+01-1.04223E+01 2.53258E-01
 -1        59-2.04223E+01-1.04223E+01 2.53258E-01
 -1        60-2.06334E+01-1.04223E+01 2.53258E-01
 -1        61 0.00000E+00-2.04223E+01 2.53258E-01
 -1        62-2.11132E-01-2.04223E+01 2.53258E-01
 -1        63-1.02112E+01-2.04223E+01 2.53258E-01
 -1        64-1.04223E+01-2.04223E+01 2.53258E-01
 -1        65-2.04223E+01-2.04223E+01 2.53258E-01
 -1        66-2.06334E+01-2.04223E+01 2.53258E-01
 -1        67 0.00000E+00-2.06334E+01 2.53258E-01
 -1        68-2.11132E-01-2.06334E+01 2.53258E-01
 -1        69-1.02112E+01-2.06334E+01 2.53258E-01
 -1        70-1.04223E+01-2.06334E+01 2.53258E-01
 -1        71-2.04223E+01-2.06334E+01 2.53258E-01
 -1        72-2.06334E+01-2.06334E+01 2.53258E-01
 -3
    1PSTEP                       242          81           1          
  100CL  181 6.87781E-01          72                     0   81           1
 -4  STRESS      6    1
 -5  SXX         1    4    1    1
 -5  SYY         1    4    2    2
 -5  SZZ         1    4    3    3
 -5  SXY         1    4    1    2
 -5  SYZ         1    4    2    3
 -5  SZX         1    4    3    1
 -1         1-1.26601E+02-1.26601E+02 3.53190E-10-3.71463E-15-1.73741E-15 1.07179E-15
 -1         2-6.33006E+01-6.33006E+01 1.79229E-10-2.99217E-12-1.51648E-16 7.13464E-13
 -1         3-6.33006E+01-6.33006E+01 1.77227E-10-3.84368E-12-1.09787E-15-1.28320E-12
 -1         4-6.33006E+01-6.33006E+01 1.90754E-10-1.57130E-11 1.42349E-15-3.95594E-12
 -1         5-6.33006E+01-6.33006E+01 1.90588E-10 1.42763E-11 8.38336E-16 2.30355E-12
 -1         6-1.26601E+02-1.26601E+02 3.64324E-10 8.03469E-13-6.13419E-16 8.35279E-13
 -1         7-6.33006E+01-6.33006E+01 1.68854E-10 2.63744E-12 3.03669E-12-1.50550E-15
 -1         8-4.22004E+01-4.22004E+01 1.14624E-10-2.35245E-13 2.62670E-12-8.00258E-13
 -1         9-4.22004E+01-4.22004E+01 1.07561E-10 2.64255E-12 3.54097E-12 1.19426E-12
 -1        10-4.22004E+01-4.22004E+01 1.12770E-10-5.07336E-12 2.61813E-12 5.73441E-13
 -1        11-4.22004E+01-4.22004E+01 1.16937E-10 5.42211E-12-2.22543E-12-1.26523E-12
 -1        12-6.33006E+01-6.33006E+01 1.66910E-10-6.00745E-12 2.02492E-12 2.35996E-13
 -1        13-6.33006E+01-6.33006E+01 1.85551E-10 2.92148E-12 5.35904E-12-9.52175E-16
 -1        14-4.22004E+01-4.22004E+01 1.27958E-10-4.85821E-12 1.22687E-12-4.74883E-12
 -1        15-4.22004E+01-4.22004E+01 1.28652E-10 2.82732E-12 5.20200E-12 3.65296E-12
 -1        16-4.22004E+01-4.22004E+01 1.28949E-10-4.94194E-12 3.32867E-12-1.52869E-12
 -1        17-4.22004E+01-4.22004E+01 1.13191E-10 4.71899E-12-4.75413E-12-2.92333E-13
 -1        18-6.33006E+01-6.33006E+01 1.74846E-10-3.22319E-12-8.36502E-12 4.52653E-13
 -1        19-6.33006E+01-6.33006E+01 1.54297E-10 3.90795E-12 1.15900E-11 1.07198E-16
 -1        20-4.22004E+01-4.22004E+01 1.02911E-10-4.20056E-12 7.79285E-12 1.69062E-12
 -1        21-4.22004E+01-4.22004E+01 9.55001E-11 7.21336E-12 1.54867E-11 1.84582E-12
 -1        22-4.22004E+01-4.22004E+01 9.95582E-11-2.56639E-13 7.84382E-12 2.39926E-12
 -1        23-4.22004E+01-4.22004E+01 1.24028E-10 6.67581E-12-1.01305E-11-2.10292E-12
 -1        24-6.33006E+01-6.33006E+01 1.85543E-10-8.47943E-13-6.63747E-12-2.11020E-13
 -1        25-6.33006E+01-6.33006E+01 1.66639E-10 1.25948E-12-6.73413E-12-2.45431E-16
 -1        26-4.22004E+01-4.22004E+01 1.09558E-10-2.07245E-12-7.44133E-12-9.41728E-13
 -1        27-4.22004E+01-4.22004E+01 1.07532E-10-3.42532E-13-1.20984E-11 3.33716E-12
 -1        28-4.22004E+01-4.22004E+01 1.09743E-10-7.88040E-12-4.98874E-12 1.00878E-12
 -1        29-4.22004E+01-4.22004E+01 1.22091E-10 1.88663E-12 6.15296E-12-2.94322E-12
 -1        30-6.33006E+01-6.33006E+01 1.92516E-10-7.17835E-12 2.99071E-12 2.32908E-13
 -1        31-1.26601E+02-1.26601E+02 3.45658E-10 2.13918E-13-3.42437E-13-1.58240E-15
 -1        32-6.33006E+01-6.33006E+01 1.69972E-10-4.25880E-12 2.80411E-13 1.50449E-12
 -1        33-6.33006E+01-6.33006E+01 1.68512E-10 4.22882E-12 2.68939E-13 1.85859E-12
 -1        34-6.33006E+01-6.33006E+01 1.63890E-10-6.93606E-12-1.83678E-13 5.19219E-12
 -1        35-6.33006E+01-6.33006E+01 1.59345E-10 1.06917E-11 1.31685E-13-8.38909E-12
 -1        36-1.26601E+02-1.26601E+02 3.52613E-10-5.61288E-13-8.68828E-13-9.75489E-13
 -1        37-1.26601E+02-1.26601E+02 3.68909E-10-2.11950E-16-2.55266E-12-1.04886E-12
 -1        38-6.33006E+01-6.33006E+01 1.88988E-10-5.66946E-12-1.10294E-12 1.88499E-13
 -1        39-6.33006E+01-6.33006E+01 1.82462E-10-9.42399E-14 5.09372E-13-5.45249E-13
 -1        40-6.33006E+01-6.33006E+01 1.93071E-10-8.36578E-12-1.74682E-12-3.36797E-12
 -1        41-6.33006E+01-6.33006E+01 1.77778E-10 6.81015E-12 2.47113E-12 3.69199E-12
 -1        42-1.26601E+02-1.26601E+02 3.61358E-10-7.70206E-13 4.84248E-12-4.32858E-13
 -1        43-6.33006E+01-6.33006E+01 1.72723E-10 3.88903E-12 1.76123E-12-3.48462E-13
 -1        44-4.22004E+01-4.22004E+01 1.18469E-10-1.18688E-12 1.89151E-12-1.03156E-12
 -1        45-4.22004E+01-4.22004E+01 1.13730E-10 3.97544E-12 3.88048E-12-3.50682E-14
 -1        46-4.22004E+01-4.22004E+01 1.17042E-10-1.90185E-12 1.45563E-12-4.07032E-13
 -1        47-4.22004E+01-4.22004E+01 1.15379E-10 5.28687E-12-5.81811E-13-1.73554E-12
 -1        48-6.33006E+01-6.33006E+01 1.75826E-10 1.60388E-12 4.45297E-12 7.38658E-13
 -1        49-6.33006E+01-6.33006E+01 1.84833E-10-1.51067E-12-1.42827E-12 1.73951E-12
 -1        50-4.22004E+01-4.22004E+01 1.31463E-10 1.18023E-12-4.69471E-12-3.58460E-12
 -1        51-4.22004E+01-4.22004E+01 1.39090E-10-2.83157E-12-3.50996E-12 1.28762E-12
 -1        52-4.22004E+01-4.22004E+01 1.27541E-10-1.53032E-12-3.73224E-12-4.04358E-12
 -1        53-4.22004E+01-4.22004E+01 1.02165E-10 2.97219E-13 3.95865E-12-5.77015E-16
 -1        54-6.33006E+01-6.33006E+01 1.78957E-10-5.09542E-12 1.91358E-12-1.83725E-13
 -1        55-6.33006E+01-6.33006E+01 1.73940E-10 3.86579E-12 5.59660E-12-8.13341E-13
 -1        56-4.22004E+01-4.22004E+01 1.19918E-10 4.76454E-12 1.88489E-12 1.14727E-12
 -1        57-4.22004E+01-4.22004E+01 1.18734E-10-6.27103E-12 6.90762E-12 5.82575E-13
 -1        58-4.22004E+01-4.22004E+01 1.10921E-10-5.71459E-12 6.18579E-13 1.48698E-12
 -1        59-4.22004E+01-4.22004E+01 1.18075E-10 1.14295E-11-1.48387E-12-3.61973E-12
 -1        60-6.33006E+01-6.33006E+01 1.96599E-10 1.10884E-11 3.76297E-12-2.33171E-12
 -1        61-6.33006E+01-6.33006E+01 1.77846E-10-4.37229E-12-2.27623E-12-2.74572E-13
 -1        62-4.22004E+01-4.22004E+01 1.22251E-10-3.11111E-12-3.86498E-12-1.12629E-12
 -1        63-4.22004E+01-4.22004E+01 1.26818E-10 5.25452E-12-5.41221E-12 2.23940E-12
 -1        64-4.22004E+01-4.22004E+01 1.15598E-10 4.80905E-12-1.27463E-12 2.20591E-14
 -1        65-4.22004E+01-4.22004E+01 1.13767E-10-8.63066E-12 3.46806E-12-3.11241E-12
 -1        66-6.33006E+01-6.33006E+01 1.94634E-10-1.66061E-11 3.40883E-12-6.02796E-13
 -1        67-1.26601E+02-1.26601E+02 3.80450E-10-1.41923E-13 1.04511E-11-9.85945E-13
 -1        68-6.33006E+01-6.33006E+01 1.95201E-10-3.74282E-13 4.62724E-12 1.01299E-12
 -1        69-6.33006E+01-6.33006E+01 2.12787E-10-7.70583E-13 9.42710E-12-3.52210E-12
 -1        70-6.33006E+01-6.33006E+01 1.87612E-10-1.41036E-12 6.15230E-12 4.33071E-13
 -1        71-6.33006E+01-6.33006E+01 1.56106E-10 3.70144E-12-3.08352E-12-5.95065E-12
 -1        72-1.26601E+02-1.26601E+02 3.77708E-10 3.33477E-13-1.27437E-13 5.01267E-12
 -3
    1PSTEP                       243          81           1          
  100CL  181 6.87781E-01          72                     0   81           1
 -4  TOSTRAIN    6    1
 -5  EXX         1    4    1    1
 -5  EYY         1    4    2    2
 -5  EZZ         1    4    3    3
 -5  EXY         1    4    1    2
 -5  EYZ         1    4    2    3
 -5  EZX         1    4    3    1
 -1         1-4.22157E-04-4.22157E-04 3.61849E-04-2.30398E-20-1.07684E-20 6.63504E-21
 -1         2-2.11078E-04-2.11078E-04 1.80924E-04-1.85588E-17-9.35862E-22 4.41482E-18
 -1         3-2.11078E-04-2.11078E-04 1.80924E-04-2.38402E-17-6.79293E-21-7.94025E-18
 -1         4-2.11078E-04-2.11078E-04 1.80924E-04-9.74588E-17 8.81159E-21-2.44788E-17
 -1         5-2.11078E-04-2.11078E-04 1.80924E-04 8.85482E-17 5.18987E-21 1.42540E-17
 -1         6-4.22157E-04-4.22157E-04 3.61849E-04 4.98347E-18-3.79549E-21 5.16859E-18
 -1         7-2.11078E-04-2.11078E-04 1.80924E-04 1.63586E-17 1.87906E-17-9.32554E-21
 -1         8-1.40719E-04-1.40719E-04 1.20616E-04-1.45909E-18 1.62537E-17-4.95189E-18
 -1         9-1.40719E-04-1.40719E-04 1.20616E-04 1.63903E-17 2.19110E-17 7.38994E-18
 -1        10-1.40719E-04-1.40719E-04 1.20616E-04-3.14672E-17 1.62007E-17 3.54838E-18
 -1        11-1.40719E-04-1.40719E-04 1.20616E-04 3.36304E-17-1.37707E-17-7.82909E-18
 -1        12-2.11078E-04-2.11078E-04 1.80924E-04-3.72609E-17 1.25299E-17 1.46030E-18
 -1        13-2.11078E-04-2.11078E-04 1.80924E-04 1.81203E-17 3.31610E-17-5.90515E-21
 -1        14-1.40719E-04-1.40719E-04 1.20616E-04-3.01328E-17 7.59167E-18-2.93851E-17
 -1        15-1.40719E-04-1.40719E-04 1.20616E-04 1.75363E-17 3.21893E-17 2.26040E-17
 -1        16-1.40719E-04-1.40719E-04 1.20616E-04-3.06522E-17 2.05974E-17-9.45931E-18
 -1        17-1.40719E-04-1.40719E-04 1.20616E-04 2.92693E-17-2.94179E-17-1.80892E-18
 -1        18-2.11078E-04-2.11078E-04 1.80924E-04-1.99917E-17-5.17616E-17 2.80095E-18
 -1        19-2.11078E-04-2.11078E-04 1.80924E-04 2.42389E-17 7.17170E-17 6.58532E-22
 -1        20-1.40719E-04-1.40719E-04 1.20616E-04-2.60538E-17 4.82211E-17 1.04613E-17
 -1        21-1.40719E-04-1.40719E-04 1.20616E-04 4.47405E-17 9.58297E-17 1.14217E-17
 -1        22-1.40719E-04-1.40719E-04 1.20616E-04-1.59179E-18 4.85365E-17 1.48463E-17
 -1        23-1.40719E-04-1.40719E-04 1.20616E-04 4.14064E-17-6.26860E-17-1.30126E-17
 -1        24-2.11078E-04-2.11078E-04 1.80924E-04-5.25932E-18-4.10718E-17-1.30576E-18
 -1        25-2.11078E-04-2.11078E-04 1.80924E-04 7.81188E-18-4.16699E-17-1.51933E-21
 -1        26-1.40719E-04-1.40719E-04 1.20616E-04-1.28543E-17-4.60459E-17-5.82728E-18
 -1        27-1.40719E-04-1.40719E-04 1.20616E-04-2.12454E-18-7.48633E-17 2.06499E-17
 -1        28-1.40719E-04-1.40719E-04 1.20616E-04-4.88778E-17-3.08697E-17 6.24222E-18
 -1        29-1.40719E-04-1.40719E-04 1.20616E-04 1.17017E-17 3.80737E-17-1.82122E-17
 -1        30-2.11078E-04-2.11078E-04 1.80924E-04-4.45234E-17 1.85061E-17 1.44121E-18
 -1        31-4.22157E-04-4.22157E-04 3.61849E-04 1.32682E-18-2.11894E-18-9.79928E-21
 -1        32-2.11078E-04-2.11078E-04 1.80924E-04-2.64150E-17 1.73514E-18 9.30958E-18
 -1        33-2.11078E-04-2.11078E-04 1.80924E-04 2.62290E-17 1.66416E-18 1.15007E-17
 -1        34-2.11078E-04-2.11078E-04 1.80924E-04-4.30206E-17-1.13658E-18 3.21286E-17
 -1        35-2.11078E-04-2.11078E-04 1.80924E-04 6.63150E-17 8.14847E-19-5.19105E-17
 -1        36-4.22157E-04-4.22157E-04 3.61849E-04-3.48136E-18-5.37618E-18-6.03619E-18
 -1        37-4.22157E-04-4.22157E-04 3.61849E-04-1.31461E-21-1.58203E-17-6.50038E-18
 -1        38-2.11078E-04-2.11078E-04 1.80924E-04-3.51645E-17-6.83553E-18 1.16131E-18
 -1        39-2.11078E-04-2.11078E-04 1.80924E-04-5.84519E-19 3.15688E-18-3.36749E-18
 -1        40-2.11078E-04-2.11078E-04 1.80924E-04-5.18883E-17-1.08260E-17-2.08341E-17
 -1        41-2.11078E-04-2.11078E-04 1.80924E-04 4.22396E-17 1.53150E-17 2.28491E-17
 -1        42-4.22157E-04-4.22157E-04 3.61849E-04-4.77717E-18 3.00116E-17-2.67130E-18
 -1        43-2.11078E-04-2.11078E-04 1.80924E-04 2.41215E-17 1.08858E-17-2.15961E-18
 -1        44-1.40719E-04-1.40719E-04 1.20616E-04-7.36157E-18 1.16973E-17-6.38542E-18
 -1        45-1.40719E-04-1.40719E-04 1.20616E-04 2.46574E-17 2.40152E-17-2.27346E-19
 -1        46-1.40719E-04-1.40719E-04 1.20616E-04-1.17961E-17 8.99592E-18-2.52901E-18
 -1        47-1.40719E-04-1.40719E-04 1.20616E-04 3.27915E-17-3.58418E-18-1.07372E-17
 -1        48-2.11078E-04-2.11078E-04 1.80924E-04 9.94798E-18 2.75779E-17 4.57385E-18
 -1        49-2.11078E-04-2.11078E-04 1.80924E-04-9.36987E-18-8.89928E-18 1.07808E-17
 -1        50-1.40719E-04-1.40719E-04 1.20616E-04 7.32031E-18-2.91076E-17-2.21697E-17
 -1        51-1.40719E-04-1.40719E-04 1.20616E-04-1.75627E-17-2.18028E-17 7.94401E-18
 -1        52-1.40719E-04-1.40719E-04 1.20616E-04-9.49172E-18-2.31642E-17-2.50447E-17
 -1        53-1.40719E-04-1.40719E-04 1.20616E-04 1.84349E-18 2.45793E-17-1.17566E-21
 -1        54-2.11078E-04-2.11078E-04 1.80924E-04-3.16041E-17 1.19437E-17-1.13327E-18
 -1        55-2.11078E-04-2.11078E-04 1.80924E-04 2.39774E-17 3.45697E-17-5.04075E-18
 -1        56-1.40719E-04-1.40719E-04 1.20616E-04 2.95518E-17 1.16061E-17 7.09386E-18
 -1        57-1.40719E-04-1.40719E-04 1.20616E-04-3.88957E-17 4.26597E-17 3.59542E-18
 -1        58-1.40719E-04-1.40719E-04 1.20616E-04-3.54445E-17 3.75813E-18 9.19174E-18
 -1        59-1.40719E-04-1.40719E-04 1.20616E-04 7.08909E-17-9.09825E-18-2.24112E-17
 -1        60-2.11078E-04-2.11078E-04 1.80924E-04 6.87754E-17 2.33875E-17-1.44475E-17
 -1        61-2.11078E-04-2.11078E-04 1.80924E-04-2.71189E-17-1.40354E-17-1.70168E-18
 -1        62-1.40719E-04-1.40719E-04 1.20616E-04-1.92965E-17-2.38843E-17-6.97114E-18
 -1        63-1.40719E-04-1.40719E-04 1.20616E-04 3.25909E-17-3.34293E-17 1.38469E-17
 -1        64-1.40719E-04-1.40719E-04 1.20616E-04 2.98279E-17-7.84835E-18 1.26298E-19
 -1        65-1.40719E-04-1.40719E-04 1.20616E-04-5.35312E-17 2.14384E-17-1.92643E-17
 -1        66-2.11078E-04-2.11078E-04 1.80924E-04-1.02998E-16 2.10946E-17-3.73770E-18
 -1        67-4.22157E-04-4.22157E-04 3.61849E-04-8.80273E-19 6.47694E-17-6.11045E-18
 -1        68-2.11078E-04-2.11078E-04 1.80924E-04-2.32147E-18 2.86802E-17 6.26344E-18
 -1        69-2.11078E-04-2.11078E-04 1.80924E-04-4.77950E-18 5.84248E-17-2.18424E-17
 -1        70-2.11078E-04-2.11078E-04 1.80924E-04-8.74768E-18 3.81279E-17 2.63170E-18
 -1        71-2.11078E-04-2.11078E-04 1.80924E-04 2.29580E-17-1.91127E-17-3.67959E-17
 -1        72-4.22157E-04-4.22157E-04 3.61849E-04 2.06838E-18-7.85974E-19 3.10695E-17
 -3
    1PSTEP                       244          82           1          
  100CL  182 6.96781E-01          72                     0   82           1
 -4  DISP        4    1
 -5  D1          1    2    1    0
 -5  D2          1    2    2    0
 -5  D3          1    2    3    0
 -5  ALL         1    2    0    0    1ALL
 -1         1 0.00000E+00 0.00000E+00 0.00000E+00
 -1         2-3.01120E-01 0.00000E+00 0.00000E+00
 -1         3-1.03012E+01 0.00000E+00 0.00000E+00
 -1         4-1.06023E+01 0.00000E+00 0.00000E+00
 -1         5-2.06023E+01 0.00000E+00 0.00000E+00
 -1         6-2.09034E+01 0.00000E+00 0.00000E+00
 -1         7 0.00000E+00-3.01120E-01 0.00000E+00
 -1         8-3.01120E-01-3.01120E-01 0.00000E+00
 -1         9-1.03012E+01-3.01120E-01 0.00000E+00
 -1        10-1.06023E+01-3.01120E-01 0.00000E+00
 -1        11-2.06023E+01-3.01120E-01 0.00000E+00
 -1        12-2.09034E+01-3.01120E-01 0.00000E+00
 -1        13 0.00000E+00-1.03012E+01 0.00000E+00
 -1        14-3.01120E-01-1.03012E+01 0.00000E+00
 -1        15-1.03012E+01-1.03012E+01 0.00000E+00
 -1        16-1.06023E+01-1.03012E+01 0.00000E+00
 -1        17-2.06023E+01-1.03012E+01 0.00000E+00
 -1        18-2.09034E+01-1.03012E+01 0.00000E+00
 -1        19 0.00000E+00-1.06023E+01 0.00000E+00
 -1        20-3.01120E-01-1.06023E+01 0.00000E+00
 -1        21-1.03012E+01-1.06023E+01 0.00000E+00
 -1        22-1.06023E+01-1.06023E+01 0.00000E+00
 -1        23-2.06023E+01-1.06023E+01 0.00000E+00
 -1        24-2.09034E+01-1.06023E+01 0.00000E+00
 -1        25 0.00000E+00-2.06023E+01 0.00000E+00
 -1        26-3.01120E-01-2.06023E+01 0.00000E+00
 -1        27-1.03012E+01-2.06023E+01 0.00000E+00
 -1        28-1.06023E+01-2.06023E+01 0.00000E+00
 -1        29-2.06023E+01-2.06023E+01 0.00000E+00
 -1        30-2.09034E+01-2.06023E+01 0.00000E+00
 -1        31 0.00000E+00-2.09034E+01 0.00000E+00
 -1        32-3.01120E-01-2.09034E+01 0.00000E+00
 -1        33-1.03012E+01-2.09034E+01 0.00000E+00
 -1        34-1.06023E+01-2.09034E+01 0.00000E+00
 -1        35-2.06023E+01-2.09034E+01 0.00000E+00
 -1        36-2.09034E+01-2.09034E+01 0.00000E+00
 -1        37 0.00000E+00 0.00000E+00 3.61142E-01
 -1        38-3.01120E-01 0.00000E+00 3.61142E-01
 -1        39-1.03012E+01 0.00000E+00 3.61142E-01
 -1        40-1.06023E+01 0.00000E+00 3.61142E-01
 -1        41-2.06023E+01 0.00000E+00 3.61142E-01
 -1        42-2.09034E+01 0.00000E+00 3.61142E-01
 -1        43 0.00000E+00-3.01120E-01 3.61142E-01
 -1        44-3.01120E-01-3.01120E-01 3.61142E-01
 -1        45-1.03012E+01-3.01120E-01 3.61142E-01
 -1        46-1.06023E+01-3.01120E-01 3.61142E-01
 -1        47-2.06023E+01-3.01120E-01 3.61142E-01
 -1        48-2.09034E+01-3.01120E-01 3.61142E-01
 -1        49 0.00000E+00-1.03012E+01 3.61142E-01
 -1        50-3.01120E-01-1.03012E+01 3.61142E-01
 -1        51-1.03012E+01-1.03012E+01 3.61142E-01
 -1        52-1.06023E+01-1.03012E+01 3.61142E-01
 -1        53-2.06023E+01-1.03012E+01 3.61142E-01
 -1        54-2.09034E+01-1.03012E+01 3.61142E-01
 -1        55 0.00000E+00-1.06023E+01 3.61142E-01
 -1        56-3.01120E-01-1.06023E+01 3.61142E-01
 -1        57-1.03012E+01-1.06023E+01 3.61142E-01
 -1        58-1.06023E+01-1.06023E+01 3.61142E-01
 -1        59-2.06023E+01-1.06023E+01 3.61142E-01
 -1        60-2.09034E+01-1.06023E+01 3.61142E-01
 -1        61 0.00000E+00-2.06023E+01 3.61142E-01
 -1        62-3.01120E-01-2.06023E+01 3.61142E-01
 -1        63-1.03012E+01-2.06023E+01 3.61142E-01
 -1        64-1.06023E+01-2.06023E+01 3.61142E-01
 -1        65-2.06023E+01-2.06023E+01 3.61142E-01
 -1        66-2.09034E+01-2.06023E+01 3.61142E-01
 -1        67 0.00000E+00-2.09034E+01 3.61142E-01
 -1        68-3.01120E-01-2.09034E+01 3.61142E-01
 -1        69-1.03012E+01-2.09034E+01 3.61142E-01
 -1        70-1.06023E+01-2.09034E+01 3.61142E-01
 -1        71-2.06023E+01-2.09034E+01 3.61142E-01
 -1        72-2.09034E+01-2.09034E+01 3.61142E-01
 -3
    1PSTEP                       245          82           1          
  100CL  182 6.96781E-01          72                     0   82           1
 -4  STRESS      6    1
 -5  SXX         1    4    1    1
 -5  SYY         1    4    2    2
 -5  SZZ         1    4    3    3
 -5  SXY         1    4    1    2
 -5  SYZ         1    4    2    3
 -5  SZX         1    4    3    1
 -1         1-1.80517E+02-1.80517E+02 2.83499E-10-2.34288E-15 2.78335E-15 1.59417E-15
 -1         2-9.02586E+01-9.02586E+01 1.52493E-10-9.04726E-12-1.99989E-15-2.93650E-12
 -1         3-9.02586E+01-9.02586E+01 1.43137E-10-2.76483E-12 1.46817E-15 3.54164E-13
 -1         4-9.02586E+01-9.02586E+01 1.66696E-10-2.08720E-11-9.54724E-16-8.66223E-12
 -1         5-9.02586E+01-9.02586E+01 1.62761E-10 1.70903E-11-1.25320E-15 8.27695E-12
 -1         6-1.80517E+02-1.80517E+02 2.96542E-10 3.79413E-13 4.12135E-15-4.21596E-13
 -1         7-9.02586E+01-9.02586E+01 1.25169E-10 7.61498E-12 6.62105E-12-2.00972E-15
 -1         8-6.01724E+01-6.01724E+01 9.16154E-11-9.54067E-13 1.07731E-12-1.04587E-13
 -1         9-6.01724E+01-6.01724E+01 7.71148E-11 8.33917E-12 5.57215E-12 9.74299E-13
 -1        10-6.01724E+01-6.01724E+01 8.89619E-11-3.61901E-12 3.11419E-12 1.03699E-12
 -1        11-6.01724E+01-6.01724E+01 9.47821E-11 6.50930E-12-3.66734E-12-2.62857E-12
 -1        12-9.02586E+01-9.02586E+01 1.30230E-10-7.40495E-12 2.46750E-12 6.05511E-13
 -1        13-9.02586E+01-9.02586E+01 1.50118E-10 3.52693E-12 2.95841E-12 2.79008E-15
 -1        14-6.01724E+01-6.01724E+01 1.07980E-10-9.63012E-12 2.41288E-12-5.99043E-12
 -1        15-6.01724E+01-6.01724E+01 1.06314E-10 2.81437E-12 5.46147E-12 5.41265E-12
 -1        16-6.01724E+01-6.01724E+01 1.12225E-10-1.24792E-11 2.78155E-12-3.54987E-12
 -1        17-6.01724E+01-6.01724E+01 9.31082E-11 8.92820E-12-3.94806E-12 9.22824E-13
 -1        18-9.02586E+01-9.02586E+01 1.46785E-10-4.35814E-12-6.35795E-12-1.35873E-13
 -1        19-9.02586E+01-9.02586E+01 1.14126E-10 7.09616E-12 1.02906E-11-4.23341E-16
 -1        20-6.01724E+01-6.01724E+01 7.41285E-11-7.25063E-12 9.05168E-12 4.22192E-12
 -1        21-6.01724E+01-6.01724E+01 5.72824E-11 1.57752E-11 2.13019E-11 7.87857E-13
 -1        22-6.01724E+01-6.01724E+01 7.46024E-11 4.67967E-13 4.34828E-12 6.22448E-12
 -1        23-6.01724E+01-6.01724E+01 9.47671E-11 1.22299E-11-1.10165E-11-5.64215E-12
 -1        24-9.02586E+01-9.02586E+01 1.48912E-10 4.89709E-13-7.05806E-12-2.74315E-14
 -1        25-9.02586E+01-9.02586E+01 1.29059E-10-4.63187E-13-5.50173E-12-1.05387E-16
 -1        26-6.01724E+01-6.01724E+01 8.06787E-11-9.01620E-13-9.13553E-12 6.19104E-13
 -1        27-6.01724E+01-6.01724E+01 7.46901E-11-6.41444E-12-1.74467E-11 4.03083E-12
 -1        28-6.01724E+01-6.01724E+01 8.80582E-11-1.17535E-11-1.48718E-12 3.12338E-12
 -1        29-6.01724E+01-6.01724E+01 9.62918E-11-4.86786E-13 6.77404E-12-3.50546E-12
 -1        30-9.02586E+01-9.02586E+01 1.60982E-10-1.10074E-11 5.61039E-12 1.22674E-13
 -1        31-1.80517E+02-1.80517E+02 2.74892E-10 2.51258E-13-8.15300E-14 3.50687E-15
 -1        32-9.02586E+01-9.02586E+01 1.35313E-10-7.63614E-13 8.03321E-14 1.87807E-12
 -1        33-9.02586E+01-9.02586E+01 1.27619E-10 5.95261E-12 5.91997E-13 1.53035E-12
 -1        34-9.02586E+01-9.02586E+01 1.33043E-10-1.90400E-12-3.43856E-13 5.48246E-12
 -1        35-9.02586E+01-9.02586E+01 1.17091E-10 1.03877E-11-2.40249E-13-1.19230E-11
 -1        36-1.80517E+02-1.80517E+02 2.84803E-10 1.14748E-14 3.19820E-13 2.51053E-13
 -1        37-1.80517E+02-1.80517E+02 2.98886E-10-3.26846E-15-2.32343E-12-5.56296E-13
 -1        38-9.02586E+01-9.02586E+01 1.49739E-10-5.17392E-12-5.72214E-13-3.21484E-12
 -1        39-9.02586E+01-9.02586E+01 1.40889E-10-1.93185E-12-2.97764E-13 6.68868E-13
 -1        40-9.02586E+01-9.02586E+01 1.56823E-10-5.37706E-12-2.67918E-12-8.70768E-12
 -1        41-9.02586E+01-9.02586E+01 1.34557E-10 2.66738E-13 1.91542E-12 6.94989E-12
 -1        42-1.80517E+02-1.80517E+02 2.73670E-10-1.07607E-12 5.96021E-12-3.32674E-12
 -1        43-9.02586E+01-9.02586E+01 1.38772E-10 6.27861E-13 5.45794E-12 3.10898E-13
 -1        44-6.01724E+01-6.01724E+01 9.36696E-11-3.02962E-12 6.97164E-13 1.02523E-13
 -1        45-6.01724E+01-6.01724E+01 8.94660E-11 5.54813E-12 5.38713E-12-4.83232E-13
 -1        46-6.01724E+01-6.01724E+01 9.60329E-11 2.91112E-12 1.31615E-12-3.11792E-13
 -1        47-6.01724E+01-6.01724E+01 9.20834E-11 2.52876E-12-2.39186E-12-2.68594E-12
 -1        48-9.02586E+01-9.02586E+01 1.43024E-10 3.98981E-12 5.45843E-12-3.79593E-13
 -1        49-9.02586E+01-9.02586E+01 1.46192E-10 3.65020E-12-6.05259E-13 2.43968E-12
 -1        50-6.01724E+01-6.01724E+01 1.09855E-10 4.69267E-12-4.02414E-12-4.36244E-12
 -1        51-6.01724E+01-6.01724E+01 1.19920E-10-7.10799E-12-4.41922E-12 6.22076E-14
 -1        52-6.01724E+01-6.01724E+01 9.74390E-11-2.92662E-12-2.95725E-12-8.69610E-12
 -1        53-6.01724E+01-6.01724E+01 7.69036E-11-2.27804E-13 3.86855E-12 9.26656E-13
 -1        54-9.02586E+01-9.02586E+01 1.42274E-10-4.45101E-12 5.10528E-12-6.29956E-13
 -1        55-9.02586E+01-9.02586E+01 1.41494E-10 1.24690E-11 6.56824E-12-3.33154E-12
 -1        56-6.01724E+01-6.01724E+01 9.77037E-11 1.05719E-11 3.00941E-12 1.99887E-12
 -1        57-6.01724E+01-6.01724E+01 1.00718E-10-1.36407E-11 1.08001E-11 2.33939E-13
 -1        58-6.01724E+01-6.01724E+01 8.95474E-11-9.36712E-12-1.39272E-12 5.57143E-12
 -1        59-6.01724E+01-6.01724E+01 9.14463E-11 1.18887E-11-3.41214E-12-5.77889E-12
 -1        60-9.02586E+01-9.02586E+01 1.64023E-10 1.36190E-11 4.59874E-12-2.31849E-13
 -1        61-9.02586E+01-9.02586E+01 1.40207E-10-1.20302E-11-1.51856E-12-2.97741E-12
 -1        62-6.01724E+01-6.01724E+01 1.01929E-10-7.72714E-12-5.20003E-12-1.36374E-12
 -1        63-6.01724E+01-6.01724E+01 1.07878E-10 1.03881E-11-9.95434E-12 3.30473E-12
 -1        64-6.01724E+01-6.01724E+01 8.88597E-11 1.10153E-11 1.75486E-12 1.79745E-12
 -1        65-6.01724E+01-6.01724E+01 8.85895E-11-1.09305E-11 3.31927E-12-3.42631E-12
 -1        66-9.02586E+01-9.02586E+01 1.60116E-10-1.70641E-11 4.16331E-12-7.89882E-14
 -1        67-1.80517E+02-1.80517E+02 3.02172E-10 1.57853E-13 7.76943E-12-1.68574E-12
 -1        68-9.02586E+01-9.02586E+01 1.67387E-10 5.18450E-13 6.19889E-12 1.04929E-12
 -1        69-9.02586E+01-9.02586E+01 1.90103E-10-1.06628E-12 1.12566E-11-6.15174E-12
 -1        70-9.02586E+01-9.02586E+01 1.46652E-10-6.31047E-13 4.67194E-12-1.82532E-12
 -1        71-9.02586E+01-9.02586E+01 1.19855E-10 5.87008E-13-4.72579E-12-8.37274E-12
 -1        72-1.80517E+02-1.80517E+02 3.12003E-10-3.71962E-13-1.80680E-12 7.25669E-12
 -3
    1PSTEP                       246          82           1          
  100CL  182 6.96781E-01          72                     0   82           1
 -4  TOSTRAIN    6    1
 -5  EXX         1    4    1    1
 -5  EYY         1    4    2    2
 -5  EZZ         1    4    3    3
 -5  EXY         1    4    1    2
 -5  EYZ         1    4    2    3
 -5  EZX         1    4    3    1
 -1         1-6.02034E-04-6.02034E-04 5.16029E-04-1.45436E-20 1.72480E-20 9.86841E-21
 -1         2-3.01017E-04-3.01017E-04 2.58015E-04-5.61615E-17-1.23826E-20-1.81674E-17
 -1         3-3.01017E-04-3.01017E-04 2.58015E-04-1.71629E-17 9.09497E-21 2.19113E-18
 -1         4-3.01017E-04-3.01017E-04 2.58015E-04-1.29565E-16-5.91555E-21-5.35911E-17
 -1         5-3.01017E-04-3.01017E-04 2.58015E-04 1.06089E-16-7.76691E-21 5.12074E-17
 -1         6-6.02034E-04-6.02034E-04 5.16029E-04 2.35523E-18 2.55523E-20-2.60832E-18
 -1         7-3.01017E-04-3.01017E-04 2.58015E-04 4.72705E-17 4.09628E-17-1.24450E-20
 -1         8-2.00678E-04-2.00678E-04 1.72010E-04-5.92244E-18 6.66502E-18-6.47064E-19
 -1         9-2.00678E-04-2.00678E-04 1.72010E-04 5.17660E-17 3.44735E-17 6.02774E-18
 -1        10-2.00678E-04-2.00678E-04 1.72010E-04-2.24653E-17 1.92667E-17 6.41561E-18
 -1        11-2.00678E-04-2.00678E-04 1.72010E-04 4.04069E-17-2.26889E-17-1.62623E-17
 -1        12-3.01017E-04-3.01017E-04 2.58015E-04-4.59667E-17 1.52658E-17 3.74613E-18
 -1        13-3.01017E-04-3.01017E-04 2.58015E-04 2.18936E-17 1.83030E-17 1.72611E-20
 -1        14-2.00678E-04-2.00678E-04 1.72010E-04-5.97796E-17 1.49278E-17-3.70613E-17
 -1        15-2.00678E-04-2.00678E-04 1.72010E-04 1.74704E-17 3.37887E-17 3.34867E-17
 -1        16-2.00678E-04-2.00678E-04 1.72010E-04-7.74655E-17 1.72088E-17-2.19622E-17
 -1        17-2.00678E-04-2.00678E-04 1.72010E-04 5.54224E-17-2.44257E-17 5.70928E-18
 -1        18-3.01017E-04-3.01017E-04 2.58015E-04-2.70534E-17-3.93350E-17-8.40614E-19
 -1        19-3.01017E-04-3.01017E-04 2.58015E-04 4.40499E-17 6.36652E-17-2.60966E-21
 -1        20-2.00678E-04-2.00678E-04 1.72010E-04-4.50088E-17 5.60004E-17 2.61199E-17
 -1        21-2.00678E-04-2.00678E-04 1.72010E-04 9.79255E-17 1.31790E-16 4.87427E-18
 -1        22-2.00678E-04-2.00678E-04 1.72010E-04 2.90494E-18 2.69017E-17 3.85093E-17
 -1        23-2.00678E-04-2.00678E-04 1.72010E-04 7.59180E-17-6.81565E-17-3.49066E-17
 -1        24-3.01017E-04-3.01017E-04 2.58015E-04 3.03990E-18-4.36664E-17-1.69715E-19
 -1        25-3.01017E-04-3.01017E-04 2.58015E-04-2.87526E-18-3.40378E-17-6.58444E-22
 -1        26-2.00678E-04-2.00678E-04 1.72010E-04-5.59687E-18-5.65192E-17 3.83024E-18
 -1        27-2.00678E-04-2.00678E-04 1.72010E-04-3.98181E-17-1.07938E-16 2.49378E-17
 -1        28-2.00678E-04-2.00678E-04 1.72010E-04-7.29610E-17-9.20083E-18 1.93235E-17
 -1        29-2.00678E-04-2.00678E-04 1.72010E-04-3.02176E-18 4.19092E-17-2.16874E-17
 -1        30-3.01017E-04-3.01017E-04 2.58015E-04-6.83295E-17 3.47101E-17 7.58951E-19
 -1        31-6.02034E-04-6.02034E-04 5.16029E-04 1.55970E-18-5.04403E-19 2.17128E-20
 -1        32-3.01017E-04-3.01017E-04 2.58015E-04-4.74019E-18 4.97001E-19 1.16192E-17
 -1        33-3.01017E-04-3.01017E-04 2.58015E-04 3.69512E-17 3.66256E-18 9.46790E-18
 -1        34-3.01017E-04-3.01017E-04 2.58015E-04-1.18192E-17-2.12736E-18 3.39186E-17
 -1        35-3.01017E-04-3.01017E-04 2.58015E-04 6.44826E-17-1.48636E-18-7.37643E-17
 -1        36-6.02034E-04-6.02034E-04 5.16029E-04 7.12308E-20 1.97861E-18 1.55321E-18
 -1        37-6.02034E-04-6.02034E-04 5.16029E-04-2.02892E-20-1.44066E-17-3.44937E-18
 -1        38-3.01017E-04-3.01017E-04 2.58015E-04-3.21175E-17-3.54805E-18-1.98933E-17
 -1        39-3.01017E-04-3.01017E-04 2.58015E-04-1.19921E-17-1.84627E-18 4.14143E-18
 -1        40-3.01017E-04-3.01017E-04 2.58015E-04-3.33785E-17-1.66125E-17-5.38689E-17
 -1        41-3.01017E-04-3.01017E-04 2.58015E-04 1.65579E-18 1.18767E-17 4.29785E-17
 -1        42-6.02034E-04-6.02034E-04 5.16029E-04-6.67979E-18 3.69569E-17-2.06192E-17
 -1        43-3.01017E-04-3.01017E-04 2.58015E-04 3.89749E-18 3.37508E-17 1.92775E-18
 -1        44-2.00678E-04-2.00678E-04 1.72010E-04-1.88066E-17 4.30790E-18 6.37148E-19
 -1        45-2.00678E-04-2.00678E-04 1.72010E-04 3.44404E-17 3.33261E-17-3.00951E-18
 -1        46-2.00678E-04-2.00678E-04 1.72010E-04 1.80710E-17 8.11794E-18-1.94886E-18
 -1        47-2.00678E-04-2.00678E-04 1.72010E-04 1.56974E-17-1.47801E-17-1.66198E-17
 -1        48-3.01017E-04-3.01017E-04 2.58015E-04 2.47670E-17 3.38113E-17-2.35228E-18
 -1        49-3.01017E-04-3.01017E-04 2.58015E-04 2.26589E-17-3.79488E-18 1.51275E-17
 -1        50-2.00678E-04-2.00678E-04 1.72010E-04 2.91301E-17-2.49831E-17-2.69668E-17
 -1        51-2.00678E-04-2.00678E-04 1.72010E-04-4.41233E-17-2.74828E-17 3.12526E-19
 -1        52-2.00678E-04-2.00678E-04 1.72010E-04-1.81672E-17-1.83754E-17-5.38729E-17
 -1        53-2.00678E-04-2.00678E-04 1.72010E-04-1.41411E-18 2.40411E-17 5.73130E-18
 -1        54-3.01017E-04-3.01017E-04 2.58015E-04-2.76299E-17 3.17461E-17-3.89991E-18
 -1        55-3.01017E-04-3.01017E-04 2.58015E-04 7.74024E-17 4.05858E-17-2.06576E-17
 -1        56-2.00678E-04-2.00678E-04 1.72010E-04 6.56258E-17 1.85317E-17 1.23357E-17
 -1        57-2.00678E-04-2.00678E-04 1.72010E-04-8.46753E-17 6.66751E-17 1.43762E-18
 -1        58-2.00678E-04-2.00678E-04 1.72010E-04-5.81470E-17-8.69594E-18 3.44593E-17
 -1        59-2.00678E-04-2.00678E-04 1.72010E-04 7.38000E-17-2.10027E-17-3.57542E-17
 -1        60-3.01017E-04-3.01017E-04 2.58015E-04 8.45412E-17 2.86121E-17-1.43692E-18
 -1        61-3.01017E-04-3.01017E-04 2.58015E-04-7.46785E-17-9.34039E-18-1.84617E-17
 -1        62-2.00678E-04-2.00678E-04 1.72010E-04-4.79667E-17-3.21152E-17-8.46460E-18
 -1        63-2.00678E-04-2.00678E-04 1.72010E-04 6.44849E-17-6.14827E-17 2.04314E-17
 -1        64-2.00678E-04-2.00678E-04 1.72010E-04 6.83781E-17 1.09036E-17 1.11063E-17
 -1        65-2.00678E-04-2.00678E-04 1.72010E-04-6.78521E-17 2.04925E-17-2.11980E-17
 -1        66-3.01017E-04-3.01017E-04 2.58015E-04-1.05926E-16 2.57426E-17-4.89121E-19
 -1        67-6.02034E-04-6.02034E-04 5.16029E-04 9.79881E-19 4.81766E-17-1.04525E-17
 -1        68-3.01017E-04-3.01017E-04 2.58015E-04 3.21831E-18 3.84351E-17 6.48004E-18
 -1        69-3.01017E-04-3.01017E-04 2.58015E-04-6.61898E-18 6.97953E-17-3.81636E-17
 -1        70-3.01017E-04-3.01017E-04 2.58015E-04-3.91727E-18 2.89742E-17-1.13972E-17
 -1        71-3.01017E-04-3.01017E-04 2.58015E-04 3.64389E-18-2.93018E-17-5.17507E-17
 -1        72-6.02034E-04-6.02034E-04 5.16029E-04-2.30898E-18-1.12076E-17 4.49940E-17
 -3
    1PSTEP                       247          83           1          
  100CL  183 7.05781E-01          72                     0   83           1
 -4  DISP        4    1
 -5  D1          1    2    1    0
 -5  D2          1    2    2    0
 -5  D3          1    2    3    0
 -5  ALL         1    2    0    0    1ALL
 -1         1 0.00000E+00 0.00000E+00 0.00000E+00
 -1         2-3.91105E-01 0.00000E+00 0.00000E+00
 -1         3-1.03912E+01 0.00000E+00 0.00000E+00
 -1         4-1.07823E+01 0.00000E+00 0.00000E+00
 -1         5-2.07823E+01 0.00000E+00 0.00000E+00
 -1         6-2.11734E+01 0.00000E+00 0.00000E+00
 -1         7 0.00000E+00-3.91105E-01 0.00000E+00
 -1         8-3.91105E-01-3.91105E-01 0.00000E+00
 -1         9-1.03912E+01-3.91105E-01 0.00000E+00
 -1        10-1.07823E+01-3.91105E-01 0.00000E+00
 -1        11-2.07823E+01-3.91105E-01 0.00000E+00
 -1        12-2.11734E+01-3.91105E-01 0.00000E+00
 -1        13 0.00000E+00-1.03912E+01 0.00000E+00
 -1        14-3.91105E-01-1.03912E+01 0.00000E+00
 -1        15-1.03912E+01-1.03912E+01 0.00000E+00
 -1        16-1.07823E+01-1.03912E+01 0.00000E+00
 -1        17-2.07823E+01-1.03912E+01 0.00000E+00
 -1        18-2.11734E+01-1.03912E+01 0.00000E+00
 -1        19 0.00000E+00-1.07823E+01 0.00000E+00
 -1        20-3.91105E-01-1.07823E+01 0.00000E+00
 -1        21-1.03912E+01-1.07823E+01 0.00000E+00
 -1        22-1.07823E+01-1.07823E+01 0.00000E+00
 -1        23-2.07823E+01-1.07823E+01 0.00000E+00
 -1        24-2.11734E+01-1.07823E+01 0.00000E+00
 -1        25 0.00000E+00-2.07823E+01 0.00000E+00
 -1        26-3.91105E-01-2.07823E+01 0.00000E+00
 -1        27-1.03912E+01-2.07823E+01 0.00000E+00
 -1        28-1.07823E+01-2.07823E+01 0.00000E+00
 -1        29-2.07823E+01-2.07823E+01 0.00000E+00
 -1        30-2.11734E+01-2.07823E+01 0.00000E+00
 -1        31 0.00000E+00-2.11734E+01 0.00000E+00
 -1        32-3.91105E-01-2.11734E+01 0.00000E+00
 -1        33-1.03912E+01-2.11734E+01 0.00000E+00
 -1        34-1.07823E+01-2.11734E+01 0.00000E+00
 -1        35-2.07823E+01-2.11734E+01 0.00000E+00
 -1        36-2.11734E+01-2.11734E+01 0.00000E+00
 -1        37 0.00000E+00 0.00000E+00 4.68985E-01
 -1        38-3.91105E-01 0.00000E+00 4.68985E-01
 -1        39-1.03912E+01 0.00000E+00 4.68985E-01
 -1        40-1.07823E+01 0.00000E+00 4.68985E-01
 -1        41-2.07823E+01 0.00000E+00 4.68985E-01
 -1        42-2.11734E+01 0.00000E+00 4.68985E-01
 -1        43 0.00000E+00-3.91105E-01 4.68985E-01
 -1        44-3.91105E-01-3.91105E-01 4.68985E-01
 -1        45-1.03912E+01-3.91105E-01 4.68985E-01
 -1        46-1.07823E+01-3.91105E-01 4.68985E-01
 -1        47-2.07823E+01-3.91105E-01 4.68985E-01
 -1        48-2.11734E+01-3.91105E-01 4.68985E-01
 -1        49 0.00000E+00-1.03912E+01 4.68985E-01
 -1        50-3.91105E-01-1.03912E+01 4.68985E-01
 -1        51-1.03912E+01-1.03912E+01 4.68985E-01
 -1        52-1.07823E+01-1.03912E+01 4.68985E-01
 -1        53-2.07823E+01-1.03912E+01 4.68985E-01
 -1        54-2.11734E+01-1.03912E+01 4.68985E-01
 -1        55 0.00000E+00-1.07823E+01 4.68985E-01
 -1        56-3.91105E-01-1.07823E+01 4.68985E-01
 -1        57-1.03912E+01-1.07823E+01 4.68985E-01
 -1        58-1.07823E+01-1.07823E+01 4.68985E-01
 -1        59-2.07823E+01-1.07823E+01 4.68985E-01
 -1        60-2.11734E+01-1.07823E+01 4.68985E-01
 -1        61 0.00000E+00-2.07823E+01 4.68985E-01
 -1        62-3.91105E-01-2.07823E+01 4.68985E-01
 -1        63-1.03912E+01-2.07823E+01 4.68985E-01
 -1        64-1.07823E+01-2.07823E+01 4.68985E-01
 -1        65-2.07823E+01-2.07823E+01 4.68985E-01
 -1        66-2.11734E+01-2.07823E+01 4.68985E-01
 -1        67 0.00000E+00-2.11734E+01 4.68985E-01
 -1        68-3.91105E-01-2.11734E+01 4.68985E-01
 -1        69-1.03912E+01-2.11734E+01 4.68985E-01
 -1        70-1.07823E+01-2.11734E+01 4.68985E-01
 -1        71-2.07823E+01-2.11734E+01 4.68985E-01
 -1        72-2.11734E+01-2.11734E+01 4.68985E-01
 -3
    1PSTEP                       248          83           1          
  100CL  183 7.05781E-01          72                     0   83           1
 -4  STRESS      6    1
 -5  SXX         1    4    1    1
 -5  SYY         1    4    2    2
 -5  SZZ         1    4    3    3
 -5  SXY         1    4    1    2
 -5  SYZ         1    4    2    3
 -5  SZX         1    4    3    1
 -1         1-2.34405E+02-2.34405E+02 1.67607E-10-1.07068E-15-8.15387E-15-4.70467E-15
 -1         2-1.17202E+02-1.17202E+02 9.34706E-11-9.80090E-12 3.95437E-15-5.86868E-12
 -1         3-1.17202E+02-1.17202E+02 8.62396E-11 1.05090E-12-4.17157E-15 1.95100E-12
 -1         4-1.17202E+02-1.17202E+02 1.09247E-10-1.87131E-11 4.12128E-16-1.21800E-11
 -1         5-1.17202E+02-1.17202E+02 1.06096E-10 1.75321E-11 1.51257E-15 1.06712E-11
 -1         6-2.34405E+02-2.34405E+02 1.76353E-10-7.91190E-13-1.79237E-15-1.85287E-13
 -1         7-1.17202E+02-1.17202E+02 6.43405E-11 3.40618E-12 7.84228E-12 1.97370E-15
 -1         8-7.81349E+01-7.81349E+01 4.81992E-11-4.26279E-12 3.34483E-12-5.01618E-13
 -1         9-7.81349E+01-7.81349E+01 3.50476E-11 8.77999E-12 6.78589E-12-1.36515E-13
 -1        10-7.81349E+01-7.81349E+01 4.67685E-11-4.18756E-12 4.22764E-12 6.48415E-13
 -1        11-7.81349E+01-7.81349E+01 5.43709E-11 6.25126E-12-2.84753E-12-2.36570E-12
 -1        12-1.17202E+02-1.17202E+02 6.79365E-11-7.33091E-12 3.72849E-12 3.84397E-13
 -1        13-1.17202E+02-1.17202E+02 8.83680E-11 7.16790E-12 2.46638E-13 1.18191E-15
 -1        14-7.81349E+01-7.81349E+01 5.93282E-11-6.97521E-12-6.96520E-13-3.95646E-12
 -1        15-7.81349E+01-7.81349E+01 6.13253E-11 2.17299E-12 5.05065E-12 4.49556E-12
 -1        16-7.81349E+01-7.81349E+01 6.90942E-11-9.26512E-12 3.84111E-12-1.50615E-12
 -1        17-7.81349E+01-7.81349E+01 5.19685E-11 6.49020E-12-2.11898E-12-1.51813E-12
 -1        18-1.17202E+02-1.17202E+02 8.18902E-11-1.66138E-12-4.34144E-12-2.22649E-13
 -1        19-1.17202E+02-1.17202E+02 6.26760E-11 4.36936E-12 4.21904E-12-2.32745E-15
 -1        20-7.81349E+01-7.81349E+01 3.25049E-11-8.84250E-12 8.37514E-12 4.63184E-12
 -1        21-7.81349E+01-7.81349E+01 1.68279E-11 1.53056E-11 2.07235E-11-2.35497E-13
 -1        22-7.81349E+01-7.81349E+01 3.56092E-11 3.86660E-12 6.24794E-12 4.62667E-12
 -1        23-7.81349E+01-7.81349E+01 5.41950E-11 6.21432E-12-8.44686E-12-5.27848E-12
 -1        24-1.17202E+02-1.17202E+02 8.36200E-11-2.17981E-12-4.44010E-12 4.77852E-13
 -1        25-1.17202E+02-1.17202E+02 7.40486E-11 3.59057E-12-2.37853E-12 3.12252E-16
 -1        26-7.81349E+01-7.81349E+01 3.97156E-11 1.13575E-12-9.99578E-12 3.70951E-13
 -1        27-7.81349E+01-7.81349E+01 3.29009E-11-6.80827E-12-1.80827E-11 4.27616E-12
 -1        28-7.81349E+01-7.81349E+01 4.78473E-11-1.29546E-11-2.80309E-12 1.96592E-12
 -1        29-7.81349E+01-7.81349E+01 5.63374E-11 2.08127E-12 5.37021E-12-2.67624E-12
 -1        30-1.17202E+02-1.17202E+02 9.42646E-11-5.39185E-12 4.35603E-12-4.68562E-14
 -1        31-2.34405E+02-2.34405E+02 1.57551E-10-9.45164E-14 1.15185E-13-2.98379E-15
 -1        32-1.17202E+02-1.17202E+02 7.10471E-11-1.93421E-12 2.43034E-15 4.04623E-12
 -1        33-1.17202E+02-1.17202E+02 6.45638E-11 7.61202E-12 5.84988E-13 3.80640E-13
 -1        34-1.17202E+02-1.17202E+02 7.23393E-11-2.02722E-12-5.30464E-13 5.93505E-12
 -1        35-1.17202E+02-1.17202E+02 5.96890E-11 8.74954E-12-4.38014E-14-1.20482E-11
 -1        36-2.34405E+02-2.34405E+02 1.59825E-10-4.21864E-13 4.16158E-13-6.15649E-13
 -1        37-2.34405E+02-2.34405E+02 1.75878E-10 2.55858E-15-3.60629E-12 3.64728E-12
 -1        38-1.17202E+02-1.17202E+02 9.16243E-11-2.68866E-12-2.52957E-12-4.04329E-12
 -1        39-1.17202E+02-1.17202E+02 7.87621E-11-1.49606E-12-1.45110E-12 3.82521E-12
 -1        40-1.17202E+02-1.17202E+02 9.36943E-11-5.06255E-13-3.63230E-12-1.01687E-11
 -1        41-1.17202E+02-1.17202E+02 7.43627E-11-3.14780E-12 6.64156E-13 8.48920E-12
 -1        42-2.34405E+02-2.34405E+02 1.46609E-10 3.60208E-13 4.80400E-12-4.84159E-12
 -1        43-1.17202E+02-1.17202E+02 7.92860E-11-5.30974E-13 6.03424E-12 1.09777E-12
 -1        44-7.81349E+01-7.81349E+01 5.41749E-11-2.14728E-12 1.65741E-12 2.30407E-13
 -1        45-7.81349E+01-7.81349E+01 5.09420E-11 3.64003E-12 5.81889E-12-5.08780E-13
 -1        46-7.81349E+01-7.81349E+01 5.72793E-11 3.93451E-12 1.79398E-12 4.73724E-13
 -1        47-7.81349E+01-7.81349E+01 5.32011E-11 1.45577E-13-2.39818E-12-3.06240E-12
 -1        48-1.17202E+02-1.17202E+02 8.31174E-11 2.95408E-12 6.12002E-12-4.88254E-13
 -1        49-1.17202E+02-1.17202E+02 8.44408E-11 5.18644E-12 4.75106E-13 1.92949E-12
 -1        50-7.81349E+01-7.81349E+01 6.97173E-11 3.67144E-12-4.23878E-12-2.66943E-12
 -1        51-7.81349E+01-7.81349E+01 8.16413E-11-6.66666E-12-5.85539E-12-4.34553E-13
 -1        52-7.81349E+01-7.81349E+01 6.11989E-11-2.74317E-12-2.77125E-12-6.47473E-12
 -1        53-7.81349E+01-7.81349E+01 4.19157E-11 6.50925E-13 3.68480E-12-4.74702E-13
 -1        54-1.17202E+02-1.17202E+02 8.82738E-11-3.90737E-12 3.20959E-12 1.90397E-12
 -1        55-1.17202E+02-1.17202E+02 8.58224E-11 1.52021E-11 5.18996E-12-3.80524E-12
 -1        56-7.81349E+01-7.81349E+01 6.09924E-11 1.03545E-11 4.31164E-12 2.09617E-12
 -1        57-7.81349E+01-7.81349E+01 5.98351E-11-1.19054E-11 9.75740E-12-6.98185E-13
 -1        58-7.81349E+01-7.81349E+01 5.09973E-11-7.93743E-12-3.05985E-13 4.30753E-12
 -1        59-7.81349E+01-7.81349E+01 5.13865E-11 9.37281E-12-2.47632E-12-4.10218E-12
 -1        60-1.17202E+02-1.17202E+02 9.93900E-11 9.07083E-12 3.17193E-12 8.92704E-13
 -1        61-1.17202E+02-1.17202E+02 7.89288E-11-1.41815E-11 6.86752E-13-3.63095E-12
 -1        62-7.81349E+01-7.81349E+01 6.12251E-11-7.47054E-12-6.31732E-12-2.04738E-12
 -1        63-7.81349E+01-7.81349E+01 6.50174E-11 7.86292E-12-1.04815E-11 3.14441E-12
 -1        64-7.81349E+01-7.81349E+01 4.94071E-11 1.04432E-11 8.39889E-13 6.64979E-13
 -1        65-7.81349E+01-7.81349E+01 4.96570E-11-9.41794E-12 2.26551E-12-2.29017E-12
 -1        66-1.17202E+02-1.17202E+02 9.49655E-11-1.17356E-11 3.30350E-12 7.65420E-13
 -1        67-2.34405E+02-2.34405E+02 1.81830E-10-6.60777E-14 6.93394E-12-1.75244E-12
 -1        68-1.17202E+02-1.17202E+02 1.10793E-10 2.94263E-12 5.72771E-12 3.17882E-12
 -1        69-1.17202E+02-1.17202E+02 1.31593E-10-1.15534E-12 1.16752E-11-7.09473E-12
 -1        70-1.17202E+02-1.17202E+02 9.36813E-11 2.36332E-12 6.09692E-12-1.33908E-12
 -1        71-1.17202E+02-1.17202E+02 6.76963E-11-3.27009E-12-4.50721E-12-7.72241E-12
 -1        72-2.34405E+02-2.34405E+02 1.96099E-10 3.39146E-13-1.14518E-12 9.77631E-12
 -3
    1PSTEP                       249          83           1          
  100CL  183 7.05781E-01          72                     0   83           1
 -4  TOSTRAIN    6    1
 -5  EXX         1    4    1    1
 -5  EYY         1    4    2    2
 -5  EZZ         1    4    3    3
 -5  EXY         1    4    1    2
 -5  EYZ         1    4    2    3
 -5  EZX         1    4    3    1
 -1         1-7.81873E-04-7.81873E-04 6.70177E-04-6.65184E-21-5.05134E-20-2.91819E-20
 -1         2-3.90936E-04-3.90936E-04 3.35088E-04-6.08900E-17 2.45229E-20-3.63015E-17
 -1         3-3.90936E-04-3.90936E-04 3.35088E-04 6.52894E-18-2.58515E-20 1.20682E-17
 -1         4-3.90936E-04-3.90936E-04 3.35088E-04-1.16259E-16 2.57481E-21-7.53413E-17
 -1         5-3.90936E-04-3.90936E-04 3.35088E-04 1.08922E-16 9.34765E-21 6.60084E-17
 -1         6-7.81873E-04-7.81873E-04 6.70177E-04-4.91542E-18-1.11177E-20-1.14607E-18
 -1         7-3.90936E-04-3.90936E-04 3.35088E-04 2.11616E-17 4.85094E-17 1.22451E-20
 -1         8-2.60624E-04-2.60624E-04 2.23392E-04-2.64834E-17 2.06899E-17-3.10280E-18
 -1         9-2.60624E-04-2.60624E-04 2.23392E-04 5.45474E-17 4.19750E-17-8.44421E-19
 -1        10-2.60624E-04-2.60624E-04 2.23392E-04-2.60160E-17 2.61507E-17 4.01087E-18
 -1        11-2.60624E-04-2.60624E-04 2.23392E-04 3.88372E-17-1.76138E-17-1.46334E-17
 -1        12-3.90936E-04-3.90936E-04 3.35088E-04-4.55447E-17 2.30630E-17 2.37774E-18
 -1        13-3.90936E-04-3.90936E-04 3.35088E-04 4.45320E-17 1.52562E-18 7.33250E-21
 -1        14-2.60624E-04-2.60624E-04 2.23392E-04-4.33348E-17-4.30842E-18-2.44732E-17
 -1        15-2.60624E-04-2.60624E-04 2.23392E-04 1.35001E-17 3.12415E-17 2.78079E-17
 -1        16-2.60624E-04-2.60624E-04 2.23392E-04-5.75614E-17 2.37597E-17-9.31647E-18
 -1        17-2.60624E-04-2.60624E-04 2.23392E-04 4.03216E-17-1.31073E-17-9.39060E-18
 -1        18-3.90936E-04-3.90936E-04 3.35088E-04-1.03216E-17-2.68546E-17-1.37726E-18
 -1        19-3.90936E-04-3.90936E-04 3.35088E-04 2.71455E-17 2.60974E-17-1.44500E-20
 -1        20-2.60624E-04-2.60624E-04 2.23392E-04-5.49357E-17 5.18055E-17 2.86509E-17
 -1        21-2.60624E-04-2.60624E-04 2.23392E-04 9.50888E-17 1.28188E-16-1.45673E-18
 -1        22-2.60624E-04-2.60624E-04 2.23392E-04 2.40220E-17 3.86475E-17 2.86189E-17
 -1        23-2.60624E-04-2.60624E-04 2.23392E-04 3.86077E-17-5.22492E-17-3.26507E-17
 -1        24-3.90936E-04-3.90936E-04 3.35088E-04-1.35425E-17-2.74648E-17 2.95584E-18
 -1        25-3.90936E-04-3.90936E-04 3.35088E-04 2.23071E-17-1.47127E-17 1.95114E-21
 -1        26-2.60624E-04-2.60624E-04 2.23392E-04 7.05607E-18-6.18303E-17 2.29458E-18
 -1        27-2.60624E-04-2.60624E-04 2.23392E-04-4.22977E-17-1.11853E-16 2.64508E-17
 -1        28-2.60624E-04-2.60624E-04 2.23392E-04-8.04828E-17-1.73389E-17 1.21604E-17
 -1        29-2.60624E-04-2.60624E-04 2.23392E-04 1.29303E-17 3.32182E-17-1.65542E-17
 -1        30-3.90936E-04-3.90936E-04 3.35088E-04-3.34979E-17 2.69448E-17-2.89794E-19
 -1        31-7.81873E-04-7.81873E-04 6.70177E-04-5.87201E-19 7.12623E-19-1.85414E-20
 -1        32-3.90936E-04-3.90936E-04 3.35088E-04-1.20166E-17 1.49668E-20 2.50285E-17
 -1        33-3.90936E-04-3.90936E-04 3.35088E-04 4.72911E-17 3.61851E-18 2.35451E-18
 -1        34-3.90936E-04-3.90936E-04 3.35088E-04-1.25945E-17-3.28130E-18 3.67121E-17
 -1        35-3.90936E-04-3.90936E-04 3.35088E-04 5.43582E-17-2.70864E-19-7.45258E-17
 -1        36-7.81873E-04-7.81873E-04 6.70177E-04-2.62091E-18 2.57421E-18-3.80827E-18
 -1        37-7.81873E-04-7.81873E-04 6.70177E-04 1.58957E-20-2.23721E-17 2.26263E-17
 -1        38-3.90936E-04-3.90936E-04 3.35088E-04-1.67038E-17-1.56925E-17-2.49775E-17
 -1        39-3.90936E-04-3.90936E-04 3.35088E-04-9.29458E-18-9.00210E-18 2.36947E-17
 -1        40-3.90936E-04-3.90936E-04 3.35088E-04-3.14521E-18-2.25335E-17-6.28666E-17
 -1        41-3.90936E-04-3.90936E-04 3.35088E-04-1.95563E-17 4.12018E-18 5.24682E-17
 -1        42-7.81873E-04-7.81873E-04 6.70177E-04 2.23786E-18 2.98022E-17-3.00341E-17
 -1        43-3.90936E-04-3.90936E-04 3.35088E-04-3.29878E-18 3.72932E-17 6.81017E-18
 -1        44-2.60624E-04-2.60624E-04 2.23392E-04-1.33404E-17 1.02218E-17 1.43840E-18
 -1        45-2.60624E-04-2.60624E-04 2.23392E-04 2.26144E-17 3.59762E-17-3.15107E-18
 -1        46-2.60624E-04-2.60624E-04 2.23392E-04 2.44439E-17 1.10533E-17 2.92634E-18
 -1        47-2.60624E-04-2.60624E-04 2.23392E-04 9.04426E-19-1.48263E-17-1.89507E-17
 -1        48-3.90936E-04-3.90936E-04 3.35088E-04 1.83528E-17 3.78993E-17-3.03194E-18
 -1        49-3.90936E-04-3.90936E-04 3.35088E-04 3.22218E-17 2.94532E-18 1.19698E-17
 -1        50-2.60624E-04-2.60624E-04 2.23392E-04 2.28095E-17-2.62841E-17-1.64890E-17
 -1        51-2.60624E-04-2.60624E-04 2.23392E-04-4.14179E-17-3.64171E-17-2.77781E-18
 -1        52-2.60624E-04-2.60624E-04 2.23392E-04-1.70425E-17-1.72576E-17-4.01401E-17
 -1        53-2.60624E-04-2.60624E-04 2.23392E-04 4.04400E-18 2.28975E-17-2.91111E-18
 -1        54-3.90936E-04-3.90936E-04 3.35088E-04-2.42753E-17 1.99915E-17 1.18151E-17
 -1        55-3.90936E-04-3.90936E-04 3.35088E-04 9.44459E-17 3.21097E-17-2.36063E-17
 -1        56-2.60624E-04-2.60624E-04 2.23392E-04 6.43293E-17 2.66056E-17 1.29205E-17
 -1        57-2.60624E-04-2.60624E-04 2.23392E-04-7.39644E-17 6.01579E-17-4.32626E-18
 -1        58-2.60624E-04-2.60624E-04 2.23392E-04-4.93128E-17-2.00838E-18 2.66372E-17
 -1        59-2.60624E-04-2.60624E-04 2.23392E-04 5.82304E-17-1.52130E-17-2.53619E-17
 -1        60-3.90936E-04-3.90936E-04 3.35088E-04 5.63543E-17 1.97587E-17 5.54101E-18
 -1        61-3.90936E-04-3.90936E-04 3.35088E-04-8.81052E-17 4.30213E-18-2.25251E-17
 -1        62-2.60624E-04-2.60624E-04 2.23392E-04-4.64122E-17-3.90074E-17-1.27079E-17
 -1        63-2.60624E-04-2.60624E-04 2.23392E-04 4.88499E-17-6.46952E-17 1.94292E-17
 -1        64-2.60624E-04-2.60624E-04 2.23392E-04 6.48807E-17 5.26464E-18 4.09234E-18
 -1        65-2.60624E-04-2.60624E-04 2.23392E-04-5.85108E-17 1.39586E-17-1.41577E-17
 -1        66-3.90936E-04-3.90936E-04 3.35088E-04-7.29095E-17 2.04252E-17 4.74734E-18
 -1        67-7.81873E-04-7.81873E-04 6.70177E-04-4.10521E-19 4.29991E-17-1.08715E-17
 -1        68-3.90936E-04-3.90936E-04 3.35088E-04 1.82817E-17 3.55333E-17 1.96473E-17
 -1        69-3.90936E-04-3.90936E-04 3.35088E-04-7.17778E-18 7.24277E-17-4.40219E-17
 -1        70-3.90936E-04-3.90936E-04 3.35088E-04 1.46826E-17 3.78176E-17-8.41954E-18
 -1        71-3.90936E-04-3.90936E-04 3.35088E-04-2.03161E-17-2.79625E-17-4.76818E-17
 -1        72-7.81873E-04-7.81873E-04 6.70177E-04 2.10701E-18-7.10196E-18 6.06452E-17
 -3
    1PSTEP                       250          84           1          
  100CL  184 7.14781E-01          72                     0   84           1
 -4  DISP        4    1
 -5  D1          1    2    1    0
 -5  D2          1    2    2    0
 -5  D3          1    2    3    0
 -5  ALL         1    2    0    0    1ALL
 -1         1 0.00000E+00 0.00000E+00 0.00000E+00
 -1         2-4.81087E-01 0.00000E+00 0.00000E+00
 -1         3-1.04812E+01 0.00000E+00 0.00000E+00
 -1         4-1.09623E+01 0.00000E+00 0.00000E+00
 -1         5-2.09624E+01 0.00000E+00 0.00000E+00
 -1         6-2.14434E+01 0.00000E+00 0.00000E+00
 -1         7 0.00000E+00-4.81087E-01 0.00000E+00
 -1         8-4.81087E-01-4.81087E-01 0.00000E+00
 -1         9-1.04812E+01-4.81087E-01 0.00000E+00
 -1        10-1.09623E+01-4.81087E-01 0.00000E+00
 -1        11-2.09624E+01-4.81087E-01 0.00000E+00
 -1        12-2.14434E+01-4.81087E-01 0.00000E+00
 -1        13 0.00000E+00-1.04812E+01 0.00000E+00
 -1        14-4.81087E-01-1.04812E+01 0.00000E+00
 -1        15-1.04812E+01-1.04812E+01 0.00000E+00
 -1        16-1.09623E+01-1.04812E+01 0.00000E+00
 -1        17-2.09624E+01-1.04812E+01 0.00000E+00
 -1        18-2.14434E+01-1.04812E+01 0.00000E+00
 -1        19 0.00000E+00-1.09623E+01 0.00000E+00
 -1        20-4.81087E-01-1.09623E+01 0.00000E+00
 -1        21-1.04812E+01-1.09623E+01 0.00000E+00
 -1        22-1.09623E+01-1.09623E+01 0.00000E+00
 -1        23-2.09624E+01-1.09623E+01 0.00000E+00
 -1        24-2.14434E+01-1.09623E+01 0.00000E+00
 -1        25 0.00000E+00-2.09624E+01 0.00000E+00
 -1        26-4.81087E-01-2.09624E+01 0.00000E+00
 -1        27-1.04812E+01-2.09624E+01 0.00000E+00
 -1        28-1.09623E+01-2.09624E+01 0.00000E+00
 -1        29-2.09624E+01-2.09624E+01 0.00000E+00
 -1        30-2.14434E+01-2.09624E+01 0.00000E+00
 -1        31 0.00000E+00-2.14434E+01 0.00000E+00
 -1        32-4.81087E-01-2.14434E+01 0.00000E+00
 -1        33-1.04812E+01-2.14434E+01 0.00000E+00
 -1        34-1.09623E+01-2.14434E+01 0.00000E+00
 -1        35-2.09624E+01-2.14434E+01 0.00000E+00
 -1        36-2.14434E+01-2.14434E+01 0.00000E+00
 -1        37 0.00000E+00 0.00000E+00 5.76789E-01
 -1        38-4.81087E-01 0.00000E+00 5.76789E-01
 -1        39-1.04812E+01 0.00000E+00 5.76789E-01
 -1        40-1.09623E+01 0.00000E+00 5.76789E-01
 -1        41-2.09624E+01 0.00000E+00 5.76789E-01
 -1        42-2.14434E+01 0.00000E+00 5.76789E-01
 -1        43 0.00000E+00-4.81087E-01 5.76789E-01
 -1        44-4.81087E-01-4.81087E-01 5.76789E-01
 -1        45-1.04812E+01-4.81087E-01 5.76789E-01
 -1        46-1.09623E+01-4.81087E-01 5.76789E-01
 -1        47-2.09624E+01-4.81087E-01 5.76789E-01
 -1        48-2.14434E+01-4.81087E-01 5.76789E-01
 -1        49 0.00000E+00-1.04812E+01 5.76789E-01
 -1        50-4.81087E-01-1.04812E+01 5.76789E-01
 -1        51-1.04812E+01-1.04812E+01 5.76789E-01
 -1        52-1.09623E+01-1.04812E+01 5.76789E-01
 -1        53-2.09624E+01-1.04812E+01 5.76789E-01
 -1        54-2.14434E+01-1.04812E+01 5.76789E-01
 -1        55 0.00000E+00-1.09623E+01 5.76789E-01
 -1        56-4.81087E-01-1.09623E+01 5.76789E-01
 -1        57-1.04812E+01-1.09623E+01 5.76789E-01
 -1        58-1.09623E+01-1.09623E+01 5.76789E-01
 -1        59-2.09624E+01-1.09623E+01 5.76789E-01
 -1        60-2.14434E+01-1.09623E+01 5.76789E-01
 -1        61 0.00000E+00-2.09624E+01 5.76789E-01
 -1        62-4.81087E-01-2.09624E+01 5.76789E-01
 -1        63-1.04812E+01-2.09624E+01 5.76789E-01
 -1        64-1.09623E+01-2.09624E+01 5.76789E-01
 -1        65-2.09624E+01-2.09624E+01 5.76789E-01
 -1        66-2.14434E+01-2.09624E+01 5.76789E-01
 -1        67 0.00000E+00-2.14434E+01 5.76789E-01
 -1        68-4.81087E-01-2.14434E+01 5.76789E-01
 -1        69-1.04812E+01-2.14434E+01 5.76789E-01
 -1        70-1.09623E+01-2.14434E+01 5.76789E-01
 -1        71-2.09624E+01-2.14434E+01 5.76789E-01
 -1        72-2.14434E+01-2.14434E+01 5.76789E-01
 -3
    1PSTEP                       251          84           1          
  100CL  184 7.14781E-01          72                     0   84           1
 -4  STRESS      6    1
 -5  SXX         1    4    1    1
 -5  SYY         1    4    2    2
 -5  SZZ         1    4    3    3
 -5  SXY         1    4    1    2
 -5  SYZ         1    4    2    3
 -5  SZX         1    4    3    1
 -1         1-2.88264E+02-2.88264E+02 2.84089E-10 2.71607E-16-5.08426E-16 1.71960E-15
 -1         2-1.44132E+02-1.44132E+02 1.51990E-10-1.05445E-11-2.47220E-16-2.19005E-12
 -1         3-1.44132E+02-1.44132E+02 1.47300E-10-5.49044E-13-3.55636E-16 2.32609E-13
 -1         4-1.44132E+02-1.44132E+02 1.68239E-10-2.33516E-11 2.37420E-15-1.03936E-11
 -1         5-1.44132E+02-1.44132E+02 1.69581E-10 2.32031E-11 1.69309E-15 1.11964E-11
 -1         6-2.88264E+02-2.88264E+02 2.97542E-10-3.31718E-14-7.70902E-15 3.46270E-13
 -1         7-1.44132E+02-1.44132E+02 1.22891E-10 6.97249E-12 6.46784E-12-3.91701E-15
 -1         8-9.60881E+01-9.60881E+01 8.95869E-11-2.38142E-12 3.25888E-12-1.53601E-12
 -1         9-9.60881E+01-9.60881E+01 7.77839E-11 7.23688E-12 4.39743E-12 1.61946E-12
 -1        10-9.60881E+01-9.60881E+01 8.32244E-11-7.97843E-12 4.65336E-12 2.48508E-12
 -1        11-9.60881E+01-9.60881E+01 9.21982E-11 7.86588E-12-4.01035E-12-3.90643E-12
 -1        12-1.44132E+02-1.44132E+02 1.21630E-10-1.10971E-11 5.21492E-12-3.05599E-13
 -1        13-1.44132E+02-1.44132E+02 1.46412E-10 4.33260E-12-9.72913E-13-9.96969E-18
 -1        14-9.60881E+01-9.60881E+01 1.01192E-10-9.16377E-12-1.55386E-12-5.33434E-12
 -1        15-9.60881E+01-9.60881E+01 1.10399E-10 4.82388E-12 6.39428E-12 7.67037E-12
 -1        16-9.60881E+01-9.60881E+01 1.04712E-10-9.60860E-12 1.94651E-12-1.52913E-13
 -1        17-9.60881E+01-9.60881E+01 9.11350E-11 9.53119E-12-2.80748E-12-6.89160E-13
 -1        18-1.44132E+02-1.44132E+02 1.41122E-10-1.62507E-12-7.92028E-12-5.24164E-13
 -1        19-1.44132E+02-1.44132E+02 1.22308E-10 3.89891E-12 4.24967E-12 2.80982E-16
 -1        20-9.60881E+01-9.60881E+01 7.60691E-11-9.45290E-12 7.30638E-12 3.48742E-12
 -1        21-9.60881E+01-9.60881E+01 6.45548E-11 1.30799E-11 1.69141E-11 2.27230E-12
 -1        22-9.60881E+01-9.60881E+01 6.64590E-11-1.24637E-12 9.37042E-12 7.43116E-12
 -1        23-9.60881E+01-9.60881E+01 9.14819E-11 1.13562E-11-7.68877E-12-5.82532E-12
 -1        24-1.44132E+02-1.44132E+02 1.49152E-10 1.18903E-12-9.32812E-12 1.54021E-13
 -1        25-1.44132E+02-1.44132E+02 1.33285E-10 2.91825E-12-2.04707E-12 6.08583E-16
 -1        26-9.60881E+01-9.60881E+01 7.84056E-11 1.39468E-12-8.31330E-12 2.24357E-12
 -1        27-9.60881E+01-9.60881E+01 7.62178E-11-5.15689E-12-1.32210E-11 3.39360E-12
 -1        28-9.60881E+01-9.60881E+01 7.84561E-11-7.84326E-12-5.15554E-12 6.08835E-12
 -1        29-9.60881E+01-9.60881E+01 8.87888E-11-1.97430E-12 4.73620E-12-7.14273E-12
 -1        30-1.44132E+02-1.44132E+02 1.57320E-10-8.56710E-12 7.79394E-12 7.33132E-14
 -1        31-2.88264E+02-2.88264E+02 2.74969E-10 2.52311E-13 8.22921E-13 7.59252E-17
 -1        32-1.44132E+02-1.44132E+02 1.28097E-10-7.00085E-13-2.87264E-14 6.42330E-12
 -1        33-1.44132E+02-1.44132E+02 1.29761E-10 5.45657E-12 1.86620E-13 2.21896E-12
 -1        34-1.44132E+02-1.44132E+02 1.27583E-10 1.72024E-12 1.91980E-13 8.14649E-12
 -1        35-1.44132E+02-1.44132E+02 1.16497E-10 5.96314E-12 3.12103E-14-1.32333E-11
 -1        36-2.88264E+02-2.88264E+02 2.82717E-10 1.08020E-13-1.00023E-13 1.89351E-13
 -1        37-2.88264E+02-2.88264E+02 3.02056E-10-9.31650E-16-2.49982E-12-4.01176E-13
 -1        38-1.44132E+02-1.44132E+02 1.57729E-10-1.07133E-11-7.09857E-13-2.39150E-12
 -1        39-1.44132E+02-1.44132E+02 1.38399E-10 2.17194E-12 1.71289E-12 1.79864E-12
 -1        40-1.44132E+02-1.44132E+02 1.60325E-10-3.79720E-12-3.43385E-12-8.84297E-12
 -1        41-1.44132E+02-1.44132E+02 1.33341E-10-1.30044E-12 1.45860E-12 9.73034E-12
 -1        42-2.88264E+02-2.88264E+02 2.72078E-10 1.04568E-13 6.32408E-12-3.47805E-12
 -1        43-1.44132E+02-1.44132E+02 1.31665E-10 4.77371E-12 5.21819E-12 3.40419E-13
 -1        44-9.60881E+01-9.60881E+01 9.31250E-11-3.95942E-12 2.78581E-12-1.30645E-12
 -1        45-9.60881E+01-9.60881E+01 8.91806E-11 9.38838E-12 5.54358E-12-8.89366E-13
 -1        46-9.60881E+01-9.60881E+01 9.51313E-11 5.50095E-12 2.36840E-12-1.09830E-13
 -1        47-9.60881E+01-9.60881E+01 9.21463E-11 2.01458E-12-3.03228E-12-3.86916E-12
 -1        48-1.44132E+02-1.44132E+02 1.45282E-10 4.15531E-12 8.35833E-12 6.69277E-13
 -1        49-1.44132E+02-1.44132E+02 1.39649E-10 2.72102E-12 4.04285E-13 2.61290E-12
 -1        50-9.60881E+01-9.60881E+01 1.07750E-10 2.06088E-12-4.18697E-12-3.59889E-12
 -1        51-9.60881E+01-9.60881E+01 1.15073E-10-9.19682E-12-3.15265E-12 7.42436E-13
 -1        52-9.60881E+01-9.60881E+01 1.03412E-10-4.72692E-12-4.51923E-12-7.50553E-12
 -1        53-9.60881E+01-9.60881E+01 8.30381E-11-1.41996E-12 3.47281E-12-9.48938E-13
 -1        54-1.44132E+02-1.44132E+02 1.41061E-10-6.53036E-12 3.83521E-12 1.65333E-13
 -1        55-1.44132E+02-1.44132E+02 1.44458E-10 1.24780E-11 5.80029E-12-2.97811E-12
 -1        56-9.60881E+01-9.60881E+01 1.00915E-10 8.56554E-12 4.07602E-12 1.51050E-12
 -1        57-9.60881E+01-9.60881E+01 9.73976E-11-5.06764E-12 7.22945E-12-2.03221E-12
 -1        58-9.60881E+01-9.60881E+01 9.32779E-11-5.82029E-13 2.58973E-12 3.55133E-12
 -1        59-9.60881E+01-9.60881E+01 9.31513E-11 5.85630E-12-1.61707E-12-4.00759E-12
 -1        60-1.44132E+02-1.44132E+02 1.62186E-10 4.09848E-12 2.35192E-12 2.45822E-12
 -1        61-1.44132E+02-1.44132E+02 1.43091E-10-1.29086E-11 9.89201E-13-4.63548E-12
 -1        62-9.60881E+01-9.60881E+01 1.00649E-10-6.32692E-12-5.65287E-12-8.50148E-13
 -1        63-9.60881E+01-9.60881E+01 1.07302E-10 2.47945E-12-6.98436E-12-7.22139E-13
 -1        64-9.60881E+01-9.60881E+01 9.52772E-11 1.85250E-12-1.33753E-12 1.99482E-12
 -1        65-9.60881E+01-9.60881E+01 9.34162E-11-4.02220E-12 2.60944E-12-4.06006E-12
 -1        66-1.44132E+02-1.44132E+02 1.63318E-10-8.85909E-12 4.63255E-12 3.84892E-12
 -1        67-2.88264E+02-2.88264E+02 3.07756E-10 1.63540E-13 4.21549E-12-4.43129E-12
 -1        68-1.44132E+02-1.44132E+02 1.67827E-10 3.50002E-12 4.48750E-12 4.20881E-12
 -1        69-1.44132E+02-1.44132E+02 1.80770E-10 1.18665E-12 8.82479E-12-6.31035E-12
 -1        70-1.44132E+02-1.44132E+02 1.57495E-10-2.29920E-13 6.10796E-12-2.58508E-13
 -1        71-1.44132E+02-1.44132E+02 1.26813E-10 2.09134E-12-3.45774E-12-8.03901E-12
 -1        72-2.88264E+02-2.88264E+02 3.04721E-10 5.49085E-13-6.18150E-12 9.70010E-12
 -3
    1PSTEP                       252          84           1          
  100CL  184 7.14781E-01          72                     0   84           1
 -4  TOSTRAIN    6    1
 -5  EXX         1    4    1    1
 -5  EYY         1    4    2    2
 -5  EZZ         1    4    3    3
 -5  EXY         1    4    1    2
 -5  EYZ         1    4    2    3
 -5  EZX         1    4    3    1
 -1         1-9.61673E-04-9.61673E-04 8.24291E-04 1.68881E-21-3.16136E-21 1.06678E-20
 -1         2-4.80836E-04-4.80836E-04 4.12145E-04-6.55639E-17-1.53960E-21-1.35444E-17
 -1         3-4.80836E-04-4.80836E-04 4.12145E-04-3.41386E-18-2.21359E-21 1.43856E-18
 -1         4-4.80836E-04-4.80836E-04 4.12145E-04-1.45196E-16 1.47205E-20-6.42796E-17
 -1         5-4.80836E-04-4.80836E-04 4.12145E-04 1.44273E-16 1.04983E-20 6.92444E-17
 -1         6-9.61673E-04-9.61673E-04 8.24291E-04-2.06257E-19-4.77487E-20 2.14154E-18
 -1         7-4.80836E-04-4.80836E-04 4.12145E-04 4.33538E-17 4.00005E-17-2.42688E-20
 -1         8-3.20558E-04-3.20558E-04 2.74764E-04-1.48073E-17 2.01546E-17-9.49950E-18
 -1         9-3.20558E-04-3.20558E-04 2.74764E-04 4.49977E-17 2.71960E-17 1.00156E-17
 -1        10-3.20558E-04-3.20558E-04 2.74764E-04-4.96085E-17 2.87787E-17 1.53690E-17
 -1        11-3.20558E-04-3.20558E-04 2.74764E-04 4.89087E-17-2.48021E-17-2.41594E-17
 -1        12-4.80836E-04-4.80836E-04 4.12145E-04-6.89997E-17 3.22518E-17-1.89000E-18
 -1        13-4.80836E-04-4.80836E-04 4.12145E-04 2.69394E-17-6.01699E-18-3.17568E-23
 -1        14-3.20558E-04-3.20558E-04 2.74764E-04-5.69788E-17-9.60988E-18-3.29903E-17
 -1        15-3.20558E-04-3.20558E-04 2.74764E-04 2.99940E-17 3.95456E-17 4.74376E-17
 -1        16-3.20558E-04-3.20558E-04 2.74764E-04-5.97447E-17 1.20382E-17-9.45645E-19
 -1        17-3.20558E-04-3.20558E-04 2.74764E-04 5.92633E-17-1.73630E-17-4.26209E-18
 -1        18-4.80836E-04-4.80836E-04 4.12145E-04-1.01044E-17-4.89831E-17-3.24166E-18
 -1        19-4.80836E-04-4.80836E-04 4.12145E-04 2.42428E-17 2.62822E-17 1.69875E-21
 -1        20-3.20558E-04-3.20558E-04 2.74764E-04-5.87765E-17 4.51864E-17 2.15680E-17
 -1        21-3.20558E-04-3.20558E-04 2.74764E-04 8.13285E-17 1.04605E-16 1.40531E-17
 -1        22-3.20558E-04-3.20558E-04 2.74764E-04-7.74971E-18 5.79516E-17 4.59581E-17
 -1        23-3.20558E-04-3.20558E-04 2.74764E-04 7.06112E-17-4.75514E-17-3.60268E-17
 -1        24-4.80836E-04-4.80836E-04 4.12145E-04 7.39319E-18-5.76899E-17 9.52516E-19
 -1        25-4.80836E-04-4.80836E-04 4.12145E-04 1.81452E-17-1.26601E-17 3.78069E-21
 -1        26-3.20558E-04-3.20558E-04 2.74764E-04 8.67185E-18-5.14137E-17 1.38754E-17
 -1        27-3.20558E-04-3.20558E-04 2.74764E-04-3.20647E-17-8.17657E-17 2.09878E-17
 -1        28-3.20558E-04-3.20558E-04 2.74764E-04-4.87681E-17-3.18846E-17 3.76535E-17
 -1        29-3.20558E-04-3.20558E-04 2.74764E-04-1.22759E-17 2.92912E-17-4.41744E-17
 -1        30-4.80836E-04-4.80836E-04 4.12145E-04-5.32688E-17 4.82018E-17 4.53370E-19
 -1        31-9.61673E-04-9.61673E-04 8.24291E-04 1.56883E-18 5.08949E-18 4.91046E-22
 -1        32-4.80836E-04-4.80836E-04 4.12145E-04-4.35301E-18-1.77638E-19 3.97250E-17
 -1        33-4.80836E-04-4.80836E-04 4.12145E-04 3.39280E-17 1.15415E-18 1.37233E-17
 -1        34-4.80836E-04-4.80836E-04 4.12145E-04 1.06962E-17 1.18732E-18 5.03822E-17
 -1        35-4.80836E-04-4.80836E-04 4.12145E-04 3.70778E-17 1.93074E-19-8.18413E-17
 -1        36-9.61673E-04-9.61673E-04 8.24291E-04 6.71651E-19-6.18554E-19 1.17113E-18
 -1        37-9.61673E-04-9.61673E-04 8.24291E-04-5.79284E-21-1.55155E-17-2.48996E-18
 -1        38-4.80836E-04-4.80836E-04 4.12145E-04-6.66135E-17-4.40584E-18-1.47947E-17
 -1        39-4.80836E-04-4.80836E-04 4.12145E-04 1.35047E-17 1.06314E-17 1.11573E-17
 -1        40-4.80836E-04-4.80836E-04 4.12145E-04-2.36104E-17-2.13128E-17-5.46559E-17
 -1        41-4.80836E-04-4.80836E-04 4.12145E-04-8.08589E-18 9.05299E-18 6.01448E-17
 -1        42-9.61673E-04-9.61673E-04 8.24291E-04 6.50185E-19 3.92514E-17-2.15755E-17
 -1        43-4.80836E-04-4.80836E-04 4.12145E-04 2.96821E-17 3.22443E-17 2.11290E-18
 -1        44-3.20558E-04-3.20558E-04 2.74764E-04-2.46190E-17 1.72184E-17-8.07472E-18
 -1        45-3.20558E-04-3.20558E-04 2.74764E-04 5.83753E-17 3.43097E-17-5.55379E-18
 -1        46-3.20558E-04-3.20558E-04 2.74764E-04 3.42040E-17 1.45968E-17-7.32735E-19
 -1        47-3.20558E-04-3.20558E-04 2.74764E-04 1.25263E-17-1.87317E-17-2.39255E-17
 -1        48-4.80836E-04-4.80836E-04 4.12145E-04 2.58370E-17 5.17620E-17 4.14419E-18
 -1        49-4.80836E-04-4.80836E-04 4.12145E-04 1.69188E-17 2.53113E-18 1.62173E-17
 -1        50-3.20558E-04-3.20558E-04 2.74764E-04 1.28142E-17-2.59564E-17-2.22189E-17
 -1        51-3.20558E-04-3.20558E-04 2.74764E-04-5.71843E-17-1.97097E-17 4.43327E-18
 -1        52-3.20558E-04-3.20558E-04 2.74764E-04-2.93912E-17-2.80956E-17-4.65764E-17
 -1        53-3.20558E-04-3.20558E-04 2.74764E-04-8.82908E-18 2.16146E-17-5.86864E-18
 -1        54-4.80836E-04-4.80836E-04 4.12145E-04-4.06046E-17 2.39813E-17 1.02264E-18
 -1        55-4.80836E-04-4.80836E-04 4.12145E-04 7.75861E-17 3.59028E-17-1.84841E-17
 -1        56-3.20558E-04-3.20558E-04 2.74764E-04 5.32591E-17 2.51463E-17 9.29778E-18
 -1        57-3.20558E-04-3.20558E-04 2.74764E-04-3.15097E-17 4.44986E-17-1.26607E-17
 -1        58-3.20558E-04-3.20558E-04 2.74764E-04-3.61896E-18 1.58700E-17 2.18708E-17
 -1        59-3.20558E-04-3.20558E-04 2.74764E-04 3.64135E-17-9.86387E-18-2.47468E-17
 -1        60-4.80836E-04-4.80836E-04 4.12145E-04 2.54836E-17 1.48080E-17 1.52603E-17
 -1        61-4.80836E-04-4.80836E-04 4.12145E-04-8.02637E-17 6.16698E-18-2.87708E-17
 -1        62-3.20558E-04-3.20558E-04 2.74764E-04-3.93397E-17-3.48917E-17-5.32617E-18
 -1        63-3.20558E-04-3.20558E-04 2.74764E-04 1.54168E-17-4.30672E-17-4.55771E-18
 -1        64-3.20558E-04-3.20558E-04 2.74764E-04 1.15186E-17-8.17787E-18 1.22454E-17
 -1        65-3.20558E-04-3.20558E-04 2.74764E-04-2.50093E-17 1.60873E-17-2.50451E-17
 -1        66-4.80836E-04-4.80836E-04 4.12145E-04-5.50843E-17 2.85840E-17 2.39004E-17
 -1        67-9.61673E-04-9.61673E-04 8.24291E-04 1.01686E-18 2.61693E-17-2.75035E-17
 -1        68-4.80836E-04-4.80836E-04 4.12145E-04 2.17625E-17 2.78559E-17 2.59805E-17
 -1        69-4.80836E-04-4.80836E-04 4.12145E-04 7.37837E-18 5.47687E-17-3.92144E-17
 -1        70-4.80836E-04-4.80836E-04 4.12145E-04-1.42960E-18 3.79158E-17-1.78666E-18
 -1        71-4.80836E-04-4.80836E-04 4.12145E-04 1.30036E-17-2.14607E-17-4.96108E-17
 -1        72-9.61673E-04-9.61673E-04 8.24291E-04 3.41411E-18-3.83616E-17 6.02037E-17
 -3
    1PSTEP                       253          85           1          
  100CL  185 7.23781E-01          72                     0   85           1
 -4  DISP        4    1
 -5  D1          1    2    1    0
 -5  D2          1    2    2    0
 -5  D3          1    2    3    0
 -5  ALL         1    2    0    0    1ALL
 -1         1 0.00000E+00 0.00000E+00 0.00000E+00
 -1         2-5.71066E-01 0.00000E+00 0.00000E+00
 -1         3-1.05712E+01 0.00000E+00 0.00000E+00
 -1         4-1.11423E+01 0.00000E+00 0.00000E+00
 -1         5-2.11424E+01 0.00000E+00 0.00000E+00
 -1         6-2.17134E+01 0.00000E+00 0.00000E+00
 -1         7 0.00000E+00-5.71066E-01 0.00000E+00
 -1         8-5.71066E-01-5.71066E-01 0.00000E+00
 -1         9-1.05712E+01-5.71066E-01 0.00000E+00
 -1        10-1.11423E+01-5.71066E-01 0.00000E+00
 -1        11-2.11424E+01-5.71066E-01 0.00000E+00
 -1        12-2.17134E+01-5.71066E-01 0.00000E+00
 -1        13 0.00000E+00-1.05712E+01 0.00000E+00
 -1        14-5.71066E-01-1.05712E+01 0.00000E+00
 -1        15-1.05712E+01-1.05712E+01 0.00000E+00
 -1        16-1.11423E+01-1.05712E+01 0.00000E+00
 -1        17-2.11424E+01-1.05712E+01 0.00000E+00
 -1        18-2.17134E+01-1.05712E+01 0.00000E+00
 -1        19 0.00000E+00-1.11423E+01 0.00000E+00
 -1        20-5.71066E-01-1.11423E+01 0.00000E+00
 -1        21-1.05712E+01-1.11423E+01 0.00000E+00
 -1        22-1.11423E+01-1.11423E+01 0.00000E+00
 -1        23-2.11424E+01-1.11423E+01 0.00000E+00
 -1        24-2.17134E+01-1.11423E+01 0.00000E+00
 -1        25 0.00000E+00-2.11424E+01 0.00000E+00
 -1        26-5.71066E-01-2.11424E+01 0.00000E+00
 -1        27-1.05712E+01-2.11424E+01 0.00000E+00
 -1        28-1.11423E+01-2.11424E+01 0.00000E+00
 -1        29-2.11424E+01-2.11424E+01 0.00000E+00
 -1        30-2.17134E+01-2.11424E+01 0.00000E+00
 -1        31 0.00000E+00-2.17134E+01 0.00000E+00
 -1        32-5.71066E-01-2.17134E+01 0.00000E+00
 -1        33-1.05712E+01-2.17134E+01 0.00000E+00
 -1        34-1.11423E+01-2.17134E+01 0.00000E+00
 -1        35-2.11424E+01-2.17134E+01 0.00000E+00
 -1        36-2.17134E+01-2.17134E+01 0.00000E+00
 -1        37 0.00000E+00 0.00000E+00 6.84553E-01
 -1        38-5.71066E-01 0.00000E+00 6.84553E-01
 -1        39-1.05712E+01 0.00000E+00 6.84553E-01
 -1        40-1.11423E+01 0.00000E+00 6.84553E-01
 -1        41-2.11424E+01 0.00000E+00 6.84553E-01
 -1        42-2.17134E+01 0.00000E+00 6.84553E-01
 -1        43 0.00000E+00-5.71066E-01 6.84553E-01
 -1        44-5.71066E-01-5.71066E-01 6.84553E-01
 -1        45-1.05712E+01-5.71066E-01 6.84553E-01
 -1        46-1.11423E+01-5.71066E-01 6.84553E-01
 -1        47-2.11424E+01-5.71066E-01 6.84553E-01
 -1        48-2.17134E+01-5.71066E-01 6.84553E-01
 -1        49 0.00000E+00-1.05712E+01 6.84553E-01
 -1        50-5.71066E-01-1.05712E+01 6.84553E-01
 -1        51-1.05712E+01-1.05712E+01 6.84553E-01
 -1        52-1.11423E+01-1.05712E+01 6.84553E-01
 -1        53-2.11424E+01-1.05712E+01 6.84553E-01
 -1        54-2.17134E+01-1.05712E+01 6.84553E-01
 -1        55 0.00000E+00-1.11423E+01 6.84553E-01
 -1        56-5.71066E-01-1.11423E+01 6.84553E-01
 -1        57-1.05712E+01-1.11423E+01 6.84553E-01
 -1        58-1.11423E+01-1.11423E+01 6.84553E-01
 -1        59-2.11424E+01-1.11423E+01 6.84553E-01
 -1        60-2.17134E+01-1.11423E+01 6.84553E-01
 -1        61 0.00000E+00-2.11424E+01 6.84553E-01
 -1        62-5.71066E-01-2.11424E+01 6.84553E-01
 -1        63-1.05712E+01-2.11424E+01 6.84553E-01
 -1        64-1.11423E+01-2.11424E+01 6.84553E-01
 -1        65-2.11424E+01-2.11424E+01 6.84553E-01
 -1        66-2.17134E+01-2.11424E+01 6.84553E-01
 -1        67 0.00000E+00-2.17134E+01 6.84553E-01
 -1        68-5.71066E-01-2.17134E+01 6.84553E-01
 -1        69-1.05712E+01-2.17134E+01 6.84553E-01
 -1        70-1.11423E+01-2.17134E+01 6.84553E-01
 -1        71-2.11424E+01-2.17134E+01 6.84553E-01
 -1        72-2.17134E+01-2.17134E+01 6.84553E-01
 -3
    1PSTEP                       254          85           1          
  100CL  185 7.23781E-01          72                     0   85           1
 -4  STRESS      6    1
 -5  SXX         1    4    1    1
 -5  SYY         1    4    2    2
 -5  SZZ         1    4    3    3
 -5  SXY         1    4    1    2
 -5  SYZ         1    4    2    3
 -5  SZX         1    4    3    1
 -1         1-3.42096E+02-3.42096E+02 5.18294E-10 3.26027E-15 7.36010E-15 1.34280E-15
 -1         2-1.71048E+02-1.71048E+02 2.70555E-10-1.17667E-11-6.94446E-15-1.34006E-12
 -1         3-1.71048E+02-1.71048E+02 2.61724E-10-1.98491E-12-2.86439E-16-2.48944E-12
 -1         4-1.71048E+02-1.71048E+02 2.93287E-10-2.94590E-11 2.80492E-15-1.42174E-11
 -1         5-1.71048E+02-1.71048E+02 2.86917E-10 2.64144E-11 3.54942E-15 1.13565E-11
 -1         6-3.42096E+02-3.42096E+02 5.41897E-10 6.56268E-13 4.11476E-15 4.93785E-13
 -1         7-1.71048E+02-1.71048E+02 2.37753E-10 1.08570E-11 8.98390E-12-1.11543E-15
 -1         8-1.14032E+02-1.14032E+02 1.68788E-10-6.07542E-13-2.08474E-13 1.83978E-12
 -1         9-1.14032E+02-1.14032E+02 1.50876E-10 9.49239E-12 6.15745E-12 2.26286E-13
 -1        10-1.14032E+02-1.14032E+02 1.61954E-10-9.12252E-12 1.67259E-12 5.87613E-12
 -1        11-1.14032E+02-1.14032E+02 1.65480E-10 1.29229E-11-3.87743E-12-7.56028E-12
 -1        12-1.71048E+02-1.71048E+02 2.44462E-10-6.79608E-12 1.71139E-12-1.96382E-13
 -1        13-1.71048E+02-1.71048E+02 2.66036E-10 1.61961E-13-3.52471E-12 4.45629E-15
 -1        14-1.14032E+02-1.14032E+02 1.84196E-10-1.12438E-11 2.60651E-12-5.75277E-12
 -1        15-1.14032E+02-1.14032E+02 1.89758E-10 5.29204E-12 4.63671E-12 8.21202E-12
 -1        16-1.14032E+02-1.14032E+02 1.90572E-10-1.39149E-11 2.31220E-12-3.48398E-12
 -1        17-1.14032E+02-1.14032E+02 1.70425E-10 9.12840E-12-4.97637E-12 7.89718E-13
 -1        18-1.71048E+02-1.71048E+02 2.72185E-10-9.19231E-12-6.80811E-12 5.74374E-14
 -1        19-1.71048E+02-1.71048E+02 2.45768E-10-3.37143E-12 3.67865E-13 1.81747E-15
 -1        20-1.14032E+02-1.14032E+02 1.51237E-10-1.35993E-11 1.30627E-11 1.61000E-12
 -1        21-1.14032E+02-1.14032E+02 1.38363E-10 1.51665E-11 1.89333E-11 1.35897E-12
 -1        22-1.14032E+02-1.14032E+02 1.47690E-10-3.84428E-12 6.64359E-12 7.20087E-12
 -1        23-1.14032E+02-1.14032E+02 1.65064E-10 1.90839E-11-4.92435E-12-4.92920E-12
 -1        24-1.71048E+02-1.71048E+02 2.76818E-10 5.77920E-12-1.72105E-11 3.21297E-13
 -1        25-1.71048E+02-1.71048E+02 2.59546E-10 9.61792E-12 2.80404E-12 2.25587E-15
 -1        26-1.14032E+02-1.14032E+02 1.51930E-10 4.73768E-12-1.25621E-11 2.25335E-12
 -1        27-1.14032E+02-1.14032E+02 1.52476E-10-5.27839E-12-1.56543E-11 3.14192E-12
 -1        28-1.14032E+02-1.14032E+02 1.56305E-10-6.34619E-12-2.38178E-12 8.98665E-12
 -1        29-1.14032E+02-1.14032E+02 1.61768E-10-8.37357E-12 2.30457E-12-9.56592E-12
 -1        30-1.71048E+02-1.71048E+02 2.87332E-10-1.76909E-11 1.50086E-11 3.21014E-13
 -1        31-3.42096E+02-3.42096E+02 5.17128E-10 2.21259E-13 4.19349E-13-1.75243E-15
 -1        32-1.71048E+02-1.71048E+02 2.42248E-10-2.40077E-12 1.10812E-13 6.18594E-12
 -1        33-1.71048E+02-1.71048E+02 2.49696E-10 3.79366E-12 1.20216E-13 1.81023E-12
 -1        34-1.71048E+02-1.71048E+02 2.49529E-10 2.19828E-12-7.28504E-14 4.23810E-12
 -1        35-1.71048E+02-1.71048E+02 2.29867E-10 5.05670E-12 2.92162E-13-1.22877E-11
 -1        36-3.42096E+02-3.42096E+02 5.31370E-10 2.34476E-13 2.95476E-13-1.99161E-13
 -1        37-3.42096E+02-3.42096E+02 5.50517E-10-6.56271E-15-2.71469E-12-3.92925E-12
 -1        38-1.71048E+02-1.71048E+02 2.66991E-10-6.06547E-12 1.62229E-13-3.30536E-12
 -1        39-1.71048E+02-1.71048E+02 2.56710E-10 1.50785E-12 2.40163E-12 3.88357E-13
 -1        40-1.71048E+02-1.71048E+02 2.73925E-10 2.57359E-12-3.49544E-12-1.16280E-11
 -1        41-1.71048E+02-1.71048E+02 2.50388E-10-6.01615E-12 5.96010E-13 9.55312E-12
 -1        42-3.42096E+02-3.42096E+02 5.00787E-10 2.39514E-13 1.07591E-11-4.78958E-12
 -1        43-1.71048E+02-1.71048E+02 2.62505E-10-2.11411E-12 7.64082E-12-4.50856E-13
 -1        44-1.14032E+02-1.14032E+02 1.72172E-10-5.45087E-12-9.88962E-14 1.53995E-12
 -1        45-1.14032E+02-1.14032E+02 1.75835E-10 5.48068E-12 7.77449E-12-1.85162E-12
 -1        46-1.14032E+02-1.14032E+02 1.77545E-10 6.35951E-12-6.76973E-13 3.89415E-12
 -1        47-1.14032E+02-1.14032E+02 1.73619E-10-1.63938E-12-3.48246E-12-5.89108E-12
 -1        48-1.71048E+02-1.71048E+02 2.72347E-10 3.04011E-12 7.10447E-12 3.19823E-12
 -1        49-1.71048E+02-1.71048E+02 2.54365E-10 1.03987E-11-1.17872E-12 6.53073E-12
 -1        50-1.14032E+02-1.14032E+02 1.94664E-10 5.82262E-12-3.56106E-12-1.37895E-12
 -1        51-1.14032E+02-1.14032E+02 1.95498E-10-8.12697E-12-4.38131E-12 2.47444E-12
 -1        52-1.14032E+02-1.14032E+02 1.74713E-10-1.92160E-12-3.28227E-12-9.13616E-12
 -1        53-1.14032E+02-1.14032E+02 1.67605E-10 1.12996E-12 2.32805E-12-6.12507E-13
 -1        54-1.71048E+02-1.71048E+02 2.47868E-10-8.96134E-12 9.22401E-12-2.97637E-12
 -1        55-1.71048E+02-1.71048E+02 2.57279E-10 2.37283E-11 2.46042E-12-5.10159E-12
 -1        56-1.14032E+02-1.14032E+02 1.77160E-10 1.47090E-11 6.86266E-12-1.78732E-12
 -1        57-1.14032E+02-1.14032E+02 1.81814E-10-1.21089E-11 1.01519E-11-1.32517E-12
 -1        58-1.14032E+02-1.14032E+02 1.69740E-10-6.26495E-12 1.16061E-12 5.02681E-12
 -1        59-1.14032E+02-1.14032E+02 1.74230E-10 2.91443E-12 1.95859E-12-3.26811E-12
 -1        60-1.71048E+02-1.71048E+02 2.71220E-10-6.42727E-12-5.59336E-13 2.92900E-12
 -1        61-1.71048E+02-1.71048E+02 2.59189E-10-2.14110E-11 4.62546E-12-6.63027E-12
 -1        62-1.14032E+02-1.14032E+02 1.83472E-10-1.33684E-11-7.83093E-12-2.16742E-12
 -1        63-1.14032E+02-1.14032E+02 1.97945E-10 1.07945E-11-9.78883E-12 9.70813E-15
 -1        64-1.14032E+02-1.14032E+02 1.73197E-10 3.70967E-12 2.72745E-12 5.78781E-12
 -1        65-1.14032E+02-1.14032E+02 1.75740E-10 3.26318E-12 1.24278E-12-4.50876E-12
 -1        66-1.71048E+02-1.71048E+02 2.84886E-10-1.84585E-12 9.54813E-12 6.71221E-12
 -1        67-3.42096E+02-3.42096E+02 5.28094E-10 1.85647E-13 1.92070E-12-9.85599E-13
 -1        68-1.71048E+02-1.71048E+02 2.95698E-10 1.45129E-12 6.72834E-12 5.68116E-12
 -1        69-1.71048E+02-1.71048E+02 3.04120E-10-8.30811E-13 9.07294E-12-5.18003E-12
 -1        70-1.71048E+02-1.71048E+02 2.61532E-10-1.08640E-11 7.01459E-12-3.12510E-12
 -1        71-1.71048E+02-1.71048E+02 2.49748E-10 7.04071E-12-1.61819E-12-9.83731E-12
 -1        72-3.42096E+02-3.42096E+02 5.20764E-10-8.26137E-13-1.12379E-11 6.40762E-12
 -3
    1PSTEP                       255          85           1          
  100CL  185 7.23781E-01          72                     0   85           1
 -4  TOSTRAIN    6    1
 -5  EXX         1    4    1    1
 -5  EYY         1    4    2    2
 -5  EZZ         1    4    3    3
 -5  EXY         1    4    1    2
 -5  EYZ         1    4    2    3
 -5  EZX         1    4    3    1
 -1         1-1.14143E-03-1.14143E-03 9.78372E-04 2.02886E-20 4.55055E-20 8.28570E-21
 -1         2-5.70717E-04-5.70717E-04 4.89186E-04-7.32236E-17-4.30365E-20-8.28612E-18
 -1         3-5.70717E-04-5.70717E-04 4.89186E-04-1.23521E-17-1.77393E-21-1.53932E-17
 -1         4-5.70717E-04-5.70717E-04 4.89186E-04-1.83323E-16 1.73551E-20-8.79122E-17
 -1         5-5.70717E-04-5.70717E-04 4.89186E-04 1.64376E-16 2.19382E-20 7.02220E-17
 -1         6-1.14143E-03-1.14143E-03 9.78372E-04 4.08394E-18 2.55653E-20 3.05324E-18
 -1         7-5.70717E-04-5.70717E-04 4.89186E-04 6.75627E-17 5.55511E-17-6.89507E-21
 -1         8-3.80478E-04-3.80478E-04 3.26124E-04-3.78072E-18-1.28914E-18 1.13761E-17
 -1         9-3.80478E-04-3.80478E-04 3.26124E-04 5.90709E-17 3.80740E-17 1.39921E-18
 -1        10-3.80478E-04-3.80478E-04 3.26124E-04-5.67692E-17 1.03423E-17 3.63345E-17
 -1        11-3.80478E-04-3.80478E-04 3.26124E-04 8.04189E-17-2.39757E-17-4.67483E-17
 -1        12-5.70717E-04-5.70717E-04 4.89186E-04-4.22918E-17 1.05820E-17-1.21426E-18
 -1        13-5.70717E-04-5.70717E-04 4.89186E-04 1.00788E-18-2.17948E-17 2.75621E-20
 -1        14-3.80478E-04-3.80478E-04 3.26124E-04-6.99696E-17 1.61172E-17-3.55717E-17
 -1        15-3.80478E-04-3.80478E-04 3.26124E-04 3.29322E-17 2.86706E-17 5.07782E-17
 -1        16-3.80478E-04-3.80478E-04 3.26124E-04-8.65919E-17 1.42973E-17-2.15429E-17
 -1        17-3.80478E-04-3.80478E-04 3.26124E-04 5.68058E-17-3.07709E-17 4.88316E-18
 -1        18-5.70717E-04-5.70717E-04 4.89186E-04-5.72035E-17-4.20974E-17 3.55179E-19
 -1        19-5.70717E-04-5.70717E-04 4.89186E-04-2.09803E-17 2.27462E-18 1.12478E-20
 -1        20-3.80478E-04-3.80478E-04 3.26124E-04-8.46284E-17 8.07719E-17 9.95532E-18
 -1        21-3.80478E-04-3.80478E-04 3.26124E-04 9.43806E-17 1.17072E-16 8.40315E-18
 -1        22-3.80478E-04-3.80478E-04 3.26124E-04-2.39229E-17 4.10801E-17 4.45260E-17
 -1        23-3.80478E-04-3.80478E-04 3.26124E-04 1.18759E-16-3.04492E-17-3.04793E-17
 -1        24-5.70717E-04-5.70717E-04 4.89186E-04 3.59638E-17-1.06420E-16 1.98664E-18
 -1        25-5.70717E-04-5.70717E-04 4.89186E-04 5.98521E-17 1.73387E-17 1.39675E-20
 -1        26-3.80478E-04-3.80478E-04 3.26124E-04 2.94825E-17-7.76766E-17 1.39334E-17
 -1        27-3.80478E-04-3.80478E-04 3.26124E-04-3.28473E-17-9.67971E-17 1.94278E-17
 -1        28-3.80478E-04-3.80478E-04 3.26124E-04-3.94922E-17-1.47275E-17 5.55681E-17
 -1        29-3.80478E-04-3.80478E-04 3.26124E-04-5.21085E-17 1.42501E-17-5.91500E-17
 -1        30-5.70717E-04-5.70717E-04 4.89186E-04-1.10090E-16 9.28042E-17 1.98491E-18
 -1        31-1.14143E-03-1.14143E-03 9.78372E-04 1.37689E-18 2.59329E-18-1.08226E-20
 -1        32-5.70717E-04-5.70717E-04 4.89186E-04-1.49399E-17 6.85101E-19 3.82502E-17
 -1        33-5.70717E-04-5.70717E-04 4.89186E-04 2.36078E-17 7.43368E-19 1.11933E-17
 -1        34-5.70717E-04-5.70717E-04 4.89186E-04 1.36798E-17-4.50396E-19 2.62058E-17
 -1        35-5.70717E-04-5.70717E-04 4.89186E-04 3.14677E-17 1.80657E-18-7.59796E-17
 -1        36-1.14143E-03-1.14143E-03 9.78372E-04 1.45914E-18 1.82709E-18-1.23148E-18
 -1        37-1.14143E-03-1.14143E-03 9.78372E-04-4.08396E-20-1.68573E-17-2.43995E-17
 -1        38-5.70717E-04-5.70717E-04 4.89186E-04-3.77453E-17 1.00745E-18-2.04900E-17
 -1        39-5.70717E-04-5.70717E-04 4.89186E-04 9.38328E-18 1.49135E-17 2.47538E-18
 -1        40-5.70717E-04-5.70717E-04 4.89186E-04 1.60154E-17-2.17057E-17-7.18268E-17
 -1        41-5.70717E-04-5.70717E-04 4.89186E-04-3.74384E-17 3.70102E-18 5.90166E-17
 -1        42-1.14143E-03-1.14143E-03 9.78372E-04 1.49049E-18 6.68108E-17-2.97244E-17
 -1        43-5.70717E-04-5.70717E-04 4.89186E-04-1.31561E-17 4.72107E-17-2.79964E-18
 -1        44-3.80478E-04-3.80478E-04 3.26124E-04-3.39206E-17-6.08634E-19 9.51428E-18
 -1        45-3.80478E-04-3.80478E-04 3.26124E-04 3.41061E-17 4.81150E-17-1.15034E-17
 -1        46-3.80478E-04-3.80478E-04 3.26124E-04 3.95751E-17-4.24747E-18 2.40251E-17
 -1        47-3.80478E-04-3.80478E-04 3.26124E-04-1.02018E-17-2.15231E-17-3.63794E-17
 -1        48-5.70717E-04-5.70717E-04 4.89186E-04 1.89185E-17 4.40716E-17 1.98473E-17
 -1        49-5.70717E-04-5.70717E-04 4.89186E-04 6.47109E-17-7.23097E-18 4.05538E-17
 -1        50-3.80478E-04-3.80478E-04 3.26124E-04 3.62340E-17-2.21851E-17-8.41218E-18
 -1        51-3.80478E-04-3.80478E-04 3.26124E-04-5.05740E-17-2.73258E-17 1.51501E-17
 -1        52-3.80478E-04-3.80478E-04 3.26124E-04-1.19581E-17-2.04416E-17-5.66430E-17
 -1        53-3.80478E-04-3.80478E-04 3.26124E-04 7.03174E-18 1.45837E-17-3.83346E-18
 -1        54-5.70717E-04-5.70717E-04 4.89186E-04-5.57662E-17 5.74556E-17-1.84732E-17
 -1        55-5.70717E-04-5.70717E-04 4.89186E-04 1.47660E-16 1.52713E-17-3.16793E-17
 -1        56-3.80478E-04-3.80478E-04 3.26124E-04 9.15338E-17 4.22690E-17-1.11411E-17
 -1        57-3.80478E-04-3.80478E-04 3.26124E-04-7.53531E-17 6.25388E-17-8.25627E-18
 -1        58-3.80478E-04-3.80478E-04 3.26124E-04-3.89866E-17 7.03045E-18 3.10206E-17
 -1        59-3.80478E-04-3.80478E-04 3.26124E-04 1.81364E-17 1.22992E-17-2.01625E-17
 -1        60-5.70717E-04-5.70717E-04 4.89186E-04-3.99968E-17-3.03871E-18 1.81796E-17
 -1        61-5.70717E-04-5.70717E-04 4.89186E-04-1.33240E-16 2.86310E-17-4.11719E-17
 -1        62-3.80478E-04-3.80478E-04 3.26124E-04-8.31911E-17-4.82942E-17-1.35182E-17
 -1        63-3.80478E-04-3.80478E-04 3.26124E-04 6.71739E-17-6.03654E-17-2.33247E-20
 -1        64-3.80478E-04-3.80478E-04 3.26124E-04 2.30852E-17 1.69869E-17 3.57051E-17
 -1        65-3.80478E-04-3.80478E-04 3.26124E-04 2.03067E-17 7.65612E-18-2.77599E-17
 -1        66-5.70717E-04-5.70717E-04 4.89186E-04-1.14867E-17 5.88992E-17 4.16838E-17
 -1        67-1.14143E-03-1.14143E-03 9.78372E-04 1.15528E-18 1.19362E-17-6.12022E-18
 -1        68-5.70717E-04-5.70717E-04 4.89186E-04 9.03134E-18 4.17956E-17 3.51160E-17
 -1        69-5.70717E-04-5.70717E-04 4.89186E-04-5.17012E-18 5.63459E-17-3.22158E-17
 -1        70-5.70717E-04-5.70717E-04 4.89186E-04-6.76063E-17 4.35568E-17-1.95093E-17
 -1        71-5.70717E-04-5.70717E-04 4.89186E-04 4.38142E-17-1.00485E-17-6.07473E-17
 -1        72-1.14143E-03-1.14143E-03 9.78372E-04-5.14103E-18-6.97713E-17 3.97824E-17
 -3
    1PSTEP                       256          86           1          
  100CL  186 7.32781E-01          72                     0   86           1
 -4  DISP        4    1
 -5  D1          1    2    1    0
 -5  D2          1    2    2    0
 -5  D3          1    2    3    0
 -5  ALL         1    2    0    0    1ALL
 -1         1 0.00000E+00 0.00000E+00 0.00000E+00
 -1         2-6.61042E-01 0.00000E+00 0.00000E+00
 -1         3-1.06612E+01 0.00000E+00 0.00000E+00
 -1         4-1.13222E+01 0.00000E+00 0.00000E+00
 -1         5-2.13224E+01 0.00000E+00 0.00000E+00
 -1         6-2.19834E+01 0.00000E+00 0.00000E+00
 -1         7 0.00000E+00-6.61042E-01 0.00000E+00
 -1         8-6.61042E-01-6.61042E-01 0.00000E+00
 -1         9-1.06612E+01-6.61042E-01 0.00000E+00
 -1        10-1.13222E+01-6.61042E-01 0.00000E+00
 -1        11-2.13224E+01-6.61042E-01 0.00000E+00
 -1        12-2.19834E+01-6.61042E-01 0.00000E+00
 -1        13 0.00000E+00-1.06612E+01 0.00000E+00
 -1        14-6.61042E-01-1.06612E+01 0.00000E+00
 -1        15-1.06612E+01-1.06612E+01 0.00000E+00
 -1        16-1.13222E+01-1.06612E+01 0.00000E+00
 -1        17-2.13224E+01-1.06612E+01 0.00000E+00
 -1        18-2.19834E+01-1.06612E+01 0.00000E+00
 -1        19 0.00000E+00-1.13222E+01 0.00000E+00
 -1        20-6.61042E-01-1.13222E+01 0.00000E+00
 -1        21-1.06612E+01-1.13222E+01 0.00000E+00
 -1        22-1.13222E+01-1.13222E+01 0.00000E+00
 -1        23-2.13224E+01-1.13222E+01 0.00000E+00
 -1        24-2.19834E+01-1.13222E+01 0.00000E+00
 -1        25 0.00000E+00-2.13224E+01 0.00000E+00
 -1        26-6.61042E-01-2.13224E+01 0.00000E+00
 -1        27-1.06612E+01-2.13224E+01 0.00000E+00
 -1        28-1.13222E+01-2.13224E+01 0.00000E+00
 -1        29-2.13224E+01-2.13224E+01 0.00000E+00
 -1        30-2.19834E+01-2.13224E+01 0.00000E+00
 -1        31 0.00000E+00-2.19834E+01 0.00000E+00
 -1        32-6.61042E-01-2.19834E+01 0.00000E+00
 -1        33-1.06612E+01-2.19834E+01 0.00000E+00
 -1        34-1.13222E+01-2.19834E+01 0.00000E+00
 -1        35-2.13224E+01-2.19834E+01 0.00000E+00
 -1        36-2.19834E+01-2.19834E+01 0.00000E+00
 -1        37 0.00000E+00 0.00000E+00 7.92278E-01
 -1        38-6.61042E-01 0.00000E+00 7.92278E-01
 -1        39-1.06612E+01 0.00000E+00 7.92278E-01
 -1        40-1.13222E+01 0.00000E+00 7.92278E-01
 -1        41-2.13224E+01 0.00000E+00 7.92278E-01
 -1        42-2.19834E+01 0.00000E+00 7.92278E-01
 -1        43 0.00000E+00-6.61042E-01 7.92278E-01
 -1        44-6.61042E-01-6.61042E-01 7.92278E-01
 -1        45-1.06612E+01-6.61042E-01 7.92278E-01
 -1        46-1.13222E+01-6.61042E-01 7.92278E-01
 -1        47-2.13224E+01-6.61042E-01 7.92278E-01
 -1        48-2.19834E+01-6.61042E-01 7.92278E-01
 -1        49 0.00000E+00-1.06612E+01 7.92278E-01
 -1        50-6.61042E-01-1.06612E+01 7.92278E-01
 -1        51-1.06612E+01-1.06612E+01 7.92278E-01
 -1        52-1.13222E+01-1.06612E+01 7.92278E-01
 -1        53-2.13224E+01-1.06612E+01 7.92278E-01
 -1        54-2.19834E+01-1.06612E+01 7.92278E-01
 -1        55 0.00000E+00-1.13222E+01 7.92278E-01
 -1        56-6.61042E-01-1.13222E+01 7.92278E-01
 -1        57-1.06612E+01-1.13222E+01 7.92278E-01
 -1        58-1.13222E+01-1.13222E+01 7.92278E-01
 -1        59-2.13224E+01-1.13222E+01 7.92278E-01
 -1        60-2.19834E+01-1.13222E+01 7.92278E-01
 -1        61 0.00000E+00-2.13224E+01 7.92278E-01
 -1        62-6.61042E-01-2.13224E+01 7.92278E-01
 -1        63-1.06612E+01-2.13224E+01 7.92278E-01
 -1        64-1.13222E+01-2.13224E+01 7.92278E-01
 -1        65-2.13224E+01-2.13224E+01 7.92278E-01
 -1        66-2.19834E+01-2.13224E+01 7.92278E-01
 -1        67 0.00000E+00-2.19834E+01 7.92278E-01
 -1        68-6.61042E-01-2.19834E+01 7.92278E-01
 -1        69-1.06612E+01-2.19834E+01 7.92278E-01
 -1        70-1.13222E+01-2.19834E+01 7.92278E-01
 -1        71-2.13224E+01-2.19834E+01 7.92278E-01
 -1        72-2.19834E+01-2.19834E+01 7.92278E-01
 -3
    1PSTEP                       257          86           1          
  100CL  186 7.32781E-01          72                     0   86           1
 -4  STRESS      6    1
 -5  SXX         1    4    1    1
 -5  SYY         1    4    2    2
 -5  SZZ         1    4    3    3
 -5  SXY         1    4    1    2
 -5  SYZ         1    4    2    3
 -5  SZX         1    4    3    1
 -1         1-3.95899E+02-3.95899E+02 2.39155E-10 2.77798E-15 9.93784E-15 1.38687E-15
 -1         2-1.97950E+02-1.97950E+02 1.32937E-10-1.61415E-11-2.06689E-15-1.95955E-12
 -1         3-1.97950E+02-1.97950E+02 1.30112E-10 1.90386E-12-1.16663E-14-7.64996E-13
 -1         4-1.97950E+02-1.97950E+02 1.54171E-10-3.68050E-11 2.72708E-15-1.31996E-11
 -1         5-1.97950E+02-1.97950E+02 1.52822E-10 3.64436E-11 4.99717E-16 1.25489E-11
 -1         6-3.95899E+02-3.95899E+02 2.63420E-10 7.01814E-13 5.73933E-15-4.95766E-13
 -1         7-1.97950E+02-1.97950E+02 9.42579E-11 1.24820E-11 9.64629E-12 1.33346E-15
 -1         8-1.31966E+02-1.31966E+02 7.64237E-11-2.44063E-12-2.98649E-12 2.08189E-12
 -1         9-1.31966E+02-1.31966E+02 5.73791E-11 9.75361E-12 3.59627E-12 1.18410E-12
 -1        10-1.31966E+02-1.31966E+02 6.03160E-11-1.59514E-11 2.32076E-12 7.80820E-12
 -1        11-1.31966E+02-1.31966E+02 6.75550E-11 1.65456E-11-3.99653E-12-9.22277E-12
 -1        12-1.97950E+02-1.97950E+02 9.50816E-11-1.19588E-11 1.05617E-12-3.53492E-14
 -1        13-1.97950E+02-1.97950E+02 1.21193E-10 1.83476E-12-7.57384E-12 4.35367E-15
 -1        14-1.31966E+02-1.31966E+02 9.07225E-11-1.20808E-11 1.84922E-12-6.58861E-12
 -1        15-1.31966E+02-1.31966E+02 1.01059E-10 8.51708E-12 6.21606E-12 9.42132E-12
 -1        16-1.31966E+02-1.31966E+02 9.10025E-11-1.08104E-11 1.64446E-12-1.30256E-12
 -1        17-1.31966E+02-1.31966E+02 7.33010E-11 9.37929E-12-4.95950E-12-2.01596E-12
 -1        18-1.97950E+02-1.97950E+02 1.28718E-10-1.04520E-11-7.56639E-12-3.85255E-13
 -1        19-1.97950E+02-1.97950E+02 1.09603E-10-3.00253E-13-4.14568E-12-1.64681E-15
 -1        20-1.31966E+02-1.31966E+02 6.22272E-11-1.35041E-11 7.68395E-12 3.19344E-12
 -1        21-1.31966E+02-1.31966E+02 4.70193E-11 1.26419E-11 1.89549E-11 5.69461E-13
 -1        22-1.31966E+02-1.31966E+02 5.10259E-11-6.48961E-12 6.48431E-12 6.91026E-12
 -1        23-1.31966E+02-1.31966E+02 6.90697E-11 1.91493E-11-3.66077E-12-3.43232E-12
 -1        24-1.97950E+02-1.97950E+02 1.34416E-10 3.93579E-12-1.88037E-11 4.80601E-13
 -1        25-1.97950E+02-1.97950E+02 1.22350E-10 8.49679E-12 4.79563E-12-5.81271E-15
 -1        26-1.31966E+02-1.31966E+02 6.23846E-11 3.79737E-12-8.83633E-12 3.55099E-12
 -1        27-1.31966E+02-1.31966E+02 6.43551E-11-1.87069E-12-1.61700E-11 4.16435E-12
 -1        28-1.31966E+02-1.31966E+02 5.77073E-11-5.00194E-12-1.63167E-12 1.06072E-11
 -1        29-1.31966E+02-1.31966E+02 6.52928E-11-6.85012E-12 5.74393E-13-9.59093E-12
 -1        30-1.97950E+02-1.97950E+02 1.46618E-10-1.91972E-11 1.56189E-11 1.34601E-13
 -1        31-3.95899E+02-3.95899E+02 2.35305E-10-1.91162E-13 1.27428E-12 1.48898E-14
 -1        32-1.97950E+02-1.97950E+02 1.03149E-10-2.89632E-12 5.30724E-14 4.47925E-12
 -1        33-1.97950E+02-1.97950E+02 1.15421E-10-9.31647E-13 4.13836E-13 5.39210E-12
 -1        34-1.97950E+02-1.97950E+02 9.59322E-11-6.19976E-12 1.29989E-13 7.19769E-12
 -1        35-1.97950E+02-1.97950E+02 8.24957E-11 9.09090E-12-3.82365E-14-1.54466E-11
 -1        36-3.95899E+02-3.95899E+02 2.42451E-10 1.84991E-13-3.06555E-13-1.40250E-13
 -1        37-3.95899E+02-3.95899E+02 2.71569E-10-9.69763E-16-7.06615E-13-4.32493E-12
 -1        38-1.97950E+02-1.97950E+02 1.19360E-10-9.06911E-12 2.36009E-12-4.12270E-12
 -1        39-1.97950E+02-1.97950E+02 1.14514E-10 4.52480E-12 5.87290E-12 1.27984E-12
 -1        40-1.97950E+02-1.97950E+02 1.34667E-10-1.42292E-12-2.04997E-12-1.13637E-11
 -1        41-1.97950E+02-1.97950E+02 1.14328E-10 6.22218E-13 1.77557E-12 1.07974E-11
 -1        42-3.95899E+02-3.95899E+02 2.16155E-10-9.62314E-13 1.53860E-11-2.66590E-12
 -1        43-1.97950E+02-1.97950E+02 1.21078E-10-7.16023E-12 9.30595E-12 5.52166E-13
 -1        44-1.31966E+02-1.31966E+02 7.44475E-11-1.08192E-11-1.41492E-12 2.44911E-12
 -1        45-1.31966E+02-1.31966E+02 7.96384E-11 9.79981E-12 7.53187E-12-2.99406E-12
 -1        46-1.31966E+02-1.31966E+02 7.98727E-11 5.49900E-12 9.46858E-13 4.06708E-12
 -1        47-1.31966E+02-1.31966E+02 7.87311E-11-9.54532E-13-2.83351E-12-6.38517E-12
 -1        48-1.97950E+02-1.97950E+02 1.26855E-10-1.95499E-12 8.79814E-12 4.84192E-12
 -1        49-1.97950E+02-1.97950E+02 1.07325E-10 1.59287E-11-1.15365E-13 7.15860E-12
 -1        50-1.31966E+02-1.31966E+02 8.94084E-11 1.09004E-11-1.56748E-12-1.80576E-12
 -1        51-1.31966E+02-1.31966E+02 1.04623E-10-1.07429E-11-3.77708E-12 3.02060E-12
 -1        52-1.31966E+02-1.31966E+02 7.84465E-11-6.13530E-12-2.88694E-12-7.91596E-12
 -1        53-1.31966E+02-1.31966E+02 8.01891E-11 6.72909E-12 3.20777E-12-2.91554E-12
 -1        54-1.97950E+02-1.97950E+02 1.12153E-10-1.11741E-11 9.18064E-12-1.66027E-12
 -1        55-1.97950E+02-1.97950E+02 1.26547E-10 2.16169E-11 3.05420E-12-5.23448E-12
 -1        56-1.31966E+02-1.31966E+02 8.14539E-11 1.46925E-11 4.41337E-12-2.93137E-13
 -1        57-1.31966E+02-1.31966E+02 8.59294E-11-1.70009E-11 8.94071E-12-2.79878E-13
 -1        58-1.31966E+02-1.31966E+02 7.34198E-11-1.27544E-11 1.86556E-12 5.36289E-12
 -1        59-1.31966E+02-1.31966E+02 7.87953E-11 4.46444E-12 4.39214E-12-1.18693E-12
 -1        60-1.97950E+02-1.97950E+02 1.21811E-10-1.35737E-11-1.66506E-12 3.69554E-12
 -1        61-1.97950E+02-1.97950E+02 1.22223E-10-1.68381E-11 5.23980E-12-6.15959E-12
 -1        62-1.31966E+02-1.31966E+02 8.84166E-11-1.38781E-11-5.07239E-12-5.61460E-13
 -1        63-1.31966E+02-1.31966E+02 1.11227E-10 1.67619E-11-8.57105E-12 7.46794E-13
 -1        64-1.31966E+02-1.31966E+02 7.50695E-11 6.41753E-12 2.68010E-12 7.64251E-12
 -1        65-1.31966E+02-1.31966E+02 8.31724E-11 5.95353E-12 4.19266E-13-4.20586E-12
 -1        66-1.97950E+02-1.97950E+02 1.43547E-10 1.26184E-12 1.08322E-11 8.04309E-12
 -1        67-3.95899E+02-3.95899E+02 2.31923E-10 2.50755E-13-2.09652E-13-1.00130E-12
 -1        68-1.97950E+02-1.97950E+02 1.40337E-10-3.85373E-12 5.65041E-12 3.99181E-12
 -1        69-1.97950E+02-1.97950E+02 1.69280E-10-2.25218E-12 1.03697E-11-3.26237E-12
 -1        70-1.97950E+02-1.97950E+02 1.06415E-10-1.75495E-11 7.00911E-12-1.50554E-12
 -1        71-1.97950E+02-1.97950E+02 1.12547E-10 7.04519E-12-4.59553E-13-1.08590E-11
 -1        72-3.95899E+02-3.95899E+02 2.38918E-10-6.76585E-13-9.46640E-12 8.05964E-12
 -3
    1PSTEP                       258          86           1          
  100CL  186 7.32781E-01          72                     0   86           1
 -4  TOSTRAIN    6    1
 -5  EXX         1    4    1    1
 -5  EYY         1    4    2    2
 -5  EZZ         1    4    3    3
 -5  EXY         1    4    1    2
 -5  EYZ         1    4    2    3
 -5  EZX         1    4    3    1
 -1         1-1.32116E-03-1.32116E-03 1.13242E-03 1.73016E-20 6.15989E-20 8.57811E-21
 -1         2-6.60579E-04-6.60579E-04 5.66210E-04-1.00532E-16-1.28378E-20-1.21145E-17
 -1         3-6.60579E-04-6.60579E-04 5.66210E-04 1.18575E-17-7.25211E-20-4.72946E-18
 -1         4-6.60579E-04-6.60579E-04 5.66210E-04-2.29226E-16 1.69568E-20-8.16036E-17
 -1         5-6.60579E-04-6.60579E-04 5.66210E-04 2.26976E-16 3.12475E-21 7.75807E-17
 -1         6-1.32116E-03-1.32116E-03 1.13242E-03 4.37099E-18 3.55366E-20-3.06517E-18
 -1         7-6.60579E-04-6.60579E-04 5.66210E-04 7.77393E-17 5.96362E-17 8.26046E-21
 -1         8-4.40386E-04-4.40386E-04 3.77474E-04-1.52006E-17-1.84634E-17 1.28709E-17
 -1         9-4.40386E-04-4.40386E-04 3.77474E-04 6.07467E-17 2.22329E-17 7.32055E-18
 -1        10-4.40386E-04-4.40386E-04 3.77474E-04-9.93472E-17 1.43477E-17 4.82726E-17
 -1        11-4.40386E-04-4.40386E-04 3.77474E-04 1.03048E-16-2.47076E-17-5.70177E-17
 -1        12-6.60579E-04-6.60579E-04 5.66210E-04-7.44812E-17 6.52935E-18-2.18378E-19
 -1        13-6.60579E-04-6.60579E-04 5.66210E-04 1.14271E-17-4.68237E-17 2.69897E-20
 -1        14-4.40386E-04-4.40386E-04 3.77474E-04-7.52407E-17 1.14324E-17-4.07326E-17
 -1        15-4.40386E-04-4.40386E-04 3.77474E-04 5.30455E-17 3.84295E-17 5.82453E-17
 -1        16-4.40386E-04-4.40386E-04 3.77474E-04-6.73284E-17 1.01663E-17-8.05280E-18
 -1        17-4.40386E-04-4.40386E-04 3.77474E-04 5.84154E-17-3.06611E-17-1.24633E-17
 -1        18-6.60579E-04-6.60579E-04 5.66210E-04-6.50963E-17-4.67778E-17-2.38182E-18
 -1        19-6.60579E-04-6.60579E-04 5.66210E-04-1.87001E-18-2.56298E-17-1.03235E-20
 -1        20-4.40386E-04-4.40386E-04 3.77474E-04-8.41055E-17 4.75044E-17 1.97427E-17
 -1        21-4.40386E-04-4.40386E-04 3.77474E-04 7.87353E-17 1.17184E-16 3.52055E-18
 -1        22-4.40386E-04-4.40386E-04 3.77474E-04-4.04181E-17 4.00878E-17 4.27213E-17
 -1        23-4.40386E-04-4.40386E-04 3.77474E-04 1.19264E-16-2.26320E-17-2.12196E-17
 -1        24-6.60579E-04-6.60579E-04 5.66210E-04 2.45126E-17-1.16250E-16 2.97121E-18
 -1        25-6.60579E-04-6.60579E-04 5.66210E-04 5.29191E-17 2.96480E-17-3.60375E-20
 -1        26-4.40386E-04-4.40386E-04 3.77474E-04 2.36505E-17-5.46288E-17 2.19532E-17
 -1        27-4.40386E-04-4.40386E-04 3.77474E-04-1.16509E-17-9.99680E-17 2.57452E-17
 -1        28-4.40386E-04-4.40386E-04 3.77474E-04-3.11527E-17-1.00874E-17 6.55769E-17
 -1        29-4.40386E-04-4.40386E-04 3.77474E-04-4.26634E-17 3.55116E-18-5.92940E-17
 -1        30-6.60579E-04-6.60579E-04 5.66210E-04-1.19563E-16 9.65602E-17 8.32059E-19
 -1        31-1.32116E-03-1.32116E-03 1.13242E-03-1.19058E-18 7.87802E-18 9.23388E-20
 -1        32-6.60579E-04-6.60579E-04 5.66210E-04-1.80387E-17 3.28131E-19 2.76922E-17
 -1        33-6.60579E-04-6.60579E-04 5.66210E-04-5.80242E-18 2.55843E-18 3.33356E-17
 -1        34-6.60579E-04-6.60579E-04 5.66210E-04-3.86129E-17 8.03561E-19 4.44983E-17
 -1        35-6.60579E-04-6.60579E-04 5.66210E-04 5.66193E-17-2.36282E-19-9.54951E-17
 -1        36-1.32116E-03-1.32116E-03 1.13242E-03 1.15215E-18-1.89528E-18-8.66985E-19
 -1        37-1.32116E-03-1.32116E-03 1.13242E-03-6.03981E-21-4.38991E-18-2.68696E-17
 -1        38-6.60579E-04-6.60579E-04 5.66210E-04-5.64835E-17 1.46626E-17-2.55536E-17
 -1        39-6.60579E-04-6.60579E-04 5.66210E-04 2.81810E-17 3.64867E-17 7.97179E-18
 -1        40-6.60579E-04-6.60579E-04 5.66210E-04-8.86214E-18-1.27359E-17-7.01942E-17
 -1        41-6.60579E-04-6.60579E-04 5.66210E-04 3.87525E-18 1.10310E-17 6.67137E-17
 -1        42-1.32116E-03-1.32116E-03 1.13242E-03-5.99342E-18 9.55888E-17-1.65598E-17
 -1        43-6.60579E-04-6.60579E-04 5.66210E-04-4.45948E-17 5.75214E-17 3.43043E-18
 -1        44-4.40386E-04-4.40386E-04 3.77474E-04-6.73836E-17-8.69959E-18 1.51523E-17
 -1        45-4.40386E-04-4.40386E-04 3.77474E-04 6.10344E-17 4.66834E-17-1.86310E-17
 -1        46-4.40386E-04-4.40386E-04 3.77474E-04 3.42485E-17 5.81204E-18 2.50230E-17
 -1        47-4.40386E-04-4.40386E-04 3.77474E-04-5.94495E-18-1.74818E-17-3.93815E-17
 -1        48-6.60579E-04-6.60579E-04 5.66210E-04-1.21759E-17 5.46272E-17 3.00745E-17
 -1        49-6.60579E-04-6.60579E-04 5.66210E-04 9.92061E-17-4.87509E-19 4.44743E-17
 -1        50-4.40386E-04-4.40386E-04 3.77474E-04 6.78891E-17-9.79195E-18-1.10185E-17
 -1        51-4.40386E-04-4.40386E-04 3.77474E-04-6.69081E-17-2.36530E-17 1.84765E-17
 -1        52-4.40386E-04-4.40386E-04 3.77474E-04-3.82114E-17-1.79854E-17-4.91365E-17
 -1        53-4.40386E-04-4.40386E-04 3.77474E-04 4.19097E-17 2.00777E-17-1.80535E-17
 -1        54-6.60579E-04-6.60579E-04 5.66210E-04-6.95937E-17 5.72728E-17-1.03074E-17
 -1        55-6.60579E-04-6.60579E-04 5.66210E-04 1.34633E-16 1.91077E-17-3.25202E-17
 -1        56-4.40386E-04-4.40386E-04 3.77474E-04 9.15070E-17 2.71834E-17-1.91836E-18
 -1        57-4.40386E-04-4.40386E-04 3.77474E-04-1.05883E-16 5.49720E-17-1.76332E-18
 -1        58-4.40386E-04-4.40386E-04 3.77474E-04-7.94358E-17 1.13959E-17 3.31219E-17
 -1        59-4.40386E-04-4.40386E-04 3.77474E-04 2.78051E-17 2.73998E-17-7.26984E-18
 -1        60-6.60579E-04-6.60579E-04 5.66210E-04-8.45385E-17-9.77890E-18 2.29490E-17
 -1        61-6.60579E-04-6.60579E-04 5.66210E-04-1.04870E-16 3.23891E-17-3.82678E-17
 -1        62-4.40386E-04-4.40386E-04 3.77474E-04-8.64347E-17-3.12470E-17-3.59605E-18
 -1        63-4.40386E-04-4.40386E-04 3.77474E-04 1.04395E-16-5.27748E-17 4.51582E-18
 -1        64-4.40386E-04-4.40386E-04 3.77474E-04 3.99692E-17 1.67081E-17 4.71471E-17
 -1        65-4.40386E-04-4.40386E-04 3.77474E-04 3.70793E-17 2.57941E-18-2.58369E-17
 -1        66-6.60579E-04-6.60579E-04 5.66210E-04 7.85890E-18 6.68201E-17 4.99722E-17
 -1        67-1.32116E-03-1.32116E-03 1.13242E-03 1.56173E-18-1.30581E-18-6.22067E-18
 -1        68-6.60579E-04-6.60579E-04 5.66210E-04-2.40015E-17 3.51004E-17 2.46633E-17
 -1        69-6.60579E-04-6.60579E-04 5.66210E-04-1.40268E-17 6.44292E-17-2.04325E-17
 -1        70-6.60579E-04-6.60579E-04 5.66210E-04-1.09301E-16 4.35414E-17-9.57124E-18
 -1        71-6.60579E-04-6.60579E-04 5.66210E-04 4.38783E-17-2.85995E-18-6.70164E-17
 -1        72-1.32116E-03-1.32116E-03 1.13242E-03-4.21386E-18-5.88203E-17 5.00610E-17
 -3
    1PSTEP                       259          87           1          
  100CL  187 7.41781E-01          72                     0   87           1
 -4  DISP        4    1
 -5  D1          1    2    1    0
 -5  D2          1    2    2    0
 -5  D3          1    2    3    0
 -5  ALL         1    2    0    0    1ALL
 -1         1 0.00000E+00 0.00000E+00 0.00000E+00
 -1         2-7.51016E-01 0.00000E+00 0.00000E+00
 -1         3-1.07512E+01 0.00000E+00 0.00000E+00
 -1         4-1.15022E+01 0.00000E+00 0.00000E+00
 -1         5-2.15024E+01 0.00000E+00 0.00000E+00
 -1         6-2.22534E+01 0.00000E+00 0.00000E+00
 -1         7 0.00000E+00-7.51016E-01 0.00000E+00
 -1         8-7.51016E-01-7.51016E-01 0.00000E+00
 -1         9-1.07512E+01-7.51016E-01 0.00000E+00
 -1        10-1.15022E+01-7.51016E-01 0.00000E+00
 -1        11-2.15024E+01-7.51016E-01 0.00000E+00
 -1        12-2.22534E+01-7.51016E-01 0.00000E+00
 -1        13 0.00000E+00-1.07512E+01 0.00000E+00
 -1        14-7.51016E-01-1.07512E+01 0.00000E+00
 -1        15-1.07512E+01-1.07512E+01 0.00000E+00
 -1        16-1.15022E+01-1.07512E+01 0.00000E+00
 -1        17-2.15024E+01-1.07512E+01 0.00000E+00
 -1        18-2.22534E+01-1.07512E+01 0.00000E+00
 -1        19 0.00000E+00-1.15022E+01 0.00000E+00
 -1        20-7.51016E-01-1.15022E+01 0.00000E+00
 -1        21-1.07512E+01-1.15022E+01 0.00000E+00
 -1        22-1.15022E+01-1.15022E+01 0.00000E+00
 -1        23-2.15024E+01-1.15022E+01 0.00000E+00
 -1        24-2.22534E+01-1.15022E+01 0.00000E+00
 -1        25 0.00000E+00-2.15024E+01 0.00000E+00
 -1        26-7.51016E-01-2.15024E+01 0.00000E+00
 -1        27-1.07512E+01-2.15024E+01 0.00000E+00
 -1        28-1.15022E+01-2.15024E+01 0.00000E+00
 -1        29-2.15024E+01-2.15024E+01 0.00000E+00
 -1        30-2.22534E+01-2.15024E+01 0.00000E+00
 -1        31 0.00000E+00-2.22534E+01 0.00000E+00
 -1        32-7.51016E-01-2.22534E+01 0.00000E+00
 -1        33-1.07512E+01-2.22534E+01 0.00000E+00
 -1        34-1.15022E+01-2.22534E+01 0.00000E+00
 -1        35-2.15024E+01-2.22534E+01 0.00000E+00
 -1        36-2.22534E+01-2.22534E+01 0.00000E+00
 -1        37 0.00000E+00 0.00000E+00 8.99964E-01
 -1        38-7.51016E-01 0.00000E+00 8.99964E-01
 -1        39-1.07512E+01 0.00000E+00 8.99964E-01
 -1        40-1.15022E+01 0.00000E+00 8.99964E-01
 -1        41-2.15024E+01 0.00000E+00 8.99964E-01
 -1        42-2.22534E+01 0.00000E+00 8.99964E-01
 -1        43 0.00000E+00-7.51016E-01 8.99964E-01
 -1        44-7.51016E-01-7.51016E-01 8.99964E-01
 -1        45-1.07512E+01-7.51016E-01 8.99964E-01
 -1        46-1.15022E+01-7.51016E-01 8.99964E-01
 -1        47-2.15024E+01-7.51016E-01 8.99964E-01
 -1        48-2.22534E+01-7.51016E-01 8.99964E-01
 -1        49 0.00000E+00-1.07512E+01 8.99964E-01
 -1        50-7.51016E-01-1.07512E+01 8.99964E-01
 -1        51-1.07512E+01-1.07512E+01 8.99964E-01
 -1        52-1.15022E+01-1.07512E+01 8.99964E-01
 -1        53-2.15024E+01-1.07512E+01 8.99964E-01
 -1        54-2.22534E+01-1.07512E+01 8.99964E-01
 -1        55 0.00000E+00-1.15022E+01 8.99964E-01
 -1        56-7.51016E-01-1.15022E+01 8.99964E-01
 -1        57-1.07512E+01-1.15022E+01 8.99964E-01
 -1        58-1.15022E+01-1.15022E+01 8.99964E-01
 -1        59-2.15024E+01-1.15022E+01 8.99964E-01
 -1        60-2.22534E+01-1.15022E+01 8.99964E-01
 -1        61 0.00000E+00-2.15024E+01 8.99964E-01
 -1        62-7.51016E-01-2.15024E+01 8.99964E-01
 -1        63-1.07512E+01-2.15024E+01 8.99964E-01
 -1        64-1.15022E+01-2.15024E+01 8.99964E-01
 -1        65-2.15024E+01-2.15024E+01 8.99964E-01
 -1        66-2.22534E+01-2.15024E+01 8.99964E-01
 -1        67 0.00000E+00-2.22534E+01 8.99964E-01
 -1        68-7.51016E-01-2.22534E+01 8.99964E-01
 -1        69-1.07512E+01-2.22534E+01 8.99964E-01
 -1        70-1.15022E+01-2.22534E+01 8.99964E-01
 -1        71-2.15024E+01-2.22534E+01 8.99964E-01
 -1        72-2.22534E+01-2.22534E+01 8.99964E-01
 -3
    1PSTEP                       260          87           1          
  100CL  187 7.41781E-01          72                     0   87           1
 -4  STRESS      6    1
 -5  SXX         1    4    1    1
 -5  SYY         1    4    2    2
 -5  SZZ         1    4    3    3
 -5  SXY         1    4    1    2
 -5  SYZ         1    4    2    3
 -5  SZX         1    4    3    1
 -1         1-4.49675E+02-4.49675E+02 4.16353E-10-7.17888E-15-2.12665E-15-1.03613E-14
 -1         2-2.24837E+02-2.24837E+02 2.23995E-10-1.70938E-11 5.26957E-15-1.71101E-12
 -1         3-2.24837E+02-2.24837E+02 2.21916E-10 5.35842E-12-2.95241E-15 2.45611E-13
 -1         4-2.24837E+02-2.24837E+02 2.34093E-10-2.97323E-11 2.12856E-15-8.22209E-12
 -1         5-2.24837E+02-2.24837E+02 2.39703E-10 3.36713E-11-2.72347E-15 9.57657E-12
 -1         6-4.49675E+02-4.49675E+02 4.32284E-10 5.14336E-13 1.51221E-15-3.77668E-14
 -1         7-2.24837E+02-2.24837E+02 1.81358E-10 1.43630E-11 1.02336E-11 1.37904E-15
 -1         8-1.49892E+02-1.49892E+02 1.38665E-10-1.81972E-12-3.88089E-12 1.30087E-13
 -1         9-1.49892E+02-1.49892E+02 1.22494E-10 8.04645E-12 1.97815E-12 2.46342E-12
 -1        10-1.49892E+02-1.49892E+02 1.19371E-10-1.53609E-11 3.41344E-12 5.56649E-12
 -1        11-1.49892E+02-1.49892E+02 1.29859E-10 1.18607E-11-3.61449E-12-6.36611E-12
 -1        12-2.24837E+02-2.24837E+02 1.78647E-10-1.55850E-11 4.36296E-12 1.58330E-15
 -1        13-2.24837E+02-2.24837E+02 2.08728E-10-2.31465E-12-8.24899E-12-1.72137E-15
 -1        14-1.49892E+02-1.49892E+02 1.46722E-10-1.24423E-11 3.87938E-12-3.72334E-12
 -1        15-1.49892E+02-1.49892E+02 1.59132E-10 1.01192E-11 7.20006E-12 6.66563E-12
 -1        16-1.49892E+02-1.49892E+02 1.47282E-10-9.63427E-12 2.99294E-13-1.76260E-12
 -1        17-1.49892E+02-1.49892E+02 1.32939E-10 1.23178E-11-3.90660E-12-2.27765E-12
 -1        18-2.24837E+02-2.24837E+02 2.10041E-10-5.76716E-12-1.09075E-11 2.97081E-13
 -1        19-2.24837E+02-2.24837E+02 1.99035E-10-5.85362E-12-1.95335E-12 3.64085E-15
 -1        20-1.49892E+02-1.49892E+02 1.21728E-10-1.48016E-11 6.05981E-12 3.05857E-12
 -1        21-1.49892E+02-1.49892E+02 1.08820E-10 1.11863E-11 1.57297E-11 6.60961E-13
 -1        22-1.49892E+02-1.49892E+02 1.06222E-10-8.55615E-12 6.77114E-12 8.15964E-12
 -1        23-1.49892E+02-1.49892E+02 1.27117E-10 1.83139E-11-3.20527E-12-5.06445E-12
 -1        24-2.24837E+02-2.24837E+02 2.17959E-10 2.84826E-12-1.77853E-11-3.02579E-14
 -1        25-2.24837E+02-2.24837E+02 2.11552E-10 1.22158E-11 3.12636E-12-1.61762E-15
 -1        26-1.49892E+02-1.49892E+02 1.19211E-10 7.02182E-12-5.70390E-12 5.73159E-12
 -1        27-1.49892E+02-1.49892E+02 1.26189E-10-2.54575E-12-1.03421E-11 3.43776E-12
 -1        28-1.49892E+02-1.49892E+02 1.10933E-10-4.08169E-12-3.27929E-12 1.21772E-11
 -1        29-1.49892E+02-1.49892E+02 1.20469E-10-5.54295E-12 2.08746E-13-1.09583E-11
 -1        30-2.24837E+02-2.24837E+02 2.30201E-10-1.53322E-11 1.63291E-11 1.18493E-13
 -1        31-4.49675E+02-4.49675E+02 4.16385E-10 2.10692E-13 6.25982E-13-3.56428E-15
 -1        32-2.24837E+02-2.24837E+02 1.86289E-10-1.57775E-12-3.24711E-13 7.24896E-12
 -1        33-2.24837E+02-2.24837E+02 2.05313E-10-3.06412E-12-6.90336E-13 6.73017E-12
 -1        34-2.24837E+02-2.24837E+02 1.74636E-10-5.20917E-12-3.28085E-13 1.69359E-11
 -1        35-2.24837E+02-2.24837E+02 1.64256E-10 7.83916E-12 2.66178E-13-2.20643E-11
 -1        36-4.49675E+02-4.49675E+02 4.13572E-10 4.63801E-14-1.23275E-12-9.16232E-13
 -1        37-4.49675E+02-4.49675E+02 4.52135E-10 1.18980E-14-6.89764E-13-4.71939E-12
 -1        38-2.24837E+02-2.24837E+02 2.08179E-10-1.44587E-11 3.95458E-12-4.06072E-12
 -1        39-2.24837E+02-2.24837E+02 2.10080E-10 9.96922E-12 6.21878E-12 1.05940E-12
 -1        40-2.24837E+02-2.24837E+02 2.26976E-10-7.08842E-12-6.18403E-13-7.25059E-12
 -1        41-2.24837E+02-2.24837E+02 2.08236E-10 7.03996E-12 2.67002E-12 1.01936E-11
 -1        42-4.49675E+02-4.49675E+02 4.10391E-10 3.18911E-15 1.11864E-11 3.45329E-13
 -1        43-2.24837E+02-2.24837E+02 2.03305E-10-7.93119E-12 9.88977E-12 1.93989E-12
 -1        44-1.49892E+02-1.49892E+02 1.30726E-10-1.49247E-11-1.24801E-12 1.41046E-12
 -1        45-1.49892E+02-1.49892E+02 1.33106E-10 1.30888E-11 6.12338E-12-1.40792E-12
 -1        46-1.49892E+02-1.49892E+02 1.32832E-10 1.80876E-12 3.00941E-12 1.17843E-12
 -1        47-1.49892E+02-1.49892E+02 1.35805E-10 3.18460E-12-1.83026E-12-4.32281E-12
 -1        48-2.24837E+02-2.24837E+02 2.08235E-10-2.40381E-12 9.94201E-12 2.91406E-12
 -1        49-2.24837E+02-2.24837E+02 2.09314E-10 1.72456E-11-2.21935E-12 6.82616E-12
 -1        50-1.49892E+02-1.49892E+02 1.43880E-10 1.00121E-11 6.83983E-13 8.28525E-13
 -1        51-1.49892E+02-1.49892E+02 1.59682E-10-8.04978E-12-7.27444E-13 1.21544E-12
 -1        52-1.49892E+02-1.49892E+02 1.43955E-10-6.32612E-12-4.08636E-12-6.96073E-12
 -1        53-1.49892E+02-1.49892E+02 1.39703E-10 4.70644E-12 3.13813E-12-2.89722E-12
 -1        54-2.24837E+02-2.24837E+02 2.02244E-10-1.19358E-11 7.02702E-12-1.21917E-12
 -1        55-2.24837E+02-2.24837E+02 2.21146E-10 9.95529E-12 3.82285E-12-4.25996E-12
 -1        56-1.49892E+02-1.49892E+02 1.33137E-10 5.15189E-12 2.83196E-12 2.18957E-13
 -1        57-1.49892E+02-1.49892E+02 1.41514E-10-9.10785E-12 7.87342E-12-1.07203E-12
 -1        58-1.49892E+02-1.49892E+02 1.35830E-10-7.34309E-12 2.45106E-12 6.31470E-12
 -1        59-1.49892E+02-1.49892E+02 1.38874E-10 2.58262E-12 4.26133E-12-9.40695E-13
 -1        60-2.24837E+02-2.24837E+02 2.17059E-10-1.56807E-11-4.72055E-13 5.11347E-12
 -1        61-2.24837E+02-2.24837E+02 2.21316E-10-4.83030E-12 3.28957E-12-5.51498E-12
 -1        62-1.49892E+02-1.49892E+02 1.43788E-10-5.58946E-12-3.26189E-12 2.05147E-12
 -1        63-1.49892E+02-1.49892E+02 1.66720E-10 9.16642E-12-5.83998E-12-2.75727E-12
 -1        64-1.49892E+02-1.49892E+02 1.36051E-10 4.61026E-12-6.04011E-14 6.34961E-12
 -1        65-1.49892E+02-1.49892E+02 1.42785E-10 4.25693E-12-1.05276E-12-4.08155E-12
 -1        66-2.24837E+02-2.24837E+02 2.32902E-10 5.73347E-12 1.11863E-11 1.03874E-11
 -1        67-4.49675E+02-4.49675E+02 4.31545E-10-1.19369E-13-2.42602E-14-2.71309E-12
 -1        68-2.24837E+02-2.24837E+02 2.18745E-10-3.61357E-12 3.66901E-12 5.90019E-12
 -1        69-2.24837E+02-2.24837E+02 2.59345E-10-1.72313E-12 8.78233E-12-5.71308E-12
 -1        70-2.24837E+02-2.24837E+02 2.05549E-10-8.53388E-12 4.29623E-12 3.67877E-12
 -1        71-2.24837E+02-2.24837E+02 2.07632E-10-2.46343E-13-1.97575E-12-1.46470E-11
 -1        72-4.49675E+02-4.49675E+02 4.39075E-10 2.16723E-13-9.90288E-12 1.50090E-11
 -3
    1PSTEP                       261          87           1          
  100CL  187 7.41781E-01          72                     0   87           1
 -4  TOSTRAIN    6    1
 -5  EXX         1    4    1    1
 -5  EYY         1    4    2    2
 -5  EZZ         1    4    3    3
 -5  EXY         1    4    1    2
 -5  EYZ         1    4    2    3
 -5  EZX         1    4    3    1
 -1         1-1.50084E-03-1.50084E-03 1.28644E-03-4.47480E-20-1.31648E-20-6.43073E-20
 -1         2-7.50422E-04-7.50422E-04 6.43219E-04-1.06551E-16 3.27681E-20-1.05762E-17
 -1         3-7.50422E-04-7.50422E-04 6.43219E-04 3.34006E-17-1.84032E-20 1.51810E-18
 -1         4-7.50422E-04-7.50422E-04 6.43219E-04-1.85330E-16 1.32637E-20-5.08222E-17
 -1         5-7.50422E-04-7.50422E-04 6.43219E-04 2.09883E-16-1.68714E-20 5.91945E-17
 -1         6-1.50084E-03-1.50084E-03 1.28644E-03 3.20600E-18 9.28485E-21-2.33436E-19
 -1         7-7.50422E-04-7.50422E-04 6.43219E-04 8.95288E-17 6.32556E-17 8.60182E-21
 -1         8-5.00281E-04-5.00281E-04 4.28812E-04-1.13428E-17-2.39883E-17 8.04144E-19
 -1         9-5.00281E-04-5.00281E-04 4.28812E-04 5.01558E-17 1.22272E-17 1.52269E-17
 -1        10-5.00281E-04-5.00281E-04 4.28812E-04-9.57490E-17 2.10990E-17 3.44075E-17
 -1        11-5.00281E-04-5.00281E-04 4.28812E-04 7.39309E-17-2.23419E-17-3.93501E-17
 -1        12-7.50422E-04-7.50422E-04 6.43219E-04-9.71459E-17 2.69684E-17 9.75508E-21
 -1        13-7.50422E-04-7.50422E-04 6.43219E-04-1.44279E-17-5.09885E-17-1.07701E-20
 -1        14-5.00281E-04-5.00281E-04 4.28812E-04-7.75563E-17 2.39792E-17-2.30147E-17
 -1        15-5.00281E-04-5.00281E-04 4.28812E-04 6.30757E-17 4.45049E-17 4.12014E-17
 -1        16-5.00281E-04-5.00281E-04 4.28812E-04-6.00532E-17 1.85003E-18-1.08950E-17
 -1        17-5.00281E-04-5.00281E-04 4.28812E-04 7.67804E-17-2.41471E-17-1.40785E-17
 -1        18-7.50422E-04-7.50422E-04 6.43219E-04-3.59483E-17-6.74215E-17 1.83635E-18
 -1        19-7.50422E-04-7.50422E-04 6.43219E-04-3.64873E-17-1.20740E-17 2.25931E-20
 -1        20-5.00281E-04-5.00281E-04 4.28812E-04-9.22626E-17 3.74568E-17 1.89056E-17
 -1        21-5.00281E-04-5.00281E-04 4.28812E-04 6.97273E-17 9.72279E-17 4.08558E-18
 -1        22-5.00281E-04-5.00281E-04 4.28812E-04-5.33330E-17 4.18536E-17 5.04363E-17
 -1        23-5.00281E-04-5.00281E-04 4.28812E-04 1.14156E-16-1.98121E-17-3.13043E-17
 -1        24-7.50422E-04-7.50422E-04 6.43219E-04 1.77540E-17-1.09934E-16-1.87029E-19
 -1        25-7.50422E-04-7.50422E-04 6.43219E-04 7.61448E-17 1.93245E-17-1.00697E-20
 -1        26-5.00281E-04-5.00281E-04 4.28812E-04 4.37690E-17-3.52568E-17 3.54279E-17
 -1        27-5.00281E-04-5.00281E-04 4.28812E-04-1.58684E-17-6.39265E-17 2.12495E-17
 -1        28-5.00281E-04-5.00281E-04 4.28812E-04-2.54424E-17-2.02700E-17 7.52695E-17
 -1        29-5.00281E-04-5.00281E-04 4.28812E-04-3.45508E-17 1.29041E-18-6.77350E-17
 -1        30-7.50422E-04-7.50422E-04 6.43219E-04-9.55699E-17 1.00933E-16 7.32454E-19
 -1        31-1.50084E-03-1.50084E-03 1.28644E-03 1.31330E-18 3.86924E-18-2.23793E-20
 -1        32-7.50422E-04-7.50422E-04 6.43219E-04-9.83457E-18-2.00709E-18 4.48069E-17
 -1        33-7.50422E-04-7.50422E-04 6.43219E-04-1.90995E-17-4.26714E-18 4.16003E-17
 -1        34-7.50422E-04-7.50422E-04 6.43219E-04-3.24703E-17-2.02808E-18 1.04684E-16
 -1        35-7.50422E-04-7.50422E-04 6.43219E-04 4.88638E-17 1.64548E-18-1.36384E-16
 -1        36-1.50084E-03-1.50084E-03 1.28644E-03 2.89100E-19-7.62003E-18-5.66359E-18
 -1        37-1.50084E-03-1.50084E-03 1.28644E-03 7.41636E-20-4.28734E-18-2.93343E-17
 -1        38-7.50422E-04-7.50422E-04 6.43219E-04-9.01255E-17 2.45806E-17-2.51815E-17
 -1        39-7.50422E-04-7.50422E-04 6.43219E-04 6.21410E-17 3.86543E-17 6.57753E-18
 -1        40-7.50422E-04-7.50422E-04 6.43219E-04-4.41842E-17-3.84393E-18-4.47880E-17
 -1        41-7.50422E-04-7.50422E-04 6.43219E-04 4.38821E-17 1.65962E-17 6.30152E-17
 -1        42-1.50084E-03-1.50084E-03 1.28644E-03 1.98787E-20 6.95319E-17 2.14807E-18
 -1        43-7.50422E-04-7.50422E-04 6.43219E-04-4.94374E-17 6.11185E-17 1.20577E-17
 -1        44-5.00281E-04-5.00281E-04 4.28812E-04-9.30297E-17-7.62307E-18 8.76296E-18
 -1        45-5.00281E-04-5.00281E-04 4.28812E-04 8.15863E-17 3.79928E-17-8.84016E-18
 -1        46-5.00281E-04-5.00281E-04 4.28812E-04 1.12745E-17 1.85879E-17 7.14657E-18
 -1        47-5.00281E-04-5.00281E-04 4.28812E-04 1.98505E-17-1.12516E-17-2.66481E-17
 -1        48-7.50422E-04-7.50422E-04 6.43219E-04-1.49837E-17 6.16462E-17 1.81202E-17
 -1        49-7.50422E-04-7.50422E-04 6.43219E-04 1.07497E-16-1.35095E-17 4.24296E-17
 -1        50-5.00281E-04-5.00281E-04 4.28812E-04 6.24084E-17 4.11168E-18 5.27850E-18
 -1        51-5.00281E-04-5.00281E-04 4.28812E-04-5.01766E-17-4.77236E-18 7.32534E-18
 -1        52-5.00281E-04-5.00281E-04 4.28812E-04-3.94325E-17-2.54072E-17-4.32130E-17
 -1        53-5.00281E-04-5.00281E-04 4.28812E-04 2.93366E-17 1.96512E-17-1.79360E-17
 -1        54-7.50422E-04-7.50422E-04 6.43219E-04-7.43996E-17 4.40457E-17-7.57757E-18
 -1        55-7.50422E-04-7.50422E-04 6.43219E-04 6.20542E-17 2.38385E-17-2.64787E-17
 -1        56-5.00281E-04-5.00281E-04 4.28812E-04 3.21132E-17 1.73887E-17 1.25531E-18
 -1        57-5.00281E-04-5.00281E-04 4.28812E-04-5.67718E-17 4.83911E-17-6.68680E-18
 -1        58-5.00281E-04-5.00281E-04 4.28812E-04-4.57716E-17 1.50017E-17 3.89719E-17
 -1        59-5.00281E-04-5.00281E-04 4.28812E-04 1.60982E-17 2.65940E-17-5.69038E-18
 -1        60-7.50422E-04-7.50422E-04 6.43219E-04-9.77425E-17-2.30796E-18 3.17936E-17
 -1        61-7.50422E-04-7.50422E-04 6.43219E-04-3.01087E-17 2.03257E-17-3.42798E-17
 -1        62-5.00281E-04-5.00281E-04 4.28812E-04-3.48407E-17-2.00719E-17 1.25534E-17
 -1        63-5.00281E-04-5.00281E-04 4.28812E-04 5.71370E-17-3.59205E-17-1.72594E-17
 -1        64-5.00281E-04-5.00281E-04 4.28812E-04 2.87371E-17-2.69045E-19 3.90319E-17
 -1        65-5.00281E-04-5.00281E-04 4.28812E-04 2.65347E-17-6.55348E-18-2.49856E-17
 -1        66-7.50422E-04-7.50422E-04 6.43219E-04 3.57384E-17 6.89685E-17 6.45711E-17
 -1        67-1.50084E-03-1.50084E-03 1.28644E-03-7.44059E-19-1.65366E-19-1.68638E-17
 -1        68-7.50422E-04-7.50422E-04 6.43219E-04-2.25244E-17 2.28144E-17 3.64233E-17
 -1        69-7.50422E-04-7.50422E-04 6.43219E-04-1.07408E-17 5.45514E-17-3.57478E-17
 -1        70-7.50422E-04-7.50422E-04 6.43219E-04-5.31941E-17 2.67120E-17 2.23049E-17
 -1        71-7.50422E-04-7.50422E-04 6.43219E-04-1.53553E-18-1.22819E-17-9.02781E-17
 -1        72-1.50084E-03-1.50084E-03 1.28644E-03 1.35090E-18-6.15630E-17 9.32894E-17
 -3
    1PSTEP                       262          88           1          
  100CL  188 7.50781E-01          72                     0   88           1
 -4  DISP        4    1
 -5  D1          1    2    1    0
 -5  D2          1    2    2    0
 -5  D3          1    2    3    0
 -5  ALL         1    2    0    0    1ALL
 -1         1 0.00000E+00 0.00000E+00 0.00000E+00
 -1         2-8.40987E-01 0.00000E+00 0.00000E+00
 -1         3-1.08412E+01 0.00000E+00 0.00000E+00
 -1         4-1.16822E+01 0.00000E+00 0.00000E+00
 -1         5-2.16825E+01 0.00000E+00 0.00000E+00
 -1         6-2.25234E+01 0.00000E+00 0.00000E+00
 -1         7 0.00000E+00-8.40987E-01 0.00000E+00
 -1         8-8.40987E-01-8.40987E-01 0.00000E+00
 -1         9-1.08412E+01-8.40987E-01 0.00000E+00
 -1        10-1.16822E+01-8.40987E-01 0.00000E+00
 -1        11-2.16825E+01-8.40987E-01 0.00000E+00
 -1        12-2.25234E+01-8.40987E-01 0.00000E+00
 -1        13 0.00000E+00-1.08412E+01 0.00000E+00
 -1        14-8.40987E-01-1.08412E+01 0.00000E+00
 -1        15-1.08412E+01-1.08412E+01 0.00000E+00
 -1        16-1.16822E+01-1.08412E+01 0.00000E+00
 -1        17-2.16825E+01-1.08412E+01 0.00000E+00
 -1        18-2.25234E+01-1.08412E+01 0.00000E+00
 -1        19 0.00000E+00-1.16822E+01 0.00000E+00
 -1        20-8.40987E-01-1.16822E+01 0.00000E+00
 -1        21-1.08412E+01-1.16822E+01 0.00000E+00
 -1        22-1.16822E+01-1.16822E+01 0.00000E+00
 -1        23-2.16825E+01-1.16822E+01 0.00000E+00
 -1        24-2.25234E+01-1.16822E+01 0.00000E+00
 -1        25 0.00000E+00-2.16825E+01 0.00000E+00
 -1        26-8.40987E-01-2.16825E+01 0.00000E+00
 -1        27-1.08412E+01-2.16825E+01 0.00000E+00
 -1        28-1.16822E+01-2.16825E+01 0.00000E+00
 -1        29-2.16825E+01-2.16825E+01 0.00000E+00
 -1        30-2.25234E+01-2.16825E+01 0.00000E+00
 -1        31 0.00000E+00-2.25234E+01 0.00000E+00
 -1        32-8.40987E-01-2.25234E+01 0.00000E+00
 -1        33-1.08412E+01-2.25234E+01 0.00000E+00
 -1        34-1.16822E+01-2.25234E+01 0.00000E+00
 -1        35-2.16825E+01-2.25234E+01 0.00000E+00
 -1        36-2.25234E+01-2.25234E+01 0.00000E+00
 -1        37 0.00000E+00 0.00000E+00 1.00761E+00
 -1        38-8.40987E-01 0.00000E+00 1.00761E+00
 -1        39-1.08412E+01 0.00000E+00 1.00761E+00
 -1        40-1.16822E+01 0.00000E+00 1.00761E+00
 -1        41-2.16825E+01 0.00000E+00 1.00761E+00
 -1        42-2.25234E+01 0.00000E+00 1.00761E+00
 -1        43 0.00000E+00-8.40987E-01 1.00761E+00
 -1        44-8.40987E-01-8.40987E-01 1.00761E+00
 -1        45-1.08412E+01-8.40987E-01 1.00761E+00
 -1        46-1.16822E+01-8.40987E-01 1.00761E+00
 -1        47-2.16825E+01-8.40987E-01 1.00761E+00
 -1        48-2.25234E+01-8.40987E-01 1.00761E+00
 -1        49 0.00000E+00-1.08412E+01 1.00761E+00
 -1        50-8.40987E-01-1.08412E+01 1.00761E+00
 -1        51-1.08412E+01-1.08412E+01 1.00761E+00
 -1        52-1.16822E+01-1.08412E+01 1.00761E+00
 -1        53-2.16825E+01-1.08412E+01 1.00761E+00
 -1        54-2.25234E+01-1.08412E+01 1.00761E+00
 -1        55 0.00000E+00-1.16822E+01 1.00761E+00
 -1        56-8.40987E-01-1.16822E+01 1.00761E+00
 -1        57-1.08412E+01-1.16822E+01 1.00761E+00
 -1        58-1.16822E+01-1.16822E+01 1.00761E+00
 -1        59-2.16825E+01-1.16822E+01 1.00761E+00
 -1        60-2.25234E+01-1.16822E+01 1.00761E+00
 -1        61 0.00000E+00-2.16825E+01 1.00761E+00
 -1        62-8.40987E-01-2.16825E+01 1.00761E+00
 -1        63-1.08412E+01-2.16825E+01 1.00761E+00
 -1        64-1.16822E+01-2.16825E+01 1.00761E+00
 -1        65-2.16825E+01-2.16825E+01 1.00761E+00
 -1        66-2.25234E+01-2.16825E+01 1.00761E+00
 -1        67 0.00000E+00-2.25234E+01 1.00761E+00
 -1        68-8.40987E-01-2.25234E+01 1.00761E+00
 -1        69-1.08412E+01-2.25234E+01 1.00761E+00
 -1        70-1.16822E+01-2.25234E+01 1.00761E+00
 -1        71-2.16825E+01-2.25234E+01 1.00761E+00
 -1        72-2.25234E+01-2.25234E+01 1.00761E+00
 -3
    1PSTEP                       263          88           1          
  100CL  188 7.50781E-01          72                     0   88           1
 -4  STRESS      6    1
 -5  SXX         1    4    1    1
 -5  SYY         1    4    2    2
 -5  SZZ         1    4    3    3
 -5  SXY         1    4    1    2
 -5  SYZ         1    4    2    3
 -5  SZX         1    4    3    1
 -1         1-5.03423E+02-5.03423E+02 2.67569E-10 1.39371E-14-4.32459E-15-4.99388E-15
 -1         2-2.51711E+02-2.51711E+02 1.48096E-10-1.49580E-11-4.47993E-16-2.13567E-12
 -1         3-2.51711E+02-2.51711E+02 1.45537E-10 5.37778E-12-6.90697E-15 1.78748E-12
 -1         4-2.51711E+02-2.51711E+02 1.52397E-10-2.18849E-11 1.02129E-14-5.82330E-12
 -1         5-2.51711E+02-2.51711E+02 1.58998E-10 2.58720E-11 5.13283E-15 9.89810E-12
 -1         6-5.03423E+02-5.03423E+02 2.74595E-10-8.48436E-14-1.54136E-14-1.38995E-13
 -1         7-2.51711E+02-2.51711E+02 1.10420E-10 1.14425E-11 7.99337E-12-2.10817E-15
 -1         8-1.67808E+02-1.67808E+02 8.83313E-11-2.34197E-12-1.43856E-12-1.54090E-12
 -1         9-1.67808E+02-1.67808E+02 7.97807E-11 8.17928E-12 9.55837E-13 4.30447E-12
 -1        10-1.67808E+02-1.67808E+02 7.35020E-11-9.90192E-12 1.35361E-12 6.66654E-12
 -1        11-1.67808E+02-1.67808E+02 7.90925E-11 7.85000E-12-5.25100E-13-5.78403E-12
 -1        12-2.51711E+02-2.51711E+02 1.05335E-10-1.41013E-11 5.64825E-12-2.22721E-13
 -1        13-2.51711E+02-2.51711E+02 1.33316E-10-2.71741E-12-7.34525E-12 8.33955E-16
 -1        14-1.67808E+02-1.67808E+02 9.20749E-11-8.80446E-12 2.07118E-12-2.95819E-12
 -1        15-1.67808E+02-1.67808E+02 1.08372E-10 6.96743E-12 6.67995E-12 6.32985E-12
 -1        16-1.67808E+02-1.67808E+02 9.59387E-11-9.39735E-12 2.74379E-12 2.32158E-12
 -1        17-1.67808E+02-1.67808E+02 7.89496E-11 1.05301E-11-3.15662E-12-4.42642E-12
 -1        18-2.51711E+02-2.51711E+02 1.33918E-10-1.46829E-12-1.14620E-11 3.35657E-13
 -1        19-2.51711E+02-2.51711E+02 1.29732E-10-1.05764E-11-2.69000E-12 3.55834E-15
 -1        20-1.67808E+02-1.67808E+02 7.57742E-11-1.40438E-11 6.27891E-12-2.16104E-13
 -1        21-1.67808E+02-1.67808E+02 6.55316E-11 7.80635E-12 1.21577E-11 1.88520E-12
 -1        22-1.67808E+02-1.67808E+02 6.17714E-11-8.57198E-12 8.46780E-12 3.59959E-12
 -1        23-1.67808E+02-1.67808E+02 7.48328E-11 2.06691E-11 4.45599E-12 1.71323E-12
 -1        24-2.51711E+02-2.51711E+02 1.45532E-10 1.33619E-11-1.85452E-11-5.24454E-13
 -1        25-2.51711E+02-2.51711E+02 1.39343E-10 1.46590E-11 4.38044E-12 1.22757E-15
 -1        26-1.67808E+02-1.67808E+02 6.89698E-11 7.64089E-12-5.56135E-12 5.63580E-12
 -1        27-1.67808E+02-1.67808E+02 7.94311E-11-1.49199E-12-7.17488E-12 4.86746E-12
 -1        28-1.67808E+02-1.67808E+02 5.62486E-11 1.00606E-12-2.07622E-12 1.62469E-11
 -1        29-1.67808E+02-1.67808E+02 5.93108E-11-1.20472E-11-4.99421E-12-1.27359E-11
 -1        30-2.51711E+02-2.51711E+02 1.52124E-10-2.07472E-11 1.65139E-11-7.56270E-14
 -1        31-5.03423E+02-5.03423E+02 2.67481E-10 3.09201E-13 9.93644E-14-5.40372E-15
 -1        32-2.51711E+02-2.51711E+02 1.07201E-10-3.03349E-12-1.20361E-13 9.33025E-12
 -1        33-2.51711E+02-2.51711E+02 1.34700E-10-2.19999E-12-9.03972E-13 6.17518E-12
 -1        34-2.51711E+02-2.51711E+02 9.93347E-11 1.70580E-12 5.87083E-13 1.84326E-11
 -1        35-2.51711E+02-2.51711E+02 8.68650E-11 3.06542E-12 3.04076E-13-2.22011E-11
 -1        36-5.03423E+02-5.03423E+02 2.70155E-10-8.93067E-13-5.65652E-13-1.35427E-13
 -1        37-5.03423E+02-5.03423E+02 2.92249E-10-1.64897E-14-5.95888E-13-2.50186E-12
 -1        38-2.51711E+02-2.51711E+02 1.38986E-10-1.51621E-11 2.87906E-12-3.38530E-12
 -1        39-2.51711E+02-2.51711E+02 1.33056E-10 1.12239E-11 5.98086E-12 2.81831E-13
 -1        40-2.51711E+02-2.51711E+02 1.41287E-10 2.63519E-13-5.72250E-13-7.03799E-12
 -1        41-2.51711E+02-2.51711E+02 1.37289E-10 1.15712E-12-4.60220E-13 9.19290E-12
 -1        42-5.03423E+02-5.03423E+02 2.58251E-10-3.55610E-13 5.83049E-12-6.79316E-14
 -1        43-2.51711E+02-2.51711E+02 1.22300E-10-2.66052E-12 7.71553E-12 1.92037E-12
 -1        44-1.67808E+02-1.67808E+02 8.20503E-11-1.19000E-11 4.77907E-13-2.56255E-13
 -1        45-1.67808E+02-1.67808E+02 8.68245E-11 1.26532E-11 4.93012E-12-8.46040E-13
 -1        46-1.67808E+02-1.67808E+02 8.14597E-11 5.36509E-12 9.89380E-13 1.33082E-12
 -1        47-1.67808E+02-1.67808E+02 8.97511E-11-2.67403E-12-8.28148E-13-3.61427E-12
 -1        48-2.51711E+02-2.51711E+02 1.34859E-10-5.48817E-12 8.54651E-12 3.49963E-12
 -1        49-2.51711E+02-2.51711E+02 1.33917E-10 1.18666E-11-2.59340E-12 6.57994E-12
 -1        50-1.67808E+02-1.67808E+02 9.43857E-11 4.72973E-12 1.22209E-13 1.43162E-12
 -1        51-1.67808E+02-1.67808E+02 1.11401E-10-4.80308E-12-5.40041E-13 8.33404E-13
 -1        52-1.67808E+02-1.67808E+02 9.95303E-11-1.27060E-11-1.10860E-12-3.45945E-12
 -1        53-1.67808E+02-1.67808E+02 1.04490E-10 1.27445E-11 2.14278E-12-6.07199E-12
 -1        54-2.51711E+02-2.51711E+02 1.31417E-10-1.01061E-11 4.27433E-12-3.08635E-12
 -1        55-2.51711E+02-2.51711E+02 1.38681E-10 6.42792E-12 2.07628E-12-1.62029E-12
 -1        56-1.67808E+02-1.67808E+02 8.43429E-11 1.10397E-12 4.29405E-12-1.29967E-12
 -1        57-1.67808E+02-1.67808E+02 8.20886E-11-4.05578E-12 5.32517E-12-5.64275E-13
 -1        58-1.67808E+02-1.67808E+02 7.73086E-11-1.18671E-11 4.32980E-12 1.71490E-12
 -1        59-1.67808E+02-1.67808E+02 8.78442E-11 4.76089E-12 1.01171E-11 4.39085E-12
 -1        60-2.51711E+02-2.51711E+02 1.24385E-10-2.26401E-11-3.83906E-12 4.81342E-12
 -1        61-2.51711E+02-2.51711E+02 1.46674E-10-2.54892E-12 3.37651E-12-5.18190E-12
 -1        62-1.67808E+02-1.67808E+02 9.26558E-11-3.02224E-12-3.33834E-12 2.18284E-12
 -1        63-1.67808E+02-1.67808E+02 1.19562E-10 6.17576E-12-5.42681E-12-4.44603E-12
 -1        64-1.67808E+02-1.67808E+02 8.51337E-11 3.23633E-12 6.77926E-13 7.40347E-12
 -1        65-1.67808E+02-1.67808E+02 9.54103E-11 6.84444E-12-4.11305E-12-4.33613E-12
 -1        66-2.51711E+02-2.51711E+02 1.58515E-10 1.07885E-11 1.09268E-11 1.27394E-11
 -1        67-5.03423E+02-5.03423E+02 2.86449E-10-3.59372E-13 8.66253E-13-3.36528E-12
 -1        68-2.51711E+02-2.51711E+02 1.42805E-10-2.19968E-12 3.00896E-12 7.63267E-12
 -1        69-2.51711E+02-2.51711E+02 1.82140E-10-2.95349E-12 4.78385E-12-6.86022E-12
 -1        70-2.51711E+02-2.51711E+02 1.29460E-10-7.33915E-12 2.72468E-12 4.00912E-12
 -1        71-2.51711E+02-2.51711E+02 1.46460E-10-1.07880E-12 7.01933E-13-1.54679E-11
 -1        72-5.03423E+02-5.03423E+02 2.91751E-10 1.18182E-12-9.81649E-12 1.32155E-11
 -3
    1PSTEP                       264          88           1          
  100CL  188 7.50781E-01          72                     0   88           1
 -4  TOSTRAIN    6    1
 -5  EXX         1    4    1    1
 -5  EYY         1    4    2    2
 -5  EZZ         1    4    3    3
 -5  EXY         1    4    1    2
 -5  EYZ         1    4    2    3
 -5  EZX         1    4    3    1
 -1         1-1.68049E-03-1.68049E-03 1.44042E-03 8.69461E-20-2.69231E-20-3.09997E-20
 -1         2-8.40246E-04-8.40246E-04 7.20211E-04-9.33147E-17-2.64681E-21-1.31986E-17
 -1         3-8.40246E-04-8.40246E-04 7.20211E-04 3.35491E-17-4.28486E-20 1.10467E-17
 -1         4-8.40246E-04-8.40246E-04 7.20211E-04-1.36528E-16 6.32829E-20-3.59884E-17
 -1         5-8.40246E-04-8.40246E-04 7.20211E-04 1.61401E-16 3.18515E-20 6.11710E-17
 -1         6-1.68049E-03-1.68049E-03 1.44042E-03-5.29293E-19-9.58576E-20-8.58733E-19
 -1         7-8.40246E-04-8.40246E-04 7.20211E-04 7.13834E-17 4.93994E-17-1.31732E-20
 -1         8-5.60164E-04-5.60164E-04 4.80141E-04-1.46103E-17-8.89032E-18-9.52293E-18
 -1         9-5.60164E-04-5.60164E-04 4.80141E-04 5.10261E-17 5.90708E-18 2.66020E-17
 -1        10-5.60164E-04-5.60164E-04 4.80141E-04-6.17727E-17 8.36532E-18 4.11997E-17
 -1        11-5.60164E-04-5.60164E-04 4.80141E-04 4.89719E-17-3.24510E-18-3.57458E-17
 -1        12-8.40246E-04-8.40246E-04 7.20211E-04-8.79704E-17 3.49065E-17-1.37667E-18
 -1        13-8.40246E-04-8.40246E-04 7.20211E-04-1.69525E-17-4.53940E-17 5.18869E-21
 -1        14-5.60164E-04-5.60164E-04 4.80141E-04-5.49263E-17 1.28000E-17-1.82818E-17
 -1        15-5.60164E-04-5.60164E-04 4.80141E-04 4.34660E-17 4.12824E-17 3.91188E-17
 -1        16-5.60164E-04-5.60164E-04 4.80141E-04-5.86250E-17 1.69569E-17 1.43474E-17
 -1        17-5.60164E-04-5.60164E-04 4.80141E-04 6.56919E-17-1.95081E-17-2.73556E-17
 -1        18-8.40246E-04-8.40246E-04 7.20211E-04-9.15984E-18-7.08361E-17 2.07436E-18
 -1        19-8.40246E-04-8.40246E-04 7.20211E-04-6.59802E-17-1.66243E-17 2.20202E-20
 -1        20-5.60164E-04-5.60164E-04 4.80141E-04-8.76114E-17 3.88041E-17-1.33552E-18
 -1        21-5.60164E-04-5.60164E-04 4.80141E-04 4.86996E-17 7.51356E-17 1.16508E-17
 -1        22-5.60164E-04-5.60164E-04 4.80141E-04-5.34759E-17 5.23316E-17 2.22458E-17
 -1        23-5.60164E-04-5.60164E-04 4.80141E-04 1.28944E-16 2.75384E-17 1.05878E-17
 -1        24-8.40246E-04-8.40246E-04 7.20211E-04 8.33577E-17-1.14611E-16-3.24120E-18
 -1        25-8.40246E-04-8.40246E-04 7.20211E-04 9.14493E-17 2.70714E-17 7.53056E-21
 -1        26-5.60164E-04-5.60164E-04 4.80141E-04 4.76674E-17-3.43695E-17 3.48296E-17
 -1        27-5.60164E-04-5.60164E-04 4.80141E-04-9.30773E-18-4.43413E-17 3.00811E-17
 -1        28-5.60164E-04-5.60164E-04 4.80141E-04 6.27628E-18-1.28310E-17 1.00407E-16
 -1        29-5.60164E-04-5.60164E-04 4.80141E-04-7.51559E-17-3.08644E-17-7.87088E-17
 -1        30-8.40246E-04-8.40246E-04 7.20211E-04-1.29431E-16 1.02057E-16-4.67263E-19
 -1        31-1.68049E-03-1.68049E-03 1.44042E-03 1.92894E-18 6.14012E-19-3.34402E-20
 -1        32-8.40246E-04-8.40246E-04 7.20211E-04-1.89243E-17-7.43846E-19 5.76615E-17
 -1        33-8.40246E-04-8.40246E-04 7.20211E-04-1.37245E-17-5.58669E-18 3.81632E-17
 -1        34-8.40246E-04-8.40246E-04 7.20211E-04 1.06415E-17 3.62821E-18 1.13915E-16
 -1        35-8.40246E-04-8.40246E-04 7.20211E-04 1.91235E-17 1.87924E-18-1.37204E-16
 -1        36-1.68049E-03-1.68049E-03 1.44042E-03-5.57136E-18-3.49600E-18-8.37355E-19
 -1        37-1.68049E-03-1.68049E-03 1.44042E-03-1.02871E-19-3.70543E-18-1.55585E-17
 -1        38-8.40246E-04-8.40246E-04 7.20211E-04-9.45882E-17 1.79043E-17-2.09698E-17
 -1        39-8.40246E-04-8.40246E-04 7.20211E-04 7.00200E-17 3.71935E-17 1.68754E-18
 -1        40-8.40246E-04-8.40246E-04 7.20211E-04 1.64395E-18-3.55882E-18-4.35494E-17
 -1        41-8.40246E-04-8.40246E-04 7.20211E-04 7.21865E-18-2.86196E-18 5.68076E-17
 -1        42-1.68049E-03-1.68049E-03 1.44042E-03-2.21846E-18 3.62586E-17-4.29952E-19
 -1        43-8.40246E-04-8.40246E-04 7.20211E-04-1.65976E-17 4.76711E-17 1.19424E-17
 -1        44-5.60164E-04-5.60164E-04 4.80141E-04-7.42374E-17 3.02785E-18-1.53407E-18
 -1        45-5.60164E-04-5.60164E-04 4.80141E-04 7.89365E-17 3.06226E-17-5.43367E-18
 -1        46-5.60164E-04-5.60164E-04 4.80141E-04 3.34699E-17 6.10014E-18 8.01948E-18
 -1        47-5.60164E-04-5.60164E-04 4.80141E-04-1.66818E-17-5.12976E-18-2.22529E-17
 -1        48-8.40246E-04-8.40246E-04 7.20211E-04-3.42377E-17 5.29303E-17 2.17532E-17
 -1        49-8.40246E-04-8.40246E-04 7.20211E-04 7.40290E-17-1.58390E-17 4.09192E-17
 -1        50-5.60164E-04-5.60164E-04 4.80141E-04 2.95062E-17 6.69099E-19 9.01735E-18
 -1        51-5.60164E-04-5.60164E-04 4.80141E-04-2.99638E-17-3.61211E-18 4.93942E-18
 -1        52-5.60164E-04-5.60164E-04 4.80141E-04-7.92659E-17-6.99810E-18-2.15907E-17
 -1        53-5.60164E-04-5.60164E-04 4.80141E-04 7.95058E-17 1.34523E-17-3.75985E-17
 -1        54-8.40246E-04-8.40246E-04 7.20211E-04-6.30468E-17 2.70073E-17-1.91836E-17
 -1        55-8.40246E-04-8.40246E-04 7.20211E-04 4.01003E-17 1.30199E-17-1.00764E-17
 -1        56-5.60164E-04-5.60164E-04 4.80141E-04 6.88707E-18 2.64514E-17-8.07396E-18
 -1        57-5.60164E-04-5.60164E-04 4.80141E-04-2.53018E-17 3.26353E-17-3.57051E-18
 -1        58-5.60164E-04-5.60164E-04 4.80141E-04-7.40323E-17 2.66114E-17 1.05149E-17
 -1        59-5.60164E-04-5.60164E-04 4.80141E-04 2.97006E-17 6.27338E-17 2.72477E-17
 -1        60-8.40246E-04-8.40246E-04 7.20211E-04-1.41239E-16-2.31334E-17 2.99152E-17
 -1        61-8.40246E-04-8.40246E-04 7.20211E-04-1.59013E-17 2.08577E-17-3.22249E-17
 -1        62-5.60164E-04-5.60164E-04 4.80141E-04-1.88541E-17-2.05470E-17 1.33565E-17
 -1        63-5.60164E-04-5.60164E-04 4.80141E-04 3.85272E-17-3.34376E-17-2.78257E-17
 -1        64-5.60164E-04-5.60164E-04 4.80141E-04 2.01897E-17 4.27710E-18 4.54050E-17
 -1        65-5.60164E-04-5.60164E-04 4.80141E-04 4.26988E-17-2.53928E-17-2.64710E-17
 -1        66-8.40246E-04-8.40246E-04 7.20211E-04 6.73039E-17 6.73256E-17 7.92201E-17
 -1        67-1.68049E-03-1.68049E-03 1.44042E-03-2.24193E-18 5.33476E-18-2.09281E-17
 -1        68-8.40246E-04-8.40246E-04 7.20211E-04-1.37226E-17 1.87218E-17 4.71051E-17
 -1        69-8.40246E-04-8.40246E-04 7.20211E-04-1.84252E-17 2.97149E-17-4.29392E-17
 -1        70-8.40246E-04-8.40246E-04 7.20211E-04-4.57850E-17 1.69708E-17 2.42340E-17
 -1        71-8.40246E-04-8.40246E-04 7.20211E-04-6.73005E-18 4.37729E-18-9.53447E-17
 -1        72-1.68049E-03-1.68049E-03 1.44042E-03 7.37271E-18-6.10735E-17 8.21686E-17
 -3
    1PSTEP                       265          89           1          
  100CL  189 7.59781E-01          72                     0   89           1
 -4  DISP        4    1
 -5  D1          1    2    1    0
 -5  D2          1    2    2    0
 -5  D3          1    2    3    0
 -5  ALL         1    2    0    0    1ALL
 -1         1 0.00000E+00 0.00000E+00 0.00000E+00
 -1         2-9.30955E-01 0.00000E+00 0.00000E+00
 -1         3-1.09312E+01 0.00000E+00 0.00000E+00
 -1         4-1.18622E+01 0.00000E+00 0.00000E+00
 -1         5-2.18625E+01 0.00000E+00 0.00000E+00
 -1         6-2.27934E+01 0.00000E+00 0.00000E+00
 -1         7 0.00000E+00-9.30955E-01 0.00000E+00
 -1         8-9.30955E-01-9.30955E-01 0.00000E+00
 -1         9-1.09312E+01-9.30955E-01 0.00000E+00
 -1        10-1.18622E+01-9.30955E-01 0.00000E+00
 -1        11-2.18625E+01-9.30955E-01 0.00000E+00
 -1        12-2.27934E+01-9.30955E-01 0.00000E+00
 -1        13 0.00000E+00-1.09312E+01 0.00000E+00
 -1        14-9.30955E-01-1.09312E+01 0.00000E+00
 -1        15-1.09312E+01-1.09312E+01 0.00000E+00
 -1        16-1.18622E+01-1.09312E+01 0.00000E+00
 -1        17-2.18625E+01-1.09312E+01 0.00000E+00
 -1        18-2.27934E+01-1.09312E+01 0.00000E+00
 -1        19 0.00000E+00-1.18622E+01 0.00000E+00
 -1        20-9.30955E-01-1.18622E+01 0.00000E+00
 -1        21-1.09312E+01-1.18622E+01 0.00000E+00
 -1        22-1.18622E+01-1.18622E+01 0.00000E+00
 -1        23-2.18625E+01-1.18622E+01 0.00000E+00
 -1        24-2.27934E+01-1.18622E+01 0.00000E+00
 -1        25 0.00000E+00-2.18625E+01 0.00000E+00
 -1        26-9.30955E-01-2.18625E+01 0.00000E+00
 -1        27-1.09312E+01-2.18625E+01 0.00000E+00
 -1        28-1.18622E+01-2.18625E+01 0.00000E+00
 -1        29-2.18625E+01-2.18625E+01 0.00000E+00
 -1        30-2.27934E+01-2.18625E+01 0.00000E+00
 -1        31 0.00000E+00-2.27934E+01 0.00000E+00
 -1        32-9.30955E-01-2.27934E+01 0.00000E+00
 -1        33-1.09312E+01-2.27934E+01 0.00000E+00
 -1        34-1.18622E+01-2.27934E+01 0.00000E+00
 -1        35-2.18625E+01-2.27934E+01 0.00000E+00
 -1        36-2.27934E+01-2.27934E+01 0.00000E+00
 -1        37 0.00000E+00 0.00000E+00 1.11522E+00
 -1        38-9.30955E-01 0.00000E+00 1.11522E+00
 -1        39-1.09312E+01 0.00000E+00 1.11522E+00
 -1        40-1.18622E+01 0.00000E+00 1.11522E+00
 -1        41-2.18625E+01 0.00000E+00 1.11522E+00
 -1        42-2.27934E+01 0.00000E+00 1.11522E+00
 -1        43 0.00000E+00-9.30955E-01 1.11522E+00
 -1        44-9.30955E-01-9.30955E-01 1.11522E+00
 -1        45-1.09312E+01-9.30955E-01 1.11522E+00
 -1        46-1.18622E+01-9.30955E-01 1.11522E+00
 -1        47-2.18625E+01-9.30955E-01 1.11522E+00
 -1        48-2.27934E+01-9.30955E-01 1.11522E+00
 -1        49 0.00000E+00-1.09312E+01 1.11522E+00
 -1        50-9.30955E-01-1.09312E+01 1.11522E+00
 -1        51-1.09312E+01-1.09312E+01 1.11522E+00
 -1        52-1.18622E+01-1.09312E+01 1.11522E+00
 -1        53-2.18625E+01-1.09312E+01 1.11522E+00
 -1        54-2.27934E+01-1.09312E+01 1.11522E+00
 -1        55 0.00000E+00-1.18622E+01 1.11522E+00
 -1        56-9.30955E-01-1.18622E+01 1.11522E+00
 -1        57-1.09312E+01-1.18622E+01 1.11522E+00
 -1        58-1.18622E+01-1.18622E+01 1.11522E+00
 -1        59-2.18625E+01-1.18622E+01 1.11522E+00
 -1        60-2.27934E+01-1.18622E+01 1.11522E+00
 -1        61 0.00000E+00-2.18625E+01 1.11522E+00
 -1        62-9.30955E-01-2.18625E+01 1.11522E+00
 -1        63-1.09312E+01-2.18625E+01 1.11522E+00
 -1        64-1.18622E+01-2.18625E+01 1.11522E+00
 -1        65-2.18625E+01-2.18625E+01 1.11522E+00
 -1        66-2.27934E+01-2.18625E+01 1.11522E+00
 -1        67 0.00000E+00-2.27934E+01 1.11522E+00
 -1        68-9.30955E-01-2.27934E+01 1.11522E+00
 -1        69-1.09312E+01-2.27934E+01 1.11522E+00
 -1        70-1.18622E+01-2.27934E+01 1.11522E+00
 -1        71-2.18625E+01-2.27934E+01 1.11522E+00
 -1        72-2.27934E+01-2.27934E+01 1.11522E+00
 -3
    1PSTEP                       266          89           1          
  100CL  189 7.59781E-01          72                     0   89           1
 -4  STRESS      6    1
 -5  SXX         1    4    1    1
 -5  SYY         1    4    2    2
 -5  SZZ         1    4    3    3
 -5  SXY         1    4    1    2
 -5  SYZ         1    4    2    3
 -5  SZX         1    4    3    1
 -1         1-5.57143E+02-5.57143E+02 4.20507E-10-1.03450E-14-6.41224E-15 9.10202E-15
 -1         2-2.78572E+02-2.78572E+02 2.18777E-10-1.23431E-11-6.54649E-16 1.27026E-12
 -1         3-2.78572E+02-2.78572E+02 2.13076E-10 1.27982E-12-9.49519E-16-5.06673E-12
 -1         4-2.78572E+02-2.78572E+02 2.41438E-10-2.66324E-11 5.20290E-15-1.47739E-11
 -1         5-2.78572E+02-2.78572E+02 2.43485E-10 2.83161E-11 5.24147E-15 1.55209E-11
 -1         6-5.57143E+02-5.57143E+02 4.28559E-10 8.14105E-13-1.09597E-14-1.06884E-12
 -1         7-2.78572E+02-2.78572E+02 1.90555E-10 9.68102E-12 6.94577E-12-6.08911E-15
 -1         8-1.85714E+02-1.85714E+02 1.38304E-10-1.77126E-12-1.47893E-12-3.46559E-13
 -1         9-1.85714E+02-1.85714E+02 1.23441E-10 8.81062E-12 3.89725E-12 2.71936E-12
 -1        10-1.85714E+02-1.85714E+02 1.27111E-10-1.00834E-11 4.51014E-13 7.45784E-12
 -1        11-1.85714E+02-1.85714E+02 1.28253E-10 8.01649E-12-1.68011E-13-7.37340E-12
 -1        12-2.78572E+02-2.78572E+02 1.74994E-10-1.58311E-11 1.09142E-11 1.37074E-13
 -1        13-2.78572E+02-2.78572E+02 2.16115E-10-2.28910E-12-5.74776E-12 9.50138E-15
 -1        14-1.85714E+02-1.85714E+02 1.42328E-10-8.85495E-12 2.67037E-12-3.17482E-12
 -1        15-1.85714E+02-1.85714E+02 1.59844E-10 6.73479E-12 4.31681E-12 8.18230E-12
 -1        16-1.85714E+02-1.85714E+02 1.50317E-10-1.32869E-11 3.22005E-12 2.35669E-12
 -1        17-1.85714E+02-1.85714E+02 1.31714E-10 1.29850E-11-2.49443E-12-3.33024E-12
 -1        18-2.78572E+02-2.78572E+02 2.11070E-10 4.65509E-13-1.14386E-11 3.24874E-14
 -1        19-2.78572E+02-2.78572E+02 2.10083E-10-1.67543E-11-3.70867E-12-2.91598E-15
 -1        20-1.85714E+02-1.85714E+02 1.20706E-10-1.84984E-11 8.97827E-12 1.73376E-12
 -1        21-1.85714E+02-1.85714E+02 1.12162E-10 9.54984E-12 1.15983E-11-5.69512E-13
 -1        22-1.85714E+02-1.85714E+02 1.10069E-10-1.08524E-11 9.74958E-12 4.33865E-12
 -1        23-1.85714E+02-1.85714E+02 1.20774E-10 2.32707E-11 6.93883E-12 8.18102E-13
 -1        24-2.78572E+02-2.78572E+02 2.17224E-10 1.53742E-11-1.46566E-11-1.55738E-13
 -1        25-2.78572E+02-2.78572E+02 2.17829E-10 1.95652E-11 6.23106E-12 1.85639E-15
 -1        26-1.85714E+02-1.85714E+02 1.13469E-10 1.38530E-11-7.30373E-12 8.39508E-12
 -1        27-1.85714E+02-1.85714E+02 1.23621E-10-5.97645E-12-7.63272E-12 3.58153E-12
 -1        28-1.85714E+02-1.85714E+02 9.77382E-11 6.94157E-12-2.38856E-12 2.20290E-11
 -1        29-1.85714E+02-1.85714E+02 1.00382E-10-1.85523E-11-6.23054E-12-1.68879E-11
 -1        30-2.78572E+02-2.78572E+02 2.18414E-10-2.00222E-11 1.23479E-11-4.95317E-13
 -1        31-5.57143E+02-5.57143E+02 4.30506E-10 3.12808E-13-1.11955E-12-1.06105E-14
 -1        32-2.78572E+02-2.78572E+02 1.83712E-10 1.37074E-12 7.48917E-14 8.08530E-12
 -1        33-2.78572E+02-2.78572E+02 2.20817E-10-4.67738E-12 4.46701E-13 1.14990E-11
 -1        34-2.78572E+02-2.78572E+02 1.83459E-10 1.46793E-11 9.93138E-14 1.81161E-11
 -1        35-2.78572E+02-2.78572E+02 1.70135E-10-7.60345E-12 2.57855E-13-1.90627E-11
 -1        36-5.57143E+02-5.57143E+02 4.30208E-10-9.38747E-13 1.14677E-12 9.20063E-13
 -1        37-5.57143E+02-5.57143E+02 4.54998E-10 7.38622E-15-7.01264E-13-4.96891E-12
 -1        38-2.78572E+02-2.78572E+02 2.16884E-10-1.48187E-11 2.98998E-12-1.21754E-12
 -1        39-2.78572E+02-2.78572E+02 2.04499E-10 1.31620E-11 5.87945E-12-9.73000E-13
 -1        40-2.78572E+02-2.78572E+02 2.22006E-10 9.15562E-12-3.25473E-12-1.01663E-11
 -1        41-2.78572E+02-2.78572E+02 2.10800E-10-8.07454E-12-3.26681E-12 1.29860E-11
 -1        42-5.57143E+02-5.57143E+02 4.10146E-10-3.64883E-13 3.02760E-12-2.91399E-12
 -1        43-2.78572E+02-2.78572E+02 2.04177E-10-3.01039E-12 6.58041E-12 8.65349E-13
 -1        44-1.85714E+02-1.85714E+02 1.34428E-10-1.18885E-11 5.18036E-13 2.31409E-13
 -1        45-1.85714E+02-1.85714E+02 1.42202E-10 1.18705E-11 7.81192E-12-7.42323E-13
 -1        46-1.85714E+02-1.85714E+02 1.38537E-10 9.36409E-12-1.70141E-12 4.12642E-12
 -1        47-1.85714E+02-1.85714E+02 1.43430E-10-6.59337E-12-2.35734E-12-5.38449E-12
 -1        48-2.78572E+02-2.78572E+02 2.21685E-10-1.08919E-12 1.24314E-11 2.82166E-12
 -1        49-2.78572E+02-2.78572E+02 2.08922E-10 1.03824E-11-1.11848E-12 7.37939E-12
 -1        50-1.85714E+02-1.85714E+02 1.48733E-10 6.37944E-12-1.37629E-12 1.75088E-12
 -1        51-1.85714E+02-1.85714E+02 1.61852E-10-6.86965E-12-2.22065E-12 2.63378E-12
 -1        52-1.85714E+02-1.85714E+02 1.51473E-10-1.20801E-11-2.58083E-13-3.38667E-12
 -1        53-1.85714E+02-1.85714E+02 1.58459E-10 1.08899E-11 9.14352E-13-5.74268E-12
 -1        54-2.78572E+02-2.78572E+02 2.14691E-10-9.64464E-12 2.05445E-12-3.56059E-12
 -1        55-2.78572E+02-2.78572E+02 2.18491E-10 7.33056E-12 5.14701E-13-3.01937E-12
 -1        56-1.85714E+02-1.85714E+02 1.37511E-10 4.34486E-12 4.61550E-12-2.66672E-13
 -1        57-1.85714E+02-1.85714E+02 1.37433E-10-4.85110E-12 4.83103E-12-3.34664E-12
 -1        58-1.85714E+02-1.85714E+02 1.34192E-10-9.87167E-12 6.13459E-12 1.79138E-12
 -1        59-1.85714E+02-1.85714E+02 1.40103E-10 4.62332E-12 1.02175E-11 3.62146E-12
 -1        60-2.78572E+02-2.78572E+02 2.07196E-10-1.95645E-11-1.42998E-12 4.57541E-12
 -1        61-2.78572E+02-2.78572E+02 2.30455E-10-3.87163E-12 4.07758E-12-7.14114E-12
 -1        62-1.85714E+02-1.85714E+02 1.45696E-10-5.96054E-12-4.24680E-12 3.63276E-12
 -1        63-1.85714E+02-1.85714E+02 1.77026E-10 6.61153E-12-5.71355E-12-8.21125E-12
 -1        64-1.85714E+02-1.85714E+02 1.41091E-10 8.64555E-14-3.89631E-13 1.02550E-11
 -1        65-1.85714E+02-1.85714E+02 1.48500E-10 7.44243E-12-3.82444E-12-8.09480E-12
 -1        66-2.78572E+02-2.78572E+02 2.46375E-10 9.32824E-12 6.69031E-12 1.58397E-11
 -1        67-5.57143E+02-5.57143E+02 4.36667E-10-3.87428E-13-1.25616E-12-1.27619E-12
 -1        68-2.78572E+02-2.78572E+02 2.22654E-10-5.26290E-12 4.83440E-12 7.41933E-12
 -1        69-2.78572E+02-2.78572E+02 2.58331E-10 3.56388E-12 2.90931E-12-5.94801E-12
 -1        70-2.78572E+02-2.78572E+02 2.05450E-10-6.08643E-12 2.66172E-12 1.06129E-12
 -1        71-2.78572E+02-2.78572E+02 2.26555E-10 2.11809E-12 3.55796E-12-1.20171E-11
 -1        72-5.57143E+02-5.57143E+02 4.56099E-10 6.61883E-13-1.28342E-11 1.09275E-11
 -3
    1PSTEP                       267          89           1          
  100CL  189 7.59781E-01          72                     0   89           1
 -4  TOSTRAIN    6    1
 -5  EXX         1    4    1    1
 -5  EYY         1    4    2    2
 -5  EZZ         1    4    3    3
 -5  EXY         1    4    1    2
 -5  EYZ         1    4    2    3
 -5  EZX         1    4    3    1
 -1         1-1.86010E-03-1.86010E-03 1.59437E-03-6.45906E-20-3.96516E-20 5.66054E-20
 -1         2-9.30051E-04-9.30051E-04 7.97187E-04-7.70658E-17-4.17281E-21 7.84906E-18
 -1         3-9.30051E-04-9.30051E-04 7.97187E-04 7.99073E-18-5.82475E-21-3.13073E-17
 -1         4-9.30051E-04-9.30051E-04 7.97187E-04-1.66283E-16 3.22108E-20-9.12873E-17
 -1         5-9.30051E-04-9.30051E-04 7.97187E-04 1.76796E-16 3.25120E-20 9.59031E-17
 -1         6-1.86010E-03-1.86010E-03 1.59437E-03 5.08298E-18-6.78688E-20-6.60404E-18
 -1         7-9.30051E-04-9.30051E-04 7.97187E-04 6.04448E-17 4.29176E-17-3.78350E-20
 -1         8-6.20034E-04-6.20034E-04 5.31458E-04-1.10591E-17-9.13830E-18-2.14151E-18
 -1         9-6.20034E-04-6.20034E-04 5.31458E-04 5.50103E-17 2.40810E-17 1.68028E-17
 -1        10-6.20034E-04-6.20034E-04 5.31458E-04-6.29569E-17 2.78662E-18 4.60816E-17
 -1        11-6.20034E-04-6.20034E-04 5.31458E-04 5.00520E-17-1.03804E-18-4.55599E-17
 -1        12-9.30051E-04-9.30051E-04 7.97187E-04-9.88439E-17 6.74380E-17 8.46855E-19
 -1        13-9.30051E-04-9.30051E-04 7.97187E-04-1.42923E-17-3.55151E-17 5.88064E-20
 -1        14-6.20034E-04-6.20034E-04 5.31458E-04-5.52871E-17 1.65000E-17-1.96170E-17
 -1        15-6.20034E-04-6.20034E-04 5.31458E-04 4.20496E-17 2.66735E-17 5.05580E-17
 -1        16-6.20034E-04-6.20034E-04 5.31458E-04-8.29587E-17 1.98964E-17 1.45618E-17
 -1        17-6.20034E-04-6.20034E-04 5.31458E-04 8.10733E-17-1.54130E-17-2.05772E-17
 -1        18-9.30051E-04-9.30051E-04 7.97187E-04 2.90647E-18-7.06784E-17 2.00998E-19
 -1        19-9.30051E-04-9.30051E-04 7.97187E-04-1.04608E-16-2.29157E-17-1.81578E-20
 -1        20-6.20034E-04-6.20034E-04 5.31458E-04-1.15497E-16 5.54762E-17 1.07127E-17
 -1        21-6.20034E-04-6.20034E-04 5.31458E-04 5.96257E-17 7.16653E-17-3.51900E-18
 -1        22-6.20034E-04-6.20034E-04 5.31458E-04-6.77584E-17 6.02423E-17 2.68083E-17
 -1        23-6.20034E-04-6.20034E-04 5.31458E-04 1.45294E-16 4.28747E-17 5.05479E-18
 -1        24-9.30051E-04-9.30051E-04 7.97187E-04 9.59911E-17-9.05630E-17-9.62636E-19
 -1        25-9.30051E-04-9.30051E-04 7.97187E-04 1.22158E-16 3.85014E-17 1.15437E-20
 -1        26-6.20034E-04-6.20034E-04 5.31458E-04 8.64932E-17-4.51295E-17 5.18728E-17
 -1        27-6.20034E-04-6.20034E-04 5.31458E-04-3.73148E-17-4.71623E-17 2.21300E-17
 -1        28-6.20034E-04-6.20034E-04 5.31458E-04 4.33407E-17-1.47588E-17 1.36116E-16
 -1        29-6.20034E-04-6.20034E-04 5.31458E-04-1.15834E-16-3.84981E-17-1.04350E-16
 -1        30-9.30051E-04-9.30051E-04 7.97187E-04-1.25011E-16 7.62969E-17-3.06047E-18
 -1        31-1.86010E-03-1.86010E-03 1.59437E-03 1.95306E-18-6.91776E-18-6.55712E-20
 -1        32-9.30051E-04-9.30051E-04 7.97187E-04 8.55840E-18 4.62667E-19 4.99587E-17
 -1        33-9.30051E-04-9.30051E-04 7.97187E-04-2.92039E-17 2.75988E-18 7.10521E-17
 -1        34-9.30051E-04-9.30051E-04 7.97187E-04 9.16525E-17 6.13871E-19 1.11939E-16
 -1        35-9.30051E-04-9.30051E-04 7.97187E-04-4.74732E-17 1.59341E-18-1.17787E-16
 -1        36-1.86010E-03-1.86010E-03 1.59437E-03-5.86120E-18 7.08555E-18 5.68488E-18
 -1        37-1.86010E-03-1.86010E-03 1.59437E-03 4.61169E-20-4.36321E-18-3.09155E-17
 -1        38-9.30051E-04-9.30051E-04 7.97187E-04-9.25226E-17 1.86030E-17-7.62958E-18
 -1        39-9.30051E-04-9.30051E-04 7.97187E-04 8.21786E-17 3.65808E-17-5.83414E-18
 -1        40-9.30051E-04-9.30051E-04 7.97187E-04 5.71644E-17-2.02503E-17-6.26388E-17
 -1        41-9.30051E-04-9.30051E-04 7.97187E-04-5.04145E-17-2.03255E-17 8.01673E-17
 -1        42-1.86010E-03-1.86010E-03 1.59437E-03-2.27820E-18 1.88371E-17-1.81510E-17
 -1        43-9.30051E-04-9.30051E-04 7.97187E-04-1.87958E-17 4.06449E-17 5.38393E-18
 -1        44-6.20034E-04-6.20034E-04 5.31458E-04-7.42277E-17 3.28629E-18 1.45452E-18
 -1        45-6.20034E-04-6.20034E-04 5.31458E-04 7.41151E-17 4.84373E-17-4.72919E-18
 -1        46-6.20034E-04-6.20034E-04 5.31458E-04 5.84660E-17-1.06053E-17 2.53545E-17
 -1        47-6.20034E-04-6.20034E-04 5.31458E-04-4.11666E-17-1.46593E-17-3.31821E-17
 -1        48-9.30051E-04-9.30051E-04 7.97187E-04-6.80052E-18 7.68782E-17 1.75675E-17
 -1        49-9.30051E-04-9.30051E-04 7.97187E-04 6.48241E-17-6.72971E-18 4.59130E-17
 -1        50-6.20034E-04-6.20034E-04 5.31458E-04 3.98309E-17-8.67989E-18 1.10294E-17
 -1        51-6.20034E-04-6.20034E-04 5.31458E-04-4.28916E-17-1.40000E-17 1.60367E-17
 -1        52-6.20034E-04-6.20034E-04 5.31458E-04-7.54237E-17-1.74947E-18-2.11633E-17
 -1        53-6.20034E-04-6.20034E-04 5.31458E-04 6.79927E-17 5.79511E-18-3.55893E-17
 -1        54-9.30051E-04-9.30051E-04 7.97187E-04-6.02176E-17 1.32672E-17-2.21591E-17
 -1        55-9.30051E-04-9.30051E-04 7.97187E-04 4.57693E-17 3.36163E-18-1.87857E-17
 -1        56-6.20034E-04-6.20034E-04 5.31458E-04 2.71277E-17 2.83431E-17-1.73386E-18
 -1        57-6.20034E-04-6.20034E-04 5.31458E-04-3.02885E-17 2.95720E-17-2.07919E-17
 -1        58-6.20034E-04-6.20034E-04 5.31458E-04-6.16351E-17 3.77503E-17 1.09557E-17
 -1        59-6.20034E-04-6.20034E-04 5.31458E-04 2.88663E-17 6.32788E-17 2.25094E-17
 -1        60-9.30051E-04-9.30051E-04 7.97187E-04-1.22154E-16-8.26140E-18 2.84700E-17
 -1        61-9.30051E-04-9.30051E-04 7.97187E-04-2.41731E-17 2.51203E-17-4.44308E-17
 -1        62-6.20034E-04-6.20034E-04 5.31458E-04-3.72155E-17-2.61052E-17 2.22426E-17
 -1        63-6.20034E-04-6.20034E-04 5.31458E-04 4.12800E-17-3.52254E-17-5.12422E-17
 -1        64-6.20034E-04-6.20034E-04 5.31458E-04 5.39797E-19-2.31972E-18 6.28598E-17
 -1        65-6.20034E-04-6.20034E-04 5.31458E-04 4.64679E-17-2.35499E-17-4.95953E-17
 -1        66-9.30051E-04-9.30051E-04 7.97187E-04 5.82422E-17 4.10868E-17 9.85056E-17
 -1        67-1.86010E-03-1.86010E-03 1.59437E-03-2.41896E-18-7.91152E-18-7.94037E-18
 -1        68-9.30051E-04-9.30051E-04 7.97187E-04-3.28596E-17 3.00748E-17 4.58162E-17
 -1        69-9.30051E-04-9.30051E-04 7.97187E-04 2.22516E-17 1.80940E-17-3.74963E-17
 -1        70-9.30051E-04-9.30051E-04 7.97187E-04-3.80015E-17 1.65780E-17 5.81381E-18
 -1        71-9.30051E-04-9.30051E-04 7.97187E-04 1.32246E-17 2.21060E-17-7.39932E-17
 -1        72-1.86010E-03-1.86010E-03 1.59437E-03 4.13256E-18-7.98053E-17 6.80394E-17
 -3
    1PSTEP                       268          90           1          
  100CL  190 7.68781E-01          72                     0   90           1
 -4  DISP        4    1
 -5  D1          1    2    1    0
 -5  D2          1    2    2    0
 -5  D3          1    2    3    0
 -5  ALL         1    2    0    0    1ALL
 -1         1 0.00000E+00 0.00000E+00 0.00000E+00
 -1         2-1.02092E+00 0.00000E+00 0.00000E+00
 -1         3-1.10213E+01 0.00000E+00 0.00000E+00
 -1         4-1.20422E+01 0.00000E+00 0.00000E+00
 -1         5-2.20425E+01 0.00000E+00 0.00000E+00
 -1         6-2.30634E+01 0.00000E+00 0.00000E+00
 -1         7 0.00000E+00-1.02092E+00 0.00000E+00
 -1         8-1.02092E+00-1.02092E+00 0.00000E+00
 -1         9-1.10213E+01-1.02092E+00 0.00000E+00
 -1        10-1.20422E+01-1.02092E+00 0.00000E+00
 -1        11-2.20425E+01-1.02092E+00 0.00000E+00
 -1        12-2.30634E+01-1.02092E+00 0.00000E+00
 -1        13 0.00000E+00-1.10213E+01 0.00000E+00
 -1        14-1.02092E+00-1.10213E+01 0.00000E+00
 -1        15-1.10213E+01-1.10213E+01 0.00000E+00
 -1        16-1.20422E+01-1.10213E+01 0.00000E+00
 -1        17-2.20425E+01-1.10213E+01 0.00000E+00
 -1        18-2.30634E+01-1.10213E+01 0.00000E+00
 -1        19 0.00000E+00-1.20422E+01 0.00000E+00
 -1        20-1.02092E+00-1.20422E+01 0.00000E+00
 -1        21-1.10213E+01-1.20422E+01 0.00000E+00
 -1        22-1.20422E+01-1.20422E+01 0.00000E+00
 -1        23-2.20425E+01-1.20422E+01 0.00000E+00
 -1        24-2.30634E+01-1.20422E+01 0.00000E+00
 -1        25 0.00000E+00-2.20425E+01 0.00000E+00
 -1        26-1.02092E+00-2.20425E+01 0.00000E+00
 -1        27-1.10213E+01-2.20425E+01 0.00000E+00
 -1        28-1.20422E+01-2.20425E+01 0.00000E+00
 -1        29-2.20425E+01-2.20425E+01 0.00000E+00
 -1        30-2.30634E+01-2.20425E+01 0.00000E+00
 -1        31 0.00000E+00-2.30634E+01 0.00000E+00
 -1        32-1.02092E+00-2.30634E+01 0.00000E+00
 -1        33-1.10213E+01-2.30634E+01 0.00000E+00
 -1        34-1.20422E+01-2.30634E+01 0.00000E+00
 -1        35-2.20425E+01-2.30634E+01 0.00000E+00
 -1        36-2.30634E+01-2.30634E+01 0.00000E+00
 -1        37 0.00000E+00 0.00000E+00 1.22279E+00
 -1        38-1.02092E+00 0.00000E+00 1.22279E+00
 -1        39-1.10213E+01 0.00000E+00 1.22279E+00
 -1        40-1.20422E+01 0.00000E+00 1.22279E+00
 -1        41-2.20425E+01 0.00000E+00 1.22279E+00
 -1        42-2.30634E+01 0.00000E+00 1.22279E+00
 -1        43 0.00000E+00-1.02092E+00 1.22279E+00
 -1        44-1.02092E+00-1.02092E+00 1.22279E+00
 -1        45-1.10213E+01-1.02092E+00 1.22279E+00
 -1        46-1.20422E+01-1.02092E+00 1.22279E+00
 -1        47-2.20425E+01-1.02092E+00 1.22279E+00
 -1        48-2.30634E+01-1.02092E+00 1.22279E+00
 -1        49 0.00000E+00-1.10213E+01 1.22279E+00
 -1        50-1.02092E+00-1.10213E+01 1.22279E+00
 -1        51-1.10213E+01-1.10213E+01 1.22279E+00
 -1        52-1.20422E+01-1.10213E+01 1.22279E+00
 -1        53-2.20425E+01-1.10213E+01 1.22279E+00
 -1        54-2.30634E+01-1.10213E+01 1.22279E+00
 -1        55 0.00000E+00-1.20422E+01 1.22279E+00
 -1        56-1.02092E+00-1.20422E+01 1.22279E+00
 -1        57-1.10213E+01-1.20422E+01 1.22279E+00
 -1        58-1.20422E+01-1.20422E+01 1.22279E+00
 -1        59-2.20425E+01-1.20422E+01 1.22279E+00
 -1        60-2.30634E+01-1.20422E+01 1.22279E+00
 -1        61 0.00000E+00-2.20425E+01 1.22279E+00
 -1        62-1.02092E+00-2.20425E+01 1.22279E+00
 -1        63-1.10213E+01-2.20425E+01 1.22279E+00
 -1        64-1.20422E+01-2.20425E+01 1.22279E+00
 -1        65-2.20425E+01-2.20425E+01 1.22279E+00
 -1        66-2.30634E+01-2.20425E+01 1.22279E+00
 -1        67 0.00000E+00-2.30634E+01 1.22279E+00
 -1        68-1.02092E+00-2.30634E+01 1.22279E+00
 -1        69-1.10213E+01-2.30634E+01 1.22279E+00
 -1        70-1.20422E+01-2.30634E+01 1.22279E+00
 -1        71-2.20425E+01-2.30634E+01 1.22279E+00
 -1        72-2.30634E+01-2.30634E+01 1.22279E+00
 -3
    1PSTEP                       269          90           1          
  100CL  190 7.68781E-01          72                     0   90           1
 -4  STRESS      6    1
 -5  SXX         1    4    1    1
 -5  SYY         1    4    2    2
 -5  SZZ         1    4    3    3
 -5  SXY         1    4    1    2
 -5  SYZ         1    4    2    3
 -5  SZX         1    4    3    1
 -1         1-6.10836E+02-6.10836E+02 1.34538E-10-7.58997E-16 1.68466E-15 1.86016E-15
 -1         2-3.05418E+02-3.05418E+02 6.52832E-11-7.58364E-12 4.04018E-15 4.66815E-12
 -1         3-3.05418E+02-3.05418E+02 6.82427E-11-6.73430E-13-4.14341E-15-4.36899E-12
 -1         4-3.05418E+02-3.05418E+02 8.75664E-11-2.43072E-11 3.55000E-15-9.01294E-12
 -1         5-3.05418E+02-3.05418E+02 9.22485E-11 2.60557E-11 1.95127E-15 1.00237E-11
 -1         6-6.10836E+02-6.10836E+02 1.38800E-10 5.53943E-13-1.02808E-14-3.10075E-13
 -1         7-3.05418E+02-3.05418E+02 5.21652E-11 2.12204E-12 5.39216E-12-2.96846E-15
 -1         8-2.03612E+02-2.03612E+02 3.75542E-11-3.64082E-12 2.86352E-12-1.53604E-12
 -1         9-2.03612E+02-2.03612E+02 3.12609E-11 6.03923E-12 2.42371E-12 3.49125E-12
 -1        10-2.03612E+02-2.03612E+02 2.77968E-11-9.61105E-12 2.68758E-12 8.68063E-12
 -1        11-2.03612E+02-2.03612E+02 3.13137E-11 7.02114E-12-6.10835E-13-8.79191E-12
 -1        12-3.05418E+02-3.05418E+02 3.51083E-11-1.56551E-11 8.37738E-12 2.20669E-14
 -1        13-3.05418E+02-3.05418E+02 8.44388E-11 4.77048E-12-8.42837E-13-8.79786E-16
 -1        14-2.03612E+02-2.03612E+02 4.48784E-11-7.01349E-12 1.56753E-12-5.46548E-12
 -1        15-2.03612E+02-2.03612E+02 6.53734E-11 1.08252E-11 2.97472E-12 1.02728E-11
 -1        16-2.03612E+02-2.03612E+02 5.13890E-11-1.15912E-11 8.56855E-13 3.51214E-12
 -1        17-2.03612E+02-2.03612E+02 3.37968E-11 1.11596E-11-1.09429E-12-5.49913E-12
 -1        18-3.05418E+02-3.05418E+02 6.90050E-11 2.56149E-12-1.11552E-11 2.09118E-13
 -1        19-3.05418E+02-3.05418E+02 6.47653E-11-2.31591E-11-2.31495E-12 5.17028E-15
 -1        20-2.03612E+02-2.03612E+02 1.00474E-11-2.56332E-11 1.73840E-11 1.47399E-12
 -1        21-2.03612E+02-2.03612E+02 1.68278E-11 1.24248E-11 9.79683E-12-2.33806E-12
 -1        22-2.03612E+02-2.03612E+02 1.51361E-11-9.82763E-12 9.55116E-12 2.27964E-12
 -1        23-2.03612E+02-2.03612E+02 2.43962E-11 2.39794E-11 1.01981E-11 2.64780E-12
 -1        24-3.05418E+02-3.05418E+02 7.91688E-11 2.14137E-11-1.68752E-11 1.25720E-13
 -1        25-3.05418E+02-3.05418E+02 7.28839E-11 2.76473E-11 6.34838E-12-4.10664E-15
 -1        26-2.03612E+02-2.03612E+02 6.35048E-12 2.03802E-11-1.52752E-11 7.65931E-12
 -1        27-2.03612E+02-2.03612E+02 2.59133E-11-8.00933E-12-7.24068E-12 4.47448E-13
 -1        28-2.03612E+02-2.03612E+02 3.71208E-12 4.92878E-12-3.70100E-12 1.83660E-11
 -1        29-2.03612E+02-2.03612E+02 5.28213E-12-1.94442E-11-9.07175E-12-1.44153E-11
 -1        30-3.05418E+02-3.05418E+02 8.34403E-11-2.64274E-11 1.53158E-11 6.19033E-13
 -1        31-6.10836E+02-6.10836E+02 1.50779E-10-1.29403E-13-4.80663E-15 1.11563E-14
 -1        32-3.05418E+02-3.05418E+02 3.92015E-11 2.85829E-12-1.77437E-13 5.05052E-12
 -1        33-3.05418E+02-3.05418E+02 7.93085E-11-1.07787E-11-5.50358E-14 1.28264E-11
 -1        34-3.05418E+02-3.05418E+02 4.13525E-11 8.76781E-12-7.07594E-14 1.80379E-11
 -1        35-3.05418E+02-3.05418E+02 2.05696E-11-2.19331E-12 8.99699E-13-1.95813E-11
 -1        36-6.10836E+02-6.10836E+02 1.45079E-10-5.00371E-13-5.43217E-13-9.25880E-13
 -1        37-6.10836E+02-6.10836E+02 1.76637E-10-1.34448E-14-2.85953E-12-4.18652E-12
 -1        38-3.05418E+02-3.05418E+02 8.42513E-11-1.72208E-11 1.03517E-12 2.57396E-12
 -1        39-3.05418E+02-3.05418E+02 6.65768E-11 1.25448E-11 5.80428E-12-2.47959E-12
 -1        40-3.05418E+02-3.05418E+02 8.70237E-11 5.25007E-12-3.97715E-12-7.25291E-12
 -1        41-3.05418E+02-3.05418E+02 6.94473E-11-5.94572E-12-2.14644E-12 1.00954E-11
 -1        42-6.10836E+02-6.10836E+02 1.33009E-10-1.20443E-12 4.18077E-12 8.99717E-13
 -1        43-3.05418E+02-3.05418E+02 5.86977E-11 6.27162E-13 3.96156E-12 3.80942E-13
 -1        44-2.03612E+02-2.03612E+02 4.03236E-11-1.10580E-11 3.55094E-12-1.28010E-12
 -1        45-2.03612E+02-2.03612E+02 4.62793E-11 1.52632E-11 6.29639E-12-1.82688E-12
 -1        46-2.03612E+02-2.03612E+02 4.32670E-11 1.04157E-11 3.22899E-14 2.89706E-12
 -1        47-2.03612E+02-2.03612E+02 4.85940E-11-5.94401E-12-2.04687E-12-5.84788E-12
 -1        48-3.05418E+02-3.05418E+02 8.04885E-11-2.54108E-12 1.04785E-11 4.56174E-12
 -1        49-3.05418E+02-3.05418E+02 6.33983E-11 8.75502E-12 5.85339E-13 9.91495E-12
 -1        50-2.03612E+02-2.03612E+02 6.73404E-11 5.24395E-12-6.09727E-12 1.13520E-12
 -1        51-2.03612E+02-2.03612E+02 6.48497E-11-9.99758E-12-2.89571E-12 3.77805E-12
 -1        52-2.03612E+02-2.03612E+02 5.60111E-11-1.60260E-11 4.10345E-14-3.21589E-12
 -1        53-2.03612E+02-2.03612E+02 6.85251E-11 1.28562E-11 1.27101E-12-7.71125E-12
 -1        54-3.05418E+02-3.05418E+02 7.32357E-11-1.16856E-11 1.24157E-12-4.64188E-12
 -1        55-3.05418E+02-3.05418E+02 6.57827E-11 1.67710E-11-9.49271E-13-3.02078E-12
 -1        56-2.03612E+02-2.03612E+02 4.66205E-11 1.05879E-11 9.87469E-12-5.32330E-13
 -1        57-2.03612E+02-2.03612E+02 4.06607E-11-5.27320E-12 4.10961E-12-4.09615E-12
 -1        58-2.03612E+02-2.03612E+02 4.41147E-11-1.12578E-11 8.54887E-12 8.94959E-13
 -1        59-2.03612E+02-2.03612E+02 4.27683E-11 5.35649E-12 1.27199E-11 5.82543E-12
 -1        60-3.05418E+02-3.05418E+02 5.76769E-11-2.34927E-11-4.36023E-12 4.76990E-12
 -1        61-3.05418E+02-3.05418E+02 8.38645E-11-1.25418E-11 5.49822E-12-8.28063E-12
 -1        62-2.03612E+02-2.03612E+02 5.42541E-11-1.23342E-11-8.69031E-12 2.13485E-12
 -1        63-2.03612E+02-2.03612E+02 7.84703E-11 8.00951E-12-3.77409E-12-8.69360E-12
 -1        64-2.03612E+02-2.03612E+02 4.88781E-11 1.07653E-12-2.23594E-12 9.10702E-12
 -1        65-2.03612E+02-2.03612E+02 5.32287E-11 8.57040E-12-5.96158E-12-5.53287E-12
 -1        66-3.05418E+02-3.05418E+02 9.66503E-11 1.14223E-11 9.75989E-12 1.40503E-11
 -1        67-6.10836E+02-6.10836E+02 1.44920E-10 1.10235E-13-1.59111E-12 5.22542E-12
 -1        68-3.05418E+02-3.05418E+02 9.80378E-11-5.90440E-12 9.98440E-12 7.66454E-12
 -1        69-3.05418E+02-3.05418E+02 1.12324E-10 5.57126E-12 4.10337E-12-3.20027E-12
 -1        70-3.05418E+02-3.05418E+02 6.29841E-11-4.73383E-12 2.53291E-12 1.92537E-12
 -1        71-3.05418E+02-3.05418E+02 8.90108E-11 5.93916E-13 4.18412E-12-1.49034E-11
 -1        72-6.10836E+02-6.10836E+02 1.66621E-10 3.28463E-13-1.02988E-11 8.37216E-12
 -3
    1PSTEP                       270          90           1          
  100CL  190 7.68781E-01          72                     0   90           1
 -4  TOSTRAIN    6    1
 -5  EXX         1    4    1    1
 -5  EYY         1    4    2    2
 -5  EZZ         1    4    3    3
 -5  EXY         1    4    1    2
 -5  EYZ         1    4    2    3
 -5  EZX         1    4    3    1
 -1         1-2.03968E-03-2.03968E-03 1.74829E-03-4.74284E-21 1.06535E-20 1.15811E-20
 -1         2-1.01984E-03-1.01984E-03 8.74147E-04-4.73889E-17 2.50888E-20 2.88391E-17
 -1         3-1.01984E-03-1.01984E-03 8.74147E-04-4.20815E-18-2.56230E-20-2.69908E-17
 -1         4-1.01984E-03-1.01984E-03 8.74147E-04-1.51892E-16 2.18490E-20-5.56803E-17
 -1         5-1.01984E-03-1.01984E-03 8.74147E-04 1.62817E-16 1.22958E-20 6.19248E-17
 -1         6-2.03968E-03-2.03968E-03 1.74829E-03 3.46149E-18-6.38399E-20-1.91521E-18
 -1         7-1.01984E-03-1.01984E-03 8.74147E-04 1.32603E-17 3.33120E-17-1.85390E-20
 -1         8-6.79892E-04-6.79892E-04 5.82765E-04-2.27508E-17 1.76904E-17-9.48952E-18
 -1         9-6.79892E-04-6.79892E-04 5.82765E-04 3.77381E-17 1.49733E-17 2.15683E-17
 -1        10-6.79892E-04-6.79892E-04 5.82765E-04-6.00578E-17 1.66033E-17 5.36274E-17
 -1        11-6.79892E-04-6.79892E-04 5.82765E-04 4.38739E-17-3.77345E-18-5.43151E-17
 -1        12-1.01984E-03-1.01984E-03 8.74147E-04-9.78260E-17 5.17538E-17 1.36174E-19
 -1        13-1.01984E-03-1.01984E-03 8.74147E-04 2.98099E-17-5.20704E-18-5.40744E-21
 -1        14-6.79892E-04-6.79892E-04 5.82765E-04-4.38261E-17 9.68404E-18-3.37648E-17
 -1        15-6.79892E-04-6.79892E-04 5.82765E-04 6.76446E-17 1.83774E-17 6.34636E-17
 -1        16-6.79892E-04-6.79892E-04 5.82765E-04-7.24312E-17 5.29344E-18 2.16974E-17
 -1        17-6.79892E-04-6.79892E-04 5.82765E-04 6.97345E-17-6.76027E-18-3.39730E-17
 -1        18-1.01984E-03-1.01984E-03 8.74147E-04 1.60063E-17-6.89151E-17 1.29152E-18
 -1        19-1.01984E-03-1.01984E-03 8.74147E-04-1.44717E-16-1.43015E-17 3.20833E-20
 -1        20-6.79892E-04-6.79892E-04 5.82765E-04-1.60178E-16 1.07395E-16 9.10619E-18
 -1        21-6.79892E-04-6.79892E-04 5.82765E-04 7.76406E-17 6.05233E-17-1.44441E-17
 -1        22-6.79892E-04-6.79892E-04 5.82765E-04-6.14112E-17 5.90055E-17 1.40833E-17
 -1        23-6.79892E-04-6.79892E-04 5.82765E-04 1.49843E-16 6.30020E-17 1.63580E-17
 -1        24-1.01984E-03-1.01984E-03 8.74147E-04 1.33810E-16-1.04252E-16 7.77082E-19
 -1        25-1.01984E-03-1.01984E-03 8.74147E-04 1.72763E-16 3.92195E-17-2.52654E-20
 -1        26-6.79892E-04-6.79892E-04 5.82765E-04 1.27352E-16-9.43678E-17 4.73180E-17
 -1        27-6.79892E-04-6.79892E-04 5.82765E-04-5.00489E-17-4.47318E-17 2.76422E-18
 -1        28-6.79892E-04-6.79892E-04 5.82765E-04 3.07991E-17-2.28642E-17 1.13462E-16
 -1        29-6.79892E-04-6.79892E-04 5.82765E-04-1.21504E-16-5.60438E-17-8.90551E-17
 -1        30-1.01984E-03-1.01984E-03 8.74147E-04-1.65140E-16 9.46184E-17 3.82454E-18
 -1        31-2.03968E-03-2.03968E-03 1.74829E-03-8.08618E-19-2.91203E-20 6.88689E-20
 -1        32-1.01984E-03-1.01984E-03 8.74147E-04 1.78610E-17-1.09645E-18 3.12012E-17
 -1        33-1.01984E-03-1.01984E-03 8.74147E-04-6.73544E-17-3.40136E-19 7.92394E-17
 -1        34-1.01984E-03-1.01984E-03 8.74147E-04 5.47885E-17-4.37212E-19 1.11435E-16
 -1        35-1.01984E-03-1.01984E-03 8.74147E-04-1.37056E-17 5.55821E-18-1.20970E-16
 -1        36-2.03968E-03-2.03968E-03 1.74829E-03-3.12673E-18-3.35602E-18-5.72017E-18
 -1        37-2.03968E-03-2.03968E-03 1.74829E-03-8.40145E-20-1.77999E-17-2.60604E-17
 -1        38-1.01984E-03-1.01984E-03 8.74147E-04-1.07610E-16 6.44372E-18 1.58031E-17
 -1        39-1.01984E-03-1.01984E-03 8.74147E-04 7.83901E-17 3.61308E-17-1.52329E-17
 -1        40-1.01984E-03-1.01984E-03 8.74147E-04 3.28068E-17-2.47573E-17-4.47217E-17
 -1        41-1.01984E-03-1.01984E-03 8.74147E-04-3.71538E-17-1.33612E-17 6.23882E-17
 -1        42-2.03968E-03-2.03968E-03 1.74829E-03-7.52627E-18 2.60244E-17 5.59883E-18
 -1        43-1.01984E-03-1.01984E-03 8.74147E-04 3.91903E-18 2.44067E-17 2.37124E-18
 -1        44-6.79892E-04-6.79892E-04 5.82765E-04-6.90993E-17 2.19695E-17-7.89633E-18
 -1        45-6.79892E-04-6.79892E-04 5.82765E-04 9.53772E-17 3.90801E-17-1.15357E-17
 -1        46-6.79892E-04-6.79892E-04 5.82765E-04 6.50858E-17 7.45716E-20 1.76481E-17
 -1        47-6.79892E-04-6.79892E-04 5.82765E-04-3.71431E-17-1.27126E-17-3.59806E-17
 -1        48-1.01984E-03-1.01984E-03 8.74147E-04-1.58788E-17 6.48334E-17 2.84017E-17
 -1        49-1.01984E-03-1.01984E-03 8.74147E-04 5.47086E-17 3.68341E-18 6.17189E-17
 -1        50-6.79892E-04-6.79892E-04 5.82765E-04 3.27685E-17-3.80288E-17 7.32372E-18
 -1        51-6.79892E-04-6.79892E-04 5.82765E-04-6.24731E-17-1.81587E-17 2.30352E-17
 -1        52-6.79892E-04-6.79892E-04 5.82765E-04-1.00144E-16 2.09652E-19-2.01722E-17
 -1        53-6.79892E-04-6.79892E-04 5.82765E-04 8.03365E-17 7.96121E-18-4.77766E-17
 -1        54-1.01984E-03-1.01984E-03 8.74147E-04-7.30211E-17 8.27433E-18-2.88833E-17
 -1        55-1.01984E-03-1.01984E-03 8.74147E-04 1.04799E-16-5.79716E-18-1.88039E-17
 -1        56-6.79892E-04-6.79892E-04 5.82765E-04 6.61622E-17 6.06434E-17-3.38334E-18
 -1        57-6.79892E-04-6.79892E-04 5.82765E-04-3.29513E-17 2.51191E-17-2.53849E-17
 -1        58-6.79892E-04-6.79892E-04 5.82765E-04-7.03478E-17 5.27694E-17 5.44934E-18
 -1        59-6.79892E-04-6.79892E-04 5.82765E-04 3.34718E-17 7.86904E-17 3.61436E-17
 -1        60-1.01984E-03-1.01984E-03 8.74147E-04-1.46802E-16-2.63320E-17 2.97003E-17
 -1        61-1.01984E-03-1.01984E-03 8.74147E-04-7.83714E-17 3.39296E-17-5.15454E-17
 -1        62-6.79892E-04-6.79892E-04 5.82765E-04-7.70742E-17-5.33710E-17 1.29294E-17
 -1        63-6.79892E-04-6.79892E-04 5.82765E-04 5.00501E-17-2.31772E-17-5.41449E-17
 -1        64-6.79892E-04-6.79892E-04 5.82765E-04 6.72707E-18-1.37395E-17 5.58244E-17
 -1        65-6.79892E-04-6.79892E-04 5.82765E-04 5.35550E-17-3.67072E-17-3.37550E-17
 -1        66-1.01984E-03-1.01984E-03 8.74147E-04 7.13762E-17 6.00546E-17 8.74398E-17
 -1        67-2.03968E-03-2.03968E-03 1.74829E-03 6.88841E-19-9.90471E-18 3.25272E-17
 -1        68-1.01984E-03-1.01984E-03 8.74147E-04-3.68956E-17 6.21564E-17 4.74730E-17
 -1        69-1.01984E-03-1.01984E-03 8.74147E-04 3.48138E-17 2.55577E-17-2.05223E-17
 -1        70-1.01984E-03-1.01984E-03 8.74147E-04-2.95809E-17 1.57583E-17 1.11431E-17
 -1        71-1.01984E-03-1.01984E-03 8.74147E-04 3.71128E-18 2.60325E-17-9.18545E-17
 -1        72-2.03968E-03-2.03968E-03 1.74829E-03 2.05251E-18-6.41048E-17 5.21545E-17
 -3
    1PSTEP                       271          91           1          
  100CL  191 7.77781E-01          72                     0   91           1
 -4  DISP        4    1
 -5  D1          1    2    1    0
 -5  D2          1    2    2    0
 -5  D3          1    2    3    0
 -5  ALL         1    2    0    0    1ALL
 -1         1 0.00000E+00 0.00000E+00 0.00000E+00
 -1         2-1.11089E+00 0.00000E+00 0.00000E+00
 -1         3-1.11113E+01 0.00000E+00 0.00000E+00
 -1         4-1.22222E+01 0.00000E+00 0.00000E+00
 -1         5-2.22226E+01 0.00000E+00 0.00000E+00
 -1         6-2.33334E+01 0.00000E+00 0.00000E+00
 -1         7 0.00000E+00-1.11089E+00 0.00000E+00
 -1         8-1.11089E+00-1.11089E+00 0.00000E+00
 -1         9-1.11113E+01-1.11089E+00 0.00000E+00
 -1        10-1.22222E+01-1.11089E+00 0.00000E+00
 -1        11-2.22226E+01-1.11089E+00 0.00000E+00
 -1        12-2.33334E+01-1.11089E+00 0.00000E+00
 -1        13 0.00000E+00-1.11113E+01 0.00000E+00
 -1        14-1.11089E+00-1.11113E+01 0.00000E+00
 -1        15-1.11113E+01-1.11113E+01 0.00000E+00
 -1        16-1.22222E+01-1.11113E+01 0.00000E+00
 -1        17-2.22226E+01-1.11113E+01 0.00000E+00
 -1        18-2.33334E+01-1.11113E+01 0.00000E+00
 -1        19 0.00000E+00-1.22222E+01 0.00000E+00
 -1        20-1.11089E+00-1.22222E+01 0.00000E+00
 -1        21-1.11113E+01-1.22222E+01 0.00000E+00
 -1        22-1.22222E+01-1.22222E+01 0.00000E+00
 -1        23-2.22226E+01-1.22222E+01 0.00000E+00
 -1        24-2.33334E+01-1.22222E+01 0.00000E+00
 -1        25 0.00000E+00-2.22226E+01 0.00000E+00
 -1        26-1.11089E+00-2.22226E+01 0.00000E+00
 -1        27-1.11113E+01-2.22226E+01 0.00000E+00
 -1        28-1.22222E+01-2.22226E+01 0.00000E+00
 -1        29-2.22226E+01-2.22226E+01 0.00000E+00
 -1        30-2.33334E+01-2.22226E+01 0.00000E+00
 -1        31 0.00000E+00-2.33334E+01 0.00000E+00
 -1        32-1.11089E+00-2.33334E+01 0.00000E+00
 -1        33-1.11113E+01-2.33334E+01 0.00000E+00
 -1        34-1.22222E+01-2.33334E+01 0.00000E+00
 -1        35-2.22226E+01-2.33334E+01 0.00000E+00
 -1        36-2.33334E+01-2.33334E+01 0.00000E+00
 -1        37 0.00000E+00 0.00000E+00 1.33032E+00
 -1        38-1.11089E+00 0.00000E+00 1.33032E+00
 -1        39-1.11113E+01 0.00000E+00 1.33032E+00
 -1        40-1.22222E+01 0.00000E+00 1.33032E+00
 -1        41-2.22226E+01 0.00000E+00 1.33032E+00
 -1        42-2.33334E+01 0.00000E+00 1.33032E+00
 -1        43 0.00000E+00-1.11089E+00 1.33032E+00
 -1        44-1.11089E+00-1.11089E+00 1.33032E+00
 -1        45-1.11113E+01-1.11089E+00 1.33032E+00
 -1        46-1.22222E+01-1.11089E+00 1.33032E+00
 -1        47-2.22226E+01-1.11089E+00 1.33032E+00
 -1        48-2.33334E+01-1.11089E+00 1.33032E+00
 -1        49 0.00000E+00-1.11113E+01 1.33032E+00
 -1        50-1.11089E+00-1.11113E+01 1.33032E+00
 -1        51-1.11113E+01-1.11113E+01 1.33032E+00
 -1        52-1.22222E+01-1.11113E+01 1.33032E+00
 -1        53-2.22226E+01-1.11113E+01 1.33032E+00
 -1        54-2.33334E+01-1.11113E+01 1.33032E+00
 -1        55 0.00000E+00-1.22222E+01 1.33032E+00
 -1        56-1.11089E+00-1.22222E+01 1.33032E+00
 -1        57-1.11113E+01-1.22222E+01 1.33032E+00
 -1        58-1.22222E+01-1.22222E+01 1.33032E+00
 -1        59-2.22226E+01-1.22222E+01 1.33032E+00
 -1        60-2.33334E+01-1.22222E+01 1.33032E+00
 -1        61 0.00000E+00-2.22226E+01 1.33032E+00
 -1        62-1.11089E+00-2.22226E+01 1.33032E+00
 -1        63-1.11113E+01-2.22226E+01 1.33032E+00
 -1        64-1.22222E+01-2.22226E+01 1.33032E+00
 -1        65-2.22226E+01-2.22226E+01 1.33032E+00
 -1        66-2.33334E+01-2.22226E+01 1.33032E+00
 -1        67 0.00000E+00-2.33334E+01 1.33032E+00
 -1        68-1.11089E+00-2.33334E+01 1.33032E+00
 -1        69-1.11113E+01-2.33334E+01 1.33032E+00
 -1        70-1.22222E+01-2.33334E+01 1.33032E+00
 -1        71-2.22226E+01-2.33334E+01 1.33032E+00
 -1        72-2.33334E+01-2.33334E+01 1.33032E+00
 -3
    1PSTEP                       272          91           1          
  100CL  191 7.77781E-01          72                     0   91           1
 -4  STRESS      6    1
 -5  SXX         1    4    1    1
 -5  SYY         1    4    2    2
 -5  SZZ         1    4    3    3
 -5  SXY         1    4    1    2
 -5  SYZ         1    4    2    3
 -5  SZX         1    4    3    1
 -1         1-6.64502E+02-6.64502E+02 1.18632E-10 4.45885E-15 5.13518E-15-7.91782E-15
 -1         2-3.32251E+02-3.32251E+02 5.41208E-11-2.18725E-12-1.30452E-15 4.37424E-12
 -1         3-3.32251E+02-3.32251E+02 5.63537E-11-2.51021E-12-9.90153E-15-6.94337E-12
 -1         4-3.32251E+02-3.32251E+02 8.10291E-11-1.92972E-11-7.02417E-15-1.20005E-11
 -1         5-3.32251E+02-3.32251E+02 8.18758E-11 1.94244E-11 4.99655E-15 1.02775E-11
 -1         6-6.64502E+02-6.64502E+02 1.28807E-10 8.21769E-13-1.55087E-14-4.95123E-13
 -1         7-3.32251E+02-3.32251E+02 5.20783E-11-1.68255E-12 2.98813E-12-3.08916E-15
 -1         8-2.21501E+02-2.21501E+02 3.54997E-11-2.58136E-12 2.84096E-12-2.98819E-12
 -1         9-2.21501E+02-2.21501E+02 2.77404E-11 2.42655E-12 2.04749E-12 1.88936E-12
 -1        10-2.21501E+02-2.21501E+02 2.96607E-11-8.68291E-12 3.91520E-12 2.33551E-12
 -1        11-2.21501E+02-2.21501E+02 3.14498E-11 7.42477E-12 6.40341E-13-4.26095E-12
 -1        12-3.32251E+02-3.32251E+02 4.06226E-11-8.24609E-12 2.90202E-12 1.77493E-13
 -1        13-3.32251E+02-3.32251E+02 7.92203E-11 8.83719E-12 8.03953E-13 1.40878E-14
 -1        14-2.21501E+02-2.21501E+02 4.37562E-11-6.40571E-12 7.90324E-13-6.94084E-12
 -1        15-2.21501E+02-2.21501E+02 5.52791E-11 1.13712E-11 1.77586E-12 7.34520E-12
 -1        16-2.21501E+02-2.21501E+02 4.89460E-11-8.44853E-12-1.64258E-12-1.39944E-12
 -1        17-2.21501E+02-2.21501E+02 2.90442E-11 6.22819E-12-2.34722E-12-1.85908E-12
 -1        18-3.32251E+02-3.32251E+02 6.79976E-11 4.10528E-13-6.99141E-12-3.54291E-13
 -1        19-3.32251E+02-3.32251E+02 5.50035E-11-1.58809E-11-1.69925E-12-1.27228E-15
 -1        20-2.21501E+02-2.21501E+02 8.70350E-12-2.28844E-11 1.50665E-11 1.12743E-12
 -1        21-2.21501E+02-2.21501E+02 1.41010E-11 1.24858E-11 8.82479E-12-3.52033E-12
 -1        22-2.21501E+02-2.21501E+02 2.17258E-11-7.12713E-12 5.81556E-12-1.41237E-12
 -1        23-2.21501E+02-2.21501E+02 2.50425E-11 2.44616E-11 9.60611E-12 5.16278E-12
 -1        24-3.32251E+02-3.32251E+02 8.26684E-11 2.76671E-11-1.89815E-11 5.75799E-13
 -1        25-3.32251E+02-3.32251E+02 6.23645E-11 2.17772E-11 6.52881E-12 1.79322E-15
 -1        26-2.21501E+02-2.21501E+02 5.59815E-12 1.72882E-11-1.27420E-11 8.39409E-12
 -1        27-2.21501E+02-2.21501E+02 2.58732E-11-7.75309E-12-5.43981E-12-7.24234E-13
 -1        28-2.21501E+02-2.21501E+02 7.13679E-12-5.28590E-13-1.75486E-12 1.53440E-11
 -1        29-2.21501E+02-2.21501E+02 7.12342E-12-1.64341E-11-7.96840E-12-1.13895E-11
 -1        30-3.32251E+02-3.32251E+02 9.26304E-11-3.33858E-11 2.04474E-11 1.95766E-13
 -1        31-6.64502E+02-6.64502E+02 1.29795E-10-9.74132E-14-4.95166E-13-7.79506E-15
 -1        32-3.32251E+02-3.32251E+02 3.63123E-11 4.10643E-12 3.50717E-13 4.25696E-12
 -1        33-3.32251E+02-3.32251E+02 6.86099E-11-1.06329E-11 6.90903E-13 1.31883E-11
 -1        34-3.32251E+02-3.32251E+02 2.72283E-11-1.94789E-13-6.58538E-13 2.09156E-11
 -1        35-3.32251E+02-3.32251E+02 1.63855E-12 9.61865E-12 2.06505E-13-2.39381E-11
 -1        36-6.64502E+02-6.64502E+02 1.26909E-10 7.45036E-13-3.69855E-13-7.58959E-13
 -1        37-6.64502E+02-6.64502E+02 1.49600E-10-1.43751E-14-2.92410E-12-1.97564E-12
 -1        38-3.32251E+02-3.32251E+02 7.25388E-11-1.43734E-11 8.46004E-13 3.39278E-12
 -1        39-3.32251E+02-3.32251E+02 5.17240E-11 9.79022E-12 4.23522E-12-8.78389E-13
 -1        40-3.32251E+02-3.32251E+02 8.22342E-11 2.72604E-12-4.36840E-12-6.06753E-12
 -1        41-3.32251E+02-3.32251E+02 6.23711E-11-2.21289E-12-1.45449E-12 8.04197E-12
 -1        42-6.64502E+02-6.64502E+02 9.72227E-11-9.52207E-13 5.54970E-12-3.87930E-12
 -1        43-3.32251E+02-3.32251E+02 4.92162E-11 6.91141E-14 1.55940E-12 1.36358E-12
 -1        44-2.21501E+02-2.21501E+02 3.49533E-11-9.53143E-12 3.39942E-12-2.08306E-12
 -1        45-2.21501E+02-2.21501E+02 3.38067E-11 1.31811E-11 4.91430E-12-4.28538E-15
 -1        46-2.21501E+02-2.21501E+02 3.96168E-11 8.49360E-12 9.53427E-13 6.87518E-13
 -1        47-2.21501E+02-2.21501E+02 4.15154E-11-5.44657E-12-3.08297E-13-2.55044E-12
 -1        48-3.32251E+02-3.32251E+02 5.97310E-11-5.54446E-12 5.64153E-12 2.33117E-12
 -1        49-3.32251E+02-3.32251E+02 5.16972E-11 9.34766E-12 2.54609E-12 9.41418E-12
 -1        50-2.21501E+02-2.21501E+02 5.91276E-11 5.06002E-12-5.76259E-12-6.32245E-13
 -1        51-2.21501E+02-2.21501E+02 5.09220E-11-8.86980E-12-2.32039E-12 4.06876E-12
 -1        52-2.21501E+02-2.21501E+02 4.65338E-11-1.36244E-11-4.02156E-13-4.61179E-12
 -1        53-2.21501E+02-2.21501E+02 5.81508E-11 1.26325E-11-3.10428E-13-6.49904E-12
 -1        54-3.32251E+02-3.32251E+02 5.06426E-11-4.50264E-12 3.51507E-12-6.64509E-12
 -1        55-3.32251E+02-3.32251E+02 5.33481E-11 1.80221E-11-2.34928E-13-1.94541E-12
 -1        56-2.21501E+02-2.21501E+02 4.09237E-11 1.08430E-11 8.70757E-12-1.79880E-13
 -1        57-2.21501E+02-2.21501E+02 3.21681E-11-6.21651E-12 4.54337E-12-1.26439E-12
 -1        58-2.21501E+02-2.21501E+02 4.17379E-11-1.13335E-11 6.91827E-12 6.04323E-13
 -1        59-2.21501E+02-2.21501E+02 3.85281E-11 3.88886E-12 1.16138E-11 6.51837E-12
 -1        60-3.32251E+02-3.32251E+02 4.06929E-11-1.82509E-11-8.06342E-12 1.23073E-12
 -1        61-3.32251E+02-3.32251E+02 7.62918E-11-1.27573E-11 4.04160E-12-8.60931E-12
 -1        62-2.21501E+02-2.21501E+02 4.93090E-11-1.34321E-11-6.77432E-12 2.65838E-12
 -1        63-2.21501E+02-2.21501E+02 6.93115E-11 8.68339E-12-1.56037E-12-8.31064E-12
 -1        64-2.21501E+02-2.21501E+02 4.45840E-11 2.25397E-12-2.69949E-12 7.48925E-12
 -1        65-2.21501E+02-2.21501E+02 4.57709E-11 6.44009E-12-5.98349E-12-3.04385E-12
 -1        66-3.32251E+02-3.32251E+02 8.29353E-11 9.85834E-12 1.47266E-11 1.19785E-11
 -1        67-6.64502E+02-6.64502E+02 1.21920E-10 1.61152E-13-2.69346E-12 3.15930E-12
 -1        68-3.32251E+02-3.32251E+02 8.49056E-11-7.31025E-12 8.59725E-12 5.79685E-12
 -1        69-3.32251E+02-3.32251E+02 1.01613E-10 7.99290E-12 4.73136E-12-3.70813E-12
 -1        70-3.32251E+02-3.32251E+02 5.15418E-11-2.00497E-12 5.84771E-13 4.52667E-12
 -1        71-3.32251E+02-3.32251E+02 7.60342E-11-1.20867E-12 2.21930E-12-1.98380E-11
 -1        72-6.64502E+02-6.64502E+02 1.45718E-10-1.67734E-13-1.05790E-11 9.70071E-12
 -3
    1PSTEP                       273          91           1          
  100CL  191 7.77781E-01          72                     0   91           1
 -4  TOSTRAIN    6    1
 -5  EXX         1    4    1    1
 -5  EYY         1    4    2    2
 -5  EZZ         1    4    3    3
 -5  EXY         1    4    1    2
 -5  EYZ         1    4    2    3
 -5  EZX         1    4    3    1
 -1         1-2.21922E-03-2.21922E-03 1.90218E-03 2.78858E-20 3.14163E-20-4.87738E-20
 -1         2-1.10961E-03-1.10961E-03 9.51092E-04-1.36791E-17-7.98453E-21 2.70185E-17
 -1         3-1.10961E-03-1.10961E-03 9.51092E-04-1.56989E-17-6.15918E-20-4.28871E-17
 -1         4-1.10961E-03-1.10961E-03 9.51092E-04-1.20685E-16-4.37316E-20-7.41234E-17
 -1         5-1.10961E-03-1.10961E-03 9.51092E-04 1.21481E-16 3.08024E-20 6.34814E-17
 -1         6-2.21922E-03-2.21922E-03 1.90218E-03 5.13937E-18-9.58410E-20-3.05794E-18
 -1         7-1.10961E-03-1.10961E-03 9.51092E-04-1.05227E-17 1.84567E-17-1.92146E-20
 -1         8-7.39738E-04-7.39738E-04 6.34062E-04-1.61439E-17 1.75479E-17-1.84573E-17
 -1         9-7.39738E-04-7.39738E-04 6.34062E-04 1.51757E-17 1.26464E-17 1.16699E-17
 -1        10-7.39738E-04-7.39738E-04 6.34062E-04-5.43031E-17 2.41834E-17 1.44257E-17
 -1        11-7.39738E-04-7.39738E-04 6.34062E-04 4.64347E-17 3.95512E-18-2.63189E-17
 -1        12-1.10961E-03-1.10961E-03 9.51092E-04-5.15712E-17 1.79252E-17 1.09614E-18
 -1        13-1.10961E-03-1.10961E-03 9.51092E-04 5.52680E-17 4.96566E-18 8.70963E-20
 -1        14-7.39738E-04-7.39738E-04 6.34062E-04-4.00615E-17 4.88176E-18-4.28716E-17
 -1        15-7.39738E-04-7.39738E-04 6.34062E-04 7.11158E-17 1.09692E-17 4.53693E-17
 -1        16-7.39738E-04-7.39738E-04 6.34062E-04-5.28373E-17-1.01460E-17-8.64398E-18
 -1        17-7.39738E-04-7.39738E-04 6.34062E-04 3.89513E-17-1.44982E-17-1.14830E-17
 -1        18-1.10961E-03-1.10961E-03 9.51092E-04 2.56745E-18-4.31844E-17-2.18833E-18
 -1        19-1.10961E-03-1.10961E-03 9.51092E-04-9.93193E-17-1.04959E-17-7.87385E-21
 -1        20-7.39738E-04-7.39738E-04 6.34062E-04-1.43120E-16 9.30619E-17 6.96383E-18
 -1        21-7.39738E-04-7.39738E-04 6.34062E-04 7.80867E-17 5.45085E-17-2.17442E-17
 -1        22-7.39738E-04-7.39738E-04 6.34062E-04-4.45732E-17 3.59209E-17-8.72396E-18
 -1        23-7.39738E-04-7.39738E-04 6.34062E-04 1.52984E-16 5.93341E-17 3.18891E-17
 -1        24-1.10961E-03-1.10961E-03 9.51092E-04 1.73031E-16-1.17243E-16 3.55655E-18
 -1        25-1.10961E-03-1.10961E-03 9.51092E-04 1.36195E-16 4.03266E-17 1.10153E-20
 -1        26-7.39738E-04-7.39738E-04 6.34062E-04 1.08121E-16-7.87040E-17 5.18479E-17
 -1        27-7.39738E-04-7.39738E-04 6.34062E-04-4.84880E-17-3.36002E-17-4.47332E-18
 -1        28-7.39738E-04-7.39738E-04 6.34062E-04-3.30581E-18-1.08392E-17 9.47755E-17
 -1        29-7.39738E-04-7.39738E-04 6.34062E-04-1.02779E-16-4.92187E-17-7.03500E-17
 -1        30-1.10961E-03-1.10961E-03 9.51092E-04-2.08795E-16 1.26298E-16 1.20913E-18
 -1        31-2.21922E-03-2.21922E-03 1.90218E-03-6.09224E-19-3.05862E-18-4.74366E-20
 -1        32-1.10961E-03-1.10961E-03 9.51092E-04 2.56817E-17 2.16622E-18 2.62944E-17
 -1        33-1.10961E-03-1.10961E-03 9.51092E-04-6.64981E-17 4.26770E-18 8.14602E-17
 -1        34-1.10961E-03-1.10961E-03 9.51092E-04-1.21822E-18-4.06811E-18 1.29189E-16
 -1        35-1.10961E-03-1.10961E-03 9.51092E-04 6.01553E-17 1.27572E-18-1.47859E-16
 -1        36-2.21922E-03-2.21922E-03 1.90218E-03 4.65947E-18-2.28620E-18-4.68756E-18
 -1        37-2.21922E-03-2.21922E-03 1.90218E-03-8.99025E-20-1.82107E-17-1.23033E-17
 -1        38-1.10961E-03-1.10961E-03 9.51092E-04-8.98919E-17 5.26884E-18 2.09061E-17
 -1        39-1.10961E-03-1.10961E-03 9.51092E-04 6.12283E-17 2.63769E-17-5.11891E-18
 -1        40-1.10961E-03-1.10961E-03 9.51092E-04 1.70487E-17-2.72062E-17-3.71708E-17
 -1        41-1.10961E-03-1.10961E-03 9.51092E-04-1.38395E-17-9.05849E-18 4.95774E-17
 -1        42-2.21922E-03-2.21922E-03 1.90218E-03-5.95512E-18 3.45622E-17-2.41525E-17
 -1        43-1.10961E-03-1.10961E-03 9.51092E-04 4.32241E-19 9.55733E-18 8.49184E-18
 -1        44-7.39738E-04-7.39738E-04 6.34062E-04-5.96098E-17 2.10261E-17-1.28202E-17
 -1        45-7.39738E-04-7.39738E-04 6.34062E-04 8.24350E-17 3.04991E-17-1.15159E-19
 -1        46-7.39738E-04-7.39738E-04 6.34062E-04 5.31192E-17 5.73949E-18 4.15792E-18
 -1        47-7.39738E-04-7.39738E-04 6.34062E-04-3.40630E-17-1.95398E-18-1.56712E-17
 -1        48-1.10961E-03-1.10961E-03 9.51092E-04-3.46752E-17 3.49880E-17 1.45222E-17
 -1        49-1.10961E-03-1.10961E-03 9.51092E-04 5.84605E-17 1.58133E-17 5.86308E-17
 -1        50-7.39738E-04-7.39738E-04 6.34062E-04 3.16455E-17-3.59240E-17-3.58385E-18
 -1        51-7.39738E-04-7.39738E-04 6.34062E-04-5.54720E-17-1.45496E-17 2.49675E-17
 -1        52-7.39738E-04-7.39738E-04 6.34062E-04-8.52071E-17-2.42458E-18-2.86498E-17
 -1        53-7.39738E-04-7.39738E-04 6.34062E-04 7.90038E-17-1.81630E-18-4.03694E-17
 -1        54-1.10961E-03-1.10961E-03 9.51092E-04-2.81596E-17 2.22750E-17-4.13848E-17
 -1        55-1.10961E-03-1.10961E-03 9.51092E-04 1.12711E-16-1.36428E-18-1.21161E-17
 -1        56-7.39738E-04-7.39738E-04 6.34062E-04 6.78123E-17 5.34542E-17-1.17758E-18
 -1        57-7.39738E-04-7.39738E-04 6.34062E-04-3.88782E-17 2.78461E-17-7.69792E-18
 -1        58-7.39738E-04-7.39738E-04 6.34062E-04-7.08801E-17 4.27912E-17 3.84462E-18
 -1        59-7.39738E-04-7.39738E-04 6.34062E-04 2.43211E-17 7.18365E-17 4.03095E-17
 -1        60-1.10961E-03-1.10961E-03 9.51092E-04-1.14142E-16-4.92433E-17 7.67286E-18
 -1        61-1.10961E-03-1.10961E-03 9.51092E-04-7.97847E-17 2.48880E-17-5.36175E-17
 -1        62-7.39738E-04-7.39738E-04 6.34062E-04-8.40047E-17-4.15456E-17 1.61266E-17
 -1        63-7.39738E-04-7.39738E-04 6.34062E-04 5.43061E-17-9.45981E-18-5.17261E-17
 -1        64-7.39738E-04-7.39738E-04 6.34062E-04 1.40964E-17-1.66752E-17 4.58654E-17
 -1        65-7.39738E-04-7.39738E-04 6.34062E-04 4.02765E-17-3.68824E-17-1.83936E-17
 -1        66-1.10961E-03-1.10961E-03 9.51092E-04 6.16543E-17 9.06920E-17 7.45991E-17
 -1        67-2.21922E-03-2.21922E-03 1.90218E-03 1.00785E-18-1.67884E-17 1.96753E-17
 -1        68-1.10961E-03-1.10961E-03 9.51092E-04-4.57185E-17 5.35491E-17 3.58861E-17
 -1        69-1.10961E-03-1.10961E-03 9.51092E-04 4.99878E-17 2.94909E-17-2.37619E-17
 -1        70-1.10961E-03-1.10961E-03 9.51092E-04-1.25391E-17 3.61239E-18 2.71022E-17
 -1        71-1.10961E-03-1.10961E-03 9.51092E-04-7.55906E-18 1.38214E-17-1.22306E-16
 -1        72-2.21922E-03-2.21922E-03 1.90218E-03-1.04901E-18-6.58794E-17 6.03741E-17
 -3
    1PSTEP                       274          92           1          
  100CL  192 7.86781E-01          72                     0   92           1
 -4  DISP        4    1
 -5  D1          1    2    1    0
 -5  D2          1    2    2    0
 -5  D3          1    2    3    0
 -5  ALL         1    2    0    0    1ALL
 -1         1 0.00000E+00 0.00000E+00 0.00000E+00
 -1         2-1.20085E+00 0.00000E+00 0.00000E+00
 -1         3-1.12013E+01 0.00000E+00 0.00000E+00
 -1         4-1.24021E+01 0.00000E+00 0.00000E+00
 -1         5-2.24026E+01 0.00000E+00 0.00000E+00
 -1         6-2.36034E+01 0.00000E+00 0.00000E+00
 -1         7 0.00000E+00-1.20085E+00 0.00000E+00
 -1         8-1.20085E+00-1.20085E+00 0.00000E+00
 -1         9-1.12013E+01-1.20085E+00 0.00000E+00
 -1        10-1.24021E+01-1.20085E+00 0.00000E+00
 -1        11-2.24026E+01-1.20085E+00 0.00000E+00
 -1        12-2.36034E+01-1.20085E+00 0.00000E+00
 -1        13 0.00000E+00-1.12013E+01 0.00000E+00
 -1        14-1.20085E+00-1.12013E+01 0.00000E+00
 -1        15-1.12013E+01-1.12013E+01 0.00000E+00
 -1        16-1.24021E+01-1.12013E+01 0.00000E+00
 -1        17-2.24026E+01-1.12013E+01 0.00000E+00
 -1        18-2.36034E+01-1.12013E+01 0.00000E+00
 -1        19 0.00000E+00-1.24021E+01 0.00000E+00
 -1        20-1.20085E+00-1.24021E+01 0.00000E+00
 -1        21-1.12013E+01-1.24021E+01 0.00000E+00
 -1        22-1.24021E+01-1.24021E+01 0.00000E+00
 -1        23-2.24026E+01-1.24021E+01 0.00000E+00
 -1        24-2.36034E+01-1.24021E+01 0.00000E+00
 -1        25 0.00000E+00-2.24026E+01 0.00000E+00
 -1        26-1.20085E+00-2.24026E+01 0.00000E+00
 -1        27-1.12013E+01-2.24026E+01 0.00000E+00
 -1        28-1.24021E+01-2.24026E+01 0.00000E+00
 -1        29-2.24026E+01-2.24026E+01 0.00000E+00
 -1        30-2.36034E+01-2.24026E+01 0.00000E+00
 -1        31 0.00000E+00-2.36034E+01 0.00000E+00
 -1        32-1.20085E+00-2.36034E+01 0.00000E+00
 -1        33-1.12013E+01-2.36034E+01 0.00000E+00
 -1        34-1.24021E+01-2.36034E+01 0.00000E+00
 -1        35-2.24026E+01-2.36034E+01 0.00000E+00
 -1        36-2.36034E+01-2.36034E+01 0.00000E+00
 -1        37 0.00000E+00 0.00000E+00 1.43781E+00
 -1        38-1.20085E+00 0.00000E+00 1.43781E+00
 -1        39-1.12013E+01 0.00000E+00 1.43781E+00
 -1        40-1.24021E+01 0.00000E+00 1.43781E+00
 -1        41-2.24026E+01 0.00000E+00 1.43781E+00
 -1        42-2.36034E+01 0.00000E+00 1.43781E+00
 -1        43 0.00000E+00-1.20085E+00 1.43781E+00
 -1        44-1.20085E+00-1.20085E+00 1.43781E+00
 -1        45-1.12013E+01-1.20085E+00 1.43781E+00
 -1        46-1.24021E+01-1.20085E+00 1.43781E+00
 -1        47-2.24026E+01-1.20085E+00 1.43781E+00
 -1        48-2.36034E+01-1.20085E+00 1.43781E+00
 -1        49 0.00000E+00-1.12013E+01 1.43781E+00
 -1        50-1.20085E+00-1.12013E+01 1.43781E+00
 -1        51-1.12013E+01-1.12013E+01 1.43781E+00
 -1        52-1.24021E+01-1.12013E+01 1.43781E+00
 -1        53-2.24026E+01-1.12013E+01 1.43781E+00
 -1        54-2.36034E+01-1.12013E+01 1.43781E+00
 -1        55 0.00000E+00-1.24021E+01 1.43781E+00
 -1        56-1.20085E+00-1.24021E+01 1.43781E+00
 -1        57-1.12013E+01-1.24021E+01 1.43781E+00
 -1        58-1.24021E+01-1.24021E+01 1.43781E+00
 -1        59-2.24026E+01-1.24021E+01 1.43781E+00
 -1        60-2.36034E+01-1.24021E+01 1.43781E+00
 -1        61 0.00000E+00-2.24026E+01 1.43781E+00
 -1        62-1.20085E+00-2.24026E+01 1.43781E+00
 -1        63-1.12013E+01-2.24026E+01 1.43781E+00
 -1        64-1.24021E+01-2.24026E+01 1.43781E+00
 -1        65-2.24026E+01-2.24026E+01 1.43781E+00
 -1        66-2.36034E+01-2.24026E+01 1.43781E+00
 -1        67 0.00000E+00-2.36034E+01 1.43781E+00
 -1        68-1.20085E+00-2.36034E+01 1.43781E+00
 -1        69-1.12013E+01-2.36034E+01 1.43781E+00
 -1        70-1.24021E+01-2.36034E+01 1.43781E+00
 -1        71-2.24026E+01-2.36034E+01 1.43781E+00
 -1        72-2.36034E+01-2.36034E+01 1.43781E+00
 -3
    1PSTEP                       275          92           1          
  100CL  192 7.86781E-01          72                     0   92           1
 -4  STRESS      6    1
 -5  SXX         1    4    1    1
 -5  SYY         1    4    2    2
 -5  SZZ         1    4    3    3
 -5  SXY         1    4    1    2
 -5  SYZ         1    4    2    3
 -5  SZX         1    4    3    1
 -1         1-7.18140E+02-7.18140E+02 3.20409E-10 3.19227E-15-5.19999E-15 1.62281E-14
 -1         2-3.59070E+02-3.59070E+02 1.56809E-10-6.67472E-12-2.59299E-15 8.27050E-13
 -1         3-3.59070E+02-3.59070E+02 1.59568E-10 1.98798E-12-8.67382E-15-2.52548E-12
 -1         4-3.59070E+02-3.59070E+02 1.80853E-10-1.83076E-11 1.69928E-14-1.08433E-11
 -1         5-3.59070E+02-3.59070E+02 1.79605E-10 1.95530E-11-5.76743E-15 8.03299E-12
 -1         6-7.18140E+02-7.18140E+02 3.25826E-10 5.83811E-13-9.38061E-15-8.11092E-13
 -1         7-3.59070E+02-3.59070E+02 1.48077E-10-3.20134E-12 2.14563E-12-7.01531E-15
 -1         8-2.39380E+02-2.39380E+02 9.38215E-11-6.58510E-12 6.45376E-12-9.20771E-13
 -1         9-2.39380E+02-2.39380E+02 8.81036E-11 5.47054E-12 3.44849E-12-1.26046E-12
 -1        10-2.39380E+02-2.39380E+02 9.38536E-11-8.34481E-12 5.51773E-12 4.74235E-13
 -1        11-2.39380E+02-2.39380E+02 9.97206E-11 6.78808E-12-6.15394E-13-3.55561E-12
 -1        12-3.59070E+02-3.59070E+02 1.40318E-10-9.27620E-12 2.15319E-12 2.07337E-13
 -1        13-3.59070E+02-3.59070E+02 1.80809E-10 1.06052E-11 7.59857E-12 6.43984E-15
 -1        14-2.39380E+02-2.39380E+02 1.05044E-10-3.35443E-12-6.03686E-13-4.80794E-12
 -1        15-2.39380E+02-2.39380E+02 1.20362E-10 8.95436E-12 3.20417E-12 6.15856E-12
 -1        16-2.39380E+02-2.39380E+02 1.10354E-10-1.03616E-11-4.99729E-13 1.60622E-12
 -1        17-2.39380E+02-2.39380E+02 9.54265E-11 8.87466E-12-1.17675E-12-4.87093E-12
 -1        18-3.59070E+02-3.59070E+02 1.68370E-10-1.45195E-12-4.52382E-12-9.50638E-15
 -1        19-3.59070E+02-3.59070E+02 1.45383E-10-1.34374E-11 4.73342E-12 2.40667E-15
 -1        20-2.39380E+02-2.39380E+02 6.85029E-11-1.93829E-11 1.77730E-11 2.40817E-12
 -1        21-2.39380E+02-2.39380E+02 7.67395E-11 1.14318E-11 1.33449E-11-2.17875E-13
 -1        22-2.39380E+02-2.39380E+02 7.90213E-11-7.79145E-12 5.80631E-12 3.73120E-12
 -1        23-2.39380E+02-2.39380E+02 8.79119E-11 2.15566E-11 4.31028E-12-8.00510E-13
 -1        24-3.59070E+02-3.59070E+02 1.70102E-10 1.71841E-11-1.35652E-11 3.33905E-13
 -1        25-3.59070E+02-3.59070E+02 1.50566E-10 1.76051E-11 6.21557E-13-3.74190E-15
 -1        26-2.39380E+02-2.39380E+02 6.65256E-11 1.62868E-11-1.47717E-11 9.75429E-12
 -1        27-2.39380E+02-2.39380E+02 8.77958E-11-8.15512E-12-8.73722E-12-1.28406E-12
 -1        28-2.39380E+02-2.39380E+02 6.74782E-11-1.10400E-12-2.89046E-12 1.58089E-11
 -1        29-2.39380E+02-2.39380E+02 7.51887E-11-1.14315E-11-3.15928E-12-1.37795E-11
 -1        30-3.59070E+02-3.59070E+02 1.82943E-10-2.61021E-11 1.62520E-11-3.28920E-13
 -1        31-7.18140E+02-7.18140E+02 3.24595E-10-1.19815E-13 5.96307E-13-1.99646E-15
 -1        32-3.59070E+02-3.59070E+02 1.37321E-10 6.77472E-12 3.22712E-13 3.10190E-12
 -1        33-3.59070E+02-3.59070E+02 1.68155E-10-1.51218E-11 5.38044E-13 1.40734E-11
 -1        34-3.59070E+02-3.59070E+02 1.19181E-10-4.96237E-12-2.08490E-14 2.29067E-11
 -1        35-3.59070E+02-3.59070E+02 9.91390E-11 9.41246E-12 8.18368E-13-2.64653E-11
 -1        36-7.18140E+02-7.18140E+02 3.21219E-10-1.62335E-13-8.10249E-13 3.25678E-13
 -1        37-7.18140E+02-7.18140E+02 3.33212E-10-1.67738E-15-1.37414E-12 1.15905E-12
 -1        38-3.59070E+02-3.59070E+02 1.79007E-10-9.81020E-12-2.29861E-12 1.41048E-12
 -1        39-3.59070E+02-3.59070E+02 1.52478E-10 2.21195E-12 1.22671E-12 2.18095E-12
 -1        40-3.59070E+02-3.59070E+02 1.80334E-10-1.63733E-12-3.59320E-12-6.57909E-12
 -1        41-3.59070E+02-3.59070E+02 1.60839E-10 9.18622E-13 1.74489E-13 7.27965E-12
 -1        42-7.18140E+02-7.18140E+02 3.00748E-10 3.48712E-13 6.34337E-12-1.10280E-12
 -1        43-3.59070E+02-3.59070E+02 1.49671E-10 7.26132E-12 1.42527E-12-1.03202E-12
 -1        44-2.39380E+02-2.39380E+02 1.05415E-10-1.69870E-12 4.92950E-12-1.63401E-12
 -1        45-2.39380E+02-2.39380E+02 9.90899E-11 8.45392E-12 4.25210E-12-1.48362E-12
 -1        46-2.39380E+02-2.39380E+02 1.09617E-10 6.05172E-12 3.18551E-12 7.29789E-13
 -1        47-2.39380E+02-2.39380E+02 1.05899E-10-2.70671E-12-5.17172E-13-2.24318E-12
 -1        48-3.59070E+02-3.59070E+02 1.56408E-10-5.54025E-12 5.32812E-12 2.14644E-12
 -1        49-3.59070E+02-3.59070E+02 1.59111E-10-3.26763E-13 2.73962E-12 5.50022E-12
 -1        50-2.39380E+02-2.39380E+02 1.33172E-10-6.47141E-13-8.41341E-12-1.16529E-12
 -1        51-2.39380E+02-2.39380E+02 1.30736E-10-5.74127E-12-2.34369E-12 1.01467E-12
 -1        52-2.39380E+02-2.39380E+02 1.14245E-10-1.26267E-11-1.43552E-12-3.72311E-12
 -1        53-2.39380E+02-2.39380E+02 1.17895E-10 1.22342E-11 1.88999E-12-6.32513E-12
 -1        54-3.59070E+02-3.59070E+02 1.65970E-10-5.97511E-12 5.12159E-12-1.93703E-12
 -1        55-3.59070E+02-3.59070E+02 1.46711E-10 1.68171E-11 3.29836E-13-2.31431E-12
 -1        56-2.39380E+02-2.39380E+02 1.11386E-10 1.07821E-11 9.49335E-12 8.91226E-13
 -1        57-2.39380E+02-2.39380E+02 1.06157E-10-7.99218E-12 7.73875E-12-8.90098E-13
 -1        58-2.39380E+02-2.39380E+02 1.01758E-10-1.48148E-11 4.92225E-12 3.41955E-12
 -1        59-2.39380E+02-2.39380E+02 1.01078E-10 9.15826E-12 7.30326E-12 1.44821E-12
 -1        60-3.59070E+02-3.59070E+02 1.53152E-10-1.06168E-11-3.50689E-12 3.50575E-12
 -1        61-3.59070E+02-3.59070E+02 1.78659E-10-1.33605E-11 1.01075E-12-9.24582E-12
 -1        62-2.39380E+02-2.39380E+02 1.17451E-10-1.49474E-11-7.39675E-12 3.57795E-12
 -1        63-2.39380E+02-2.39380E+02 1.40586E-10 1.38864E-11-2.48997E-12-7.99861E-12
 -1        64-2.39380E+02-2.39380E+02 1.09196E-10 6.00605E-12-2.57611E-12 9.11659E-12
 -1        65-2.39380E+02-2.39380E+02 1.09915E-10 8.83684E-13-2.17646E-12-6.14790E-12
 -1        66-3.59070E+02-3.59070E+02 1.94406E-10 7.43793E-14 1.13332E-11 1.22310E-11
 -1        67-7.18140E+02-7.18140E+02 3.31423E-10-2.39345E-13 9.55730E-13 2.09799E-12
 -1        68-3.59070E+02-3.59070E+02 1.89624E-10-9.21573E-12 1.06751E-11 4.15790E-12
 -1        69-3.59070E+02-3.59070E+02 2.13733E-10 6.50734E-12 8.14911E-12-3.31156E-12
 -1        70-3.59070E+02-3.59070E+02 1.48745E-10-5.59576E-12 1.05130E-12 5.64603E-12
 -1        71-3.59070E+02-3.59070E+02 1.63314E-10 8.04697E-13-3.30444E-13-1.88970E-11
 -1        72-7.18140E+02-7.18140E+02 3.61180E-10 1.84554E-13-7.97587E-12 1.48662E-11
 -3
    1PSTEP                       276          92           1          
  100CL  192 7.86781E-01          72                     0   92           1
 -4  TOSTRAIN    6    1
 -5  EXX         1    4    1    1
 -5  EYY         1    4    2    2
 -5  EZZ         1    4    3    3
 -5  EXY         1    4    1    2
 -5  EYZ         1    4    2    3
 -5  EZX         1    4    3    1
 -1         1-2.39872E-03-2.39872E-03 2.05604E-03 1.99812E-20-3.17703E-20 1.00257E-19
 -1         2-1.19936E-03-1.19936E-03 1.02802E-03-4.17786E-17-1.61185E-20 5.10756E-18
 -1         3-1.19936E-03-1.19936E-03 1.02802E-03 1.24432E-17-5.37273E-20-1.55964E-17
 -1         4-1.19936E-03-1.19936E-03 1.02802E-03-1.14592E-16 1.05265E-19-6.69640E-17
 -1         5-1.19936E-03-1.19936E-03 1.02802E-03 1.22387E-16-3.55145E-20 4.96088E-17
 -1         6-2.39872E-03-2.39872E-03 2.05604E-03 3.65420E-18-5.90906E-20-5.00860E-18
 -1         7-1.19936E-03-1.19936E-03 1.02802E-03-2.00379E-17 1.32508E-17-4.32196E-20
 -1         8-7.99573E-04-7.99573E-04 6.85348E-04-4.12177E-17 3.98558E-17-5.68625E-18
 -1         9-7.99573E-04-7.99573E-04 6.85348E-04 3.42414E-17 2.12966E-17-7.78414E-18
 -1        10-7.99573E-04-7.99573E-04 6.85348E-04-5.22321E-17 3.40750E-17 2.92865E-18
 -1        11-7.99573E-04-7.99573E-04 6.85348E-04 4.24881E-17-3.80049E-18-2.19581E-17
 -1        12-1.19936E-03-1.19936E-03 1.02802E-03-5.80619E-17 1.32974E-17 1.28034E-18
 -1        13-1.19936E-03-1.19936E-03 1.02802E-03 6.63807E-17 4.69256E-17 4.00391E-20
 -1        14-7.99573E-04-7.99573E-04 6.85348E-04-2.09962E-17-3.72808E-18-2.96918E-17
 -1        15-7.99573E-04-7.99573E-04 6.85348E-04 5.60474E-17 1.97878E-17 3.80329E-17
 -1        16-7.99573E-04-7.99573E-04 6.85348E-04-6.48557E-17-3.08608E-18 9.91948E-18
 -1        17-7.99573E-04-7.99573E-04 6.85348E-04 5.55485E-17-7.26698E-18-3.00810E-17
 -1        18-1.19936E-03-1.19936E-03 1.02802E-03-9.08811E-18-2.79375E-17-5.87422E-20
 -1        19-1.19936E-03-1.19936E-03 1.02802E-03-8.41077E-17 2.92315E-17 1.46436E-20
 -1        20-7.99573E-04-7.99573E-04 6.85348E-04-1.21322E-16 1.09759E-16 1.48718E-17
 -1        21-7.99573E-04-7.99573E-04 6.85348E-04 7.15543E-17 8.24129E-17-1.34576E-18
 -1        22-7.99573E-04-7.99573E-04 6.85348E-04-4.87685E-17 3.58575E-17 2.30421E-17
 -1        23-7.99573E-04-7.99573E-04 6.85348E-04 1.34928E-16 2.66187E-17-4.94359E-18
 -1        24-1.19936E-03-1.19936E-03 1.02802E-03 1.07559E-16-8.37733E-17 2.06213E-18
 -1        25-1.19936E-03-1.19936E-03 1.02802E-03 1.10194E-16 3.83864E-18-2.30240E-20
 -1        26-7.99573E-04-7.99573E-04 6.85348E-04 1.01943E-16-9.12242E-17 6.02387E-17
 -1        27-7.99573E-04-7.99573E-04 6.85348E-04-5.10448E-17-5.39576E-17-7.92988E-18
 -1        28-7.99573E-04-7.99573E-04 6.85348E-04-6.91020E-18-1.78501E-17 9.76297E-17
 -1        29-7.99573E-04-7.99573E-04 6.85348E-04-7.15524E-17-1.95106E-17-8.50970E-17
 -1        30-1.19936E-03-1.19936E-03 1.02802E-03-1.63379E-16 1.00366E-16-2.03147E-18
 -1        31-2.39872E-03-2.39872E-03 2.05604E-03-7.49947E-19 3.68286E-18-1.26459E-20
 -1        32-1.19936E-03-1.19936E-03 1.02802E-03 4.24045E-17 1.99302E-18 1.91560E-17
 -1        33-1.19936E-03-1.19936E-03 1.02802E-03-9.46507E-17 3.32294E-18 8.69117E-17
 -1        34-1.19936E-03-1.19936E-03 1.02802E-03-3.10606E-17-1.28542E-19 1.41463E-16
 -1        35-1.19936E-03-1.19936E-03 1.02802E-03 5.89147E-17 5.05341E-18-1.63439E-16
 -1        36-2.39872E-03-2.39872E-03 2.05604E-03-1.01609E-18-5.00263E-18 2.01155E-18
 -1        37-2.39872E-03-2.39872E-03 2.05604E-03-1.04991E-20-8.56236E-18 7.22149E-18
 -1        38-1.19936E-03-1.19936E-03 1.02802E-03-6.14043E-17-1.43222E-17 8.74240E-18
 -1        39-1.19936E-03-1.19936E-03 1.02802E-03 1.38451E-17 7.64361E-18 1.37237E-17
 -1        40-1.19936E-03-1.19936E-03 1.02802E-03-1.02484E-17-2.23888E-17-4.03749E-17
 -1        41-1.19936E-03-1.19936E-03 1.02802E-03 5.74987E-18 1.08709E-18 4.49035E-17
 -1        42-2.39872E-03-2.39872E-03 2.05604E-03 2.18267E-18 3.95255E-17-6.91581E-18
 -1        43-1.19936E-03-1.19936E-03 1.02802E-03 4.54503E-17 8.76384E-18-6.43073E-18
 -1        44-7.99573E-04-7.99573E-04 6.85348E-04-1.06325E-17 3.03580E-17-1.01293E-17
 -1        45-7.99573E-04-7.99573E-04 6.85348E-04 5.29150E-17 2.63041E-17-9.16903E-18
 -1        46-7.99573E-04-7.99573E-04 6.85348E-04 3.78791E-17 1.95419E-17 4.50010E-18
 -1        47-7.99573E-04-7.99573E-04 6.85348E-04-1.69419E-17-3.18728E-18-1.37774E-17
 -1        48-1.19936E-03-1.19936E-03 1.02802E-03-3.46777E-17 3.30788E-17 1.33689E-17
 -1        49-1.19936E-03-1.19936E-03 1.02802E-03-2.04528E-18 1.66704E-17 3.42711E-17
 -1        50-7.99573E-04-7.99573E-04 6.85348E-04-4.05061E-18-5.24117E-17-6.99379E-18
 -1        51-7.99573E-04-7.99573E-04 6.85348E-04-3.59359E-17-1.47789E-17 5.97208E-18
 -1        52-7.99573E-04-7.99573E-04 6.85348E-04-7.90336E-17-8.90826E-18-2.32866E-17
 -1        53-7.99573E-04-7.99573E-04 6.85348E-04 7.65769E-17 1.18412E-17-3.91188E-17
 -1        54-1.19936E-03-1.19936E-03 1.02802E-03-3.73996E-17 3.21640E-17-1.20483E-17
 -1        55-1.19936E-03-1.19936E-03 1.02802E-03 1.05262E-16 1.78853E-18-1.44201E-17
 -1        56-7.99573E-04-7.99573E-04 6.85348E-04 6.74875E-17 5.81735E-17 5.41861E-18
 -1        57-7.99573E-04-7.99573E-04 6.85348E-04-5.00249E-17 4.74865E-17-5.52806E-18
 -1        58-7.99573E-04-7.99573E-04 6.85348E-04-9.27295E-17 3.03544E-17 2.10867E-17
 -1        59-7.99573E-04-7.99573E-04 6.85348E-04 5.73237E-17 4.52719E-17 9.07205E-18
 -1        60-1.19936E-03-1.19936E-03 1.02802E-03-6.64533E-17-2.11247E-17 2.18428E-17
 -1        61-1.19936E-03-1.19936E-03 1.02802E-03-8.36265E-17 6.26792E-18-5.76098E-17
 -1        62-7.99573E-04-7.99573E-04 6.85348E-04-9.35595E-17-4.52833E-17 2.17552E-17
 -1        63-7.99573E-04-7.99573E-04 6.85348E-04 8.69181E-17-1.50722E-17-4.97688E-17
 -1        64-7.99573E-04-7.99573E-04 6.85348E-04 3.75932E-17-1.58710E-17 5.59280E-17
 -1        65-7.99573E-04-7.99573E-04 6.85348E-04 5.53118E-18-1.34367E-17-3.75305E-17
 -1        66-1.19936E-03-1.19936E-03 1.02802E-03 4.65557E-19 6.97548E-17 7.61886E-17
 -1        67-2.39872E-03-2.39872E-03 2.05604E-03-1.49812E-18 5.95411E-18 1.30724E-17
 -1        68-1.19936E-03-1.19936E-03 1.02802E-03-5.76834E-17 6.65196E-17 2.57356E-17
 -1        69-1.19936E-03-1.19936E-03 1.02802E-03 4.07309E-17 5.07832E-17-2.14101E-17
 -1        70-1.19936E-03-1.19936E-03 1.02802E-03-3.50251E-17 6.54910E-18 3.39085E-17
 -1        71-1.19936E-03-1.19936E-03 1.02802E-03 5.03678E-18-2.03352E-18-1.16288E-16
 -1        72-2.39872E-03-2.39872E-03 2.05604E-03 1.15517E-18-4.97309E-17 9.26332E-17
 -3
    1PSTEP                       277          93           1          
  100CL  193 7.95781E-01          72                     0   93           1
 -4  DISP        4    1
 -5  D1          1    2    1    0
 -5  D2          1    2    2    0
 -5  D3          1    2    3    0
 -5  ALL         1    2    0    0    1ALL
 -1         1 0.00000E+00 0.00000E+00 0.00000E+00
 -1         2-1.29081E+00 0.00000E+00 0.00000E+00
 -1         3-1.12913E+01 0.00000E+00 0.00000E+00
 -1         4-1.25821E+01 0.00000E+00 0.00000E+00
 -1         5-2.25826E+01 0.00000E+00 0.00000E+00
 -1         6-2.38734E+01 0.00000E+00 0.00000E+00
 -1         7 0.00000E+00-1.29081E+00 0.00000E+00
 -1         8-1.29081E+00-1.29081E+00 0.00000E+00
 -1         9-1.12913E+01-1.29081E+00 0.00000E+00
 -1        10-1.25821E+01-1.29081E+00 0.00000E+00
 -1        11-2.25826E+01-1.29081E+00 0.00000E+00
 -1        12-2.38734E+01-1.29081E+00 0.00000E+00
 -1        13 0.00000E+00-1.12913E+01 0.00000E+00
 -1        14-1.29081E+00-1.12913E+01 0.00000E+00
 -1        15-1.12913E+01-1.12913E+01 0.00000E+00
 -1        16-1.25821E+01-1.12913E+01 0.00000E+00
 -1        17-2.25826E+01-1.12913E+01 0.00000E+00
 -1        18-2.38734E+01-1.12913E+01 0.00000E+00
 -1        19 0.00000E+00-1.25821E+01 0.00000E+00
 -1        20-1.29081E+00-1.25821E+01 0.00000E+00
 -1        21-1.12913E+01-1.25821E+01 0.00000E+00
 -1        22-1.25821E+01-1.25821E+01 0.00000E+00
 -1        23-2.25826E+01-1.25821E+01 0.00000E+00
 -1        24-2.38734E+01-1.25821E+01 0.00000E+00
 -1        25 0.00000E+00-2.25826E+01 0.00000E+00
 -1        26-1.29081E+00-2.25826E+01 0.00000E+00
 -1        27-1.12913E+01-2.25826E+01 0.00000E+00
 -1        28-1.25821E+01-2.25826E+01 0.00000E+00
 -1        29-2.25826E+01-2.25826E+01 0.00000E+00
 -1        30-2.38734E+01-2.25826E+01 0.00000E+00
 -1        31 0.00000E+00-2.38734E+01 0.00000E+00
 -1        32-1.29081E+00-2.38734E+01 0.00000E+00
 -1        33-1.12913E+01-2.38734E+01 0.00000E+00
 -1        34-1.25821E+01-2.38734E+01 0.00000E+00
 -1        35-2.25826E+01-2.38734E+01 0.00000E+00
 -1        36-2.38734E+01-2.38734E+01 0.00000E+00
 -1        37 0.00000E+00 0.00000E+00 1.54527E+00
 -1        38-1.29081E+00 0.00000E+00 1.54527E+00
 -1        39-1.12913E+01 0.00000E+00 1.54527E+00
 -1        40-1.25821E+01 0.00000E+00 1.54527E+00
 -1        41-2.25826E+01 0.00000E+00 1.54527E+00
 -1        42-2.38734E+01 0.00000E+00 1.54527E+00
 -1        43 0.00000E+00-1.29081E+00 1.54527E+00
 -1        44-1.29081E+00-1.29081E+00 1.54527E+00
 -1        45-1.12913E+01-1.29081E+00 1.54527E+00
 -1        46-1.25821E+01-1.29081E+00 1.54527E+00
 -1        47-2.25826E+01-1.29081E+00 1.54527E+00
 -1        48-2.38734E+01-1.29081E+00 1.54527E+00
 -1        49 0.00000E+00-1.12913E+01 1.54527E+00
 -1        50-1.29081E+00-1.12913E+01 1.54527E+00
 -1        51-1.12913E+01-1.12913E+01 1.54527E+00
 -1        52-1.25821E+01-1.12913E+01 1.54527E+00
 -1        53-2.25826E+01-1.12913E+01 1.54527E+00
 -1        54-2.38734E+01-1.12913E+01 1.54527E+00
 -1        55 0.00000E+00-1.25821E+01 1.54527E+00
 -1        56-1.29081E+00-1.25821E+01 1.54527E+00
 -1        57-1.12913E+01-1.25821E+01 1.54527E+00
 -1        58-1.25821E+01-1.25821E+01 1.54527E+00
 -1        59-2.25826E+01-1.25821E+01 1.54527E+00
 -1        60-2.38734E+01-1.25821E+01 1.54527E+00
 -1        61 0.00000E+00-2.25826E+01 1.54527E+00
 -1        62-1.29081E+00-2.25826E+01 1.54527E+00
 -1        63-1.12913E+01-2.25826E+01 1.54527E+00
 -1        64-1.25821E+01-2.25826E+01 1.54527E+00
 -1        65-2.25826E+01-2.25826E+01 1.54527E+00
 -1        66-2.38734E+01-2.25826E+01 1.54527E+00
 -1        67 0.00000E+00-2.38734E+01 1.54527E+00
 -1        68-1.29081E+00-2.38734E+01 1.54527E+00
 -1        69-1.12913E+01-2.38734E+01 1.54527E+00
 -1        70-1.25821E+01-2.38734E+01 1.54527E+00
 -1        71-2.25826E+01-2.38734E+01 1.54527E+00
 -1        72-2.38734E+01-2.38734E+01 1.54527E+00
 -3
    1PSTEP                       278          93           1          
  100CL  193 7.95781E-01          72                     0   93           1
 -4  STRESS      6    1
 -5  SXX         1    4    1    1
 -5  SYY         1    4    2    2
 -5  SZZ         1    4    3    3
 -5  SXY         1    4    1    2
 -5  SYZ         1    4    2    3
 -5  SZX         1    4    3    1
 -1         1-7.71752E+02-7.71752E+02 3.43956E-10 1.34893E-14-1.64595E-14-2.05769E-15
 -1         2-3.85876E+02-3.85876E+02 1.71038E-10-4.73592E-12 6.43764E-15-3.13165E-12
 -1         3-3.85876E+02-3.85876E+02 1.75568E-10 2.08646E-12 1.04966E-14-3.18544E-12
 -1         4-3.85876E+02-3.85876E+02 1.98509E-10-2.17232E-11-7.57145E-15-1.54719E-11
 -1         5-3.85876E+02-3.85876E+02 1.97650E-10 2.43689E-11-9.58728E-15 1.18859E-11
 -1         6-7.71752E+02-7.71752E+02 3.58186E-10 4.01422E-13 2.77238E-14 1.56592E-15
 -1         7-3.85876E+02-3.85876E+02 1.56640E-10-4.90741E-12 7.24738E-12-1.18626E-14
 -1         8-2.57251E+02-2.57251E+02 1.02185E-10-6.43338E-12 6.99462E-12-2.31794E-12
 -1         9-2.57251E+02-2.57251E+02 9.54804E-11 3.18412E-12 3.68883E-12-1.73657E-12
 -1        10-2.57251E+02-2.57251E+02 1.01925E-10-1.25837E-11 5.23826E-12-5.01830E-13
 -1        11-2.57251E+02-2.57251E+02 1.08791E-10 1.14101E-11-1.39658E-12-2.76389E-12
 -1        12-3.85876E+02-3.85876E+02 1.53077E-10-7.59125E-12 1.61414E-12 2.41403E-13
 -1        13-3.85876E+02-3.85876E+02 1.85652E-10 1.15422E-11 3.02534E-12 1.41820E-14
 -1        14-2.57251E+02-2.57251E+02 1.11691E-10-3.19931E-12-1.23151E-12-4.85244E-12
 -1        15-2.57251E+02-2.57251E+02 1.23104E-10 9.14111E-12 3.72577E-12 4.37967E-12
 -1        16-2.57251E+02-2.57251E+02 1.14093E-10-4.16570E-12-7.30356E-13 2.97809E-12
 -1        17-2.57251E+02-2.57251E+02 9.49918E-11 2.67871E-12-1.75714E-12-8.62089E-12
 -1        18-3.85876E+02-3.85876E+02 1.74402E-10-8.68578E-13-7.40644E-12-3.97104E-14
 -1        19-3.85876E+02-3.85876E+02 1.53123E-10-9.30671E-12 7.41356E-12-8.67691E-15
 -1        20-2.57251E+02-2.57251E+02 7.99378E-11-1.70986E-11 1.36984E-11 2.55137E-12
 -1        21-2.57251E+02-2.57251E+02 8.66339E-11 1.29890E-11 1.44000E-11 2.31571E-13
 -1        22-2.57251E+02-2.57251E+02 9.38781E-11-3.19481E-13 2.06281E-12 4.02690E-12
 -1        23-2.57251E+02-2.57251E+02 1.03514E-10 1.71375E-11 6.03591E-13-8.69936E-13
 -1        24-3.85876E+02-3.85876E+02 1.98460E-10 2.01676E-11-2.08952E-11-1.51128E-13
 -1        25-3.85876E+02-3.85876E+02 1.56042E-10 1.44527E-11-4.68572E-12 1.46043E-16
 -1        26-2.57251E+02-2.57251E+02 7.92378E-11 1.45885E-11-1.27065E-11 7.59150E-12
 -1        27-2.57251E+02-2.57251E+02 9.53266E-11-1.08311E-11-9.52920E-12-1.72985E-12
 -1        28-2.57251E+02-2.57251E+02 9.00741E-11-7.44282E-12-1.21836E-12 7.97565E-12
 -1        29-2.57251E+02-2.57251E+02 9.63638E-11-8.19645E-12-1.74337E-12-6.86981E-12
 -1        30-3.85876E+02-3.85876E+02 2.07644E-10-2.77618E-11 2.13983E-11 5.17426E-13
 -1        31-7.71752E+02-7.71752E+02 3.46550E-10-2.02370E-13-5.26277E-13 5.05765E-15
 -1        32-3.85876E+02-3.85876E+02 1.56126E-10 7.33834E-12 3.91279E-13-6.74441E-13
 -1        33-3.85876E+02-3.85876E+02 1.73614E-10-1.41793E-11 4.75974E-13 1.10482E-11
 -1        34-3.85876E+02-3.85876E+02 1.38467E-10-9.09940E-12-1.53461E-13 2.18863E-11
 -1        35-3.85876E+02-3.85876E+02 1.11504E-10 1.57030E-11 5.98156E-14-2.79678E-11
 -1        36-7.71752E+02-7.71752E+02 3.45585E-10-6.04495E-13 7.32950E-14-1.26001E-12
 -1        37-7.71752E+02-7.71752E+02 3.61404E-10-2.24728E-14-6.35915E-12 5.34974E-12
 -1        38-3.85876E+02-3.85876E+02 1.86445E-10-5.22322E-12-4.13209E-12-4.43730E-13
 -1        39-3.85876E+02-3.85876E+02 1.61021E-10 2.77911E-12 1.88230E-12 4.23150E-12
 -1        40-3.85876E+02-3.85876E+02 1.89242E-10-1.65967E-12-3.52893E-12-7.66910E-12
 -1        41-3.85876E+02-3.85876E+02 1.67905E-10 1.56918E-12 7.18113E-13 9.25806E-12
 -1        42-7.71752E+02-7.71752E+02 3.13183E-10-9.09026E-13 8.72050E-12-6.33589E-12
 -1        43-3.85876E+02-3.85876E+02 1.64145E-10-4.00499E-13 4.04014E-12 1.72506E-12
 -1        44-2.57251E+02-2.57251E+02 1.12239E-10-3.74165E-12 4.24201E-12-1.18990E-12
 -1        45-2.57251E+02-2.57251E+02 1.06023E-10 5.83019E-12 4.93948E-12-1.75366E-13
 -1        46-2.57251E+02-2.57251E+02 1.15591E-10 2.88657E-12 2.88032E-12 6.79568E-13
 -1        47-2.57251E+02-2.57251E+02 1.11428E-10-5.15880E-13-9.46915E-13-2.44722E-12
 -1        48-3.85876E+02-3.85876E+02 1.65763E-10-2.25933E-12 6.03478E-12 9.94567E-13
 -1        49-3.85876E+02-3.85876E+02 1.78971E-10 4.80846E-12 7.73625E-14 5.57954E-12
 -1        50-2.57251E+02-2.57251E+02 1.33589E-10 2.51682E-12-7.34207E-12-1.11069E-12
 -1        51-2.57251E+02-2.57251E+02 1.41354E-10-3.20478E-12-2.54091E-12-1.47132E-12
 -1        52-2.57251E+02-2.57251E+02 1.17447E-10-9.21131E-12-1.01458E-12-2.86007E-12
 -1        53-2.57251E+02-2.57251E+02 1.18520E-10 9.69768E-12 3.58649E-12-8.99762E-12
 -1        54-3.85876E+02-3.85876E+02 1.72181E-10-7.51208E-12 5.48048E-12-7.42355E-14
 -1        55-3.85876E+02-3.85876E+02 1.70165E-10 9.25751E-12 4.18777E-12-6.41609E-13
 -1        56-2.57251E+02-2.57251E+02 1.17057E-10 5.48285E-12 7.78177E-12 2.11542E-12
 -1        57-2.57251E+02-2.57251E+02 1.16672E-10-9.61238E-12 7.89703E-12 5.90145E-13
 -1        58-2.57251E+02-2.57251E+02 1.07433E-10-1.55309E-11 1.99739E-12 4.33763E-12
 -1        59-2.57251E+02-2.57251E+02 1.09821E-10 7.63333E-12 5.99112E-12 1.99559E-12
 -1        60-3.85876E+02-3.85876E+02 1.70706E-10-9.64598E-12-8.99994E-12 4.40471E-12
 -1        61-3.85876E+02-3.85876E+02 1.90394E-10-4.53548E-12-3.36454E-12-5.79835E-12
 -1        62-2.57251E+02-2.57251E+02 1.21567E-10-9.09459E-12-5.84076E-12 3.69678E-12
 -1        63-2.57251E+02-2.57251E+02 1.35820E-10 1.27554E-11-3.29693E-12-4.74848E-12
 -1        64-2.57251E+02-2.57251E+02 1.12503E-10 1.26378E-11-2.55440E-12 5.03394E-12
 -1        65-2.57251E+02-2.57251E+02 1.13013E-10-3.84923E-12-4.06784E-12-1.03836E-12
 -1        66-3.85876E+02-3.85876E+02 1.83909E-10 4.58044E-12 1.59097E-11 7.91620E-12
 -1        67-7.71752E+02-7.71752E+02 3.64966E-10-4.46057E-14 6.05979E-12 4.35443E-12
 -1        68-3.85876E+02-3.85876E+02 1.94773E-10-9.16409E-12 9.79508E-12 1.56189E-12
 -1        69-3.85876E+02-3.85876E+02 2.25468E-10 4.60025E-12 9.10546E-12-4.01780E-12
 -1        70-3.85876E+02-3.85876E+02 1.63819E-10 4.55582E-12-1.96075E-12 6.38967E-12
 -1        71-3.85876E+02-3.85876E+02 1.75211E-10-1.06294E-11-3.81322E-12-2.13307E-11
 -1        72-7.71752E+02-7.71752E+02 3.73199E-10 5.26160E-13-9.01486E-12 1.48687E-11
 -3
    1PSTEP                       279          93           1          
  100CL  193 7.95781E-01          72                     0   93           1
 -4  TOSTRAIN    6    1
 -5  EXX         1    4    1    1
 -5  EYY         1    4    2    2
 -5  EZZ         1    4    3    3
 -5  EXY         1    4    1    2
 -5  EYZ         1    4    2    3
 -5  EZX         1    4    3    1
 -1         1-2.57818E-03-2.57818E-03 2.20987E-03 8.45031E-20-1.01644E-19-1.29271E-20
 -1         2-1.28909E-03-1.28909E-03 1.10494E-03-2.96679E-17 3.97691E-20-1.93365E-17
 -1         3-1.28909E-03-1.28909E-03 1.10494E-03 1.30705E-17 6.55167E-20-1.96686E-17
 -1         4-1.28909E-03-1.28909E-03 1.10494E-03-1.36084E-16-4.75442E-20-9.55310E-17
 -1         5-1.28909E-03-1.28909E-03 1.10494E-03 1.52658E-16-5.98178E-20 7.33898E-17
 -1         6-2.57818E-03-2.57818E-03 2.20987E-03 2.51469E-18 1.73078E-19 1.01985E-20
 -1         7-1.28909E-03-1.28909E-03 1.10494E-03-3.07422E-17 4.47489E-17-7.33294E-20
 -1         8-8.59395E-04-8.59395E-04 7.36624E-04-4.03015E-17 4.31883E-17-1.43122E-17
 -1         9-8.59395E-04-8.59395E-04 7.36624E-04 1.99468E-17 2.27770E-17-1.07224E-17
 -1        10-8.59395E-04-8.59395E-04 7.36624E-04-7.88299E-17 3.23436E-17-3.09851E-18
 -1        11-8.59395E-04-8.59395E-04 7.36624E-04 7.14779E-17-8.62319E-18-1.70655E-17
 -1        12-1.28909E-03-1.28909E-03 1.10494E-03-4.75550E-17 9.96529E-18 1.49070E-18
 -1        13-1.28909E-03-1.28909E-03 1.10494E-03 7.23053E-17 1.86800E-17 8.79043E-20
 -1        14-8.59395E-04-8.59395E-04 7.36624E-04-2.00419E-17-7.60415E-18-2.99611E-17
 -1        15-8.59395E-04-8.59395E-04 7.36624E-04 5.72640E-17 2.30049E-17 2.70421E-17
 -1        16-8.59395E-04-8.59395E-04 7.36624E-04-2.60958E-17-4.50979E-18 1.83881E-17
 -1        17-8.59395E-04-8.59395E-04 7.36624E-04 1.67807E-17-1.08494E-17-5.32294E-17
 -1        18-1.28909E-03-1.28909E-03 1.10494E-03-5.44116E-18-4.57320E-17-2.44777E-19
 -1        19-1.28909E-03-1.28909E-03 1.10494E-03-5.83014E-17 4.57750E-17-5.41873E-20
 -1        20-8.59395E-04-8.59395E-04 7.36624E-04-1.07113E-16 8.45803E-17 1.57530E-17
 -1        21-8.59395E-04-8.59395E-04 7.36624E-04 8.13690E-17 8.89127E-17 1.42963E-18
 -1        22-8.59395E-04-8.59395E-04 7.36624E-04-2.00137E-18 1.27367E-17 2.48639E-17
 -1        23-8.59395E-04-8.59395E-04 7.36624E-04 1.07357E-16 3.72672E-18-5.37151E-18
 -1        24-1.28909E-03-1.28909E-03 1.10494E-03 1.26339E-16-1.29017E-16-9.33277E-19
 -1        25-1.28909E-03-1.28909E-03 1.10494E-03 9.05383E-17-2.89319E-17 1.46867E-21
 -1        26-8.59395E-04-8.59395E-04 7.36624E-04 9.13889E-17-7.84558E-17 4.68740E-17
 -1        27-8.59395E-04-8.59395E-04 7.36624E-04-6.78511E-17-5.88381E-17-1.06809E-17
 -1        28-8.59395E-04-8.59395E-04 7.36624E-04-4.66251E-17-7.52284E-18 4.92456E-17
 -1        29-8.59395E-04-8.59395E-04 7.36624E-04-5.13462E-17-1.07643E-17-4.24177E-17
 -1        30-1.28909E-03-1.28909E-03 1.10494E-03-1.73912E-16 1.32123E-16 3.19473E-18
 -1        31-2.57818E-03-2.57818E-03 2.20987E-03-1.26773E-18-3.24935E-18 2.99297E-20
 -1        32-1.28909E-03-1.28909E-03 1.10494E-03 4.59706E-17 2.41619E-18-4.16498E-18
 -1        33-1.28909E-03-1.28909E-03 1.10494E-03-8.88257E-17 2.93875E-18 6.82168E-17
 -1        34-1.28909E-03-1.28909E-03 1.10494E-03-5.70027E-17-9.47852E-19 1.35137E-16
 -1        35-1.28909E-03-1.28909E-03 1.10494E-03 9.83708E-17 3.69671E-19-1.72687E-16
 -1        36-2.57818E-03-2.57818E-03 2.20987E-03-3.78683E-18 4.51607E-19-7.77997E-18
 -1        37-2.57818E-03-2.57818E-03 2.20987E-03-1.40780E-19-3.96425E-17 3.33503E-17
 -1        38-1.28909E-03-1.28909E-03 1.10494E-03-3.27206E-17-2.57594E-17-2.58064E-18
 -1        39-1.28909E-03-1.28909E-03 1.10494E-03 1.74096E-17 1.17342E-17 2.65756E-17
 -1        40-1.28909E-03-1.28909E-03 1.10494E-03-1.03969E-17-2.19993E-17-4.69046E-17
 -1        41-1.28909E-03-1.28909E-03 1.10494E-03 9.83006E-18 4.47625E-18 5.69814E-17
 -1        42-2.57818E-03-2.57818E-03 2.20987E-03-5.69454E-18 5.43628E-17-3.94858E-17
 -1        43-1.28909E-03-1.28909E-03 1.10494E-03-2.50890E-18 2.47569E-17 1.07536E-17
 -1        44-8.59395E-04-8.59395E-04 7.36624E-04-2.34394E-17 2.60284E-17-7.27883E-18
 -1        45-8.59395E-04-8.59395E-04 7.36624E-04 3.65229E-17 3.05736E-17-1.00131E-18
 -1        46-8.59395E-04-8.59395E-04 7.36624E-04 1.80828E-17 1.76439E-17 4.27747E-18
 -1        47-8.59395E-04-8.59395E-04 7.36624E-04-3.23170E-18-5.81906E-18-1.50856E-17
 -1        48-1.28909E-03-1.28909E-03 1.10494E-03-1.41535E-17 3.75237E-17 6.17811E-18
 -1        49-1.28909E-03-1.28909E-03 1.10494E-03 3.01223E-17 3.09859E-19 3.47826E-17
 -1        50-8.59395E-04-8.59395E-04 7.36624E-04 1.57665E-17-4.56930E-17-6.63676E-18
 -1        51-8.59395E-04-8.59395E-04 7.36624E-04-2.00761E-17-1.60597E-17-9.42907E-18
 -1        52-8.59395E-04-8.59395E-04 7.36624E-04-5.77038E-17-6.27271E-18-1.80039E-17
 -1        53-8.59395E-04-8.59395E-04 7.36624E-04 6.07506E-17 2.24652E-17-5.55732E-17
 -1        54-1.28909E-03-1.28909E-03 1.10494E-03-4.70590E-17 3.45875E-17-4.84521E-19
 -1        55-1.28909E-03-1.28909E-03 1.10494E-03 5.79932E-17 2.56895E-17-4.00041E-18
 -1        56-8.59395E-04-8.59395E-04 7.36624E-04 3.43470E-17 4.76891E-17 1.30358E-17
 -1        57-8.59395E-04-8.59395E-04 7.36624E-04-6.02162E-17 4.83894E-17 3.66347E-18
 -1        58-8.59395E-04-8.59395E-04 7.36624E-04-9.72925E-17 1.23241E-17 2.68023E-17
 -1        59-8.59395E-04-8.59395E-04 7.36624E-04 4.78186E-17 3.73131E-17 1.24819E-17
 -1        60-1.28909E-03-1.28909E-03 1.10494E-03-6.04267E-17-5.48243E-17 2.74370E-17
 -1        61-1.28909E-03-1.28909E-03 1.10494E-03-2.84122E-17-2.06336E-17-3.61470E-17
 -1        62-8.59395E-04-8.59395E-04 7.36624E-04-5.69726E-17-3.56537E-17 2.25956E-17
 -1        63-8.59395E-04-8.59395E-04 7.36624E-04 7.99057E-17-1.99977E-17-2.94978E-17
 -1        64-8.59395E-04-8.59395E-04 7.36624E-04 7.91688E-17-1.58426E-17 3.09037E-17
 -1        65-8.59395E-04-8.59395E-04 7.36624E-04-2.41133E-17-2.52633E-17-6.07940E-18
 -1        66-1.28909E-03-1.28909E-03 1.10494E-03 2.86939E-17 9.79319E-17 4.93764E-17
 -1        67-2.57818E-03-2.57818E-03 2.20987E-03-2.79430E-19 3.76977E-17 2.71466E-17
 -1        68-1.28909E-03-1.28909E-03 1.10494E-03-5.74079E-17 6.10948E-17 9.77397E-18
 -1        69-1.28909E-03-1.28909E-03 1.10494E-03 2.88180E-17 5.67604E-17-2.57180E-17
 -1        70-1.28909E-03-1.28909E-03 1.10494E-03 2.85397E-17-1.22122E-17 3.85429E-17
 -1        71-1.28909E-03-1.28909E-03 1.10494E-03-6.65873E-17-2.37644E-17-1.31292E-16
 -1        72-2.57818E-03-2.57818E-03 2.20987E-03 3.29610E-18-5.62663E-17 9.26344E-17
 -3
    1PSTEP                       280          94           1          
  100CL  194 8.04781E-01          72                     0   94           1
 -4  DISP        4    1
 -5  D1          1    2    1    0
 -5  D2          1    2    2    0
 -5  D3          1    2    3    0
 -5  ALL         1    2    0    0    1ALL
 -1         1 0.00000E+00 0.00000E+00 0.00000E+00
 -1         2-1.38077E+00 0.00000E+00 0.00000E+00
 -1         3-1.13813E+01 0.00000E+00 0.00000E+00
 -1         4-1.27621E+01 0.00000E+00 0.00000E+00
 -1         5-2.27627E+01 0.00000E+00 0.00000E+00
 -1         6-2.41434E+01 0.00000E+00 0.00000E+00
 -1         7 0.00000E+00-1.38077E+00 0.00000E+00
 -1         8-1.38077E+00-1.38077E+00 0.00000E+00
 -1         9-1.13813E+01-1.38077E+00 0.00000E+00
 -1        10-1.27621E+01-1.38077E+00 0.00000E+00
 -1        11-2.27627E+01-1.38077E+00 0.00000E+00
 -1        12-2.41434E+01-1.38077E+00 0.00000E+00
 -1        13 0.00000E+00-1.13813E+01 0.00000E+00
 -1        14-1.38077E+00-1.13813E+01 0.00000E+00
 -1        15-1.13813E+01-1.13813E+01 0.00000E+00
 -1        16-1.27621E+01-1.13813E+01 0.00000E+00
 -1        17-2.27627E+01-1.13813E+01 0.00000E+00
 -1        18-2.41434E+01-1.13813E+01 0.00000E+00
 -1        19 0.00000E+00-1.27621E+01 0.00000E+00
 -1        20-1.38077E+00-1.27621E+01 0.00000E+00
 -1        21-1.13813E+01-1.27621E+01 0.00000E+00
 -1        22-1.27621E+01-1.27621E+01 0.00000E+00
 -1        23-2.27627E+01-1.27621E+01 0.00000E+00
 -1        24-2.41434E+01-1.27621E+01 0.00000E+00
 -1        25 0.00000E+00-2.27627E+01 0.00000E+00
 -1        26-1.38077E+00-2.27627E+01 0.00000E+00
 -1        27-1.13813E+01-2.27627E+01 0.00000E+00
 -1        28-1.27621E+01-2.27627E+01 0.00000E+00
 -1        29-2.27627E+01-2.27627E+01 0.00000E+00
 -1        30-2.41434E+01-2.27627E+01 0.00000E+00
 -1        31 0.00000E+00-2.41434E+01 0.00000E+00
 -1        32-1.38077E+00-2.41434E+01 0.00000E+00
 -1        33-1.13813E+01-2.41434E+01 0.00000E+00
 -1        34-1.27621E+01-2.41434E+01 0.00000E+00
 -1        35-2.27627E+01-2.41434E+01 0.00000E+00
 -1        36-2.41434E+01-2.41434E+01 0.00000E+00
 -1        37 0.00000E+00 0.00000E+00 1.65268E+00
 -1        38-1.38077E+00 0.00000E+00 1.65268E+00
 -1        39-1.13813E+01 0.00000E+00 1.65268E+00
 -1        40-1.27621E+01 0.00000E+00 1.65268E+00
 -1        41-2.27627E+01 0.00000E+00 1.65268E+00
 -1        42-2.41434E+01 0.00000E+00 1.65268E+00
 -1        43 0.00000E+00-1.38077E+00 1.65268E+00
 -1        44-1.38077E+00-1.38077E+00 1.65268E+00
 -1        45-1.13813E+01-1.38077E+00 1.65268E+00
 -1        46-1.27621E+01-1.38077E+00 1.65268E+00
 -1        47-2.27627E+01-1.38077E+00 1.65268E+00
 -1        48-2.41434E+01-1.38077E+00 1.65268E+00
 -1        49 0.00000E+00-1.13813E+01 1.65268E+00
 -1        50-1.38077E+00-1.13813E+01 1.65268E+00
 -1        51-1.13813E+01-1.13813E+01 1.65268E+00
 -1        52-1.27621E+01-1.13813E+01 1.65268E+00
 -1        53-2.27627E+01-1.13813E+01 1.65268E+00
 -1        54-2.41434E+01-1.13813E+01 1.65268E+00
 -1        55 0.00000E+00-1.27621E+01 1.65268E+00
 -1        56-1.38077E+00-1.27621E+01 1.65268E+00
 -1        57-1.13813E+01-1.27621E+01 1.65268E+00
 -1        58-1.27621E+01-1.27621E+01 1.65268E+00
 -1        59-2.27627E+01-1.27621E+01 1.65268E+00
 -1        60-2.41434E+01-1.27621E+01 1.65268E+00
 -1        61 0.00000E+00-2.27627E+01 1.65268E+00
 -1        62-1.38077E+00-2.27627E+01 1.65268E+00
 -1        63-1.13813E+01-2.27627E+01 1.65268E+00
 -1        64-1.27621E+01-2.27627E+01 1.65268E+00
 -1        65-2.27627E+01-2.27627E+01 1.65268E+00
 -1        66-2.41434E+01-2.27627E+01 1.65268E+00
 -1        67 0.00000E+00-2.41434E+01 1.65268E+00
 -1        68-1.38077E+00-2.41434E+01 1.65268E+00
 -1        69-1.13813E+01-2.41434E+01 1.65268E+00
 -1        70-1.27621E+01-2.41434E+01 1.65268E+00
 -1        71-2.27627E+01-2.41434E+01 1.65268E+00
 -1        72-2.41434E+01-2.41434E+01 1.65268E+00
 -3
    1PSTEP                       281          94           1          
  100CL  194 8.04781E-01          72                     0   94           1
 -4  STRESS      6    1
 -5  SXX         1    4    1    1
 -5  SYY         1    4    2    2
 -5  SZZ         1    4    3    3
 -5  SXY         1    4    1    2
 -5  SYZ         1    4    2    3
 -5  SZX         1    4    3    1
 -1         1-8.25336E+02-8.25336E+02 1.98465E-10 2.87938E-15 2.45810E-14-2.52041E-15
 -1         2-4.12668E+02-4.12668E+02 1.02439E-10-6.77327E-12 3.60894E-15-5.73569E-12
 -1         3-4.12668E+02-4.12668E+02 9.69725E-11 6.13457E-12-1.08956E-14-3.43205E-12
 -1         4-4.12668E+02-4.12668E+02 1.19119E-10-7.07193E-12 2.71761E-16-1.02529E-11
 -1         5-4.12668E+02-4.12668E+02 1.15107E-10 9.84865E-12-7.65530E-15 6.28017E-12
 -1         6-8.25336E+02-8.25336E+02 2.02506E-10 9.86761E-13 5.70566E-15-1.10565E-12
 -1         7-4.12668E+02-4.12668E+02 8.05188E-11-3.11801E-12 9.49591E-12 1.18944E-15
 -1         8-2.75112E+02-2.75112E+02 5.63170E-11-6.59515E-12 4.26773E-12-2.14690E-12
 -1         9-2.75112E+02-2.75112E+02 4.85085E-11 5.41618E-12 3.23573E-12-4.38536E-12
 -1        10-2.75112E+02-2.75112E+02 6.57518E-11-3.67253E-12 5.29583E-12-1.01485E-11
 -1        11-2.75112E+02-2.75112E+02 7.43094E-11 2.60736E-12-3.50400E-12 5.31580E-12
 -1        12-4.12668E+02-4.12668E+02 9.01568E-11-6.22397E-12 1.63831E-12 2.73256E-13
 -1        13-4.12668E+02-4.12668E+02 1.03431E-10 1.03782E-11-1.66217E-12 8.81759E-15
 -1        14-2.75112E+02-2.75112E+02 6.34715E-11-2.79806E-12-1.29729E-12-4.04833E-12
 -1        15-2.75112E+02-2.75112E+02 7.03150E-11 4.23849E-12 2.55557E-12 3.78546E-12
 -1        16-2.75112E+02-2.75112E+02 6.91806E-11-6.65528E-12 1.36993E-12 1.34614E-12
 -1        17-2.75112E+02-2.75112E+02 4.70007E-11 4.02946E-12 6.59185E-13-8.49185E-12
 -1        18-4.12668E+02-4.12668E+02 9.56622E-11 4.76046E-12-1.15545E-11-5.38856E-14
 -1        19-4.12668E+02-4.12668E+02 8.10808E-11-2.89301E-12 6.88220E-12 7.14253E-16
 -1        20-2.75112E+02-2.75112E+02 4.12376E-11-1.16455E-11 6.92838E-12 2.59967E-12
 -1        21-2.75112E+02-2.75112E+02 3.87455E-11 1.11804E-11 1.28367E-11-3.11438E-14
 -1        22-2.75112E+02-2.75112E+02 4.73703E-11 2.84910E-13 2.27804E-12 4.37744E-12
 -1        23-2.75112E+02-2.75112E+02 5.97553E-11 1.84046E-11-2.05139E-12-9.45297E-13
 -1        24-4.12668E+02-4.12668E+02 1.36170E-10 2.62197E-11-2.72995E-11-1.24038E-13
 -1        25-4.12668E+02-4.12668E+02 7.74384E-11 6.27762E-12-7.60628E-12 4.64789E-15
 -1        26-2.75112E+02-2.75112E+02 3.76226E-11 1.14272E-11-6.32713E-12 8.86362E-12
 -1        27-2.75112E+02-2.75112E+02 4.67258E-11-1.20433E-11-8.78628E-12-8.51082E-13
 -1        28-2.75112E+02-2.75112E+02 4.07094E-11-6.32323E-12-7.31381E-13 1.02905E-11
 -1        29-2.75112E+02-2.75112E+02 4.87974E-11-1.23469E-11 1.73745E-12-8.55475E-12
 -1        30-4.12668E+02-4.12668E+02 1.42496E-10-3.07318E-11 2.63062E-11 1.85176E-14
 -1        31-8.25336E+02-8.25336E+02 1.95893E-10 1.79454E-13 5.04329E-13-1.75035E-14
 -1        32-4.12668E+02-4.12668E+02 9.08014E-11 1.09505E-11-1.23912E-14-2.77044E-12
 -1        33-4.12668E+02-4.12668E+02 1.02496E-10-1.28795E-11 5.95015E-14 1.25066E-11
 -1        34-4.12668E+02-4.12668E+02 7.08919E-11-4.00903E-12 2.29605E-14 1.88584E-11
 -1        35-4.12668E+02-4.12668E+02 4.30212E-11 1.22742E-11-2.07816E-13-2.48082E-11
 -1        36-8.25336E+02-8.25336E+02 2.06708E-10 2.21574E-13 1.61099E-13-1.02253E-12
 -1        37-8.25336E+02-8.25336E+02 2.14500E-10-4.60617E-15-6.52088E-12 6.44703E-12
 -1        38-4.12668E+02-4.12668E+02 1.03988E-10-3.31403E-12-3.11594E-12-2.50852E-12
 -1        39-4.12668E+02-4.12668E+02 9.25248E-11 1.63740E-12-1.23713E-12 4.12574E-12
 -1        40-4.12668E+02-4.12668E+02 1.21140E-10-1.40909E-11 1.40012E-13-2.35160E-12
 -1        41-4.12668E+02-4.12668E+02 9.11987E-11 1.15071E-11 4.40886E-12 4.23405E-12
 -1        42-8.25336E+02-8.25336E+02 1.84127E-10 5.71330E-13 3.04809E-12-3.67523E-12
 -1        43-4.12668E+02-4.12668E+02 9.37556E-11-7.44159E-12 6.29495E-12 3.37215E-12
 -1        44-2.75112E+02-2.75112E+02 6.06308E-11-7.16888E-12 2.17520E-12 9.44279E-14
 -1        45-2.75112E+02-2.75112E+02 4.33243E-11 5.21189E-12 2.39550E-12 1.79689E-12
 -1        46-2.75112E+02-2.75112E+02 6.50784E-11-5.10998E-12 5.39096E-12-4.11641E-12
 -1        47-2.75112E+02-2.75112E+02 5.56932E-11 1.06860E-11-5.39352E-13 2.24260E-12
 -1        48-4.12668E+02-4.12668E+02 7.72488E-11 3.31105E-12 3.17019E-12-4.94026E-12
 -1        49-4.12668E+02-4.12668E+02 1.08298E-10 1.03138E-11-1.81560E-12 4.75954E-12
 -1        50-2.75112E+02-2.75112E+02 7.24454E-11 6.27289E-12-4.05004E-12-8.51278E-13
 -1        51-2.75112E+02-2.75112E+02 8.66343E-11-2.77668E-12-3.29149E-12-7.91782E-13
 -1        52-2.75112E+02-2.75112E+02 6.64981E-11-4.44616E-12-3.09920E-13-2.98591E-12
 -1        53-2.75112E+02-2.75112E+02 5.91902E-11 1.82840E-12 5.81673E-12-9.92167E-12
 -1        54-4.12668E+02-4.12668E+02 8.90871E-11-1.27164E-11 4.38718E-12-2.44981E-12
 -1        55-4.12668E+02-4.12668E+02 1.06917E-10 2.81096E-12 6.45095E-12 4.01940E-13
 -1        56-2.75112E+02-2.75112E+02 6.41910E-11 1.27103E-12 4.36960E-12 2.85914E-12
 -1        57-2.75112E+02-2.75112E+02 6.89491E-11-8.44245E-12 7.33021E-12-7.00808E-13
 -1        58-2.75112E+02-2.75112E+02 5.95645E-11-1.00240E-11 4.87564E-13 3.95297E-12
 -1        59-2.75112E+02-2.75112E+02 5.68615E-11 5.11513E-12 3.64352E-12 2.21747E-12
 -1        60-4.12668E+02-4.12668E+02 1.06672E-10-7.88976E-12-1.13825E-11 4.68743E-12
 -1        61-4.12668E+02-4.12668E+02 1.20919E-10 3.19013E-12-6.43677E-12-4.62603E-12
 -1        62-2.75112E+02-2.75112E+02 6.94325E-11-5.41370E-12-1.57070E-12 5.78345E-12
 -1        63-2.75112E+02-2.75112E+02 8.75837E-11 1.13210E-11-3.36290E-12-5.50945E-12
 -1        64-2.75112E+02-2.75112E+02 6.52541E-11 8.02590E-12-1.87460E-12 5.72183E-12
 -1        65-2.75112E+02-2.75112E+02 6.38416E-11-1.49925E-12-1.65772E-12-3.01030E-12
 -1        66-4.12668E+02-4.12668E+02 1.15016E-10 2.29793E-12 1.76886E-11 9.27322E-12
 -1        67-8.25336E+02-8.25336E+02 2.17759E-10-1.19768E-14 4.08649E-12 2.04613E-12
 -1        68-4.12668E+02-4.12668E+02 1.06266E-10-1.13078E-11 7.28880E-12-1.81636E-12
 -1        69-4.12668E+02-4.12668E+02 1.41891E-10 5.97989E-12 8.00585E-12-2.91392E-12
 -1        70-4.12668E+02-4.12668E+02 8.61152E-11 5.65871E-13-9.87527E-13 2.93545E-12
 -1        71-4.12668E+02-4.12668E+02 9.13401E-11-3.99897E-12-4.36252E-12-1.99508E-11
 -1        72-8.25336E+02-8.25336E+02 2.00277E-10-2.41999E-13-1.61198E-11 1.13874E-11
 -3
    1PSTEP                       282          94           1          
  100CL  194 8.04781E-01          72                     0   94           1
 -4  TOSTRAIN    6    1
 -5  EXX         1    4    1    1
 -5  EYY         1    4    2    2
 -5  EZZ         1    4    3    3
 -5  EXY         1    4    1    2
 -5  EYZ         1    4    2    3
 -5  EZX         1    4    3    1
 -1         1-2.75762E-03-2.75762E-03 2.36367E-03 1.80528E-20 1.52120E-19-1.59435E-20
 -1         2-1.37881E-03-1.37881E-03 1.18184E-03-4.24661E-17 2.24646E-20-3.54088E-17
 -1         3-1.37881E-03-1.37881E-03 1.18184E-03 3.84617E-17-6.76642E-20-2.11872E-17
 -1         4-1.37881E-03-1.37881E-03 1.18184E-03-4.43386E-17 1.54435E-21-6.32948E-17
 -1         5-1.37881E-03-1.37881E-03 1.18184E-03 6.17478E-17-4.78736E-20 3.87704E-17
 -1         6-2.75762E-03-2.75762E-03 2.36367E-03 6.18666E-18 3.49510E-20-6.82461E-18
 -1         7-1.37881E-03-1.37881E-03 1.18184E-03-1.95489E-17 5.86220E-17 7.46598E-21
 -1         8-9.19205E-04-9.19205E-04 7.87890E-04-4.13494E-17 2.63464E-17-1.32535E-17
 -1         9-9.19205E-04-9.19205E-04 7.87890E-04 3.39576E-17 1.99751E-17-2.70724E-17
 -1        10-9.19205E-04-9.19205E-04 7.87890E-04-2.30255E-17 3.26931E-17-6.26503E-17
 -1        11-9.19205E-04-9.19205E-04 7.87890E-04 1.63473E-17-2.16320E-17 3.28165E-17
 -1        12-1.37881E-03-1.37881E-03 1.18184E-03-3.90222E-17 1.01143E-17 1.68699E-18
 -1        13-1.37881E-03-1.37881E-03 1.18184E-03 6.50677E-17-1.02618E-17 5.43493E-20
 -1        14-9.19205E-04-9.19205E-04 7.87890E-04-1.75429E-17-8.00843E-18-2.49920E-17
 -1        15-9.19205E-04-9.19205E-04 7.87890E-04 2.65739E-17 1.57760E-17 2.33689E-17
 -1        16-9.19205E-04-9.19205E-04 7.87890E-04-4.17264E-17 8.45722E-18 8.31006E-18
 -1        17-9.19205E-04-9.19205E-04 7.87890E-04 2.52634E-17 4.06975E-18-5.24231E-17
 -1        18-1.37881E-03-1.37881E-03 1.18184E-03 2.98465E-17-7.13306E-17-3.32101E-19
 -1        19-1.37881E-03-1.37881E-03 1.18184E-03-1.81382E-17 4.24858E-17 4.76034E-21
 -1        20-9.19205E-04-9.19205E-04 7.87890E-04-7.30135E-17 4.27718E-17 1.60490E-17
 -1        21-9.19205E-04-9.19205E-04 7.87890E-04 7.00973E-17 7.92456E-17-1.92196E-19
 -1        22-9.19205E-04-9.19205E-04 7.87890E-04 1.78629E-18 1.40634E-17 2.70236E-17
 -1        23-9.19205E-04-9.19205E-04 7.87890E-04 1.15391E-16-1.26636E-17-5.83562E-18
 -1        24-1.37881E-03-1.37881E-03 1.18184E-03 1.64389E-16-1.68531E-16-7.65637E-19
 -1        25-1.37881E-03-1.37881E-03 1.18184E-03 3.93586E-17-4.69562E-17 2.90783E-20
 -1        26-9.19205E-04-9.19205E-04 7.87890E-04 7.16446E-17-3.90596E-17 5.47188E-17
 -1        27-9.19205E-04-9.19205E-04 7.87890E-04-7.55077E-17-5.42410E-17-5.25356E-18
 -1        28-9.19205E-04-9.19205E-04 7.87890E-04-3.96446E-17-4.51537E-18 6.35274E-17
 -1        29-9.19205E-04-9.19205E-04 7.87890E-04-7.74111E-17 1.07261E-17-5.28116E-17
 -1        30-1.37881E-03-1.37881E-03 1.18184E-03-1.92678E-16 1.62398E-16 1.14492E-19
 -1        31-2.75762E-03-2.75762E-03 2.36367E-03 1.12512E-18 3.11397E-18-1.07705E-19
 -1        32-1.37881E-03-1.37881E-03 1.18184E-03 6.86561E-17-7.62297E-20-1.71028E-17
 -1        33-1.37881E-03-1.37881E-03 1.18184E-03-8.07500E-17 3.67387E-19 7.72084E-17
 -1        34-1.37881E-03-1.37881E-03 1.18184E-03-2.51353E-17 1.41337E-19 1.16420E-16
 -1        35-1.37881E-03-1.37881E-03 1.18184E-03 7.69553E-17-1.28263E-18-1.53151E-16
 -1        36-2.75762E-03-2.75762E-03 2.36367E-03 1.38919E-18 9.94472E-19-6.31262E-18
 -1        37-2.75762E-03-2.75762E-03 2.36367E-03-2.88791E-20-4.06698E-17 4.02099E-17
 -1        38-1.37881E-03-1.37881E-03 1.18184E-03-2.07779E-17-1.94343E-17-1.52811E-17
 -1        39-1.37881E-03-1.37881E-03 1.18184E-03 1.02659E-17-7.71613E-18 2.59578E-17
 -1        40-1.37881E-03-1.37881E-03 1.18184E-03-8.83453E-17 8.73235E-19-1.40292E-17
 -1        41-1.37881E-03-1.37881E-03 1.18184E-03 7.21457E-17 2.74982E-17 2.60190E-17
 -1        42-2.75762E-03-2.75762E-03 2.36367E-03 3.58205E-18 1.90109E-17-2.29273E-17
 -1        43-1.37881E-03-1.37881E-03 1.18184E-03-4.66563E-17 3.86542E-17 2.10316E-17
 -1        44-9.19205E-04-9.19205E-04 7.87890E-04-4.49465E-17 1.32961E-17 7.25616E-19
 -1        45-9.19205E-04-9.19205E-04 7.87890E-04 3.26768E-17 1.47359E-17 1.14771E-17
 -1        46-9.19205E-04-9.19205E-04 7.87890E-04-3.20379E-17 3.32858E-17-2.50280E-17
 -1        47-9.19205E-04-9.19205E-04 7.87890E-04 6.69979E-17-3.14242E-18 1.36437E-17
 -1        48-1.37881E-03-1.37881E-03 1.18184E-03 2.07592E-17 1.96668E-17-3.07993E-17
 -1        49-1.37881E-03-1.37881E-03 1.18184E-03 6.46638E-17-1.12053E-17 2.96851E-17
 -1        50-9.19205E-04-9.19205E-04 7.87890E-04 3.93289E-17-2.51871E-17-5.05354E-18
 -1        51-9.19205E-04-9.19205E-04 7.87890E-04-1.74088E-17-2.06805E-17-5.17415E-18
 -1        52-9.19205E-04-9.19205E-04 7.87890E-04-2.78759E-17-2.02841E-18-1.87193E-17
 -1        53-9.19205E-04-9.19205E-04 7.87890E-04 1.14634E-17 3.62537E-17-6.13714E-17
 -1        54-1.37881E-03-1.37881E-03 1.18184E-03-7.97276E-17 2.81176E-17-1.53054E-17
 -1        55-1.37881E-03-1.37881E-03 1.18184E-03 1.76238E-17 3.98273E-17 2.50703E-18
 -1        56-9.19205E-04-9.19205E-04 7.87890E-04 7.96892E-18 2.67906E-17 1.76677E-17
 -1        57-9.19205E-04-9.19205E-04 7.87890E-04-5.29314E-17 4.48914E-17-4.36604E-18
 -1        58-9.19205E-04-9.19205E-04 7.87890E-04-6.28473E-17 2.89421E-18 2.43635E-17
 -1        59-9.19205E-04-9.19205E-04 7.87890E-04 3.20702E-17 2.28372E-17 1.39117E-17
 -1        60-1.37881E-03-1.37881E-03 1.18184E-03-4.94662E-17-6.92320E-17 2.92709E-17
 -1        61-1.37881E-03-1.37881E-03 1.18184E-03 2.00011E-17-3.96308E-17-2.88521E-17
 -1        62-9.19205E-04-9.19205E-04 7.87890E-04-3.39421E-17-9.38836E-18 3.55075E-17
 -1        63-9.19205E-04-9.19205E-04 7.87890E-04 7.09790E-17-2.04444E-17-3.42993E-17
 -1        64-9.19205E-04-9.19205E-04 7.87890E-04 5.03197E-17-1.16351E-17 3.50357E-17
 -1        65-9.19205E-04-9.19205E-04 7.87890E-04-9.39979E-18-1.04291E-17-1.82086E-17
 -1        66-1.37881E-03-1.37881E-03 1.18184E-03 1.44073E-17 1.08663E-16 5.78098E-17
 -1        67-2.75762E-03-2.75762E-03 2.36367E-03-7.50903E-20 2.54391E-17 1.27604E-17
 -1        68-1.37881E-03-1.37881E-03 1.18184E-03-7.08964E-17 4.54588E-17-1.11487E-17
 -1        69-1.37881E-03-1.37881E-03 1.18184E-03 3.74920E-17 4.98974E-17-1.89884E-17
 -1        70-1.37881E-03-1.37881E-03 1.18184E-03 3.54783E-18-6.19101E-18 1.71220E-17
 -1        71-1.37881E-03-1.37881E-03 1.18184E-03-2.50722E-17-2.72249E-17-1.22843E-16
 -1        72-2.75762E-03-2.75762E-03 2.36367E-03-1.51725E-18-1.00581E-16 7.09411E-17
 -3
    1PSTEP                       283          95           1          
  100CL  195 8.13781E-01          72                     0   95           1
 -4  DISP        4    1
 -5  D1          1    2    1    0
 -5  D2          1    2    2    0
 -5  D3          1    2    3    0
 -5  ALL         1    2    0    0    1ALL
 -1         1 0.00000E+00 0.00000E+00 0.00000E+00
 -1         2-1.47073E+00 0.00000E+00 0.00000E+00
 -1         3-1.14714E+01 0.00000E+00 0.00000E+00
 -1         4-1.29421E+01 0.00000E+00 0.00000E+00
 -1         5-2.29427E+01 0.00000E+00 0.00000E+00
 -1         6-2.44134E+01 0.00000E+00 0.00000E+00
 -1         7 0.00000E+00-1.47073E+00 0.00000E+00
 -1         8-1.47073E+00-1.47073E+00 0.00000E+00
 -1         9-1.14714E+01-1.47073E+00 0.00000E+00
 -1        10-1.29421E+01-1.47073E+00 0.00000E+00
 -1        11-2.29427E+01-1.47073E+00 0.00000E+00
 -1        12-2.44134E+01-1.47073E+00 0.00000E+00
 -1        13 0.00000E+00-1.14714E+01 0.00000E+00
 -1        14-1.47073E+00-1.14714E+01 0.00000E+00
 -1        15-1.14714E+01-1.14714E+01 0.00000E+00
 -1        16-1.29421E+01-1.14714E+01 0.00000E+00
 -1        17-2.29427E+01-1.14714E+01 0.00000E+00
 -1        18-2.44134E+01-1.14714E+01 0.00000E+00
 -1        19 0.00000E+00-1.29421E+01 0.00000E+00
 -1        20-1.47073E+00-1.29421E+01 0.00000E+00
 -1        21-1.14714E+01-1.29421E+01 0.00000E+00
 -1        22-1.29421E+01-1.29421E+01 0.00000E+00
 -1        23-2.29427E+01-1.29421E+01 0.00000E+00
 -1        24-2.44134E+01-1.29421E+01 0.00000E+00
 -1        25 0.00000E+00-2.29427E+01 0.00000E+00
 -1        26-1.47073E+00-2.29427E+01 0.00000E+00
 -1        27-1.14714E+01-2.29427E+01 0.00000E+00
 -1        28-1.29421E+01-2.29427E+01 0.00000E+00
 -1        29-2.29427E+01-2.29427E+01 0.00000E+00
 -1        30-2.44134E+01-2.29427E+01 0.00000E+00
 -1        31 0.00000E+00-2.44134E+01 0.00000E+00
 -1        32-1.47073E+00-2.44134E+01 0.00000E+00
 -1        33-1.14714E+01-2.44134E+01 0.00000E+00
 -1        34-1.29421E+01-2.44134E+01 0.00000E+00
 -1        35-2.29427E+01-2.44134E+01 0.00000E+00
 -1        36-2.44134E+01-2.44134E+01 0.00000E+00
 -1        37 0.00000E+00 0.00000E+00 1.76007E+00
 -1        38-1.47073E+00 0.00000E+00 1.76007E+00
 -1        39-1.14714E+01 0.00000E+00 1.76007E+00
 -1        40-1.29421E+01 0.00000E+00 1.76007E+00
 -1        41-2.29427E+01 0.00000E+00 1.76007E+00
 -1        42-2.44134E+01 0.00000E+00 1.76007E+00
 -1        43 0.00000E+00-1.47073E+00 1.76007E+00
 -1        44-1.47073E+00-1.47073E+00 1.76007E+00
 -1        45-1.14714E+01-1.47073E+00 1.76007E+00
 -1        46-1.29421E+01-1.47073E+00 1.76007E+00
 -1        47-2.29427E+01-1.47073E+00 1.76007E+00
 -1        48-2.44134E+01-1.47073E+00 1.76007E+00
 -1        49 0.00000E+00-1.14714E+01 1.76007E+00
 -1        50-1.47073E+00-1.14714E+01 1.76007E+00
 -1        51-1.14714E+01-1.14714E+01 1.76007E+00
 -1        52-1.29421E+01-1.14714E+01 1.76007E+00
 -1        53-2.29427E+01-1.14714E+01 1.76007E+00
 -1        54-2.44134E+01-1.14714E+01 1.76007E+00
 -1        55 0.00000E+00-1.29421E+01 1.76007E+00
 -1        56-1.47073E+00-1.29421E+01 1.76007E+00
 -1        57-1.14714E+01-1.29421E+01 1.76007E+00
 -1        58-1.29421E+01-1.29421E+01 1.76007E+00
 -1        59-2.29427E+01-1.29421E+01 1.76007E+00
 -1        60-2.44134E+01-1.29421E+01 1.76007E+00
 -1        61 0.00000E+00-2.29427E+01 1.76007E+00
 -1        62-1.47073E+00-2.29427E+01 1.76007E+00
 -1        63-1.14714E+01-2.29427E+01 1.76007E+00
 -1        64-1.29421E+01-2.29427E+01 1.76007E+00
 -1        65-2.29427E+01-2.29427E+01 1.76007E+00
 -1        66-2.44134E+01-2.29427E+01 1.76007E+00
 -1        67 0.00000E+00-2.44134E+01 1.76007E+00
 -1        68-1.47073E+00-2.44134E+01 1.76007E+00
 -1        69-1.14714E+01-2.44134E+01 1.76007E+00
 -1        70-1.29421E+01-2.44134E+01 1.76007E+00
 -1        71-2.29427E+01-2.44134E+01 1.76007E+00
 -1        72-2.44134E+01-2.44134E+01 1.76007E+00
 -3
    1PSTEP                       284          95           1          
  100CL  195 8.13781E-01          72                     0   95           1
 -4  STRESS      6    1
 -5  SXX         1    4    1    1
 -5  SYY         1    4    2    2
 -5  SZZ         1    4    3    3
 -5  SXY         1    4    1    2
 -5  SYZ         1    4    2    3
 -5  SZX         1    4    3    1
 -1         1-8.78894E+02-8.78894E+02 5.39868E-10 1.86323E-14 1.28211E-14 5.95841E-15
 -1         2-4.39447E+02-4.39447E+02 2.69477E-10-4.47901E-13-9.74767E-16-4.10871E-12
 -1         3-4.39447E+02-4.39447E+02 2.72198E-10 9.63256E-13-1.14759E-14-3.93772E-12
 -1         4-4.39447E+02-4.39447E+02 2.92874E-10-1.46914E-11-5.45605E-16-1.29203E-11
 -1         5-4.39447E+02-4.39447E+02 2.93991E-10 1.70254E-11 5.89161E-15 9.74691E-12
 -1         6-8.78894E+02-8.78894E+02 5.54244E-10 7.57279E-13-1.40664E-14 8.94035E-13
 -1         7-4.39447E+02-4.39447E+02 2.59111E-10-6.15660E-12 7.93931E-12-8.63022E-15
 -1         8-2.92965E+02-2.92965E+02 1.72937E-10-4.40921E-12 5.31094E-12-3.71174E-12
 -1         9-2.92965E+02-2.92965E+02 1.68265E-10-8.81663E-14 9.67602E-13-2.55514E-12
 -1        10-2.92965E+02-2.92965E+02 1.76848E-10-1.03422E-11 4.94887E-12-5.99770E-12
 -1        11-2.92965E+02-2.92965E+02 1.85200E-10 7.03911E-12-5.26183E-12 1.09681E-12
 -1        12-4.39447E+02-4.39447E+02 2.59087E-10-6.60495E-12 1.64759E-12-3.75518E-14
 -1        13-4.39447E+02-4.39447E+02 2.78139E-10 1.24914E-11-2.71812E-12 6.06633E-15
 -1        14-2.92965E+02-2.92965E+02 1.79155E-10-3.63416E-12-3.39093E-12-5.73870E-12
 -1        15-2.92965E+02-2.92965E+02 1.94188E-10 9.54976E-12 5.08496E-12 4.15515E-12
 -1        16-2.92965E+02-2.92965E+02 1.82897E-10-4.22179E-12-6.06512E-13-4.22170E-13
 -1        17-2.92965E+02-2.92965E+02 1.63984E-10 4.12617E-12 6.99729E-13-5.79095E-12
 -1        18-4.39447E+02-4.39447E+02 2.75087E-10 4.96317E-12-1.00249E-11-1.97556E-13
 -1        19-4.39447E+02-4.39447E+02 2.58346E-10-2.82819E-12 2.12217E-12-2.74589E-15
 -1        20-2.92965E+02-2.92965E+02 1.56956E-10-1.38472E-11 6.79641E-12 2.56721E-12
 -1        21-2.92965E+02-2.92965E+02 1.58616E-10 8.47383E-12 1.17615E-11 5.56395E-14
 -1        22-2.92965E+02-2.92965E+02 1.58655E-10-5.20944E-12 2.43873E-12 4.99770E-12
 -1        23-2.92965E+02-2.92965E+02 1.74281E-10 2.18693E-11-2.78102E-12-1.29866E-12
 -1        24-4.39447E+02-4.39447E+02 3.10089E-10 3.14744E-11-2.53970E-11-5.24558E-13
 -1        25-4.39447E+02-4.39447E+02 2.55485E-10 7.52297E-12-3.70095E-12-1.05671E-14
 -1        26-2.92965E+02-2.92965E+02 1.54750E-10 1.23510E-11-7.58378E-12 7.69427E-12
 -1        27-2.92965E+02-2.92965E+02 1.64535E-10-8.10248E-12-6.40581E-12-4.46616E-12
 -1        28-2.92965E+02-2.92965E+02 1.58447E-10-1.51563E-12-2.50470E-12 4.51429E-12
 -1        29-2.92965E+02-2.92965E+02 1.68101E-10-1.48960E-11 1.82706E-12-5.39915E-12
 -1        30-4.39447E+02-4.39447E+02 3.19672E-10-3.74718E-11 2.37725E-11 1.80607E-13
 -1        31-8.78894E+02-8.78894E+02 5.46997E-10-9.35434E-14-1.29915E-12 3.63240E-15
 -1        32-4.39447E+02-4.39447E+02 2.68586E-10 1.09568E-11 9.80854E-13-5.91091E-12
 -1        33-4.39447E+02-4.39447E+02 2.81566E-10-1.79805E-11 9.21449E-13 1.21654E-11
 -1        34-4.39447E+02-4.39447E+02 2.48532E-10-8.10277E-12-2.99915E-13 1.28741E-11
 -1        35-4.39447E+02-4.39447E+02 2.19287E-10 1.39163E-11 7.72100E-14-1.81137E-11
 -1        36-8.78894E+02-8.78894E+02 5.58265E-10 1.24324E-12-3.44727E-13-4.97741E-13
 -1        37-8.78894E+02-8.78894E+02 5.56241E-10-9.02329E-15-8.17674E-12 6.87259E-12
 -1        38-4.39447E+02-4.39447E+02 2.77727E-10-2.45472E-12-3.67118E-12-6.77798E-13
 -1        39-4.39447E+02-4.39447E+02 2.56088E-10 9.80103E-13 1.66235E-12 4.95113E-12
 -1        40-4.39447E+02-4.39447E+02 2.89084E-10-8.12160E-12-1.50043E-12-4.46857E-12
 -1        41-4.39447E+02-4.39447E+02 2.55711E-10 4.88300E-12 3.86565E-12 7.21237E-12
 -1        42-8.78894E+02-8.78894E+02 5.17674E-10 3.49497E-13 6.98813E-12-6.17438E-12
 -1        43-4.39447E+02-4.39447E+02 2.64265E-10-6.07998E-12 3.84453E-12 3.83702E-12
 -1        44-2.92965E+02-2.92965E+02 1.76216E-10-5.68679E-12 2.86414E-12-1.14199E-12
 -1        45-2.92965E+02-2.92965E+02 1.63445E-10 5.51055E-12 2.08948E-12 1.13377E-12
 -1        46-2.92965E+02-2.92965E+02 1.80439E-10-9.11934E-13 3.92656E-12-2.00865E-12
 -1        47-2.92965E+02-2.92965E+02 1.72437E-10 7.69349E-12-2.68827E-12-9.88660E-13
 -1        48-4.39447E+02-4.39447E+02 2.60531E-10 6.31516E-12 5.11542E-12-3.16438E-12
 -1        49-4.39447E+02-4.39447E+02 2.69390E-10 9.28437E-12 7.72930E-13 5.60233E-12
 -1        50-2.92965E+02-2.92965E+02 1.88050E-10 5.71847E-12-4.73965E-12-2.03702E-12
 -1        51-2.92965E+02-2.92965E+02 1.97211E-10-4.59277E-12-2.96778E-13 3.16302E-13
 -1        52-2.92965E+02-2.92965E+02 1.79366E-10-4.54586E-12-2.00865E-12-4.25163E-12
 -1        53-2.92965E+02-2.92965E+02 1.68534E-10 2.35020E-13 5.48057E-12-9.46884E-12
 -1        54-4.39447E+02-4.39447E+02 2.61917E-10-1.06415E-11 4.81418E-12-4.08423E-12
 -1        55-4.39447E+02-4.39447E+02 2.76675E-10 7.78974E-12 5.21727E-12 1.08377E-14
 -1        56-2.92965E+02-2.92965E+02 1.83109E-10 4.72206E-12 4.94105E-12 2.62294E-12
 -1        57-2.92965E+02-2.92965E+02 1.82599E-10-9.99063E-12 6.20086E-12 5.33283E-13
 -1        58-2.92965E+02-2.92965E+02 1.75092E-10-1.02732E-11 7.09839E-13 5.60607E-12
 -1        59-2.92965E+02-2.92965E+02 1.70087E-10 8.96821E-12 2.09568E-12 5.87512E-13
 -1        60-4.39447E+02-4.39447E+02 2.83209E-10 2.35496E-12-9.85140E-12 2.93382E-12
 -1        61-4.39447E+02-4.39447E+02 2.88344E-10-1.37412E-12-3.66250E-12-4.47629E-12
 -1        62-2.92965E+02-2.92965E+02 1.85973E-10-9.58458E-12-2.36236E-12 4.69768E-12
 -1        63-2.92965E+02-2.92965E+02 1.95739E-10 1.38691E-11-1.32469E-12-4.45583E-12
 -1        64-2.92965E+02-2.92965E+02 1.82085E-10 9.08419E-12-3.42270E-12 4.02049E-12
 -1        65-2.92965E+02-2.92965E+02 1.75663E-10-6.21975E-12-1.34806E-12-2.50673E-12
 -1        66-4.39447E+02-4.39447E+02 2.85163E-10-7.79152E-12 1.62466E-11 4.85749E-12
 -1        67-8.78894E+02-8.78894E+02 5.38517E-10 9.76226E-14 1.57310E-12 5.76312E-12
 -1        68-4.39447E+02-4.39447E+02 2.78917E-10-1.29539E-11 8.07208E-12-3.02336E-12
 -1        69-4.39447E+02-4.39447E+02 3.02405E-10 7.50624E-12 7.43682E-12 2.66524E-12
 -1        70-4.39447E+02-4.39447E+02 2.58021E-10 4.60650E-13-1.52615E-12 3.70987E-12
 -1        71-4.39447E+02-4.39447E+02 2.55285E-10 8.03215E-14-3.65337E-12-1.79843E-11
 -1        72-8.78894E+02-8.78894E+02 5.37960E-10-1.15311E-12-1.21607E-11 1.71176E-12
 -3
    1PSTEP                       285          95           1          
  100CL  195 8.13781E-01          72                     0   95           1
 -4  TOSTRAIN    6    1
 -5  EXX         1    4    1    1
 -5  EYY         1    4    2    2
 -5  EZZ         1    4    3    3
 -5  EXY         1    4    1    2
 -5  EYZ         1    4    2    3
 -5  EZX         1    4    3    1
 -1         1-2.93701E-03-2.93701E-03 2.51744E-03 1.16916E-19 8.02472E-20 3.74525E-20
 -1         2-1.46851E-03-1.46851E-03 1.25872E-03-2.81053E-18-6.17344E-21-2.53597E-17
 -1         3-1.46851E-03-1.46851E-03 1.25872E-03 6.04434E-18-7.13575E-20-2.43050E-17
 -1         4-1.46851E-03-1.46851E-03 1.25872E-03-9.21873E-17-3.75252E-21-7.97481E-17
 -1         5-1.46851E-03-1.46851E-03 1.25872E-03 1.06833E-16 3.63012E-20 6.01605E-17
 -1         6-2.93701E-03-2.93701E-03 2.51744E-03 4.75185E-18-8.74451E-20 5.51819E-18
 -1         7-1.46851E-03-1.46851E-03 1.25872E-03-3.86320E-17 4.90041E-17-5.39796E-20
 -1         8-9.79004E-04-9.79004E-04 8.39147E-04-2.76674E-17 3.27804E-17-2.29103E-17
 -1         9-9.79004E-04-9.79004E-04 8.39147E-04-5.53235E-19 5.97194E-18-1.57711E-17
 -1        10-9.79004E-04-9.79004E-04 8.39147E-04-6.48964E-17 3.05455E-17-3.70195E-17
 -1        11-9.79004E-04-9.79004E-04 8.39147E-04 4.41697E-17-3.24776E-17 6.76977E-18
 -1        12-1.46851E-03-1.46851E-03 1.25872E-03-4.14454E-17 1.01698E-17-2.31818E-19
 -1        13-1.46851E-03-1.46851E-03 1.25872E-03 7.83821E-17-1.67770E-17 3.79224E-20
 -1        14-9.79004E-04-9.79004E-04 8.39147E-04-2.28040E-17-2.09293E-17-3.54205E-17
 -1        15-9.79004E-04-9.79004E-04 8.39147E-04 5.99238E-17 3.13852E-17 2.56468E-17
 -1        16-9.79004E-04-9.79004E-04 8.39147E-04-2.64913E-17-3.74312E-18-2.60559E-18
 -1        17-9.79004E-04-9.79004E-04 8.39147E-04 2.58913E-17 4.31879E-18-3.57434E-17
 -1        18-1.46851E-03-1.46851E-03 1.25872E-03 3.11434E-17-6.18757E-17-1.21944E-18
 -1        19-1.46851E-03-1.46851E-03 1.25872E-03-1.77466E-17 1.30986E-17-1.75294E-20
 -1        20-9.79004E-04-9.79004E-04 8.39147E-04-8.68898E-17 4.19496E-17 1.58451E-17
 -1        21-9.79004E-04-9.79004E-04 8.39147E-04 5.31724E-17 7.25948E-17 3.43386E-19
 -1        22-9.79004E-04-9.79004E-04 8.39147E-04-3.26887E-17 1.50529E-17 3.08471E-17
 -1        23-9.79004E-04-9.79004E-04 8.39147E-04 1.37227E-16-1.71651E-17-8.01593E-18
 -1        24-1.46851E-03-1.46851E-03 1.25872E-03 1.97499E-16-1.56758E-16-3.23811E-18
 -1        25-1.46851E-03-1.46851E-03 1.25872E-03 4.72059E-17-2.28434E-17-6.54453E-20
 -1        26-9.79004E-04-9.79004E-04 8.39147E-04 7.75014E-17-4.68091E-17 4.74909E-17
 -1        27-9.79004E-04-9.79004E-04 8.39147E-04-5.08423E-17-3.95385E-17-2.75666E-17
 -1        28-9.79004E-04-9.79004E-04 8.39147E-04-9.51043E-18-1.54591E-17 2.78631E-17
 -1        29-9.79004E-04-9.79004E-04 8.39147E-04-9.34709E-17 1.12769E-17-3.33252E-17
 -1        30-1.46851E-03-1.46851E-03 1.25872E-03-2.35132E-16 1.46730E-16 1.11450E-18
 -1        31-2.93701E-03-2.93701E-03 2.51744E-03-5.86976E-19-8.01911E-18 2.22285E-20
 -1        32-1.46851E-03-1.46851E-03 1.25872E-03 6.87527E-17 6.05419E-18-3.64838E-17
 -1        33-1.46851E-03-1.46851E-03 1.25872E-03-1.12826E-16 5.68727E-18 7.50882E-17
 -1        34-1.46851E-03-1.46851E-03 1.25872E-03-5.08441E-17-1.85022E-18 7.94629E-17
 -1        35-1.46851E-03-1.46851E-03 1.25872E-03 8.73231E-17 4.76415E-19-1.11803E-16
 -1        36-2.93701E-03-2.93701E-03 2.51744E-03 7.80119E-18-2.12877E-18-3.07253E-18
 -1        37-2.93701E-03-2.93701E-03 2.51744E-03-5.66203E-20-5.10226E-17 4.28850E-17
 -1        38-1.46851E-03-1.46851E-03 1.25872E-03-1.54031E-17-2.29082E-17-3.95079E-18
 -1        39-1.46851E-03-1.46851E-03 1.25872E-03 6.15005E-18 1.03733E-17 3.11552E-17
 -1        40-1.46851E-03-1.46851E-03 1.25872E-03-5.09623E-17-9.36308E-18-2.69857E-17
 -1        41-1.46851E-03-1.46851E-03 1.25872E-03 3.06403E-17 2.41207E-17 4.43307E-17
 -1        42-2.93701E-03-2.93701E-03 2.51744E-03 2.19306E-18 4.36063E-17-3.84819E-17
 -1        43-1.46851E-03-1.46851E-03 1.25872E-03-3.81513E-17 2.34527E-17 2.39434E-17
 -1        44-9.79004E-04-9.79004E-04 8.39147E-04-3.56841E-17 1.75124E-17-6.87518E-18
 -1        45-9.79004E-04-9.79004E-04 8.39147E-04 3.45782E-17 1.29722E-17 7.25199E-18
 -1        46-9.79004E-04-9.79004E-04 8.39147E-04-5.72229E-18 2.41672E-17-1.21439E-17
 -1        47-9.79004E-04-9.79004E-04 8.39147E-04 4.82759E-17-1.64184E-17-6.24354E-18
 -1        48-1.46851E-03-1.46851E-03 1.25872E-03 3.96270E-17 3.18086E-17-1.97433E-17
 -1        49-1.46851E-03-1.46851E-03 1.25872E-03 5.82585E-17 4.99198E-18 3.49581E-17
 -1        50-9.79004E-04-9.79004E-04 8.39147E-04 3.58828E-17-2.93613E-17-1.23204E-17
 -1        51-9.79004E-04-9.79004E-04 8.39147E-04-2.88192E-17-2.21097E-18 1.69819E-18
 -1        52-9.79004E-04-9.79004E-04 8.39147E-04-2.85248E-17-1.24926E-17-2.64963E-17
 -1        53-9.79004E-04-9.79004E-04 8.39147E-04 1.47473E-18 3.41553E-17-5.86519E-17
 -1        54-1.46851E-03-1.46851E-03 1.25872E-03-6.67741E-17 3.07249E-17-2.55205E-17
 -1        55-1.46851E-03-1.46851E-03 1.25872E-03 4.88799E-17 3.24236E-17 6.78835E-20
 -1        56-9.79004E-04-9.79004E-04 8.39147E-04 2.96304E-17 3.03905E-17 1.61901E-17
 -1        57-9.79004E-04-9.79004E-04 8.39147E-04-6.26902E-17 3.78943E-17 3.32425E-18
 -1        58-9.79004E-04-9.79004E-04 8.39147E-04-6.44631E-17 4.28605E-18 3.46349E-17
 -1        59-9.79004E-04-9.79004E-04 8.39147E-04 5.62746E-17 1.32625E-17 3.76672E-18
 -1        60-1.46851E-03-1.46851E-03 1.25872E-03 1.47772E-17-5.97929E-17 1.83190E-17
 -1        61-1.46851E-03-1.46851E-03 1.25872E-03-8.62249E-18-2.25798E-17-2.79324E-17
 -1        62-9.79004E-04-9.79004E-04 8.39147E-04-6.01423E-17-1.42308E-17 2.87929E-17
 -1        63-9.79004E-04-9.79004E-04 8.39147E-04 8.70271E-17-7.82591E-18-2.75075E-17
 -1        64-9.79004E-04-9.79004E-04 8.39147E-04 5.70024E-17-2.11973E-17 2.48106E-17
 -1        65-9.79004E-04-9.79004E-04 8.39147E-04-3.90283E-17-8.49108E-18-1.52850E-17
 -1        66-1.46851E-03-1.46851E-03 1.25872E-03-4.88910E-17 9.98103E-17 3.02626E-17
 -1        67-2.93701E-03-2.93701E-03 2.51744E-03 6.12572E-19 9.76189E-18 3.59619E-17
 -1        68-1.46851E-03-1.46851E-03 1.25872E-03-8.12847E-17 5.03485E-17-1.84658E-17
 -1        69-1.46851E-03-1.46851E-03 1.25872E-03 4.71009E-17 4.64279E-17 1.58114E-17
 -1        70-1.46851E-03-1.46851E-03 1.25872E-03 2.89053E-18-9.52792E-18 2.22591E-17
 -1        71-1.46851E-03-1.46851E-03 1.25872E-03 5.04009E-19-2.28051E-17-1.10935E-16
 -1        72-2.93701E-03-2.93701E-03 2.51744E-03-7.23563E-18-7.59965E-17 1.07034E-17
 -3
    1PSTEP                       286          96           1          
  100CL  196 8.22781E-01          72                     0   96           1
 -4  DISP        4    1
 -5  D1          1    2    1    0
 -5  D2          1    2    2    0
 -5  D3          1    2    3    0
 -5  ALL         1    2    0    0    1ALL
 -1         1 0.00000E+00 0.00000E+00 0.00000E+00
 -1         2-1.56069E+00 0.00000E+00 0.00000E+00
 -1         3-1.15614E+01 0.00000E+00 0.00000E+00
 -1         4-1.31221E+01 0.00000E+00 0.00000E+00
 -1         5-2.31228E+01 0.00000E+00 0.00000E+00
 -1         6-2.46834E+01 0.00000E+00 0.00000E+00
 -1         7 0.00000E+00-1.56069E+00 0.00000E+00
 -1         8-1.56069E+00-1.56069E+00 0.00000E+00
 -1         9-1.15614E+01-1.56069E+00 0.00000E+00
 -1        10-1.31221E+01-1.56069E+00 0.00000E+00
 -1        11-2.31228E+01-1.56069E+00 0.00000E+00
 -1        12-2.46834E+01-1.56069E+00 0.00000E+00
 -1        13 0.00000E+00-1.15614E+01 0.00000E+00
 -1        14-1.56069E+00-1.15614E+01 0.00000E+00
 -1        15-1.15614E+01-1.15614E+01 0.00000E+00
 -1        16-1.31221E+01-1.15614E+01 0.00000E+00
 -1        17-2.31228E+01-1.15614E+01 0.00000E+00
 -1        18-2.46834E+01-1.15614E+01 0.00000E+00
 -1        19 0.00000E+00-1.31221E+01 0.00000E+00
 -1        20-1.56069E+00-1.31221E+01 0.00000E+00
 -1        21-1.15614E+01-1.31221E+01 0.00000E+00
 -1        22-1.31221E+01-1.31221E+01 0.00000E+00
 -1        23-2.31228E+01-1.31221E+01 0.00000E+00
 -1        24-2.46834E+01-1.31221E+01 0.00000E+00
 -1        25 0.00000E+00-2.31228E+01 0.00000E+00
 -1        26-1.56069E+00-2.31228E+01 0.00000E+00
 -1        27-1.15614E+01-2.31228E+01 0.00000E+00
 -1        28-1.31221E+01-2.31228E+01 0.00000E+00
 -1        29-2.31228E+01-2.31228E+01 0.00000E+00
 -1        30-2.46834E+01-2.31228E+01 0.00000E+00
 -1        31 0.00000E+00-2.46834E+01 0.00000E+00
 -1        32-1.56069E+00-2.46834E+01 0.00000E+00
 -1        33-1.15614E+01-2.46834E+01 0.00000E+00
 -1        34-1.31221E+01-2.46834E+01 0.00000E+00
 -1        35-2.31228E+01-2.46834E+01 0.00000E+00
 -1        36-2.46834E+01-2.46834E+01 0.00000E+00
 -1        37 0.00000E+00 0.00000E+00 1.86741E+00
 -1        38-1.56069E+00 0.00000E+00 1.86741E+00
 -1        39-1.15614E+01 0.00000E+00 1.86741E+00
 -1        40-1.31221E+01 0.00000E+00 1.86741E+00
 -1        41-2.31228E+01 0.00000E+00 1.86741E+00
 -1        42-2.46834E+01 0.00000E+00 1.86741E+00
 -1        43 0.00000E+00-1.56069E+00 1.86741E+00
 -1        44-1.56069E+00-1.56069E+00 1.86741E+00
 -1        45-1.15614E+01-1.56069E+00 1.86741E+00
 -1        46-1.31221E+01-1.56069E+00 1.86741E+00
 -1        47-2.31228E+01-1.56069E+00 1.86741E+00
 -1        48-2.46834E+01-1.56069E+00 1.86741E+00
 -1        49 0.00000E+00-1.15614E+01 1.86741E+00
 -1        50-1.56069E+00-1.15614E+01 1.86741E+00
 -1        51-1.15614E+01-1.15614E+01 1.86741E+00
 -1        52-1.31221E+01-1.15614E+01 1.86741E+00
 -1        53-2.31228E+01-1.15614E+01 1.86741E+00
 -1        54-2.46834E+01-1.15614E+01 1.86741E+00
 -1        55 0.00000E+00-1.31221E+01 1.86741E+00
 -1        56-1.56069E+00-1.31221E+01 1.86741E+00
 -1        57-1.15614E+01-1.31221E+01 1.86741E+00
 -1        58-1.31221E+01-1.31221E+01 1.86741E+00
 -1        59-2.31228E+01-1.31221E+01 1.86741E+00
 -1        60-2.46834E+01-1.31221E+01 1.86741E+00
 -1        61 0.00000E+00-2.31228E+01 1.86741E+00
 -1        62-1.56069E+00-2.31228E+01 1.86741E+00
 -1        63-1.15614E+01-2.31228E+01 1.86741E+00
 -1        64-1.31221E+01-2.31228E+01 1.86741E+00
 -1        65-2.31228E+01-2.31228E+01 1.86741E+00
 -1        66-2.46834E+01-2.31228E+01 1.86741E+00
 -1        67 0.00000E+00-2.46834E+01 1.86741E+00
 -1        68-1.56069E+00-2.46834E+01 1.86741E+00
 -1        69-1.15614E+01-2.46834E+01 1.86741E+00
 -1        70-1.31221E+01-2.46834E+01 1.86741E+00
 -1        71-2.31228E+01-2.46834E+01 1.86741E+00
 -1        72-2.46834E+01-2.46834E+01 1.86741E+00
 -3
    1PSTEP                       287          96           1          
  100CL  196 8.22781E-01          72                     0   96           1
 -4  STRESS      6    1
 -5  SXX         1    4    1    1
 -5  SYY         1    4    2    2
 -5  SZZ         1    4    3    3
 -5  SXY         1    4    1    2
 -5  SYZ         1    4    2    3
 -5  SZX         1    4    3    1
 -1         1-9.32426E+02-9.32426E+02 3.24997E-10 6.52960E-15-1.32465E-14-9.69604E-15
 -1         2-4.66213E+02-4.66213E+02 1.59577E-10-7.02469E-12 7.35816E-15-7.15601E-12
 -1         3-4.66213E+02-4.66213E+02 1.62648E-10 9.12509E-12 2.17498E-15-1.05633E-12
 -1         4-4.66213E+02-4.66213E+02 1.80521E-10-1.08119E-11 5.82118E-16-1.24873E-11
 -1         5-4.66213E+02-4.66213E+02 1.77397E-10 1.50730E-11 5.66783E-16 8.15699E-12
 -1         6-9.32426E+02-9.32426E+02 3.24797E-10 6.21050E-13 2.16767E-15-1.15347E-12
 -1         7-4.66213E+02-4.66213E+02 1.49492E-10-9.39154E-12 4.08515E-12-3.02124E-15
 -1         8-3.10809E+02-3.10809E+02 9.35533E-11-1.09400E-11 3.73011E-12 6.23247E-14
 -1         9-3.10809E+02-3.10809E+02 8.73097E-11 5.28741E-12 2.68188E-12-5.60741E-12
 -1        10-3.10809E+02-3.10809E+02 1.01259E-10-7.82170E-12 3.56208E-12-6.42047E-12
 -1        11-3.10809E+02-3.10809E+02 1.09177E-10 6.05296E-12-3.98529E-12 1.67611E-12
 -1        12-4.66213E+02-4.66213E+02 1.48720E-10-6.06840E-12-2.32049E-14-2.01842E-14
 -1        13-4.66213E+02-4.66213E+02 1.68927E-10 1.45355E-11 3.77553E-13 2.58114E-15
 -1        14-3.10809E+02-3.10809E+02 1.02507E-10 1.49033E-12-3.85976E-12-7.29347E-12
 -1        15-3.10809E+02-3.10809E+02 1.14459E-10 5.69564E-12 1.75717E-12 4.70208E-12
 -1        16-3.10809E+02-3.10809E+02 1.09679E-10-6.71492E-12-3.60421E-13-3.53078E-12
 -1        17-3.10809E+02-3.10809E+02 9.32876E-11 5.16980E-12-1.31107E-12-2.50221E-12
 -1        18-4.66213E+02-4.66213E+02 1.61167E-10 2.82830E-12-8.51419E-12-2.74814E-13
 -1        19-4.66213E+02-4.66213E+02 1.54587E-10-5.59475E-12 1.76531E-12 3.81704E-15
 -1        20-3.10809E+02-3.10809E+02 8.62409E-11-1.19299E-11 4.24132E-12 1.97595E-12
 -1        21-3.10809E+02-3.10809E+02 8.57098E-11 6.86081E-12 1.10996E-11 6.66743E-13
 -1        22-3.10809E+02-3.10809E+02 8.86803E-11-5.56234E-12-4.98100E-13 5.31809E-12
 -1        23-3.10809E+02-3.10809E+02 9.95025E-11 2.03389E-11-3.00898E-12-2.13947E-12
 -1        24-4.66213E+02-4.66213E+02 1.93033E-10 2.53478E-11-2.41159E-11 1.66621E-13
 -1        25-4.66213E+02-4.66213E+02 1.44913E-10 7.48875E-12-2.26030E-12 6.95213E-15
 -1        26-3.10809E+02-3.10809E+02 8.44102E-11 1.45857E-11-5.05176E-12 6.67472E-12
 -1        27-3.10809E+02-3.10809E+02 8.60716E-11-1.01368E-11-8.05605E-12-3.37152E-12
 -1        28-3.10809E+02-3.10809E+02 8.33195E-11 3.87460E-12-3.69665E-13 5.76424E-12
 -1        29-3.10809E+02-3.10809E+02 9.25417E-11-1.77754E-11 2.03569E-12-6.23548E-12
 -1        30-4.66213E+02-4.66213E+02 1.93871E-10-2.71677E-11 2.22893E-11-3.08090E-13
 -1        31-9.32426E+02-9.32426E+02 3.26391E-10-1.79897E-14-9.19082E-13-1.41367E-14
 -1        32-4.66213E+02-4.66213E+02 1.63996E-10 1.43808E-11 3.64290E-13-1.00462E-11
 -1        33-4.66213E+02-4.66213E+02 1.75185E-10-1.99936E-11 6.40746E-13 1.21095E-11
 -1        34-4.66213E+02-4.66213E+02 1.52504E-10 5.97748E-13 3.48826E-13 3.65516E-12
 -1        35-4.66213E+02-4.66213E+02 1.29291E-10 1.32313E-12-1.97463E-14-1.03516E-11
 -1        36-9.32426E+02-9.32426E+02 3.38383E-10 3.02089E-13 6.45281E-13 7.47309E-13
 -1        37-9.32426E+02-9.32426E+02 3.11653E-10-1.57666E-14-1.49994E-12 9.49783E-12
 -1        38-4.66213E+02-4.66213E+02 1.56644E-10 2.90263E-12-3.47178E-12-2.41186E-12
 -1        39-4.66213E+02-4.66213E+02 1.47021E-10-1.20267E-12-4.28971E-13 6.47388E-12
 -1        40-4.66213E+02-4.66213E+02 1.68117E-10-7.44265E-12 5.39264E-13-4.53154E-12
 -1        41-4.66213E+02-4.66213E+02 1.48124E-10 7.29328E-12 3.74638E-12 5.72531E-12
 -1        42-9.32426E+02-9.32426E+02 2.91967E-10-4.26758E-13 6.90742E-12-3.65348E-12
 -1        43-4.66213E+02-4.66213E+02 1.58087E-10-7.25384E-12 3.30592E-12 1.99536E-12
 -1        44-3.10809E+02-3.10809E+02 1.01379E-10-2.91906E-12 1.41709E-12 1.41850E-12
 -1        45-3.10809E+02-3.10809E+02 9.02812E-11 4.29925E-14 2.39563E-12 6.31969E-13
 -1        46-3.10809E+02-3.10809E+02 1.05982E-10-4.47131E-12 3.91677E-12-7.01242E-13
 -1        47-3.10809E+02-3.10809E+02 9.67424E-11 6.22214E-12-1.46254E-12 3.33806E-13
 -1        48-4.66213E+02-4.66213E+02 1.42331E-10 1.79887E-12 3.44179E-12-2.21702E-12
 -1        49-4.66213E+02-4.66213E+02 1.47639E-10 5.53474E-12 2.23615E-12 6.30545E-12
 -1        50-3.10809E+02-3.10809E+02 1.04780E-10 8.17993E-12-5.51094E-12-3.04617E-12
 -1        51-3.10809E+02-3.10809E+02 1.16462E-10-3.49561E-12-2.10403E-12 2.32847E-12
 -1        52-3.10809E+02-3.10809E+02 9.36237E-11 1.96227E-12-1.58943E-12-5.70018E-12
 -1        53-3.10809E+02-3.10809E+02 9.38879E-11-1.10586E-12 3.19594E-12-5.05636E-12
 -1        54-4.66213E+02-4.66213E+02 1.36092E-10-6.09657E-12 7.08674E-12-5.46971E-12
 -1        55-4.66213E+02-4.66213E+02 1.61608E-10 1.17730E-12 3.34093E-12 2.40127E-12
 -1        56-3.10809E+02-3.10809E+02 1.08181E-10 5.27496E-12 2.96268E-12 3.53433E-12
 -1        57-3.10809E+02-3.10809E+02 1.15077E-10-1.48030E-11 7.28580E-12 1.27507E-12
 -1        58-3.10809E+02-3.10809E+02 9.85978E-11-9.29807E-12-1.40663E-12 5.82729E-12
 -1        59-3.10809E+02-3.10809E+02 1.01253E-10 2.53139E-12 1.47072E-12-5.63986E-13
 -1        60-4.66213E+02-4.66213E+02 1.66405E-10-1.23258E-12-9.10799E-12 2.89523E-12
 -1        61-4.66213E+02-4.66213E+02 1.71446E-10 1.79416E-12-4.23059E-12-2.92191E-12
 -1        62-3.10809E+02-3.10809E+02 1.07605E-10-7.62954E-12-2.34272E-13 4.73218E-12
 -1        63-3.10809E+02-3.10809E+02 1.21901E-10 1.58046E-11-4.20146E-12-2.80475E-12
 -1        64-3.10809E+02-3.10809E+02 1.02651E-10 9.31053E-12-1.27860E-12 6.50706E-12
 -1        65-3.10809E+02-3.10809E+02 1.01371E-10-9.72414E-13-3.06638E-13-2.62104E-12
 -1        66-4.66213E+02-4.66213E+02 1.66493E-10-1.59811E-12 1.22826E-11 4.95476E-12
 -1        67-9.32426E+02-9.32426E+02 2.95151E-10-2.55197E-13-2.13985E-12 9.45724E-12
 -1        68-4.66213E+02-4.66213E+02 1.56635E-10-1.33661E-11 6.49333E-12-5.28125E-12
 -1        69-4.66213E+02-4.66213E+02 1.80956E-10 3.49429E-12 5.69063E-12 6.03864E-12
 -1        70-4.66213E+02-4.66213E+02 1.35018E-10-6.00175E-12-1.76354E-12-3.15265E-12
 -1        71-4.66213E+02-4.66213E+02 1.42862E-10-1.61162E-13-3.21618E-12-1.05430E-11
 -1        72-9.32426E+02-9.32426E+02 2.86069E-10-5.05464E-13-1.77565E-11-1.68221E-12
 -3
    1PSTEP                       288          96           1          
  100CL  196 8.22781E-01          72                     0   96           1
 -4  TOSTRAIN    6    1
 -5  EXX         1    4    1    1
 -5  EYY         1    4    2    2
 -5  EZZ         1    4    3    3
 -5  EXY         1    4    1    2
 -5  EYZ         1    4    2    3
 -5  EZX         1    4    3    1
 -1         1-3.11638E-03-3.11638E-03 2.67118E-03 4.10068E-20-8.15132E-20-6.12171E-20
 -1         2-1.55819E-03-1.55819E-03 1.33559E-03-4.41160E-17 4.56096E-20-4.41615E-17
 -1         3-1.55819E-03-1.55819E-03 1.33559E-03 5.73069E-17 1.38542E-20-6.51877E-18
 -1         4-1.55819E-03-1.55819E-03 1.33559E-03-6.79003E-17 3.43129E-21-7.70612E-17
 -1         5-1.55819E-03-1.55819E-03 1.33559E-03 9.46606E-17 2.71669E-21 5.03381E-17
 -1         6-3.11638E-03-3.11638E-03 2.67118E-03 3.90028E-18 1.51601E-20-7.11809E-18
 -1         7-1.55819E-03-1.55819E-03 1.33559E-03-5.89802E-17 2.52102E-17-1.86818E-20
 -1         8-1.03879E-03-1.03879E-03 8.90393E-04-6.87049E-17 2.30192E-17 3.84591E-19
 -1         9-1.03879E-03-1.03879E-03 8.90393E-04 3.32057E-17 1.65506E-17-3.46041E-17
 -1        10-1.03879E-03-1.03879E-03 8.90393E-04-4.91214E-17 2.19821E-17-3.96216E-17
 -1        11-1.03879E-03-1.03879E-03 8.90393E-04 3.80134E-17-2.45941E-17 1.03437E-17
 -1        12-1.55819E-03-1.55819E-03 1.33559E-03-3.81104E-17-1.43610E-19-1.24282E-19
 -1        13-1.55819E-03-1.55819E-03 1.33559E-03 9.12852E-17 2.32985E-18 1.49135E-20
 -1        14-1.03879E-03-1.03879E-03 8.90393E-04 9.35950E-18-2.38187E-17-4.50098E-17
 -1        15-1.03879E-03-1.03879E-03 8.90393E-04 3.57694E-17 1.08438E-17 2.90169E-17
 -1        16-1.03879E-03-1.03879E-03 8.90393E-04-4.21706E-17-2.22480E-18-2.17893E-17
 -1        17-1.03879E-03-1.03879E-03 8.90393E-04 3.24671E-17-8.09040E-18-1.54416E-17
 -1        18-1.55819E-03-1.55819E-03 1.33559E-03 1.77622E-17-5.25429E-17-1.69600E-18
 -1        19-1.55819E-03-1.55819E-03 1.33559E-03-3.51358E-17 1.08939E-17 2.46430E-20
 -1        20-1.03879E-03-1.03879E-03 8.90393E-04-7.49212E-17 2.61743E-17 1.21946E-17
 -1        21-1.03879E-03-1.03879E-03 8.90393E-04 4.30869E-17 6.84975E-17 4.11465E-18
 -1        22-1.03879E-03-1.03879E-03 8.90393E-04-3.49323E-17-3.07426E-18 3.28188E-17
 -1        23-1.03879E-03-1.03879E-03 8.90393E-04 1.27731E-16-1.85684E-17-1.32027E-17
 -1        24-1.55819E-03-1.55819E-03 1.33559E-03 1.59188E-16-1.48824E-16 1.02868E-18
 -1        25-1.55819E-03-1.55819E-03 1.33559E-03 4.70304E-17-1.39482E-17 4.33601E-20
 -1        26-1.03879E-03-1.03879E-03 8.90393E-04 9.16004E-17-3.11757E-17 4.11910E-17
 -1        27-1.03879E-03-1.03879E-03 8.90393E-04-6.36603E-17-4.97153E-17-2.08059E-17
 -1        28-1.03879E-03-1.03879E-03 8.90393E-04 2.43330E-17-2.28121E-18 3.55722E-17
 -1        29-1.03879E-03-1.03879E-03 8.90393E-04-1.11632E-16 1.25626E-17-3.84802E-17
 -1        30-1.55819E-03-1.55819E-03 1.33559E-03-1.70617E-16 1.37552E-16-1.90141E-18
 -1        31-3.11638E-03-3.11638E-03 2.67118E-03-1.12978E-19-5.67087E-18-8.87041E-20
 -1        32-1.55819E-03-1.55819E-03 1.33559E-03 9.03136E-17 2.24735E-18-6.19974E-17
 -1        33-1.55819E-03-1.55819E-03 1.33559E-03-1.25563E-16 3.95381E-18 7.47298E-17
 -1        34-1.55819E-03-1.55819E-03 1.33559E-03 3.75394E-18 2.15275E-18 2.25569E-17
 -1        35-1.55819E-03-1.55819E-03 1.33559E-03 8.30942E-18-1.21426E-19-6.38814E-17
 -1        36-3.11638E-03-3.11638E-03 2.67118E-03 1.89716E-18 3.98218E-18 4.61174E-18
 -1        37-3.11638E-03-3.11638E-03 2.67118E-03-9.90167E-20-9.36410E-18 5.92943E-17
 -1        38-1.55819E-03-1.55819E-03 1.33559E-03 1.82289E-17-2.16746E-17-1.45431E-17
 -1        39-1.55819E-03-1.55819E-03 1.33559E-03-7.55295E-18-2.67781E-18 4.05087E-17
 -1        40-1.55819E-03-1.55819E-03 1.33559E-03-4.67409E-17 3.36645E-18-2.74075E-17
 -1        41-1.55819E-03-1.55819E-03 1.33559E-03 4.58029E-17 2.33892E-17 3.51814E-17
 -1        42-3.11638E-03-3.11638E-03 2.67118E-03-2.68010E-18 4.31230E-17-2.28470E-17
 -1        43-1.55819E-03-1.55819E-03 1.33559E-03-4.55551E-17 2.03475E-17 1.24578E-17
 -1        44-1.03879E-03-1.03879E-03 8.90393E-04-1.83321E-17 8.57859E-18 8.84991E-18
 -1        45-1.03879E-03-1.03879E-03 8.90393E-04 2.69999E-19 1.47636E-17 4.31687E-18
 -1        46-1.03879E-03-1.03879E-03 8.90393E-04-2.80805E-17 2.41961E-17-3.91058E-18
 -1        47-1.03879E-03-1.03879E-03 8.90393E-04 3.90759E-17-8.84613E-18 1.94592E-18
 -1        48-1.55819E-03-1.55819E-03 1.33559E-03 1.12972E-17 2.14902E-17-1.38527E-17
 -1        49-1.55819E-03-1.55819E-03 1.33559E-03 3.47590E-17 1.39211E-17 3.93656E-17
 -1        50-1.03879E-03-1.03879E-03 8.90393E-04 5.13711E-17-3.41159E-17-1.84959E-17
 -1        51-1.03879E-03-1.03879E-03 8.90393E-04-2.19529E-17-1.32577E-17 1.42018E-17
 -1        52-1.03879E-03-1.03879E-03 8.90393E-04 1.23234E-17-9.88464E-18-3.53442E-17
 -1        53-1.03879E-03-1.03879E-03 8.90393E-04-6.94499E-18 2.00539E-17-3.14490E-17
 -1        54-1.55819E-03-1.55819E-03 1.33559E-03-3.82873E-17 4.48147E-17-3.41226E-17
 -1        55-1.55819E-03-1.55819E-03 1.33559E-03 7.39358E-18 2.07389E-17 1.49906E-17
 -1        56-1.03879E-03-1.03879E-03 8.90393E-04 3.31275E-17 1.81762E-17 2.19256E-17
 -1        57-1.03879E-03-1.03879E-03 8.90393E-04-9.29648E-17 4.46886E-17 7.89614E-18
 -1        58-1.03879E-03-1.03879E-03 8.90393E-04-5.83932E-17-8.75728E-18 3.59886E-17
 -1        59-1.03879E-03-1.03879E-03 8.90393E-04 1.58975E-17 9.40679E-18-3.33561E-18
 -1        60-1.55819E-03-1.55819E-03 1.33559E-03-7.74076E-18-5.51225E-17 1.80842E-17
 -1        61-1.55819E-03-1.55819E-03 1.33559E-03 1.12676E-17-2.62129E-17-1.82415E-17
 -1        62-1.03879E-03-1.03879E-03 8.90393E-04-4.79146E-17-1.14877E-18 2.90631E-17
 -1        63-1.03879E-03-1.03879E-03 8.90393E-04 9.92549E-17-2.56534E-17-1.72628E-17
 -1        64-1.03879E-03-1.03879E-03 8.90393E-04 5.84715E-17-7.96823E-18 4.02018E-17
 -1        65-1.03879E-03-1.03879E-03 8.90393E-04-6.10690E-18-2.05227E-18-1.59439E-17
 -1        66-1.55819E-03-1.55819E-03 1.33559E-03-1.00364E-17 7.51459E-17 3.09229E-17
 -1        67-3.11638E-03-3.11638E-03 2.67118E-03-1.60268E-18-1.34160E-17 5.90424E-17
 -1        68-1.55819E-03-1.55819E-03 1.33559E-03-8.39408E-17 4.05168E-17-3.22512E-17
 -1        69-1.55819E-03-1.55819E-03 1.33559E-03 2.19446E-17 3.55297E-17 3.68062E-17
 -1        70-1.55819E-03-1.55819E-03 1.33559E-03-3.76918E-17-1.10007E-17-1.99147E-17
 -1        71-1.55819E-03-1.55819E-03 1.33559E-03-1.01212E-18-2.00883E-17-6.51251E-17
 -1        72-3.11638E-03-3.11638E-03 2.67118E-03-3.17438E-18-1.10876E-16-1.05064E-17
 -3
    1PSTEP                       289          97           1          
  100CL  197 8.31781E-01          72                     0   97           1
 -4  DISP        4    1
 -5  D1          1    2    1    0
 -5  D2          1    2    2    0
 -5  D3          1    2    3    0
 -5  ALL         1    2    0    0    1ALL
 -1         1 0.00000E+00 0.00000E+00 0.00000E+00
 -1         2-1.65064E+00 0.00000E+00 0.00000E+00
 -1         3-1.16514E+01 0.00000E+00 0.00000E+00
 -1         4-1.33020E+01 0.00000E+00 0.00000E+00
 -1         5-2.33028E+01 0.00000E+00 0.00000E+00
 -1         6-2.49534E+01 0.00000E+00 0.00000E+00
 -1         7 0.00000E+00-1.65064E+00 0.00000E+00
 -1         8-1.65064E+00-1.65064E+00 0.00000E+00
 -1         9-1.16514E+01-1.65064E+00 0.00000E+00
 -1        10-1.33020E+01-1.65064E+00 0.00000E+00
 -1        11-2.33028E+01-1.65064E+00 0.00000E+00
 -1        12-2.49534E+01-1.65064E+00 0.00000E+00
 -1        13 0.00000E+00-1.16514E+01 0.00000E+00
 -1        14-1.65064E+00-1.16514E+01 0.00000E+00
 -1        15-1.16514E+01-1.16514E+01 0.00000E+00
 -1        16-1.33020E+01-1.16514E+01 0.00000E+00
 -1        17-2.33028E+01-1.16514E+01 0.00000E+00
 -1        18-2.49534E+01-1.16514E+01 0.00000E+00
 -1        19 0.00000E+00-1.33020E+01 0.00000E+00
 -1        20-1.65064E+00-1.33020E+01 0.00000E+00
 -1        21-1.16514E+01-1.33020E+01 0.00000E+00
 -1        22-1.33020E+01-1.33020E+01 0.00000E+00
 -1        23-2.33028E+01-1.33020E+01 0.00000E+00
 -1        24-2.49534E+01-1.33020E+01 0.00000E+00
 -1        25 0.00000E+00-2.33028E+01 0.00000E+00
 -1        26-1.65064E+00-2.33028E+01 0.00000E+00
 -1        27-1.16514E+01-2.33028E+01 0.00000E+00
 -1        28-1.33020E+01-2.33028E+01 0.00000E+00
 -1        29-2.33028E+01-2.33028E+01 0.00000E+00
 -1        30-2.49534E+01-2.33028E+01 0.00000E+00
 -1        31 0.00000E+00-2.49534E+01 0.00000E+00
 -1        32-1.65064E+00-2.49534E+01 0.00000E+00
 -1        33-1.16514E+01-2.49534E+01 0.00000E+00
 -1        34-1.33020E+01-2.49534E+01 0.00000E+00
 -1        35-2.33028E+01-2.49534E+01 0.00000E+00
 -1        36-2.49534E+01-2.49534E+01 0.00000E+00
 -1        37 0.00000E+00 0.00000E+00 1.97472E+00
 -1        38-1.65064E+00 0.00000E+00 1.97472E+00
 -1        39-1.16514E+01 0.00000E+00 1.97472E+00
 -1        40-1.33020E+01 0.00000E+00 1.97472E+00
 -1        41-2.33028E+01 0.00000E+00 1.97472E+00
 -1        42-2.49534E+01 0.00000E+00 1.97472E+00
 -1        43 0.00000E+00-1.65064E+00 1.97472E+00
 -1        44-1.65064E+00-1.65064E+00 1.97472E+00
 -1        45-1.16514E+01-1.65064E+00 1.97472E+00
 -1        46-1.33020E+01-1.65064E+00 1.97472E+00
 -1        47-2.33028E+01-1.65064E+00 1.97472E+00
 -1        48-2.49534E+01-1.65064E+00 1.97472E+00
 -1        49 0.00000E+00-1.16514E+01 1.97472E+00
 -1        50-1.65064E+00-1.16514E+01 1.97472E+00
 -1        51-1.16514E+01-1.16514E+01 1.97472E+00
 -1        52-1.33020E+01-1.16514E+01 1.97472E+00
 -1        53-2.33028E+01-1.16514E+01 1.97472E+00
 -1        54-2.49534E+01-1.16514E+01 1.97472E+00
 -1        55 0.00000E+00-1.33020E+01 1.97472E+00
 -1        56-1.65064E+00-1.33020E+01 1.97472E+00
 -1        57-1.16514E+01-1.33020E+01 1.97472E+00
 -1        58-1.33020E+01-1.33020E+01 1.97472E+00
 -1        59-2.33028E+01-1.33020E+01 1.97472E+00
 -1        60-2.49534E+01-1.33020E+01 1.97472E+00
 -1        61 0.00000E+00-2.33028E+01 1.97472E+00
 -1        62-1.65064E+00-2.33028E+01 1.97472E+00
 -1        63-1.16514E+01-2.33028E+01 1.97472E+00
 -1        64-1.33020E+01-2.33028E+01 1.97472E+00
 -1        65-2.33028E+01-2.33028E+01 1.97472E+00
 -1        66-2.49534E+01-2.33028E+01 1.97472E+00
 -1        67 0.00000E+00-2.49534E+01 1.97472E+00
 -1        68-1.65064E+00-2.49534E+01 1.97472E+00
 -1        69-1.16514E+01-2.49534E+01 1.97472E+00
 -1        70-1.33020E+01-2.49534E+01 1.97472E+00
 -1        71-2.33028E+01-2.49534E+01 1.97472E+00
 -1        72-2.49534E+01-2.49534E+01 1.97472E+00
 -3
    1PSTEP                       290          97           1          
  100CL  197 8.31781E-01          72                     0   97           1
 -4  STRESS      6    1
 -5  SXX         1    4    1    1
 -5  SYY         1    4    2    2
 -5  SZZ         1    4    3    3
 -5  SXY         1    4    1    2
 -5  SYZ         1    4    2    3
 -5  SZX         1    4    3    1
 -1         1-9.85931E+02-9.85931E+02 2.20284E-10 1.29774E-14 3.98867E-15 6.21520E-15
 -1         2-4.92965E+02-4.92965E+02 1.05634E-10-6.43406E-12-3.91728E-15-5.55028E-12
 -1         3-4.92965E+02-4.92965E+02 1.08931E-10 8.10283E-12-1.64689E-15-1.13750E-12
 -1         4-4.92965E+02-4.92965E+02 1.26671E-10-1.00274E-11-4.05972E-15-1.09190E-11
 -1         5-4.92965E+02-4.92965E+02 1.19962E-10 1.20411E-11 8.36591E-15 6.68544E-12
 -1         6-9.85931E+02-9.85931E+02 2.21477E-10 6.44546E-13-2.36709E-14 1.15494E-14
 -1         7-4.92965E+02-4.92965E+02 9.76469E-11-9.92340E-12 3.18415E-12-1.17025E-14
 -1         8-3.28644E+02-3.28644E+02 5.72839E-11-1.09093E-11 5.41799E-12-4.82634E-13
 -1         9-3.28644E+02-3.28644E+02 5.36034E-11 5.93828E-12 2.35912E-12-4.69136E-12
 -1        10-3.28644E+02-3.28644E+02 6.65771E-11-6.04368E-12 3.10322E-12-5.47830E-12
 -1        11-3.28644E+02-3.28644E+02 7.22206E-11 6.75126E-12-3.08475E-12 1.37933E-12
 -1        12-4.92965E+02-4.92965E+02 9.96871E-11-1.99716E-12-5.88282E-13-4.77242E-13
 -1        13-4.92965E+02-4.92965E+02 1.09483E-10 1.38736E-11 1.63001E-12 4.85025E-16
 -1        14-3.28644E+02-3.28644E+02 6.73640E-11 5.90855E-12-4.70680E-12-6.52148E-12
 -1        15-3.28644E+02-3.28644E+02 7.71094E-11-6.06634E-13 2.23761E-12 4.74755E-12
 -1        16-3.28644E+02-3.28644E+02 7.07881E-11-2.78546E-12 1.22174E-12-1.86172E-12
 -1        17-3.28644E+02-3.28644E+02 5.13803E-11-7.51202E-13-1.76931E-12-3.15467E-12
 -1        18-4.92965E+02-4.92965E+02 1.06544E-10 4.55883E-12-9.58604E-12-5.94051E-13
 -1        19-4.92965E+02-4.92965E+02 9.89978E-11 2.73934E-12 4.01712E-12 1.20277E-15
 -1        20-3.28644E+02-3.28644E+02 5.81208E-11-1.51425E-12 4.02400E-12 7.57553E-13
 -1        21-3.28644E+02-3.28644E+02 5.88973E-11-3.64979E-13 9.21507E-12 1.87628E-12
 -1        22-3.28644E+02-3.28644E+02 5.67606E-11-2.82731E-12 2.38527E-12 4.32949E-12
 -1        23-3.28644E+02-3.28644E+02 6.68739E-11 1.84877E-11-1.59455E-12-1.02071E-12
 -1        24-4.92965E+02-4.92965E+02 1.53759E-10 3.32537E-11-2.95728E-11 5.14166E-13
 -1        25-4.92965E+02-4.92965E+02 8.26174E-11-4.80761E-12-5.98154E-12-5.61801E-15
 -1        26-3.28644E+02-3.28644E+02 5.36493E-11 8.11828E-12-3.31198E-12 6.66925E-12
 -1        27-3.28644E+02-3.28644E+02 5.18015E-11-7.55440E-12-6.00178E-12-6.35333E-12
 -1        28-3.28644E+02-3.28644E+02 5.23015E-11 6.13688E-12-2.20075E-12 1.20636E-12
 -1        29-3.28644E+02-3.28644E+02 5.99935E-11-1.93568E-11-4.94673E-13-2.59781E-12
 -1        30-4.92965E+02-4.92965E+02 1.47031E-10-3.00929E-11 2.51942E-11-1.91333E-13
 -1        31-9.85931E+02-9.85931E+02 2.13211E-10-1.09535E-13 4.25206E-13 1.16051E-14
 -1        32-4.92965E+02-4.92965E+02 1.21487E-10 1.69303E-11-2.36754E-13-1.17880E-11
 -1        33-4.92965E+02-4.92965E+02 1.23087E-10-1.83693E-11 6.45782E-13 1.07601E-11
 -1        34-4.92965E+02-4.92965E+02 1.08705E-10 2.14877E-12-9.64884E-13-2.94014E-12
 -1        35-4.92965E+02-4.92965E+02 8.30371E-11 1.49598E-12-2.47773E-13-5.65284E-12
 -1        36-9.85931E+02-9.85931E+02 2.38615E-10 1.06760E-13-1.32970E-13 6.98163E-13
 -1        37-9.85931E+02-9.85931E+02 2.09321E-10-1.56987E-15-1.67886E-12 8.66298E-12
 -1        38-4.92965E+02-4.92965E+02 1.11015E-10 1.86326E-13-3.85456E-12-1.21949E-12
 -1        39-4.92965E+02-4.92965E+02 9.49956E-11-6.23383E-13-7.69134E-14 5.42341E-12
 -1        40-4.92965E+02-4.92965E+02 1.15489E-10-6.01150E-12 4.90850E-13-4.20303E-12
 -1        41-4.92965E+02-4.92965E+02 9.56619E-11 4.42749E-12 2.78211E-12 4.39164E-12
 -1        42-9.85931E+02-9.85931E+02 1.89529E-10-1.26100E-12 5.97800E-12-5.08362E-12
 -1        43-4.92965E+02-4.92965E+02 1.03199E-10-3.15473E-12 2.34273E-12 1.32949E-12
 -1        44-3.28644E+02-3.28644E+02 6.76305E-11-1.97841E-12 2.85090E-12 4.05514E-13
 -1        45-3.28644E+02-3.28644E+02 5.72810E-11 1.22494E-12 2.31692E-12-9.38140E-14
 -1        46-3.28644E+02-3.28644E+02 7.20909E-11-2.35163E-12 3.40338E-12-6.86383E-13
 -1        47-3.28644E+02-3.28644E+02 6.35224E-11 5.23497E-12-1.25513E-12 2.57968E-14
 -1        48-4.92965E+02-4.92965E+02 9.46674E-11 3.81860E-12 2.45978E-12-2.30631E-12
 -1        49-4.92965E+02-4.92965E+02 9.21010E-11 1.53279E-12 8.66679E-13 3.61158E-12
 -1        50-3.28644E+02-3.28644E+02 7.24588E-11 7.69379E-12-6.34155E-12-4.11142E-12
 -1        51-3.28644E+02-3.28644E+02 7.67045E-11-7.31887E-12-3.03011E-12 2.49498E-12
 -1        52-3.28644E+02-3.28644E+02 6.02225E-11 3.49131E-12-3.36805E-12-4.22029E-12
 -1        53-3.28644E+02-3.28644E+02 5.93054E-11-3.21188E-12 1.87824E-12-6.72695E-12
 -1        54-4.92965E+02-4.92965E+02 7.33767E-11-3.93763E-12 6.54875E-12-6.31133E-12
 -1        55-4.92965E+02-4.92965E+02 1.04574E-10 6.02645E-12 2.62706E-12 2.19655E-12
 -1        56-3.28644E+02-3.28644E+02 7.83223E-11 1.06896E-11 2.45678E-12 2.23706E-12
 -1        57-3.28644E+02-3.28644E+02 7.92029E-11-1.39970E-11 3.73131E-12 4.92782E-13
 -1        58-3.28644E+02-3.28644E+02 6.61105E-11-3.02364E-12-1.06672E-12 3.50735E-12
 -1        59-3.28644E+02-3.28644E+02 7.06984E-11-3.49215E-12 3.13182E-12 1.26172E-12
 -1        60-4.92965E+02-4.92965E+02 1.15037E-10-4.96820E-12-1.37589E-11 4.03396E-12
 -1        61-4.92965E+02-4.92965E+02 1.15176E-10-5.16522E-12-6.74602E-12-3.83275E-12
 -1        62-3.28644E+02-3.28644E+02 7.53439E-11-1.21600E-11 4.21043E-13 4.11986E-12
 -1        63-3.28644E+02-3.28644E+02 7.92615E-11 1.51007E-11-1.64511E-12-3.65777E-12
 -1        64-3.28644E+02-3.28644E+02 7.50675E-11 5.43219E-12-3.02870E-12 4.49488E-12
 -1        65-3.28644E+02-3.28644E+02 6.75454E-11 3.01341E-12-2.38834E-12-2.28456E-13
 -1        66-4.92965E+02-4.92965E+02 1.02815E-10 4.83115E-12 1.52161E-11 3.34742E-12
 -1        67-9.85931E+02-9.85931E+02 1.84304E-10 4.13094E-13-1.50760E-12 5.81701E-12
 -1        68-4.92965E+02-4.92965E+02 1.07912E-10-1.28682E-11 6.11640E-12-8.92773E-12
 -1        69-4.92965E+02-4.92965E+02 1.11101E-10 1.00242E-11 5.75647E-12 9.87218E-12
 -1        70-4.92965E+02-4.92965E+02 8.87840E-11-4.40815E-12-3.71961E-13-3.66664E-12
 -1        71-4.92965E+02-4.92965E+02 9.61448E-11-6.12378E-13-2.31310E-12-8.70037E-12
 -1        72-9.85931E+02-9.85931E+02 1.59705E-10-6.57989E-13-1.89138E-11-7.52053E-12
 -3
    1PSTEP                       291          97           1          
  100CL  197 8.31781E-01          72                     0   97           1
 -4  TOSTRAIN    6    1
 -5  EXX         1    4    1    1
 -5  EYY         1    4    2    2
 -5  EZZ         1    4    3    3
 -5  EXY         1    4    1    2
 -5  EYZ         1    4    2    3
 -5  EZX         1    4    3    1
 -1         1-3.29571E-03-3.29571E-03 2.82489E-03 8.15680E-20 2.44775E-20 3.84385E-20
 -1         2-1.64785E-03-1.64785E-03 1.41245E-03-4.04406E-17-2.43121E-20-3.42454E-17
 -1         3-1.64785E-03-1.64785E-03 1.41245E-03 5.09295E-17-1.02025E-20-7.01870E-18
 -1         4-1.64785E-03-1.64785E-03 1.41245E-03-6.30259E-17-2.52037E-20-6.73709E-17
 -1         5-1.64785E-03-1.64785E-03 1.41245E-03 7.56832E-17 5.17005E-20 4.12500E-17
 -1         6-3.29571E-03-3.29571E-03 2.82489E-03 4.05123E-18-1.47514E-19 7.23297E-20
 -1         7-1.64785E-03-1.64785E-03 1.41245E-03-6.23725E-17 1.96463E-17-7.24456E-20
 -1         8-1.09857E-03-1.09857E-03 9.41631E-04-6.85692E-17 3.34291E-17-2.97803E-18
 -1         9-1.09857E-03-1.09857E-03 9.41631E-04 3.73244E-17 1.45557E-17-2.89461E-17
 -1        10-1.09857E-03-1.09857E-03 9.41631E-04-3.79869E-17 1.91476E-17-3.38016E-17
 -1        11-1.09857E-03-1.09857E-03 9.41631E-04 4.24344E-17-1.90329E-17 8.50988E-18
 -1        12-1.64785E-03-1.64785E-03 1.41245E-03-1.25530E-17-3.63076E-18-2.94558E-18
 -1        13-1.64785E-03-1.64785E-03 1.41245E-03 8.72008E-17 1.00575E-17 2.68702E-21
 -1        14-1.09857E-03-1.09857E-03 9.41631E-04 3.71376E-17-2.90413E-17-4.02380E-17
 -1        15-1.09857E-03-1.09857E-03 9.41631E-04-3.81293E-18 1.38070E-17 2.92931E-17
 -1        16-1.09857E-03-1.09857E-03 9.41631E-04-1.75077E-17 7.53698E-18-1.14863E-17
 -1        17-1.09857E-03-1.09857E-03 9.41631E-04-4.72160E-18-1.09162E-17-1.94645E-17
 -1        18-1.64785E-03-1.64785E-03 1.41245E-03 2.86540E-17-5.91473E-17-3.66538E-18
 -1        19-1.64785E-03-1.64785E-03 1.41245E-03 1.72178E-17 2.47861E-17 7.43340E-21
 -1        20-1.09857E-03-1.09857E-03 9.41631E-04-9.51768E-18 2.48281E-17 4.67414E-18
 -1        21-1.09857E-03-1.09857E-03 9.41631E-04-2.29404E-18 5.68580E-17 1.15760E-17
 -1        22-1.09857E-03-1.09857E-03 9.41631E-04-1.77708E-17 1.47168E-17 2.67124E-17
 -1        23-1.09857E-03-1.09857E-03 9.41631E-04 1.16203E-16-9.83809E-18-6.29784E-18
 -1        24-1.64785E-03-1.64785E-03 1.41245E-03 2.09013E-16-1.82465E-16 3.17239E-18
 -1        25-1.64785E-03-1.64785E-03 1.41245E-03-3.02177E-17-3.69069E-17-3.51223E-20
 -1        26-1.09857E-03-1.09857E-03 9.41631E-04 5.10266E-17-2.04350E-17 4.11493E-17
 -1        27-1.09857E-03-1.09857E-03 9.41631E-04-4.74824E-17-3.70317E-17-3.92008E-17
 -1        28-1.09857E-03-1.09857E-03 9.41631E-04 3.85727E-17-1.35785E-17 7.44279E-18
 -1        29-1.09857E-03-1.09857E-03 9.41631E-04-1.21665E-16-3.05235E-18-1.60286E-17
 -1        30-1.64785E-03-1.64785E-03 1.41245E-03-1.89146E-16 1.55449E-16-1.18058E-18
 -1        31-3.29571E-03-3.29571E-03 2.82489E-03-6.88471E-19 2.62245E-18 7.32161E-20
 -1        32-1.64785E-03-1.64785E-03 1.41245E-03 1.06413E-16-1.46062E-18-7.27315E-17
 -1        33-1.64785E-03-1.64785E-03 1.41245E-03-1.15458E-16 3.98384E-18 6.63911E-17
 -1        34-1.64785E-03-1.64785E-03 1.41245E-03 1.35059E-17-5.95304E-18-1.81398E-17
 -1        35-1.64785E-03-1.64785E-03 1.41245E-03 9.40281E-18-1.52929E-18-3.48784E-17
 -1        36-3.29571E-03-3.29571E-03 2.82489E-03 6.71031E-19-8.19541E-19 4.30743E-18
 -1        37-3.29571E-03-3.29571E-03 2.82489E-03-9.86723E-21-1.04867E-17 5.41095E-17
 -1        38-1.64785E-03-1.64785E-03 1.41245E-03 1.17113E-18-2.40757E-17-7.19504E-18
 -1        39-1.64785E-03-1.64785E-03 1.41245E-03-3.91821E-18-4.80001E-19 3.39603E-17
 -1        40-1.64785E-03-1.64785E-03 1.41245E-03-3.77847E-17 3.06484E-18-2.54352E-17
 -1        41-1.64785E-03-1.64785E-03 1.41245E-03 2.78285E-17 1.73773E-17 2.69065E-17
 -1        42-3.29571E-03-3.29571E-03 2.82489E-03-7.92588E-18 3.73389E-17-3.17463E-17
 -1        43-1.64785E-03-1.64785E-03 1.41245E-03-1.98287E-17 1.43907E-17 8.30421E-18
 -1        44-1.09857E-03-1.09857E-03 9.41631E-04-1.24351E-17 1.73949E-17 2.56950E-18
 -1        45-1.09857E-03-1.09857E-03 9.41631E-04 7.69926E-18 1.42921E-17-2.17990E-19
 -1        46-1.09857E-03-1.09857E-03 9.41631E-04-1.47809E-17 2.10223E-17-3.87417E-18
 -1        47-1.09857E-03-1.09857E-03 9.41631E-04 3.29039E-17-7.60355E-18 4.43315E-20
 -1        48-1.64785E-03-1.64785E-03 1.41245E-03 2.40014E-17 1.54062E-17-1.44023E-17
 -1        49-1.64785E-03-1.64785E-03 1.41245E-03 9.63421E-18 5.26558E-18 2.25581E-17
 -1        50-1.09857E-03-1.09857E-03 9.41631E-04 4.83585E-17-3.92523E-17-2.51846E-17
 -1        51-1.09857E-03-1.09857E-03 9.41631E-04-4.60020E-17-1.91195E-17 1.51962E-17
 -1        52-1.09857E-03-1.09857E-03 9.41631E-04 2.19443E-17-2.10803E-17-2.62373E-17
 -1        53-1.09857E-03-1.09857E-03 9.41631E-04-2.01879E-17 1.19102E-17-4.17978E-17
 -1        54-1.64785E-03-1.64785E-03 1.41245E-03-2.47495E-17 4.15999E-17-3.93796E-17
 -1        55-1.64785E-03-1.64785E-03 1.41245E-03 3.78786E-17 1.61272E-17 1.37197E-17
 -1        56-1.09857E-03-1.09857E-03 9.41631E-04 6.71881E-17 1.50337E-17 1.39140E-17
 -1        57-1.09857E-03-1.09857E-03 9.41631E-04-8.79765E-17 2.25990E-17 2.96600E-18
 -1        58-1.09857E-03-1.09857E-03 9.41631E-04-1.90048E-17-6.88181E-18 2.15660E-17
 -1        59-1.09857E-03-1.09857E-03 9.41631E-04-2.19496E-17 1.96453E-17 7.96389E-18
 -1        60-1.64785E-03-1.64785E-03 1.41245E-03-3.12271E-17-8.37015E-17 2.51583E-17
 -1        61-1.64785E-03-1.64785E-03 1.41245E-03-3.24655E-17-4.16872E-17-2.39391E-17
 -1        62-1.09857E-03-1.09857E-03 9.41631E-04-7.64304E-17 2.89512E-18 2.52258E-17
 -1        63-1.09857E-03-1.09857E-03 9.41631E-04 9.49141E-17-9.86657E-18-2.23310E-17
 -1        64-1.09857E-03-1.09857E-03 9.41631E-04 3.41435E-17-1.87139E-17 2.79711E-17
 -1        65-1.09857E-03-1.09857E-03 9.41631E-04 1.89405E-17-1.48453E-17-1.20833E-18
 -1        66-1.64785E-03-1.64785E-03 1.41245E-03 3.03657E-17 9.31370E-17 2.09556E-17
 -1        67-3.29571E-03-3.29571E-03 2.82489E-03 2.59646E-18-9.43003E-18 3.63318E-17
 -1        68-1.64785E-03-1.64785E-03 1.41245E-03-8.08818E-17 3.81843E-17-5.48641E-17
 -1        69-1.64785E-03-1.64785E-03 1.41245E-03 6.30062E-17 3.59437E-17 6.08033E-17
 -1        70-1.64785E-03-1.64785E-03 1.41245E-03-2.77069E-17-2.33601E-18-2.27318E-17
 -1        71-1.64785E-03-1.64785E-03 1.41245E-03-3.84904E-18-1.44350E-17-5.39625E-17
 -1        72-3.29571E-03-3.29571E-03 2.82489E-03-4.13572E-18-1.18196E-16-4.69637E-17
 -3
    1PSTEP                       292          98           1          
  100CL  198 8.40781E-01          72                     0   98           1
 -4  DISP        4    1
 -5  D1          1    2    1    0
 -5  D2          1    2    2    0
 -5  D3          1    2    3    0
 -5  ALL         1    2    0    0    1ALL
 -1         1 0.00000E+00 0.00000E+00 0.00000E+00
 -1         2-1.74060E+00 0.00000E+00 0.00000E+00
 -1         3-1.17414E+01 0.00000E+00 0.00000E+00
 -1         4-1.34820E+01 0.00000E+00 0.00000E+00
 -1         5-2.34828E+01 0.00000E+00 0.00000E+00
 -1         6-2.52234E+01 0.00000E+00 0.00000E+00
 -1         7 0.00000E+00-1.74060E+00 0.00000E+00
 -1         8-1.74060E+00-1.74060E+00 0.00000E+00
 -1         9-1.17414E+01-1.74060E+00 0.00000E+00
 -1        10-1.34820E+01-1.74060E+00 0.00000E+00
 -1        11-2.34828E+01-1.74060E+00 0.00000E+00
 -1        12-2.52234E+01-1.74060E+00 0.00000E+00
 -1        13 0.00000E+00-1.17414E+01 0.00000E+00
 -1        14-1.74060E+00-1.17414E+01 0.00000E+00
 -1        15-1.17414E+01-1.17414E+01 0.00000E+00
 -1        16-1.34820E+01-1.17414E+01 0.00000E+00
 -1        17-2.34828E+01-1.17414E+01 0.00000E+00
 -1        18-2.52234E+01-1.17414E+01 0.00000E+00
 -1        19 0.00000E+00-1.34820E+01 0.00000E+00
 -1        20-1.74060E+00-1.34820E+01 0.00000E+00
 -1        21-1.17414E+01-1.34820E+01 0.00000E+00
 -1        22-1.34820E+01-1.34820E+01 0.00000E+00
 -1        23-2.34828E+01-1.34820E+01 0.00000E+00
 -1        24-2.52234E+01-1.34820E+01 0.00000E+00
 -1        25 0.00000E+00-2.34828E+01 0.00000E+00
 -1        26-1.74060E+00-2.34828E+01 0.00000E+00
 -1        27-1.17414E+01-2.34828E+01 0.00000E+00
 -1        28-1.34820E+01-2.34828E+01 0.00000E+00
 -1        29-2.34828E+01-2.34828E+01 0.00000E+00
 -1        30-2.52234E+01-2.34828E+01 0.00000E+00
 -1        31 0.00000E+00-2.52234E+01 0.00000E+00
 -1        32-1.74060E+00-2.52234E+01 0.00000E+00
 -1        33-1.17414E+01-2.52234E+01 0.00000E+00
 -1        34-1.34820E+01-2.52234E+01 0.00000E+00
 -1        35-2.34828E+01-2.52234E+01 0.00000E+00
 -1        36-2.52234E+01-2.52234E+01 0.00000E+00
 -1        37 0.00000E+00 0.00000E+00 2.08199E+00
 -1        38-1.74060E+00 0.00000E+00 2.08199E+00
 -1        39-1.17414E+01 0.00000E+00 2.08199E+00
 -1        40-1.34820E+01 0.00000E+00 2.08199E+00
 -1        41-2.34828E+01 0.00000E+00 2.08199E+00
 -1        42-2.52234E+01 0.00000E+00 2.08199E+00
 -1        43 0.00000E+00-1.74060E+00 2.08199E+00
 -1        44-1.74060E+00-1.74060E+00 2.08199E+00
 -1        45-1.17414E+01-1.74060E+00 2.08199E+00
 -1        46-1.34820E+01-1.74060E+00 2.08199E+00
 -1        47-2.34828E+01-1.74060E+00 2.08199E+00
 -1        48-2.52234E+01-1.74060E+00 2.08199E+00
 -1        49 0.00000E+00-1.17414E+01 2.08199E+00
 -1        50-1.74060E+00-1.17414E+01 2.08199E+00
 -1        51-1.17414E+01-1.17414E+01 2.08199E+00
 -1        52-1.34820E+01-1.17414E+01 2.08199E+00
 -1        53-2.34828E+01-1.17414E+01 2.08199E+00
 -1        54-2.52234E+01-1.17414E+01 2.08199E+00
 -1        55 0.00000E+00-1.34820E+01 2.08199E+00
 -1        56-1.74060E+00-1.34820E+01 2.08199E+00
 -1        57-1.17414E+01-1.34820E+01 2.08199E+00
 -1        58-1.34820E+01-1.34820E+01 2.08199E+00
 -1        59-2.34828E+01-1.34820E+01 2.08199E+00
 -1        60-2.52234E+01-1.34820E+01 2.08199E+00
 -1        61 0.00000E+00-2.34828E+01 2.08199E+00
 -1        62-1.74060E+00-2.34828E+01 2.08199E+00
 -1        63-1.17414E+01-2.34828E+01 2.08199E+00
 -1        64-1.34820E+01-2.34828E+01 2.08199E+00
 -1        65-2.34828E+01-2.34828E+01 2.08199E+00
 -1        66-2.52234E+01-2.34828E+01 2.08199E+00
 -1        67 0.00000E+00-2.52234E+01 2.08199E+00
 -1        68-1.74060E+00-2.52234E+01 2.08199E+00
 -1        69-1.17414E+01-2.52234E+01 2.08199E+00
 -1        70-1.34820E+01-2.52234E+01 2.08199E+00
 -1        71-2.34828E+01-2.52234E+01 2.08199E+00
 -1        72-2.52234E+01-2.52234E+01 2.08199E+00
 -3
    1PSTEP                       293          98           1          
  100CL  198 8.40781E-01          72                     0   98           1
 -4  STRESS      6    1
 -5  SXX         1    4    1    1
 -5  SYY         1    4    2    2
 -5  SZZ         1    4    3    3
 -5  SXY         1    4    1    2
 -5  SYZ         1    4    2    3
 -5  SZX         1    4    3    1
 -1         1-1.03941E+03-1.03941E+03 1.33984E-11-7.90150E-15-2.01604E-14 2.89049E-15
 -1         2-5.19705E+02-5.19705E+02-9.54708E-13-3.91559E-12 7.61964E-15-3.99917E-13
 -1         3-5.19705E+02-5.19705E+02-1.00540E-12 5.80330E-12 1.21608E-15-4.70562E-12
 -1         4-5.19705E+02-5.19705E+02 1.62421E-11-3.13824E-12 5.91126E-15-5.03467E-12
 -1         5-5.19705E+02-5.19705E+02 8.75598E-12 4.27534E-12-4.11784E-16-6.04867E-13
 -1         6-1.03941E+03-1.03941E+03 1.07520E-11 5.25193E-13-3.22324E-14-4.20785E-13
 -1         7-5.19705E+02-5.19705E+02-4.15491E-12-8.07639E-12 3.86277E-12-9.29742E-15
 -1         8-3.46470E+02-3.46470E+02-1.08159E-11-7.99202E-12 6.43376E-12-4.28113E-13
 -1         9-3.46470E+02-3.46470E+02-1.20377E-11 5.14450E-12 3.38368E-12-4.47653E-12
 -1        10-3.46470E+02-3.46470E+02 3.94988E-12-7.24364E-13 2.58930E-12-7.27157E-12
 -1        11-3.46470E+02-3.46470E+02 7.60495E-12 9.20199E-13-2.38868E-12 3.05749E-12
 -1        12-5.19705E+02-5.19705E+02-3.02720E-13-3.32113E-12 1.45446E-12 3.34066E-13
 -1        13-5.19705E+02-5.19705E+02 6.22622E-12 1.19255E-11 2.80230E-12-6.86925E-15
 -1        14-3.46470E+02-3.46470E+02-6.29553E-14 5.72296E-12-2.35948E-12-3.12598E-12
 -1        15-3.46470E+02-3.46470E+02 1.08283E-11-2.65282E-12 1.50958E-12 4.64966E-12
 -1        16-3.46470E+02-3.46470E+02 1.65372E-12-5.03650E-12 4.28830E-12-8.08602E-14
 -1        17-3.46470E+02-3.46470E+02-1.06885E-11 3.55738E-12-3.31598E-13-2.86157E-12
 -1        18-5.19705E+02-5.19705E+02 6.71025E-12 4.19748E-12-8.49073E-12-2.35296E-13
 -1        19-5.19705E+02-5.19705E+02-8.56876E-12 5.51522E-12 4.54852E-12 5.76269E-15
 -1        20-3.46470E+02-3.46470E+02-1.53229E-11 1.44943E-12 1.09463E-11 7.90098E-13
 -1        21-3.46470E+02-3.46470E+02-8.54461E-12-7.23300E-12 7.83758E-12-3.69907E-13
 -1        22-3.46470E+02-3.46470E+02-2.03488E-11-9.61837E-12 8.99844E-12 4.62695E-12
 -1        23-3.46470E+02-3.46470E+02-6.11911E-12 1.76533E-11-2.08617E-13-3.96188E-12
 -1        24-5.19705E+02-5.19705E+02 3.59083E-11 2.70756E-11-2.04670E-11 1.46881E-13
 -1        25-5.19705E+02-5.19705E+02-2.44764E-11-8.87505E-12-6.12557E-12-5.55899E-15
 -1        26-3.46470E+02-3.46470E+02-1.98256E-11 6.37834E-12-8.48627E-12 7.37008E-12
 -1        27-3.46470E+02-3.46470E+02-1.25876E-11-1.43349E-12-3.61782E-12-8.67774E-12
 -1        28-3.46470E+02-3.46470E+02-2.59331E-11 1.16226E-11-8.41376E-12 2.21904E-12
 -1        29-3.46470E+02-3.46470E+02-1.20531E-11-1.73346E-11-1.46962E-12-5.45753E-12
 -1        30-5.19705E+02-5.19705E+02 3.36198E-11-2.60079E-11 1.75752E-11 6.76839E-14
 -1        31-1.03941E+03-1.03941E+03 7.04784E-12 4.62604E-13 7.57783E-13 1.14558E-14
 -1        32-5.19705E+02-5.19705E+02 2.04923E-11 1.86739E-11 1.01381E-14-1.02497E-11
 -1        33-5.19705E+02-5.19705E+02 2.79744E-11-2.23865E-11 5.80113E-13 1.20775E-11
 -1        34-5.19705E+02-5.19705E+02-2.56677E-12-2.52334E-12 2.53473E-13-8.48486E-13
 -1        35-5.19705E+02-5.19705E+02-1.77182E-11-5.39748E-14 1.02894E-13-5.24022E-12
 -1        36-1.03941E+03-1.03941E+03 3.54657E-11 1.58946E-12-7.12574E-13 1.00348E-12
 -1        37-1.03941E+03-1.03941E+03 2.79119E-11 4.54404E-14-3.68381E-12 3.82327E-12
 -1        38-5.19705E+02-5.19705E+02 1.87658E-11-4.29468E-12-3.65750E-12 1.51027E-12
 -1        39-5.19705E+02-5.19705E+02 8.85828E-12 2.90712E-12-1.39060E-12 1.01960E-12
 -1        40-5.19705E+02-5.19705E+02 2.40558E-11-1.08683E-11 1.10923E-12 1.76554E-13
 -1        41-5.19705E+02-5.19705E+02 1.53690E-12 1.09133E-11 3.47805E-12 1.56567E-13
 -1        42-1.03941E+03-1.03941E+03 1.75446E-11 4.70000E-13 9.52797E-13 1.47640E-12
 -1        43-5.19705E+02-5.19705E+02 2.47594E-12-1.24582E-13 1.95917E-12 9.98789E-14
 -1        44-3.46470E+02-3.46470E+02 1.71499E-12-2.96132E-12 4.00317E-12-3.55329E-13
 -1        45-3.46470E+02-3.46470E+02-1.06176E-11 2.11222E-12 2.48252E-12 8.30151E-13
 -1        46-3.46470E+02-3.46470E+02 3.40673E-12-7.00899E-12 3.30803E-12-1.47335E-12
 -1        47-3.46470E+02-3.46470E+02-4.13908E-12 9.93365E-12-2.30647E-14 1.34089E-12
 -1        48-5.19705E+02-5.19705E+02-7.00510E-12 3.62275E-12 1.87234E-12-2.69071E-12
 -1        49-5.19705E+02-5.19705E+02 8.81037E-13 4.07802E-12-9.43815E-13 1.67052E-12
 -1        50-3.46470E+02-3.46470E+02 2.01416E-11 5.89924E-12-6.85409E-12-2.01659E-12
 -1        51-3.46470E+02-3.46470E+02 1.30958E-11-6.20231E-12-4.60611E-12 4.00954E-12
 -1        52-3.46470E+02-3.46470E+02 2.09537E-12 4.92897E-12-2.74334E-12-9.06421E-13
 -1        53-3.46470E+02-3.46470E+02-4.03662E-12-4.12177E-12 1.88208E-12-5.93135E-12
 -1        54-5.19705E+02-5.19705E+02-1.05708E-11-6.15369E-12 3.77291E-12-4.27848E-12
 -1        55-5.19705E+02-5.19705E+02-1.68546E-12 1.99779E-11 1.49231E-12-1.61225E-12
 -1        56-3.46470E+02-3.46470E+02 1.30340E-11 1.64992E-11 5.89543E-12-2.91753E-13
 -1        57-3.46470E+02-3.46470E+02 1.47465E-11-1.25875E-11 1.77876E-12-2.66091E-12
 -1        58-3.46470E+02-3.46470E+02 5.19793E-13-1.36870E-12 1.75452E-12 2.69652E-12
 -1        59-3.46470E+02-3.46470E+02 2.68359E-12-2.24893E-12 2.02216E-12-2.81258E-13
 -1        60-5.19705E+02-5.19705E+02 2.12569E-11-2.50252E-12-8.54764E-12 4.31822E-12
 -1        61-5.19705E+02-5.19705E+02 1.15428E-11-1.85781E-11-5.82987E-12-7.16509E-12
 -1        62-3.46470E+02-3.46470E+02 1.44146E-11-1.95774E-11-2.66639E-12 2.58670E-12
 -1        63-3.46470E+02-3.46470E+02 1.66187E-11 1.41883E-11 9.64374E-13-5.25201E-12
 -1        64-3.46470E+02-3.46470E+02 1.37108E-11 1.71965E-12-6.52728E-12 5.08935E-12
 -1        65-3.46470E+02-3.46470E+02 2.60723E-12 3.60379E-12-1.54202E-12-3.16830E-12
 -1        66-5.19705E+02-5.19705E+02 1.55939E-11 6.89719E-13 1.01363E-11 5.21910E-12
 -1        67-1.03941E+03-1.03941E+03-1.49280E-11-3.94538E-13-5.24460E-13 3.34541E-12
 -1        68-5.19705E+02-5.19705E+02 2.72319E-11-1.09853E-11 8.25815E-12-8.58693E-12
 -1        69-5.19705E+02-5.19705E+02 1.09691E-11 1.09861E-11 6.73171E-12 1.20005E-11
 -1        70-5.19705E+02-5.19705E+02-3.02091E-12-7.66105E-12 1.79853E-12-3.02548E-13
 -1        71-5.19705E+02-5.19705E+02-2.67551E-12 4.90025E-12 3.48454E-13-6.90959E-12
 -1        72-1.03941E+03-1.03941E+03-2.04480E-11-1.13474E-12-1.42558E-11-6.45344E-12
 -3
    1PSTEP                       294          98           1          
  100CL  198 8.40781E-01          72                     0   98           1
 -4  TOSTRAIN    6    1
 -5  EXX         1    4    1    1
 -5  EYY         1    4    2    2
 -5  EZZ         1    4    3    3
 -5  EXY         1    4    1    2
 -5  EYZ         1    4    2    3
 -5  EZX         1    4    3    1
 -1         1-3.47500E-03-3.47500E-03 2.97858E-03-4.97056E-20-1.24345E-19 1.67893E-20
 -1         2-1.73750E-03-1.73750E-03 1.48929E-03-2.46316E-17 4.75464E-20-2.46758E-18
 -1         3-1.73750E-03-1.73750E-03 1.48929E-03 3.65066E-17 7.39001E-21-2.90282E-17
 -1         4-1.73750E-03-1.73750E-03 1.48929E-03-1.97416E-17 3.64330E-20-3.10581E-17
 -1         5-1.73750E-03-1.73750E-03 1.48929E-03 2.68947E-17-2.29710E-21-3.73138E-18
 -1         6-3.47500E-03-3.47500E-03 2.97858E-03 3.30381E-18-2.01858E-19-2.59578E-18
 -1         7-1.73750E-03-1.73750E-03 1.48929E-03-5.08058E-17 2.38291E-17-5.75675E-20
 -1         8-1.15833E-03-1.15833E-03 9.92858E-04-5.02751E-17 3.96898E-17-2.64114E-18
 -1         9-1.15833E-03-1.15833E-03 9.92858E-04 3.23623E-17 2.08736E-17-2.76153E-17
 -1        10-1.15833E-03-1.15833E-03 9.92858E-04-4.55672E-18 1.59732E-17-4.48577E-17
 -1        11-1.15833E-03-1.15833E-03 9.92858E-04 5.78865E-18-1.47356E-17 1.88612E-17
 -1        12-1.73750E-03-1.73750E-03 1.48929E-03-2.08921E-17 8.97185E-18 2.06042E-18
 -1        13-1.73750E-03-1.73750E-03 1.48929E-03 7.50193E-17 1.72867E-17-4.25051E-20
 -1        14-1.15833E-03-1.15833E-03 9.92858E-04 3.60011E-17-1.45549E-17-1.92840E-17
 -1        15-1.15833E-03-1.15833E-03 9.92858E-04-1.66880E-17 9.31230E-18 2.86832E-17
 -1        16-1.15833E-03-1.15833E-03 9.92858E-04-3.16829E-17 2.64547E-17-4.98991E-19
 -1        17-1.15833E-03-1.15833E-03 9.92858E-04 2.23783E-17-2.04587E-18-1.76525E-17
 -1        18-1.73750E-03-1.73750E-03 1.48929E-03 2.64049E-17-5.23791E-17-1.45103E-18
 -1        19-1.73750E-03-1.73750E-03 1.48929E-03 3.46944E-17 2.80589E-17 3.55932E-20
 -1        20-1.15833E-03-1.15833E-03 9.92858E-04 9.11786E-18 6.75276E-17 4.87409E-18
 -1        21-1.15833E-03-1.15833E-03 9.92858E-04-4.55003E-17 4.83493E-17-2.28187E-18
 -1        22-1.15833E-03-1.15833E-03 9.92858E-04-6.05058E-17 5.55112E-17 2.85434E-17
 -1        23-1.15833E-03-1.15833E-03 9.92858E-04 1.11051E-16-1.28715E-18-2.44409E-17
 -1        24-1.73750E-03-1.73750E-03 1.48929E-03 1.70323E-16-1.26260E-16 9.05636E-19
 -1        25-1.73750E-03-1.73750E-03 1.48929E-03-5.58299E-17-3.77886E-17-3.42527E-20
 -1        26-1.15833E-03-1.15833E-03 9.92858E-04 4.01239E-17-5.23508E-17 4.54655E-17
 -1        27-1.15833E-03-1.15833E-03 9.92858E-04-9.01757E-18-2.23178E-17-5.35322E-17
 -1        28-1.15833E-03-1.15833E-03 9.92858E-04 7.31140E-17-5.19037E-17 1.36892E-17
 -1        29-1.15833E-03-1.15833E-03 9.92858E-04-1.09046E-16-9.06571E-18-3.36668E-17
 -1        30-1.73750E-03-1.73750E-03 1.48929E-03-1.63607E-16 1.08419E-16 4.17971E-19
 -1        31-3.47500E-03-3.47500E-03 2.97858E-03 2.91008E-18 4.67391E-18 7.14403E-20
 -1        32-1.73750E-03-1.73750E-03 1.48929E-03 1.17471E-16 6.31349E-20-6.32296E-17
 -1        33-1.73750E-03-1.73750E-03 1.48929E-03-1.40826E-16 3.57907E-18 7.45052E-17
 -1        34-1.73750E-03-1.73750E-03 1.48929E-03-1.58735E-17 1.56388E-18-5.23427E-18
 -1        35-1.73750E-03-1.73750E-03 1.48929E-03-3.39537E-19 6.34921E-19-3.23269E-17
 -1        36-3.47500E-03-3.47500E-03 2.97858E-03 9.99877E-18-4.39570E-18 6.18966E-18
 -1        37-3.47500E-03-3.47500E-03 2.97858E-03 2.85850E-19-2.30213E-17 2.38907E-17
 -1        38-1.73750E-03-1.73750E-03 1.48929E-03-2.70163E-17-2.28558E-17 9.46940E-18
 -1        39-1.73750E-03-1.73750E-03 1.48929E-03 1.82877E-17-8.68945E-18 6.74060E-18
 -1        40-1.73750E-03-1.73750E-03 1.48929E-03-6.83688E-17 6.93050E-18 1.53992E-18
 -1        41-1.73750E-03-1.73750E-03 1.48929E-03 6.86517E-17 2.17350E-17 1.00350E-18
 -1        42-3.47500E-03-3.47500E-03 2.97858E-03 2.95661E-18 5.95446E-18 9.18312E-18
 -1        43-1.73750E-03-1.73750E-03 1.48929E-03-7.83701E-19 1.19379E-17 6.24687E-19
 -1        44-1.15833E-03-1.15833E-03 9.92858E-04-1.86286E-17 2.44999E-17-2.18630E-18
 -1        45-1.15833E-03-1.15833E-03 9.92858E-04 1.32873E-17 1.52407E-17 5.55502E-18
 -1        46-1.15833E-03-1.15833E-03 9.92858E-04-4.40911E-17 2.04647E-17-8.65514E-18
 -1        47-1.15833E-03-1.15833E-03 9.92858E-04 6.24892E-17 4.44079E-20 8.13360E-18
 -1        48-1.73750E-03-1.73750E-03 1.48929E-03 2.27894E-17 1.15853E-17-1.68061E-17
 -1        49-1.73750E-03-1.73750E-03 1.48929E-03 2.56534E-17-6.12304E-18 1.04401E-17
 -1        50-1.15833E-03-1.15833E-03 9.92858E-04 3.71101E-17-4.26614E-17-1.23503E-17
 -1        51-1.15833E-03-1.15833E-03 9.92858E-04-3.90166E-17-2.89001E-17 2.46794E-17
 -1        52-1.15833E-03-1.15833E-03 9.92858E-04 3.10065E-17-1.75063E-17-5.64676E-18
 -1        53-1.15833E-03-1.15833E-03 9.92858E-04-2.59286E-17 1.17867E-17-3.68070E-17
 -1        54-1.73750E-03-1.73750E-03 1.48929E-03-3.87107E-17 2.42473E-17-2.67191E-17
 -1        55-1.73750E-03-1.73750E-03 1.48929E-03 1.25674E-16 8.90523E-18-1.00762E-17
 -1        56-1.15833E-03-1.15833E-03 9.92858E-04 1.03791E-16 3.59895E-17-1.88669E-18
 -1        57-1.15833E-03-1.15833E-03 9.92858E-04-7.91839E-17 1.04879E-17-1.65677E-17
 -1        58-1.15833E-03-1.15833E-03 9.92858E-04-8.61002E-18 1.02399E-17 1.64819E-17
 -1        59-1.15833E-03-1.15833E-03 9.92858E-04-1.41472E-17 1.26505E-17-1.47796E-18
 -1        60-1.73750E-03-1.73750E-03 1.48929E-03-1.57425E-17-5.17551E-17 2.70244E-17
 -1        61-1.73750E-03-1.73750E-03 1.48929E-03-1.16868E-16-3.59805E-17-4.47751E-17
 -1        62-1.15833E-03-1.15833E-03 9.92858E-04-1.23155E-16-1.59891E-17 1.55744E-17
 -1        63-1.15833E-03-1.15833E-03 9.92858E-04 8.92539E-17 6.29686E-18-3.21540E-17
 -1        64-1.15833E-03-1.15833E-03 9.92858E-04 1.08177E-17-4.01467E-17 3.16411E-17
 -1        65-1.15833E-03-1.15833E-03 9.92858E-04 2.26702E-17-9.50365E-18-1.93060E-17
 -1        66-1.73750E-03-1.73750E-03 1.48929E-03 4.33878E-18 6.19775E-17 3.25548E-17
 -1        67-3.47500E-03-3.47500E-03 2.97858E-03-2.48190E-18-3.26830E-18 2.09047E-17
 -1        68-1.73750E-03-1.73750E-03 1.48929E-03-6.91047E-17 5.16335E-17-5.28386E-17
 -1        69-1.73750E-03-1.73750E-03 1.48929E-03 6.91096E-17 4.20493E-17 7.40549E-17
 -1        70-1.73750E-03-1.73750E-03 1.48929E-03-4.81930E-17 1.12734E-17-1.84162E-18
 -1        71-1.73750E-03-1.73750E-03 1.48929E-03 3.08258E-17 2.16363E-18-4.28329E-17
 -1        72-3.47500E-03-3.47500E-03 2.97858E-03-7.13827E-18-8.90525E-17-4.02271E-17
 -3
    1PSTEP                       295          99           1          
  100CL  199 8.49781E-01          72                     0   99           1
 -4  DISP        4    1
 -5  D1          1    2    1    0
 -5  D2          1    2    2    0
 -5  D3          1    2    3    0
 -5  ALL         1    2    0    0    1ALL
 -1         1 0.00000E+00 0.00000E+00 0.00000E+00
 -1         2-1.83056E+00 0.00000E+00 0.00000E+00
 -1         3-1.18314E+01 0.00000E+00 0.00000E+00
 -1         4-1.36620E+01 0.00000E+00 0.00000E+00
 -1         5-2.36629E+01 0.00000E+00 0.00000E+00
 -1         6-2.54934E+01 0.00000E+00 0.00000E+00
 -1         7 0.00000E+00-1.83056E+00 0.00000E+00
 -1         8-1.83056E+00-1.83056E+00 0.00000E+00
 -1         9-1.18314E+01-1.83056E+00 0.00000E+00
 -1        10-1.36620E+01-1.83056E+00 0.00000E+00
 -1        11-2.36629E+01-1.83056E+00 0.00000E+00
 -1        12-2.54934E+01-1.83056E+00 0.00000E+00
 -1        13 0.00000E+00-1.18314E+01 0.00000E+00
 -1        14-1.83056E+00-1.18314E+01 0.00000E+00
 -1        15-1.18314E+01-1.18314E+01 0.00000E+00
 -1        16-1.36620E+01-1.18314E+01 0.00000E+00
 -1        17-2.36629E+01-1.18314E+01 0.00000E+00
 -1        18-2.54934E+01-1.18314E+01 0.00000E+00
 -1        19 0.00000E+00-1.36620E+01 0.00000E+00
 -1        20-1.83056E+00-1.36620E+01 0.00000E+00
 -1        21-1.18314E+01-1.36620E+01 0.00000E+00
 -1        22-1.36620E+01-1.36620E+01 0.00000E+00
 -1        23-2.36629E+01-1.36620E+01 0.00000E+00
 -1        24-2.54934E+01-1.36620E+01 0.00000E+00
 -1        25 0.00000E+00-2.36629E+01 0.00000E+00
 -1        26-1.83056E+00-2.36629E+01 0.00000E+00
 -1        27-1.18314E+01-2.36629E+01 0.00000E+00
 -1        28-1.36620E+01-2.36629E+01 0.00000E+00
 -1        29-2.36629E+01-2.36629E+01 0.00000E+00
 -1        30-2.54934E+01-2.36629E+01 0.00000E+00
 -1        31 0.00000E+00-2.54934E+01 0.00000E+00
 -1        32-1.83056E+00-2.54934E+01 0.00000E+00
 -1        33-1.18314E+01-2.54934E+01 0.00000E+00
 -1        34-1.36620E+01-2.54934E+01 0.00000E+00
 -1        35-2.36629E+01-2.54934E+01 0.00000E+00
 -1        36-2.54934E+01-2.54934E+01 0.00000E+00
 -1        37 0.00000E+00 0.00000E+00 2.18923E+00
 -1        38-1.83056E+00 0.00000E+00 2.18923E+00
 -1        39-1.18314E+01 0.00000E+00 2.18923E+00
 -1        40-1.36620E+01 0.00000E+00 2.18923E+00
 -1        41-2.36629E+01 0.00000E+00 2.18923E+00
 -1        42-2.54934E+01 0.00000E+00 2.18923E+00
 -1        43 0.00000E+00-1.83056E+00 2.18923E+00
 -1        44-1.83056E+00-1.83056E+00 2.18923E+00
 -1        45-1.18314E+01-1.83056E+00 2.18923E+00
 -1        46-1.36620E+01-1.83056E+00 2.18923E+00
 -1        47-2.36629E+01-1.83056E+00 2.18923E+00
 -1        48-2.54934E+01-1.83056E+00 2.18923E+00
 -1        49 0.00000E+00-1.18314E+01 2.18923E+00
 -1        50-1.83056E+00-1.18314E+01 2.18923E+00
 -1        51-1.18314E+01-1.18314E+01 2.18923E+00
 -1        52-1.36620E+01-1.18314E+01 2.18923E+00
 -1        53-2.36629E+01-1.18314E+01 2.18923E+00
 -1        54-2.54934E+01-1.18314E+01 2.18923E+00
 -1        55 0.00000E+00-1.36620E+01 2.18923E+00
 -1        56-1.83056E+00-1.36620E+01 2.18923E+00
 -1        57-1.18314E+01-1.36620E+01 2.18923E+00
 -1        58-1.36620E+01-1.36620E+01 2.18923E+00
 -1        59-2.36629E+01-1.36620E+01 2.18923E+00
 -1        60-2.54934E+01-1.36620E+01 2.18923E+00
 -1        61 0.00000E+00-2.36629E+01 2.18923E+00
 -1        62-1.83056E+00-2.36629E+01 2.18923E+00
 -1        63-1.18314E+01-2.36629E+01 2.18923E+00
 -1        64-1.36620E+01-2.36629E+01 2.18923E+00
 -1        65-2.36629E+01-2.36629E+01 2.18923E+00
 -1        66-2.54934E+01-2.36629E+01 2.18923E+00
 -1        67 0.00000E+00-2.54934E+01 2.18923E+00
 -1        68-1.83056E+00-2.54934E+01 2.18923E+00
 -1        69-1.18314E+01-2.54934E+01 2.18923E+00
 -1        70-1.36620E+01-2.54934E+01 2.18923E+00
 -1        71-2.36629E+01-2.54934E+01 2.18923E+00
 -1        72-2.54934E+01-2.54934E+01 2.18923E+00
 -3
    1PSTEP                       296          99           1          
  100CL  199 8.49781E-01          72                     0   99           1
 -4  STRESS      6    1
 -5  SXX         1    4    1    1
 -5  SYY         1    4    2    2
 -5  SZZ         1    4    3    3
 -5  SXY         1    4    1    2
 -5  SYZ         1    4    2    3
 -5  SZX         1    4    3    1
 -1         1-1.09286E+03-1.09286E+03 3.73437E-10-5.01283E-16 1.64781E-14-1.70628E-14
 -1         2-5.46432E+02-5.46432E+02 1.78090E-10-4.69194E-12-1.88929E-14-2.35803E-12
 -1         3-5.46432E+02-5.46432E+02 1.78336E-10 1.02446E-11-3.82887E-15-4.53932E-12
 -1         4-5.46432E+02-5.46432E+02 1.89165E-10 5.83762E-12 8.75792E-16-3.49015E-12
 -1         5-5.46432E+02-5.46432E+02 1.83205E-10-6.32421E-14 8.00845E-15-4.30663E-12
 -1         6-1.09286E+03-1.09286E+03 3.63978E-10-6.72534E-13 1.42321E-14-2.10960E-13
 -1         7-5.46432E+02-5.46432E+02 1.74493E-10-1.09562E-11 3.83885E-12-9.81432E-15
 -1         8-3.64288E+02-3.64288E+02 1.06368E-10-1.04319E-11 7.66487E-12-1.10497E-12
 -1         9-3.64288E+02-3.64288E+02 1.06752E-10 4.78485E-12 4.82165E-12-5.22435E-12
 -1        10-3.64288E+02-3.64288E+02 1.24624E-10 1.54047E-12 3.39683E-12-1.12419E-11
 -1        11-3.64288E+02-3.64288E+02 1.32211E-10-2.55564E-12-3.31744E-12 5.90675E-12
 -1        12-5.46432E+02-5.46432E+02 1.82608E-10-3.53389E-12-1.56660E-12 4.05839E-13
 -1        13-5.46432E+02-5.46432E+02 1.77292E-10 1.54872E-11 1.01036E-12-3.04318E-16
 -1        14-3.64288E+02-3.64288E+02 1.16609E-10 9.34114E-12-5.58518E-12-2.78466E-12
 -1        15-3.64288E+02-3.64288E+02 1.21152E-10-6.29460E-12 1.53082E-13 1.72716E-12
 -1        16-3.64288E+02-3.64288E+02 1.20423E-10-1.94591E-12 4.28464E-12-3.35931E-12
 -1        17-3.64288E+02-3.64288E+02 1.10236E-10 2.29367E-12-1.29026E-12 2.47195E-14
 -1        18-5.46432E+02-5.46432E+02 1.76599E-10 1.05044E-11-8.34849E-12-8.46127E-13
 -1        19-5.46432E+02-5.46432E+02 1.65397E-10 1.64205E-11 1.02207E-11 3.89600E-15
 -1        20-3.64288E+02-3.64288E+02 1.15269E-10 9.96333E-12 1.97807E-12-2.44093E-13
 -1        21-3.64288E+02-3.64288E+02 1.14844E-10-1.04167E-11 6.09630E-12 7.11597E-13
 -1        22-3.64288E+02-3.64288E+02 1.03339E-10-5.97591E-12 1.08931E-11 3.08761E-12
 -1        23-3.64288E+02-3.64288E+02 1.24340E-10 1.05984E-11-5.69832E-12-6.51754E-12
 -1        24-5.46432E+02-5.46432E+02 2.20018E-10 2.38153E-11-2.28076E-11 4.55227E-13
 -1        25-5.46432E+02-5.46432E+02 1.47152E-10-1.84207E-11-1.25726E-11-4.77540E-15
 -1        26-3.64288E+02-3.64288E+02 1.12965E-10-3.00803E-12-2.65643E-12 3.80113E-12
 -1        27-3.64288E+02-3.64288E+02 1.14148E-10 3.15538E-12-1.85750E-12-5.03855E-12
 -1        28-3.64288E+02-3.64288E+02 9.90541E-11 7.89107E-12-1.09442E-11-8.91045E-13
 -1        29-3.64288E+02-3.64288E+02 1.19468E-10-1.07173E-11 3.42368E-12-4.57088E-12
 -1        30-5.46432E+02-5.46432E+02 2.19367E-10-2.00948E-11 1.96376E-11 4.30427E-15
 -1        31-1.09286E+03-1.09286E+03 3.50763E-10 2.37063E-13 1.50568E-12 1.33928E-14
 -1        32-5.46432E+02-5.46432E+02 2.01014E-10 1.40272E-11-3.37281E-13-7.04355E-12
 -1        33-5.46432E+02-5.46432E+02 1.95439E-10-1.49985E-11 1.05778E-13 6.54579E-12
 -1        34-5.46432E+02-5.46432E+02 1.73741E-10-7.60610E-12 8.50954E-14-3.09059E-12
 -1        35-5.46432E+02-5.46432E+02 1.65365E-10 3.48405E-12-4.13221E-13-3.74038E-12
 -1        36-1.09286E+03-1.09286E+03 3.82836E-10 6.38032E-13 1.87390E-12-3.87629E-13
 -1        37-1.09286E+03-1.09286E+03 3.79294E-10-3.06004E-15-3.76193E-12 6.68020E-12
 -1        38-5.46432E+02-5.46432E+02 1.97624E-10-3.70881E-12-4.47190E-12 9.92998E-13
 -1        39-5.46432E+02-5.46432E+02 1.95492E-10 5.58708E-12-3.86711E-12 1.91675E-12
 -1        40-5.46432E+02-5.46432E+02 2.02311E-10-1.33057E-11 2.12176E-12 2.62371E-12
 -1        41-5.46432E+02-5.46432E+02 1.81066E-10 1.74023E-11 5.91895E-12-2.50142E-12
 -1        42-1.09286E+03-1.09286E+03 3.73450E-10 5.05448E-13 1.25553E-12 2.83558E-12
 -1        43-5.46432E+02-5.46432E+02 1.79035E-10-4.57164E-13 1.98553E-12 7.61326E-13
 -1        44-3.64288E+02-3.64288E+02 1.20267E-10-2.77630E-12 4.68979E-12-5.96858E-13
 -1        45-3.64288E+02-3.64288E+02 1.04487E-10-3.61601E-13 2.24772E-12 2.87651E-12
 -1        46-3.64288E+02-3.64288E+02 1.19289E-10-1.27877E-11 4.80483E-12-3.03550E-12
 -1        47-3.64288E+02-3.64288E+02 1.12737E-10 1.24616E-11 6.12380E-13 3.58573E-12
 -1        48-5.46432E+02-5.46432E+02 1.61168E-10 8.67299E-13-8.54363E-13-3.26663E-12
 -1        49-5.46432E+02-5.46432E+02 1.85887E-10 2.43383E-12-2.31964E-12-1.15458E-12
 -1        50-3.64288E+02-3.64288E+02 1.26747E-10 4.20976E-12-5.46717E-12-3.57233E-12
 -1        51-3.64288E+02-3.64288E+02 1.22242E-10-2.62276E-12-4.96810E-12 4.15368E-12
 -1        52-3.64288E+02-3.64288E+02 1.24063E-10 1.31247E-11-5.51508E-12-1.31650E-12
 -1        53-3.64288E+02-3.64288E+02 1.01112E-10-1.10672E-11 1.33261E-12-2.80148E-12
 -1        54-5.46432E+02-5.46432E+02 1.47610E-10 1.66282E-12 4.75299E-12-3.27051E-12
 -1        55-5.46432E+02-5.46432E+02 1.82326E-10 6.40397E-12 5.83333E-12 2.69740E-12
 -1        56-3.64288E+02-3.64288E+02 1.30764E-10 6.85652E-12 2.24053E-12 1.56755E-12
 -1        57-3.64288E+02-3.64288E+02 1.32959E-10-5.60615E-12 7.31835E-13-1.73551E-12
 -1        58-3.64288E+02-3.64288E+02 1.22810E-10 1.02037E-11 1.17253E-12 1.40951E-12
 -1        59-3.64288E+02-3.64288E+02 1.27416E-10-9.45082E-12-3.01987E-12-1.95757E-12
 -1        60-5.46432E+02-5.46432E+02 2.07538E-10 3.33650E-12-1.02659E-11 5.74298E-12
 -1        61-5.46432E+02-5.46432E+02 1.86439E-10-6.29973E-12-9.61313E-12-2.59972E-12
 -1        62-3.64288E+02-3.64288E+02 1.25643E-10-6.59014E-12-3.34491E-13 2.05760E-12
 -1        63-3.64288E+02-3.64288E+02 1.26373E-10 3.55236E-12 1.04682E-12-2.98000E-12
 -1        64-3.64288E+02-3.64288E+02 1.29829E-10-4.64483E-12-6.97971E-12 1.04274E-12
 -1        65-3.64288E+02-3.64288E+02 1.21079E-10 5.10620E-12 1.57401E-12-1.64186E-12
 -1        66-5.46432E+02-5.46432E+02 1.88198E-10 1.61182E-12 1.24990E-11 3.50069E-12
 -1        67-1.09286E+03-1.09286E+03 3.75010E-10-2.27652E-13 4.72410E-12-2.86875E-12
 -1        68-5.46432E+02-5.46432E+02 1.92569E-10-3.69930E-12 4.20694E-12-8.47084E-12
 -1        69-5.46432E+02-5.46432E+02 1.83701E-10 3.46362E-12 5.80651E-12 1.02310E-11
 -1        70-5.46432E+02-5.46432E+02 1.88632E-10-9.30114E-12 4.99308E-12 1.04446E-12
 -1        71-5.46432E+02-5.46432E+02 1.64697E-10 6.14595E-12-2.80047E-12-5.78672E-12
 -1        72-1.09286E+03-1.09286E+03 3.12538E-10-1.30486E-12-1.72829E-11-3.99954E-12
 -3
    1PSTEP                       297          99           1          
  100CL  199 8.49781E-01          72                     0   99           1
 -4  TOSTRAIN    6    1
 -5  EXX         1    4    1    1
 -5  EYY         1    4    2    2
 -5  EZZ         1    4    3    3
 -5  EXY         1    4    1    2
 -5  EYZ         1    4    2    3
 -5  EZX         1    4    3    1
 -1         1-3.65427E-03-3.65427E-03 3.13223E-03-3.15604E-21 1.01958E-19-1.05296E-19
 -1         2-1.82714E-03-1.82714E-03 1.56612E-03-2.95401E-17-1.17352E-19-1.45439E-17
 -1         3-1.82714E-03-1.82714E-03 1.56612E-03 6.44995E-17-2.37895E-20-2.79975E-17
 -1         4-1.82714E-03-1.82714E-03 1.56612E-03 3.67532E-17 4.80211E-21-2.15265E-17
 -1         5-1.82714E-03-1.82714E-03 1.56612E-03-3.98168E-19 5.02440E-20-2.65619E-17
 -1         6-3.65427E-03-3.65427E-03 3.13223E-03-4.23422E-18 8.77939E-20-1.30007E-18
 -1         7-1.82714E-03-1.82714E-03 1.56612E-03-6.89796E-17 2.36775E-17-6.13146E-20
 -1         8-1.21809E-03-1.21809E-03 1.04408E-03-6.56787E-17 4.72749E-17-6.81577E-18
 -1         9-1.21809E-03-1.21809E-03 1.04408E-03 3.01250E-17 2.97389E-17-3.22233E-17
 -1        10-1.21809E-03-1.21809E-03 1.04408E-03 9.69868E-18 2.09506E-17-6.93384E-17
 -1        11-1.21809E-03-1.21809E-03 1.04408E-03-1.60901E-17-2.04607E-17 3.64319E-17
 -1        12-1.82714E-03-1.82714E-03 1.56612E-03-2.22491E-17-9.66280E-18 2.50338E-18
 -1        13-1.82714E-03-1.82714E-03 1.56612E-03 9.75065E-17 6.23282E-18-1.78257E-21
 -1        14-1.21809E-03-1.21809E-03 1.04408E-03 5.88111E-17-3.44486E-17-1.71752E-17
 -1        15-1.21809E-03-1.21809E-03 1.04408E-03-3.96303E-17 9.44149E-19 1.06522E-17
 -1        16-1.21809E-03-1.21809E-03 1.04408E-03-1.22513E-17 2.64266E-17-2.07201E-17
 -1        17-1.21809E-03-1.21809E-03 1.04408E-03 1.44408E-17-7.95860E-18 1.52062E-19
 -1        18-1.82714E-03-1.82714E-03 1.56612E-03 6.61346E-17-5.14913E-17-5.21936E-18
 -1        19-1.82714E-03-1.82714E-03 1.56612E-03 1.03382E-16 6.30404E-17 2.39383E-20
 -1        20-1.21809E-03-1.21809E-03 1.04408E-03 6.27284E-17 1.22001E-17-1.50558E-18
 -1        21-1.21809E-03-1.21809E-03 1.04408E-03-6.55825E-17 3.76006E-17 4.38956E-18
 -1        22-1.21809E-03-1.21809E-03 1.04408E-03-3.76239E-17 6.71869E-17 1.90443E-17
 -1        23-1.21809E-03-1.21809E-03 1.04408E-03 6.67268E-17-3.51464E-17-4.01988E-17
 -1        24-1.82714E-03-1.82714E-03 1.56612E-03 1.49939E-16-1.40674E-16 2.80810E-18
 -1        25-1.82714E-03-1.82714E-03 1.56612E-03-1.15975E-16-7.75459E-17-2.95934E-20
 -1        26-1.21809E-03-1.21809E-03 1.04408E-03-1.89384E-17-1.63842E-17 2.34445E-17
 -1        27-1.21809E-03-1.21809E-03 1.04408E-03 1.98660E-17-1.14567E-17-3.10770E-17
 -1        28-1.21809E-03-1.21809E-03 1.04408E-03 4.96816E-17-6.75014E-17-5.49597E-18
 -1        29-1.21809E-03-1.21809E-03 1.04408E-03-6.74753E-17 2.11168E-17-2.81920E-17
 -1        30-1.82714E-03-1.82714E-03 1.56612E-03-1.26515E-16 1.21121E-16 2.71140E-20
 -1        31-3.65427E-03-3.65427E-03 3.13223E-03 1.49253E-18 9.28607E-18 8.32668E-20
 -1        32-1.82714E-03-1.82714E-03 1.56612E-03 8.83142E-17-2.07995E-18-4.34430E-17
 -1        33-1.82714E-03-1.82714E-03 1.56612E-03-9.44292E-17 6.52517E-19 4.03735E-17
 -1        34-1.82714E-03-1.82714E-03 1.56612E-03-4.78875E-17 5.25762E-19-1.90619E-17
 -1        35-1.82714E-03-1.82714E-03 1.56612E-03 2.19353E-17-2.54806E-18-2.30700E-17
 -1        36-3.65427E-03-3.65427E-03 3.13223E-03 4.01700E-18 1.15551E-17-2.39085E-18
 -1        37-3.65427E-03-3.65427E-03 3.13223E-03-1.92658E-20-2.35199E-17 4.17673E-17
 -1        38-1.82714E-03-1.82714E-03 1.56612E-03-2.33504E-17-2.79584E-17 6.40717E-18
 -1        39-1.82714E-03-1.82714E-03 1.56612E-03 3.51759E-17-2.41777E-17 1.23569E-17
 -1        40-1.82714E-03-1.82714E-03 1.56612E-03-8.37715E-17 1.32652E-17 1.67173E-17
 -1        41-1.82714E-03-1.82714E-03 1.56612E-03 1.09563E-16 3.70065E-17-1.53010E-17
 -1        42-3.65427E-03-3.65427E-03 3.13223E-03 3.18226E-18 7.85136E-18 1.77439E-17
 -1        43-1.82714E-03-1.82714E-03 1.56612E-03-2.87827E-18 1.20879E-17 4.75937E-18
 -1        44-1.21809E-03-1.21809E-03 1.04408E-03-1.74794E-17 2.86747E-17-3.63887E-18
 -1        45-1.21809E-03-1.21809E-03 1.04408E-03-2.27661E-18 1.36463E-17 1.84357E-17
 -1        46-1.21809E-03-1.21809E-03 1.04408E-03-8.05102E-17 2.97536E-17-1.80285E-17
 -1        47-1.21809E-03-1.21809E-03 1.04408E-03 7.84572E-17 4.10966E-18 2.19046E-17
 -1        48-1.82714E-03-1.82714E-03 1.56612E-03 5.46045E-18-5.21351E-18-2.04652E-17
 -1        49-1.82714E-03-1.82714E-03 1.56612E-03 1.53232E-17-1.46254E-17-7.21852E-18
 -1        50-1.21809E-03-1.21809E-03 1.04408E-03 2.65043E-17-3.37155E-17-2.20983E-17
 -1        51-1.21809E-03-1.21809E-03 1.04408E-03-1.65127E-17-3.10752E-17 2.58162E-17
 -1        52-1.21809E-03-1.21809E-03 1.04408E-03 8.26324E-17-3.48294E-17-7.92284E-18
 -1        53-1.21809E-03-1.21809E-03 1.04408E-03-6.96783E-17 8.44488E-18-1.74579E-17
 -1        54-1.82714E-03-1.82714E-03 1.56612E-03 1.04690E-17 3.03771E-17-2.04403E-17
 -1        55-1.82714E-03-1.82714E-03 1.56612E-03 4.03189E-17 3.56606E-17 1.68636E-17
 -1        56-1.21809E-03-1.21809E-03 1.04408E-03 4.31681E-17 1.38242E-17 9.81938E-18
 -1        57-1.21809E-03-1.21809E-03 1.04408E-03-3.52959E-17 4.08111E-18-1.08877E-17
 -1        58-1.21809E-03-1.21809E-03 1.04408E-03 6.42417E-17 6.41757E-18 8.51016E-18
 -1        59-1.21809E-03-1.21809E-03 1.04408E-03-5.95017E-17-1.84009E-17-1.17697E-17
 -1        60-1.82714E-03-1.82714E-03 1.56612E-03 2.10063E-17-6.22541E-17 3.58779E-17
 -1        61-1.82714E-03-1.82714E-03 1.56612E-03-3.96626E-17-5.90692E-17-1.62541E-17
 -1        62-1.21809E-03-1.21809E-03 1.04408E-03-4.14910E-17-1.84860E-18 1.25446E-17
 -1        63-1.21809E-03-1.21809E-03 1.04408E-03 2.23654E-17 6.75728E-18-1.81990E-17
 -1        64-1.21809E-03-1.21809E-03 1.04408E-03-2.92435E-17-4.27461E-17 6.61243E-18
 -1        65-1.21809E-03-1.21809E-03 1.04408E-03 3.21483E-17 9.54131E-18-9.92719E-18
 -1        66-1.82714E-03-1.82714E-03 1.56612E-03 1.01479E-17 7.63885E-17 2.18908E-17
 -1        67-3.65427E-03-3.65427E-03 3.13223E-03-1.43328E-18 2.95830E-17-1.79349E-17
 -1        68-1.82714E-03-1.82714E-03 1.56612E-03-2.32905E-17 2.62693E-17-5.23671E-17
 -1        69-1.82714E-03-1.82714E-03 1.56612E-03 2.18067E-17 3.62648E-17 6.33789E-17
 -1        70-1.82714E-03-1.82714E-03 1.56612E-03-5.85593E-17 3.12505E-17 6.71825E-18
 -1        71-1.82714E-03-1.82714E-03 1.56612E-03 3.86944E-17-1.75235E-17-3.58448E-17
 -1        72-3.65427E-03-3.65427E-03 3.13223E-03-8.21528E-18-1.08001E-16-2.49751E-17
 -3
    1PSTEP                       298         100           1          
  100CL  200 8.58781E-01          72                     0  100           1
 -4  DISP        4    1
 -5  D1          1    2    1    0
 -5  D2          1    2    2    0
 -5  D3          1    2    3    0
 -5  ALL         1    2    0    0    1ALL
 -1         1 0.00000E+00 0.00000E+00 0.00000E+00
 -1         2-1.92052E+00 0.00000E+00 0.00000E+00
 -1         3-1.19215E+01 0.00000E+00 0.00000E+00
 -1         4-1.38420E+01 0.00000E+00 0.00000E+00
 -1         5-2.38429E+01 0.00000E+00 0.00000E+00
 -1         6-2.57634E+01 0.00000E+00 0.00000E+00
 -1         7 0.00000E+00-1.92052E+00 0.00000E+00
 -1         8-1.92052E+00-1.92052E+00 0.00000E+00
 -1         9-1.19215E+01-1.92052E+00 0.00000E+00
 -1        10-1.38420E+01-1.92052E+00 0.00000E+00
 -1        11-2.38429E+01-1.92052E+00 0.00000E+00
 -1        12-2.57634E+01-1.92052E+00 0.00000E+00
 -1        13 0.00000E+00-1.19215E+01 0.00000E+00
 -1        14-1.92052E+00-1.19215E+01 0.00000E+00
 -1        15-1.19215E+01-1.19215E+01 0.00000E+00
 -1        16-1.38420E+01-1.19215E+01 0.00000E+00
 -1        17-2.38429E+01-1.19215E+01 0.00000E+00
 -1        18-2.57634E+01-1.19215E+01 0.00000E+00
 -1        19 0.00000E+00-1.38420E+01 0.00000E+00
 -1        20-1.92052E+00-1.38420E+01 0.00000E+00
 -1        21-1.19215E+01-1.38420E+01 0.00000E+00
 -1        22-1.38420E+01-1.38420E+01 0.00000E+00
 -1        23-2.38429E+01-1.38420E+01 0.00000E+00
 -1        24-2.57634E+01-1.38420E+01 0.00000E+00
 -1        25 0.00000E+00-2.38429E+01 0.00000E+00
 -1        26-1.92052E+00-2.38429E+01 0.00000E+00
 -1        27-1.19215E+01-2.38429E+01 0.00000E+00
 -1        28-1.38420E+01-2.38429E+01 0.00000E+00
 -1        29-2.38429E+01-2.38429E+01 0.00000E+00
 -1        30-2.57634E+01-2.38429E+01 0.00000E+00
 -1        31 0.00000E+00-2.57634E+01 0.00000E+00
 -1        32-1.92052E+00-2.57634E+01 0.00000E+00
 -1        33-1.19215E+01-2.57634E+01 0.00000E+00
 -1        34-1.38420E+01-2.57634E+01 0.00000E+00
 -1        35-2.38429E+01-2.57634E+01 0.00000E+00
 -1        36-2.57634E+01-2.57634E+01 0.00000E+00
 -1        37 0.00000E+00 0.00000E+00 2.29643E+00
 -1        38-1.92052E+00 0.00000E+00 2.29643E+00
 -1        39-1.19215E+01 0.00000E+00 2.29643E+00
 -1        40-1.38420E+01 0.00000E+00 2.29643E+00
 -1        41-2.38429E+01 0.00000E+00 2.29643E+00
 -1        42-2.57634E+01 0.00000E+00 2.29643E+00
 -1        43 0.00000E+00-1.92052E+00 2.29643E+00
 -1        44-1.92052E+00-1.92052E+00 2.29643E+00
 -1        45-1.19215E+01-1.92052E+00 2.29643E+00
 -1        46-1.38420E+01-1.92052E+00 2.29643E+00
 -1        47-2.38429E+01-1.92052E+00 2.29643E+00
 -1        48-2.57634E+01-1.92052E+00 2.29643E+00
 -1        49 0.00000E+00-1.19215E+01 2.29643E+00
 -1        50-1.92052E+00-1.19215E+01 2.29643E+00
 -1        51-1.19215E+01-1.19215E+01 2.29643E+00
 -1        52-1.38420E+01-1.19215E+01 2.29643E+00
 -1        53-2.38429E+01-1.19215E+01 2.29643E+00
 -1        54-2.57634E+01-1.19215E+01 2.29643E+00
 -1        55 0.00000E+00-1.38420E+01 2.29643E+00
 -1        56-1.92052E+00-1.38420E+01 2.29643E+00
 -1        57-1.19215E+01-1.38420E+01 2.29643E+00
 -1        58-1.38420E+01-1.38420E+01 2.29643E+00
 -1        59-2.38429E+01-1.38420E+01 2.29643E+00
 -1        60-2.57634E+01-1.38420E+01 2.29643E+00
 -1        61 0.00000E+00-2.38429E+01 2.29643E+00
 -1        62-1.92052E+00-2.38429E+01 2.29643E+00
 -1        63-1.19215E+01-2.38429E+01 2.29643E+00
 -1        64-1.38420E+01-2.38429E+01 2.29643E+00
 -1        65-2.38429E+01-2.38429E+01 2.29643E+00
 -1        66-2.57634E+01-2.38429E+01 2.29643E+00
 -1        67 0.00000E+00-2.57634E+01 2.29643E+00
 -1        68-1.92052E+00-2.57634E+01 2.29643E+00
 -1        69-1.19215E+01-2.57634E+01 2.29643E+00
 -1        70-1.38420E+01-2.57634E+01 2.29643E+00
 -1        71-2.38429E+01-2.57634E+01 2.29643E+00
 -1        72-2.57634E+01-2.57634E+01 2.29643E+00
 -3
    1PSTEP                       299         100           1          
  100CL  200 8.58781E-01          72                     0  100           1
 -4  STRESS      6    1
 -5  SXX         1    4    1    1
 -5  SYY         1    4    2    2
 -5  SZZ         1    4    3    3
 -5  SXY         1    4    1    2
 -5  SYZ         1    4    2    3
 -5  SZX         1    4    3    1
 -1         1-1.14629E+03-1.14629E+03 1.23325E-10 2.54297E-14 3.48284E-14 1.50509E-14
 -1         2-5.73146E+02-5.73146E+02 5.99090E-11-7.15548E-12-2.04414E-14-4.07031E-12
 -1         3-5.73146E+02-5.73146E+02 5.78342E-11 1.04683E-11-3.37936E-15-1.45861E-12
 -1         4-5.73146E+02-5.73146E+02 6.34641E-11 5.43569E-12 9.20019E-15-1.32014E-12
 -1         5-5.73146E+02-5.73146E+02 6.16350E-11 1.04175E-13-2.18250E-15-3.57551E-12
 -1         6-1.14629E+03-1.14629E+03 1.10571E-10-5.00364E-13-3.99336E-15 1.42018E-12
 -1         7-5.73146E+02-5.73146E+02 4.67071E-11-6.61161E-12 4.56614E-12 2.48908E-15
 -1         8-3.82097E+02-3.82097E+02 2.74097E-11-9.18654E-12 5.92411E-12-2.12580E-12
 -1         9-3.82097E+02-3.82097E+02 2.80354E-11 5.39181E-12 3.16958E-12-2.98781E-12
 -1        10-3.82097E+02-3.82097E+02 4.10792E-11 2.02833E-12 3.88154E-12-1.09673E-11
 -1        11-3.82097E+02-3.82097E+02 4.98482E-11-4.17647E-12-2.47381E-12 7.29831E-12
 -1        12-5.73146E+02-5.73146E+02 5.43484E-11-6.31828E-12 8.42644E-14-1.02885E-12
 -1        13-5.73146E+02-5.73146E+02 5.71659E-11 1.01730E-11 3.35518E-12 3.07045E-15
 -1        14-3.82097E+02-3.82097E+02 3.53535E-11 9.11401E-12 8.97111E-13-1.67390E-13
 -1        15-3.82097E+02-3.82097E+02 3.80986E-11-5.90323E-12 1.65557E-12 2.97954E-13
 -1        16-3.82097E+02-3.82097E+02 3.50031E-11-1.86451E-12 1.61741E-12-1.24245E-12
 -1        17-3.82097E+02-3.82097E+02 2.25453E-11 2.72874E-12-4.25456E-13-3.68957E-12
 -1        18-5.73146E+02-5.73146E+02 4.88024E-11 1.55304E-11-1.13400E-11-5.74367E-13
 -1        19-5.73146E+02-5.73146E+02 4.19579E-11 5.39106E-12 8.56685E-12-7.69932E-15
 -1        20-3.82097E+02-3.82097E+02 2.41917E-11 5.92603E-12 1.23427E-11-3.49482E-12
 -1        21-3.82097E+02-3.82097E+02 3.31832E-11-7.98593E-12 7.22186E-12 3.06157E-12
 -1        22-3.82097E+02-3.82097E+02 2.54901E-11-3.75318E-12 5.86277E-12 3.20163E-12
 -1        23-3.82097E+02-3.82097E+02 4.17695E-11 1.30805E-11-3.47416E-12-1.58521E-12
 -1        24-5.73146E+02-5.73146E+02 9.74196E-11 3.02803E-11-2.38964E-11-3.16537E-13
 -1        25-5.73146E+02-5.73146E+02 2.44325E-11-1.12884E-11-8.50980E-12 5.10769E-15
 -1        26-3.82097E+02-3.82097E+02 1.94729E-11 4.99269E-12-8.09762E-12 4.24670E-12
 -1        27-3.82097E+02-3.82097E+02 2.37351E-11-2.88385E-12-3.73330E-12-6.64496E-12
 -1        28-3.82097E+02-3.82097E+02 1.75773E-11 9.25740E-12-6.26255E-12 4.10461E-13
 -1        29-3.82097E+02-3.82097E+02 3.10652E-11-1.70541E-11 1.85497E-12-4.39169E-12
 -1        30-5.73146E+02-5.73146E+02 9.25141E-11-2.44718E-11 1.87457E-11 3.85020E-13
 -1        31-1.14629E+03-1.14629E+03 1.10489E-10-1.60270E-13 6.52169E-13 2.17602E-14
 -1        32-5.73146E+02-5.73146E+02 7.47393E-11 1.86973E-11-3.63935E-13-8.11840E-12
 -1        33-5.73146E+02-5.73146E+02 7.41921E-11-2.04126E-11-3.00103E-13 5.93622E-12
 -1        34-5.73146E+02-5.73146E+02 6.06619E-11-2.06274E-12 2.36204E-13-6.12411E-12
 -1        35-5.73146E+02-5.73146E+02 4.19861E-11-2.97585E-13 2.42425E-13-1.48131E-12
 -1        36-1.14629E+03-1.14629E+03 1.40095E-10 6.81092E-14 8.22694E-14-6.16443E-13
 -1        37-1.14629E+03-1.14629E+03 1.25231E-10-2.44650E-14-3.00852E-12 6.63433E-12
 -1        38-5.73146E+02-5.73146E+02 7.02984E-11-5.93993E-12-3.04505E-12-7.60667E-13
 -1        39-5.73146E+02-5.73146E+02 6.75415E-11 5.87023E-12-2.88039E-12 2.53374E-12
 -1        40-5.73146E+02-5.73146E+02 7.62455E-11-1.46009E-11 2.27534E-12 2.59649E-12
 -1        41-5.73146E+02-5.73146E+02 5.87779E-11 1.85079E-11 5.31215E-12-1.23746E-12
 -1        42-1.14629E+03-1.14629E+03 1.22569E-10-9.36429E-13-1.38076E-13 2.94309E-12
 -1        43-5.73146E+02-5.73146E+02 4.98553E-11-6.55779E-13 3.00858E-12 1.76990E-12
 -1        44-3.82097E+02-3.82097E+02 3.54012E-11-4.38898E-12 3.91412E-12-9.47531E-13
 -1        45-3.82097E+02-3.82097E+02 1.93154E-11 2.96077E-12 1.27866E-12 2.60489E-12
 -1        46-3.82097E+02-3.82097E+02 3.34132E-11-1.02498E-11 5.37408E-12-4.60605E-12
 -1        47-3.82097E+02-3.82097E+02 3.00550E-11 1.01979E-11 1.03963E-12 4.19738E-12
 -1        48-5.73146E+02-5.73146E+02 3.32159E-11-1.15199E-12 5.77613E-14-3.52570E-12
 -1        49-5.73146E+02-5.73146E+02 6.68965E-11 7.04842E-12-4.54053E-12 1.16807E-12
 -1        50-3.82097E+02-3.82097E+02 5.88629E-11 2.49313E-12-4.64966E-12 5.99129E-13
 -1        51-3.82097E+02-3.82097E+02 4.64601E-11-2.15995E-12-2.88449E-12 5.49201E-13
 -1        52-3.82097E+02-3.82097E+02 3.96865E-11 4.66094E-12-4.34803E-12-1.06211E-12
 -1        53-3.82097E+02-3.82097E+02 2.36700E-11-4.27560E-12 2.67885E-12-6.22573E-12
 -1        54-5.73146E+02-5.73146E+02 3.19955E-11 1.00672E-12 2.22821E-12-3.17909E-12
 -1        55-5.73146E+02-5.73146E+02 4.15333E-11 1.86437E-11 7.01013E-13 4.44419E-13
 -1        56-3.82097E+02-3.82097E+02 4.03337E-11 1.02233E-11 6.22436E-12-3.20735E-12
 -1        57-3.82097E+02-3.82097E+02 4.52227E-11-6.39680E-12 3.07281E-12 1.20870E-12
 -1        58-3.82097E+02-3.82097E+02 3.38515E-11 2.43774E-14-4.01704E-13 1.32335E-12
 -1        59-3.82097E+02-3.82097E+02 4.05646E-11-1.96672E-12-1.48902E-13 9.66798E-13
 -1        60-5.73146E+02-5.73146E+02 7.65211E-11 4.93920E-12-1.13165E-11 4.25598E-12
 -1        61-5.73146E+02-5.73146E+02 5.48808E-11-1.70539E-11-7.73708E-12-5.14867E-12
 -1        62-3.82097E+02-3.82097E+02 4.60206E-11-1.21387E-11-4.48578E-12 8.41927E-13
 -1        63-3.82097E+02-3.82097E+02 4.60488E-11 8.26832E-12-1.43156E-12-2.58997E-12
 -1        64-3.82097E+02-3.82097E+02 4.43848E-11 1.08197E-12-4.10583E-12 4.44920E-12
 -1        65-3.82097E+02-3.82097E+02 3.61137E-11 2.45707E-12 8.16049E-13-2.84783E-12
 -1        66-5.73146E+02-5.73146E+02 6.60253E-11-3.59289E-12 1.07294E-11 2.65462E-12
 -1        67-1.14629E+03-1.14629E+03 1.10479E-10 2.38223E-13 1.94349E-12 1.40757E-12
 -1        68-5.73146E+02-5.73146E+02 8.38089E-11-1.03509E-12 7.01984E-12-7.41300E-12
 -1        69-5.73146E+02-5.73146E+02 6.09565E-11-1.78350E-13 4.62245E-12 9.76189E-12
 -1        70-5.73146E+02-5.73146E+02 5.32713E-11-1.08644E-11 1.46615E-12-1.95881E-12
 -1        71-5.73146E+02-5.73146E+02 3.98070E-11 6.49227E-12-1.98427E-12-5.42459E-12
 -1        72-1.14629E+03-1.14629E+03 7.17942E-11-6.34134E-13-1.59346E-11-7.41235E-12
 -3
    1PSTEP                       300         100           1          
  100CL  200 8.58781E-01          72                     0  100           1
 -4  TOSTRAIN    6    1
 -5  EXX         1    4    1    1
 -5  EYY         1    4    2    2
 -5  EZZ         1    4    3    3
 -5  EXY         1    4    1    2
 -5  EYZ         1    4    2    3
 -5  EZX         1    4    3    1
 -1         1-3.83351E-03-3.83351E-03 3.28586E-03 1.60238E-19 2.18135E-19 9.45380E-20
 -1         2-1.91675E-03-1.91675E-03 1.64293E-03-4.50881E-17-1.27436E-19-2.50995E-17
 -1         3-1.91675E-03-1.91675E-03 1.64293E-03 6.59629E-17-2.08419E-20-8.99482E-18
 -1         4-1.91675E-03-1.91675E-03 1.64293E-03 3.42514E-17 5.62850E-20-8.14088E-18
 -1         5-1.91675E-03-1.91675E-03 1.64293E-03 6.56429E-19-1.40832E-20-2.20485E-17
 -1         6-3.83351E-03-3.83351E-03 3.28586E-03-3.15290E-18-2.28305E-20 8.75905E-18
 -1         7-1.91675E-03-1.91675E-03 1.64293E-03-4.16611E-17 2.81597E-17 1.52330E-20
 -1         8-1.27784E-03-1.27784E-03 1.09529E-03-5.78862E-17 3.65313E-17-1.31093E-17
 -1         9-1.27784E-03-1.27784E-03 1.09529E-03 3.39749E-17 1.95458E-17-1.84248E-17
 -1        10-1.27784E-03-1.27784E-03 1.09529E-03 1.27809E-17 2.39362E-17-6.76319E-17
 -1        11-1.27784E-03-1.27784E-03 1.09529E-03-2.63168E-17-1.52552E-17 4.50062E-17
 -1        12-1.91675E-03-1.91675E-03 1.64293E-03-3.98128E-17 5.17689E-19-6.34506E-18
 -1        13-1.91675E-03-1.91675E-03 1.64293E-03 6.41024E-17 2.06901E-17 1.92556E-20
 -1        14-1.27784E-03-1.27784E-03 1.09529E-03 5.74292E-17 5.53210E-18-1.03203E-18
 -1        15-1.27784E-03-1.27784E-03 1.09529E-03-3.71974E-17 1.02090E-17 1.83716E-18
 -1        16-1.27784E-03-1.27784E-03 1.09529E-03-1.17486E-17 9.97424E-18-7.66202E-18
 -1        17-1.27784E-03-1.27784E-03 1.09529E-03 1.71944E-17-2.62292E-18-2.27525E-17
 -1        18-1.91675E-03-1.91675E-03 1.64293E-03 9.78600E-17-6.99307E-17-3.54205E-18
 -1        19-1.91675E-03-1.91675E-03 1.64293E-03 3.39702E-17 5.28288E-17-4.81924E-20
 -1        20-1.27784E-03-1.27784E-03 1.09529E-03 3.73411E-17 7.61138E-17-2.15520E-17
 -1        21-1.27784E-03-1.27784E-03 1.09529E-03-5.03210E-17 4.45346E-17 1.88802E-17
 -1        22-1.27784E-03-1.27784E-03 1.09529E-03-2.36495E-17 3.61539E-17 1.97440E-17
 -1        23-1.27784E-03-1.27784E-03 1.09529E-03 8.24230E-17-2.14234E-17-9.77617E-18
 -1        24-1.91675E-03-1.91675E-03 1.64293E-03 1.90803E-16-1.47362E-16-1.95299E-18
 -1        25-1.91675E-03-1.91675E-03 1.64293E-03-7.11305E-17-5.24770E-17 3.22410E-20
 -1        26-1.27784E-03-1.27784E-03 1.09529E-03 3.14599E-17-4.99359E-17 2.61886E-17
 -1        27-1.27784E-03-1.27784E-03 1.09529E-03-1.81717E-17-2.30220E-17-4.09781E-17
 -1        28-1.27784E-03-1.27784E-03 1.09529E-03 5.83327E-17-3.86188E-17 2.53055E-18
 -1        29-1.27784E-03-1.27784E-03 1.09529E-03-1.07461E-16 1.14394E-17-2.70826E-17
 -1        30-1.91675E-03-1.91675E-03 1.64293E-03-1.54202E-16 1.15600E-16 2.37376E-18
 -1        31-3.83351E-03-3.83351E-03 3.28586E-03-1.00989E-18 4.02260E-18 1.33431E-19
 -1        32-1.91675E-03-1.91675E-03 1.64293E-03 1.17815E-16-2.24477E-18-5.00641E-17
 -1        33-1.91675E-03-1.91675E-03 1.64293E-03-1.28624E-16-1.85045E-18 3.66078E-17
 -1        34-1.91675E-03-1.91675E-03 1.64293E-03-1.29977E-17 1.45732E-18-3.77646E-17
 -1        35-1.91675E-03-1.91675E-03 1.64293E-03-1.87514E-18 1.49631E-18-9.13498E-18
 -1        36-3.83351E-03-3.83351E-03 3.28586E-03 4.29170E-19 5.02593E-19-3.80184E-18
 -1        37-3.83351E-03-3.83351E-03 3.28586E-03-1.54159E-19-1.88199E-17 4.14994E-17
 -1        38-1.91675E-03-1.91675E-03 1.64293E-03-3.74287E-17-1.90468E-17-4.39708E-18
 -1        39-1.91675E-03-1.91675E-03 1.64293E-03 3.69895E-17-1.80165E-17 1.59688E-17
 -1        40-1.91675E-03-1.91675E-03 1.64293E-03-9.20035E-17 1.42317E-17 1.63558E-17
 -1        41-1.91675E-03-1.91675E-03 1.64293E-03 1.16622E-16 3.32278E-17-7.49020E-18
 -1        42-3.83351E-03-3.83351E-03 3.28586E-03-5.90063E-18-8.64360E-19 1.84308E-17
 -1        43-1.91675E-03-1.91675E-03 1.64293E-03-4.13220E-18 1.84194E-17 1.10707E-17
 -1        44-1.27784E-03-1.27784E-03 1.09529E-03-2.76559E-17 2.39580E-17-5.73895E-18
 -1        45-1.27784E-03-1.27784E-03 1.09529E-03 1.86564E-17 7.71618E-18 1.65925E-17
 -1        46-1.27784E-03-1.27784E-03 1.09529E-03-6.45859E-17 3.32723E-17-2.78752E-17
 -1        47-1.27784E-03-1.27784E-03 1.09529E-03 6.42588E-17 6.72346E-18 2.56610E-17
 -1        48-1.91675E-03-1.91675E-03 1.64293E-03-7.25889E-18 3.52823E-19-2.20764E-17
 -1        49-1.91675E-03-1.91675E-03 1.64293E-03 4.44135E-17-2.87039E-17 7.30634E-18
 -1        50-1.27784E-03-1.27784E-03 1.09529E-03 1.57097E-17-2.91868E-17 3.76347E-18
 -1        51-1.27784E-03-1.27784E-03 1.09529E-03-1.36103E-17-1.81706E-17 3.39521E-18
 -1        52-1.27784E-03-1.27784E-03 1.09529E-03 2.93695E-17-2.73658E-17-6.54128E-18
 -1        53-1.27784E-03-1.27784E-03 1.09529E-03-2.69414E-17 1.68107E-17-3.86021E-17
 -1        54-1.91675E-03-1.91675E-03 1.64293E-03 6.34357E-18 1.48707E-17-1.99193E-17
 -1        55-1.91675E-03-1.91675E-03 1.64293E-03 1.17478E-16 3.61914E-18 2.77990E-18
 -1        56-1.27784E-03-1.27784E-03 1.09529E-03 6.44191E-17 3.78700E-17-1.97525E-17
 -1        57-1.27784E-03-1.27784E-03 1.09529E-03-4.03075E-17 1.85665E-17 7.29296E-18
 -1        58-1.27784E-03-1.27784E-03 1.09529E-03 1.53607E-19-3.03076E-18 8.00000E-18
 -1        59-1.27784E-03-1.27784E-03 1.09529E-03-1.23927E-17-6.27541E-19 6.21464E-18
 -1        60-1.91675E-03-1.91675E-03 1.64293E-03 3.11229E-17-6.86531E-17 2.66244E-17
 -1        61-1.91675E-03-1.91675E-03 1.64293E-03-1.07460E-16-4.76444E-17-3.22051E-17
 -1        62-1.27784E-03-1.27784E-03 1.09529E-03-7.64884E-17-2.72712E-17 4.88871E-18
 -1        63-1.27784E-03-1.27784E-03 1.09529E-03 5.21004E-17-8.59769E-18-1.56116E-17
 -1        64-1.27784E-03-1.27784E-03 1.09529E-03 6.81774E-18-2.52005E-17 2.77968E-17
 -1        65-1.27784E-03-1.27784E-03 1.09529E-03 1.54825E-17 4.93008E-18-1.73971E-17
 -1        66-1.91675E-03-1.91675E-03 1.64293E-03-2.26395E-17 6.54440E-17 1.66172E-17
 -1        67-3.83351E-03-3.83351E-03 3.28586E-03 1.50109E-18 1.21205E-17 8.80512E-18
 -1        68-1.91675E-03-1.91675E-03 1.64293E-03-6.52228E-18 4.38760E-17-4.56512E-17
 -1        69-1.91675E-03-1.91675E-03 1.64293E-03-1.12382E-18 2.88510E-17 6.05708E-17
 -1        70-1.91675E-03-1.91675E-03 1.64293E-03-6.84591E-17 9.21850E-18-1.17072E-17
 -1        71-1.91675E-03-1.91675E-03 1.64293E-03 4.09091E-17-1.23906E-17-3.37752E-17
 -1        72-3.83351E-03-3.83351E-03 3.28586E-03-3.99581E-18-9.96996E-17-4.63565E-17
 -3
    1PSTEP                       301         101           1          
  100CL  201 8.67781E-01          72                     0  101           1
 -4  DISP        4    1
 -5  D1          1    2    1    0
 -5  D2          1    2    2    0
 -5  D3          1    2    3    0
 -5  ALL         1    2    0    0    1ALL
 -1         1 0.00000E+00 0.00000E+00 0.00000E+00
 -1         2-2.01048E+00 0.00000E+00 0.00000E+00
 -1         3-1.20115E+01 0.00000E+00 0.00000E+00
 -1         4-1.40220E+01 0.00000E+00 0.00000E+00
 -1         5-2.40230E+01 0.00000E+00 0.00000E+00
 -1         6-2.60334E+01 0.00000E+00 0.00000E+00
 -1         7 0.00000E+00-2.01048E+00 0.00000E+00
 -1         8-2.01048E+00-2.01048E+00 0.00000E+00
 -1         9-1.20115E+01-2.01048E+00 0.00000E+00
 -1        10-1.40220E+01-2.01048E+00 0.00000E+00
 -1        11-2.40230E+01-2.01048E+00 0.00000E+00
 -1        12-2.60334E+01-2.01048E+00 0.00000E+00
 -1        13 0.00000E+00-1.20115E+01 0.00000E+00
 -1        14-2.01048E+00-1.20115E+01 0.00000E+00
 -1        15-1.20115E+01-1.20115E+01 0.00000E+00
 -1        16-1.40220E+01-1.20115E+01 0.00000E+00
 -1        17-2.40230E+01-1.20115E+01 0.00000E+00
 -1        18-2.60334E+01-1.20115E+01 0.00000E+00
 -1        19 0.00000E+00-1.40220E+01 0.00000E+00
 -1        20-2.01048E+00-1.40220E+01 0.00000E+00
 -1        21-1.20115E+01-1.40220E+01 0.00000E+00
 -1        22-1.40220E+01-1.40220E+01 0.00000E+00
 -1        23-2.40230E+01-1.40220E+01 0.00000E+00
 -1        24-2.60334E+01-1.40220E+01 0.00000E+00
 -1        25 0.00000E+00-2.40230E+01 0.00000E+00
 -1        26-2.01048E+00-2.40230E+01 0.00000E+00
 -1        27-1.20115E+01-2.40230E+01 0.00000E+00
 -1        28-1.40220E+01-2.40230E+01 0.00000E+00
 -1        29-2.40230E+01-2.40230E+01 0.00000E+00
 -1        30-2.60334E+01-2.40230E+01 0.00000E+00
 -1        31 0.00000E+00-2.60334E+01 0.00000E+00
 -1        32-2.01048E+00-2.60334E+01 0.00000E+00
 -1        33-1.20115E+01-2.60334E+01 0.00000E+00
 -1        34-1.40220E+01-2.60334E+01 0.00000E+00
 -1        35-2.40230E+01-2.60334E+01 0.00000E+00
 -1        36-2.60334E+01-2.60334E+01 0.00000E+00
 -1        37 0.00000E+00 0.00000E+00 2.40360E+00
 -1        38-2.01048E+00 0.00000E+00 2.40360E+00
 -1        39-1.20115E+01 0.00000E+00 2.40360E+00
 -1        40-1.40220E+01 0.00000E+00 2.40360E+00
 -1        41-2.40230E+01 0.00000E+00 2.40360E+00
 -1        42-2.60334E+01 0.00000E+00 2.40360E+00
 -1        43 0.00000E+00-2.01048E+00 2.40360E+00
 -1        44-2.01048E+00-2.01048E+00 2.40360E+00
 -1        45-1.20115E+01-2.01048E+00 2.40360E+00
 -1        46-1.40220E+01-2.01048E+00 2.40360E+00
 -1        47-2.40230E+01-2.01048E+00 2.40360E+00
 -1        48-2.60334E+01-2.01048E+00 2.40360E+00
 -1        49 0.00000E+00-1.20115E+01 2.40360E+00
 -1        50-2.01048E+00-1.20115E+01 2.40360E+00
 -1        51-1.20115E+01-1.20115E+01 2.40360E+00
 -1        52-1.40220E+01-1.20115E+01 2.40360E+00
 -1        53-2.40230E+01-1.20115E+01 2.40360E+00
 -1        54-2.60334E+01-1.20115E+01 2.40360E+00
 -1        55 0.00000E+00-1.40220E+01 2.40360E+00
 -1        56-2.01048E+00-1.40220E+01 2.40360E+00
 -1        57-1.20115E+01-1.40220E+01 2.40360E+00
 -1        58-1.40220E+01-1.40220E+01 2.40360E+00
 -1        59-2.40230E+01-1.40220E+01 2.40360E+00
 -1        60-2.60334E+01-1.40220E+01 2.40360E+00
 -1        61 0.00000E+00-2.40230E+01 2.40360E+00
 -1        62-2.01048E+00-2.40230E+01 2.40360E+00
 -1        63-1.20115E+01-2.40230E+01 2.40360E+00
 -1        64-1.40220E+01-2.40230E+01 2.40360E+00
 -1        65-2.40230E+01-2.40230E+01 2.40360E+00
 -1        66-2.60334E+01-2.40230E+01 2.40360E+00
 -1        67 0.00000E+00-2.60334E+01 2.40360E+00
 -1        68-2.01048E+00-2.60334E+01 2.40360E+00
 -1        69-1.20115E+01-2.60334E+01 2.40360E+00
 -1        70-1.40220E+01-2.60334E+01 2.40360E+00
 -1        71-2.40230E+01-2.60334E+01 2.40360E+00
 -1        72-2.60334E+01-2.60334E+01 2.40360E+00
 -3
    1PSTEP                       302         101           1          
  100CL  201 8.67781E-01          72                     0  101           1
 -4  STRESS      6    1
 -5  SXX         1    4    1    1
 -5  SYY         1    4    2    2
 -5  SZZ         1    4    3    3
 -5  SXY         1    4    1    2
 -5  SYZ         1    4    2    3
 -5  SZX         1    4    3    1
 -1         1-1.19969E+03-1.19969E+03 4.55742E-10-1.13136E-14-1.42831E-16 4.71239E-15
 -1         2-5.99847E+02-5.99847E+02 2.27380E-10-7.10532E-12-2.12279E-14-4.30650E-12
 -1         3-5.99847E+02-5.99847E+02 2.25453E-10 1.05382E-11-8.38883E-15-9.78205E-13
 -1         4-5.99847E+02-5.99847E+02 2.30222E-10 5.13717E-12 2.34949E-14-1.42889E-12
 -1         5-5.99847E+02-5.99847E+02 2.33168E-10 2.62502E-12-5.60416E-15-1.78074E-13
 -1         6-1.19969E+03-1.19969E+03 4.37980E-10-4.14217E-13-4.11291E-15-7.11554E-13
 -1         7-5.99847E+02-5.99847E+02 2.14035E-10-5.14577E-12 4.14945E-12-9.49401E-15
 -1         8-3.99898E+02-3.99898E+02 1.39572E-10-8.16362E-12 4.68074E-12-9.90773E-13
 -1         9-3.99898E+02-3.99898E+02 1.40677E-10 4.26830E-12 8.54770E-13-4.73546E-12
 -1        10-3.99898E+02-3.99898E+02 1.52608E-10 7.59507E-13 4.46061E-12-1.12012E-11
 -1        11-3.99898E+02-3.99898E+02 1.61528E-10-6.45214E-12-2.43268E-12 6.28771E-12
 -1        12-5.99847E+02-5.99847E+02 2.12354E-10-1.19040E-11 5.24039E-12 6.06515E-13
 -1        13-5.99847E+02-5.99847E+02 2.19095E-10 1.08054E-11 3.48181E-12-8.12020E-15
 -1        14-3.99898E+02-3.99898E+02 1.50157E-10 8.03202E-12 1.08842E-13-2.26429E-13
 -1        15-3.99898E+02-3.99898E+02 1.51287E-10-5.63880E-12 3.90352E-12-1.18145E-12
 -1        16-3.99898E+02-3.99898E+02 1.43515E-10-1.63491E-12 7.99811E-13-3.66272E-13
 -1        17-3.99898E+02-3.99898E+02 1.40171E-10 6.40569E-12 1.33904E-12-3.79175E-12
 -1        18-5.99847E+02-5.99847E+02 2.11022E-10 1.64958E-11-1.08434E-11 5.82694E-13
 -1        19-5.99847E+02-5.99847E+02 1.99410E-10 1.68194E-11 1.41121E-11 1.12877E-14
 -1        20-3.99898E+02-3.99898E+02 1.43358E-10 1.20414E-11 5.69332E-12-2.58987E-12
 -1        21-3.99898E+02-3.99898E+02 1.46571E-10-9.32460E-12 7.60300E-12 5.30658E-12
 -1        22-3.99898E+02-3.99898E+02 1.34701E-10-5.20376E-12 4.24441E-12 4.75665E-12
 -1        23-3.99898E+02-3.99898E+02 1.50380E-10 9.25607E-12-1.95397E-12-1.92233E-12
 -1        24-5.99847E+02-5.99847E+02 2.44855E-10 1.96587E-11-1.47600E-11-1.05516E-12
 -1        25-5.99847E+02-5.99847E+02 1.85408E-10-2.11459E-11-1.41753E-11 1.50443E-15
 -1        26-3.99898E+02-3.99898E+02 1.38758E-10-3.39289E-12-2.87532E-12 4.66902E-12
 -1        27-3.99898E+02-3.99898E+02 1.39981E-10 1.46226E-12-2.83518E-12-6.29068E-12
 -1        28-3.99898E+02-3.99898E+02 1.33303E-10 7.17648E-12-6.22740E-12-2.39356E-12
 -1        29-3.99898E+02-3.99898E+02 1.43812E-10-8.82648E-12-1.21418E-13-9.33089E-13
 -1        30-5.99847E+02-5.99847E+02 2.47489E-10-1.70673E-11 1.13499E-11-6.67281E-13
 -1        31-1.19969E+03-1.19969E+03 4.33317E-10 1.27796E-13 1.21460E-12 3.08288E-15
 -1        32-5.99847E+02-5.99847E+02 2.42113E-10 1.61205E-11-4.65697E-14-6.10158E-12
 -1        33-5.99847E+02-5.99847E+02 2.35111E-10-1.76910E-11 3.34663E-13 3.19996E-12
 -1        34-5.99847E+02-5.99847E+02 2.18193E-10-8.98185E-12-3.84861E-13-1.82151E-12
 -1        35-5.99847E+02-5.99847E+02 2.08191E-10 4.01291E-12 5.43142E-14-4.59200E-12
 -1        36-1.19969E+03-1.19969E+03 4.59679E-10-2.00536E-14-9.96911E-13 4.23952E-13
 -1        37-1.19969E+03-1.19969E+03 4.55365E-10-8.82526E-15-1.98669E-12 5.90557E-12
 -1        38-5.99847E+02-5.99847E+02 2.33356E-10-3.21620E-12-2.78780E-12-1.35127E-12
 -1        39-5.99847E+02-5.99847E+02 2.26672E-10 1.46549E-12-2.27967E-12 3.52728E-12
 -1        40-5.99847E+02-5.99847E+02 2.43533E-10-1.57663E-11 2.58713E-12 3.15472E-12
 -1        41-5.99847E+02-5.99847E+02 2.28338E-10 1.63964E-11 4.26820E-12 1.15555E-12
 -1        42-1.19969E+03-1.19969E+03 4.64764E-10-8.35464E-13-3.21678E-12 3.15558E-12
 -1        43-5.99847E+02-5.99847E+02 2.20010E-10-1.24060E-12 3.19206E-12 1.17922E-12
 -1        44-3.99898E+02-3.99898E+02 1.47266E-10-2.96826E-12 2.82995E-12-2.10258E-13
 -1        45-3.99898E+02-3.99898E+02 1.29081E-10 3.17022E-12-6.58625E-13 1.21385E-12
 -1        46-3.99898E+02-3.99898E+02 1.48476E-10-8.25543E-12 6.16675E-12-4.86616E-12
 -1        47-3.99898E+02-3.99898E+02 1.41246E-10 1.07140E-11 4.12078E-13 4.05777E-12
 -1        48-5.99847E+02-5.99847E+02 2.00452E-10 3.97015E-13 3.62789E-12-4.23154E-12
 -1        49-5.99847E+02-5.99847E+02 2.40633E-10 5.60602E-12-4.81417E-12-1.72470E-12
 -1        50-3.99898E+02-3.99898E+02 1.61755E-10 1.35316E-12-3.25815E-12-1.39378E-12
 -1        51-3.99898E+02-3.99898E+02 1.59898E-10-1.69926E-12-2.80259E-13-1.66920E-12
 -1        52-3.99898E+02-3.99898E+02 1.52513E-10 1.89078E-12-5.36214E-12-1.38722E-12
 -1        53-3.99898E+02-3.99898E+02 1.40563E-10-3.95696E-12 3.14481E-12-4.85295E-12
 -1        54-5.99847E+02-5.99847E+02 2.13569E-10-1.80456E-12-1.35028E-12-2.40369E-12
 -1        55-5.99847E+02-5.99847E+02 2.13185E-10 1.03872E-11 5.48031E-12 1.93701E-12
 -1        56-3.99898E+02-3.99898E+02 1.49782E-10 4.54063E-12 2.83045E-12-1.27215E-12
 -1        57-3.99898E+02-3.99898E+02 1.54304E-10-5.52495E-12 3.31538E-12 2.76612E-12
 -1        58-3.99898E+02-3.99898E+02 1.42622E-10-1.96625E-12-1.19847E-12 2.71436E-12
 -1        59-3.99898E+02-3.99898E+02 1.48283E-10-8.47155E-14-5.08293E-13 8.01292E-13
 -1        60-5.99847E+02-5.99847E+02 2.43372E-10 3.78088E-12-5.48864E-12 5.00281E-12
 -1        61-5.99847E+02-5.99847E+02 2.27472E-10-8.14655E-12-1.07739E-11-3.62861E-12
 -1        62-3.99898E+02-3.99898E+02 1.53668E-10-6.67600E-12-4.17749E-13 2.24500E-12
 -1        63-3.99898E+02-3.99898E+02 1.53297E-10 7.30349E-12 4.20045E-13-1.47293E-12
 -1        64-3.99898E+02-3.99898E+02 1.53288E-10 3.94905E-12-5.24297E-12 2.36008E-12
 -1        65-3.99898E+02-3.99898E+02 1.47085E-10-7.58000E-13-1.18595E-12-1.11879E-12
 -1        66-5.99847E+02-5.99847E+02 2.25371E-10-9.99168E-13 7.40472E-12 1.60209E-12
 -1        67-1.19969E+03-1.19969E+03 4.61488E-10-5.84550E-13 4.74405E-12-4.91538E-12
 -1        68-5.99847E+02-5.99847E+02 2.38292E-10-2.15973E-12 4.27819E-12-8.60086E-12
 -1        69-5.99847E+02-5.99847E+02 2.31624E-10-2.90017E-13 4.38797E-12 7.38637E-12
 -1        70-5.99847E+02-5.99847E+02 2.24711E-10-5.22833E-12 1.70138E-12 2.72376E-12
 -1        71-5.99847E+02-5.99847E+02 2.15570E-10 1.02366E-12-1.05994E-12-5.57679E-12
 -1        72-1.19969E+03-1.19969E+03 4.32929E-10 8.64544E-13-6.52196E-12-2.91103E-12
 -3
    1PSTEP                       303         101           1          
  100CL  201 8.67781E-01          72                     0  101           1
 -4  TOSTRAIN    6    1
 -5  EXX         1    4    1    1
 -5  EYY         1    4    2    2
 -5  EZZ         1    4    3    3
 -5  EXY         1    4    1    2
 -5  EYZ         1    4    2    3
 -5  EZX         1    4    3    1
 -1         1-4.01271E-03-4.01271E-03 3.43947E-03-7.13489E-20-8.30318E-22 2.96117E-20
 -1         2-2.00636E-03-2.00636E-03 1.71973E-03-4.48096E-17-1.32389E-19-2.65518E-17
 -1         3-2.00636E-03-2.00636E-03 1.71973E-03 6.64590E-17-5.25642E-20-6.03071E-18
 -1         4-2.00636E-03-2.00636E-03 1.71973E-03 3.23975E-17 1.45637E-19-8.80943E-18
 -1         5-2.00636E-03-2.00636E-03 1.71973E-03 1.65546E-17-3.49121E-20-1.09883E-18
 -1         6-4.01271E-03-4.01271E-03 3.43947E-03-2.61226E-18-2.70438E-20-4.38894E-18
 -1         7-2.00636E-03-2.00636E-03 1.71973E-03-3.24518E-17 2.55838E-17-5.93303E-20
 -1         8-1.33757E-03-1.33757E-03 1.14649E-03-5.14838E-17 2.88585E-17-6.10922E-18
 -1         9-1.33757E-03-1.33757E-03 1.14649E-03 2.69180E-17 5.26965E-18-2.91970E-17
 -1        10-1.33757E-03-1.33757E-03 1.14649E-03 4.78982E-18 2.75026E-17-6.90623E-17
 -1        11-1.33757E-03-1.33757E-03 1.14649E-03-4.06903E-17-1.49995E-17 3.87676E-17
 -1        12-2.00636E-03-2.00636E-03 1.71973E-03-7.50724E-17 3.23112E-17 3.73975E-18
 -1        13-2.00636E-03-2.00636E-03 1.71973E-03 6.81442E-17 2.14675E-17-5.05902E-20
 -1        14-1.33757E-03-1.33757E-03 1.14649E-03 5.06539E-17 6.71015E-19-1.39641E-18
 -1        15-1.33757E-03-1.33757E-03 1.14649E-03-3.55610E-17 2.40681E-17-7.28464E-18
 -1        16-1.33757E-03-1.33757E-03 1.14649E-03-1.03105E-17 4.93116E-18-2.25859E-18
 -1        17-1.33757E-03-1.33757E-03 1.14649E-03 4.03974E-17 8.25612E-18-2.33779E-17
 -1        18-2.00636E-03-2.00636E-03 1.71973E-03 1.04031E-16-6.68571E-17 3.59342E-18
 -1        19-2.00636E-03-2.00636E-03 1.71973E-03 1.06072E-16 8.70097E-17 6.98719E-20
 -1        20-1.33757E-03-1.33757E-03 1.14649E-03 7.59388E-17 3.51026E-17-1.59679E-17
 -1        21-1.33757E-03-1.33757E-03 1.14649E-03-5.88055E-17 4.68775E-17 3.27187E-17
 -1        22-1.33757E-03-1.33757E-03 1.14649E-03-3.28175E-17 2.61691E-17 2.93281E-17
 -1        23-1.33757E-03-1.33757E-03 1.14649E-03 5.83733E-17-1.20471E-17-1.18525E-17
 -1        24-2.00636E-03-2.00636E-03 1.71973E-03 1.23978E-16-9.10053E-17-6.50596E-18
 -1        25-2.00636E-03-2.00636E-03 1.71973E-03-1.33357E-16-8.73982E-17 9.31646E-21
 -1        26-1.33757E-03-1.33757E-03 1.14649E-03-2.13972E-17-1.77283E-17 2.87873E-17
 -1        27-1.33757E-03-1.33757E-03 1.14649E-03 9.22172E-18-1.74804E-17-3.87860E-17
 -1        28-1.33757E-03-1.33757E-03 1.14649E-03 4.52584E-17-3.83964E-17-1.47580E-17
 -1        29-1.33757E-03-1.33757E-03 1.14649E-03-5.56641E-17-7.47781E-19-5.75301E-18
 -1        30-2.00636E-03-2.00636E-03 1.71973E-03-1.07634E-16 6.99774E-17-4.11413E-18
 -1        31-4.01271E-03-4.01271E-03 3.43947E-03 8.05947E-19 7.49018E-18 2.01573E-20
 -1        32-2.00636E-03-2.00636E-03 1.71973E-03 1.01664E-16-2.87624E-19-3.76192E-17
 -1        33-2.00636E-03-2.00636E-03 1.71973E-03-1.11568E-16 2.06357E-18 1.97295E-17
 -1        34-2.00636E-03-2.00636E-03 1.71973E-03-5.66439E-17-2.37410E-18-1.12308E-17
 -1        35-2.00636E-03-2.00636E-03 1.71973E-03 2.53074E-17 3.35501E-19-2.83126E-17
 -1        36-4.01271E-03-4.01271E-03 3.43947E-03-1.26468E-19-6.14506E-18 2.61351E-18
 -1        37-4.01271E-03-4.01271E-03 3.43947E-03-5.56564E-20-1.24317E-17 3.69592E-17
 -1        38-2.00636E-03-2.00636E-03 1.71973E-03-2.02829E-17-1.74464E-17-8.05738E-18
 -1        39-2.00636E-03-2.00636E-03 1.71973E-03 9.24210E-18-1.42668E-17 2.21590E-17
 -1        40-2.00636E-03-2.00636E-03 1.71973E-03-9.94302E-17 1.61898E-17 1.98619E-17
 -1        41-2.00636E-03-2.00636E-03 1.71973E-03 1.03404E-16 2.67108E-17 7.27551E-18
 -1        42-4.01271E-03-4.01271E-03 3.43947E-03-5.26885E-18-2.01315E-17 1.97577E-17
 -1        43-2.00636E-03-2.00636E-03 1.71973E-03-7.82384E-18 1.95896E-17 7.37861E-18
 -1        44-1.33757E-03-1.33757E-03 1.14649E-03-1.87193E-17 1.72763E-17-1.22435E-18
 -1        45-1.33757E-03-1.33757E-03 1.14649E-03 1.99930E-17-4.20150E-18 8.06309E-18
 -1        46-1.33757E-03-1.33757E-03 1.14649E-03-5.20628E-17 3.81800E-17-2.94237E-17
 -1        47-1.33757E-03-1.33757E-03 1.14649E-03 6.75678E-17 2.80443E-18 2.47516E-17
 -1        48-2.00636E-03-2.00636E-03 1.71973E-03 2.50377E-18 2.22160E-17-2.64902E-17
 -1        49-2.00636E-03-2.00636E-03 1.71973E-03 3.53543E-17-3.04670E-17-1.07939E-17
 -1        50-1.33757E-03-1.33757E-03 1.14649E-03 8.53369E-18-2.03840E-17-8.70022E-18
 -1        51-1.33757E-03-1.33757E-03 1.14649E-03-1.07164E-17-2.11517E-18-1.03552E-17
 -1        52-1.33757E-03-1.33757E-03 1.14649E-03 1.19242E-17-3.36067E-17-8.61662E-18
 -1        53-1.33757E-03-1.33757E-03 1.14649E-03-2.49546E-17 1.95432E-17-3.00632E-17
 -1        54-2.00636E-03-2.00636E-03 1.71973E-03-1.13805E-17-7.42647E-18-1.50331E-17
 -1        55-2.00636E-03-2.00636E-03 1.71973E-03 6.55070E-17 3.30045E-17 1.21229E-17
 -1        56-1.33757E-03-1.33757E-03 1.14649E-03 2.86354E-17 1.71558E-17-7.72348E-18
 -1        57-1.33757E-03-1.33757E-03 1.14649E-03-3.48430E-17 2.00543E-17 1.68317E-17
 -1        58-1.33757E-03-1.33757E-03 1.14649E-03-1.24001E-17-7.93605E-18 1.65126E-17
 -1        59-1.33757E-03-1.33757E-03 1.14649E-03-5.34258E-19-2.98057E-18 5.24430E-18
 -1        60-2.00636E-03-2.00636E-03 1.71973E-03 2.38441E-17-3.29405E-17 3.13011E-17
 -1        61-2.00636E-03-2.00636E-03 1.71973E-03-5.13761E-17-6.61921E-17-2.27087E-17
 -1        62-1.33757E-03-1.33757E-03 1.14649E-03-4.21021E-17-2.34319E-18 1.36176E-17
 -1        63-1.33757E-03-1.33757E-03 1.14649E-03 4.60594E-17 2.85779E-18-8.63433E-18
 -1        64-1.33757E-03-1.33757E-03 1.14649E-03 2.49047E-17-3.22308E-17 1.49984E-17
 -1        65-1.33757E-03-1.33757E-03 1.14649E-03-4.78032E-18-7.37614E-18-6.82052E-18
 -1        66-2.00636E-03-2.00636E-03 1.71973E-03-6.30124E-18 4.53166E-17 9.99405E-18
 -1        67-4.01271E-03-4.01271E-03 3.43947E-03-3.68646E-18 2.97203E-17-3.07632E-17
 -1        68-2.00636E-03-2.00636E-03 1.71973E-03-1.36203E-17 2.67262E-17-5.32578E-17
 -1        69-2.00636E-03-2.00636E-03 1.71973E-03-1.82899E-18 2.74567E-17 4.59493E-17
 -1        70-2.00636E-03-2.00636E-03 1.71973E-03-3.29724E-17 1.06315E-17 1.72016E-17
 -1        71-2.00636E-03-2.00636E-03 1.71973E-03 6.45569E-18-6.63045E-18-3.45136E-17
 -1        72-4.01271E-03-4.01271E-03 3.43947E-03 5.45224E-18-4.08935E-17-1.82072E-17
 -3
    1PSTEP                       304         102           1          
  100CL  202 8.76781E-01          72                     0  102           1
 -4  DISP        4    1
 -5  D1          1    2    1    0
 -5  D2          1    2    2    0
 -5  D3          1    2    3    0
 -5  ALL         1    2    0    0    1ALL
 -1         1 0.00000E+00 0.00000E+00 0.00000E+00
 -1         2-2.10044E+00 0.00000E+00 0.00000E+00
 -1         3-1.21015E+01 0.00000E+00 0.00000E+00
 -1         4-1.42019E+01 0.00000E+00 0.00000E+00
 -1         5-2.42030E+01 0.00000E+00 0.00000E+00
 -1         6-2.63034E+01 0.00000E+00 0.00000E+00
 -1         7 0.00000E+00-2.10044E+00 0.00000E+00
 -1         8-2.10044E+00-2.10044E+00 0.00000E+00
 -1         9-1.21015E+01-2.10044E+00 0.00000E+00
 -1        10-1.42019E+01-2.10044E+00 0.00000E+00
 -1        11-2.42030E+01-2.10044E+00 0.00000E+00
 -1        12-2.63034E+01-2.10044E+00 0.00000E+00
 -1        13 0.00000E+00-1.21015E+01 0.00000E+00
 -1        14-2.10044E+00-1.21015E+01 0.00000E+00
 -1        15-1.21015E+01-1.21015E+01 0.00000E+00
 -1        16-1.42019E+01-1.21015E+01 0.00000E+00
 -1        17-2.42030E+01-1.21015E+01 0.00000E+00
 -1        18-2.63034E+01-1.21015E+01 0.00000E+00
 -1        19 0.00000E+00-1.42019E+01 0.00000E+00
 -1        20-2.10044E+00-1.42019E+01 0.00000E+00
 -1        21-1.21015E+01-1.42019E+01 0.00000E+00
 -1        22-1.42019E+01-1.42019E+01 0.00000E+00
 -1        23-2.42030E+01-1.42019E+01 0.00000E+00
 -1        24-2.63034E+01-1.42019E+01 0.00000E+00
 -1        25 0.00000E+00-2.42030E+01 0.00000E+00
 -1        26-2.10044E+00-2.42030E+01 0.00000E+00
 -1        27-1.21015E+01-2.42030E+01 0.00000E+00
 -1        28-1.42019E+01-2.42030E+01 0.00000E+00
 -1        29-2.42030E+01-2.42030E+01 0.00000E+00
 -1        30-2.63034E+01-2.42030E+01 0.00000E+00
 -1        31 0.00000E+00-2.63034E+01 0.00000E+00
 -1        32-2.10044E+00-2.63034E+01 0.00000E+00
 -1        33-1.21015E+01-2.63034E+01 0.00000E+00
 -1        34-1.42019E+01-2.63034E+01 0.00000E+00
 -1        35-2.42030E+01-2.63034E+01 0.00000E+00
 -1        36-2.63034E+01-2.63034E+01 0.00000E+00
 -1        37 0.00000E+00 0.00000E+00 2.51073E+00
 -1        38-2.10044E+00 0.00000E+00 2.51073E+00
 -1        39-1.21015E+01 0.00000E+00 2.51073E+00
 -1        40-1.42019E+01 0.00000E+00 2.51073E+00
 -1        41-2.42030E+01 0.00000E+00 2.51073E+00
 -1        42-2.63034E+01 0.00000E+00 2.51073E+00
 -1        43 0.00000E+00-2.10044E+00 2.51073E+00
 -1        44-2.10044E+00-2.10044E+00 2.51073E+00
 -1        45-1.21015E+01-2.10044E+00 2.51073E+00
 -1        46-1.42019E+01-2.10044E+00 2.51073E+00
 -1        47-2.42030E+01-2.10044E+00 2.51073E+00
 -1        48-2.63034E+01-2.10044E+00 2.51073E+00
 -1        49 0.00000E+00-1.21015E+01 2.51073E+00
 -1        50-2.10044E+00-1.21015E+01 2.51073E+00
 -1        51-1.21015E+01-1.21015E+01 2.51073E+00
 -1        52-1.42019E+01-1.21015E+01 2.51073E+00
 -1        53-2.42030E+01-1.21015E+01 2.51073E+00
 -1        54-2.63034E+01-1.21015E+01 2.51073E+00
 -1        55 0.00000E+00-1.42019E+01 2.51073E+00
 -1        56-2.10044E+00-1.42019E+01 2.51073E+00
 -1        57-1.21015E+01-1.42019E+01 2.51073E+00
 -1        58-1.42019E+01-1.42019E+01 2.51073E+00
 -1        59-2.42030E+01-1.42019E+01 2.51073E+00
 -1        60-2.63034E+01-1.42019E+01 2.51073E+00
 -1        61 0.00000E+00-2.42030E+01 2.51073E+00
 -1        62-2.10044E+00-2.42030E+01 2.51073E+00
 -1        63-1.21015E+01-2.42030E+01 2.51073E+00
 -1        64-1.42019E+01-2.42030E+01 2.51073E+00
 -1        65-2.42030E+01-2.42030E+01 2.51073E+00
 -1        66-2.63034E+01-2.42030E+01 2.51073E+00
 -1        67 0.00000E+00-2.63034E+01 2.51073E+00
 -1        68-2.10044E+00-2.63034E+01 2.51073E+00
 -1        69-1.21015E+01-2.63034E+01 2.51073E+00
 -1        70-1.42019E+01-2.63034E+01 2.51073E+00
 -1        71-2.42030E+01-2.63034E+01 2.51073E+00
 -1        72-2.63034E+01-2.63034E+01 2.51073E+00
 -3
    1PSTEP                       305         102           1          
  100CL  202 8.76781E-01          72                     0  102           1
 -4  STRESS      6    1
 -5  SXX         1    4    1    1
 -5  SYY         1    4    2    2
 -5  SZZ         1    4    3    3
 -5  SXY         1    4    1    2
 -5  SYZ         1    4    2    3
 -5  SZX         1    4    3    1
 -1         1-1.25307E+03-1.25307E+03 3.62695E-10 8.91062E-15-2.04159E-14 3.60644E-15
 -1         2-6.26536E+02-6.26536E+02 1.81069E-10-8.73955E-12 3.47807E-16-4.88443E-12
 -1         3-6.26536E+02-6.26536E+02 1.81344E-10 1.33630E-11-6.36017E-15 2.18619E-12
 -1         4-6.26536E+02-6.26536E+02 1.76798E-10 9.06232E-12 1.49636E-14 1.68956E-12
 -1         5-6.26536E+02-6.26536E+02 1.77849E-10-2.54466E-12 2.32831E-14-3.36014E-12
 -1         6-1.25307E+03-1.25307E+03 3.43484E-10-6.73808E-13-4.48504E-14 6.47564E-14
 -1         7-6.26536E+02-6.26536E+02 1.69328E-10-5.69475E-12 1.95263E-12 5.88247E-15
 -1         8-4.17691E+02-4.17691E+02 1.07427E-10-9.62584E-12 3.95588E-12-1.60035E-13
 -1         9-4.17691E+02-4.17691E+02 1.11100E-10 5.05653E-12-2.67685E-13-4.92123E-12
 -1        10-4.17691E+02-4.17691E+02 1.18969E-10 2.16434E-12 4.63614E-12-1.01004E-11
 -1        11-4.17691E+02-4.17691E+02 1.28097E-10-5.93897E-12-1.38960E-12 6.70766E-12
 -1        12-6.26536E+02-6.26536E+02 1.72876E-10-6.07485E-12 1.52402E-12 2.85347E-13
 -1        13-6.26536E+02-6.26536E+02 1.74708E-10 9.96955E-12 5.78021E-12 6.61729E-15
 -1        14-4.17691E+02-4.17691E+02 1.17551E-10 9.47862E-12 6.73334E-13 2.19802E-13
 -1        15-4.17691E+02-4.17691E+02 1.22440E-10-6.58160E-12 4.23307E-12-2.75390E-13
 -1        16-4.17691E+02-4.17691E+02 1.11027E-10-2.87823E-12 1.19613E-12-2.31382E-13
 -1        17-4.17691E+02-4.17691E+02 1.03353E-10 5.02606E-12 6.71599E-13-3.56017E-12
 -1        18-6.26536E+02-6.26536E+02 1.71244E-10 1.44649E-11-8.93102E-12-8.72694E-13
 -1        19-6.26536E+02-6.26536E+02 1.56275E-10 1.49035E-11 1.33852E-11-1.94343E-14
 -1        20-4.17691E+02-4.17691E+02 1.12469E-10 1.27679E-11 5.58313E-12-2.43787E-12
 -1        21-4.17691E+02-4.17691E+02 1.18981E-10-1.23235E-11 5.45986E-12 5.90018E-12
 -1        22-4.17691E+02-4.17691E+02 9.85633E-11-8.55173E-12 5.97048E-12 7.36189E-12
 -1        23-4.17691E+02-4.17691E+02 1.10880E-10 1.60160E-11 1.09564E-12-3.19784E-12
 -1        24-6.26536E+02-6.26536E+02 2.08439E-10 3.04692E-11-2.11571E-11-2.90227E-13
 -1        25-6.26536E+02-6.26536E+02 1.42706E-10-1.97562E-11-9.75135E-12-3.16524E-16
 -1        26-4.17691E+02-4.17691E+02 1.08490E-10-3.96176E-12-2.03983E-12 4.26991E-12
 -1        27-4.17691E+02-4.17691E+02 1.10003E-10 3.51344E-12 1.51472E-13-5.82318E-12
 -1        28-4.17691E+02-4.17691E+02 9.98818E-11 1.18286E-11-6.25572E-12-1.15506E-12
 -1        29-4.17691E+02-4.17691E+02 1.05846E-10-1.69421E-11-3.16934E-12-2.07182E-12
 -1        30-6.26536E+02-6.26536E+02 2.09004E-10-2.54822E-11 1.94270E-11-5.86992E-13
 -1        31-1.25307E+03-1.25307E+03 3.35226E-10 6.12533E-14-4.73849E-13-5.77276E-15
 -1        32-6.26536E+02-6.26536E+02 1.89104E-10 1.38395E-11-2.81652E-14-2.29161E-12
 -1        33-6.26536E+02-6.26536E+02 1.86148E-10-1.39462E-11 8.01015E-13 7.63633E-13
 -1        34-6.26536E+02-6.26536E+02 1.72427E-10-1.47608E-12-3.77103E-13-2.57316E-12
 -1        35-6.26536E+02-6.26536E+02 1.55835E-10 4.94631E-13 3.42636E-13-5.67471E-12
 -1        36-1.25307E+03-1.25307E+03 3.76141E-10-8.51107E-13 9.24291E-13 1.75083E-12
 -1        37-1.25307E+03-1.25307E+03 3.51077E-10-6.01240E-15 8.08168E-13 6.32617E-12
 -1        38-6.26536E+02-6.26536E+02 1.83228E-10-2.38394E-12-2.31229E-12-1.73276E-12
 -1        39-6.26536E+02-6.26536E+02 1.79251E-10 9.76751E-15-2.90953E-12 3.85555E-12
 -1        40-6.26536E+02-6.26536E+02 1.90365E-10-1.46428E-11 3.20337E-12 3.74474E-12
 -1        41-6.26536E+02-6.26536E+02 1.79652E-10 1.48048E-11 3.87489E-12-1.89608E-12
 -1        42-1.25307E+03-1.25307E+03 3.63565E-10-2.33294E-13-2.73669E-12 2.71608E-12
 -1        43-6.26536E+02-6.26536E+02 1.72350E-10-1.56979E-13 2.29515E-12 4.30307E-13
 -1        44-4.17691E+02-4.17691E+02 1.15750E-10-1.69194E-12 2.42694E-12 1.46839E-13
 -1        45-4.17691E+02-4.17691E+02 9.96640E-11 2.89862E-12-2.17364E-12 4.76360E-13
 -1        46-4.17691E+02-4.17691E+02 1.17574E-10-6.77633E-12 6.73454E-12-5.08260E-12
 -1        47-4.17691E+02-4.17691E+02 1.10974E-10 9.01655E-12 1.22359E-12 4.28285E-12
 -1        48-6.26536E+02-6.26536E+02 1.54831E-10-1.30403E-12 1.10126E-13-3.58127E-12
 -1        49-6.26536E+02-6.26536E+02 1.89778E-10 3.33107E-12-3.88971E-12-2.24682E-12
 -1        50-4.17691E+02-4.17691E+02 1.28131E-10 1.41174E-12-2.87104E-12-1.24318E-12
 -1        51-4.17691E+02-4.17691E+02 1.23607E-10-3.05098E-12 7.65855E-13-1.02695E-12
 -1        52-4.17691E+02-4.17691E+02 1.20908E-10 3.20103E-12-6.18716E-12-1.64939E-12
 -1        53-4.17691E+02-4.17691E+02 1.10959E-10-4.18873E-12 1.12304E-12-5.90829E-12
 -1        54-6.26536E+02-6.26536E+02 1.54711E-10 1.13712E-12 2.51835E-12-3.64659E-12
 -1        55-6.26536E+02-6.26536E+02 1.62825E-10 8.47029E-12 3.09405E-12 2.06074E-12
 -1        56-4.17691E+02-4.17691E+02 1.17568E-10 4.83788E-12 1.76111E-12-1.08382E-12
 -1        57-4.17691E+02-4.17691E+02 1.23914E-10-3.23376E-12 1.80318E-12 1.26754E-12
 -1        58-4.17691E+02-4.17691E+02 1.11811E-10 3.08667E-12-1.03721E-12 2.73016E-12
 -1        59-4.17691E+02-4.17691E+02 1.20108E-10-5.40722E-12 1.72044E-12 3.71805E-13
 -1        60-6.26536E+02-6.26536E+02 1.93442E-10-1.08236E-12-1.09269E-11 6.99557E-12
 -1        61-6.26536E+02-6.26536E+02 1.77346E-10-9.68064E-12-9.18052E-12-4.17017E-12
 -1        62-4.17691E+02-4.17691E+02 1.21972E-10-5.23590E-12-2.23889E-13 1.53273E-12
 -1        63-4.17691E+02-4.17691E+02 1.19070E-10 3.11928E-12 1.05401E-12-2.56649E-12
 -1        64-4.17691E+02-4.17691E+02 1.21774E-10 2.02495E-12-5.68772E-12 2.52975E-12
 -1        65-4.17691E+02-4.17691E+02 1.16446E-10 2.16546E-12-3.12763E-12-2.58373E-13
 -1        66-6.26536E+02-6.26536E+02 1.73422E-10 5.56085E-12 1.19768E-11 4.27107E-12
 -1        67-1.25307E+03-1.25307E+03 3.69114E-10 6.17997E-14 4.51536E-12-7.47502E-12
 -1        68-6.26536E+02-6.26536E+02 1.90435E-10 1.87521E-12 1.98042E-12-6.11003E-12
 -1        69-6.26536E+02-6.26536E+02 1.79118E-10-1.01846E-12 1.13656E-12 6.90260E-12
 -1        70-6.26536E+02-6.26536E+02 1.83439E-10-2.52915E-12 1.78885E-12 2.66092E-12
 -1        71-6.26536E+02-6.26536E+02 1.76171E-10-3.20266E-12-3.93532E-13-8.18196E-12
 -1        72-1.25307E+03-1.25307E+03 3.19231E-10-2.82795E-13-1.39814E-11-6.54119E-12
 -3
    1PSTEP                       306         102           1          
  100CL  202 8.76781E-01          72                     0  102           1
 -4  TOSTRAIN    6    1
 -5  EXX         1    4    1    1
 -5  EYY         1    4    2    2
 -5  EZZ         1    4    3    3
 -5  EXY         1    4    1    2
 -5  EYZ         1    4    2    3
 -5  EZX         1    4    3    1
 -1         1-4.19189E-03-4.19189E-03 3.59305E-03 5.62419E-20-1.26582E-19 2.32109E-20
 -1         2-2.09594E-03-2.09594E-03 1.79652E-03-5.51622E-17 2.35549E-21-3.01094E-17
 -1         3-2.09594E-03-2.09594E-03 1.79652E-03 8.43447E-17-3.90322E-20 1.34762E-17
 -1         4-2.09594E-03-2.09594E-03 1.79652E-03 5.71995E-17 9.22416E-20 1.04147E-17
 -1         5-2.09594E-03-2.09594E-03 1.79652E-03-1.60614E-17 1.44556E-19-2.07136E-17
 -1         6-4.19189E-03-4.19189E-03 3.59305E-03-4.25294E-18-2.78980E-19 3.98928E-19
 -1         7-2.09594E-03-2.09594E-03 1.79652E-03-3.59441E-17 1.20366E-17 3.66350E-20
 -1         8-1.39730E-03-1.39730E-03 1.19768E-03-6.07563E-17 2.43860E-17-9.86281E-19
 -1         9-1.39730E-03-1.39730E-03 1.19768E-03 3.19158E-17-1.65003E-18-3.03363E-17
 -1        10-1.39730E-03-1.39730E-03 1.19768E-03 1.36609E-17 2.85794E-17-6.22630E-17
 -1        11-1.39730E-03-1.39730E-03 1.19768E-03-3.74855E-17-8.56560E-18 4.13495E-17
 -1        12-2.09594E-03-2.09594E-03 1.79652E-03-3.83432E-17 9.39425E-18 1.75940E-18
 -1        13-2.09594E-03-2.09594E-03 1.79652E-03 6.29257E-17 3.56322E-17 4.10334E-20
 -1        14-1.39730E-03-1.39730E-03 1.19768E-03 5.98270E-17 4.15157E-18 1.35513E-18
 -1        15-1.39730E-03-1.39730E-03 1.19768E-03-4.15417E-17 2.60941E-17-1.69754E-18
 -1        16-1.39730E-03-1.39730E-03 1.19768E-03-1.81668E-17 7.37353E-18-1.42626E-18
 -1        17-1.39730E-03-1.39730E-03 1.19768E-03 3.17234E-17 4.13974E-18-2.19471E-17
 -1        18-2.09594E-03-2.09594E-03 1.79652E-03 9.12996E-17-5.50546E-17-5.38051E-18
 -1        19-2.09594E-03-2.09594E-03 1.79652E-03 9.40678E-17 8.25130E-17-1.21129E-19
 -1        20-1.39730E-03-1.39730E-03 1.19768E-03 8.05884E-17 3.44179E-17-1.50291E-17
 -1        21-1.39730E-03-1.39730E-03 1.19768E-03-7.77834E-17 3.36566E-17 3.63715E-17
 -1        22-1.39730E-03-1.39730E-03 1.19768E-03-5.39767E-17 3.68049E-17 4.53822E-17
 -1        23-1.39730E-03-1.39730E-03 1.19768E-03 1.01089E-16 6.75385E-18-1.97129E-17
 -1        24-2.09594E-03-2.09594E-03 1.79652E-03 1.92315E-16-1.30423E-16-1.78893E-18
 -1        25-2.09594E-03-2.09594E-03 1.79652E-03-1.24697E-16-6.01104E-17-1.64469E-21
 -1        26-1.39730E-03-1.39730E-03 1.19768E-03-2.50058E-17-1.25752E-17 2.63219E-17
 -1        27-1.39730E-03-1.39730E-03 1.19768E-03 2.21761E-17 9.34045E-19-3.58966E-17
 -1        28-1.39730E-03-1.39730E-03 1.19768E-03 7.46593E-17-3.85634E-17-7.12015E-18
 -1        29-1.39730E-03-1.39730E-03 1.19768E-03-1.06935E-16-1.95377E-17-1.27714E-17
 -1        30-2.09594E-03-2.09594E-03 1.79652E-03-1.60838E-16 1.19758E-16-3.61815E-18
 -1        31-4.19189E-03-4.19189E-03 3.59305E-03 3.86618E-19-2.91800E-18-3.50161E-20
 -1        32-2.09594E-03-2.09594E-03 1.79652E-03 8.73519E-17-1.74707E-19-1.41263E-17
 -1        33-2.09594E-03-2.09594E-03 1.79652E-03-8.80257E-17 4.93827E-18 4.70619E-18
 -1        34-2.09594E-03-2.09594E-03 1.79652E-03-9.31673E-18-2.32496E-18-1.58634E-17
 -1        35-2.09594E-03-2.09594E-03 1.79652E-03 3.12201E-18 2.11140E-18-3.49823E-17
 -1        36-4.19189E-03-4.19189E-03 3.59305E-03-5.37201E-18 5.70027E-18 1.07915E-17
 -1        37-4.19189E-03-4.19189E-03 3.59305E-03-3.79490E-20 5.05847E-18 3.96101E-17
 -1        38-2.09594E-03-2.09594E-03 1.79652E-03-1.50469E-17-1.44773E-17-1.03753E-17
 -1        39-2.09594E-03-2.09594E-03 1.79652E-03 6.16505E-20-1.82157E-17 2.39407E-17
 -1        40-2.09594E-03-2.09594E-03 1.79652E-03-9.24226E-17 2.00552E-17 2.32576E-17
 -1        41-2.09594E-03-2.09594E-03 1.79652E-03 9.34446E-17 2.42627E-17-1.15335E-17
 -1        42-4.19189E-03-4.19189E-03 3.59305E-03-1.47251E-18-1.71352E-17 1.70528E-17
 -1        43-2.09594E-03-2.09594E-03 1.79652E-03-9.90818E-19 1.41867E-17 2.69480E-18
 -1        44-1.39730E-03-1.39730E-03 1.19768E-03-1.06792E-17 1.48120E-17 9.33312E-19
 -1        45-1.39730E-03-1.39730E-03 1.19768E-03 1.82955E-17-1.35855E-17 3.44092E-18
 -1        46-1.39730E-03-1.39730E-03 1.19768E-03-4.27707E-17 4.17186E-17-3.08271E-17
 -1        47-1.39730E-03-1.39730E-03 1.19768E-03 5.69105E-17 7.79397E-18 2.61611E-17
 -1        48-2.09594E-03-2.09594E-03 1.79652E-03-8.23076E-18 5.43689E-19-2.24373E-17
 -1        49-2.09594E-03-2.09594E-03 1.79652E-03 2.10250E-17-2.49206E-17-1.40674E-17
 -1        50-1.39730E-03-1.39730E-03 1.19768E-03 8.91059E-18-1.80517E-17-7.80818E-18
 -1        51-1.39730E-03-1.39730E-03 1.19768E-03-1.92572E-17 4.38029E-18-6.44078E-18
 -1        52-1.39730E-03-1.39730E-03 1.19768E-03 2.02042E-17-3.88261E-17-1.02778E-17
 -1        53-1.39730E-03-1.39730E-03 1.19768E-03-2.64384E-17 6.97433E-18-3.66505E-17
 -1        54-2.09594E-03-2.09594E-03 1.79652E-03 7.17724E-18 1.65692E-17-2.28229E-17
 -1        55-2.09594E-03-2.09594E-03 1.79652E-03 5.34627E-17 1.81306E-17 1.29025E-17
 -1        56-1.39730E-03-1.39730E-03 1.19768E-03 3.05357E-17 1.05030E-17-6.54847E-18
 -1        57-1.39730E-03-1.39730E-03 1.19768E-03-2.04108E-17 1.07751E-17 7.36182E-18
 -1        58-1.39730E-03-1.39730E-03 1.19768E-03 1.94824E-17-7.08021E-18 1.63781E-17
 -1        59-1.39730E-03-1.39730E-03 1.19768E-03-3.41292E-17 1.06565E-17 2.70674E-18
 -1        60-2.09594E-03-2.09594E-03 1.79652E-03-6.83163E-18-6.63108E-17 4.37461E-17
 -1        61-2.09594E-03-2.09594E-03 1.79652E-03-6.11022E-17-5.64450E-17-2.61094E-17
 -1        62-1.39730E-03-1.39730E-03 1.19768E-03-3.30479E-17-1.25144E-18 9.18013E-18
 -1        63-1.39730E-03-1.39730E-03 1.19768E-03 1.96882E-17 6.56288E-18-1.54883E-17
 -1        64-1.39730E-03-1.39730E-03 1.19768E-03 1.27811E-17-3.49767E-17 1.59273E-17
 -1        65-1.39730E-03-1.39730E-03 1.19768E-03 1.36679E-17-1.93384E-17-1.37177E-18
 -1        66-2.09594E-03-2.09594E-03 1.79652E-03 3.50989E-17 7.31173E-17 2.66604E-17
 -1        67-4.19189E-03-4.19189E-03 3.59305E-03 3.90067E-19 2.81309E-17-4.68051E-17
 -1        68-2.09594E-03-2.09594E-03 1.79652E-03 1.18359E-17 1.24013E-17-3.80279E-17
 -1        69-2.09594E-03-2.09594E-03 1.79652E-03-6.42832E-18 7.10514E-18 4.30773E-17
 -1        70-2.09594E-03-2.09594E-03 1.79652E-03-1.59635E-17 1.11525E-17 1.69296E-17
 -1        71-2.09594E-03-2.09594E-03 1.79652E-03-2.02145E-17-2.51379E-18-5.07208E-17
 -1        72-4.19189E-03-4.19189E-03 3.59305E-03-1.78494E-18-8.76101E-17-4.08897E-17
 -3
    1PSTEP                       307         103           1          
  100CL  203 8.85781E-01          72                     0  103           1
 -4  DISP        4    1
 -5  D1          1    2    1    0
 -5  D2          1    2    2    0
 -5  D3          1    2    3    0
 -5  ALL         1    2    0    0    1ALL
 -1         1 0.00000E+00 0.00000E+00 0.00000E+00
 -1         2-2.19040E+00 0.00000E+00 0.00000E+00
 -1         3-1.21915E+01 0.00000E+00 0.00000E+00
 -1         4-1.43819E+01 0.00000E+00 0.00000E+00
 -1         5-2.43830E+01 0.00000E+00 0.00000E+00
 -1         6-2.65734E+01 0.00000E+00 0.00000E+00
 -1         7 0.00000E+00-2.19040E+00 0.00000E+00
 -1         8-2.19040E+00-2.19040E+00 0.00000E+00
 -1         9-1.21915E+01-2.19040E+00 0.00000E+00
 -1        10-1.43819E+01-2.19040E+00 0.00000E+00
 -1        11-2.43830E+01-2.19040E+00 0.00000E+00
 -1        12-2.65734E+01-2.19040E+00 0.00000E+00
 -1        13 0.00000E+00-1.21915E+01 0.00000E+00
 -1        14-2.19040E+00-1.21915E+01 0.00000E+00
 -1        15-1.21915E+01-1.21915E+01 0.00000E+00
 -1        16-1.43819E+01-1.21915E+01 0.00000E+00
 -1        17-2.43830E+01-1.21915E+01 0.00000E+00
 -1        18-2.65734E+01-1.21915E+01 0.00000E+00
 -1        19 0.00000E+00-1.43819E+01 0.00000E+00
 -1        20-2.19040E+00-1.43819E+01 0.00000E+00
 -1        21-1.21915E+01-1.43819E+01 0.00000E+00
 -1        22-1.43819E+01-1.43819E+01 0.00000E+00
 -1        23-2.43830E+01-1.43819E+01 0.00000E+00
 -1        24-2.65734E+01-1.43819E+01 0.00000E+00
 -1        25 0.00000E+00-2.43830E+01 0.00000E+00
 -1        26-2.19040E+00-2.43830E+01 0.00000E+00
 -1        27-1.21915E+01-2.43830E+01 0.00000E+00
 -1        28-1.43819E+01-2.43830E+01 0.00000E+00
 -1        29-2.43830E+01-2.43830E+01 0.00000E+00
 -1        30-2.65734E+01-2.43830E+01 0.00000E+00
 -1        31 0.00000E+00-2.65734E+01 0.00000E+00
 -1        32-2.19040E+00-2.65734E+01 0.00000E+00
 -1        33-1.21915E+01-2.65734E+01 0.00000E+00
 -1        34-1.43819E+01-2.65734E+01 0.00000E+00
 -1        35-2.43830E+01-2.65734E+01 0.00000E+00
 -1        36-2.65734E+01-2.65734E+01 0.00000E+00
 -1        37 0.00000E+00 0.00000E+00 2.61783E+00
 -1        38-2.19040E+00 0.00000E+00 2.61783E+00
 -1        39-1.21915E+01 0.00000E+00 2.61783E+00
 -1        40-1.43819E+01 0.00000E+00 2.61783E+00
 -1        41-2.43830E+01 0.00000E+00 2.61783E+00
 -1        42-2.65734E+01 0.00000E+00 2.61783E+00
 -1        43 0.00000E+00-2.19040E+00 2.61783E+00
 -1        44-2.19040E+00-2.19040E+00 2.61783E+00
 -1        45-1.21915E+01-2.19040E+00 2.61783E+00
 -1        46-1.43819E+01-2.19040E+00 2.61783E+00
 -1        47-2.43830E+01-2.19040E+00 2.61783E+00
 -1        48-2.65734E+01-2.19040E+00 2.61783E+00
 -1        49 0.00000E+00-1.21915E+01 2.61783E+00
 -1        50-2.19040E+00-1.21915E+01 2.61783E+00
 -1        51-1.21915E+01-1.21915E+01 2.61783E+00
 -1        52-1.43819E+01-1.21915E+01 2.61783E+00
 -1        53-2.43830E+01-1.21915E+01 2.61783E+00
 -1        54-2.65734E+01-1.21915E+01 2.61783E+00
 -1        55 0.00000E+00-1.43819E+01 2.61783E+00
 -1        56-2.19040E+00-1.43819E+01 2.61783E+00
 -1        57-1.21915E+01-1.43819E+01 2.61783E+00
 -1        58-1.43819E+01-1.43819E+01 2.61783E+00
 -1        59-2.43830E+01-1.43819E+01 2.61783E+00
 -1        60-2.65734E+01-1.43819E+01 2.61783E+00
 -1        61 0.00000E+00-2.43830E+01 2.61783E+00
 -1        62-2.19040E+00-2.43830E+01 2.61783E+00
 -1        63-1.21915E+01-2.43830E+01 2.61783E+00
 -1        64-1.43819E+01-2.43830E+01 2.61783E+00
 -1        65-2.43830E+01-2.43830E+01 2.61783E+00
 -1        66-2.65734E+01-2.43830E+01 2.61783E+00
 -1        67 0.00000E+00-2.65734E+01 2.61783E+00
 -1        68-2.19040E+00-2.65734E+01 2.61783E+00
 -1        69-1.21915E+01-2.65734E+01 2.61783E+00
 -1        70-1.43819E+01-2.65734E+01 2.61783E+00
 -1        71-2.43830E+01-2.65734E+01 2.61783E+00
 -1        72-2.65734E+01-2.65734E+01 2.61783E+00
 -3
    1PSTEP                       308         103           1          
  100CL  203 8.85781E-01          72                     0  103           1
 -4  STRESS      6    1
 -5  SXX         1    4    1    1
 -5  SYY         1    4    2    2
 -5  SZZ         1    4    3    3
 -5  SXY         1    4    1    2
 -5  SYZ         1    4    2    3
 -5  SZX         1    4    3    1
 -1         1-1.30643E+03-1.30643E+03 2.30925E-10 8.79904E-15-1.43853E-14-1.58307E-15
 -1         2-6.53213E+02-6.53213E+02 1.16146E-10-8.01446E-12-4.18693E-15-3.85623E-12
 -1         3-6.53213E+02-6.53213E+02 1.16514E-10 1.05359E-11 1.09673E-15 2.63574E-12
 -1         4-6.53213E+02-6.53213E+02 1.12899E-10 5.18950E-12-9.43831E-15 1.62863E-13
 -1         5-6.53213E+02-6.53213E+02 1.22325E-10 3.20889E-12-1.44420E-14 4.26865E-13
 -1         6-1.30643E+03-1.30643E+03 2.07852E-10 1.23394E-12 2.26751E-14-8.54333E-13
 -1         7-6.53213E+02-6.53213E+02 1.04625E-10-3.21621E-12 2.05251E-12 6.61092E-15
 -1         8-4.35475E+02-4.35475E+02 6.64374E-11-7.49005E-12 2.18708E-12 8.40549E-13
 -1         9-4.35475E+02-4.35475E+02 6.87984E-11 5.05035E-12-5.53746E-14-2.95683E-12
 -1        10-4.35475E+02-4.35475E+02 7.16220E-11 1.57776E-12 3.46796E-12-4.40642E-12
 -1        11-4.35475E+02-4.35475E+02 8.17679E-11-9.16259E-12-3.21925E-12 1.80299E-12
 -1        12-6.53213E+02-6.53213E+02 9.32020E-11-1.74059E-11 7.02056E-12-3.12665E-13
 -1        13-6.53213E+02-6.53213E+02 1.07166E-10 4.84079E-12 6.15442E-12-6.82934E-15
 -1        14-4.35475E+02-4.35475E+02 7.55697E-11 8.41421E-12 2.36944E-12 5.80332E-13
 -1        15-4.35475E+02-4.35475E+02 8.10249E-11-6.90913E-12 5.94298E-12-8.12276E-13
 -1        16-4.35475E+02-4.35475E+02 6.69834E-11-4.62916E-12 3.43399E-13-7.79758E-14
 -1        17-4.35475E+02-4.35475E+02 6.48402E-11 1.10859E-11 1.77565E-12-3.91043E-12
 -1        18-6.53213E+02-6.53213E+02 9.70348E-11 2.15342E-11-1.13681E-11-1.42750E-12
 -1        19-6.53213E+02-6.53213E+02 9.11637E-11 1.45810E-11 1.40215E-11 2.42162E-14
 -1        20-4.35475E+02-4.35475E+02 7.23530E-11 1.49077E-11 4.51670E-12-1.25772E-12
 -1        21-4.35475E+02-4.35475E+02 7.32214E-11-1.29635E-11 7.60512E-12 6.32197E-12
 -1        22-4.35475E+02-4.35475E+02 5.47437E-11-1.06152E-11 4.02276E-12 8.21412E-12
 -1        23-4.35475E+02-4.35475E+02 7.22797E-11 1.32502E-11-1.08675E-13-3.26686E-12
 -1        24-6.53213E+02-6.53213E+02 1.31240E-10 2.48256E-11-1.55420E-11 7.56967E-13
 -1        25-6.53213E+02-6.53213E+02 7.64064E-11-2.30436E-11-1.14688E-11-1.44916E-14
 -1        26-4.35475E+02-4.35475E+02 6.59614E-11-4.35677E-12 9.36105E-13 6.42070E-12
 -1        27-4.35475E+02-4.35475E+02 6.75678E-11 2.95955E-12-1.64326E-13-5.48417E-12
 -1        28-4.35475E+02-4.35475E+02 5.46800E-11 1.17996E-11-4.81701E-12-1.06506E-12
 -1        29-4.35475E+02-4.35475E+02 6.31416E-11-1.29321E-11-1.19777E-12-2.42651E-12
 -1        30-6.53213E+02-6.53213E+02 1.31518E-10-1.79344E-11 1.42972E-11-7.02089E-14
 -1        31-1.30643E+03-1.30643E+03 2.06735E-10 1.73568E-13 1.11536E-12 1.11355E-14
 -1        32-6.53213E+02-6.53213E+02 1.27066E-10 1.65953E-11-2.53996E-13-2.66546E-12
 -1        33-6.53213E+02-6.53213E+02 1.26866E-10-1.69160E-11 5.98621E-13 3.65784E-12
 -1        34-6.53213E+02-6.53213E+02 9.70133E-11-3.96356E-12 2.71171E-13 5.46910E-12
 -1        35-6.53213E+02-6.53213E+02 8.96176E-11-1.65457E-12-2.72881E-13-1.09124E-11
 -1        36-1.30643E+03-1.30643E+03 2.39791E-10-1.71213E-13 9.33057E-13 6.31297E-13
 -1        37-1.30643E+03-1.30643E+03 2.23040E-10-2.10046E-14 1.14853E-12 4.33686E-12
 -1        38-6.53213E+02-6.53213E+02 1.14494E-10-1.07045E-12-1.50723E-12-1.68701E-12
 -1        39-6.53213E+02-6.53213E+02 1.10823E-10 2.20881E-13-1.65169E-12 3.42984E-12
 -1        40-6.53213E+02-6.53213E+02 1.19548E-10-4.60353E-12 1.08552E-12 9.40211E-13
 -1        41-6.53213E+02-6.53213E+02 1.10549E-10 4.42166E-12 2.41285E-12 3.23468E-12
 -1        42-1.30643E+03-1.30643E+03 2.33340E-10 1.72422E-12-3.95331E-12 6.74002E-12
 -1        43-6.53213E+02-6.53213E+02 1.11261E-10-1.55867E-12 2.59808E-12 3.58079E-14
 -1        44-4.35475E+02-4.35475E+02 7.27880E-11-1.74574E-12 1.19147E-12 8.60013E-13
 -1        45-4.35475E+02-4.35475E+02 6.60938E-11 3.10327E-12-1.20189E-12-1.21385E-12
 -1        46-4.35475E+02-4.35475E+02 7.63466E-11-5.09094E-14 4.19886E-12-2.08307E-12
 -1        47-4.35475E+02-4.35475E+02 7.20755E-11 3.07748E-12-1.59545E-12 8.89950E-13
 -1        48-6.53213E+02-6.53213E+02 1.03183E-10-1.25651E-12 5.06336E-12-1.14789E-12
 -1        49-6.53213E+02-6.53213E+02 1.24979E-10 1.85103E-12-5.22849E-12-2.83500E-12
 -1        50-4.35475E+02-4.35475E+02 8.13129E-11 3.84081E-12-1.95049E-12-1.26581E-12
 -1        51-4.35475E+02-4.35475E+02 8.58485E-11-4.92275E-12 1.59029E-12-2.55822E-12
 -1        52-4.35475E+02-4.35475E+02 7.68104E-11-8.48581E-13-6.09931E-12-1.76068E-12
 -1        53-4.35475E+02-4.35475E+02 7.02129E-11 2.91885E-13 2.67356E-12-5.90240E-12
 -1        54-6.53213E+02-6.53213E+02 1.02238E-10 1.85092E-12-1.77977E-12-1.04215E-12
 -1        55-6.53213E+02-6.53213E+02 1.02887E-10 3.59430E-12 3.60119E-12 1.19903E-12
 -1        56-4.35475E+02-4.35475E+02 7.36375E-11 5.00300E-12-3.74891E-13-5.07252E-13
 -1        57-4.35475E+02-4.35475E+02 8.12065E-11-8.07225E-12 3.19658E-12 2.82220E-12
 -1        58-4.35475E+02-4.35475E+02 6.69347E-11-3.92973E-12-1.88001E-12 4.51976E-12
 -1        59-4.35475E+02-4.35475E+02 7.50581E-11 1.79296E-13 1.01184E-12 1.12327E-12
 -1        60-6.53213E+02-6.53213E+02 1.31356E-10 2.96997E-12-5.45941E-12 6.43830E-12
 -1        61-6.53213E+02-6.53213E+02 1.18991E-10-6.31263E-12-9.85528E-12-4.75759E-12
 -1        62-4.35475E+02-4.35475E+02 7.85490E-11-4.38659E-12 1.19604E-12 3.22872E-12
 -1        63-4.35475E+02-4.35475E+02 7.78352E-11 7.23308E-12 1.08115E-12-2.46420E-12
 -1        64-4.35475E+02-4.35475E+02 7.47406E-11 1.13740E-11-5.98173E-12 2.35990E-12
 -1        65-4.35475E+02-4.35475E+02 7.02932E-11-5.87776E-12-3.07668E-12-5.51747E-13
 -1        66-6.53213E+02-6.53213E+02 1.10853E-10 4.23517E-12 7.95145E-12 3.88532E-12
 -1        67-1.30643E+03-1.30643E+03 2.40354E-10-4.02893E-13 2.14046E-12-9.12158E-12
 -1        68-6.53213E+02-6.53213E+02 1.19574E-10-4.68700E-13 7.64006E-13-7.21979E-12
 -1        69-6.53213E+02-6.53213E+02 1.29674E-10-4.58238E-13 2.15993E-12 5.22008E-12
 -1        70-6.53213E+02-6.53213E+02 1.16904E-10 5.44561E-12-1.82231E-12 7.00180E-12
 -1        71-6.53213E+02-6.53213E+02 1.16265E-10-1.19855E-11-3.22171E-12-8.94107E-12
 -1        72-1.30643E+03-1.30643E+03 2.26711E-10-1.56368E-12-9.79012E-12 7.63548E-13
 -3
    1PSTEP                       309         103           1          
  100CL  203 8.85781E-01          72                     0  103           1
 -4  TOSTRAIN    6    1
 -5  EXX         1    4    1    1
 -5  EYY         1    4    2    2
 -5  EZZ         1    4    3    3
 -5  EXY         1    4    1    2
 -5  EYZ         1    4    2    3
 -5  EZX         1    4    3    1
 -1         1-4.37104E-03-4.37104E-03 3.74660E-03 5.55844E-20-8.93488E-20-1.08970E-20
 -1         2-2.18552E-03-2.18552E-03 1.87330E-03-5.06281E-17-2.57400E-20-2.37679E-17
 -1         3-2.18552E-03-2.18552E-03 1.87330E-03 6.65564E-17 7.43325E-21 1.62448E-17
 -1         4-2.18552E-03-2.18552E-03 1.87330E-03 3.27826E-17-5.92169E-20 1.00356E-18
 -1         5-2.18552E-03-2.18552E-03 1.87330E-03 2.02709E-17-9.07267E-20 2.63098E-18
 -1         6-4.37104E-03-4.37104E-03 3.74660E-03 7.79490E-18 1.42298E-19-5.26545E-18
 -1         7-2.18552E-03-2.18552E-03 1.87330E-03-2.03171E-17 1.26500E-17 4.12148E-20
 -1         8-1.45701E-03-1.45701E-03 1.24887E-03-4.73153E-17 1.34798E-17 5.18092E-18
 -1         9-1.45701E-03-1.45701E-03 1.24887E-03 3.19036E-17-3.40849E-19-1.82230E-17
 -1        10-1.45701E-03-1.45701E-03 1.24887E-03 9.96688E-18 2.13736E-17-2.71573E-17
 -1        11-1.45701E-03-1.45701E-03 1.24887E-03-5.78809E-17-1.98424E-17 1.11126E-17
 -1        12-2.18552E-03-2.18552E-03 1.87330E-03-1.09955E-16 4.32708E-17-1.92697E-18
 -1        13-2.18552E-03-2.18552E-03 1.87330E-03 3.05797E-17 3.79308E-17-4.31418E-20
 -1        14-1.45701E-03-1.45701E-03 1.24887E-03 5.31534E-17 1.46039E-17 3.57610E-18
 -1        15-1.45701E-03-1.45701E-03 1.24887E-03-4.36457E-17 3.66303E-17-5.00615E-18
 -1        16-1.45701E-03-1.45701E-03 1.24887E-03-2.92428E-17 2.11458E-18-4.80402E-19
 -1        17-1.45701E-03-1.45701E-03 1.24887E-03 7.00308E-17 1.09442E-17-2.41012E-17
 -1        18-2.18552E-03-2.18552E-03 1.87330E-03 1.36034E-16-7.00662E-17-8.79790E-18
 -1        19-2.18552E-03-2.18552E-03 1.87330E-03 9.21099E-17 8.64186E-17 1.50943E-19
 -1        20-1.45701E-03-1.45701E-03 1.24887E-03 9.41735E-17 2.78382E-17-7.75067E-18
 -1        21-1.45701E-03-1.45701E-03 1.24887E-03-8.18918E-17 4.68741E-17 3.89639E-17
 -1        22-1.45701E-03-1.45701E-03 1.24887E-03-6.70572E-17 2.47940E-17 5.06260E-17
 -1        23-1.45701E-03-1.45701E-03 1.24887E-03 8.37029E-17-6.69923E-19-2.01351E-17
 -1        24-2.18552E-03-2.18552E-03 1.87330E-03 1.56825E-16-9.57892E-17 4.66505E-18
 -1        25-2.18552E-03-2.18552E-03 1.87330E-03-1.45569E-16-7.06870E-17-8.93915E-20
 -1        26-1.45701E-03-1.45701E-03 1.24887E-03-2.75221E-17 5.77027E-18 3.95730E-17
 -1        27-1.45701E-03-1.45701E-03 1.24887E-03 1.86957E-17-1.01272E-18-3.38007E-17
 -1        28-1.45701E-03-1.45701E-03 1.24887E-03 7.45391E-17-2.96885E-17-6.56415E-18
 -1        29-1.45701E-03-1.45701E-03 1.24887E-03-8.16935E-17-7.38029E-18-1.49551E-17
 -1        30-2.18552E-03-2.18552E-03 1.87330E-03-1.13294E-16 8.81162E-17-4.32216E-19
 -1        31-4.37104E-03-4.37104E-03 3.74660E-03 1.09645E-18 6.87303E-18 6.87007E-20
 -1        32-2.18552E-03-2.18552E-03 1.87330E-03 1.04834E-16-1.56439E-18-1.64281E-17
 -1        33-2.18552E-03-2.18552E-03 1.87330E-03-1.06860E-16 3.68952E-18 2.25436E-17
 -1        34-2.18552E-03-2.18552E-03 1.87330E-03-2.50382E-17 1.67246E-18 3.37070E-17
 -1        35-2.18552E-03-2.18552E-03 1.87330E-03-1.04521E-17-1.67903E-18-6.72583E-17
 -1        36-4.37104E-03-4.37104E-03 3.74660E-03-1.08157E-18 5.74705E-18 3.88863E-18
 -1        37-4.37104E-03-4.37104E-03 3.74660E-03-1.32688E-19 7.19396E-18 2.71665E-17
 -1        38-2.18552E-03-2.18552E-03 1.87330E-03-6.76212E-18-9.44104E-18-1.01792E-17
 -1        39-2.18552E-03-2.18552E-03 1.87330E-03 1.39533E-18-1.03475E-17 2.12054E-17
 -1        40-2.18552E-03-2.18552E-03 1.87330E-03-2.90810E-17 6.79999E-18 5.86099E-18
 -1        41-2.18552E-03-2.18552E-03 1.87330E-03 2.79320E-17 1.51136E-17 2.02411E-17
 -1        42-4.37104E-03-4.37104E-03 3.74660E-03 1.08921E-17-2.47621E-17 4.21504E-17
 -1        43-2.18552E-03-2.18552E-03 1.87330E-03-9.84625E-18 1.60705E-17 2.24113E-19
 -1        44-1.45701E-03-1.45701E-03 1.24887E-03-1.10280E-17 7.24245E-18 5.30285E-18
 -1        45-1.45701E-03-1.45701E-03 1.24887E-03 1.96037E-17-7.51919E-18-7.25850E-18
 -1        46-1.45701E-03-1.45701E-03 1.24887E-03-3.21600E-19 2.59512E-17-1.26158E-17
 -1        47-1.45701E-03-1.45701E-03 1.24887E-03 1.94408E-17-9.67223E-18 5.40057E-18
 -1        48-2.18552E-03-2.18552E-03 1.87330E-03-7.93751E-18 3.10119E-17-7.20162E-18
 -1        49-2.18552E-03-2.18552E-03 1.87330E-03 1.16931E-17-3.33232E-17-1.77592E-17
 -1        50-1.45701E-03-1.45701E-03 1.24887E-03 2.42628E-17-1.24804E-17-7.99237E-18
 -1        51-1.45701E-03-1.45701E-03 1.24887E-03-3.10975E-17 9.36353E-18-1.59446E-17
 -1        52-1.45701E-03-1.45701E-03 1.24887E-03-5.36057E-18-3.82175E-17-1.10290E-17
 -1        53-1.45701E-03-1.45701E-03 1.24887E-03 1.84387E-18 1.65770E-17-3.64877E-17
 -1        54-2.18552E-03-2.18552E-03 1.87330E-03 1.16924E-17-9.96639E-18-6.58684E-18
 -1        55-2.18552E-03-2.18552E-03 1.87330E-03 2.27056E-17 2.10973E-17 7.51145E-18
 -1        56-1.45701E-03-1.45701E-03 1.24887E-03 3.16044E-17-2.76947E-18-3.04544E-18
 -1        57-1.45701E-03-1.45701E-03 1.24887E-03-5.09932E-17 1.92643E-17 1.70265E-17
 -1        58-1.45701E-03-1.45701E-03 1.24887E-03-2.48245E-17-1.22148E-17 2.74892E-17
 -1        59-1.45701E-03-1.45701E-03 1.24887E-03 1.13263E-18 6.33679E-18 7.38285E-18
 -1        60-2.18552E-03-2.18552E-03 1.87330E-03 1.87616E-17-3.26538E-17 4.03711E-17
 -1        61-2.18552E-03-2.18552E-03 1.87330E-03-3.98775E-17-6.06671E-17-2.98042E-17
 -1        62-1.45701E-03-1.45701E-03 1.24887E-03-2.77105E-17 7.43193E-18 1.95788E-17
 -1        63-1.45701E-03-1.45701E-03 1.24887E-03 4.56920E-17 6.79191E-18-1.48406E-17
 -1        64-1.45701E-03-1.45701E-03 1.24887E-03 7.18508E-17-3.69962E-17 1.48921E-17
 -1        65-1.45701E-03-1.45701E-03 1.24887E-03-3.71304E-17-1.91794E-17-3.16647E-18
 -1        66-2.18552E-03-2.18552E-03 1.87330E-03 2.67540E-17 4.84504E-17 2.42979E-17
 -1        67-4.37104E-03-4.37104E-03 3.74660E-03-2.54512E-18 1.33415E-17-5.71401E-17
 -1        68-2.18552E-03-2.18552E-03 1.87330E-03-2.96082E-18 4.79929E-18-4.49584E-17
 -1        69-2.18552E-03-2.18552E-03 1.87330E-03-2.89473E-18 1.35058E-17 3.23158E-17
 -1        70-2.18552E-03-2.18552E-03 1.87330E-03 3.44004E-17-1.14272E-17 4.32972E-17
 -1        71-2.18552E-03-2.18552E-03 1.87330E-03-7.57136E-17-2.01822E-17-5.49922E-17
 -1        72-4.37104E-03-4.37104E-03 3.74660E-03-9.87792E-18-6.14495E-17 4.93561E-18
 -3
    1PSTEP                       310         104           1          
  100CL  204 8.94781E-01          72                     0  104           1
 -4  DISP        4    1
 -5  D1          1    2    1    0
 -5  D2          1    2    2    0
 -5  D3          1    2    3    0
 -5  ALL         1    2    0    0    1ALL
 -1         1 0.00000E+00 0.00000E+00 0.00000E+00
 -1         2-2.28037E+00 0.00000E+00 0.00000E+00
 -1         3-1.22815E+01 0.00000E+00 0.00000E+00
 -1         4-1.45619E+01 0.00000E+00 0.00000E+00
 -1         5-2.45631E+01 0.00000E+00 0.00000E+00
 -1         6-2.68434E+01 0.00000E+00 0.00000E+00
 -1         7 0.00000E+00-2.28037E+00 0.00000E+00
 -1         8-2.28037E+00-2.28037E+00 0.00000E+00
 -1         9-1.22815E+01-2.28037E+00 0.00000E+00
 -1        10-1.45619E+01-2.28037E+00 0.00000E+00
 -1        11-2.45631E+01-2.28037E+00 0.00000E+00
 -1        12-2.68434E+01-2.28037E+00 0.00000E+00
 -1        13 0.00000E+00-1.22815E+01 0.00000E+00
 -1        14-2.28037E+00-1.22815E+01 0.00000E+00
 -1        15-1.22815E+01-1.22815E+01 0.00000E+00
 -1        16-1.45619E+01-1.22815E+01 0.00000E+00
 -1        17-2.45631E+01-1.22815E+01 0.00000E+00
 -1        18-2.68434E+01-1.22815E+01 0.00000E+00
 -1        19 0.00000E+00-1.45619E+01 0.00000E+00
 -1        20-2.28037E+00-1.45619E+01 0.00000E+00
 -1        21-1.22815E+01-1.45619E+01 0.00000E+00
 -1        22-1.45619E+01-1.45619E+01 0.00000E+00
 -1        23-2.45631E+01-1.45619E+01 0.00000E+00
 -1        24-2.68434E+01-1.45619E+01 0.00000E+00
 -1        25 0.00000E+00-2.45631E+01 0.00000E+00
 -1        26-2.28037E+00-2.45631E+01 0.00000E+00
 -1        27-1.22815E+01-2.45631E+01 0.00000E+00
 -1        28-1.45619E+01-2.45631E+01 0.00000E+00
 -1        29-2.45631E+01-2.45631E+01 0.00000E+00
 -1        30-2.68434E+01-2.45631E+01 0.00000E+00
 -1        31 0.00000E+00-2.68434E+01 0.00000E+00
 -1        32-2.28037E+00-2.68434E+01 0.00000E+00
 -1        33-1.22815E+01-2.68434E+01 0.00000E+00
 -1        34-1.45619E+01-2.68434E+01 0.00000E+00
 -1        35-2.45631E+01-2.68434E+01 0.00000E+00
 -1        36-2.68434E+01-2.68434E+01 0.00000E+00
 -1        37 0.00000E+00 0.00000E+00 2.72490E+00
 -1        38-2.28037E+00 0.00000E+00 2.72490E+00
 -1        39-1.22815E+01 0.00000E+00 2.72490E+00
 -1        40-1.45619E+01 0.00000E+00 2.72490E+00
 -1        41-2.45631E+01 0.00000E+00 2.72490E+00
 -1        42-2.68434E+01 0.00000E+00 2.72490E+00
 -1        43 0.00000E+00-2.28037E+00 2.72490E+00
 -1        44-2.28037E+00-2.28037E+00 2.72490E+00
 -1        45-1.22815E+01-2.28037E+00 2.72490E+00
 -1        46-1.45619E+01-2.28037E+00 2.72490E+00
 -1        47-2.45631E+01-2.28037E+00 2.72490E+00
 -1        48-2.68434E+01-2.28037E+00 2.72490E+00
 -1        49 0.00000E+00-1.22815E+01 2.72490E+00
 -1        50-2.28037E+00-1.22815E+01 2.72490E+00
 -1        51-1.22815E+01-1.22815E+01 2.72490E+00
 -1        52-1.45619E+01-1.22815E+01 2.72490E+00
 -1        53-2.45631E+01-1.22815E+01 2.72490E+00
 -1        54-2.68434E+01-1.22815E+01 2.72490E+00
 -1        55 0.00000E+00-1.45619E+01 2.72490E+00
 -1        56-2.28037E+00-1.45619E+01 2.72490E+00
 -1        57-1.22815E+01-1.45619E+01 2.72490E+00
 -1        58-1.45619E+01-1.45619E+01 2.72490E+00
 -1        59-2.45631E+01-1.45619E+01 2.72490E+00
 -1        60-2.68434E+01-1.45619E+01 2.72490E+00
 -1        61 0.00000E+00-2.45631E+01 2.72490E+00
 -1        62-2.28037E+00-2.45631E+01 2.72490E+00
 -1        63-1.22815E+01-2.45631E+01 2.72490E+00
 -1        64-1.45619E+01-2.45631E+01 2.72490E+00
 -1        65-2.45631E+01-2.45631E+01 2.72490E+00
 -1        66-2.68434E+01-2.45631E+01 2.72490E+00
 -1        67 0.00000E+00-2.68434E+01 2.72490E+00
 -1        68-2.28037E+00-2.68434E+01 2.72490E+00
 -1        69-1.22815E+01-2.68434E+01 2.72490E+00
 -1        70-1.45619E+01-2.68434E+01 2.72490E+00
 -1        71-2.45631E+01-2.68434E+01 2.72490E+00
 -1        72-2.68434E+01-2.68434E+01 2.72490E+00
 -3
    1PSTEP                       311         104           1          
  100CL  204 8.94781E-01          72                     0  104           1
 -4  STRESS      6    1
 -5  SXX         1    4    1    1
 -5  SYY         1    4    2    2
 -5  SZZ         1    4    3    3
 -5  SXY         1    4    1    2
 -5  SYZ         1    4    2    3
 -5  SZX         1    4    3    1
 -1         1-1.35976E+03-1.35976E+03 2.00774E-10-1.40381E-14 2.52641E-14 2.48958E-14
 -1         2-6.79878E+02-6.79878E+02 1.08025E-10-1.08789E-11-1.95890E-14-6.44192E-12
 -1         3-6.79878E+02-6.79878E+02 1.01495E-10 1.05048E-11 6.18075E-15 3.57654E-12
 -1         4-6.79878E+02-6.79878E+02 1.02199E-10 4.23019E-12 2.46773E-15 8.87888E-14
 -1         5-6.79878E+02-6.79878E+02 1.05454E-10 8.60871E-13-1.79954E-14 1.10370E-12
 -1         6-1.35976E+03-1.35976E+03 1.79018E-10 3.54369E-13 1.59516E-14-6.40233E-14
 -1         7-6.79878E+02-6.79878E+02 8.62733E-11 6.91138E-13 2.50363E-12-9.79508E-15
 -1         8-4.53252E+02-4.53252E+02 6.03880E-11-6.78718E-12 2.59951E-13-1.80562E-13
 -1         9-4.53252E+02-4.53252E+02 6.07894E-11 7.82649E-12-1.36149E-12-2.23956E-12
 -1        10-4.53252E+02-4.53252E+02 6.79390E-11 3.64174E-12 4.93572E-13-5.35777E-12
 -1        11-4.53252E+02-4.53252E+02 7.37327E-11-7.20536E-12-1.50799E-12 4.93987E-12
 -1        12-6.79878E+02-6.79878E+02 8.55777E-11-1.25661E-11 3.40759E-12 1.47174E-13
 -1        13-6.79878E+02-6.79878E+02 8.71180E-11 2.20142E-12 4.34465E-12 4.44316E-15
 -1        14-4.53252E+02-4.53252E+02 6.96170E-11 8.32029E-12 3.79880E-12-8.45287E-14
 -1        15-4.53252E+02-4.53252E+02 6.73406E-11-1.04355E-11 4.60228E-12-1.08943E-12
 -1        16-4.53252E+02-4.53252E+02 6.19031E-11-4.12370E-12 2.77942E-12-4.48085E-13
 -1        17-4.53252E+02-4.53252E+02 5.52039E-11 6.28720E-12 1.20630E-12-2.69321E-12
 -1        18-6.79878E+02-6.79878E+02 8.74352E-11 1.93915E-11-9.19242E-12-1.59440E-14
 -1        19-6.79878E+02-6.79878E+02 7.72073E-11 1.54032E-11 1.13845E-11-2.75886E-15
 -1        20-4.53252E+02-4.53252E+02 6.76787E-11 1.71215E-11 5.56305E-12-4.44012E-12
 -1        21-4.53252E+02-4.53252E+02 6.69282E-11-1.40324E-11 5.83089E-12 5.58559E-12
 -1        22-4.53252E+02-4.53252E+02 5.74903E-11-7.62906E-12 2.34169E-12 2.14279E-12
 -1        23-4.53252E+02-4.53252E+02 6.54232E-11 1.31083E-11 1.99573E-12 2.85654E-12
 -1        24-6.79878E+02-6.79878E+02 1.19914E-10 2.88485E-11-1.53690E-11-1.78124E-13
 -1        25-6.79878E+02-6.79878E+02 6.38373E-11-2.43221E-11-7.96110E-12-6.28661E-15
 -1        26-4.53252E+02-4.53252E+02 5.89353E-11-5.92073E-12 4.77193E-13 5.19219E-12
 -1        27-4.53252E+02-4.53252E+02 6.26865E-11 3.78362E-12 4.33887E-13-4.03440E-12
 -1        28-4.53252E+02-4.53252E+02 4.77733E-11 1.03701E-11-7.98466E-13 1.13512E-12
 -1        29-4.53252E+02-4.53252E+02 5.25243E-11-1.42641E-11-1.73063E-12-2.39548E-12
 -1        30-6.79878E+02-6.79878E+02 1.20903E-10-2.31962E-11 1.45041E-11 5.33567E-13
 -1        31-1.35976E+03-1.35976E+03 1.74579E-10-2.74134E-13 3.17313E-13-3.60765E-14
 -1        32-6.79878E+02-6.79878E+02 1.13894E-10 1.53040E-11 4.52106E-13-3.97975E-12
 -1        33-6.79878E+02-6.79878E+02 1.10539E-10-1.53816E-11 5.42681E-13 3.81319E-12
 -1        34-6.79878E+02-6.79878E+02 8.13849E-11-5.50446E-12-1.91729E-13 3.83685E-12
 -1        35-6.79878E+02-6.79878E+02 7.19163E-11 2.07785E-12 6.53387E-13-7.99866E-12
 -1        36-1.35976E+03-1.35976E+03 2.07840E-10 3.06029E-13-1.71542E-12-6.58582E-13
 -1        37-1.35976E+03-1.35976E+03 1.83358E-10-1.97783E-14 2.40516E-12 5.03522E-12
 -1        38-6.79878E+02-6.79878E+02 9.49512E-11-2.45770E-12-6.66878E-14-3.93676E-12
 -1        39-6.79878E+02-6.79878E+02 8.97394E-11 8.79803E-13-1.48619E-13 3.10411E-12
 -1        40-6.79878E+02-6.79878E+02 9.59719E-11-7.13848E-12 3.65912E-12-6.66871E-13
 -1        41-6.79878E+02-6.79878E+02 9.75472E-11 8.66999E-12 2.37688E-12 2.67611E-12
 -1        42-1.35976E+03-1.35976E+03 1.89279E-10-1.43691E-12-2.74500E-12 2.07082E-12
 -1        43-6.79878E+02-6.79878E+02 9.11674E-11-2.23072E-12 3.62180E-12 1.24499E-12
 -1        44-4.53252E+02-4.53252E+02 6.03415E-11-3.11902E-12 2.41373E-13 6.55962E-13
 -1        45-4.53252E+02-4.53252E+02 5.11095E-11 3.91532E-12-1.41768E-12 9.86452E-14
 -1        46-4.53252E+02-4.53252E+02 6.19447E-11-1.34317E-12 2.92166E-12-3.10221E-12
 -1        47-4.53252E+02-4.53252E+02 6.03375E-11 2.25185E-12 7.02562E-14 3.09385E-12
 -1        48-6.79878E+02-6.79878E+02 7.73255E-11-4.42415E-12 2.06762E-12-2.35331E-12
 -1        49-6.79878E+02-6.79878E+02 1.02914E-10 4.76389E-12-6.02846E-12-1.27523E-12
 -1        50-4.53252E+02-4.53252E+02 7.16867E-11 4.03272E-12-6.92280E-13-9.40632E-13
 -1        51-4.53252E+02-4.53252E+02 7.13883E-11-3.91846E-12 4.85300E-13-1.31413E-12
 -1        52-4.53252E+02-4.53252E+02 6.28719E-11-3.02875E-12-2.63322E-12-5.71137E-13
 -1        53-4.53252E+02-4.53252E+02 6.09910E-11 3.34528E-12 2.27152E-12-5.48409E-12
 -1        54-6.79878E+02-6.79878E+02 8.14772E-11 3.19385E-12-1.75798E-12-4.99176E-12
 -1        55-6.79878E+02-6.79878E+02 7.78931E-11 1.08986E-11 1.12335E-12 1.22686E-12
 -1        56-4.53252E+02-4.53252E+02 6.04726E-11 8.12255E-12 1.30407E-13-3.61957E-12
 -1        57-4.53252E+02-4.53252E+02 6.23685E-11-9.42103E-12 2.13388E-12 4.11260E-12
 -1        58-4.53252E+02-4.53252E+02 5.02508E-11-8.46929E-12-2.98077E-12 9.53452E-13
 -1        59-4.53252E+02-4.53252E+02 6.16815E-11 3.88030E-12 2.47092E-12 4.38620E-12
 -1        60-6.79878E+02-6.79878E+02 1.00261E-10 4.46363E-12-7.86373E-12 2.32791E-12
 -1        61-6.79878E+02-6.79878E+02 9.62393E-11-1.24220E-11-8.47581E-12-5.00565E-12
 -1        62-4.53252E+02-4.53252E+02 6.87661E-11-8.77777E-12 1.49637E-12 1.86356E-12
 -1        63-4.53252E+02-4.53252E+02 7.20114E-11 9.81762E-12 1.50664E-12-1.50950E-12
 -1        64-4.53252E+02-4.53252E+02 6.17895E-11 9.28414E-12-2.80138E-12 3.74290E-12
 -1        65-4.53252E+02-4.53252E+02 6.06353E-11-2.88421E-12-2.32667E-12-1.27606E-12
 -1        66-6.79878E+02-6.79878E+02 1.00843E-10-1.13012E-12 8.47380E-12 2.15619E-12
 -1        67-1.35976E+03-1.35976E+03 1.88177E-10 5.83836E-13 1.73022E-14-7.89805E-12
 -1        68-6.79878E+02-6.79878E+02 1.04833E-10-4.52714E-13 1.11702E-12-8.01239E-12
 -1        69-6.79878E+02-6.79878E+02 1.08067E-10-1.85221E-12 1.61413E-12 5.08349E-12
 -1        70-6.79878E+02-6.79878E+02 8.53519E-11-2.52189E-12-2.68122E-12 5.14046E-12
 -1        71-6.79878E+02-6.79878E+02 9.29740E-11-3.25359E-12-1.11908E-12-9.39847E-12
 -1        72-1.35976E+03-1.35976E+03 1.83108E-10-1.60626E-12-9.20844E-12-1.29610E-12
 -3
    1PSTEP                       312         104           1          
  100CL  204 8.94781E-01          72                     0  104           1
 -4  TOSTRAIN    6    1
 -5  EXX         1    4    1    1
 -5  EYY         1    4    2    2
 -5  EZZ         1    4    3    3
 -5  EXY         1    4    1    2
 -5  EYZ         1    4    2    3
 -5  EZX         1    4    3    1
 -1         1-4.55016E-03-4.55016E-03 3.90014E-03-8.87547E-20 1.58004E-19 1.54539E-19
 -1         2-2.27508E-03-2.27508E-03 1.95007E-03-6.87811E-17-1.22142E-19-3.96961E-17
 -1         3-2.27508E-03-2.27508E-03 1.95007E-03 6.64157E-17 3.80763E-20 2.20406E-17
 -1         4-2.27508E-03-2.27508E-03 1.95007E-03 2.67450E-17 1.47772E-20 5.48191E-19
 -1         5-2.27508E-03-2.27508E-03 1.95007E-03 5.44278E-18-1.11049E-19 6.80069E-18
 -1         6-4.55016E-03-4.55016E-03 3.90014E-03 2.24047E-18 9.84677E-20-3.95682E-19
 -1         7-2.27508E-03-2.27508E-03 1.95007E-03 4.36966E-18 1.54291E-17-6.04785E-20
 -1         8-1.51672E-03-1.51672E-03 1.30005E-03-4.29114E-17 1.60093E-18-1.11274E-18
 -1         9-1.51672E-03-1.51672E-03 1.30005E-03 4.94823E-17-8.38982E-18-1.38010E-17
 -1        10-1.51672E-03-1.51672E-03 1.30005E-03 2.30246E-17 3.04126E-18-3.30162E-17
 -1        11-1.51672E-03-1.51672E-03 1.30005E-03-4.55552E-17-9.29275E-18 3.04408E-17
 -1        12-2.27508E-03-2.27508E-03 1.95007E-03-7.94483E-17 2.09988E-17 9.07212E-19
 -1        13-2.27508E-03-2.27508E-03 1.95007E-03 1.39183E-17 2.67745E-17 2.75947E-20
 -1        14-1.51672E-03-1.51672E-03 1.30005E-03 5.26043E-17 2.34088E-17-5.20743E-19
 -1        15-1.51672E-03-1.51672E-03 1.30005E-03-6.59773E-17 2.83595E-17-6.71326E-18
 -1        16-1.51672E-03-1.51672E-03 1.30005E-03-2.60717E-17 1.71267E-17-2.76114E-18
 -1        17-1.51672E-03-1.51672E-03 1.30005E-03 3.97503E-17 7.43411E-18-1.65963E-17
 -1        18-2.27508E-03-2.27508E-03 1.95007E-03 1.22601E-16-5.66460E-17-9.83426E-20
 -1        19-2.27508E-03-2.27508E-03 1.95007E-03 9.73853E-17 7.01558E-17-1.65027E-20
 -1        20-1.51672E-03-1.51672E-03 1.30005E-03 1.08249E-16 3.42806E-17-2.73608E-17
 -1        21-1.51672E-03-1.51672E-03 1.30005E-03-8.87188E-17 3.59305E-17 3.44203E-17
 -1        22-1.51672E-03-1.51672E-03 1.30005E-03-4.82341E-17 1.44293E-17 1.32049E-17
 -1        23-1.51672E-03-1.51672E-03 1.30005E-03 8.28758E-17 1.22986E-17 1.76027E-17
 -1        24-2.27508E-03-2.27508E-03 1.95007E-03 1.82392E-16-9.47071E-17-1.09763E-18
 -1        25-2.27508E-03-2.27508E-03 1.95007E-03-1.53775E-16-4.90583E-17-3.96616E-20
 -1        26-1.51672E-03-1.51672E-03 1.30005E-03-3.74333E-17 2.94070E-18 3.19949E-17
 -1        27-1.51672E-03-1.51672E-03 1.30005E-03 2.39216E-17 2.67278E-18-2.48612E-17
 -1        28-1.51672E-03-1.51672E-03 1.30005E-03 6.55637E-17-4.91964E-18 6.99464E-18
 -1        29-1.51672E-03-1.51672E-03 1.30005E-03-9.01838E-17-1.06638E-17-1.47620E-17
 -1        30-2.27508E-03-2.27508E-03 1.95007E-03-1.46656E-16 8.93772E-17 3.28729E-18
 -1        31-4.55016E-03-4.55016E-03 3.90014E-03-1.73319E-18 1.95526E-18-2.20784E-19
 -1        32-2.27508E-03-2.27508E-03 1.95007E-03 9.67580E-17 2.78618E-18-2.45235E-17
 -1        33-2.27508E-03-2.27508E-03 1.95007E-03-9.72488E-17 3.34261E-18 2.34983E-17
 -1        34-2.27508E-03-2.27508E-03 1.95007E-03-3.48015E-17-1.18001E-18 2.36441E-17
 -1        35-2.27508E-03-2.27508E-03 1.95007E-03 1.31370E-17 4.02753E-18-4.92896E-17
 -1        36-4.55016E-03-4.55016E-03 3.90014E-03 1.93484E-18-1.05728E-17-4.05819E-18
 -1        37-4.55016E-03-4.55016E-03 3.90014E-03-1.25046E-19 1.50704E-17 3.15560E-17
 -1        38-2.27508E-03-2.27508E-03 1.95007E-03-1.55386E-17-4.16900E-19-2.39954E-17
 -1        39-2.27508E-03-2.27508E-03 1.95007E-03 5.56248E-18-9.30626E-19 1.90780E-17
 -1        40-2.27508E-03-2.27508E-03 1.95007E-03-4.51324E-17 2.29323E-17-4.15965E-18
 -1        41-2.27508E-03-2.27508E-03 1.95007E-03 5.48153E-17 1.48970E-17 1.66350E-17
 -1        42-4.55016E-03-4.55016E-03 3.90014E-03-9.08473E-18-1.72045E-17 1.30492E-17
 -1        43-2.27508E-03-2.27508E-03 1.95007E-03-1.41035E-17 2.24431E-17 7.80370E-18
 -1        44-1.51672E-03-1.51672E-03 1.30005E-03-1.97197E-17 1.48343E-18 4.13004E-18
 -1        45-1.51672E-03-1.51672E-03 1.30005E-03 2.47543E-17-8.74545E-18 8.39898E-19
 -1        46-1.51672E-03-1.51672E-03 1.30005E-03-8.49210E-18 1.82581E-17-1.88846E-17
 -1        47-1.51672E-03-1.51672E-03 1.30005E-03 1.42371E-17 5.99171E-19 1.88984E-17
 -1        48-2.27508E-03-2.27508E-03 1.95007E-03-2.79713E-17 1.25992E-17-1.47516E-17
 -1        49-2.27508E-03-2.27508E-03 1.95007E-03 3.01193E-17-3.82061E-17-7.99291E-18
 -1        50-1.51672E-03-1.51672E-03 1.30005E-03 2.54965E-17-4.79070E-18-5.88618E-18
 -1        51-1.51672E-03-1.51672E-03 1.30005E-03-2.47741E-17 2.57068E-18-8.11326E-18
 -1        52-1.51672E-03-1.51672E-03 1.30005E-03-1.91490E-17-1.67905E-17-3.53476E-18
 -1        53-1.51672E-03-1.51672E-03 1.30005E-03 2.11503E-17 1.40693E-17-3.40936E-17
 -1        54-2.27508E-03-2.27508E-03 1.95007E-03 2.01928E-17-1.00302E-17-3.12093E-17
 -1        55-2.27508E-03-2.27508E-03 1.95007E-03 6.89056E-17 5.86514E-18 7.69006E-18
 -1        56-1.51672E-03-1.51672E-03 1.30005E-03 5.13541E-17 2.78893E-19-2.22181E-17
 -1        57-1.51672E-03-1.51672E-03 1.30005E-03-5.95636E-17 1.27299E-17 2.51825E-17
 -1        58-1.51672E-03-1.51672E-03 1.30005E-03-5.35463E-17-1.89331E-17 5.71502E-18
 -1        59-1.51672E-03-1.51672E-03 1.30005E-03 2.45328E-17 1.52986E-17 2.71912E-17
 -1        60-2.27508E-03-2.27508E-03 1.95007E-03 2.82209E-17-4.76582E-17 1.45887E-17
 -1        61-2.27508E-03-2.27508E-03 1.95007E-03-7.85372E-17-5.22539E-17-3.13709E-17
 -1        62-1.51672E-03-1.51672E-03 1.30005E-03-5.54967E-17 9.28049E-18 1.11338E-17
 -1        63-1.51672E-03-1.51672E-03 1.30005E-03 6.20710E-17 9.33801E-18-9.02022E-18
 -1        64-1.51672E-03-1.51672E-03 1.30005E-03 5.86982E-17-1.74188E-17 2.33464E-17
 -1        65-1.51672E-03-1.51672E-03 1.30005E-03-1.82351E-17-1.44104E-17-7.67734E-18
 -1        66-2.27508E-03-2.27508E-03 1.95007E-03-7.14506E-18 5.16833E-17 1.35661E-17
 -1        67-4.55016E-03-4.55016E-03 3.90014E-03 3.69125E-18 5.87838E-20-4.95038E-17
 -1        68-2.27508E-03-2.27508E-03 1.95007E-03-2.86224E-18 6.97262E-18-4.97913E-17
 -1        69-2.27508E-03-2.27508E-03 1.95007E-03-1.17104E-17 1.00280E-17 3.14383E-17
 -1        70-2.27508E-03-2.27508E-03 1.95007E-03-1.59444E-17-1.67592E-17 3.17894E-17
 -1        71-2.27508E-03-2.27508E-03 1.95007E-03-2.05705E-17-7.00587E-18-5.80667E-17
 -1        72-4.55016E-03-4.55016E-03 3.90014E-03-1.01554E-17-5.78103E-17-8.28900E-18
 -3
    1PSTEP                       313         105           1          
  100CL  205 9.03781E-01          72                     0  105           1
 -4  DISP        4    1
 -5  D1          1    2    1    0
 -5  D2          1    2    2    0
 -5  D3          1    2    3    0
 -5  ALL         1    2    0    0    1ALL
 -1         1 0.00000E+00 0.00000E+00 0.00000E+00
 -1         2-2.37034E+00 0.00000E+00 0.00000E+00
 -1         3-1.23715E+01 0.00000E+00 0.00000E+00
 -1         4-1.47419E+01 0.00000E+00 0.00000E+00
 -1         5-2.47431E+01 0.00000E+00 0.00000E+00
 -1         6-2.71134E+01 0.00000E+00 0.00000E+00
 -1         7 0.00000E+00-2.37034E+00 0.00000E+00
 -1         8-2.37034E+00-2.37034E+00 0.00000E+00
 -1         9-1.23715E+01-2.37034E+00 0.00000E+00
 -1        10-1.47419E+01-2.37034E+00 0.00000E+00
 -1        11-2.47431E+01-2.37034E+00 0.00000E+00
 -1        12-2.71134E+01-2.37034E+00 0.00000E+00
 -1        13 0.00000E+00-1.23715E+01 0.00000E+00
 -1        14-2.37034E+00-1.23715E+01 0.00000E+00
 -1        15-1.23715E+01-1.23715E+01 0.00000E+00
 -1        16-1.47419E+01-1.23715E+01 0.00000E+00
 -1        17-2.47431E+01-1.23715E+01 0.00000E+00
 -1        18-2.71134E+01-1.23715E+01 0.00000E+00
 -1        19 0.00000E+00-1.47419E+01 0.00000E+00
 -1        20-2.37034E+00-1.47419E+01 0.00000E+00
 -1        21-1.23715E+01-1.47419E+01 0.00000E+00
 -1        22-1.47419E+01-1.47419E+01 0.00000E+00
 -1        23-2.47431E+01-1.47419E+01 0.00000E+00
 -1        24-2.71134E+01-1.47419E+01 0.00000E+00
 -1        25 0.00000E+00-2.47431E+01 0.00000E+00
 -1        26-2.37034E+00-2.47431E+01 0.00000E+00
 -1        27-1.23715E+01-2.47431E+01 0.00000E+00
 -1        28-1.47419E+01-2.47431E+01 0.00000E+00
 -1        29-2.47431E+01-2.47431E+01 0.00000E+00
 -1        30-2.71134E+01-2.47431E+01 0.00000E+00
 -1        31 0.00000E+00-2.71134E+01 0.00000E+00
 -1        32-2.37034E+00-2.71134E+01 0.00000E+00
 -1        33-1.23715E+01-2.71134E+01 0.00000E+00
 -1        34-1.47419E+01-2.71134E+01 0.00000E+00
 -1        35-2.47431E+01-2.71134E+01 0.00000E+00
 -1        36-2.71134E+01-2.71134E+01 0.00000E+00
 -1        37 0.00000E+00 0.00000E+00 2.83194E+00
 -1        38-2.37034E+00 0.00000E+00 2.83194E+00
 -1        39-1.23715E+01 0.00000E+00 2.83194E+00
 -1        40-1.47419E+01 0.00000E+00 2.83194E+00
 -1        41-2.47431E+01 0.00000E+00 2.83194E+00
 -1        42-2.71134E+01 0.00000E+00 2.83194E+00
 -1        43 0.00000E+00-2.37034E+00 2.83194E+00
 -1        44-2.37034E+00-2.37034E+00 2.83194E+00
 -1        45-1.23715E+01-2.37034E+00 2.83194E+00
 -1        46-1.47419E+01-2.37034E+00 2.83194E+00
 -1        47-2.47431E+01-2.37034E+00 2.83194E+00
 -1        48-2.71134E+01-2.37034E+00 2.83194E+00
 -1        49 0.00000E+00-1.23715E+01 2.83194E+00
 -1        50-2.37034E+00-1.23715E+01 2.83194E+00
 -1        51-1.23715E+01-1.23715E+01 2.83194E+00
 -1        52-1.47419E+01-1.23715E+01 2.83194E+00
 -1        53-2.47431E+01-1.23715E+01 2.83194E+00
 -1        54-2.71134E+01-1.23715E+01 2.83194E+00
 -1        55 0.00000E+00-1.47419E+01 2.83194E+00
 -1        56-2.37034E+00-1.47419E+01 2.83194E+00
 -1        57-1.23715E+01-1.47419E+01 2.83194E+00
 -1        58-1.47419E+01-1.47419E+01 2.83194E+00
 -1        59-2.47431E+01-1.47419E+01 2.83194E+00
 -1        60-2.71134E+01-1.47419E+01 2.83194E+00
 -1        61 0.00000E+00-2.47431E+01 2.83194E+00
 -1        62-2.37034E+00-2.47431E+01 2.83194E+00
 -1        63-1.23715E+01-2.47431E+01 2.83194E+00
 -1        64-1.47419E+01-2.47431E+01 2.83194E+00
 -1        65-2.47431E+01-2.47431E+01 2.83194E+00
 -1        66-2.71134E+01-2.47431E+01 2.83194E+00
 -1        67 0.00000E+00-2.71134E+01 2.83194E+00
 -1        68-2.37034E+00-2.71134E+01 2.83194E+00
 -1        69-1.23715E+01-2.71134E+01 2.83194E+00
 -1        70-1.47419E+01-2.71134E+01 2.83194E+00
 -1        71-2.47431E+01-2.71134E+01 2.83194E+00
 -1        72-2.71134E+01-2.71134E+01 2.83194E+00
 -3
    1PSTEP                       314         105           1          
  100CL  205 9.03781E-01          72                     0  105           1
 -4  STRESS      6    1
 -5  SXX         1    4    1    1
 -5  SYY         1    4    2    2
 -5  SZZ         1    4    3    3
 -5  SXY         1    4    1    2
 -5  SYZ         1    4    2    3
 -5  SZX         1    4    3    1
 -1         1-1.41306E+03-1.41306E+03 1.74976E-10-1.42719E-15-2.30655E-14 5.67201E-15
 -1         2-7.06531E+02-7.06531E+02 8.90756E-11-9.95810E-12-1.01448E-14-4.72427E-12
 -1         3-7.06531E+02-7.06531E+02 8.71922E-11 1.14035E-11 8.69461E-15 5.36749E-12
 -1         4-7.06531E+02-7.06531E+02 7.97491E-11 7.70801E-12 1.33621E-14 4.85918E-12
 -1         5-7.06531E+02-7.06531E+02 8.35873E-11-3.18671E-12 1.88963E-14-1.15020E-12
 -1         6-1.41306E+03-1.41306E+03 1.48277E-10 3.75992E-13 3.46104E-14-1.29948E-12
 -1         7-7.06531E+02-7.06531E+02 7.54626E-11-2.26508E-12 9.39961E-13 1.69475E-16
 -1         8-4.71021E+02-4.71021E+02 5.00910E-11-8.14832E-12-4.12316E-13 8.63750E-13
 -1         9-4.71021E+02-4.71021E+02 5.24564E-11 7.77436E-12-1.80317E-12-1.72424E-12
 -1        10-4.71021E+02-4.71021E+02 5.51842E-11 5.40224E-12 1.74876E-12-4.56050E-12
 -1        11-4.71021E+02-4.71021E+02 5.90854E-11-8.20616E-12 9.88390E-13 3.83483E-12
 -1        12-7.06531E+02-7.06531E+02 7.10428E-11-9.20403E-12 4.15927E-12 5.07328E-13
 -1        13-7.06531E+02-7.06531E+02 7.79745E-11 5.56211E-12 6.48945E-12 3.95939E-15
 -1        14-4.71021E+02-4.71021E+02 5.61971E-11 1.04183E-11 4.80583E-12 2.92811E-12
 -1        15-4.71021E+02-4.71021E+02 6.15934E-11-9.81972E-12 4.42827E-12 9.20924E-14
 -1        16-4.71021E+02-4.71021E+02 4.40291E-11-6.94262E-12 2.10643E-12 4.17060E-12
 -1        17-4.71021E+02-4.71021E+02 4.39101E-11 9.27183E-12 1.56183E-12-5.22843E-12
 -1        18-7.06531E+02-7.06531E+02 7.83255E-11 1.30028E-11-5.52247E-12-3.81701E-13
 -1        19-7.06531E+02-7.06531E+02 6.61287E-11 1.49305E-11 1.02137E-11-2.21180E-14
 -1        20-4.71021E+02-4.71021E+02 5.30554E-11 1.66639E-11 5.68114E-12-2.11386E-12
 -1        21-4.71021E+02-4.71021E+02 5.96993E-11-1.69953E-11 2.99946E-12 6.18822E-12
 -1        22-4.71021E+02-4.71021E+02 3.68341E-11-1.40949E-11 3.80920E-12 7.53710E-12
 -1        23-4.71021E+02-4.71021E+02 4.05717E-11 1.58920E-11 3.96667E-12-2.65148E-12
 -1        24-7.06531E+02-7.06531E+02 9.03592E-11 2.21593E-11-8.95455E-12 6.33785E-13
 -1        25-7.06531E+02-7.06531E+02 4.89826E-11-2.38279E-11-7.99326E-12 4.86478E-15
 -1        26-4.71021E+02-4.71021E+02 4.89918E-11-4.87582E-12 4.26703E-13 5.46713E-12
 -1        27-4.71021E+02-4.71021E+02 5.42642E-11 5.68714E-12 1.10900E-12-2.37958E-12
 -1        28-4.71021E+02-4.71021E+02 2.61335E-11 1.95030E-11-2.04066E-12 7.67189E-12
 -1        29-4.71021E+02-4.71021E+02 3.13850E-11-1.83884E-11-3.35477E-12-7.32729E-12
 -1        30-7.06531E+02-7.06531E+02 8.69222E-11-1.77632E-11 6.01205E-12-1.81066E-13
 -1        31-1.41306E+03-1.41306E+03 1.47289E-10-2.80322E-13-3.44482E-13 1.05964E-14
 -1        32-7.06531E+02-7.06531E+02 1.00721E-10 1.63740E-11 2.37832E-13-3.96004E-12
 -1        33-7.06531E+02-7.06531E+02 1.08275E-10-1.77790E-11 8.91426E-13 6.66112E-12
 -1        34-7.06531E+02-7.06531E+02 6.87176E-11 3.08202E-12 9.99927E-15 2.97495E-12
 -1        35-7.06531E+02-7.06531E+02 6.74636E-11-9.95095E-12 7.79194E-14-3.57348E-12
 -1        36-1.41306E+03-1.41306E+03 1.84380E-10 2.75922E-13 1.76555E-12 1.04965E-12
 -1        37-1.41306E+03-1.41306E+03 1.57858E-10 1.11016E-14 3.55473E-12 4.41038E-12
 -1        38-7.06531E+02-7.06531E+02 7.82569E-11-1.80173E-12 4.63692E-13-2.52191E-12
 -1        39-7.06531E+02-7.06531E+02 8.06806E-11 2.31934E-13-9.47227E-13 2.68756E-12
 -1        40-7.06531E+02-7.06531E+02 8.47723E-11-7.41890E-12 3.27940E-12 1.37550E-12
 -1        41-7.06531E+02-7.06531E+02 8.82080E-11 7.27722E-12 6.37681E-13 4.66601E-13
 -1        42-1.41306E+03-1.41306E+03 1.71668E-10-5.16863E-13-5.82050E-12 4.05159E-12
 -1        43-7.06531E+02-7.06531E+02 8.08922E-11-4.34990E-12 2.72886E-12 8.87462E-13
 -1        44-4.71021E+02-4.71021E+02 5.06076E-11-4.10479E-12-9.64250E-14 1.45528E-12
 -1        45-4.71021E+02-4.71021E+02 4.40512E-11 5.23343E-12-2.39662E-12-1.36122E-12
 -1        46-4.71021E+02-4.71021E+02 5.40697E-11 1.94849E-13 3.92831E-12-2.94358E-12
 -1        47-4.71021E+02-4.71021E+02 5.32845E-11 1.26740E-12 1.39127E-12 3.27888E-12
 -1        48-7.06531E+02-7.06531E+02 6.70209E-11-6.08127E-12 1.34787E-12-1.54295E-12
 -1        49-7.06531E+02-7.06531E+02 9.50517E-11 6.60210E-12-4.41602E-12-3.18253E-12
 -1        50-4.71021E+02-4.71021E+02 6.35795E-11 4.21380E-12-3.89671E-13 8.07847E-13
 -1        51-4.71021E+02-4.71021E+02 6.81039E-11-4.64826E-12 1.93459E-12-2.75650E-12
 -1        52-4.71021E+02-4.71021E+02 5.58404E-11-6.31798E-12-2.50345E-12 2.17395E-12
 -1        53-4.71021E+02-4.71021E+02 5.96407E-11 6.50273E-12 8.37431E-13-5.42446E-12
 -1        54-7.06531E+02-7.06531E+02 8.75035E-11 2.60147E-12 2.39239E-13-5.83372E-13
 -1        55-7.06531E+02-7.06531E+02 6.68311E-11 1.20314E-11 1.93912E-13-2.46767E-13
 -1        56-4.71021E+02-4.71021E+02 4.99205E-11 7.83331E-12 1.05368E-13-2.32023E-12
 -1        57-4.71021E+02-4.71021E+02 5.90652E-11-8.16837E-12 8.79092E-13 1.78057E-12
 -1        58-4.71021E+02-4.71021E+02 4.15009E-11-9.84433E-12-8.67877E-13 2.14615E-12
 -1        59-4.71021E+02-4.71021E+02 5.26827E-11 5.29152E-12 4.06608E-12 1.04794E-12
 -1        60-7.06531E+02-7.06531E+02 8.87187E-11 1.25144E-12-4.32381E-12 5.09225E-12
 -1        61-7.06531E+02-7.06531E+02 8.40546E-11-1.24165E-11-8.17535E-12-5.27467E-12
 -1        62-4.71021E+02-4.71021E+02 5.88764E-11-8.43129E-12 1.22400E-12 1.97734E-12
 -1        63-4.71021E+02-4.71021E+02 7.22247E-11 1.03396E-11 6.84708E-14-2.88153E-12
 -1        64-4.71021E+02-4.71021E+02 5.06933E-11 6.81916E-12-2.63005E-12 6.91193E-12
 -1        65-4.71021E+02-4.71021E+02 5.45407E-11-5.57825E-13-1.89968E-12-4.76841E-12
 -1        66-7.06531E+02-7.06531E+02 9.72033E-11-3.12806E-12 2.30895E-12 5.22096E-12
 -1        67-1.41306E+03-1.41306E+03 1.60348E-10-3.76205E-13 2.88600E-13-7.56869E-12
 -1        68-7.06531E+02-7.06531E+02 9.11968E-11-4.18565E-13 5.67361E-13-7.76171E-12
 -1        69-7.06531E+02-7.06531E+02 9.49869E-11-3.83351E-12-2.17902E-12 7.02358E-12
 -1        70-7.06531E+02-7.06531E+02 6.59277E-11-9.02122E-12-2.12523E-13 3.04140E-12
 -1        71-7.06531E+02-7.06531E+02 8.29303E-11 1.81935E-12 1.74137E-12-4.01180E-12
 -1        72-1.41306E+03-1.41306E+03 1.68803E-10-5.05222E-14-8.72700E-12-2.79679E-12
 -3
    1PSTEP                       315         105           1          
  100CL  205 9.03781E-01          72                     0  105           1
 -4  TOSTRAIN    6    1
 -5  EXX         1    4    1    1
 -5  EYY         1    4    2    2
 -5  EZZ         1    4    3    3
 -5  EXY         1    4    1    2
 -5  EYZ         1    4    2    3
 -5  EZX         1    4    3    1
 -1         1-4.72926E-03-4.72926E-03 4.05365E-03-9.03086E-21-1.44541E-19 3.52338E-20
 -1         2-2.36463E-03-2.36463E-03 2.02683E-03-6.30123E-17-6.37452E-20-2.91067E-17
 -1         3-2.36463E-03-2.36463E-03 2.02683E-03 7.21581E-17 5.45627E-20 3.30696E-17
 -1         4-2.36463E-03-2.36463E-03 2.02683E-03 4.87743E-17 8.21090E-20 2.99378E-17
 -1         5-2.36463E-03-2.36463E-03 2.02683E-03-2.01647E-17 1.17368E-19-7.08546E-18
 -1         6-4.72926E-03-4.72926E-03 4.05365E-03 2.37918E-18 2.14541E-19-8.00409E-18
 -1         7-2.36463E-03-2.36463E-03 2.02683E-03-1.43328E-17 5.79001E-18 1.16176E-21
 -1         8-1.57642E-03-1.57642E-03 1.35122E-03-5.15604E-17-2.54116E-18 5.32175E-18
 -1         9-1.57642E-03-1.57642E-03 1.35122E-03 4.91941E-17-1.11088E-17-1.06239E-17
 -1        10-1.57642E-03-1.57642E-03 1.35122E-03 3.41839E-17 1.07740E-17-2.80985E-17
 -1        11-1.57642E-03-1.57642E-03 1.35122E-03-5.19264E-17 6.09030E-18 2.36258E-17
 -1        12-2.36463E-03-2.36463E-03 2.02683E-03-5.82407E-17 2.56261E-17 3.12408E-18
 -1        13-2.36463E-03-2.36463E-03 2.02683E-03 3.51955E-17 3.99837E-17 2.47815E-20
 -1        14-1.57642E-03-1.57642E-03 1.35122E-03 6.59241E-17 2.96082E-17 1.80407E-17
 -1        15-1.57642E-03-1.57642E-03 1.35122E-03-6.21366E-17 2.72836E-17 5.67187E-19
 -1        16-1.57642E-03-1.57642E-03 1.35122E-03-4.39311E-17 1.29784E-17 2.56954E-17
 -1        17-1.57642E-03-1.57642E-03 1.35122E-03 5.86697E-17 9.62203E-18-3.22134E-17
 -1        18-2.36463E-03-2.36463E-03 2.02683E-03 8.22780E-17-3.40232E-17-2.35232E-18
 -1        19-2.36463E-03-2.36463E-03 2.02683E-03 9.44765E-17 6.29295E-17-1.37298E-19
 -1        20-1.57642E-03-1.57642E-03 1.35122E-03 1.05445E-16 3.50011E-17-1.30245E-17
 -1        21-1.57642E-03-1.57642E-03 1.35122E-03-1.07542E-16 1.84805E-17 3.81264E-17
 -1        22-1.57642E-03-1.57642E-03 1.35122E-03-8.91891E-17 2.34695E-17 4.64371E-17
 -1        23-1.57642E-03-1.57642E-03 1.35122E-03 1.00561E-16 2.44392E-17-1.63358E-17
 -1        24-2.36463E-03-2.36463E-03 2.02683E-03 1.40218E-16-5.51721E-17 3.90523E-18
 -1        25-2.36463E-03-2.36463E-03 2.02683E-03-1.50777E-16-4.92483E-17 2.91482E-20
 -1        26-1.57642E-03-1.57642E-03 1.35122E-03-3.08529E-17 2.62845E-18 3.36831E-17
 -1        27-1.57642E-03-1.57642E-03 1.35122E-03 3.59868E-17 6.83069E-18-1.46606E-17
 -1        28-1.57642E-03-1.57642E-03 1.35122E-03 1.23410E-16-1.25714E-17 4.72678E-17
 -1        29-1.57642E-03-1.57642E-03 1.35122E-03-1.16357E-16-2.06696E-17-4.51438E-17
 -1        30-2.36463E-03-2.36463E-03 2.02683E-03-1.12401E-16 3.70408E-17-1.11467E-18
 -1        31-4.72926E-03-4.72926E-03 4.05365E-03-1.77381E-18-2.12409E-18 6.79739E-20
 -1        32-2.36463E-03-2.36463E-03 2.02683E-03 1.03611E-16 1.46453E-18-2.43970E-17
 -1        33-2.36463E-03-2.36463E-03 2.02683E-03-1.12501E-16 5.49018E-18 4.10405E-17
 -1        34-2.36463E-03-2.36463E-03 2.02683E-03 1.95022E-17 6.00114E-20 1.83296E-17
 -1        35-2.36463E-03-2.36463E-03 2.02683E-03-6.29670E-17 4.79485E-19-2.20170E-17
 -1        36-4.72926E-03-4.72926E-03 4.05365E-03 1.74596E-18 1.08764E-17 6.46631E-18
 -1        37-4.72926E-03-4.72926E-03 4.05365E-03 7.02482E-20 2.22896E-17 2.76545E-17
 -1        38-2.36463E-03-2.36463E-03 2.02683E-03-1.14009E-17 2.90739E-18-1.52971E-17
 -1        39-2.36463E-03-2.36463E-03 2.02683E-03 1.46762E-18-5.93820E-18 1.62371E-17
 -1        40-2.36463E-03-2.36463E-03 2.02683E-03-4.69448E-17 2.05626E-17 8.15333E-18
 -1        41-2.36463E-03-2.36463E-03 2.02683E-03 4.60484E-17 3.99807E-18 3.09575E-18
 -1        42-4.72926E-03-4.72926E-03 4.05365E-03-3.27057E-18-3.64936E-17 2.54043E-17
 -1        43-2.36463E-03-2.36463E-03 2.02683E-03-2.75250E-17 1.70071E-17 5.56483E-18
 -1        44-1.57642E-03-1.57642E-03 1.35122E-03-2.59740E-17-5.60400E-19 9.03087E-18
 -1        45-1.57642E-03-1.57642E-03 1.35122E-03 3.31158E-17-1.48338E-17-8.29454E-18
 -1        46-1.57642E-03-1.57642E-03 1.35122E-03 1.23295E-18 2.44404E-17-1.80436E-17
 -1        47-1.57642E-03-1.57642E-03 1.35122E-03 8.01978E-18 8.61766E-18 2.00953E-17
 -1        48-2.36463E-03-2.36463E-03 2.02683E-03-3.84807E-17 7.98953E-18-9.66580E-18
 -1        49-2.36463E-03-2.36463E-03 2.02683E-03 4.17764E-17-2.83844E-17-1.99565E-17
 -1        50-1.57642E-03-1.57642E-03 1.35122E-03 2.66638E-17-2.97157E-18 4.74494E-18
 -1        51-1.57642E-03-1.57642E-03 1.35122E-03-2.94130E-17 1.16559E-17-1.72657E-17
 -1        52-1.57642E-03-1.57642E-03 1.35122E-03-3.99785E-17-1.59288E-17 1.31115E-17
 -1        53-1.57642E-03-1.57642E-03 1.35122E-03 4.11476E-17 5.13382E-18-3.34529E-17
 -1        54-2.36463E-03-2.36463E-03 2.02683E-03 1.64614E-17 2.03949E-18-3.64230E-18
 -1        55-2.36463E-03-2.36463E-03 2.02683E-03 7.61313E-17 1.80262E-20-1.54873E-18
 -1        56-1.57642E-03-1.57642E-03 1.35122E-03 4.95671E-17 7.84296E-20-1.43142E-17
 -1        57-1.57642E-03-1.57642E-03 1.35122E-03-5.16873E-17 5.15103E-18 1.04524E-17
 -1        58-1.57642E-03-1.57642E-03 1.35122E-03-6.22924E-17-5.84519E-18 1.27048E-17
 -1        59-1.57642E-03-1.57642E-03 1.35122E-03 3.34834E-17 2.50255E-17 6.82491E-18
 -1        60-2.36463E-03-2.36463E-03 2.02683E-03 7.91879E-18-2.60717E-17 3.19266E-17
 -1        61-2.36463E-03-2.36463E-03 2.02683E-03-7.85682E-17-5.04293E-17-3.30740E-17
 -1        62-1.57642E-03-1.57642E-03 1.35122E-03-5.33510E-17 7.61516E-18 1.17986E-17
 -1        63-1.57642E-03-1.57642E-03 1.35122E-03 6.54263E-17 2.97177E-19-1.78019E-17
 -1        64-1.57642E-03-1.57642E-03 1.35122E-03 4.31499E-17-1.62682E-17 4.25369E-17
 -1        65-1.57642E-03-1.57642E-03 1.35122E-03-3.52977E-18-1.15705E-17-2.90439E-17
 -1        66-2.36463E-03-2.36463E-03 2.02683E-03-1.97936E-17 1.37853E-17 3.26693E-17
 -1        67-4.72926E-03-4.72926E-03 4.05365E-03-2.38053E-18 1.65826E-18-4.74580E-17
 -1        68-2.36463E-03-2.36463E-03 2.02683E-03-2.64857E-18 3.60645E-18-4.82340E-17
 -1        69-2.36463E-03-2.36463E-03 2.02683E-03-2.42574E-17-1.36152E-17 4.33016E-17
 -1        70-2.36463E-03-2.36463E-03 2.02683E-03-5.70839E-17-1.39471E-18 1.87669E-17
 -1        71-2.36463E-03-2.36463E-03 2.02683E-03 1.15124E-17 1.09289E-17-2.48457E-17
 -1        72-4.72926E-03-4.72926E-03 4.05365E-03-3.19692E-19-5.46460E-17-1.74883E-17
 -3
    1PSTEP                       316         106           1          
  100CL  206 9.12781E-01          72                     0  106           1
 -4  DISP        4    1
 -5  D1          1    2    1    0
 -5  D2          1    2    2    0
 -5  D3          1    2    3    0
 -5  ALL         1    2    0    0    1ALL
 -1         1 0.00000E+00 0.00000E+00 0.00000E+00
 -1         2-2.46032E+00 0.00000E+00 0.00000E+00
 -1         3-1.24616E+01 0.00000E+00 0.00000E+00
 -1         4-1.49219E+01 0.00000E+00 0.00000E+00
 -1         5-2.49231E+01 0.00000E+00 0.00000E+00
 -1         6-2.73834E+01 0.00000E+00 0.00000E+00
 -1         7 0.00000E+00-2.46032E+00 0.00000E+00
 -1         8-2.46032E+00-2.46032E+00 0.00000E+00
 -1         9-1.24616E+01-2.46032E+00 0.00000E+00
 -1        10-1.49219E+01-2.46032E+00 0.00000E+00
 -1        11-2.49231E+01-2.46032E+00 0.00000E+00
 -1        12-2.73834E+01-2.46032E+00 0.00000E+00
 -1        13 0.00000E+00-1.24616E+01 0.00000E+00
 -1        14-2.46032E+00-1.24616E+01 0.00000E+00
 -1        15-1.24616E+01-1.24616E+01 0.00000E+00
 -1        16-1.49219E+01-1.24616E+01 0.00000E+00
 -1        17-2.49231E+01-1.24616E+01 0.00000E+00
 -1        18-2.73834E+01-1.24616E+01 0.00000E+00
 -1        19 0.00000E+00-1.49219E+01 0.00000E+00
 -1        20-2.46032E+00-1.49219E+01 0.00000E+00
 -1        21-1.24616E+01-1.49219E+01 0.00000E+00
 -1        22-1.49219E+01-1.49219E+01 0.00000E+00
 -1        23-2.49231E+01-1.49219E+01 0.00000E+00
 -1        24-2.73834E+01-1.49219E+01 0.00000E+00
 -1        25 0.00000E+00-2.49231E+01 0.00000E+00
 -1        26-2.46032E+00-2.49231E+01 0.00000E+00
 -1        27-1.24616E+01-2.49231E+01 0.00000E+00
 -1        28-1.49219E+01-2.49231E+01 0.00000E+00
 -1        29-2.49231E+01-2.49231E+01 0.00000E+00
 -1        30-2.73834E+01-2.49231E+01 0.00000E+00
 -1        31 0.00000E+00-2.73834E+01 0.00000E+00
 -1        32-2.46032E+00-2.73834E+01 0.00000E+00
 -1        33-1.24616E+01-2.73834E+01 0.00000E+00
 -1        34-1.49219E+01-2.73834E+01 0.00000E+00
 -1        35-2.49231E+01-2.73834E+01 0.00000E+00
 -1        36-2.73834E+01-2.73834E+01 0.00000E+00
 -1        37 0.00000E+00 0.00000E+00 2.93895E+00
 -1        38-2.46032E+00 0.00000E+00 2.93895E+00
 -1        39-1.24616E+01 0.00000E+00 2.93895E+00
 -1        40-1.49219E+01 0.00000E+00 2.93895E+00
 -1        41-2.49231E+01 0.00000E+00 2.93895E+00
 -1        42-2.73834E+01 0.00000E+00 2.93895E+00
 -1        43 0.00000E+00-2.46032E+00 2.93895E+00
 -1        44-2.46032E+00-2.46032E+00 2.93895E+00
 -1        45-1.24616E+01-2.46032E+00 2.93895E+00
 -1        46-1.49219E+01-2.46032E+00 2.93895E+00
 -1        47-2.49231E+01-2.46032E+00 2.93895E+00
 -1        48-2.73834E+01-2.46032E+00 2.93895E+00
 -1        49 0.00000E+00-1.24616E+01 2.93895E+00
 -1        50-2.46032E+00-1.24616E+01 2.93895E+00
 -1        51-1.24616E+01-1.24616E+01 2.93895E+00
 -1        52-1.49219E+01-1.24616E+01 2.93895E+00
 -1        53-2.49231E+01-1.24616E+01 2.93895E+00
 -1        54-2.73834E+01-1.24616E+01 2.93895E+00
 -1        55 0.00000E+00-1.49219E+01 2.93895E+00
 -1        56-2.46032E+00-1.49219E+01 2.93895E+00
 -1        57-1.24616E+01-1.49219E+01 2.93895E+00
 -1        58-1.49219E+01-1.49219E+01 2.93895E+00
 -1        59-2.49231E+01-1.49219E+01 2.93895E+00
 -1        60-2.73834E+01-1.49219E+01 2.93895E+00
 -1        61 0.00000E+00-2.49231E+01 2.93895E+00
 -1        62-2.46032E+00-2.49231E+01 2.93895E+00
 -1        63-1.24616E+01-2.49231E+01 2.93895E+00
 -1        64-1.49219E+01-2.49231E+01 2.93895E+00
 -1        65-2.49231E+01-2.49231E+01 2.93895E+00
 -1        66-2.73834E+01-2.49231E+01 2.93895E+00
 -1        67 0.00000E+00-2.73834E+01 2.93895E+00
 -1        68-2.46032E+00-2.73834E+01 2.93895E+00
 -1        69-1.24616E+01-2.73834E+01 2.93895E+00
 -1        70-1.49219E+01-2.73834E+01 2.93895E+00
 -1        71-2.49231E+01-2.73834E+01 2.93895E+00
 -1        72-2.73834E+01-2.73834E+01 2.93895E+00
 -3
    1PSTEP                       317         106           1          
  100CL  206 9.12781E-01          72                     0  106           1
 -4  STRESS      6    1
 -5  SXX         1    4    1    1
 -5  SYY         1    4    2    2
 -5  SZZ         1    4    3    3
 -5  SXY         1    4    1    2
 -5  SYZ         1    4    2    3
 -5  SZX         1    4    3    1
 -1         1-1.46635E+03-1.46635E+03 2.57717E-10 2.62611E-14 1.41469E-15-3.44187E-14
 -1         2-7.33173E+02-7.33173E+02 1.32897E-10-6.54606E-12 3.37482E-16-2.36986E-12
 -1         3-7.33173E+02-7.33173E+02 1.27758E-10 3.95338E-12-4.79781E-15 2.52922E-12
 -1         4-7.33173E+02-7.33173E+02 1.30100E-10 2.09418E-12 1.93113E-14 1.77193E-12
 -1         5-7.33173E+02-7.33173E+02 1.33099E-10-7.04135E-13 2.27016E-14 1.27397E-12
 -1         6-1.46635E+03-1.46635E+03 2.41317E-10-5.02231E-13-4.38905E-14-1.18125E-12
 -1         7-7.33173E+02-7.33173E+02 1.15274E-10 1.21125E-12 6.18510E-12 2.55952E-14
 -1         8-4.88782E+02-4.88782E+02 8.20780E-11-3.56530E-12 1.03822E-12-1.40250E-12
 -1         9-4.88782E+02-4.88782E+02 8.11853E-11 6.32922E-12 3.86406E-13 8.65429E-13
 -1        10-4.88782E+02-4.88782E+02 8.36686E-11 5.28093E-12 4.15721E-12-2.58667E-12
 -1        11-4.88782E+02-4.88782E+02 8.86002E-11-7.54698E-12 1.49218E-12 2.91635E-12
 -1        12-7.33173E+02-7.33173E+02 1.12344E-10-1.02442E-11 6.93860E-12 2.37952E-13
 -1        13-7.33173E+02-7.33173E+02 1.10130E-10 2.85290E-12 1.74895E-12 3.06786E-15
 -1        14-4.88782E+02-4.88782E+02 9.08444E-11 8.99276E-12 5.16887E-12 3.22697E-12
 -1        15-4.88782E+02-4.88782E+02 8.97528E-11-1.20785E-11 3.95321E-12-8.20765E-13
 -1        16-4.88782E+02-4.88782E+02 7.04052E-11-5.23025E-12 1.15728E-12 5.40707E-12
 -1        17-4.88782E+02-4.88782E+02 7.83451E-11 9.60407E-12 1.48274E-15-3.94553E-12
 -1        18-7.33173E+02-7.33173E+02 1.19759E-10 1.09776E-11-6.95256E-12-2.85485E-13
 -1        19-7.33173E+02-7.33173E+02 9.33929E-11 2.67770E-11 2.04427E-11-8.90366E-15
 -1        20-4.88782E+02-4.88782E+02 9.10076E-11 2.49422E-11 3.11559E-12-4.28685E-12
 -1        21-4.88782E+02-4.88782E+02 9.26618E-11-2.12075E-11 2.48402E-12 7.04349E-12
 -1        22-4.88782E+02-4.88782E+02 6.63347E-11-1.46568E-11 9.23368E-12 2.97195E-12
 -1        23-4.88782E+02-4.88782E+02 7.88798E-11 1.00292E-11 7.35646E-13 6.93410E-14
 -1        24-7.33173E+02-7.33173E+02 1.22510E-10 1.21637E-11-6.46354E-13 4.40955E-13
 -1        25-7.33173E+02-7.33173E+02 7.99618E-11-3.51602E-11-1.89767E-11 1.11457E-14
 -1        26-4.88782E+02-4.88782E+02 8.32530E-11-1.52257E-11 2.06656E-12 5.30529E-12
 -1        27-4.88782E+02-4.88782E+02 8.75168E-11 1.24671E-11 9.69624E-13-2.36601E-12
 -1        28-4.88782E+02-4.88782E+02 5.32589E-11 1.83968E-11-8.32286E-12 5.43224E-12
 -1        29-4.88782E+02-4.88782E+02 6.73149E-11-1.03330E-11-2.41382E-13-8.78741E-12
 -1        30-7.33173E+02-7.33173E+02 1.22328E-10-1.06542E-11-3.94376E-12 2.94372E-13
 -1        31-1.46635E+03-1.46635E+03 2.21115E-10 5.80745E-13 7.72218E-13-3.71088E-14
 -1        32-7.33173E+02-7.33173E+02 1.47174E-10 1.26120E-11 4.74738E-13-2.74920E-12
 -1        33-7.33173E+02-7.33173E+02 1.46052E-10-1.31384E-11 4.63811E-13 3.30165E-12
 -1        34-7.33173E+02-7.33173E+02 1.06712E-10-4.24643E-12-1.29069E-14 1.88239E-12
 -1        35-7.33173E+02-7.33173E+02 1.16150E-10-5.34819E-12 1.45925E-13 3.69387E-14
 -1        36-1.46635E+03-1.46635E+03 2.64010E-10 2.30826E-13 5.47638E-13 2.26343E-13
 -1        37-1.46635E+03-1.46635E+03 2.74192E-10-2.94540E-14-2.79814E-12 1.81291E-12
 -1        38-7.33173E+02-7.33173E+02 1.31449E-10-6.23535E-12-2.00293E-14-1.44620E-12
 -1        39-7.33173E+02-7.33173E+02 1.27101E-10 1.68086E-12-9.18618E-13 2.93579E-13
 -1        40-7.33173E+02-7.33173E+02 1.41548E-10-5.81983E-12-6.24197E-13-7.46941E-13
 -1        41-7.33173E+02-7.33173E+02 1.36108E-10 3.28437E-12-6.73959E-13 2.44043E-12
 -1        42-1.46635E+03-1.46635E+03 2.65002E-10-6.88055E-14-6.55214E-12 2.59742E-12
 -1        43-7.33173E+02-7.33173E+02 1.23511E-10-5.10580E-12 4.85710E-12 2.17928E-12
 -1        44-4.88782E+02-4.88782E+02 8.11130E-11-7.55095E-12 1.01182E-12 3.32858E-14
 -1        45-4.88782E+02-4.88782E+02 7.47514E-11 1.03992E-11-2.29203E-13-6.00980E-13
 -1        46-4.88782E+02-4.88782E+02 8.53054E-11 5.08828E-12 3.75208E-12-4.13573E-12
 -1        47-4.88782E+02-4.88782E+02 8.49656E-11-5.52220E-13 1.05163E-12 2.03407E-12
 -1        48-7.33173E+02-7.33173E+02 1.18121E-10-4.05492E-12 3.48856E-12-1.54564E-12
 -1        49-7.33173E+02-7.33173E+02 1.58578E-10 1.01718E-11-1.08404E-11-4.71116E-12
 -1        50-4.88782E+02-4.88782E+02 9.38807E-11 3.64663E-12 8.90679E-13 9.61148E-14
 -1        51-4.88782E+02-4.88782E+02 9.86857E-11-5.67707E-12 1.21611E-12-2.69373E-12
 -1        52-4.88782E+02-4.88782E+02 1.01182E-10-1.30441E-11-4.68838E-12 3.41025E-12
 -1        53-4.88782E+02-4.88782E+02 8.79971E-11 8.22719E-12 1.93834E-12-3.51087E-12
 -1        54-7.33173E+02-7.33173E+02 1.45179E-10 1.02835E-12-3.33621E-12-2.79443E-13
 -1        55-7.33173E+02-7.33173E+02 1.19392E-10 6.75438E-12 7.29326E-12 1.71162E-12
 -1        56-4.88782E+02-4.88782E+02 7.78801E-11 1.36836E-12-9.29310E-13-3.14304E-12
 -1        57-4.88782E+02-4.88782E+02 7.98575E-11-9.81378E-13-3.83862E-13 2.48537E-12
 -1        58-4.88782E+02-4.88782E+02 7.45758E-11-8.52791E-12 3.37886E-12-1.95270E-12
 -1        59-4.88782E+02-4.88782E+02 8.08380E-11 1.33278E-11 2.38111E-12 5.84380E-13
 -1        60-7.33173E+02-7.33173E+02 1.36988E-10 9.05075E-12 2.86083E-12 1.38659E-12
 -1        61-7.33173E+02-7.33173E+02 1.36790E-10-3.96304E-12-1.42356E-11-3.24950E-12
 -1        62-4.88782E+02-4.88782E+02 8.95476E-11-4.16963E-12 3.08684E-12 3.14136E-12
 -1        63-4.88782E+02-4.88782E+02 1.01296E-10 6.10446E-12 1.47777E-12-2.72650E-12
 -1        64-4.88782E+02-4.88782E+02 8.79824E-11-5.90661E-13-4.60986E-12 5.20683E-12
 -1        65-4.88782E+02-4.88782E+02 8.47417E-11-2.49009E-12 2.29018E-12-7.27416E-12
 -1        66-7.33173E+02-7.33173E+02 1.58186E-10-1.65162E-11-4.21276E-12 2.40543E-12
 -1        67-1.46635E+03-1.46635E+03 2.90497E-10 1.29457E-14 8.99486E-12-1.35834E-11
 -1        68-7.33173E+02-7.33173E+02 1.34479E-10-2.28493E-12 8.74836E-13-9.59290E-12
 -1        69-7.33173E+02-7.33173E+02 1.38300E-10-3.29031E-12 4.23053E-13 7.37933E-12
 -1        70-7.33173E+02-7.33173E+02 1.27381E-10-1.32027E-11 5.07255E-12 4.70663E-12
 -1        71-7.33173E+02-7.33173E+02 1.16037E-10 1.19917E-11 2.56958E-12-1.96421E-16
 -1        72-1.46635E+03-1.46635E+03 2.79627E-10-8.73328E-13 1.31235E-12-1.89464E-12
 -3
    1PSTEP                       318         106           1          
  100CL  206 9.12781E-01          72                     0  106           1
 -4  TOSTRAIN    6    1
 -5  EXX         1    4    1    1
 -5  EYY         1    4    2    2
 -5  EZZ         1    4    3    3
 -5  EXY         1    4    1    2
 -5  EYZ         1    4    2    3
 -5  EZX         1    4    3    1
 -1         1-4.90834E-03-4.90834E-03 4.20715E-03 1.66314E-19 8.43531E-21-2.14926E-19
 -1         2-2.45417E-03-2.45417E-03 2.10357E-03-4.14567E-17 1.30088E-21-1.45998E-17
 -1         3-2.45417E-03-2.45417E-03 2.10357E-03 2.50370E-17-2.99691E-20 1.55802E-17
 -1         4-2.45417E-03-2.45417E-03 2.10357E-03 1.32626E-17 1.19876E-19 1.09153E-17
 -1         5-2.45417E-03-2.45417E-03 2.10357E-03-4.45934E-18 1.42049E-19 7.84714E-18
 -1         6-4.90834E-03-4.90834E-03 4.20715E-03-3.18066E-18-2.73940E-19-7.27761E-18
 -1         7-2.45417E-03-2.45417E-03 2.10357E-03 7.67091E-18 3.81002E-17 1.60400E-19
 -1         8-1.63611E-03-1.63611E-03 1.40238E-03-2.25793E-17 6.39494E-18-8.63761E-18
 -1         9-1.63611E-03-1.63611E-03 1.40238E-03 4.00834E-17 2.38013E-18 5.33154E-18
 -1        10-1.63611E-03-1.63611E-03 1.40238E-03 3.34445E-17 2.56086E-17-1.59335E-17
 -1        11-1.63611E-03-1.63611E-03 1.40238E-03-4.77956E-17 9.19298E-18 1.79653E-17
 -1        12-2.45417E-03-2.45417E-03 2.10357E-03-6.48770E-17 4.27419E-17 1.46655E-18
 -1        13-2.45417E-03-2.45417E-03 2.10357E-03 1.80676E-17 1.07734E-17 1.86764E-20
 -1        14-1.63611E-03-1.63611E-03 1.40238E-03 5.69518E-17 3.18406E-17 1.98780E-17
 -1        15-1.63611E-03-1.63611E-03 1.40238E-03-7.64939E-17 2.43537E-17-5.05529E-18
 -1        16-1.63611E-03-1.63611E-03 1.40238E-03-3.31236E-17 7.12824E-18 3.33083E-17
 -1        17-1.63611E-03-1.63611E-03 1.40238E-03 6.08233E-17 7.07254E-21-2.43055E-17
 -1        18-2.45417E-03-2.45417E-03 2.10357E-03 6.95222E-17-4.28227E-17-1.76001E-18
 -1        19-2.45417E-03-2.45417E-03 2.10357E-03 1.69581E-16 1.25927E-16-5.57618E-20
 -1        20-1.63611E-03-1.63611E-03 1.40238E-03 1.57961E-16 1.91923E-17-2.64077E-17
 -1        21-1.63611E-03-1.63611E-03 1.40238E-03-1.34308E-16 1.53033E-17 4.33880E-17
 -1        22-1.63611E-03-1.63611E-03 1.40238E-03-9.28223E-17 5.68796E-17 1.83072E-17
 -1        23-1.63611E-03-1.63611E-03 1.40238E-03 6.35154E-17 4.53098E-18 4.29045E-19
 -1        24-2.45417E-03-2.45417E-03 2.10357E-03 7.70339E-17-3.98444E-18 2.71914E-18
 -1        25-2.45417E-03-2.45417E-03 2.10357E-03-2.22672E-16-1.16897E-16 6.94646E-20
 -1        26-1.63611E-03-1.63611E-03 1.40238E-03-9.64257E-17 1.27298E-17 3.26812E-17
 -1        27-1.63611E-03-1.63611E-03 1.40238E-03 7.89553E-17 5.97412E-18-1.45757E-17
 -1        28-1.63611E-03-1.63611E-03 1.40238E-03 1.16508E-16-5.12704E-17 3.34617E-17
 -1        29-1.63611E-03-1.63611E-03 1.40238E-03-6.54397E-17-1.48818E-18-5.41308E-17
 -1        30-2.45417E-03-2.45417E-03 2.10357E-03-6.74738E-17-2.42926E-17 1.81299E-18
 -1        31-4.90834E-03-4.90834E-03 4.20715E-03 3.67790E-18 4.75549E-18-2.31141E-19
 -1        32-2.45417E-03-2.45417E-03 2.10357E-03 7.98727E-17 2.92403E-18-1.69364E-17
 -1        33-2.45417E-03-2.45417E-03 2.10357E-03-8.32064E-17 2.85868E-18 2.03377E-17
 -1        34-2.45417E-03-2.45417E-03 2.10357E-03-2.68930E-17-8.08048E-20 1.15951E-17
 -1        35-2.45417E-03-2.45417E-03 2.10357E-03-3.38705E-17 8.96585E-19 2.29217E-19
 -1        36-4.90834E-03-4.90834E-03 4.20715E-03 1.46184E-18 3.37864E-18 1.39763E-18
 -1        37-4.90834E-03-4.90834E-03 4.20715E-03-1.86535E-19-1.75509E-17 1.13742E-17
 -1        38-2.45417E-03-2.45417E-03 2.10357E-03-3.94889E-17-1.26930E-19-8.80528E-18
 -1        39-2.45417E-03-2.45417E-03 2.10357E-03 1.06450E-17-5.76277E-18 1.54324E-18
 -1        40-2.45417E-03-2.45417E-03 2.10357E-03-3.68574E-17-3.91707E-18-4.86638E-18
 -1        41-2.45417E-03-2.45417E-03 2.10357E-03 2.08002E-17-4.22913E-18 1.51822E-17
 -1        42-4.90834E-03-4.90834E-03 4.20715E-03-4.35750E-19-4.11088E-17 1.62983E-17
 -1        43-2.45417E-03-2.45417E-03 2.10357E-03-3.23354E-17 2.97626E-17 1.36714E-17
 -1        44-1.63611E-03-1.63611E-03 1.40238E-03-4.78207E-17 6.23048E-18 3.69712E-19
 -1        45-1.63611E-03-1.63611E-03 1.40238E-03 6.58586E-17-1.48132E-18-3.85734E-18
 -1        46-1.63611E-03-1.63611E-03 1.40238E-03 3.22244E-17 2.30650E-17-2.56315E-17
 -1        47-1.63611E-03-1.63611E-03 1.40238E-03-3.49725E-18 6.42856E-18 1.24230E-17
 -1        48-2.45417E-03-2.45417E-03 2.10357E-03-2.56801E-17 2.11036E-17-9.68154E-18
 -1        49-2.45417E-03-2.45417E-03 2.10357E-03 6.44187E-17-6.82163E-17-2.95553E-17
 -1        50-1.63611E-03-1.63611E-03 1.40238E-03 2.30944E-17 5.01263E-18 2.35746E-19
 -1        51-1.63611E-03-1.63611E-03 1.40238E-03-3.59533E-17 7.16619E-18-1.68048E-17
 -1        52-1.63611E-03-1.63611E-03 1.40238E-03-8.26094E-17-2.95271E-17 2.07958E-17
 -1        53-1.63611E-03-1.63611E-03 1.40238E-03 5.21034E-17 1.21344E-17-2.15899E-17
 -1        54-2.45417E-03-2.45417E-03 2.10357E-03 6.51264E-18-2.01606E-17-1.66567E-18
 -1        55-2.45417E-03-2.45417E-03 2.10357E-03 4.27760E-17 4.34874E-17 1.07377E-17
 -1        56-1.63611E-03-1.63611E-03 1.40238E-03 8.66594E-18-6.19853E-18-1.92318E-17
 -1        57-1.63611E-03-1.63611E-03 1.40238E-03-6.21514E-18-2.68909E-18 1.47716E-17
 -1        58-1.63611E-03-1.63611E-03 1.40238E-03-5.40079E-17 2.01650E-17-1.25670E-17
 -1        59-1.63611E-03-1.63611E-03 1.40238E-03 8.44061E-17 1.48599E-17 3.70965E-18
 -1        60-2.45417E-03-2.45417E-03 2.10357E-03 5.73191E-17 1.80243E-17 8.70623E-18
 -1        61-2.45417E-03-2.45417E-03 2.10357E-03-2.50982E-17-8.71555E-17-2.03847E-17
 -1        62-1.63611E-03-1.63611E-03 1.40238E-03-2.64066E-17 1.90998E-17 1.91056E-17
 -1        63-1.63611E-03-1.63611E-03 1.40238E-03 3.86600E-17 9.16529E-18-1.68274E-17
 -1        64-1.63611E-03-1.63611E-03 1.40238E-03-3.74070E-18-2.80235E-17 3.20420E-17
 -1        65-1.63611E-03-1.63611E-03 1.40238E-03-1.57699E-17 1.43363E-17-4.46396E-17
 -1        66-2.45417E-03-2.45417E-03 2.10357E-03-1.04599E-16-2.59304E-17 1.50715E-17
 -1        67-4.90834E-03-4.90834E-03 4.20715E-03 8.19859E-20 5.64800E-17-8.52166E-17
 -1        68-2.45417E-03-2.45417E-03 2.10357E-03-1.44706E-17 5.51616E-18-5.98638E-17
 -1        69-2.45417E-03-2.45417E-03 2.10357E-03-2.08378E-17 2.70018E-18 4.58687E-17
 -1        70-2.45417E-03-2.45417E-03 2.10357E-03-8.36139E-17 3.18037E-17 2.94048E-17
 -1        71-2.45417E-03-2.45417E-03 2.10357E-03 7.59444E-17 1.61719E-17-6.33571E-20
 -1        72-4.90834E-03-4.90834E-03 4.20715E-03-5.53085E-18 8.12382E-18-1.17953E-17
 -3
    1PSTEP                       319         107           1          
  100CL  207 9.21781E-01          72                     0  107           1
 -4  DISP        4    1
 -5  D1          1    2    1    0
 -5  D2          1    2    2    0
 -5  D3          1    2    3    0
 -5  ALL         1    2    0    0    1ALL
 -1         1 0.00000E+00 0.00000E+00 0.00000E+00
 -1         2-2.55031E+00 0.00000E+00 0.00000E+00
 -1         3-1.25516E+01 0.00000E+00 0.00000E+00
 -1         4-1.51019E+01 0.00000E+00 0.00000E+00
 -1         5-2.51031E+01 0.00000E+00 0.00000E+00
 -1         6-2.76534E+01 0.00000E+00 0.00000E+00
 -1         7 0.00000E+00-2.55031E+00 0.00000E+00
 -1         8-2.55031E+00-2.55031E+00 0.00000E+00
 -1         9-1.25516E+01-2.55031E+00 0.00000E+00
 -1        10-1.51019E+01-2.55031E+00 0.00000E+00
 -1        11-2.51031E+01-2.55031E+00 0.00000E+00
 -1        12-2.76534E+01-2.55031E+00 0.00000E+00
 -1        13 0.00000E+00-1.25516E+01 0.00000E+00
 -1        14-2.55031E+00-1.25516E+01 0.00000E+00
 -1        15-1.25516E+01-1.25516E+01 0.00000E+00
 -1        16-1.51019E+01-1.25516E+01 0.00000E+00
 -1        17-2.51031E+01-1.25516E+01 0.00000E+00
 -1        18-2.76534E+01-1.25516E+01 0.00000E+00
 -1        19 0.00000E+00-1.51019E+01 0.00000E+00
 -1        20-2.55031E+00-1.51019E+01 0.00000E+00
 -1        21-1.25516E+01-1.51019E+01 0.00000E+00
 -1        22-1.51019E+01-1.51019E+01 0.00000E+00
 -1        23-2.51031E+01-1.51019E+01 0.00000E+00
 -1        24-2.76534E+01-1.51019E+01 0.00000E+00
 -1        25 0.00000E+00-2.51031E+01 0.00000E+00
 -1        26-2.55031E+00-2.51031E+01 0.00000E+00
 -1        27-1.25516E+01-2.51031E+01 0.00000E+00
 -1        28-1.51019E+01-2.51031E+01 0.00000E+00
 -1        29-2.51031E+01-2.51031E+01 0.00000E+00
 -1        30-2.76534E+01-2.51031E+01 0.00000E+00
 -1        31 0.00000E+00-2.76534E+01 0.00000E+00
 -1        32-2.55031E+00-2.76534E+01 0.00000E+00
 -1        33-1.25516E+01-2.76534E+01 0.00000E+00
 -1        34-1.51019E+01-2.76534E+01 0.00000E+00
 -1        35-2.51031E+01-2.76534E+01 0.00000E+00
 -1        36-2.76534E+01-2.76534E+01 0.00000E+00
 -1        37 0.00000E+00 0.00000E+00 3.04593E+00
 -1        38-2.55031E+00 0.00000E+00 3.04593E+00
 -1        39-1.25516E+01 0.00000E+00 3.04593E+00
 -1        40-1.51019E+01 0.00000E+00 3.04593E+00
 -1        41-2.51031E+01 0.00000E+00 3.04593E+00
 -1        42-2.76534E+01 0.00000E+00 3.04593E+00
 -1        43 0.00000E+00-2.55031E+00 3.04593E+00
 -1        44-2.55031E+00-2.55031E+00 3.04593E+00
 -1        45-1.25516E+01-2.55031E+00 3.04593E+00
 -1        46-1.51019E+01-2.55031E+00 3.04593E+00
 -1        47-2.51031E+01-2.55031E+00 3.04593E+00
 -1        48-2.76534E+01-2.55031E+00 3.04593E+00
 -1        49 0.00000E+00-1.25516E+01 3.04593E+00
 -1        50-2.55031E+00-1.25516E+01 3.04593E+00
 -1        51-1.25516E+01-1.25516E+01 3.04593E+00
 -1        52-1.51019E+01-1.25516E+01 3.04593E+00
 -1        53-2.51031E+01-1.25516E+01 3.04593E+00
 -1        54-2.76534E+01-1.25516E+01 3.04593E+00
 -1        55 0.00000E+00-1.51019E+01 3.04593E+00
 -1        56-2.55031E+00-1.51019E+01 3.04593E+00
 -1        57-1.25516E+01-1.51019E+01 3.04593E+00
 -1        58-1.51019E+01-1.51019E+01 3.04593E+00
 -1        59-2.51031E+01-1.51019E+01 3.04593E+00
 -1        60-2.76534E+01-1.51019E+01 3.04593E+00
 -1        61 0.00000E+00-2.51031E+01 3.04593E+00
 -1        62-2.55031E+00-2.51031E+01 3.04593E+00
 -1        63-1.25516E+01-2.51031E+01 3.04593E+00
 -1        64-1.51019E+01-2.51031E+01 3.04593E+00
 -1        65-2.51031E+01-2.51031E+01 3.04593E+00
 -1        66-2.76534E+01-2.51031E+01 3.04593E+00
 -1        67 0.00000E+00-2.76534E+01 3.04593E+00
 -1        68-2.55031E+00-2.76534E+01 3.04593E+00
 -1        69-1.25516E+01-2.76534E+01 3.04593E+00
 -1        70-1.51019E+01-2.76534E+01 3.04593E+00
 -1        71-2.51031E+01-2.76534E+01 3.04593E+00
 -1        72-2.76534E+01-2.76534E+01 3.04593E+00
 -3
    1PSTEP                       320         107           1          
  100CL  207 9.21781E-01          72                     0  107           1
 -4  STRESS      6    1
 -5  SXX         1    4    1    1
 -5  SYY         1    4    2    2
 -5  SZZ         1    4    3    3
 -5  SXY         1    4    1    2
 -5  SYZ         1    4    2    3
 -5  SZX         1    4    3    1
 -1         1-1.51961E+03-1.51961E+03 2.39763E-10-3.39932E-16-3.59676E-14-3.42360E-14
 -1         2-7.59804E+02-7.59804E+02 1.26147E-10-9.56508E-12 2.56800E-16-3.48302E-12
 -1         3-7.59804E+02-7.59804E+02 1.20049E-10 5.36532E-12 5.12929E-15 5.16023E-12
 -1         4-7.59804E+02-7.59804E+02 1.18328E-10 4.84250E-13 3.32891E-15 4.02630E-12
 -1         5-7.59804E+02-7.59804E+02 1.24756E-10 1.32838E-12 1.67805E-14 4.41977E-13
 -1         6-1.51961E+03-1.51961E+03 2.17308E-10 4.65189E-13-8.00286E-15 1.71410E-12
 -1         7-7.59804E+02-7.59804E+02 1.09314E-10 1.32900E-12 1.50329E-12 1.11784E-14
 -1         8-5.06536E+02-5.06536E+02 7.72606E-11-5.49060E-12-1.18988E-12-1.40557E-12
 -1         9-5.06536E+02-5.06536E+02 7.34868E-11 8.96176E-12 9.75538E-13 2.54338E-12
 -1        10-5.06536E+02-5.06536E+02 7.61995E-11 5.79903E-12 2.60742E-12-2.13361E-12
 -1        11-5.06536E+02-5.06536E+02 8.28954E-11-7.75571E-12-1.34294E-13 3.45792E-12
 -1        12-7.59804E+02-7.59804E+02 9.95900E-11-1.29983E-11 6.49981E-12 4.03767E-13
 -1        13-7.59804E+02-7.59804E+02 1.04853E-10 2.49221E-12 4.40594E-12 1.98126E-14
 -1        14-5.06536E+02-5.06536E+02 8.18799E-11 8.78438E-12 6.52474E-12 5.45681E-12
 -1        15-5.06536E+02-5.06536E+02 7.85573E-11-1.29784E-11 4.10180E-12-2.50228E-12
 -1        16-5.06536E+02-5.06536E+02 6.77433E-11-6.43669E-12 2.78381E-12 4.33113E-12
 -1        17-5.06536E+02-5.06536E+02 7.41452E-11 9.62159E-12 2.78531E-12-3.77389E-12
 -1        18-7.59804E+02-7.59804E+02 1.08716E-10 1.38455E-11-4.77261E-12-3.36992E-13
 -1        19-7.59804E+02-7.59804E+02 8.96570E-11 2.36532E-11 1.58612E-11-3.75075E-15
 -1        20-5.06536E+02-5.06536E+02 8.42302E-11 2.28948E-11 1.78233E-12-3.71994E-12
 -1        21-5.06536E+02-5.06536E+02 8.03295E-11-1.86598E-11 4.53305E-12 6.99946E-12
 -1        22-5.06536E+02-5.06536E+02 6.13563E-11-1.20268E-11 9.07296E-12 1.80500E-12
 -1        23-5.06536E+02-5.06536E+02 7.21934E-11 8.15906E-12 1.79126E-12 2.47544E-13
 -1        24-7.59804E+02-7.59804E+02 1.06573E-10 1.17662E-11 2.71091E-12 6.61838E-13
 -1        25-7.59804E+02-7.59804E+02 7.66529E-11-3.06383E-11-1.50556E-11-4.93444E-15
 -1        26-5.06536E+02-5.06536E+02 7.73960E-11-1.11698E-11 5.27536E-12 6.22896E-12
 -1        27-5.06536E+02-5.06536E+02 7.54640E-11 7.60352E-12-1.10977E-12-9.72786E-14
 -1        28-5.06536E+02-5.06536E+02 4.25975E-11 1.81388E-11-6.36172E-12 9.84304E-12
 -1        29-5.06536E+02-5.06536E+02 5.75866E-11-1.25983E-11 1.68705E-12-1.05059E-11
 -1        30-7.59804E+02-7.59804E+02 1.03993E-10-7.32399E-12-6.42921E-12 9.43701E-13
 -1        31-1.51961E+03-1.51961E+03 2.06893E-10-2.48609E-13 2.11127E-12 2.49539E-14
 -1        32-7.59804E+02-7.59804E+02 1.36532E-10 1.37593E-11-2.43675E-13-4.25138E-12
 -1        33-7.59804E+02-7.59804E+02 1.38106E-10-1.13113E-11 8.42168E-13 8.34938E-12
 -1        34-7.59804E+02-7.59804E+02 9.94412E-11 4.07075E-12-2.29505E-13 2.52102E-12
 -1        35-7.59804E+02-7.59804E+02 1.08808E-10-1.12355E-11-4.49945E-13 1.81162E-12
 -1        36-1.51961E+03-1.51961E+03 2.43220E-10 1.36330E-12 1.18115E-12-1.01962E-12
 -1        37-1.51961E+03-1.51961E+03 2.31582E-10-2.42823E-14 3.08259E-12 2.80205E-12
 -1        38-7.59804E+02-7.59804E+02 1.14409E-10-7.75508E-12 2.05427E-12-2.06488E-12
 -1        39-7.59804E+02-7.59804E+02 1.20093E-10 2.93602E-12-5.99620E-13-1.79421E-14
 -1        40-7.59804E+02-7.59804E+02 1.23817E-10-8.26632E-12 9.99093E-13-1.64793E-12
 -1        41-7.59804E+02-7.59804E+02 1.21768E-10 6.62526E-12 8.18221E-13 3.29835E-12
 -1        42-1.51961E+03-1.51961E+03 2.41094E-10 4.06508E-15-5.09981E-12 8.13474E-13
 -1        43-7.59804E+02-7.59804E+02 1.07266E-10-3.12460E-12 2.99080E-12 1.91726E-12
 -1        44-5.06536E+02-5.06536E+02 7.19957E-11-7.24503E-12 1.92279E-13-1.34845E-13
 -1        45-5.06536E+02-5.06536E+02 6.67640E-11 9.50333E-12 6.20416E-13-4.52171E-14
 -1        46-5.06536E+02-5.06536E+02 7.23071E-11 2.09695E-12 3.25771E-12-4.23388E-12
 -1        47-5.06536E+02-5.06536E+02 7.53665E-11 1.88431E-12 4.26364E-13 2.04458E-12
 -1        48-7.59804E+02-7.59804E+02 1.03177E-10-4.24255E-12 4.05495E-12-5.63745E-13
 -1        49-7.59804E+02-7.59804E+02 1.45826E-10 9.77784E-12-7.43721E-12-5.59317E-12
 -1        50-5.06536E+02-5.06536E+02 8.31479E-11 1.13652E-12 2.94043E-12 1.75947E-12
 -1        51-5.06536E+02-5.06536E+02 9.37905E-11-1.90180E-12 6.33650E-13-3.58849E-12
 -1        52-5.06536E+02-5.06536E+02 9.55809E-11-1.18951E-11-3.75524E-12 3.60807E-12
 -1        53-5.06536E+02-5.06536E+02 7.89073E-11 7.53951E-12 2.42935E-12-3.98891E-12
 -1        54-7.59804E+02-7.59804E+02 1.37061E-10 7.28276E-13-4.65107E-12 6.12123E-13
 -1        55-7.59804E+02-7.59804E+02 1.01941E-10 4.86807E-12 4.27215E-12 1.41089E-12
 -1        56-5.06536E+02-5.06536E+02 6.51733E-11-2.14828E-12-2.10274E-12-2.77771E-12
 -1        57-5.06536E+02-5.06536E+02 6.94083E-11 8.97886E-13 1.26584E-12 3.07010E-12
 -1        58-5.06536E+02-5.06536E+02 6.34391E-11-9.03358E-12 2.44697E-12-2.44372E-12
 -1        59-5.06536E+02-5.06536E+02 6.84811E-11 1.52238E-11 1.35851E-12 1.39373E-12
 -1        60-7.59804E+02-7.59804E+02 1.23406E-10 1.35186E-11 3.01368E-12-6.24400E-13
 -1        61-7.59804E+02-7.59804E+02 1.26642E-10-3.52231E-13-1.26399E-11-3.17011E-12
 -1        62-5.06536E+02-5.06536E+02 7.99533E-11-3.31907E-12 4.82112E-12 4.13806E-12
 -1        63-5.06536E+02-5.06536E+02 9.71965E-11 6.94362E-12-3.97258E-14-4.00789E-12
 -1        64-5.06536E+02-5.06536E+02 7.74185E-11-1.12984E-12-4.26332E-12 6.09131E-12
 -1        65-5.06536E+02-5.06536E+02 7.66112E-11-3.27917E-12 2.81749E-12-8.99600E-12
 -1        66-7.59804E+02-7.59804E+02 1.49867E-10-1.89877E-11-6.10927E-12 2.31136E-12
 -1        67-1.51961E+03-1.51961E+03 2.49171E-10 2.84788E-13 3.59232E-12-1.09848E-11
 -1        68-7.59804E+02-7.59804E+02 1.12117E-10-4.48398E-12-1.43098E-13-9.63072E-12
 -1        69-7.59804E+02-7.59804E+02 1.29431E-10 6.28387E-13 5.31607E-13 6.52269E-12
 -1        70-7.59804E+02-7.59804E+02 1.09200E-10-1.12395E-11 4.59753E-12 1.29667E-12
 -1        71-7.59804E+02-7.59804E+02 1.00696E-10 1.36039E-11 2.87893E-12 1.68104E-12
 -1        72-1.51961E+03-1.51961E+03 2.58074E-10-5.96465E-13-1.41886E-12-8.00002E-13
 -3
    1PSTEP                       321         107           1          
  100CL  207 9.21781E-01          72                     0  107           1
 -4  TOSTRAIN    6    1
 -5  EXX         1    4    1    1
 -5  EYY         1    4    2    2
 -5  EZZ         1    4    3    3
 -5  EXY         1    4    1    2
 -5  EYZ         1    4    2    3
 -5  EZX         1    4    3    1
 -1         1-5.08740E-03-5.08740E-03 4.36063E-03-2.15463E-21-2.22827E-19-2.14571E-19
 -1         2-2.54370E-03-2.54370E-03 2.18031E-03-6.06275E-17 2.73262E-21-2.14534E-17
 -1         3-2.54370E-03-2.54370E-03 2.18031E-03 3.40077E-17 3.04676E-20 3.17803E-17
 -1         4-2.54370E-03-2.54370E-03 2.18031E-03 3.06938E-18 2.09387E-20 2.47965E-17
 -1         5-2.54370E-03-2.54370E-03 2.18031E-03 8.41984E-18 1.04298E-19 2.72369E-18
 -1         6-5.08740E-03-5.08740E-03 4.36063E-03 2.94857E-18-5.21231E-20 1.05602E-17
 -1         7-2.54370E-03-2.54370E-03 2.18031E-03 8.42379E-18 9.25795E-18 6.94399E-20
 -1         8-1.69580E-03-1.69580E-03 1.45354E-03-3.48017E-17-7.32760E-18-8.65636E-18
 -1         9-1.69580E-03-1.69580E-03 1.45354E-03 5.68034E-17 6.00811E-18 1.56653E-17
 -1        10-1.69580E-03-1.69580E-03 1.45354E-03 3.67567E-17 1.60568E-17-1.31398E-17
 -1        11-1.69580E-03-1.69580E-03 1.45354E-03-4.91589E-17-8.26293E-19 2.12958E-17
 -1        12-2.54370E-03-2.54370E-03 2.18031E-03-8.23886E-17 4.00293E-17 2.48508E-18
 -1        13-2.54370E-03-2.54370E-03 2.18031E-03 1.57967E-17 2.71363E-17 1.22632E-19
 -1        14-1.69580E-03-1.69580E-03 1.45354E-03 5.56791E-17 4.01840E-17 3.36084E-17
 -1        15-1.69580E-03-1.69580E-03 1.45354E-03-8.22627E-17 2.52633E-17-1.54106E-17
 -1        16-1.69580E-03-1.69580E-03 1.45354E-03-4.07984E-17 1.71440E-17 2.66757E-17
 -1        17-1.69580E-03-1.69580E-03 1.45354E-03 6.09857E-17 1.71533E-17-2.32438E-17
 -1        18-2.54370E-03-2.54370E-03 2.18031E-03 8.77586E-17-2.93939E-17-2.07666E-18
 -1        19-2.54370E-03-2.54370E-03 2.18031E-03 1.49924E-16 9.76880E-17-2.39502E-20
 -1        20-1.69580E-03-1.69580E-03 1.45354E-03 1.45117E-16 1.09760E-17-2.29113E-17
 -1        21-1.69580E-03-1.69580E-03 1.45354E-03-1.18274E-16 2.79191E-17 4.31079E-17
 -1        22-1.69580E-03-1.69580E-03 1.45354E-03-7.62306E-17 5.58789E-17 1.11158E-17
 -1        23-1.69580E-03-1.69580E-03 1.45354E-03 5.17156E-17 1.10310E-17 1.52425E-18
 -1        24-2.54370E-03-2.54370E-03 2.18031E-03 7.45788E-17 1.66965E-17 4.07568E-18
 -1        25-2.54370E-03-2.54370E-03 2.18031E-03-1.94198E-16-9.27282E-17-3.12320E-20
 -1        26-1.69580E-03-1.69580E-03 1.45354E-03-7.07986E-17 3.24914E-17 3.83630E-17
 -1        27-1.69580E-03-1.69580E-03 1.45354E-03 4.81943E-17-6.83383E-18-5.99675E-19
 -1        28-1.69580E-03-1.69580E-03 1.45354E-03 1.14971E-16-3.91815E-17 6.06217E-17
 -1        29-1.69580E-03-1.69580E-03 1.45354E-03-7.98535E-17 1.03910E-17-6.47054E-17
 -1        30-2.54370E-03-2.54370E-03 2.18031E-03-4.64225E-17-3.95981E-17 5.81103E-18
 -1        31-5.08740E-03-5.08740E-03 4.36063E-03-1.57579E-18 1.29987E-17 1.52920E-19
 -1        32-2.54370E-03-2.54370E-03 2.18031E-03 8.72124E-17-1.49939E-18-2.61842E-17
 -1        33-2.54370E-03-2.54370E-03 2.18031E-03-7.16955E-17 5.18832E-18 5.14253E-17
 -1        34-2.54370E-03-2.54370E-03 2.18031E-03 2.58021E-17-1.41302E-18 1.55290E-17
 -1        35-2.54370E-03-2.54370E-03 2.18031E-03-7.12156E-17-2.77062E-18 1.11577E-17
 -1        36-5.08740E-03-5.08740E-03 4.36063E-03 8.64119E-18 7.27552E-18-6.27950E-18
 -1        37-5.08740E-03-5.08740E-03 4.36063E-03-1.53912E-19 1.93472E-17 1.75873E-17
 -1        38-2.54370E-03-2.54370E-03 2.18031E-03-4.91550E-17 1.28952E-17-1.25525E-17
 -1        39-2.54370E-03-2.54370E-03 2.18031E-03 1.86097E-17-3.76251E-18-7.32750E-19
 -1        40-2.54370E-03-2.54370E-03 2.18031E-03-5.23954E-17 6.26685E-18-1.07717E-17
 -1        41-2.54370E-03-2.54370E-03 2.18031E-03 4.19937E-17 5.13585E-18 2.05298E-17
 -1        42-5.08740E-03-5.08740E-03 4.36063E-03 2.57662E-20-3.20083E-17 5.44134E-18
 -1        43-2.54370E-03-2.54370E-03 2.18031E-03-1.98051E-17 1.86009E-17 1.20329E-17
 -1        44-1.69580E-03-1.69580E-03 1.45354E-03-4.59221E-17 1.34632E-18-6.80689E-19
 -1        45-1.69580E-03-1.69580E-03 1.45354E-03 6.02361E-17 3.77294E-18-5.69809E-19
 -1        46-1.69580E-03-1.69580E-03 1.45354E-03 1.32913E-17 2.01464E-17-2.63673E-17
 -1        47-1.69580E-03-1.69580E-03 1.45354E-03 1.19436E-17 2.68858E-18 1.24754E-17
 -1        48-2.54370E-03-2.54370E-03 2.18031E-03-2.68911E-17 2.46839E-17-3.64755E-18
 -1        49-2.54370E-03-2.54370E-03 2.18031E-03 6.19761E-17-4.72423E-17-3.51058E-17
 -1        50-1.69580E-03-1.69580E-03 1.45354E-03 7.20376E-18 1.76957E-17 1.03977E-17
 -1        51-1.69580E-03-1.69580E-03 1.45354E-03-1.20544E-17 3.50918E-18-2.22094E-17
 -1        52-1.69580E-03-1.69580E-03 1.45354E-03-7.53962E-17-2.38878E-17 2.21135E-17
 -1        53-1.69580E-03-1.69580E-03 1.45354E-03 4.77886E-17 1.49285E-17-2.45524E-17
 -1        54-2.54370E-03-2.54370E-03 2.18031E-03 4.61612E-18-2.86389E-17 3.79245E-18
 -1        55-2.54370E-03-2.54370E-03 2.18031E-03 3.08558E-17 2.48745E-17 8.85619E-18
 -1        56-1.69580E-03-1.69580E-03 1.45354E-03-1.36167E-17-1.33647E-17-1.69965E-17
 -1        57-1.69580E-03-1.69580E-03 1.45354E-03 5.69118E-18 7.40338E-18 1.84348E-17
 -1        58-1.69580E-03-1.69580E-03 1.45354E-03-5.72586E-17 1.43087E-17-1.55243E-17
 -1        59-1.69580E-03-1.69580E-03 1.45354E-03 9.64946E-17 8.33436E-18 8.63902E-18
 -1        60-2.54370E-03-2.54370E-03 2.18031E-03 8.56867E-17 1.85614E-17-3.76286E-18
 -1        61-2.54370E-03-2.54370E-03 2.18031E-03-2.23259E-18-7.76046E-17-1.98958E-17
 -1        62-1.69580E-03-1.69580E-03 1.45354E-03-2.10377E-17 2.96677E-17 2.52383E-17
 -1        63-1.69580E-03-1.69580E-03 1.45354E-03 4.40116E-17-2.07251E-19-2.51114E-17
 -1        64-1.69580E-03-1.69580E-03 1.45354E-03-7.16142E-18-2.59248E-17 3.70886E-17
 -1        65-1.69580E-03-1.69580E-03 1.45354E-03-2.07848E-17 1.75470E-17-5.52111E-17
 -1        66-2.54370E-03-2.54370E-03 2.18031E-03-1.20352E-16-3.76501E-17 1.45270E-17
 -1        67-5.08740E-03-5.08740E-03 4.36063E-03 1.80510E-18 2.26116E-17-6.89436E-17
 -1        68-2.54370E-03-2.54370E-03 2.18031E-03-2.84214E-17-9.18883E-19-5.99594E-17
 -1        69-2.54370E-03-2.54370E-03 2.18031E-03 3.98298E-18 3.33112E-18 3.99633E-17
 -1        70-2.54370E-03-2.54370E-03 2.18031E-03-7.12410E-17 2.88112E-17 7.77678E-18
 -1        71-2.54370E-03-2.54370E-03 2.18031E-03 8.62270E-17 1.80226E-17 1.03310E-17
 -1        72-5.08740E-03-5.08740E-03 4.36063E-03-3.78065E-18-8.78702E-18-4.97179E-18
 -3
    1PSTEP                       322         108           1          
  100CL  208 9.30781E-01          72                     0  108           1
 -4  DISP        4    1
 -5  D1          1    2    1    0
 -5  D2          1    2    2    0
 -5  D3          1    2    3    0
 -5  ALL         1    2    0    0    1ALL
 -1         1 0.00000E+00 0.00000E+00 0.00000E+00
 -1         2-2.64030E+00 0.00000E+00 0.00000E+00
 -1         3-1.26416E+01 0.00000E+00 0.00000E+00
 -1         4-1.52819E+01 0.00000E+00 0.00000E+00
 -1         5-2.52831E+01 0.00000E+00 0.00000E+00
 -1         6-2.79234E+01 0.00000E+00 0.00000E+00
 -1         7 0.00000E+00-2.64030E+00 0.00000E+00
 -1         8-2.64030E+00-2.64030E+00 0.00000E+00
 -1         9-1.26416E+01-2.64030E+00 0.00000E+00
 -1        10-1.52819E+01-2.64030E+00 0.00000E+00
 -1        11-2.52831E+01-2.64030E+00 0.00000E+00
 -1        12-2.79234E+01-2.64030E+00 0.00000E+00
 -1        13 0.00000E+00-1.26416E+01 0.00000E+00
 -1        14-2.64030E+00-1.26416E+01 0.00000E+00
 -1        15-1.26416E+01-1.26416E+01 0.00000E+00
 -1        16-1.52819E+01-1.26416E+01 0.00000E+00
 -1        17-2.52831E+01-1.26416E+01 0.00000E+00
 -1        18-2.79234E+01-1.26416E+01 0.00000E+00
 -1        19 0.00000E+00-1.52819E+01 0.00000E+00
 -1        20-2.64030E+00-1.52819E+01 0.00000E+00
 -1        21-1.26416E+01-1.52819E+01 0.00000E+00
 -1        22-1.52819E+01-1.52819E+01 0.00000E+00
 -1        23-2.52831E+01-1.52819E+01 0.00000E+00
 -1        24-2.79234E+01-1.52819E+01 0.00000E+00
 -1        25 0.00000E+00-2.52831E+01 0.00000E+00
 -1        26-2.64030E+00-2.52831E+01 0.00000E+00
 -1        27-1.26416E+01-2.52831E+01 0.00000E+00
 -1        28-1.52819E+01-2.52831E+01 0.00000E+00
 -1        29-2.52831E+01-2.52831E+01 0.00000E+00
 -1        30-2.79234E+01-2.52831E+01 0.00000E+00
 -1        31 0.00000E+00-2.79234E+01 0.00000E+00
 -1        32-2.64030E+00-2.79234E+01 0.00000E+00
 -1        33-1.26416E+01-2.79234E+01 0.00000E+00
 -1        34-1.52819E+01-2.79234E+01 0.00000E+00
 -1        35-2.52831E+01-2.79234E+01 0.00000E+00
 -1        36-2.79234E+01-2.79234E+01 0.00000E+00
 -1        37 0.00000E+00 0.00000E+00 3.15289E+00
 -1        38-2.64030E+00 0.00000E+00 3.15289E+00
 -1        39-1.26416E+01 0.00000E+00 3.15289E+00
 -1        40-1.52819E+01 0.00000E+00 3.15289E+00
 -1        41-2.52831E+01 0.00000E+00 3.15289E+00
 -1        42-2.79234E+01 0.00000E+00 3.15289E+00
 -1        43 0.00000E+00-2.64030E+00 3.15289E+00
 -1        44-2.64030E+00-2.64030E+00 3.15289E+00
 -1        45-1.26416E+01-2.64030E+00 3.15289E+00
 -1        46-1.52819E+01-2.64030E+00 3.15289E+00
 -1        47-2.52831E+01-2.64030E+00 3.15289E+00
 -1        48-2.79234E+01-2.64030E+00 3.15289E+00
 -1        49 0.00000E+00-1.26416E+01 3.15289E+00
 -1        50-2.64030E+00-1.26416E+01 3.15289E+00
 -1        51-1.26416E+01-1.26416E+01 3.15289E+00
 -1        52-1.52819E+01-1.26416E+01 3.15289E+00
 -1        53-2.52831E+01-1.26416E+01 3.15289E+00
 -1        54-2.79234E+01-1.26416E+01 3.15289E+00
 -1        55 0.00000E+00-1.52819E+01 3.15289E+00
 -1        56-2.64030E+00-1.52819E+01 3.15289E+00
 -1        57-1.26416E+01-1.52819E+01 3.15289E+00
 -1        58-1.52819E+01-1.52819E+01 3.15289E+00
 -1        59-2.52831E+01-1.52819E+01 3.15289E+00
 -1        60-2.79234E+01-1.52819E+01 3.15289E+00
 -1        61 0.00000E+00-2.52831E+01 3.15289E+00
 -1        62-2.64030E+00-2.52831E+01 3.15289E+00
 -1        63-1.26416E+01-2.52831E+01 3.15289E+00
 -1        64-1.52819E+01-2.52831E+01 3.15289E+00
 -1        65-2.52831E+01-2.52831E+01 3.15289E+00
 -1        66-2.79234E+01-2.52831E+01 3.15289E+00
 -1        67 0.00000E+00-2.79234E+01 3.15289E+00
 -1        68-2.64030E+00-2.79234E+01 3.15289E+00
 -1        69-1.26416E+01-2.79234E+01 3.15289E+00
 -1        70-1.52819E+01-2.79234E+01 3.15289E+00
 -1        71-2.52831E+01-2.79234E+01 3.15289E+00
 -1        72-2.79234E+01-2.79234E+01 3.15289E+00
 -3
    1PSTEP                       323         108           1          
  100CL  208 9.30781E-01          72                     0  108           1
 -4  STRESS      6    1
 -5  SXX         1    4    1    1
 -5  SYY         1    4    2    2
 -5  SZZ         1    4    3    3
 -5  SXY         1    4    1    2
 -5  SYZ         1    4    2    3
 -5  SZX         1    4    3    1
 -1         1-1.57285E+03-1.57285E+03 1.12029E-10-1.30499E-14 2.41756E-15-5.20381E-14
 -1         2-7.86424E+02-7.86424E+02 6.85881E-11-1.36263E-11 6.33234E-15-7.94340E-12
 -1         3-7.86424E+02-7.86424E+02 5.90235E-11 1.01620E-11-2.87508E-14 6.75567E-12
 -1         4-7.86424E+02-7.86424E+02 6.24003E-11 4.75297E-13 3.44132E-14-1.78791E-12
 -1         5-7.86424E+02-7.86424E+02 6.53633E-11 1.89985E-12 1.57115E-14 5.76561E-12
 -1         6-1.57285E+03-1.57285E+03 8.64422E-11-3.49092E-13 6.65106E-17-7.89384E-13
 -1         7-7.86424E+02-7.86424E+02 3.65173E-11 4.51244E-12 5.73515E-12 1.25677E-14
 -1         8-5.24283E+02-5.24283E+02 3.21194E-11-6.07156E-12-1.49922E-12 7.52996E-13
 -1         9-5.24283E+02-5.24283E+02 2.64903E-11 1.22533E-11 2.98486E-12 6.79228E-13
 -1        10-5.24283E+02-5.24283E+02 3.22883E-11 6.08577E-12 9.12611E-14 8.88239E-13
 -1        11-5.24283E+02-5.24283E+02 3.82152E-11-8.60416E-12-4.94395E-13 5.24072E-13
 -1        12-7.86424E+02-7.86424E+02 3.02404E-11-1.43436E-11 1.03495E-11 3.26041E-13
 -1        13-7.86424E+02-7.86424E+02 3.63028E-11 1.71169E-12 1.07243E-12 5.08708E-15
 -1        14-5.24283E+02-5.24283E+02 4.11014E-11 4.83986E-12 5.55627E-12 4.32400E-12
 -1        15-5.24283E+02-5.24283E+02 3.37654E-11-1.24050E-11 1.18058E-12-1.22097E-12
 -1        16-5.24283E+02-5.24283E+02 2.81264E-11-9.03270E-12 3.38018E-12 3.93724E-12
 -1        17-5.24283E+02-5.24283E+02 3.69833E-11 1.14979E-11 4.63279E-12-2.38240E-12
 -1        18-7.86424E+02-7.86424E+02 4.57325E-11 1.46277E-11-2.54306E-12-6.04138E-13
 -1        19-7.86424E+02-7.86424E+02 2.19275E-11 2.77286E-11 1.48636E-11-6.92846E-15
 -1        20-5.24283E+02-5.24283E+02 4.12351E-11 2.21845E-11 5.10433E-13-1.82259E-12
 -1        21-5.24283E+02-5.24283E+02 3.49702E-11-1.47322E-11 2.24763E-12 4.02570E-12
 -1        22-5.24283E+02-5.24283E+02 2.17138E-11-1.12687E-11 5.84467E-12 3.06759E-12
 -1        23-5.24283E+02-5.24283E+02 2.56602E-11 5.77161E-12 2.28024E-12-1.82241E-12
 -1        24-7.86424E+02-7.86424E+02 2.77680E-11 5.74962E-12 1.07770E-11-6.20521E-14
 -1        25-7.86424E+02-7.86424E+02 1.32756E-11-3.16470E-11-1.44117E-11 3.50502E-14
 -1        26-5.24283E+02-5.24283E+02 3.50927E-11-1.38944E-11 4.72463E-12 5.93477E-12
 -1        27-5.24283E+02-5.24283E+02 3.78768E-11 8.67472E-12 1.70347E-12-1.43918E-12
 -1        28-5.24283E+02-5.24283E+02 1.09891E-11 1.09629E-11-6.01755E-12 4.61721E-12
 -1        29-5.24283E+02-5.24283E+02 2.01923E-11-3.96608E-12-6.73628E-13-6.02237E-12
 -1        30-7.86424E+02-7.86424E+02 3.91651E-11-5.65617E-12-9.13856E-12 9.49592E-14
 -1        31-1.57285E+03-1.57285E+03 7.49580E-11 6.01272E-13-8.03443E-13-4.62807E-14
 -1        32-7.86424E+02-7.86424E+02 6.99764E-11 1.11060E-11 5.64971E-14-2.64906E-12
 -1        33-7.86424E+02-7.86424E+02 6.80627E-11-8.58957E-12-1.00149E-12 7.07674E-12
 -1        34-7.86424E+02-7.86424E+02 2.59661E-11-5.16974E-12 7.38606E-13 8.72997E-12
 -1        35-7.86424E+02-7.86424E+02 3.70224E-11-5.02086E-14-1.36096E-13-3.49365E-12
 -1        36-1.57285E+03-1.57285E+03 9.97368E-11 6.54813E-13 2.56935E-14-1.25231E-12
 -1        37-1.57285E+03-1.57285E+03 1.02955E-10 2.68985E-14 1.46444E-12 4.22323E-12
 -1        38-7.86424E+02-7.86424E+02 4.72121E-11-1.32147E-12 4.57965E-13-5.82500E-12
 -1        39-7.86424E+02-7.86424E+02 5.05315E-11 1.57586E-12-1.42932E-12 2.76298E-12
 -1        40-7.86424E+02-7.86424E+02 4.50328E-11 4.43737E-12 5.51990E-13-5.56656E-12
 -1        41-7.86424E+02-7.86424E+02 5.04306E-11-4.95046E-12-1.69280E-12 6.41851E-12
 -1        42-1.57285E+03-1.57285E+03 1.06250E-10 6.88582E-13-7.38846E-12 1.19843E-12
 -1        43-7.86424E+02-7.86424E+02 5.14964E-11-6.34035E-12 6.39439E-12 1.82529E-12
 -1        44-5.24283E+02-5.24283E+02 3.04796E-11-5.11685E-12-1.18531E-12 2.00933E-12
 -1        45-5.24283E+02-5.24283E+02 3.40705E-11 3.48104E-12 1.98328E-12-6.35632E-13
 -1        46-5.24283E+02-5.24283E+02 3.35518E-11 4.70736E-12 5.23838E-13-4.20440E-13
 -1        47-5.24283E+02-5.24283E+02 3.62771E-11-2.92229E-12-1.62400E-12-1.44754E-13
 -1        48-7.86424E+02-7.86424E+02 5.09703E-11 2.23295E-13 6.66477E-12-1.70124E-12
 -1        49-7.86424E+02-7.86424E+02 7.85446E-11 1.19360E-11-7.87299E-12-5.57607E-12
 -1        50-5.24283E+02-5.24283E+02 3.97394E-11 3.33230E-12 3.44084E-12 6.03232E-13
 -1        51-5.24283E+02-5.24283E+02 4.73014E-11-2.13563E-12-3.82282E-13-2.28752E-12
 -1        52-5.24283E+02-5.24283E+02 4.44322E-11-7.18924E-12-1.13180E-12 3.45340E-12
 -1        53-5.24283E+02-5.24283E+02 3.77693E-11 4.04901E-12 1.25902E-12-1.84824E-12
 -1        54-7.86424E+02-7.86424E+02 7.91706E-11 1.73769E-12-6.27103E-12 1.39663E-12
 -1        55-7.86424E+02-7.86424E+02 4.51601E-11 8.47442E-12 5.73244E-12-3.39727E-13
 -1        56-5.24283E+02-5.24283E+02 2.60010E-11 1.02457E-12-1.97153E-12-2.04446E-12
 -1        57-5.24283E+02-5.24283E+02 3.46565E-11-2.82458E-12 7.42572E-13 2.23856E-13
 -1        58-5.24283E+02-5.24283E+02 2.41701E-11-7.81641E-12 9.51229E-13-7.12732E-13
 -1        59-5.24283E+02-5.24283E+02 2.60238E-11 1.25295E-11-1.98607E-13-1.16549E-12
 -1        60-7.86424E+02-7.86424E+02 6.35710E-11 1.50532E-11 6.76305E-12 1.66783E-12
 -1        61-7.86424E+02-7.86424E+02 6.18803E-11-3.70515E-12-1.10717E-11-3.88136E-12
 -1        62-5.24283E+02-5.24283E+02 3.89126E-11-5.80035E-12 4.27046E-12 3.36570E-12
 -1        63-5.24283E+02-5.24283E+02 4.78958E-11 7.91461E-12 2.61354E-12-3.40682E-12
 -1        64-5.24283E+02-5.24283E+02 3.69126E-11 2.68035E-12-4.44699E-12 3.05456E-12
 -1        65-5.24283E+02-5.24283E+02 3.28458E-11-7.43759E-12 4.44716E-13-5.14642E-12
 -1        66-7.86424E+02-7.86424E+02 7.70030E-11-1.67459E-11-4.69652E-12 6.04844E-14
 -1        67-1.57285E+03-1.57285E+03 1.18272E-10-6.36089E-13 5.35598E-12-1.23069E-11
 -1        68-7.86424E+02-7.86424E+02 5.17569E-11-5.31342E-12 8.43994E-13-8.79618E-12
 -1        69-7.86424E+02-7.86424E+02 6.43604E-11 3.18651E-12 3.15719E-12 4.50668E-12
 -1        70-7.86424E+02-7.86424E+02 4.79195E-11-4.01486E-12 1.12202E-12 6.13037E-12
 -1        71-7.86424E+02-7.86424E+02 4.71612E-11 5.94540E-12 3.61209E-12-2.79499E-12
 -1        72-1.57285E+03-1.57285E+03 1.52932E-10-8.85560E-13 6.38266E-12 2.99942E-12
 -3
    1PSTEP                       324         108           1          
  100CL  208 9.30781E-01          72                     0  108           1
 -4  TOSTRAIN    6    1
 -5  EXX         1    4    1    1
 -5  EYY         1    4    2    2
 -5  EZZ         1    4    3    3
 -5  EXY         1    4    1    2
 -5  EYZ         1    4    2    3
 -5  EZX         1    4    3    1
 -1         1-5.26644E-03-5.26644E-03 4.51409E-03-8.27857E-20 1.41523E-20-3.23730E-19
 -1         2-2.63322E-03-2.63322E-03 2.25705E-03-8.64422E-17 3.98331E-20-4.89154E-17
 -1         3-2.63322E-03-2.63322E-03 2.25705E-03 6.44657E-17-1.77927E-19 4.15995E-17
 -1         4-2.63322E-03-2.63322E-03 2.25705E-03 3.01518E-18 2.12835E-19-1.10100E-17
 -1         5-2.63322E-03-2.63322E-03 2.25705E-03 1.20522E-17 9.79131E-20 3.55043E-17
 -1         6-5.26644E-03-5.26644E-03 4.51409E-03-2.21456E-18-2.14060E-21-4.85909E-18
 -1         7-2.63322E-03-2.63322E-03 2.25705E-03 2.86259E-17 3.53155E-17 7.76651E-20
 -1         8-1.75548E-03-1.75548E-03 1.50470E-03-3.85166E-17-9.23133E-18 4.63697E-18
 -1         9-1.75548E-03-1.75548E-03 1.50470E-03 7.77319E-17 1.83797E-17 4.18369E-18
 -1        10-1.75548E-03-1.75548E-03 1.50470E-03 3.86068E-17 5.62015E-19 5.47074E-18
 -1        11-1.75548E-03-1.75548E-03 1.50470E-03-5.45829E-17-3.04423E-18 3.22663E-18
 -1        12-2.63322E-03-2.63322E-03 2.25705E-03-9.09927E-17 6.37323E-17 2.00695E-18
 -1        13-2.63322E-03-2.63322E-03 2.25705E-03 1.08586E-17 6.60326E-18 3.22645E-20
 -1        14-1.75548E-03-1.75548E-03 1.50470E-03 3.07030E-17 3.42137E-17 2.66269E-17
 -1        15-1.75548E-03-1.75548E-03 1.50470E-03-7.86947E-17 7.26915E-18-7.51900E-18
 -1        16-1.75548E-03-1.75548E-03 1.50470E-03-5.73014E-17 2.08131E-17 2.42442E-17
 -1        17-1.75548E-03-1.75548E-03 1.50470E-03 7.29402E-17 2.85273E-17-1.46694E-17
 -1        18-2.63322E-03-2.63322E-03 2.25705E-03 9.27951E-17-1.56565E-17-3.71879E-18
 -1        19-2.63322E-03-2.63322E-03 2.25705E-03 1.75904E-16 9.15266E-17-4.40604E-20
 -1        20-1.75548E-03-1.75548E-03 1.50470E-03 1.40734E-16 3.14251E-18-1.12241E-17
 -1        21-1.75548E-03-1.75548E-03 1.50470E-03-9.34580E-17 1.38391E-17 2.47893E-17
 -1        22-1.75548E-03-1.75548E-03 1.50470E-03-7.14860E-17 3.59918E-17 1.88895E-17
 -1        23-1.75548E-03-1.75548E-03 1.50470E-03 3.66138E-17 1.40418E-17-1.12225E-17
 -1        24-2.63322E-03-2.63322E-03 2.25705E-03 3.64743E-17 6.63601E-17-3.82885E-19
 -1        25-2.63322E-03-2.63322E-03 2.25705E-03-2.00762E-16-8.87410E-17 2.18415E-19
 -1        26-1.75548E-03-1.75548E-03 1.50470E-03-8.81432E-17 2.90924E-17 3.65468E-17
 -1        27-1.75548E-03-1.75548E-03 1.50470E-03 5.50305E-17 1.04904E-17-8.86294E-18
 -1        28-1.75548E-03-1.75548E-03 1.50470E-03 6.95464E-17-3.70547E-17 2.84310E-17
 -1        29-1.75548E-03-1.75548E-03 1.50470E-03-2.51599E-17-4.14769E-18-3.70850E-17
 -1        30-2.63322E-03-2.63322E-03 2.25705E-03-3.58815E-17-5.62731E-17 5.84017E-19
 -1        31-5.26644E-03-5.26644E-03 4.51409E-03 3.81434E-18-4.94100E-18-2.89045E-19
 -1        32-2.63322E-03-2.63322E-03 2.25705E-03 7.04540E-17 3.46497E-19-1.63144E-17
 -1        33-2.63322E-03-2.63322E-03 2.25705E-03-5.44903E-17-6.16574E-18 4.35761E-17
 -1        34-2.63322E-03-2.63322E-03 2.25705E-03-3.27957E-17 4.54839E-18 5.37564E-17
 -1        35-2.63322E-03-2.63322E-03 2.25705E-03-3.18512E-19-8.36993E-19-2.15123E-17
 -1        36-5.26644E-03-5.26644E-03 4.51409E-03 4.15399E-18 1.54829E-19-7.70977E-18
 -1        37-5.26644E-03-5.26644E-03 4.51409E-03 1.70638E-19 9.19128E-18 2.65219E-17
 -1        38-2.63322E-03-2.63322E-03 2.25705E-03-8.38312E-18 2.87637E-18-3.56110E-17
 -1        39-2.63322E-03-2.63322E-03 2.25705E-03 9.99689E-18-8.97531E-18 1.65329E-17
 -1        40-2.63322E-03-2.63322E-03 2.25705E-03 2.81497E-17 3.46581E-18-3.47587E-17
 -1        41-2.63322E-03-2.63322E-03 2.25705E-03-3.14046E-17-1.06296E-17 3.95834E-17
 -1        42-5.26644E-03-5.26644E-03 4.51409E-03 4.36821E-18-4.63948E-17 7.49890E-18
 -1        43-2.63322E-03-2.63322E-03 2.25705E-03-4.02218E-17 3.94621E-17 1.14626E-17
 -1        44-1.75548E-03-1.75548E-03 1.50470E-03-3.24601E-17-7.26136E-18 1.25216E-17
 -1        45-1.75548E-03-1.75548E-03 1.50470E-03 2.20829E-17 1.20967E-17-4.07285E-18
 -1        46-1.75548E-03-1.75548E-03 1.50470E-03 2.98625E-17 3.27035E-18-2.74774E-18
 -1        47-1.75548E-03-1.75548E-03 1.50470E-03-1.85384E-17-1.01361E-17-1.01054E-18
 -1        48-2.63322E-03-2.63322E-03 2.25705E-03 1.41653E-18 4.05838E-17-1.06547E-17
 -1        49-2.63322E-03-2.63322E-03 2.25705E-03 7.57195E-17-4.95513E-17-3.50160E-17
 -1        50-1.75548E-03-1.75548E-03 1.50470E-03 2.11394E-17 2.08975E-17 3.26140E-18
 -1        51-1.75548E-03-1.75548E-03 1.50470E-03-1.35479E-17-2.53158E-18-1.41678E-17
 -1        52-1.75548E-03-1.75548E-03 1.50470E-03-4.56069E-17-7.53878E-18 2.11836E-17
 -1        53-1.75548E-03-1.75548E-03 1.50470E-03 2.56860E-17 7.39398E-18-1.12950E-17
 -1        54-2.63322E-03-2.63322E-03 2.25705E-03 1.10235E-17-3.91157E-17 8.72919E-18
 -1        55-2.63322E-03-2.63322E-03 2.25705E-03 5.37598E-17 3.42280E-17-2.13354E-18
 -1        56-1.75548E-03-1.75548E-03 1.50470E-03 6.49963E-18-1.24307E-17-1.26171E-17
 -1        57-1.75548E-03-1.75548E-03 1.50470E-03-1.79185E-17 4.39581E-18 9.07097E-19
 -1        58-1.75548E-03-1.75548E-03 1.50470E-03-4.95856E-17 5.28517E-18-4.86021E-18
 -1        59-1.75548E-03-1.75548E-03 1.50470E-03 7.94846E-17-1.58371E-18-7.05949E-18
 -1        60-2.63322E-03-2.63322E-03 2.25705E-03 9.54939E-17 4.11563E-17 1.04462E-17
 -1        61-2.63322E-03-2.63322E-03 2.25705E-03-2.35047E-17-6.78621E-17-2.43726E-17
 -1        62-1.75548E-03-1.75548E-03 1.50470E-03-3.67961E-17 2.63219E-17 2.04106E-17
 -1        63-1.75548E-03-1.75548E-03 1.50470E-03 5.02085E-17 1.62634E-17-2.11680E-17
 -1        64-1.75548E-03-1.75548E-03 1.50470E-03 1.70035E-17-2.72410E-17 1.86197E-17
 -1        65-1.75548E-03-1.75548E-03 1.50470E-03-4.71824E-17 2.95539E-18-3.16681E-17
 -1        66-2.63322E-03-2.63322E-03 2.25705E-03-1.06232E-16-2.84883E-17 4.06192E-19
 -1        67-5.26644E-03-5.26644E-03 4.51409E-03-4.03521E-18 3.36108E-17-7.72809E-17
 -1        68-2.63322E-03-2.63322E-03 2.25705E-03-3.37071E-17 5.23509E-18-5.49139E-17
 -1        69-2.63322E-03-2.63322E-03 2.25705E-03 2.02145E-17 1.96967E-17 2.74204E-17
 -1        70-2.63322E-03-2.63322E-03 2.25705E-03-2.54694E-17 7.11997E-18 3.74187E-17
 -1        71-2.63322E-03-2.63322E-03 2.25705E-03 3.77163E-17 2.25652E-17-1.70640E-17
 -1        72-5.26644E-03-5.26644E-03 4.51409E-03-5.61779E-18 4.01869E-17 1.87637E-17
 -3
    1PSTEP                       325         109           1          
  100CL  209 9.39781E-01          72                     0  109           1
 -4  DISP        4    1
 -5  D1          1    2    1    0
 -5  D2          1    2    2    0
 -5  D3          1    2    3    0
 -5  ALL         1    2    0    0    1ALL
 -1         1 0.00000E+00 0.00000E+00 0.00000E+00
 -1         2-2.73030E+00 0.00000E+00 0.00000E+00
 -1         3-1.27316E+01 0.00000E+00 0.00000E+00
 -1         4-1.54619E+01 0.00000E+00 0.00000E+00
 -1         5-2.54631E+01 0.00000E+00 0.00000E+00
 -1         6-2.81934E+01 0.00000E+00 0.00000E+00
 -1         7 0.00000E+00-2.73030E+00 0.00000E+00
 -1         8-2.73030E+00-2.73030E+00 0.00000E+00
 -1         9-1.27316E+01-2.73030E+00 0.00000E+00
 -1        10-1.54619E+01-2.73030E+00 0.00000E+00
 -1        11-2.54631E+01-2.73030E+00 0.00000E+00
 -1        12-2.81934E+01-2.73030E+00 0.00000E+00
 -1        13 0.00000E+00-1.27316E+01 0.00000E+00
 -1        14-2.73030E+00-1.27316E+01 0.00000E+00
 -1        15-1.27316E+01-1.27316E+01 0.00000E+00
 -1        16-1.54619E+01-1.27316E+01 0.00000E+00
 -1        17-2.54631E+01-1.27316E+01 0.00000E+00
 -1        18-2.81934E+01-1.27316E+01 0.00000E+00
 -1        19 0.00000E+00-1.54619E+01 0.00000E+00
 -1        20-2.73030E+00-1.54619E+01 0.00000E+00
 -1        21-1.27316E+01-1.54619E+01 0.00000E+00
 -1        22-1.54619E+01-1.54619E+01 0.00000E+00
 -1        23-2.54631E+01-1.54619E+01 0.00000E+00
 -1        24-2.81934E+01-1.54619E+01 0.00000E+00
 -1        25 0.00000E+00-2.54631E+01 0.00000E+00
 -1        26-2.73030E+00-2.54631E+01 0.00000E+00
 -1        27-1.27316E+01-2.54631E+01 0.00000E+00
 -1        28-1.54619E+01-2.54631E+01 0.00000E+00
 -1        29-2.54631E+01-2.54631E+01 0.00000E+00
 -1        30-2.81934E+01-2.54631E+01 0.00000E+00
 -1        31 0.00000E+00-2.81934E+01 0.00000E+00
 -1        32-2.73030E+00-2.81934E+01 0.00000E+00
 -1        33-1.27316E+01-2.81934E+01 0.00000E+00
 -1        34-1.54619E+01-2.81934E+01 0.00000E+00
 -1        35-2.54631E+01-2.81934E+01 0.00000E+00
 -1        36-2.81934E+01-2.81934E+01 0.00000E+00
 -1        37 0.00000E+00 0.00000E+00 3.25982E+00
 -1        38-2.73030E+00 0.00000E+00 3.25982E+00
 -1        39-1.27316E+01 0.00000E+00 3.25982E+00
 -1        40-1.54619E+01 0.00000E+00 3.25982E+00
 -1        41-2.54631E+01 0.00000E+00 3.25982E+00
 -1        42-2.81934E+01 0.00000E+00 3.25982E+00
 -1        43 0.00000E+00-2.73030E+00 3.25982E+00
 -1        44-2.73030E+00-2.73030E+00 3.25982E+00
 -1        45-1.27316E+01-2.73030E+00 3.25982E+00
 -1        46-1.54619E+01-2.73030E+00 3.25982E+00
 -1        47-2.54631E+01-2.73030E+00 3.25982E+00
 -1        48-2.81934E+01-2.73030E+00 3.25982E+00
 -1        49 0.00000E+00-1.27316E+01 3.25982E+00
 -1        50-2.73030E+00-1.27316E+01 3.25982E+00
 -1        51-1.27316E+01-1.27316E+01 3.25982E+00
 -1        52-1.54619E+01-1.27316E+01 3.25982E+00
 -1        53-2.54631E+01-1.27316E+01 3.25982E+00
 -1        54-2.81934E+01-1.27316E+01 3.25982E+00
 -1        55 0.00000E+00-1.54619E+01 3.25982E+00
 -1        56-2.73030E+00-1.54619E+01 3.25982E+00
 -1        57-1.27316E+01-1.54619E+01 3.25982E+00
 -1        58-1.54619E+01-1.54619E+01 3.25982E+00
 -1        59-2.54631E+01-1.54619E+01 3.25982E+00
 -1        60-2.81934E+01-1.54619E+01 3.25982E+00
 -1        61 0.00000E+00-2.54631E+01 3.25982E+00
 -1        62-2.73030E+00-2.54631E+01 3.25982E+00
 -1        63-1.27316E+01-2.54631E+01 3.25982E+00
 -1        64-1.54619E+01-2.54631E+01 3.25982E+00
 -1        65-2.54631E+01-2.54631E+01 3.25982E+00
 -1        66-2.81934E+01-2.54631E+01 3.25982E+00
 -1        67 0.00000E+00-2.81934E+01 3.25982E+00
 -1        68-2.73030E+00-2.81934E+01 3.25982E+00
 -1        69-1.27316E+01-2.81934E+01 3.25982E+00
 -1        70-1.54619E+01-2.81934E+01 3.25982E+00
 -1        71-2.54631E+01-2.81934E+01 3.25982E+00
 -1        72-2.81934E+01-2.81934E+01 3.25982E+00
 -3
    1PSTEP                       326         109           1          
  100CL  209 9.39781E-01          72                     0  109           1
 -4  STRESS      6    1
 -5  SXX         1    4    1    1
 -5  SYY         1    4    2    2
 -5  SZZ         1    4    3    3
 -5  SXY         1    4    1    2
 -5  SYZ         1    4    2    3
 -5  SZX         1    4    3    1
 -1         1-1.62607E+03-1.62607E+03 2.10778E-10-2.13801E-14 7.34873E-17 3.52827E-14
 -1         2-8.13034E+02-8.13034E+02 1.11924E-10-1.08625E-11-2.86497E-14-5.20415E-12
 -1         3-8.13034E+02-8.13034E+02 1.07569E-10 7.27224E-12 1.46276E-15 6.38749E-12
 -1         4-8.13034E+02-8.13034E+02 1.06722E-10-1.59367E-12-1.65514E-14 8.81537E-13
 -1         5-8.13034E+02-8.13034E+02 1.10269E-10 4.13625E-12 2.27226E-14 4.06815E-12
 -1         6-1.62607E+03-1.62607E+03 1.87968E-10-3.95513E-13-1.08201E-13-9.14242E-13
 -1         7-8.13034E+02-8.13034E+02 8.58674E-11 2.20324E-12 6.96650E-12-2.19903E-14
 -1         8-5.42023E+02-5.42023E+02 6.09937E-11-5.76882E-12 1.06991E-12 1.68503E-12
 -1         9-5.42023E+02-5.42023E+02 5.71755E-11 1.05138E-11 3.89875E-12 3.20014E-13
 -1        10-5.42023E+02-5.42023E+02 6.05599E-11 4.67114E-12 2.24834E-12 2.46934E-12
 -1        11-5.42023E+02-5.42023E+02 6.69270E-11-6.34754E-12-5.64787E-14-1.71682E-12
 -1        12-8.13034E+02-8.13034E+02 7.65767E-11-1.29605E-11 1.35341E-11 2.67840E-13
 -1        13-8.13034E+02-8.13034E+02 8.64238E-11 4.77264E-12 3.93341E-12 6.94664E-15
 -1        14-5.42023E+02-5.42023E+02 7.25048E-11 6.41636E-12 4.50473E-12 5.71225E-12
 -1        15-5.42023E+02-5.42023E+02 6.38841E-11-1.12775E-11 2.94069E-13-4.89682E-12
 -1        16-5.42023E+02-5.42023E+02 5.74769E-11-8.52287E-12 1.38899E-12 2.43567E-12
 -1        17-5.42023E+02-5.42023E+02 6.76248E-11 1.24733E-11 2.40184E-12-1.21709E-12
 -1        18-8.13034E+02-8.13034E+02 9.30382E-11 1.15021E-11-5.21199E-12-5.90829E-13
 -1        19-8.13034E+02-8.13034E+02 5.71269E-11 3.52553E-11 2.66218E-11 2.66268E-14
 -1        20-5.42023E+02-5.42023E+02 7.13027E-11 2.67382E-11-1.61481E-12 4.28461E-13
 -1        21-5.42023E+02-5.42023E+02 6.99811E-11-1.89365E-11-8.45596E-13 2.60998E-12
 -1        22-5.42023E+02-5.42023E+02 4.83934E-11-1.60907E-11 8.53206E-12 3.76925E-12
 -1        23-5.42023E+02-5.42023E+02 5.43260E-11 8.39610E-12 1.86224E-12-4.82277E-12
 -1        24-8.13034E+02-8.13034E+02 7.91398E-11 5.18749E-12 9.98602E-12 3.88557E-13
 -1        25-8.13034E+02-8.13034E+02 5.12027E-11-3.71872E-11-2.47360E-11 5.19156E-15
 -1        26-5.42023E+02-5.42023E+02 7.00296E-11-2.07709E-11 5.05131E-12 5.21901E-12
 -1        27-5.42023E+02-5.42023E+02 7.37457E-11 1.41184E-11 3.85202E-12-1.11781E-12
 -1        28-5.42023E+02-5.42023E+02 4.18959E-11 1.35526E-11-9.61589E-12 3.33406E-12
 -1        29-5.42023E+02-5.42023E+02 5.06499E-11-4.79209E-12-1.56687E-12-4.77737E-12
 -1        30-8.13034E+02-8.13034E+02 8.71025E-11-4.33330E-12-1.02036E-11-6.26814E-13
 -1        31-1.62607E+03-1.62607E+03 1.62301E-10-2.49005E-13 4.18183E-13-6.03636E-14
 -1        32-8.13034E+02-8.13034E+02 1.14934E-10 5.90169E-12 3.41443E-14 1.78627E-12
 -1        33-8.13034E+02-8.13034E+02 1.09332E-10-1.39637E-12 7.19123E-13 2.36579E-12
 -1        34-8.13034E+02-8.13034E+02 7.03441E-11-2.66514E-12-1.28541E-12 1.20066E-11
 -1        35-8.13034E+02-8.13034E+02 8.52019E-11-1.62520E-12-5.75492E-13-7.95052E-12
 -1        36-1.62607E+03-1.62607E+03 2.00720E-10-1.30896E-12 2.56075E-12 1.73278E-12
 -1        37-1.62607E+03-1.62607E+03 2.17582E-10 1.18804E-14-1.47785E-12 2.72880E-12
 -1        38-8.13034E+02-8.13034E+02 1.04368E-10-2.78683E-13-1.39176E-12-3.86220E-12
 -1        39-8.13034E+02-8.13034E+02 1.07940E-10-6.11879E-13-2.54740E-12 1.27894E-12
 -1        40-8.13034E+02-8.13034E+02 1.03664E-10 1.96019E-12-8.95947E-13-3.91683E-12
 -1        41-8.13034E+02-8.13034E+02 1.02977E-10-5.48167E-12-2.39669E-12 4.61853E-12
 -1        42-1.62607E+03-1.62607E+03 2.30382E-10 9.21054E-14-9.51205E-12 5.09795E-12
 -1        43-8.13034E+02-8.13034E+02 1.06024E-10-5.02905E-12 6.22754E-12 6.89177E-13
 -1        44-5.42023E+02-5.42023E+02 6.67258E-11-3.53085E-12 1.61170E-13 2.17110E-12
 -1        45-5.42023E+02-5.42023E+02 7.01480E-11 3.11577E-12 2.15482E-12-1.83839E-12
 -1        46-5.42023E+02-5.42023E+02 7.00456E-11 4.89841E-12 1.66311E-12 7.78754E-14
 -1        47-5.42023E+02-5.42023E+02 6.90560E-11-3.36521E-13-1.67661E-12-1.67506E-12
 -1        48-8.13034E+02-8.13034E+02 1.09469E-10 5.30000E-12 8.62378E-12-1.12695E-12
 -1        49-8.13034E+02-8.13034E+02 1.50255E-10 8.08854E-12-9.93479E-12-9.37667E-12
 -1        50-5.42023E+02-5.42023E+02 7.24189E-11 1.41135E-12 2.11027E-12-5.22777E-13
 -1        51-5.42023E+02-5.42023E+02 7.49275E-11-7.70127E-13 1.14048E-12-2.51440E-12
 -1        52-5.42023E+02-5.42023E+02 8.79816E-11-5.75344E-12-3.64584E-12 4.41567E-12
 -1        53-5.42023E+02-5.42023E+02 6.95603E-11-5.71584E-13 2.80441E-13-1.02819E-12
 -1        54-8.13034E+02-8.13034E+02 1.31090E-10-1.03556E-14-6.43534E-12 8.00021E-13
 -1        55-8.13034E+02-8.13034E+02 1.04457E-10-3.43592E-12 1.21218E-11 1.00476E-12
 -1        56-5.42023E+02-5.42023E+02 5.98159E-11-6.27162E-12-3.76317E-12 1.08610E-12
 -1        57-5.42023E+02-5.42023E+02 6.90772E-11 4.29735E-12-2.23818E-13-1.29405E-12
 -1        58-5.42023E+02-5.42023E+02 6.77508E-11-6.24249E-13 3.34107E-12-2.49015E-13
 -1        59-5.42023E+02-5.42023E+02 6.37588E-11 9.94285E-12-6.29918E-13-3.01088E-12
 -1        60-8.13034E+02-8.13034E+02 1.26038E-10 1.52978E-11 9.59504E-12 1.21078E-12
 -1        61-8.13034E+02-8.13034E+02 1.18834E-10 6.45690E-12-1.66492E-11-1.45534E-12
 -1        62-5.42023E+02-5.42023E+02 7.05676E-11 2.87693E-12 5.20422E-12 4.22076E-12
 -1        63-5.42023E+02-5.42023E+02 7.32301E-11-1.67381E-12 4.24504E-12-4.07802E-12
 -1        64-5.42023E+02-5.42023E+02 7.14877E-11 9.95800E-13-7.71957E-12-2.16593E-13
 -1        65-5.42023E+02-5.42023E+02 6.63065E-11-1.01042E-11-9.65288E-13-5.21774E-12
 -1        66-8.13034E+02-8.13034E+02 1.25703E-10-1.41856E-11-5.19842E-12 1.14792E-12
 -1        67-1.62607E+03-1.62607E+03 2.72690E-10 1.87816E-13 1.63994E-11-1.87363E-11
 -1        68-8.13034E+02-8.13034E+02 1.01504E-10-2.03021E-12 6.22370E-13-7.49186E-12
 -1        69-8.13034E+02-8.13034E+02 1.17345E-10 3.51057E-12 6.23852E-13 6.69109E-13
 -1        70-8.13034E+02-8.13034E+02 1.22919E-10 7.75674E-12 4.11480E-12 1.08803E-11
 -1        71-8.13034E+02-8.13034E+02 1.04403E-10-1.18584E-12 2.22059E-12-4.42766E-12
 -1        72-1.62607E+03-1.62607E+03 2.70553E-10 1.09623E-12 6.39216E-12 4.27570E-12
 -3
    1PSTEP                       327         109           1          
  100CL  209 9.39781E-01          72                     0  109           1
 -4  TOSTRAIN    6    1
 -5  EXX         1    4    1    1
 -5  EYY         1    4    2    2
 -5  EZZ         1    4    3    3
 -5  EXY         1    4    1    2
 -5  EYZ         1    4    2    3
 -5  EZX         1    4    3    1
 -1         1-5.44547E-03-5.44547E-03 4.66755E-03-1.35745E-19 5.45434E-22 2.23758E-19
 -1         2-2.72274E-03-2.72274E-03 2.33377E-03-6.89675E-17-1.80529E-19-3.20370E-17
 -1         3-2.72274E-03-2.72274E-03 2.33377E-03 4.61725E-17 1.07344E-20 3.93258E-17
 -1         4-2.72274E-03-2.72274E-03 2.33377E-03-1.01184E-17-1.04175E-19 5.42747E-18
 -1         5-2.72274E-03-2.72274E-03 2.33377E-03 2.62616E-17 1.42856E-19 2.50442E-17
 -1         6-5.44547E-03-5.44547E-03 4.66755E-03-2.51117E-18-6.77761E-19-5.63291E-18
 -1         7-2.72274E-03-2.72274E-03 2.33377E-03 1.39887E-17 4.28905E-17-1.38844E-19
 -1         8-1.81516E-03-1.81516E-03 1.55585E-03-3.66270E-17 6.58431E-18 1.03719E-17
 -1         9-1.81516E-03-1.81516E-03 1.55585E-03 6.67537E-17 2.40045E-17 1.97169E-18
 -1        10-1.81516E-03-1.81516E-03 1.55585E-03 2.96578E-17 1.38408E-17 1.52044E-17
 -1        11-1.81516E-03-1.81516E-03 1.55585E-03-4.03014E-17-3.46872E-19-1.05703E-17
 -1        12-2.72274E-03-2.72274E-03 2.33377E-03-8.22884E-17 8.33254E-17 1.64836E-18
 -1        13-2.72274E-03-2.72274E-03 2.33377E-03 3.03022E-17 2.42165E-17 4.27123E-20
 -1        14-1.81516E-03-1.81516E-03 1.55585E-03 4.07384E-17 2.77323E-17 3.51684E-17
 -1        15-1.81516E-03-1.81516E-03 1.55585E-03-7.16027E-17 1.80913E-18-3.01502E-17
 -1        16-1.81516E-03-1.81516E-03 1.55585E-03-5.41129E-17 8.55199E-18 1.49936E-17
 -1        17-1.81516E-03-1.81516E-03 1.55585E-03 7.91947E-17 1.47886E-17-7.49234E-18
 -1        18-2.72274E-03-2.72274E-03 2.33377E-03 7.30284E-17-3.20921E-17-3.63620E-18
 -1        19-2.72274E-03-2.72274E-03 2.33377E-03 2.23841E-16 1.63902E-16 1.65735E-19
 -1        20-1.81516E-03-1.81516E-03 1.55585E-03 1.69764E-16-9.94378E-18 2.63909E-18
 -1        21-1.81516E-03-1.81516E-03 1.55585E-03-1.20230E-16-5.20743E-18 1.60698E-17
 -1        22-1.81516E-03-1.81516E-03 1.55585E-03-1.02162E-16 5.25296E-17 2.32071E-17
 -1        23-1.81516E-03-1.81516E-03 1.55585E-03 5.33081E-17 1.14659E-17-2.96927E-17
 -1        24-2.72274E-03-2.72274E-03 2.33377E-03 3.29361E-17 6.14797E-17 2.39156E-18
 -1        25-2.72274E-03-2.72274E-03 2.33377E-03-2.36107E-16-1.52292E-16 3.24856E-20
 -1        26-1.81516E-03-1.81516E-03 1.55585E-03-1.31877E-16 3.10978E-17 3.21321E-17
 -1        27-1.81516E-03-1.81516E-03 1.55585E-03 8.96394E-17 2.37142E-17-6.88391E-18
 -1        28-1.81516E-03-1.81516E-03 1.55585E-03 8.60471E-17-5.92000E-17 2.05248E-17
 -1        29-1.81516E-03-1.81516E-03 1.55585E-03-3.04256E-17-9.64798E-18-2.94116E-17
 -1        30-2.72274E-03-2.72274E-03 2.33377E-03-2.75128E-17-6.28196E-17-3.85747E-18
 -1        31-5.44547E-03-5.44547E-03 4.66755E-03-1.58097E-18 2.57400E-18-3.77320E-19
 -1        32-2.72274E-03-2.72274E-03 2.33377E-03 3.74707E-17 2.07927E-19 1.09947E-17
 -1        33-2.72274E-03-2.72274E-03 2.33377E-03-8.86574E-18 4.42627E-18 1.45677E-17
 -1        34-2.72274E-03-2.72274E-03 2.33377E-03-1.69214E-17-7.91470E-18 7.39230E-17
 -1        35-2.72274E-03-2.72274E-03 2.33377E-03-1.03186E-17-3.54498E-18-4.89490E-17
 -1        36-5.44547E-03-5.44547E-03 4.66755E-03-8.31075E-18 1.57662E-17 1.06678E-17
 -1        37-5.44547E-03-5.44547E-03 4.66755E-03 7.54307E-20-9.28459E-18 1.71450E-17
 -1        38-2.72274E-03-2.72274E-03 2.33377E-03-1.76940E-18-8.74435E-18-2.36059E-17
 -1        39-2.72274E-03-2.72274E-03 2.33377E-03-3.88491E-18-1.60045E-17 7.24480E-18
 -1        40-2.72274E-03-2.72274E-03 2.33377E-03 1.24455E-17-5.62894E-18-2.47439E-17
 -1        41-2.72274E-03-2.72274E-03 2.33377E-03-3.48039E-17-1.50583E-17 2.86515E-17
 -1        42-5.44547E-03-5.44547E-03 4.66755E-03 5.84790E-19-5.97637E-17 3.18199E-17
 -1        43-2.72274E-03-2.72274E-03 2.33377E-03-3.19302E-17 3.82479E-17 4.33090E-18
 -1        44-1.81516E-03-1.81516E-03 1.55585E-03-2.24179E-17 8.75097E-19 1.34253E-17
 -1        45-1.81516E-03-1.81516E-03 1.55585E-03 1.97825E-17 1.30531E-17-1.16088E-17
 -1        46-1.81516E-03-1.81516E-03 1.55585E-03 3.11007E-17 1.01618E-17 1.89058E-19
 -1        47-1.81516E-03-1.81516E-03 1.55585E-03-2.13662E-18-1.05227E-17-1.03747E-17
 -1        48-2.72274E-03-2.72274E-03 2.33377E-03 3.36504E-17 5.24850E-17-7.03112E-18
 -1        49-2.72274E-03-2.72274E-03 2.33377E-03 5.13553E-17-6.29408E-17-5.89088E-17
 -1        50-1.81516E-03-1.81516E-03 1.55585E-03 8.96088E-18 1.26783E-17-4.00502E-18
 -1        51-1.81516E-03-1.81516E-03 1.55585E-03-4.88964E-18 7.13091E-18-1.52071E-17
 -1        52-1.81516E-03-1.81516E-03 1.55585E-03-3.65294E-17-2.30975E-17 2.74591E-17
 -1        53-1.81516E-03-1.81516E-03 1.55585E-03-3.62907E-18 1.46289E-18-6.29287E-18
 -1        54-2.72274E-03-2.72274E-03 2.33377E-03-6.57494E-20-3.97690E-17 4.98152E-18
 -1        55-2.72274E-03-2.72274E-03 2.33377E-03-2.18151E-17 7.28541E-17 6.31211E-18
 -1        56-1.81516E-03-1.81516E-03 1.55585E-03-3.98194E-17-2.34826E-17 6.77086E-18
 -1        57-1.81516E-03-1.81516E-03 1.55585E-03 2.72845E-17-1.26807E-18-8.45680E-18
 -1        58-1.81516E-03-1.81516E-03 1.55585E-03-3.96345E-18 1.99165E-17-2.02289E-18
 -1        59-1.81516E-03-1.81516E-03 1.55585E-03 6.31286E-17-4.14117E-18-1.83411E-17
 -1        60-2.72274E-03-2.72274E-03 2.33377E-03 9.71276E-17 5.89208E-17 7.74826E-18
 -1        61-2.72274E-03-2.72274E-03 2.33377E-03 4.09958E-17-1.01485E-16-9.14435E-18
 -1        62-1.81516E-03-1.81516E-03 1.55585E-03 1.82660E-17 3.20543E-17 2.58629E-17
 -1        63-1.81516E-03-1.81516E-03 1.55585E-03-1.06272E-17 2.61736E-17-2.54937E-17
 -1        64-1.81516E-03-1.81516E-03 1.55585E-03 6.32248E-18-4.72499E-17-1.72011E-18
 -1        65-1.81516E-03-1.81516E-03 1.55585E-03-6.41530E-17-5.77014E-18-3.20447E-17
 -1        66-2.72274E-03-2.72274E-03 2.33377E-03-9.00662E-17-3.15300E-17 7.18628E-18
 -1        67-5.44547E-03-5.44547E-03 4.66755E-03 1.19247E-18 1.03005E-16-1.17710E-16
 -1        68-2.72274E-03-2.72274E-03 2.33377E-03-1.28901E-17 3.85222E-18-4.73030E-17
 -1        69-2.72274E-03-2.72274E-03 2.33377E-03 2.22891E-17 3.89544E-18 3.90249E-18
 -1        70-2.72274E-03-2.72274E-03 2.33377E-03 4.92486E-17 2.57597E-17 6.67695E-17
 -1        71-2.72274E-03-2.72274E-03 2.33377E-03-7.52908E-18 1.39289E-17-2.69126E-17
 -1        72-5.44547E-03-5.44547E-03 4.66755E-03 6.96013E-18 4.03176E-17 2.70183E-17
 -3
    1PSTEP                       328         110           1          
  100CL  210 9.48781E-01          72                     0  110           1
 -4  DISP        4    1
 -5  D1          1    2    1    0
 -5  D2          1    2    2    0
 -5  D3          1    2    3    0
 -5  ALL         1    2    0    0    1ALL
 -1         1 0.00000E+00 0.00000E+00 0.00000E+00
 -1         2-2.82031E+00 0.00000E+00 0.00000E+00
 -1         3-1.28216E+01 0.00000E+00 0.00000E+00
 -1         4-1.56419E+01 0.00000E+00 0.00000E+00
 -1         5-2.56431E+01 0.00000E+00 0.00000E+00
 -1         6-2.84634E+01 0.00000E+00 0.00000E+00
 -1         7 0.00000E+00-2.82031E+00 0.00000E+00
 -1         8-2.82031E+00-2.82031E+00 0.00000E+00
 -1         9-1.28216E+01-2.82031E+00 0.00000E+00
 -1        10-1.56419E+01-2.82031E+00 0.00000E+00
 -1        11-2.56431E+01-2.82031E+00 0.00000E+00
 -1        12-2.84634E+01-2.82031E+00 0.00000E+00
 -1        13 0.00000E+00-1.28216E+01 0.00000E+00
 -1        14-2.82031E+00-1.28216E+01 0.00000E+00
 -1        15-1.28216E+01-1.28216E+01 0.00000E+00
 -1        16-1.56419E+01-1.28216E+01 0.00000E+00
 -1        17-2.56431E+01-1.28216E+01 0.00000E+00
 -1        18-2.84634E+01-1.28216E+01 0.00000E+00
 -1        19 0.00000E+00-1.56419E+01 0.00000E+00
 -1        20-2.82031E+00-1.56419E+01 0.00000E+00
 -1        21-1.28216E+01-1.56419E+01 0.00000E+00
 -1        22-1.56419E+01-1.56419E+01 0.00000E+00
 -1        23-2.56431E+01-1.56419E+01 0.00000E+00
 -1        24-2.84634E+01-1.56419E+01 0.00000E+00
 -1        25 0.00000E+00-2.56431E+01 0.00000E+00
 -1        26-2.82031E+00-2.56431E+01 0.00000E+00
 -1        27-1.28216E+01-2.56431E+01 0.00000E+00
 -1        28-1.56419E+01-2.56431E+01 0.00000E+00
 -1        29-2.56431E+01-2.56431E+01 0.00000E+00
 -1        30-2.84634E+01-2.56431E+01 0.00000E+00
 -1        31 0.00000E+00-2.84634E+01 0.00000E+00
 -1        32-2.82031E+00-2.84634E+01 0.00000E+00
 -1        33-1.28216E+01-2.84634E+01 0.00000E+00
 -1        34-1.56419E+01-2.84634E+01 0.00000E+00
 -1        35-2.56431E+01-2.84634E+01 0.00000E+00
 -1        36-2.84634E+01-2.84634E+01 0.00000E+00
 -1        37 0.00000E+00 0.00000E+00 3.36673E+00
 -1        38-2.82031E+00 0.00000E+00 3.36673E+00
 -1        39-1.28216E+01 0.00000E+00 3.36673E+00
 -1        40-1.56419E+01 0.00000E+00 3.36673E+00
 -1        41-2.56431E+01 0.00000E+00 3.36673E+00
 -1        42-2.84634E+01 0.00000E+00 3.36673E+00
 -1        43 0.00000E+00-2.82031E+00 3.36673E+00
 -1        44-2.82031E+00-2.82031E+00 3.36673E+00
 -1        45-1.28216E+01-2.82031E+00 3.36673E+00
 -1        46-1.56419E+01-2.82031E+00 3.36673E+00
 -1        47-2.56431E+01-2.82031E+00 3.36673E+00
 -1        48-2.84634E+01-2.82031E+00 3.36673E+00
 -1        49 0.00000E+00-1.28216E+01 3.36673E+00
 -1        50-2.82031E+00-1.28216E+01 3.36673E+00
 -1        51-1.28216E+01-1.28216E+01 3.36673E+00
 -1        52-1.56419E+01-1.28216E+01 3.36673E+00
 -1        53-2.56431E+01-1.28216E+01 3.36673E+00
 -1        54-2.84634E+01-1.28216E+01 3.36673E+00
 -1        55 0.00000E+00-1.56419E+01 3.36673E+00
 -1        56-2.82031E+00-1.56419E+01 3.36673E+00
 -1        57-1.28216E+01-1.56419E+01 3.36673E+00
 -1        58-1.56419E+01-1.56419E+01 3.36673E+00
 -1        59-2.56431E+01-1.56419E+01 3.36673E+00
 -1        60-2.84634E+01-1.56419E+01 3.36673E+00
 -1        61 0.00000E+00-2.56431E+01 3.36673E+00
 -1        62-2.82031E+00-2.56431E+01 3.36673E+00
 -1        63-1.28216E+01-2.56431E+01 3.36673E+00
 -1        64-1.56419E+01-2.56431E+01 3.36673E+00
 -1        65-2.56431E+01-2.56431E+01 3.36673E+00
 -1        66-2.84634E+01-2.56431E+01 3.36673E+00
 -1        67 0.00000E+00-2.84634E+01 3.36673E+00
 -1        68-2.82031E+00-2.84634E+01 3.36673E+00
 -1        69-1.28216E+01-2.84634E+01 3.36673E+00
 -1        70-1.56419E+01-2.84634E+01 3.36673E+00
 -1        71-2.56431E+01-2.84634E+01 3.36673E+00
 -1        72-2.84634E+01-2.84634E+01 3.36673E+00
 -3
    1PSTEP                       329         110           1          
  100CL  210 9.48781E-01          72                     0  110           1
 -4  STRESS      6    1
 -5  SXX         1    4    1    1
 -5  SYY         1    4    2    2
 -5  SZZ         1    4    3    3
 -5  SXY         1    4    1    2
 -5  SYZ         1    4    2    3
 -5  SZX         1    4    3    1
 -1         1-1.67927E+03-1.67927E+03 1.86149E-10 3.77899E-14 1.71548E-14-1.19015E-14
 -1         2-8.39636E+02-8.39636E+02 9.98760E-11-5.39735E-12 1.41147E-14-2.39985E-12
 -1         3-8.39636E+02-8.39636E+02 9.12862E-11-1.97391E-12 1.36407E-15 2.93436E-12
 -1         4-8.39636E+02-8.39636E+02 9.97993E-11-4.99825E-12-4.77592E-15-6.15115E-13
 -1         5-8.39636E+02-8.39636E+02 1.02384E-10 3.04557E-12-7.60387E-16 4.12835E-12
 -1         6-1.67927E+03-1.67927E+03 1.76047E-10 5.61656E-14 8.15652E-15-1.00477E-12
 -1         7-8.39636E+02-8.39636E+02 8.16897E-11 4.07333E-12 4.84445E-12 7.17113E-15
 -1         8-5.59757E+02-5.59757E+02 6.16205E-11-8.95276E-13 4.66143E-13-1.41383E-12
 -1         9-5.59757E+02-5.59757E+02 5.57130E-11 7.86881E-12 3.85891E-12 3.81205E-12
 -1        10-5.59757E+02-5.59757E+02 5.99402E-11 5.75157E-12 6.47032E-13 3.21595E-12
 -1        11-5.59757E+02-5.59757E+02 6.30560E-11-4.83366E-12-1.59215E-12-9.03320E-13
 -1        12-8.39636E+02-8.39636E+02 7.63179E-11-1.05361E-11 8.54230E-12 5.82574E-14
 -1        13-8.39636E+02-8.39636E+02 8.07939E-11 1.72842E-12 4.14834E-12 7.70081E-15
 -1        14-5.59757E+02-5.59757E+02 7.23577E-11 2.83423E-12 5.90911E-12 3.35264E-12
 -1        15-5.59757E+02-5.59757E+02 5.69573E-11-1.02737E-11-4.48131E-13-2.64023E-12
 -1        16-5.59757E+02-5.59757E+02 5.75244E-11-5.68647E-12 2.62065E-12 3.09255E-12
 -1        17-5.59757E+02-5.59757E+02 6.93449E-11 7.07736E-12 4.58847E-12-7.05016E-15
 -1        18-8.39636E+02-8.39636E+02 8.85316E-11 1.03145E-11 1.35111E-13-1.87080E-13
 -1        19-8.39636E+02-8.39636E+02 5.04186E-11 3.00776E-11 2.31686E-11-2.57812E-14
 -1        20-5.59757E+02-5.59757E+02 6.49006E-11 2.17337E-11 1.76446E-12-1.70607E-12
 -1        21-5.59757E+02-5.59757E+02 6.23045E-11-1.33011E-11-7.87817E-13 1.22329E-12
 -1        22-5.59757E+02-5.59757E+02 5.36065E-11-8.52352E-12 9.70288E-12-3.90083E-12
 -1        23-5.59757E+02-5.59757E+02 6.11235E-11 6.61801E-14 4.30250E-13 1.23436E-12
 -1        24-8.39636E+02-8.39636E+02 6.45082E-11-9.72031E-13 1.89813E-11-3.67727E-13
 -1        25-8.39636E+02-8.39636E+02 5.38013E-11-3.00871E-11-1.95028E-11 4.03746E-15
 -1        26-5.59757E+02-5.59757E+02 6.50582E-11-1.92105E-11 2.70179E-12 2.73887E-12
 -1        27-5.59757E+02-5.59757E+02 6.73198E-11 1.17881E-11 1.70150E-12 8.28546E-13
 -1        28-5.59757E+02-5.59757E+02 4.37270E-11 8.20690E-12-7.73323E-12 2.92486E-12
 -1        29-5.59757E+02-5.59757E+02 5.37832E-11 5.69525E-13 2.80012E-12-5.55803E-12
 -1        30-8.39636E+02-8.39636E+02 7.24310E-11 2.80238E-12-1.54913E-11 6.01018E-14
 -1        31-1.67927E+03-1.67927E+03 1.46076E-10-7.21260E-13-2.51396E-13-6.24122E-15
 -1        32-8.39636E+02-8.39636E+02 1.00187E-10 9.10648E-13-1.45828E-13 2.66139E-12
 -1        33-8.39636E+02-8.39636E+02 9.26562E-11 5.19774E-12 5.95361E-13 2.92089E-13
 -1        34-8.39636E+02-8.39636E+02 6.82652E-11-3.75119E-14-1.07194E-14 8.72394E-12
 -1        35-8.39636E+02-8.39636E+02 8.53506E-11-1.37814E-12 1.21822E-13-1.91857E-12
 -1        36-1.67927E+03-1.67927E+03 1.75195E-10-5.48664E-13 2.99703E-13 3.12963E-14
 -1        37-1.67927E+03-1.67927E+03 1.96268E-10-4.11588E-14-2.00829E-12 7.74238E-13
 -1        38-8.39636E+02-8.39636E+02 9.63976E-11-4.94059E-12 1.71280E-13-2.00678E-12
 -1        39-8.39636E+02-8.39636E+02 9.55133E-11 2.38299E-12-8.14392E-13-1.80372E-12
 -1        40-8.39636E+02-8.39636E+02 9.45755E-11 2.31179E-12-1.93223E-12-5.48257E-12
 -1        41-8.39636E+02-8.39636E+02 8.69236E-11-6.45890E-12-1.01190E-12 5.51793E-12
 -1        42-1.67927E+03-1.67927E+03 1.92770E-10-3.52004E-13-5.32754E-12 9.89692E-13
 -1        43-8.39636E+02-8.39636E+02 8.75694E-11-1.50748E-12 3.83173E-12 1.57663E-12
 -1        44-5.59757E+02-5.59757E+02 5.94481E-11-4.28499E-12 5.70920E-13-3.67522E-13
 -1        45-5.59757E+02-5.59757E+02 6.23973E-11 5.71848E-12 3.34073E-12 9.36496E-14
 -1        46-5.59757E+02-5.59757E+02 5.95234E-11 6.12831E-12-7.33696E-13-9.67888E-13
 -1        47-5.59757E+02-5.59757E+02 6.30848E-11-1.22036E-12-2.25277E-12-2.26259E-12
 -1        48-8.39636E+02-8.39636E+02 9.89826E-11 4.00794E-12 5.86124E-12-1.43417E-13
 -1        49-8.39636E+02-8.39636E+02 1.30069E-10 7.63042E-12-8.90521E-12-6.52520E-12
 -1        50-5.59757E+02-5.59757E+02 7.06325E-11-8.93874E-14 2.13849E-12-1.02569E-12
 -1        51-5.59757E+02-5.59757E+02 6.78142E-11-1.21150E-12-1.12524E-12-7.38168E-13
 -1        52-5.59757E+02-5.59757E+02 8.29157E-11-9.88752E-12-1.35666E-12 4.85615E-12
 -1        53-5.59757E+02-5.59757E+02 5.98145E-11 2.01624E-12 1.88555E-12 2.42108E-13
 -1        54-8.39636E+02-8.39636E+02 1.27705E-10 6.98897E-14-8.34549E-12 1.40467E-13
 -1        55-8.39636E+02-8.39636E+02 8.42233E-11 2.64250E-12 9.70363E-12 9.20404E-13
 -1        56-5.59757E+02-5.59757E+02 5.24619E-11-3.41467E-12-1.97709E-12-1.11351E-12
 -1        57-5.59757E+02-5.59757E+02 5.11877E-11 5.36727E-12-1.90238E-12-6.20725E-13
 -1        58-5.59757E+02-5.59757E+02 5.82246E-11-3.61790E-12 5.20337E-12-5.35245E-12
 -1        59-5.59757E+02-5.59757E+02 4.88823E-11 1.77685E-11-2.73570E-12-1.76649E-12
 -1        60-8.39636E+02-8.39636E+02 1.00816E-10 2.41626E-11 9.61195E-12-4.32366E-12
 -1        61-8.39636E+02-8.39636E+02 1.01988E-10 1.04288E-12-1.25214E-11-1.43291E-12
 -1        62-5.59757E+02-5.59757E+02 6.48340E-11 2.32192E-13 3.48120E-12 1.76681E-12
 -1        63-5.59757E+02-5.59757E+02 6.63214E-11-2.44929E-12 2.64624E-12-3.19654E-12
 -1        64-5.59757E+02-5.59757E+02 6.57730E-11-2.05437E-12-4.57434E-12-2.98705E-13
 -1        65-5.59757E+02-5.59757E+02 5.81315E-11-1.28577E-11 4.02942E-12-7.06965E-12
 -1        66-8.39636E+02-8.39636E+02 1.22371E-10-2.63262E-11-1.02093E-11-9.20397E-13
 -1        67-1.67927E+03-1.67927E+03 2.37598E-10 4.63019E-13 1.44779E-11-1.52707E-11
 -1        68-8.39636E+02-8.39636E+02 9.74249E-11-4.63084E-13 5.87502E-13-5.03178E-12
 -1        69-8.39636E+02-8.39636E+02 1.01810E-10 4.41308E-12 1.06355E-12-6.87497E-13
 -1        70-8.39636E+02-8.39636E+02 1.10785E-10 5.09794E-12 4.29096E-12 6.48953E-12
 -1        71-8.39636E+02-8.39636E+02 7.98350E-11 6.24045E-12 1.63425E-12 1.18063E-12
 -1        72-1.67927E+03-1.67927E+03 2.53399E-10-1.13322E-13 9.36009E-12 2.34229E-12
 -3
    1PSTEP                       330         110           1          
  100CL  210 9.48781E-01          72                     0  110           1
 -4  TOSTRAIN    6    1
 -5  EXX         1    4    1    1
 -5  EYY         1    4    2    2
 -5  EZZ         1    4    3    3
 -5  EXY         1    4    1    2
 -5  EYZ         1    4    2    3
 -5  EZX         1    4    3    1
 -1         1-5.62449E-03-5.62449E-03 4.82099E-03 2.40136E-19 1.09746E-19-7.12367E-20
 -1         2-2.81225E-03-2.81225E-03 2.41050E-03-3.42976E-17 8.80388E-20-1.47714E-17
 -1         3-2.81225E-03-2.81225E-03 2.41050E-03-1.25433E-17 7.31512E-21 1.80622E-17
 -1         4-2.81225E-03-2.81225E-03 2.41050E-03-3.17615E-17-2.73645E-20-3.78680E-18
 -1         5-2.81225E-03-2.81225E-03 2.41050E-03 1.93531E-17-6.02641E-21 2.54119E-17
 -1         6-5.62449E-03-5.62449E-03 4.82099E-03 3.56905E-19 4.90109E-20-6.18573E-18
 -1         7-2.81225E-03-2.81225E-03 2.41050E-03 2.58841E-17 2.98224E-17 4.35682E-20
 -1         8-1.87483E-03-1.87483E-03 1.60700E-03-5.68905E-18 2.87014E-18-8.70327E-18
 -1         9-1.87483E-03-1.87483E-03 1.60700E-03 5.00025E-17 2.37532E-17 2.34669E-17
 -1        10-1.87483E-03-1.87483E-03 1.60700E-03 3.65484E-17 3.98359E-18 1.97976E-17
 -1        11-1.87483E-03-1.87483E-03 1.60700E-03-3.07156E-17-9.80195E-18-5.55924E-18
 -1        12-2.81225E-03-2.81225E-03 2.41050E-03-6.69519E-17 5.25848E-17 3.60400E-19
 -1        13-2.81225E-03-2.81225E-03 2.41050E-03 1.09833E-17 2.55376E-17 4.86533E-20
 -1        14-1.87483E-03-1.87483E-03 1.60700E-03 1.80101E-17 3.63731E-17 2.06382E-17
 -1        15-1.87483E-03-1.87483E-03 1.60700E-03-6.52841E-17-2.75886E-18-1.62526E-17
 -1        16-1.87483E-03-1.87483E-03 1.60700E-03-3.61348E-17 1.61313E-17 1.90359E-17
 -1        17-1.87483E-03-1.87483E-03 1.60700E-03 4.49732E-17 2.82443E-17-4.26150E-20
 -1        18-2.81225E-03-2.81225E-03 2.41050E-03 6.55437E-17 8.32826E-19-1.15041E-18
 -1        19-2.81225E-03-2.81225E-03 2.41050E-03 1.91129E-16 1.42618E-16-1.60825E-19
 -1        20-1.87483E-03-1.87483E-03 1.60700E-03 1.38107E-16 1.08604E-17-1.05032E-17
 -1        21-1.87483E-03-1.87483E-03 1.60700E-03-8.45221E-17-4.84896E-18 7.52870E-18
 -1        22-1.87483E-03-1.87483E-03 1.60700E-03-5.41629E-17 5.97232E-17-2.40132E-17
 -1        23-1.87483E-03-1.87483E-03 1.60700E-03 4.20543E-19 2.64829E-18 7.59763E-18
 -1        24-2.81225E-03-2.81225E-03 2.41050E-03-6.17679E-18 1.16841E-16-2.26439E-18
 -1        25-2.81225E-03-2.81225E-03 2.41050E-03-1.91189E-16-1.20048E-16 2.56983E-20
 -1        26-1.87483E-03-1.87483E-03 1.60700E-03-1.22074E-16 1.66293E-17 1.68599E-17
 -1        27-1.87483E-03-1.87483E-03 1.60700E-03 7.49077E-17 1.04731E-17 5.10051E-18
 -1        28-1.87483E-03-1.87483E-03 1.60700E-03 5.21509E-17-4.76020E-17 1.80045E-17
 -1        29-1.87483E-03-1.87483E-03 1.60700E-03 3.61905E-18 1.72390E-17-3.42121E-17
 -1        30-2.81225E-03-2.81225E-03 2.41050E-03 1.78078E-17-9.53604E-17 3.70973E-19
 -1        31-5.62449E-03-5.62449E-03 4.82099E-03-4.58326E-18-1.54186E-18-3.75254E-20
 -1        32-2.81225E-03-2.81225E-03 2.41050E-03 5.78673E-18-9.00192E-19 1.63828E-17
 -1        33-2.81225E-03-2.81225E-03 2.41050E-03 3.30291E-17 3.66388E-18 1.79593E-18
 -1        34-2.81225E-03-2.81225E-03 2.41050E-03-2.38370E-19-6.53409E-20 5.36987E-17
 -1        35-2.81225E-03-2.81225E-03 2.41050E-03-8.75740E-18 7.53406E-19-1.18108E-17
 -1        36-5.62449E-03-5.62449E-03 4.82099E-03-3.48649E-18 1.84318E-18 1.90662E-19
 -1        37-5.62449E-03-5.62449E-03 4.82099E-03-2.61544E-19-1.26214E-17 4.87014E-18
 -1        38-2.81225E-03-2.81225E-03 2.41050E-03-3.13950E-17 1.07592E-18-1.23007E-17
 -1        39-2.81225E-03-2.81225E-03 2.41050E-03 1.51427E-17-5.11856E-18-1.17174E-17
 -1        40-2.81225E-03-2.81225E-03 2.41050E-03 1.46903E-17-1.21488E-17-3.43627E-17
 -1        41-2.81225E-03-2.81225E-03 2.41050E-03-4.10432E-17-6.36032E-18 3.40693E-17
 -1        42-5.62449E-03-5.62449E-03 4.82099E-03-2.23682E-18-3.34863E-17 6.29872E-18
 -1        43-2.81225E-03-2.81225E-03 2.41050E-03-9.57932E-18 2.34568E-17 9.90858E-18
 -1        44-1.87483E-03-1.87483E-03 1.60700E-03-2.72291E-17 3.52873E-18-2.12660E-18
 -1        45-1.87483E-03-1.87483E-03 1.60700E-03 3.63382E-17 2.04937E-17 6.73044E-20
 -1        46-1.87483E-03-1.87483E-03 1.60700E-03 3.89425E-17-4.68606E-18-6.46705E-18
 -1        47-1.87483E-03-1.87483E-03 1.60700E-03-7.75477E-18-1.39540E-17-1.40043E-17
 -1        48-2.81225E-03-2.81225E-03 2.41050E-03 2.54685E-17 3.57289E-17-9.97921E-19
 -1        49-2.81225E-03-2.81225E-03 2.41050E-03 4.84877E-17-5.65313E-17-4.10156E-17
 -1        50-1.87483E-03-1.87483E-03 1.60700E-03-5.68014E-19 1.26679E-17-6.87995E-18
 -1        51-1.87483E-03-1.87483E-03 1.60700E-03-7.69849E-18-7.02645E-18-4.29790E-18
 -1        52-1.87483E-03-1.87483E-03 1.60700E-03-6.28304E-17-8.89726E-18 3.01383E-17
 -1        53-1.87483E-03-1.87483E-03 1.60700E-03 1.28122E-17 1.12122E-17 1.52881E-18
 -1        54-2.81225E-03-2.81225E-03 2.41050E-03 4.44115E-19-5.25171E-17 9.22400E-19
 -1        55-2.81225E-03-2.81225E-03 2.41050E-03 1.67918E-17 5.80164E-17 5.78496E-18
 -1        56-1.87483E-03-1.87483E-03 1.60700E-03-2.16986E-17-1.26658E-17-6.77472E-18
 -1        57-1.87483E-03-1.87483E-03 1.60700E-03 3.41064E-17-1.18128E-17-4.01204E-18
 -1        58-1.87483E-03-1.87483E-03 1.60700E-03-2.29900E-17 3.14932E-17-3.31384E-17
 -1        59-1.87483E-03-1.87483E-03 1.60700E-03 1.12910E-16-1.72355E-17-1.12028E-17
 -1        60-2.81225E-03-2.81225E-03 2.41050E-03 1.53542E-16 5.80280E-17-2.71083E-17
 -1        61-2.81225E-03-2.81225E-03 2.41050E-03 6.62701E-18-7.62008E-17-9.00733E-18
 -1        62-1.87483E-03-1.87483E-03 1.60700E-03 1.47547E-18 2.14853E-17 1.07511E-17
 -1        63-1.87483E-03-1.87483E-03 1.60700E-03-1.55640E-17 1.63479E-17-2.01412E-17
 -1        64-1.87483E-03-1.87483E-03 1.60700E-03-1.30545E-17-2.77816E-17-2.30338E-18
 -1        65-1.87483E-03-1.87483E-03 1.60700E-03-8.17046E-17 2.48983E-17-4.36823E-17
 -1        66-2.81225E-03-2.81225E-03 2.41050E-03-1.67290E-16-6.21345E-17-5.91253E-18
 -1        67-5.62449E-03-5.62449E-03 4.82099E-03 2.94226E-18 9.08706E-17-9.59872E-17
 -1        68-2.81225E-03-2.81225E-03 2.41050E-03-2.94267E-18 3.70121E-18-3.19672E-17
 -1        69-2.81225E-03-2.81225E-03 2.41050E-03 2.80430E-17 6.63593E-18-4.45054E-18
 -1        70-2.81225E-03-2.81225E-03 2.41050E-03 3.23949E-17 2.69739E-17 3.97281E-17
 -1        71-2.81225E-03-2.81225E-03 2.41050E-03 3.96551E-17 1.02032E-17 7.57298E-18
 -1        72-5.62449E-03-5.62449E-03 4.82099E-03-7.20105E-19 5.90278E-17 1.50292E-17
 -3
    1PSTEP                       331         111           1          
  100CL  211 9.57781E-01          72                     0  111           1
 -4  DISP        4    1
 -5  D1          1    2    1    0
 -5  D2          1    2    2    0
 -5  D3          1    2    3    0
 -5  ALL         1    2    0    0    1ALL
 -1         1 0.00000E+00 0.00000E+00 0.00000E+00
 -1         2-2.91034E+00 0.00000E+00 0.00000E+00
 -1         3-1.29115E+01 0.00000E+00 0.00000E+00
 -1         4-1.58219E+01 0.00000E+00 0.00000E+00
 -1         5-2.58231E+01 0.00000E+00 0.00000E+00
 -1         6-2.87334E+01 0.00000E+00 0.00000E+00
 -1         7 0.00000E+00-2.91034E+00 0.00000E+00
 -1         8-2.91034E+00-2.91034E+00 0.00000E+00
 -1         9-1.29115E+01-2.91034E+00 0.00000E+00
 -1        10-1.58219E+01-2.91034E+00 0.00000E+00
 -1        11-2.58231E+01-2.91034E+00 0.00000E+00
 -1        12-2.87334E+01-2.91034E+00 0.00000E+00
 -1        13 0.00000E+00-1.29115E+01 0.00000E+00
 -1        14-2.91034E+00-1.29115E+01 0.00000E+00
 -1        15-1.29115E+01-1.29115E+01 0.00000E+00
 -1        16-1.58219E+01-1.29115E+01 0.00000E+00
 -1        17-2.58231E+01-1.29115E+01 0.00000E+00
 -1        18-2.87334E+01-1.29115E+01 0.00000E+00
 -1        19 0.00000E+00-1.58219E+01 0.00000E+00
 -1        20-2.91034E+00-1.58219E+01 0.00000E+00
 -1        21-1.29115E+01-1.58219E+01 0.00000E+00
 -1        22-1.58219E+01-1.58219E+01 0.00000E+00
 -1        23-2.58231E+01-1.58219E+01 0.00000E+00
 -1        24-2.87334E+01-1.58219E+01 0.00000E+00
 -1        25 0.00000E+00-2.58231E+01 0.00000E+00
 -1        26-2.91034E+00-2.58231E+01 0.00000E+00
 -1        27-1.29115E+01-2.58231E+01 0.00000E+00
 -1        28-1.58219E+01-2.58231E+01 0.00000E+00
 -1        29-2.58231E+01-2.58231E+01 0.00000E+00
 -1        30-2.87334E+01-2.58231E+01 0.00000E+00
 -1        31 0.00000E+00-2.87334E+01 0.00000E+00
 -1        32-2.91034E+00-2.87334E+01 0.00000E+00
 -1        33-1.29115E+01-2.87334E+01 0.00000E+00
 -1        34-1.58219E+01-2.87334E+01 0.00000E+00
 -1        35-2.58231E+01-2.87334E+01 0.00000E+00
 -1        36-2.87334E+01-2.87334E+01 0.00000E+00
 -1        37 0.00000E+00 0.00000E+00 3.47363E+00
 -1        38-2.91034E+00 0.00000E+00 3.47363E+00
 -1        39-1.29115E+01 0.00000E+00 3.47363E+00
 -1        40-1.58219E+01 0.00000E+00 3.47363E+00
 -1        41-2.58231E+01 0.00000E+00 3.47363E+00
 -1        42-2.87334E+01 0.00000E+00 3.47363E+00
 -1        43 0.00000E+00-2.91034E+00 3.47363E+00
 -1        44-2.91034E+00-2.91034E+00 3.47363E+00
 -1        45-1.29115E+01-2.91034E+00 3.47363E+00
 -1        46-1.58219E+01-2.91034E+00 3.47363E+00
 -1        47-2.58231E+01-2.91034E+00 3.47363E+00
 -1        48-2.87334E+01-2.91034E+00 3.47363E+00
 -1        49 0.00000E+00-1.29115E+01 3.47363E+00
 -1        50-2.91034E+00-1.29115E+01 3.47363E+00
 -1        51-1.29115E+01-1.29115E+01 3.47363E+00
 -1        52-1.58219E+01-1.29115E+01 3.47363E+00
 -1        53-2.58231E+01-1.29115E+01 3.47363E+00
 -1        54-2.87334E+01-1.29115E+01 3.47363E+00
 -1        55 0.00000E+00-1.58219E+01 3.47363E+00
 -1        56-2.91034E+00-1.58219E+01 3.47363E+00
 -1        57-1.29115E+01-1.58219E+01 3.47363E+00
 -1        58-1.58219E+01-1.58219E+01 3.47363E+00
 -1        59-2.58231E+01-1.58219E+01 3.47363E+00
 -1        60-2.87334E+01-1.58219E+01 3.47363E+00
 -1        61 0.00000E+00-2.58231E+01 3.47363E+00
 -1        62-2.91034E+00-2.58231E+01 3.47363E+00
 -1        63-1.29115E+01-2.58231E+01 3.47363E+00
 -1        64-1.58219E+01-2.58231E+01 3.47363E+00
 -1        65-2.58231E+01-2.58231E+01 3.47363E+00
 -1        66-2.87334E+01-2.58231E+01 3.47363E+00
 -1        67 0.00000E+00-2.87334E+01 3.47363E+00
 -1        68-2.91034E+00-2.87334E+01 3.47363E+00
 -1        69-1.29115E+01-2.87334E+01 3.47363E+00
 -1        70-1.58219E+01-2.87334E+01 3.47363E+00
 -1        71-2.58231E+01-2.87334E+01 3.47363E+00
 -1        72-2.87334E+01-2.87334E+01 3.47363E+00
 -3
    1PSTEP                       332         111           1          
  100CL  211 9.57781E-01          72                     0  111           1
 -4  STRESS      6    1
 -5  SXX         1    4    1    1
 -5  SYY         1    4    2    2
 -5  SZZ         1    4    3    3
 -5  SXY         1    4    1    2
 -5  SYZ         1    4    2    3
 -5  SZX         1    4    3    1
 -1         1-1.73246E+03-1.73246E+03 1.82529E-10 3.38420E-14 5.74002E-14 1.84774E-15
 -1         2-8.66229E+02-8.66229E+02 9.51149E-11-1.22314E-12-1.34126E-14-3.26996E-13
 -1         3-8.66229E+02-8.66229E+02 8.99321E-11-3.53290E-12-1.50727E-14 1.96621E-12
 -1         4-8.66229E+02-8.66229E+02 9.30550E-11-1.83925E-12-6.13190E-15 6.64670E-13
 -1         5-8.66229E+02-8.66229E+02 1.01489E-10 1.95463E-12-1.53112E-15 3.11660E-12
 -1         6-1.73246E+03-1.73246E+03 1.73212E-10-6.40972E-13-1.42941E-14 7.83311E-13
 -1         7-8.66229E+02-8.66229E+02 8.61250E-11 2.91388E-12 2.84452E-12-1.19033E-14
 -1         8-5.77486E+02-5.77486E+02 6.49231E-11 1.11588E-12-5.29562E-13-3.02000E-12
 -1         9-5.77486E+02-5.77486E+02 6.15037E-11 2.38505E-12 9.19012E-13 4.64799E-12
 -1        10-5.77486E+02-5.77486E+02 5.92158E-11 3.71099E-12 2.97541E-12 1.16238E-12
 -1        11-5.77486E+02-5.77486E+02 6.56358E-11-5.95084E-12-2.47730E-12-2.17943E-13
 -1        12-8.66229E+02-8.66229E+02 7.94434E-11-9.80233E-12 5.92439E-12-8.44736E-14
 -1        13-8.66229E+02-8.66229E+02 8.59669E-11-4.41393E-14 1.02290E-12-1.67232E-14
 -1        14-5.77486E+02-5.77486E+02 6.82915E-11 1.34827E-14 5.03588E-12 1.59573E-12
 -1        15-5.77486E+02-5.77486E+02 5.92208E-11-4.80482E-12-1.10324E-12 1.12513E-12
 -1        16-5.77486E+02-5.77486E+02 5.55877E-11-1.95282E-12-2.26925E-13 2.85513E-12
 -1        17-5.77486E+02-5.77486E+02 7.40084E-11 5.06410E-12 6.51430E-12 4.01955E-13
 -1        18-8.66229E+02-8.66229E+02 8.56138E-11 1.02663E-11 3.99826E-12-7.32206E-13
 -1        19-8.66229E+02-8.66229E+02 7.08954E-11 1.44113E-11 8.75569E-12 1.24921E-14
 -1        20-5.77486E+02-5.77486E+02 6.01160E-11 9.65047E-12 3.02198E-12-8.66901E-13
 -1        21-5.77486E+02-5.77486E+02 6.41685E-11-5.77019E-12-3.74132E-12-8.50524E-14
 -1        22-5.77486E+02-5.77486E+02 5.76766E-11-2.85040E-12 5.87952E-12-2.81952E-12
 -1        23-5.77486E+02-5.77486E+02 6.21349E-11-7.22831E-12 2.24372E-12 1.31655E-12
 -1        24-8.66229E+02-8.66229E+02 6.01156E-11-9.21910E-12 1.86800E-11 4.50643E-13
 -1        25-8.66229E+02-8.66229E+02 7.46345E-11-1.39121E-11-6.43797E-12 8.31346E-15
 -1        26-5.77486E+02-5.77486E+02 6.05996E-11-8.91509E-12 1.14786E-14 1.07403E-12
 -1        27-5.77486E+02-5.77486E+02 6.56683E-11 5.42931E-12 2.70212E-12 1.68862E-12
 -1        28-5.77486E+02-5.77486E+02 4.96640E-11 3.59450E-12-4.78068E-12 4.53843E-12
 -1        29-5.77486E+02-5.77486E+02 5.74558E-11 5.06647E-12 3.12597E-12-4.51473E-12
 -1        30-8.66229E+02-8.66229E+02 6.63875E-11 1.26618E-11-1.50043E-11-8.06066E-14
 -1        31-1.73246E+03-1.73246E+03 1.63856E-10-6.50140E-13 1.48921E-12 2.83580E-14
 -1        32-8.66229E+02-8.66229E+02 9.36506E-11 2.14350E-13 1.21291E-13 2.19671E-12
 -1        33-8.66229E+02-8.66229E+02 9.28788E-11 4.36762E-12 5.29772E-13 3.65728E-12
 -1        34-8.66229E+02-8.66229E+02 7.67212E-11 1.75182E-12 2.16111E-13 6.48289E-12
 -1        35-8.66229E+02-8.66229E+02 9.50625E-11-4.46233E-12-3.96657E-13 1.08508E-12
 -1        36-1.73246E+03-1.73246E+03 1.66806E-10-3.48476E-13 1.15870E-12-1.02470E-13
 -1        37-1.73246E+03-1.73246E+03 1.92567E-10-7.22296E-14-1.85701E-12 4.01758E-14
 -1        38-8.66229E+02-8.66229E+02 9.26319E-11-6.98977E-12 1.53678E-12-3.07832E-13
 -1        39-8.66229E+02-8.66229E+02 8.91241E-11 2.54292E-12 7.11717E-14-1.12271E-12
 -1        40-8.66229E+02-8.66229E+02 9.95632E-11-4.00037E-13-2.76060E-12-2.76517E-12
 -1        41-8.66229E+02-8.66229E+02 8.47490E-11-3.68180E-12 3.91745E-13 3.99422E-12
 -1        42-1.73246E+03-1.73246E+03 1.83493E-10-2.68885E-13-3.23380E-12 1.80057E-12
 -1        43-8.66229E+02-8.66229E+02 8.26017E-11-2.09645E-12 2.03086E-12 2.43722E-12
 -1        44-5.77486E+02-5.77486E+02 5.71724E-11-6.03341E-12 4.78260E-13-1.38725E-12
 -1        45-5.77486E+02-5.77486E+02 5.63640E-11 1.00559E-11 9.31814E-13 5.82980E-13
 -1        46-5.77486E+02-5.77486E+02 5.77524E-11 7.43953E-12 1.14015E-12-2.84173E-12
 -1        47-5.77486E+02-5.77486E+02 6.07404E-11-1.28044E-13-2.21200E-12-3.72852E-13
 -1        48-8.66229E+02-8.66229E+02 9.21792E-11 2.46468E-12 4.29718E-12-1.55036E-12
 -1        49-8.66229E+02-8.66229E+02 1.05690E-10 8.57534E-12-4.44681E-12-2.00090E-12
 -1        50-5.77486E+02-5.77486E+02 6.82858E-11 2.53545E-12 1.93938E-12 2.09933E-13
 -1        51-5.77486E+02-5.77486E+02 5.64086E-11-6.47085E-12-6.08363E-13 7.12051E-14
 -1        52-5.77486E+02-5.77486E+02 7.21102E-11-8.94053E-12-1.02804E-12 2.47704E-12
 -1        53-5.77486E+02-5.77486E+02 6.28344E-11 7.62141E-13 1.58441E-12 1.67249E-12
 -1        54-8.66229E+02-8.66229E+02 1.18729E-10 2.24378E-13-7.77357E-12 1.37861E-12
 -1        55-8.66229E+02-8.66229E+02 8.37175E-11 8.87076E-12 3.38214E-12-1.40956E-12
 -1        56-5.77486E+02-5.77486E+02 5.43081E-11 2.73239E-12-3.13759E-13-1.78695E-12
 -1        57-5.77486E+02-5.77486E+02 5.27180E-11 4.93582E-12-3.53452E-12-2.10175E-12
 -1        58-5.77486E+02-5.77486E+02 6.59612E-11 2.53394E-12 4.82751E-12-4.70641E-12
 -1        59-5.77486E+02-5.77486E+02 4.95345E-11 8.63486E-12-2.94088E-12-3.71717E-13
 -1        60-8.66229E+02-8.66229E+02 8.80884E-11 1.25718E-11 7.83683E-12-1.60374E-12
 -1        61-8.66229E+02-8.66229E+02 9.13482E-11-6.79416E-12-4.27968E-12-2.16405E-12
 -1        62-5.77486E+02-5.77486E+02 6.36280E-11-3.69528E-12-1.65734E-13-3.44523E-13
 -1        63-5.77486E+02-5.77486E+02 6.50955E-11-4.23834E-12 2.87416E-12-3.56170E-12
 -1        64-5.77486E+02-5.77486E+02 6.51893E-11-7.33805E-12-2.85777E-12-4.95780E-13
 -1        65-5.77486E+02-5.77486E+02 6.01401E-11-4.13780E-12 3.62270E-12-5.77519E-12
 -1        66-8.66229E+02-8.66229E+02 1.12881E-10-1.42229E-11-1.01480E-11 3.15113E-13
 -1        67-1.73246E+03-1.73246E+03 1.97215E-10 5.69577E-13 4.73159E-12-7.77562E-12
 -1        68-8.66229E+02-8.66229E+02 9.99612E-11 1.53602E-12 8.65440E-13-1.70056E-12
 -1        69-8.66229E+02-8.66229E+02 8.98121E-11 5.94216E-12-3.53391E-13-1.07931E-12
 -1        70-8.66229E+02-8.66229E+02 9.84023E-11 1.38498E-12 3.38154E-12 2.52549E-12
 -1        71-8.66229E+02-8.66229E+02 8.26046E-11 7.04028E-12 1.20335E-12 4.50737E-12
 -1        72-1.73246E+03-1.73246E+03 2.22020E-10-5.05525E-13 9.46245E-12 6.58276E-12
 -3
    1PSTEP                       333         111           1          
  100CL  211 9.57781E-01          72                     0  111           1
 -4  TOSTRAIN    6    1
 -5  EXX         1    4    1    1
 -5  EYY         1    4    2    2
 -5  EZZ         1    4    3    3
 -5  EXY         1    4    1    2
 -5  EYZ         1    4    2    3
 -5  EZX         1    4    3    1
 -1         1-5.80352E-03-5.80352E-03 4.97444E-03 2.15232E-19 3.55974E-19 9.98095E-21
 -1         2-2.90176E-03-2.90176E-03 2.48722E-03-7.77905E-18-8.27479E-20-2.01318E-18
 -1         3-2.90176E-03-2.90176E-03 2.48722E-03-2.24689E-17-9.25071E-20 1.21003E-17
 -1         4-2.90176E-03-2.90176E-03 2.48722E-03-1.16975E-17-3.97226E-20 4.08999E-18
 -1         5-2.90176E-03-2.90176E-03 2.48722E-03 1.24313E-17-1.08638E-20 1.91827E-17
 -1         6-5.80352E-03-5.80352E-03 4.97444E-03-4.07652E-18-9.11573E-20 4.82422E-18
 -1         7-2.90176E-03-2.90176E-03 2.48722E-03 1.85320E-17 1.75078E-17-7.33954E-20
 -1         8-1.93451E-03-1.93451E-03 1.65815E-03 7.09687E-18-3.25929E-18-1.85865E-17
 -1         9-1.93451E-03-1.93451E-03 1.65815E-03 1.51687E-17 5.65617E-18 2.86071E-17
 -1        10-1.93451E-03-1.93451E-03 1.65815E-03 2.36015E-17 1.83107E-17 7.15516E-18
 -1        11-1.93451E-03-1.93451E-03 1.65815E-03-3.78468E-17-1.52477E-17-1.34142E-18
 -1        12-2.90176E-03-2.90176E-03 2.48722E-03-6.23419E-17 3.64617E-17-5.20041E-19
 -1        13-2.90176E-03-2.90176E-03 2.48722E-03-2.80722E-19 6.29706E-18-1.02988E-19
 -1        14-1.93451E-03-1.93451E-03 1.65815E-03 8.57485E-20 3.09931E-17 9.82079E-18
 -1        15-1.93451E-03-1.93451E-03 1.65815E-03-3.05582E-17-6.79016E-18 6.92383E-18
 -1        16-1.93451E-03-1.93451E-03 1.65815E-03-1.24197E-17-1.39537E-18 1.75711E-17
 -1        17-1.93451E-03-1.93451E-03 1.65815E-03 3.22072E-17 4.00936E-17 2.47282E-18
 -1        18-2.90176E-03-2.90176E-03 2.48722E-03 6.52927E-17 2.46027E-17-4.50780E-18
 -1        19-2.90176E-03-2.90176E-03 2.48722E-03 9.16547E-17 5.38881E-17 7.59238E-20
 -1        20-1.93451E-03-1.93451E-03 1.65815E-03 6.13761E-17 1.85986E-17-5.33593E-18
 -1        21-1.93451E-03-1.93451E-03 1.65815E-03-3.66978E-17-2.30260E-17-5.21789E-19
 -1        22-1.93451E-03-1.93451E-03 1.65815E-03-1.81283E-17 3.61863E-17-1.73509E-17
 -1        23-1.93451E-03-1.93451E-03 1.65815E-03-4.59714E-17 1.38095E-17 8.10379E-18
 -1        24-2.90176E-03-2.90176E-03 2.48722E-03-5.86326E-17 1.14967E-16 2.77516E-18
 -1        25-2.90176E-03-2.90176E-03 2.48722E-03-8.84793E-17-3.96206E-17 5.04755E-20
 -1        26-1.93451E-03-1.93451E-03 1.65815E-03-5.66991E-17 7.07964E-20 6.60959E-18
 -1        27-1.93451E-03-1.93451E-03 1.65815E-03 3.45299E-17 1.66322E-17 1.03944E-17
 -1        28-1.93451E-03-1.93451E-03 1.65815E-03 2.28607E-17-2.94221E-17 2.79334E-17
 -1        29-1.93451E-03-1.93451E-03 1.65815E-03 3.22223E-17 1.92400E-17-2.77855E-17
 -1        30-2.90176E-03-2.90176E-03 2.48722E-03 8.05276E-17-9.23427E-17-4.95953E-19
 -1        31-5.80352E-03-5.80352E-03 4.97444E-03-4.13483E-18 9.16822E-18 1.77909E-19
 -1        32-2.90176E-03-2.90176E-03 2.48722E-03 1.36325E-18 7.46707E-19 1.35212E-17
 -1        33-2.90176E-03-2.90176E-03 2.48722E-03 2.77777E-17 3.26375E-18 2.25097E-17
 -1        34-2.90176E-03-2.90176E-03 2.48722E-03 1.11414E-17 1.33057E-18 3.98998E-17
 -1        35-2.90176E-03-2.90176E-03 2.48722E-03-2.83800E-17-2.43962E-18 6.67902E-18
 -1        36-5.80352E-03-5.80352E-03 4.97444E-03-2.21628E-18 7.13514E-18-6.28781E-19
 -1        37-5.80352E-03-5.80352E-03 4.97444E-03-4.59374E-19-1.16750E-17 2.51014E-19
 -1        38-2.90176E-03-2.90176E-03 2.48722E-03-4.44543E-17 9.66483E-18-1.89266E-18
 -1        39-2.90176E-03-2.90176E-03 2.48722E-03 1.61727E-17 4.47938E-19-7.33463E-18
 -1        40-2.90176E-03-2.90176E-03 2.48722E-03-2.54420E-18-1.73616E-17-1.74431E-17
 -1        41-2.90176E-03-2.90176E-03 2.48722E-03-2.34159E-17 2.46193E-18 2.46928E-17
 -1        42-5.80352E-03-5.80352E-03 4.97444E-03-1.71008E-18-2.03346E-17 1.13027E-17
 -1        43-2.90176E-03-2.90176E-03 2.48722E-03-1.33332E-17 1.23757E-17 1.53283E-17
 -1        44-1.93451E-03-1.93451E-03 1.65815E-03-3.83719E-17 3.08128E-18-8.31871E-18
 -1        45-1.93451E-03-1.93451E-03 1.65815E-03 6.39548E-17 5.74203E-18 3.04535E-18
 -1        46-1.93451E-03-1.93451E-03 1.65815E-03 4.73147E-17 6.76692E-18-1.80318E-17
 -1        47-1.93451E-03-1.93451E-03 1.65815E-03-8.14350E-19-1.35789E-17-2.39428E-18
 -1        48-2.90176E-03-2.90176E-03 2.48722E-03 1.56752E-17 2.62265E-17-9.69098E-18
 -1        49-2.90176E-03-2.90176E-03 2.48722E-03 5.45384E-17-2.81108E-17-1.25853E-17
 -1        50-1.93451E-03-1.93451E-03 1.65815E-03 1.61252E-17 1.14952E-17 1.11146E-18
 -1        51-1.93451E-03-1.93451E-03 1.65815E-03-4.11540E-17-3.71199E-18 3.29787E-19
 -1        52-1.93451E-03-1.93451E-03 1.65815E-03-5.68609E-17-6.44700E-18 1.51364E-17
 -1        53-1.93451E-03-1.93451E-03 1.65815E-03 4.84715E-18 9.06565E-18 1.04582E-17
 -1        54-2.90176E-03-2.90176E-03 2.48722E-03 1.42702E-18-4.93362E-17 8.73200E-18
 -1        55-2.90176E-03-2.90176E-03 2.48722E-03 5.64172E-17 2.00721E-17-8.86397E-18
 -1        56-1.93451E-03-1.93451E-03 1.65815E-03 1.73777E-17-2.37165E-18-1.11236E-17
 -1        57-1.93451E-03-1.93451E-03 1.65815E-03 3.13914E-17-2.17228E-17-1.31906E-17
 -1        58-1.93451E-03-1.93451E-03 1.65815E-03 1.61156E-17 2.95977E-17-2.92208E-17
 -1        59-1.93451E-03-1.93451E-03 1.65815E-03 5.49169E-17-1.87816E-17-2.44680E-18
 -1        60-2.90176E-03-2.90176E-03 2.48722E-03 7.99555E-17 4.67181E-17-1.01087E-17
 -1        61-2.90176E-03-2.90176E-03 2.48722E-03-4.32102E-17-2.60277E-17-1.36089E-17
 -1        62-1.93451E-03-1.93451E-03 1.65815E-03-2.35016E-17-9.58588E-19-2.31392E-18
 -1        63-1.93451E-03-1.93451E-03 1.65815E-03-2.69554E-17 1.76430E-17-2.25882E-17
 -1        64-1.93451E-03-1.93451E-03 1.65815E-03-4.66693E-17-1.73449E-17-3.71911E-18
 -1        65-1.93451E-03-1.93451E-03 1.65815E-03-2.63160E-17 2.23975E-17-3.55720E-17
 -1        66-2.90176E-03-2.90176E-03 2.48722E-03-9.04561E-17-6.18838E-17 1.89597E-18
 -1        67-5.80352E-03-5.80352E-03 4.97444E-03 3.62245E-18 2.97431E-17-4.88962E-17
 -1        68-2.90176E-03-2.90176E-03 2.48722E-03 9.76897E-18 5.41842E-18-1.09868E-17
 -1        69-2.90176E-03-2.90176E-03 2.48722E-03 3.77916E-17-2.24269E-18-7.20470E-18
 -1        70-2.90176E-03-2.90176E-03 2.48722E-03 8.80834E-18 2.11726E-17 1.49809E-17
 -1        71-2.90176E-03-2.90176E-03 2.48722E-03 4.47755E-17 7.55609E-18 2.81182E-17
 -1        72-5.80352E-03-5.80352E-03 4.97444E-03-3.21509E-18 5.93998E-17 4.12687E-17
 -3
    1PSTEP                       334         112           1          
  100CL  212 9.66781E-01          72                     0  112           1
 -4  DISP        4    1
 -5  D1          1    2    1    0
 -5  D2          1    2    2    0
 -5  D3          1    2    3    0
 -5  ALL         1    2    0    0    1ALL
 -1         1 0.00000E+00 0.00000E+00 0.00000E+00
 -1         2-3.00040E+00 0.00000E+00 0.00000E+00
 -1         3-1.30015E+01 0.00000E+00 0.00000E+00
 -1         4-1.60019E+01 0.00000E+00 0.00000E+00
 -1         5-2.60030E+01 0.00000E+00 0.00000E+00
 -1         6-2.90034E+01 0.00000E+00 0.00000E+00
 -1         7 0.00000E+00-3.00040E+00 0.00000E+00
 -1         8-3.00040E+00-3.00040E+00 0.00000E+00
 -1         9-1.30015E+01-3.00040E+00 0.00000E+00
 -1        10-1.60019E+01-3.00040E+00 0.00000E+00
 -1        11-2.60030E+01-3.00040E+00 0.00000E+00
 -1        12-2.90034E+01-3.00040E+00 0.00000E+00
 -1        13 0.00000E+00-1.30015E+01 0.00000E+00
 -1        14-3.00040E+00-1.30015E+01 0.00000E+00
 -1        15-1.30015E+01-1.30015E+01 0.00000E+00
 -1        16-1.60019E+01-1.30015E+01 0.00000E+00
 -1        17-2.60030E+01-1.30015E+01 0.00000E+00
 -1        18-2.90034E+01-1.30015E+01 0.00000E+00
 -1        19 0.00000E+00-1.60019E+01 0.00000E+00
 -1        20-3.00040E+00-1.60019E+01 0.00000E+00
 -1        21-1.30015E+01-1.60019E+01 0.00000E+00
 -1        22-1.60019E+01-1.60019E+01 0.00000E+00
 -1        23-2.60030E+01-1.60019E+01 0.00000E+00
 -1        24-2.90034E+01-1.60019E+01 0.00000E+00
 -1        25 0.00000E+00-2.60030E+01 0.00000E+00
 -1        26-3.00040E+00-2.60030E+01 0.00000E+00
 -1        27-1.30015E+01-2.60030E+01 0.00000E+00
 -1        28-1.60019E+01-2.60030E+01 0.00000E+00
 -1        29-2.60030E+01-2.60030E+01 0.00000E+00
 -1        30-2.90034E+01-2.60030E+01 0.00000E+00
 -1        31 0.00000E+00-2.90034E+01 0.00000E+00
 -1        32-3.00040E+00-2.90034E+01 0.00000E+00
 -1        33-1.30015E+01-2.90034E+01 0.00000E+00
 -1        34-1.60019E+01-2.90034E+01 0.00000E+00
 -1        35-2.60030E+01-2.90034E+01 0.00000E+00
 -1        36-2.90034E+01-2.90034E+01 0.00000E+00
 -1        37 0.00000E+00 0.00000E+00 3.58052E+00
 -1        38-3.00040E+00 0.00000E+00 3.58052E+00
 -1        39-1.30015E+01 0.00000E+00 3.58052E+00
 -1        40-1.60019E+01 0.00000E+00 3.58052E+00
 -1        41-2.60030E+01 0.00000E+00 3.58052E+00
 -1        42-2.90034E+01 0.00000E+00 3.58052E+00
 -1        43 0.00000E+00-3.00040E+00 3.58052E+00
 -1        44-3.00040E+00-3.00040E+00 3.58052E+00
 -1        45-1.30015E+01-3.00040E+00 3.58052E+00
 -1        46-1.60019E+01-3.00040E+00 3.58052E+00
 -1        47-2.60030E+01-3.00040E+00 3.58052E+00
 -1        48-2.90034E+01-3.00040E+00 3.58052E+00
 -1        49 0.00000E+00-1.30015E+01 3.58052E+00
 -1        50-3.00040E+00-1.30015E+01 3.58052E+00
 -1        51-1.30015E+01-1.30015E+01 3.58052E+00
 -1        52-1.60019E+01-1.30015E+01 3.58052E+00
 -1        53-2.60030E+01-1.30015E+01 3.58052E+00
 -1        54-2.90034E+01-1.30015E+01 3.58052E+00
 -1        55 0.00000E+00-1.60019E+01 3.58052E+00
 -1        56-3.00040E+00-1.60019E+01 3.58052E+00
 -1        57-1.30015E+01-1.60019E+01 3.58052E+00
 -1        58-1.60019E+01-1.60019E+01 3.58052E+00
 -1        59-2.60030E+01-1.60019E+01 3.58052E+00
 -1        60-2.90034E+01-1.60019E+01 3.58052E+00
 -1        61 0.00000E+00-2.60030E+01 3.58052E+00
 -1        62-3.00040E+00-2.60030E+01 3.58052E+00
 -1        63-1.30015E+01-2.60030E+01 3.58052E+00
 -1        64-1.60019E+01-2.60030E+01 3.58052E+00
 -1        65-2.60030E+01-2.60030E+01 3.58052E+00
 -1        66-2.90034E+01-2.60030E+01 3.58052E+00
 -1        67 0.00000E+00-2.90034E+01 3.58052E+00
 -1        68-3.00040E+00-2.90034E+01 3.58052E+00
 -1        69-1.30015E+01-2.90034E+01 3.58052E+00
 -1        70-1.60019E+01-2.90034E+01 3.58052E+00
 -1        71-2.60030E+01-2.90034E+01 3.58052E+00
 -1        72-2.90034E+01-2.90034E+01 3.58052E+00
 -3
    1PSTEP                       335         112           1          
  100CL  212 9.66781E-01          72                     0  112           1
 -4  STRESS      6    1
 -5  SXX         1    4    1    1
 -5  SYY         1    4    2    2
 -5  SZZ         1    4    3    3
 -5  SXY         1    4    1    2
 -5  SYZ         1    4    2    3
 -5  SZX         1    4    3    1
 -1         1-1.78563E+03-1.78563E+03 1.31362E-10 1.86394E-14 7.53611E-14 2.98009E-14
 -1         2-8.92815E+02-8.92815E+02 7.49131E-11-9.32630E-13-3.35154E-14-1.52303E-12
 -1         3-8.92815E+02-8.92815E+02 6.42871E-11-5.94377E-12 1.02218E-14 9.12610E-13
 -1         4-8.92815E+02-8.92815E+02 7.21746E-11-2.96713E-12-1.16605E-14-1.09494E-13
 -1         5-8.92815E+02-8.92815E+02 7.70243E-11 2.53288E-13 1.44745E-14 4.19592E-12
 -1         6-1.78563E+03-1.78563E+03 1.30605E-10 8.13434E-13-4.23921E-15-2.07463E-12
 -1         7-8.92815E+02-8.92815E+02 6.00061E-11 6.86367E-12 4.67554E-12-2.40779E-14
 -1         8-5.95210E+02-5.95210E+02 5.17947E-11 3.96021E-12-1.63289E-12-2.97224E-12
 -1         9-5.95210E+02-5.95210E+02 4.61343E-11 1.59916E-12 1.19162E-13 3.54816E-12
 -1        10-5.95210E+02-5.95210E+02 4.78384E-11 3.69922E-12 3.23513E-12-1.78986E-12
 -1        11-5.95210E+02-5.95210E+02 5.21412E-11-4.73206E-12-2.05498E-12 1.47533E-12
 -1        12-8.92815E+02-8.92815E+02 6.05919E-11-7.14285E-12 3.89536E-12 1.04297E-12
 -1        13-8.92815E+02-8.92815E+02 5.83795E-11-1.75925E-12-6.65953E-13-4.55326E-15
 -1        14-5.95210E+02-5.95210E+02 5.59613E-11-2.61743E-12 5.37023E-12 1.57400E-12
 -1        15-5.95210E+02-5.95210E+02 4.25436E-11-4.24498E-12-2.61782E-13 4.74532E-13
 -1        16-5.95210E+02-5.95210E+02 4.04553E-11 9.68710E-13 6.72247E-13 3.30756E-12
 -1        17-5.95210E+02-5.95210E+02 5.48166E-11 3.02931E-12 4.30855E-12-4.92961E-13
 -1        18-8.92815E+02-8.92815E+02 5.84548E-11 7.51471E-12-6.69406E-13 2.60996E-13
 -1        19-8.92815E+02-8.92815E+02 4.28316E-11 1.80762E-11 9.57425E-12 3.10516E-14
 -1        20-5.95210E+02-5.95210E+02 4.72378E-11 1.06062E-11 2.44871E-12-1.71899E-12
 -1        21-5.95210E+02-5.95210E+02 4.76510E-11-5.07709E-12-3.08617E-12-7.82781E-13
 -1        22-5.95210E+02-5.95210E+02 4.65106E-11 2.27458E-13 7.70044E-12-6.76348E-12
 -1        23-5.95210E+02-5.95210E+02 5.62206E-11-9.01535E-12-3.10049E-12 3.52751E-12
 -1        24-8.92815E+02-8.92815E+02 4.62768E-11-1.13254E-11 1.41703E-11-3.25942E-13
 -1        25-8.92815E+02-8.92815E+02 4.49905E-11-1.87718E-11-8.59586E-12-1.32804E-15
 -1        26-5.95210E+02-5.95210E+02 4.42143E-11-9.48267E-12 8.71362E-13 3.42471E-12
 -1        27-5.95210E+02-5.95210E+02 4.40690E-11 2.69868E-12 1.31159E-12-2.58622E-13
 -1        28-5.95210E+02-5.95210E+02 3.15547E-11 4.14346E-12-4.47232E-12 6.12687E-12
 -1        29-5.95210E+02-5.95210E+02 4.34778E-11 4.81757E-12 7.55926E-12-9.45322E-12
 -1        30-8.92815E+02-8.92815E+02 4.33449E-11 1.53300E-11-1.38780E-11-9.34776E-14
 -1        31-1.78563E+03-1.78563E+03 1.16518E-10 5.21268E-13 5.53144E-13 2.22462E-14
 -1        32-8.92815E+02-8.92815E+02 7.59006E-11 4.80842E-12-7.12537E-14 1.14198E-13
 -1        33-8.92815E+02-8.92815E+02 7.07978E-11 2.67905E-12 6.57656E-13 3.39031E-12
 -1        34-8.92815E+02-8.92815E+02 6.23080E-11 4.98250E-12-9.78993E-14 8.10795E-13
 -1        35-8.92815E+02-8.92815E+02 7.91321E-11-7.67796E-12 8.69844E-13 6.73280E-12
 -1        36-1.78563E+03-1.78563E+03 1.23473E-10-6.55191E-13-1.02390E-12-9.13015E-13
 -1        37-1.78563E+03-1.78563E+03 1.43566E-10-5.45745E-14-3.21736E-12-6.81289E-13
 -1        38-8.92815E+02-8.92815E+02 6.69169E-11-4.85526E-12 1.63909E-12-1.87857E-12
 -1        39-8.92815E+02-8.92815E+02 6.16418E-11-9.09959E-13-1.61304E-13-8.21472E-13
 -1        40-8.92815E+02-8.92815E+02 7.91170E-11-5.27704E-12-2.31580E-12-2.33963E-12
 -1        41-8.92815E+02-8.92815E+02 6.19941E-11-8.67342E-13 9.83403E-13 3.69105E-12
 -1        42-1.78563E+03-1.78563E+03 1.30383E-10-7.06780E-13-2.37297E-12-8.95134E-13
 -1        43-8.92815E+02-8.92815E+02 5.99897E-11-2.79842E-12 3.02918E-12 2.82893E-12
 -1        44-5.95210E+02-5.95210E+02 4.19845E-11-5.13052E-12-5.17820E-13-1.07023E-12
 -1        45-5.95210E+02-5.95210E+02 3.54966E-11 9.05782E-12 1.31705E-13 7.68466E-13
 -1        46-5.95210E+02-5.95210E+02 4.39932E-11 6.11545E-12 1.55696E-12-4.08122E-12
 -1        47-5.95210E+02-5.95210E+02 4.42028E-11 8.94296E-13-1.36768E-12 2.91785E-13
 -1        48-8.92815E+02-8.92815E+02 6.36033E-11 1.39329E-12 2.72815E-12-1.95832E-12
 -1        49-8.92815E+02-8.92815E+02 8.49789E-11 9.57512E-12-5.33894E-12-2.22455E-12
 -1        50-5.95210E+02-5.95210E+02 5.35937E-11 5.11472E-13 2.72115E-12 9.61376E-14
 -1        51-5.95210E+02-5.95210E+02 4.20369E-11-5.24162E-12-9.70605E-13 4.04839E-13
 -1        52-5.95210E+02-5.95210E+02 6.24075E-11-1.21102E-11-3.79802E-13 3.02341E-12
 -1        53-5.95210E+02-5.95210E+02 3.97318E-11 2.27351E-12 3.52946E-12 7.32155E-13
 -1        54-8.92815E+02-8.92815E+02 9.02402E-11-1.80775E-12-6.98535E-12 1.78600E-12
 -1        55-8.92815E+02-8.92815E+02 5.94034E-11 1.01351E-11 5.48952E-12-1.57536E-12
 -1        56-5.95210E+02-5.95210E+02 3.69833E-11 8.84791E-13-1.72212E-13-2.74609E-12
 -1        57-5.95210E+02-5.95210E+02 2.79690E-11 8.00178E-12-4.13092E-12-1.14891E-12
 -1        58-5.95210E+02-5.95210E+02 4.80856E-11 1.19477E-12 6.41030E-12-7.11657E-12
 -1        59-5.95210E+02-5.95210E+02 3.36949E-11 1.24681E-11-3.51756E-12 1.37698E-12
 -1        60-8.92815E+02-8.92815E+02 6.38961E-11 1.42065E-11 7.56816E-12-4.00092E-12
 -1        61-8.92815E+02-8.92815E+02 7.29960E-11-5.00073E-12-6.90830E-12-2.78857E-12
 -1        62-5.95210E+02-5.95210E+02 4.93225E-11-4.87744E-12 1.39141E-12 1.58984E-12
 -1        63-5.95210E+02-5.95210E+02 5.40249E-11-2.38201E-12 1.53639E-12-4.79034E-12
 -1        64-5.95210E+02-5.95210E+02 5.46102E-11-1.22068E-11-1.57303E-12 2.01044E-12
 -1        65-5.95210E+02-5.95210E+02 4.52308E-11-2.20271E-12 8.26544E-12-8.54354E-12
 -1        66-8.92815E+02-8.92815E+02 1.00065E-10-2.05369E-11-1.27973E-11 4.86522E-13
 -1        67-1.78563E+03-1.78563E+03 1.51272E-10 2.63849E-14 4.65353E-12-8.75618E-12
 -1        68-8.92815E+02-8.92815E+02 7.23334E-11-2.30225E-12 1.34446E-12-4.23441E-12
 -1        69-8.92815E+02-8.92815E+02 5.78486E-11 8.06999E-12 1.04046E-12 1.62988E-12
 -1        70-8.92815E+02-8.92815E+02 6.96090E-11-6.57489E-12 4.08089E-12-1.78275E-12
 -1        71-8.92815E+02-8.92815E+02 4.04404E-11 1.74560E-11 9.05608E-13 8.04191E-12
 -1        72-1.78563E+03-1.78563E+03 1.57876E-10-1.80362E-13 4.79917E-12 5.32335E-12
 -3
    1PSTEP                       336         112           1          
  100CL  212 9.66781E-01          72                     0  112           1
 -4  TOSTRAIN    6    1
 -5  EXX         1    4    1    1
 -5  EYY         1    4    2    2
 -5  EZZ         1    4    3    3
 -5  EXY         1    4    1    2
 -5  EYZ         1    4    2    3
 -5  EZX         1    4    3    1
 -1         1-5.98255E-03-5.98255E-03 5.12790E-03 1.18645E-19 4.71736E-19 1.87251E-19
 -1         2-2.99127E-03-2.99127E-03 2.56395E-03-5.93647E-18-2.09508E-19-9.36976E-18
 -1         3-2.99127E-03-2.99127E-03 2.56395E-03-3.78339E-17 6.06281E-20 5.61627E-18
 -1         4-2.99127E-03-2.99127E-03 2.56395E-03-1.88867E-17-7.09718E-20-6.73072E-19
 -1         5-2.99127E-03-2.99127E-03 2.56395E-03 1.61225E-18 8.96579E-20 2.58187E-17
 -1         6-5.98255E-03-5.98255E-03 5.12790E-03 5.17776E-18-2.83496E-20-1.27663E-17
 -1         7-2.99127E-03-2.99127E-03 2.56395E-03 4.36893E-17 2.87742E-17-1.51833E-19
 -1         8-1.99418E-03-1.99418E-03 1.70930E-03 2.52079E-17-1.00499E-17-1.82916E-17
 -1         9-1.99418E-03-1.99418E-03 1.70930E-03 1.01791E-17 7.31716E-19 2.18326E-17
 -1        10-1.99418E-03-1.99418E-03 1.70930E-03 2.35467E-17 1.99074E-17-1.10139E-17
 -1        11-1.99418E-03-1.99418E-03 1.70930E-03-3.01210E-17-1.26444E-17 9.07974E-18
 -1        12-2.99127E-03-2.99127E-03 2.56395E-03-4.54664E-17 2.39675E-17 6.42005E-18
 -1        13-2.99127E-03-2.99127E-03 2.56395E-03-1.11982E-17-4.09732E-18-2.86933E-20
 -1        14-1.99418E-03-1.99418E-03 1.70930E-03-1.66607E-17 3.30445E-17 9.68491E-18
 -1        15-1.99418E-03-1.99418E-03 1.70930E-03-2.70206E-17-1.61006E-18 2.91890E-18
 -1        16-1.99418E-03-1.99418E-03 1.70930E-03 6.16613E-18 4.13633E-18 2.03515E-17
 -1        17-1.99418E-03-1.99418E-03 1.70930E-03 1.92825E-17 2.65118E-17-3.03452E-18
 -1        18-2.99127E-03-2.99127E-03 2.56395E-03 4.78334E-17-4.11834E-18 1.60423E-18
 -1        19-2.99127E-03-2.99127E-03 2.56395E-03 1.15060E-16 5.89140E-17 1.92918E-19
 -1        20-1.99418E-03-1.99418E-03 1.70930E-03 6.75116E-17 1.50674E-17-1.05763E-17
 -1        21-1.99418E-03-1.99418E-03 1.70930E-03-3.23172E-17-1.89894E-17-4.81701E-18
 -1        22-1.99418E-03-1.99418E-03 1.70930E-03 1.44784E-18 4.73830E-17-4.16182E-17
 -1        23-1.99418E-03-1.99418E-03 1.70930E-03-5.73854E-17-1.90790E-17 2.17069E-17
 -1        24-2.99127E-03-2.99127E-03 2.56395E-03-7.20899E-17 8.71985E-17-2.00422E-18
 -1        25-2.99127E-03-2.99127E-03 2.56395E-03-1.19488E-16-5.28936E-17-9.42581E-21
 -1        26-1.99418E-03-1.99418E-03 1.70930E-03-6.03601E-17 5.36093E-18 2.10726E-17
 -1        27-1.99418E-03-1.99418E-03 1.70930E-03 1.71779E-17 8.07085E-18-1.59231E-18
 -1        28-1.99418E-03-1.99418E-03 1.70930E-03 2.63744E-17-2.75203E-17 3.76997E-17
 -1        29-1.99418E-03-1.99418E-03 1.70930E-03 3.06653E-17 4.65137E-17-5.81686E-17
 -1        30-2.99127E-03-2.99127E-03 2.56395E-03 9.75799E-17-8.53956E-17-5.74889E-19
 -1        31-5.98255E-03-5.98255E-03 5.12790E-03 3.31803E-18 3.40280E-18 1.40094E-19
 -1        32-2.99127E-03-2.99127E-03 2.56395E-03 3.06071E-17-4.39727E-19 7.04301E-19
 -1        33-2.99127E-03-2.99127E-03 2.56395E-03 1.70530E-17 4.04711E-18 2.08629E-17
 -1        34-2.99127E-03-2.99127E-03 2.56395E-03 3.17151E-17-6.03219E-19 4.99027E-18
 -1        35-2.99127E-03-2.99127E-03 2.56395E-03-4.88725E-17 5.35149E-18 4.14311E-17
 -1        36-5.98255E-03-5.98255E-03 5.12790E-03-4.17049E-18-6.30231E-18-5.61417E-18
 -1        37-5.98255E-03-5.98255E-03 5.12790E-03-3.47383E-19-2.02451E-17-4.28673E-18
 -1        38-2.99127E-03-2.99127E-03 2.56395E-03-3.09052E-17 1.03141E-17-1.16068E-17
 -1        39-2.99127E-03-2.99127E-03 2.56395E-03-5.79216E-18-1.01273E-18-5.30860E-18
 -1        40-2.99127E-03-2.99127E-03 2.56395E-03-3.35899E-17-1.45752E-17-1.46503E-17
 -1        41-2.99127E-03-2.99127E-03 2.56395E-03-5.52089E-18 6.18755E-18 2.26979E-17
 -1        42-5.98255E-03-5.98255E-03 5.12790E-03-4.49887E-18-1.49296E-17-5.53664E-18
 -1        43-2.99127E-03-2.99127E-03 2.56395E-03-1.78128E-17 1.84157E-17 1.77985E-17
 -1        44-1.99418E-03-1.99418E-03 1.70930E-03-3.26573E-17-3.03418E-18-6.32471E-18
 -1        45-1.99418E-03-1.99418E-03 1.70930E-03 5.76557E-17 7.97624E-19 4.35784E-18
 -1        46-1.99418E-03-1.99418E-03 1.70930E-03 3.89267E-17 9.36121E-18-2.54839E-17
 -1        47-1.99418E-03-1.99418E-03 1.70930E-03 5.69247E-18-8.32361E-18 1.57666E-18
 -1        48-2.99127E-03-2.99127E-03 2.56395E-03 8.86872E-18 1.66163E-17-1.23784E-17
 -1        49-2.99127E-03-2.99127E-03 2.56395E-03 6.09485E-17-3.34786E-17-1.39958E-17
 -1        50-1.99418E-03-1.99418E-03 1.70930E-03 3.25568E-18 1.63846E-17 3.86594E-19
 -1        51-1.99418E-03-1.99418E-03 1.70930E-03-3.33645E-17-6.11000E-18 2.47004E-18
 -1        52-1.99418E-03-1.99418E-03 1.70930E-03-7.70848E-17-2.49556E-18 1.85830E-17
 -1        53-1.99418E-03-1.99418E-03 1.70930E-03 1.44716E-17 2.16684E-17 4.70680E-18
 -1        54-2.99127E-03-2.99127E-03 2.56395E-03-1.15069E-17-4.39138E-17 1.12922E-17
 -1        55-2.99127E-03-2.99127E-03 2.56395E-03 6.45130E-17 3.31525E-17-9.91235E-18
 -1        56-1.99418E-03-1.99418E-03 1.70930E-03 5.63196E-18-1.41916E-18-1.70434E-17
 -1        57-1.99418E-03-1.99418E-03 1.70930E-03 5.09337E-17-2.55584E-17-7.10494E-18
 -1        58-1.99418E-03-1.99418E-03 1.70930E-03 7.60506E-18 3.92934E-17-4.38259E-17
 -1        59-1.99418E-03-1.99418E-03 1.70930E-03 7.93631E-17-2.16928E-17 8.10023E-18
 -1        60-2.99127E-03-2.99127E-03 2.56395E-03 9.04286E-17 4.56306E-17-2.51781E-17
 -1        61-2.99127E-03-2.99127E-03 2.56395E-03-3.18311E-17-4.21782E-17-1.75435E-17
 -1        62-1.99418E-03-1.99418E-03 1.70930E-03-3.10464E-17 8.64038E-18 9.52644E-18
 -1        63-1.99418E-03-1.99418E-03 1.70930E-03-1.51622E-17 9.48192E-18-3.00764E-17
 -1        64-1.99418E-03-1.99418E-03 1.70930E-03-7.76999E-17-9.26619E-18 1.17711E-17
 -1        65-1.99418E-03-1.99418E-03 1.70930E-03-1.40209E-17 5.09163E-17-5.25298E-17
 -1        66-2.99127E-03-2.99127E-03 2.56395E-03-1.30723E-16-7.84268E-17 3.05589E-18
 -1        67-5.98255E-03-5.98255E-03 5.12790E-03 1.67948E-19 2.92964E-17-5.50924E-17
 -1        68-2.99127E-03-2.99127E-03 2.56395E-03-1.46545E-17 8.39081E-18-2.66621E-17
 -1        69-2.99127E-03-2.99127E-03 2.56395E-03 5.13679E-17 6.44526E-18 9.69203E-18
 -1        70-2.99127E-03-2.99127E-03 2.56395E-03-4.18512E-17 2.57272E-17-1.13070E-17
 -1        71-2.99127E-03-2.99127E-03 2.56395E-03 1.11113E-16 5.65490E-18 4.97910E-17
 -1        72-5.98255E-03-5.98255E-03 5.12790E-03-1.14806E-18 3.01838E-17 3.33693E-17
 -3
    1PSTEP                       337         113           1          
  100CL  213 9.75781E-01          72                     0  113           1
 -4  DISP        4    1
 -5  D1          1    2    1    0
 -5  D2          1    2    2    0
 -5  D3          1    2    3    0
 -5  ALL         1    2    0    0    1ALL
 -1         1 0.00000E+00 0.00000E+00 0.00000E+00
 -1         2-3.09048E+00 0.00000E+00 0.00000E+00
 -1         3-1.30915E+01 0.00000E+00 0.00000E+00
 -1         4-1.61820E+01 0.00000E+00 0.00000E+00
 -1         5-2.61830E+01 0.00000E+00 0.00000E+00
 -1         6-2.92734E+01 0.00000E+00 0.00000E+00
 -1         7 0.00000E+00-3.09048E+00 0.00000E+00
 -1         8-3.09048E+00-3.09048E+00 0.00000E+00
 -1         9-1.30915E+01-3.09048E+00 0.00000E+00
 -1        10-1.61820E+01-3.09048E+00 0.00000E+00
 -1        11-2.61830E+01-3.09048E+00 0.00000E+00
 -1        12-2.92734E+01-3.09048E+00 0.00000E+00
 -1        13 0.00000E+00-1.30915E+01 0.00000E+00
 -1        14-3.09048E+00-1.30915E+01 0.00000E+00
 -1        15-1.30915E+01-1.30915E+01 0.00000E+00
 -1        16-1.61820E+01-1.30915E+01 0.00000E+00
 -1        17-2.61830E+01-1.30915E+01 0.00000E+00
 -1        18-2.92734E+01-1.30915E+01 0.00000E+00
 -1        19 0.00000E+00-1.61820E+01 0.00000E+00
 -1        20-3.09048E+00-1.61820E+01 0.00000E+00
 -1        21-1.30915E+01-1.61820E+01 0.00000E+00
 -1        22-1.61820E+01-1.61820E+01 0.00000E+00
 -1        23-2.61830E+01-1.61820E+01 0.00000E+00
 -1        24-2.92734E+01-1.61820E+01 0.00000E+00
 -1        25 0.00000E+00-2.61830E+01 0.00000E+00
 -1        26-3.09048E+00-2.61830E+01 0.00000E+00
 -1        27-1.30915E+01-2.61830E+01 0.00000E+00
 -1        28-1.61820E+01-2.61830E+01 0.00000E+00
 -1        29-2.61830E+01-2.61830E+01 0.00000E+00
 -1        30-2.92734E+01-2.61830E+01 0.00000E+00
 -1        31 0.00000E+00-2.92734E+01 0.00000E+00
 -1        32-3.09048E+00-2.92734E+01 0.00000E+00
 -1        33-1.30915E+01-2.92734E+01 0.00000E+00
 -1        34-1.61820E+01-2.92734E+01 0.00000E+00
 -1        35-2.61830E+01-2.92734E+01 0.00000E+00
 -1        36-2.92734E+01-2.92734E+01 0.00000E+00
 -1        37 0.00000E+00 0.00000E+00 3.68740E+00
 -1        38-3.09048E+00 0.00000E+00 3.68740E+00
 -1        39-1.30915E+01 0.00000E+00 3.68740E+00
 -1        40-1.61820E+01 0.00000E+00 3.68740E+00
 -1        41-2.61830E+01 0.00000E+00 3.68740E+00
 -1        42-2.92734E+01 0.00000E+00 3.68740E+00
 -1        43 0.00000E+00-3.09048E+00 3.68740E+00
 -1        44-3.09048E+00-3.09048E+00 3.68740E+00
 -1        45-1.30915E+01-3.09048E+00 3.68740E+00
 -1        46-1.61820E+01-3.09048E+00 3.68740E+00
 -1        47-2.61830E+01-3.09048E+00 3.68740E+00
 -1        48-2.92734E+01-3.09048E+00 3.68740E+00
 -1        49 0.00000E+00-1.30915E+01 3.68740E+00
 -1        50-3.09048E+00-1.30915E+01 3.68740E+00
 -1        51-1.30915E+01-1.30915E+01 3.68740E+00
 -1        52-1.61820E+01-1.30915E+01 3.68740E+00
 -1        53-2.61830E+01-1.30915E+01 3.68740E+00
 -1        54-2.92734E+01-1.30915E+01 3.68740E+00
 -1        55 0.00000E+00-1.61820E+01 3.68740E+00
 -1        56-3.09048E+00-1.61820E+01 3.68740E+00
 -1        57-1.30915E+01-1.61820E+01 3.68740E+00
 -1        58-1.61820E+01-1.61820E+01 3.68740E+00
 -1        59-2.61830E+01-1.61820E+01 3.68740E+00
 -1        60-2.92734E+01-1.61820E+01 3.68740E+00
 -1        61 0.00000E+00-2.61830E+01 3.68740E+00
 -1        62-3.09048E+00-2.61830E+01 3.68740E+00
 -1        63-1.30915E+01-2.61830E+01 3.68740E+00
 -1        64-1.61820E+01-2.61830E+01 3.68740E+00
 -1        65-2.61830E+01-2.61830E+01 3.68740E+00
 -1        66-2.92734E+01-2.61830E+01 3.68740E+00
 -1        67 0.00000E+00-2.92734E+01 3.68740E+00
 -1        68-3.09048E+00-2.92734E+01 3.68740E+00
 -1        69-1.30915E+01-2.92734E+01 3.68740E+00
 -1        70-1.61820E+01-2.92734E+01 3.68740E+00
 -1        71-2.61830E+01-2.92734E+01 3.68740E+00
 -1        72-2.92734E+01-2.92734E+01 3.68740E+00
 -3
    1PSTEP                       338         113           1          
  100CL  213 9.75781E-01          72                     0  113           1
 -4  STRESS      6    1
 -5  SXX         1    4    1    1
 -5  SYY         1    4    2    2
 -5  SZZ         1    4    3    3
 -5  SXY         1    4    1    2
 -5  SYZ         1    4    2    3
 -5  SZX         1    4    3    1
 -1         1-1.83880E+03-1.83880E+03 1.54980E-10-2.09892E-14-2.66728E-14 1.40999E-14
 -1         2-9.19398E+02-9.19398E+02 8.79688E-11-5.06260E-12 5.33644E-15-2.49982E-12
 -1         3-9.19398E+02-9.19398E+02 7.73146E-11-2.86263E-12 7.81083E-15 2.64748E-12
 -1         4-9.19398E+02-9.19398E+02 8.58860E-11-3.13247E-12 3.23260E-14-2.06035E-12
 -1         5-9.19398E+02-9.19398E+02 8.54440E-11 8.51235E-13 5.60160E-15 4.99715E-12
 -1         6-1.83880E+03-1.83880E+03 1.53187E-10 3.58901E-13-2.28590E-14 1.13470E-13
 -1         7-9.19398E+02-9.19398E+02 7.15332E-11 7.36885E-12 1.72034E-12-1.18257E-14
 -1         8-6.12932E+02-6.12932E+02 5.63793E-11 1.54450E-12-2.40878E-12-4.99452E-13
 -1         9-6.12932E+02-6.12932E+02 4.97620E-11 4.39703E-12 6.89576E-13 1.93408E-12
 -1        10-6.12932E+02-6.12932E+02 5.34782E-11 4.33266E-12 1.89349E-12 1.20165E-13
 -1        11-6.12932E+02-6.12932E+02 5.38612E-11-1.70678E-12 6.99667E-13 1.33247E-12
 -1        12-9.19398E+02-9.19398E+02 7.52855E-11-3.09831E-12 1.04857E-12-5.69104E-13
 -1        13-9.19398E+02-9.19398E+02 7.18430E-11-3.84695E-12-2.89160E-13 1.96203E-14
 -1        14-6.12932E+02-6.12932E+02 5.69377E-11-1.58204E-12 4.41745E-12 3.22622E-12
 -1        15-6.12932E+02-6.12932E+02 4.60489E-11-5.77969E-12 7.50175E-13-1.93805E-12
 -1        16-6.12932E+02-6.12932E+02 5.02411E-11-2.81448E-12-1.50636E-12 1.98010E-12
 -1        17-6.12932E+02-6.12932E+02 5.41475E-11 2.08675E-12 8.79047E-13-2.37702E-13
 -1        18-9.19398E+02-9.19398E+02 7.48995E-11 5.20603E-12 2.44080E-12-4.59790E-13
 -1        19-9.19398E+02-9.19398E+02 6.70468E-11 8.23308E-12 2.48958E-12-1.79499E-14
 -1        20-6.12932E+02-6.12932E+02 5.39944E-11 6.47131E-12 2.58517E-12-1.65031E-12
 -1        21-6.12932E+02-6.12932E+02 5.02298E-11 3.97739E-13 1.77642E-12 2.88581E-12
 -1        22-6.12932E+02-6.12932E+02 5.72217E-11 3.67657E-12-8.38560E-13-1.78210E-12
 -1        23-6.12932E+02-6.12932E+02 5.66547E-11-2.84870E-12-2.50743E-12 1.38777E-12
 -1        24-9.19398E+02-9.19398E+02 6.53764E-11-2.13281E-12 9.79955E-12 2.27386E-13
 -1        25-9.19398E+02-9.19398E+02 6.64505E-11-1.09138E-11-3.19261E-12 5.76375E-15
 -1        26-6.12932E+02-6.12932E+02 5.10740E-11-3.31973E-12-1.10882E-13 1.60943E-12
 -1        27-6.12932E+02-6.12932E+02 5.11077E-11-2.92479E-12-7.37849E-13 4.58909E-13
 -1        28-6.12932E+02-6.12932E+02 5.00602E-11-3.90808E-12-1.50559E-12 8.59278E-14
 -1        29-6.12932E+02-6.12932E+02 5.56292E-11 5.17568E-12 2.86899E-12 7.21834E-13
 -1        30-9.19398E+02-9.19398E+02 6.94498E-11 3.11648E-12-7.71028E-12 2.23005E-13
 -1        31-1.83880E+03-1.83880E+03 1.48315E-10-1.28796E-13 1.65031E-12 1.89166E-14
 -1        32-9.19398E+02-9.19398E+02 8.75691E-11 5.86977E-12 6.44348E-13-2.13077E-12
 -1        33-9.19398E+02-9.19398E+02 8.04335E-11-1.03335E-13-2.75391E-14 6.09555E-12
 -1        34-9.19398E+02-9.19398E+02 7.16996E-11-1.99662E-12 1.06863E-13 5.77912E-12
 -1        35-9.19398E+02-9.19398E+02 7.29277E-11 5.54711E-12 4.19836E-13-1.35413E-12
 -1        36-1.83880E+03-1.83880E+03 1.47671E-10 2.55401E-13-1.56555E-13 5.93226E-13
 -1        37-1.83880E+03-1.83880E+03 1.50098E-10 4.94146E-15 1.50803E-12-8.77846E-13
 -1        38-9.19398E+02-9.19398E+02 7.52410E-11-2.78539E-12 1.94815E-12-2.92656E-12
 -1        39-9.19398E+02-9.19398E+02 6.82925E-11-2.54572E-12-5.28208E-13 2.90098E-13
 -1        40-9.19398E+02-9.19398E+02 8.11566E-11 2.75235E-13-2.01173E-12-4.66379E-12
 -1        41-9.19398E+02-9.19398E+02 7.73899E-11-4.54840E-12-1.40355E-12 2.98857E-12
 -1        42-1.83880E+03-1.83880E+03 1.36130E-10-2.28151E-13-2.83022E-13-1.62793E-12
 -1        43-9.19398E+02-9.19398E+02 7.30377E-11 2.90988E-13 2.41592E-12 7.30151E-13
 -1        44-6.12932E+02-6.12932E+02 5.01235E-11-1.66458E-12-1.10075E-12-5.26497E-14
 -1        45-6.12932E+02-6.12932E+02 4.73033E-11 6.24600E-12 3.35381E-13-2.14830E-13
 -1        46-6.12932E+02-6.12932E+02 5.34804E-11 8.09569E-12 5.19027E-13-2.16245E-12
 -1        47-6.12932E+02-6.12932E+02 5.32669E-11-5.33160E-12-2.66205E-13 3.57725E-13
 -1        48-9.19398E+02-9.19398E+02 7.45212E-11-3.34156E-12 8.80000E-13 6.21943E-14
 -1        49-9.19398E+02-9.19398E+02 8.73047E-11 5.41530E-12-2.68238E-12-2.27288E-12
 -1        50-6.12932E+02-6.12932E+02 5.98628E-11-1.93990E-12 2.63210E-12 1.70430E-12
 -1        51-6.12932E+02-6.12932E+02 5.52844E-11-3.32972E-12 8.63429E-13-3.84414E-12
 -1        52-6.12932E+02-6.12932E+02 6.11192E-11-1.10613E-11-7.93735E-13-3.31691E-16
 -1        53-6.12932E+02-6.12932E+02 4.75926E-11 4.90576E-12 1.24085E-12 4.33191E-13
 -1        54-9.19398E+02-9.19398E+02 9.23975E-11 6.30230E-12-3.24621E-12 2.07935E-12
 -1        55-9.19398E+02-9.19398E+02 6.72688E-11 1.07216E-11-1.76647E-13-2.49547E-12
 -1        56-6.12932E+02-6.12932E+02 4.55571E-11 1.59764E-12 9.81836E-13-3.32591E-12
 -1        57-6.12932E+02-6.12932E+02 4.28257E-11 4.07463E-12 1.79827E-12 1.65725E-12
 -1        58-6.12932E+02-6.12932E+02 5.02577E-11-4.42725E-12 2.15194E-13-2.85749E-12
 -1        59-6.12932E+02-6.12932E+02 4.72608E-11 1.12435E-11-2.45692E-12-5.65532E-13
 -1        60-9.19398E+02-9.19398E+02 7.74133E-11 1.60490E-11 4.36342E-12-2.58032E-12
 -1        61-9.19398E+02-9.19398E+02 7.64459E-11-7.44463E-12-2.54375E-12-2.35124E-12
 -1        62-6.12932E+02-6.12932E+02 5.45824E-11-5.04499E-12 2.07450E-13-1.64054E-15
 -1        63-6.12932E+02-6.12932E+02 5.12068E-11 9.39252E-13 9.69542E-13-1.36414E-12
 -1        64-6.12932E+02-6.12932E+02 5.30211E-11-1.03065E-13-1.87263E-12-1.91661E-12
 -1        65-6.12932E+02-6.12932E+02 4.73531E-11-9.20126E-12 2.57001E-12-1.80143E-12
 -1        66-9.19398E+02-9.19398E+02 8.75582E-11-1.63799E-11-5.44070E-12-3.73102E-12
 -1        67-1.83880E+03-1.83880E+03 1.49815E-10-4.97020E-13-2.31025E-12-2.85285E-12
 -1        68-9.19398E+02-9.19398E+02 8.29850E-11-3.71358E-13-5.72830E-15-3.48406E-12
 -1        69-9.19398E+02-9.19398E+02 8.14035E-11 6.77119E-12 2.82777E-12-5.95751E-15
 -1        70-9.19398E+02-9.19398E+02 7.63610E-11 5.44848E-12-5.47224E-13 6.82429E-13
 -1        71-9.19398E+02-9.19398E+02 6.60427E-11 2.13512E-12-1.02433E-12 2.32455E-13
 -1        72-1.83880E+03-1.83880E+03 1.85326E-10 5.57490E-13 8.83104E-12 2.79111E-12
 -3
    1PSTEP                       339         113           1          
  100CL  213 9.75781E-01          72                     0  113           1
 -4  TOSTRAIN    6    1
 -5  EXX         1    4    1    1
 -5  EYY         1    4    2    2
 -5  EZZ         1    4    3    3
 -5  EXY         1    4    1    2
 -5  EYZ         1    4    2    3
 -5  EZX         1    4    3    1
 -1         1-6.16160E-03-6.16160E-03 5.28138E-03-1.33716E-19-1.63075E-19 8.90418E-20
 -1         2-3.08080E-03-3.08080E-03 2.64069E-03-3.22524E-17 3.36903E-20-1.53783E-17
 -1         3-3.08080E-03-3.08080E-03 2.64069E-03-1.82370E-17 4.99490E-20 1.62885E-17
 -1         4-3.08080E-03-3.08080E-03 2.64069E-03-1.99560E-17 2.02702E-19-1.26751E-17
 -1         5-3.08080E-03-3.08080E-03 2.64069E-03 5.42297E-18 3.45305E-20 3.07422E-17
 -1         6-6.16160E-03-6.16160E-03 5.28138E-03 2.28645E-18-1.43254E-19 6.95359E-19
 -1         7-3.08080E-03-3.08080E-03 2.64069E-03 4.69448E-17 1.05844E-17-7.26125E-20
 -1         8-2.05387E-03-2.05387E-03 1.76046E-03 9.83954E-18-1.48188E-17-3.07264E-18
 -1         9-2.05387E-03-2.05387E-03 1.76046E-03 2.80122E-17 4.24367E-18 1.19010E-17
 -1        10-2.05387E-03-2.05387E-03 1.76046E-03 2.76021E-17 1.16518E-17 7.41449E-19
 -1        11-2.05387E-03-2.05387E-03 1.76046E-03-1.08734E-17 4.30399E-18 8.19891E-18
 -1        12-3.08080E-03-3.08080E-03 2.64069E-03-1.97385E-17 6.45284E-18-3.49935E-18
 -1        13-3.08080E-03-3.08080E-03 2.64069E-03-2.45078E-17-1.77490E-18 1.22556E-19
 -1        14-2.05387E-03-2.05387E-03 1.76046E-03-1.00787E-17 2.71743E-17 1.98496E-17
 -1        15-2.05387E-03-2.05387E-03 1.76046E-03-3.68207E-17 4.61427E-18-1.19237E-17
 -1        16-2.05387E-03-2.05387E-03 1.76046E-03-1.79302E-17-9.26694E-18 1.21816E-17
 -1        17-2.05387E-03-2.05387E-03 1.76046E-03 1.32941E-17 5.40695E-18-1.46204E-18
 -1        18-3.08080E-03-3.08080E-03 2.64069E-03 3.31661E-17 1.50171E-17-2.82819E-18
 -1        19-3.08080E-03-3.08080E-03 2.64069E-03 5.24506E-17 1.53205E-17-1.10876E-19
 -1        20-2.05387E-03-2.05387E-03 1.76046E-03 4.12268E-17 1.59018E-17-1.01533E-17
 -1        21-2.05387E-03-2.05387E-03 1.76046E-03 2.53388E-18 1.09279E-17 1.77547E-17
 -1        22-2.05387E-03-2.05387E-03 1.76046E-03 2.34224E-17-5.15841E-18-1.09633E-17
 -1        23-2.05387E-03-2.05387E-03 1.76046E-03-1.81482E-17-1.54280E-17 8.53677E-18
 -1        24-3.08080E-03-3.08080E-03 2.64069E-03-1.35875E-17 6.02928E-17 1.39730E-18
 -1        25-3.08080E-03-3.08080E-03 2.64069E-03-6.95284E-17-1.96378E-17 3.85964E-20
 -1        26-2.05387E-03-2.05387E-03 1.76046E-03-2.11490E-17-6.84326E-19 9.90366E-18
 -1        27-2.05387E-03-2.05387E-03 1.76046E-03-1.86330E-17-4.54059E-18 2.82350E-18
 -1        28-2.05387E-03-2.05387E-03 1.76046E-03-2.48972E-17-9.26027E-18 5.28835E-19
 -1        29-2.05387E-03-2.05387E-03 1.76046E-03 3.29728E-17 1.76517E-17 4.43990E-18
 -1        30-3.08080E-03-3.08080E-03 2.64069E-03 1.98542E-17-4.74347E-17 1.37052E-18
 -1        31-6.16160E-03-6.16160E-03 5.28138E-03-8.20525E-19 1.01606E-17 1.13241E-19
 -1        32-3.08080E-03-3.08080E-03 2.64069E-03 3.73946E-17 3.96094E-18-1.31105E-17
 -1        33-3.08080E-03-3.08080E-03 2.64069E-03-6.58316E-19-1.71230E-19 3.75039E-17
 -1        34-3.08080E-03-3.08080E-03 2.64069E-03-1.27199E-17 6.61173E-19 3.55572E-17
 -1        35-3.08080E-03-3.08080E-03 2.64069E-03 3.53390E-17 2.58386E-18-8.32880E-18
 -1        36-6.16160E-03-6.16160E-03 5.28138E-03 1.62709E-18-9.57697E-19 3.65380E-18
 -1        37-6.16160E-03-6.16160E-03 5.28138E-03 3.14806E-20 9.49321E-18-5.52440E-18
 -1        38-3.08080E-03-3.08080E-03 2.64069E-03-1.77449E-17 1.22638E-17-1.80667E-17
 -1        39-3.08080E-03-3.08080E-03 2.64069E-03-1.62180E-17-3.32404E-18 1.46093E-18
 -1        40-3.08080E-03-3.08080E-03 2.64069E-03 1.75344E-18-1.26647E-17-2.90164E-17
 -1        41-3.08080E-03-3.08080E-03 2.64069E-03-2.89765E-17-8.83596E-18 1.81894E-17
 -1        42-6.16160E-03-6.16160E-03 5.28138E-03-1.45348E-18-1.78070E-18-1.04092E-17
 -1        43-3.08080E-03-3.08080E-03 2.64069E-03 1.85380E-18 1.49710E-17 4.59580E-18
 -1        44-2.05387E-03-2.05387E-03 1.76046E-03-1.06046E-17-6.58647E-18-2.54741E-19
 -1        45-2.05387E-03-2.05387E-03 1.76046E-03 3.97915E-17 2.01440E-18-1.67715E-18
 -1        46-2.05387E-03-2.05387E-03 1.76046E-03 5.15753E-17 2.99865E-18-1.36593E-17
 -1        47-2.05387E-03-2.05387E-03 1.76046E-03-3.39661E-17-1.77027E-18 2.18279E-18
 -1        48-3.08080E-03-3.08080E-03 2.64069E-03-2.12881E-17 5.38596E-18 3.55615E-19
 -1        49-3.08080E-03-3.08080E-03 2.64069E-03 3.44993E-17-1.68798E-17-1.43086E-17
 -1        50-2.05387E-03-2.05387E-03 1.76046E-03-1.23586E-17 1.59252E-17 1.02683E-17
 -1        51-2.05387E-03-2.05387E-03 1.76046E-03-2.12127E-17 5.31954E-18-2.39401E-17
 -1        52-2.05387E-03-2.05387E-03 1.76046E-03-7.04686E-17-4.75256E-18-2.92211E-19
 -1        53-2.05387E-03-2.05387E-03 1.76046E-03 3.12532E-17 7.66770E-18 2.87064E-18
 -1        54-3.08080E-03-3.08080E-03 2.64069E-03 4.01501E-17-2.06919E-17 1.31010E-17
 -1        55-3.08080E-03-3.08080E-03 2.64069E-03 6.83044E-17-1.46396E-18-1.57100E-17
 -1        56-2.05387E-03-2.05387E-03 1.76046E-03 1.01781E-17 5.77240E-18-2.06999E-17
 -1        57-2.05387E-03-2.05387E-03 1.76046E-03 2.59583E-17 1.10715E-17 1.00300E-17
 -1        58-2.05387E-03-2.05387E-03 1.76046E-03-2.82047E-17 1.45211E-18-1.77457E-17
 -1        59-2.05387E-03-2.05387E-03 1.76046E-03 7.16292E-17-1.50803E-17-3.77748E-18
 -1        60-3.08080E-03-3.08080E-03 2.64069E-03 1.02244E-16 2.61159E-17-1.63220E-17
 -1        61-3.08080E-03-3.08080E-03 2.64069E-03-4.74276E-17-1.57107E-17-1.48004E-17
 -1        62-2.05387E-03-2.05387E-03 1.76046E-03-3.21401E-17 1.32724E-18-2.33458E-19
 -1        63-2.05387E-03-2.05387E-03 1.76046E-03 5.98370E-18 6.22223E-18-8.65000E-18
 -1        64-2.05387E-03-2.05387E-03 1.76046E-03-6.56599E-19-1.15528E-17-1.20489E-17
 -1        65-2.05387E-03-2.05387E-03 1.76046E-03-5.86186E-17 1.57256E-17-1.14306E-17
 -1        66-3.08080E-03-3.08080E-03 2.64069E-03-1.04352E-16-3.29058E-17-2.34757E-17
 -1        67-6.16160E-03-6.16160E-03 5.28138E-03-3.16637E-18-1.43351E-17-1.79587E-17
 -1        68-3.08080E-03-3.08080E-03 2.64069E-03-2.36582E-18 4.12097E-20-2.16384E-17
 -1        69-3.08080E-03-3.08080E-03 2.64069E-03 4.31373E-17 1.77841E-17-8.54565E-19
 -1        70-3.08080E-03-3.08080E-03 2.64069E-03 3.47107E-17-3.41839E-18 3.38053E-18
 -1        71-3.08080E-03-3.08080E-03 2.64069E-03 1.36022E-17-6.42924E-18 1.59325E-18
 -1        72-6.16160E-03-6.16160E-03 5.28138E-03 3.55161E-18 5.54552E-17 1.74978E-17
 -3
    1PSTEP                       340         114           1          
  100CL  214 9.84781E-01          72                     0  114           1
 -4  DISP        4    1
 -5  D1          1    2    1    0
 -5  D2          1    2    2    0
 -5  D3          1    2    3    0
 -5  ALL         1    2    0    0    1ALL
 -1         1 0.00000E+00 0.00000E+00 0.00000E+00
 -1         2-3.18060E+00 0.00000E+00 0.00000E+00
 -1         3-1.31814E+01 0.00000E+00 0.00000E+00
 -1         4-1.63620E+01 0.00000E+00 0.00000E+00
 -1         5-2.63628E+01 0.00000E+00 0.00000E+00
 -1         6-2.95434E+01 0.00000E+00 0.00000E+00
 -1         7 0.00000E+00-3.18060E+00 0.00000E+00
 -1         8-3.18060E+00-3.18060E+00 0.00000E+00
 -1         9-1.31814E+01-3.18060E+00 0.00000E+00
 -1        10-1.63620E+01-3.18060E+00 0.00000E+00
 -1        11-2.63628E+01-3.18060E+00 0.00000E+00
 -1        12-2.95434E+01-3.18060E+00 0.00000E+00
 -1        13 0.00000E+00-1.31814E+01 0.00000E+00
 -1        14-3.18060E+00-1.31814E+01 0.00000E+00
 -1        15-1.31814E+01-1.31814E+01 0.00000E+00
 -1        16-1.63620E+01-1.31814E+01 0.00000E+00
 -1        17-2.63628E+01-1.31814E+01 0.00000E+00
 -1        18-2.95434E+01-1.31814E+01 0.00000E+00
 -1        19 0.00000E+00-1.63620E+01 0.00000E+00
 -1        20-3.18060E+00-1.63620E+01 0.00000E+00
 -1        21-1.31814E+01-1.63620E+01 0.00000E+00
 -1        22-1.63620E+01-1.63620E+01 0.00000E+00
 -1        23-2.63628E+01-1.63620E+01 0.00000E+00
 -1        24-2.95434E+01-1.63620E+01 0.00000E+00
 -1        25 0.00000E+00-2.63628E+01 0.00000E+00
 -1        26-3.18060E+00-2.63628E+01 0.00000E+00
 -1        27-1.31814E+01-2.63628E+01 0.00000E+00
 -1        28-1.63620E+01-2.63628E+01 0.00000E+00
 -1        29-2.63628E+01-2.63628E+01 0.00000E+00
 -1        30-2.95434E+01-2.63628E+01 0.00000E+00
 -1        31 0.00000E+00-2.95434E+01 0.00000E+00
 -1        32-3.18060E+00-2.95434E+01 0.00000E+00
 -1        33-1.31814E+01-2.95434E+01 0.00000E+00
 -1        34-1.63620E+01-2.95434E+01 0.00000E+00
 -1        35-2.63628E+01-2.95434E+01 0.00000E+00
 -1        36-2.95434E+01-2.95434E+01 0.00000E+00
 -1        37 0.00000E+00 0.00000E+00 3.79430E+00
 -1        38-3.18060E+00 0.00000E+00 3.79430E+00
 -1        39-1.31814E+01 0.00000E+00 3.79430E+00
 -1        40-1.63620E+01 0.00000E+00 3.79430E+00
 -1        41-2.63628E+01 0.00000E+00 3.79430E+00
 -1        42-2.95434E+01 0.00000E+00 3.79430E+00
 -1        43 0.00000E+00-3.18060E+00 3.79430E+00
 -1        44-3.18060E+00-3.18060E+00 3.79430E+00
 -1        45-1.31814E+01-3.18060E+00 3.79430E+00
 -1        46-1.63620E+01-3.18060E+00 3.79430E+00
 -1        47-2.63628E+01-3.18060E+00 3.79430E+00
 -1        48-2.95434E+01-3.18060E+00 3.79430E+00
 -1        49 0.00000E+00-1.31814E+01 3.79430E+00
 -1        50-3.18060E+00-1.31814E+01 3.79430E+00
 -1        51-1.31814E+01-1.31814E+01 3.79430E+00
 -1        52-1.63620E+01-1.31814E+01 3.79430E+00
 -1        53-2.63628E+01-1.31814E+01 3.79430E+00
 -1        54-2.95434E+01-1.31814E+01 3.79430E+00
 -1        55 0.00000E+00-1.63620E+01 3.79430E+00
 -1        56-3.18060E+00-1.63620E+01 3.79430E+00
 -1        57-1.31814E+01-1.63620E+01 3.79430E+00
 -1        58-1.63620E+01-1.63620E+01 3.79430E+00
 -1        59-2.63628E+01-1.63620E+01 3.79430E+00
 -1        60-2.95434E+01-1.63620E+01 3.79430E+00
 -1        61 0.00000E+00-2.63628E+01 3.79430E+00
 -1        62-3.18060E+00-2.63628E+01 3.79430E+00
 -1        63-1.31814E+01-2.63628E+01 3.79430E+00
 -1        64-1.63620E+01-2.63628E+01 3.79430E+00
 -1        65-2.63628E+01-2.63628E+01 3.79430E+00
 -1        66-2.95434E+01-2.63628E+01 3.79430E+00
 -1        67 0.00000E+00-2.95434E+01 3.79430E+00
 -1        68-3.18060E+00-2.95434E+01 3.79430E+00
 -1        69-1.31814E+01-2.95434E+01 3.79430E+00
 -1        70-1.63620E+01-2.95434E+01 3.79430E+00
 -1        71-2.63628E+01-2.95434E+01 3.79430E+00
 -1        72-2.95434E+01-2.95434E+01 3.79430E+00
 -3
    1PSTEP                       341         114           1          
  100CL  214 9.84781E-01          72                     0  114           1
 -4  STRESS      6    1
 -5  SXX         1    4    1    1
 -5  SYY         1    4    2    2
 -5  SZZ         1    4    3    3
 -5  SXY         1    4    1    2
 -5  SYZ         1    4    2    3
 -5  SZX         1    4    3    1
 -1         1-1.89196E+03-1.89196E+03 1.18015E-10-1.68918E-14 4.10703E-14-3.46873E-15
 -1         2-9.45979E+02-9.45979E+02 6.39109E-11-3.04140E-12-1.18839E-14-9.21988E-13
 -1         3-9.45979E+02-9.45979E+02 5.50802E-11-1.93077E-13-2.50633E-14 1.96151E-12
 -1         4-9.45979E+02-9.45979E+02 5.66450E-11 7.21552E-12 2.21109E-14 1.96969E-12
 -1         5-9.45979E+02-9.45979E+02 5.39875E-11-1.00192E-11-9.74267E-15-1.41295E-12
 -1         6-1.89196E+03-1.89196E+03 1.07291E-10 8.13839E-13 2.34562E-14-2.05370E-13
 -1         7-9.45979E+02-9.45979E+02 5.52335E-11 4.53643E-12 1.31772E-12 2.56077E-14
 -1         8-6.30653E+02-6.30653E+02 4.30166E-11 1.00231E-12-2.64839E-12 1.95367E-13
 -1         9-6.30653E+02-6.30653E+02 3.95178E-11 3.72703E-12 1.01531E-12 1.50458E-12
 -1        10-6.30653E+02-6.30653E+02 4.23513E-11 8.85735E-12 1.18732E-12-2.24287E-13
 -1        11-6.30653E+02-6.30653E+02 4.37784E-11-7.44653E-12 4.63855E-13 1.89457E-12
 -1        12-9.45979E+02-9.45979E+02 6.18524E-11-1.23834E-12 7.84390E-13 5.11310E-13
 -1        13-9.45979E+02-9.45979E+02 5.07279E-11-3.87885E-12-1.36001E-12 5.45636E-15
 -1        14-6.30653E+02-6.30653E+02 4.13951E-11 1.34001E-12 3.61554E-12 2.91711E-12
 -1        15-6.30653E+02-6.30653E+02 3.62132E-11-7.99040E-12 2.93635E-13-2.35149E-13
 -1        16-6.30653E+02-6.30653E+02 3.95565E-11-2.62647E-12 3.30461E-12 2.17372E-12
 -1        17-6.30653E+02-6.30653E+02 4.41340E-11 2.69164E-12 3.03609E-13 3.98605E-13
 -1        18-9.45979E+02-9.45979E+02 5.46913E-11 4.29482E-12 1.04014E-12-5.57981E-13
 -1        19-9.45979E+02-9.45979E+02 5.63707E-11 6.21974E-12 8.47872E-14 8.48201E-15
 -1        20-6.30653E+02-6.30653E+02 4.50722E-11 8.09096E-12 5.34310E-13-1.32161E-12
 -1        21-6.30653E+02-6.30653E+02 3.70053E-11-4.67457E-12 1.86306E-12 6.38375E-13
 -1        22-6.30653E+02-6.30653E+02 4.02018E-11 6.87696E-13 5.72439E-12-3.52255E-12
 -1        23-6.30653E+02-6.30653E+02 4.66163E-11-5.58163E-12-4.27499E-12 9.91297E-13
 -1        24-9.45979E+02-9.45979E+02 4.31332E-11-7.22491E-12 1.10635E-11 3.65233E-13
 -1        25-9.45979E+02-9.45979E+02 5.51763E-11-8.64425E-12-1.01236E-12 7.58289E-15
 -1        26-6.30653E+02-6.30653E+02 4.19523E-11-5.19062E-12 1.02631E-12 2.41953E-13
 -1        27-6.30653E+02-6.30653E+02 4.19359E-11 3.15036E-12-1.05282E-12 1.91890E-12
 -1        28-6.30653E+02-6.30653E+02 3.24926E-11 3.72346E-13-4.30496E-12 1.24238E-12
 -1        29-6.30653E+02-6.30653E+02 4.36963E-11 6.31975E-12 5.89726E-12-2.53445E-12
 -1        30-9.45979E+02-9.45979E+02 4.59057E-11 9.06842E-12-1.11391E-11 4.53438E-13
 -1        31-1.89196E+03-1.89196E+03 1.11488E-10 2.76269E-13 3.83252E-13-2.57812E-14
 -1        32-9.45979E+02-9.45979E+02 6.33098E-11 9.96462E-13-3.41903E-13 2.23295E-13
 -1        33-9.45979E+02-9.45979E+02 6.19693E-11 1.15029E-12 4.01128E-14 4.79276E-12
 -1        34-9.45979E+02-9.45979E+02 4.72959E-11-3.01674E-12 2.61505E-14 4.01862E-12
 -1        35-9.45979E+02-9.45979E+02 6.18151E-11 5.48537E-13 1.56804E-13 1.22761E-12
 -1        36-1.89196E+03-1.89196E+03 1.07852E-10 2.54774E-13 9.70400E-13-6.76773E-13
 -1        37-1.89196E+03-1.89196E+03 1.20428E-10 5.12393E-14 8.78957E-13-1.35830E-12
 -1        38-9.45979E+02-9.45979E+02 5.35290E-11-1.23963E-12 1.84776E-12-1.62344E-12
 -1        39-9.45979E+02-9.45979E+02 5.79124E-11 3.35815E-18-2.08136E-12-6.45354E-13
 -1        40-9.45979E+02-9.45979E+02 6.00788E-11 3.61519E-12-1.73769E-12-9.79376E-13
 -1        41-9.45979E+02-9.45979E+02 5.70399E-11-5.48168E-12-1.03070E-12-4.52777E-13
 -1        42-1.89196E+03-1.89196E+03 1.14090E-10-1.03511E-12-5.13092E-12 8.43397E-13
 -1        43-9.45979E+02-9.45979E+02 5.83966E-11-2.62073E-12 1.80844E-12 6.74067E-13
 -1        44-6.30653E+02-6.30653E+02 3.78009E-11-2.59065E-12-1.42145E-12 6.87484E-13
 -1        45-6.30653E+02-6.30653E+02 3.85654E-11 4.45673E-12-3.54899E-13-9.18108E-14
 -1        46-6.30653E+02-6.30653E+02 4.09979E-11 6.47284E-12 1.16900E-14-1.71514E-12
 -1        47-6.30653E+02-6.30653E+02 4.16456E-11-4.52320E-12-1.93660E-13 1.08758E-12
 -1        48-9.45979E+02-9.45979E+02 5.90006E-11-1.17400E-12-1.73577E-12-3.15929E-13
 -1        49-9.45979E+02-9.45979E+02 6.34977E-11 4.72523E-12-2.57560E-12-1.83827E-12
 -1        50-6.30653E+02-6.30653E+02 4.12567E-11 1.30785E-12 2.37289E-12 1.66148E-12
 -1        51-6.30653E+02-6.30653E+02 4.33433E-11-4.31164E-12-2.18522E-12-6.57316E-13
 -1        52-6.30653E+02-6.30653E+02 5.07075E-11-7.49859E-12-2.93495E-13 2.01214E-12
 -1        53-6.30653E+02-6.30653E+02 3.38353E-11 4.05051E-12 1.04124E-12 2.13304E-12
 -1        54-9.45979E+02-9.45979E+02 7.29323E-11 5.60130E-12-2.91392E-12 2.57698E-12
 -1        55-9.45979E+02-9.45979E+02 5.47737E-11 6.91912E-12-1.26027E-12-1.79044E-12
 -1        56-6.30653E+02-6.30653E+02 3.57569E-11 2.70120E-12-5.51977E-13-2.53600E-12
 -1        57-6.30653E+02-6.30653E+02 2.98647E-11 1.11449E-12-1.42493E-12-3.28341E-13
 -1        58-6.30653E+02-6.30653E+02 3.66811E-11-1.98632E-12 2.65972E-12-4.42585E-12
 -1        59-6.30653E+02-6.30653E+02 3.53914E-11 1.06475E-11-3.20946E-12-7.02924E-13
 -1        60-9.45979E+02-9.45979E+02 5.99849E-11 1.57725E-11 5.77106E-12-3.91787E-12
 -1        61-9.45979E+02-9.45979E+02 5.48879E-11-6.43669E-12-2.32344E-13-1.24855E-12
 -1        62-6.30653E+02-6.30653E+02 4.11729E-11-3.88787E-12 3.04511E-13-5.34797E-13
 -1        63-6.30653E+02-6.30653E+02 4.15566E-11-4.89409E-13 7.68688E-13-7.61967E-13
 -1        64-6.30653E+02-6.30653E+02 4.01098E-11-2.86193E-12-2.21981E-12-9.89083E-13
 -1        65-6.30653E+02-6.30653E+02 3.60175E-11-6.89951E-12 4.83683E-12-4.36853E-12
 -1        66-9.45979E+02-9.45979E+02 7.63529E-11-1.79173E-11-6.57206E-12-1.89264E-12
 -1        67-1.89196E+03-1.89196E+03 1.12622E-10 2.30924E-13 6.58926E-13-3.77193E-12
 -1        68-9.45979E+02-9.45979E+02 6.05903E-11 7.20354E-13-5.19717E-13-1.74078E-12
 -1        69-9.45979E+02-9.45979E+02 6.29758E-11 3.19231E-12 3.12487E-12 1.19988E-12
 -1        70-9.45979E+02-9.45979E+02 6.27032E-11-3.66463E-13 2.33562E-12 6.44830E-13
 -1        71-9.45979E+02-9.45979E+02 4.25971E-11 7.37109E-12-3.57387E-13 3.60149E-12
 -1        72-1.89196E+03-1.89196E+03 1.47331E-10 6.39750E-13 6.04776E-12 2.78801E-12
 -3
    1PSTEP                       342         114           1          
  100CL  214 9.84781E-01          72                     0  114           1
 -4  TOSTRAIN    6    1
 -5  EXX         1    4    1    1
 -5  EYY         1    4    2    2
 -5  EZZ         1    4    3    3
 -5  EXY         1    4    1    2
 -5  EYZ         1    4    2    3
 -5  EZX         1    4    3    1
 -1         1-6.34071E-03-6.34071E-03 5.43490E-03-1.07705E-19 2.56989E-19-1.76245E-20
 -1         2-3.17036E-03-3.17036E-03 2.71745E-03-1.93924E-17-7.48542E-20-5.66938E-18
 -1         3-3.17036E-03-3.17036E-03 2.71745E-03-1.23109E-18-1.58352E-19 1.20614E-17
 -1         4-3.17036E-03-3.17036E-03 2.71745E-03 4.60071E-17 1.37718E-19 1.21118E-17
 -1         5-3.17036E-03-3.17036E-03 2.71745E-03-6.38834E-17-6.18421E-20-8.69511E-18
 -1         6-6.34071E-03-6.34071E-03 5.43490E-03 5.18915E-18 1.45899E-19-1.27112E-18
 -1         7-3.17036E-03-3.17036E-03 2.71745E-03 2.89249E-17 8.10762E-18 1.57796E-19
 -1         8-2.11357E-03-2.11357E-03 1.81163E-03 6.39089E-18-1.62917E-17 1.20191E-18
 -1         9-2.11357E-03-2.11357E-03 1.81163E-03 2.37640E-17 6.24157E-18 9.25694E-18
 -1        10-2.11357E-03-2.11357E-03 1.81163E-03 5.64757E-17 7.30793E-18-1.37750E-18
 -1        11-2.11357E-03-2.11357E-03 1.81163E-03-4.74801E-17 2.85142E-18 1.16569E-17
 -1        12-3.17036E-03-3.17036E-03 2.71745E-03-7.89581E-18 4.82860E-18 3.14995E-18
 -1        13-3.17036E-03-3.17036E-03 2.71745E-03-2.47321E-17-8.36708E-18 3.47818E-20
 -1        14-2.11357E-03-2.11357E-03 1.81163E-03 8.54410E-18 2.22395E-17 1.79443E-17
 -1        15-2.11357E-03-2.11357E-03 1.81163E-03-5.09478E-17 1.80358E-18-1.44693E-18
 -1        16-2.11357E-03-2.11357E-03 1.81163E-03-1.67467E-17 2.03275E-17 1.33702E-17
 -1        17-2.11357E-03-2.11357E-03 1.81163E-03 1.71623E-17 1.86926E-18 2.45157E-18
 -1        18-3.17036E-03-3.17036E-03 2.71745E-03 2.73843E-17 6.39475E-18-3.43262E-18
 -1        19-3.17036E-03-3.17036E-03 2.71745E-03 3.96579E-17 5.20013E-19 5.17288E-20
 -1        20-2.11357E-03-2.11357E-03 1.81163E-03 5.15890E-17 3.28655E-18-8.12966E-18
 -1        21-2.11357E-03-2.11357E-03 1.81163E-03-2.98057E-17 1.14572E-17 3.92832E-18
 -1        22-2.11357E-03-2.11357E-03 1.81163E-03 4.38484E-18 3.52119E-17-2.16659E-17
 -1        23-2.11357E-03-2.11357E-03 1.81163E-03-3.55892E-17-2.62947E-17 6.09651E-18
 -1        24-3.17036E-03-3.17036E-03 2.71745E-03-4.60670E-17 6.80527E-17 2.24501E-18
 -1        25-3.17036E-03-3.17036E-03 2.71745E-03-5.51169E-17-6.22504E-18 4.61211E-20
 -1        26-2.11357E-03-2.11357E-03 1.81163E-03-3.30960E-17 6.31404E-18 1.48793E-18
 -1        27-2.11357E-03-2.11357E-03 1.81163E-03 2.00871E-17-6.47571E-18 1.18025E-17
 -1        28-2.11357E-03-2.11357E-03 1.81163E-03 2.37413E-18-2.64812E-17 7.64113E-18
 -1        29-2.11357E-03-2.11357E-03 1.81163E-03 4.02956E-17 3.62721E-17-1.55917E-17
 -1        30-3.17036E-03-3.17036E-03 2.71745E-03 5.78214E-17-6.85157E-17 2.78603E-18
 -1        31-6.34071E-03-6.34071E-03 5.43490E-03 1.76153E-18 2.36157E-18-1.58857E-19
 -1        32-3.17036E-03-3.17036E-03 2.71745E-03 6.35357E-18-2.10142E-18 1.37337E-18
 -1        33-3.17036E-03-3.17036E-03 2.71745E-03 7.33437E-18 2.46086E-19 2.94818E-17
 -1        34-3.17036E-03-3.17036E-03 2.71745E-03-1.92351E-17 1.63679E-19 2.47200E-17
 -1        35-3.17036E-03-3.17036E-03 2.71745E-03 3.49754E-18 9.61028E-19 7.55291E-18
 -1        36-6.34071E-03-6.34071E-03 5.43490E-03 1.62447E-18 5.97154E-18-4.15937E-18
 -1        37-6.34071E-03-6.34071E-03 5.43490E-03 3.26709E-19 5.53831E-18-8.55244E-18
 -1        38-3.17036E-03-3.17036E-03 2.71745E-03-7.90403E-18 1.16363E-17-1.00847E-17
 -1        39-3.17036E-03-3.17036E-03 2.71745E-03 2.14120E-23-1.31086E-17-4.36677E-18
 -1        40-3.17036E-03-3.17036E-03 2.71745E-03 2.30509E-17-1.09450E-17-6.42137E-18
 -1        41-3.17036E-03-3.17036E-03 2.71745E-03-3.49519E-17-6.49207E-18-2.67467E-18
 -1        42-6.34071E-03-6.34071E-03 5.43490E-03-6.59997E-18-3.23113E-17 5.40863E-18
 -1        43-3.17036E-03-3.17036E-03 2.71745E-03-1.67101E-17 1.11898E-17 4.24598E-18
 -1        44-2.11357E-03-2.11357E-03 1.81163E-03-1.65183E-17-8.56316E-18 4.29527E-18
 -1        45-2.11357E-03-2.11357E-03 1.81163E-03 2.84167E-17-2.38606E-18-7.93593E-19
 -1        46-2.11357E-03-2.11357E-03 1.81163E-03 4.12717E-17-1.02444E-19-1.07788E-17
 -1        47-2.11357E-03-2.11357E-03 1.81163E-03-2.88405E-17-1.29387E-18 6.61499E-18
 -1        48-3.17036E-03-3.17036E-03 2.71745E-03-7.48555E-18-1.10453E-17-2.05557E-18
 -1        49-3.17036E-03-3.17036E-03 2.71745E-03 3.01287E-17-1.60491E-17-1.15784E-17
 -1        50-2.11357E-03-2.11357E-03 1.81163E-03 8.33900E-18 1.44599E-17 1.00393E-17
 -1        51-2.11357E-03-2.11357E-03 1.81163E-03-2.74916E-17-1.38663E-17-4.11785E-18
 -1        52-2.11357E-03-2.11357E-03 1.81163E-03-4.78120E-17-2.28979E-18 1.23022E-17
 -1        53-2.11357E-03-2.11357E-03 1.81163E-03 2.58266E-17 6.53907E-18 1.33863E-17
 -1        54-3.17036E-03-3.17036E-03 2.71745E-03 3.57147E-17-1.85860E-17 1.62500E-17
 -1        55-3.17036E-03-3.17036E-03 2.71745E-03 4.41172E-17-7.95832E-18-1.12753E-17
 -1        56-2.11357E-03-2.11357E-03 1.81163E-03 1.72232E-17-3.53118E-18-1.57740E-17
 -1        57-2.11357E-03-2.11357E-03 1.81163E-03 7.10615E-18-9.18901E-18-2.15249E-18
 -1        58-2.11357E-03-2.11357E-03 1.81163E-03-1.26650E-17 1.58732E-17-2.73567E-17
 -1        59-2.11357E-03-2.11357E-03 1.81163E-03 6.78901E-17-1.96058E-17-4.63967E-18
 -1        60-3.17036E-03-3.17036E-03 2.71745E-03 1.00567E-16 3.48276E-17-2.45731E-17
 -1        61-3.17036E-03-3.17036E-03 2.71745E-03-4.10412E-17-1.42257E-18-7.86042E-18
 -1        62-2.11357E-03-2.11357E-03 1.81163E-03-2.47896E-17 1.81434E-18-3.40992E-18
 -1        63-2.11357E-03-2.11357E-03 1.81163E-03-3.12054E-18 4.95909E-18-5.02349E-18
 -1        64-2.11357E-03-2.11357E-03 1.81163E-03-1.82480E-17-1.33983E-17-6.42051E-18
 -1        65-2.11357E-03-2.11357E-03 1.81163E-03-4.39922E-17 2.96931E-17-2.70930E-17
 -1        66-3.17036E-03-3.17036E-03 2.71745E-03-1.14243E-16-3.99106E-17-1.19743E-17
 -1        67-6.34071E-03-6.34071E-03 5.43490E-03 1.47240E-18 4.06632E-18-2.37579E-17
 -1        68-3.17036E-03-3.17036E-03 2.71745E-03 4.59307E-18-3.28494E-18-1.09859E-17
 -1        69-3.17036E-03-3.17036E-03 2.71745E-03 2.03546E-17 1.95689E-17 6.91136E-18
 -1        70-3.17036E-03-3.17036E-03 2.71745E-03-2.33661E-18 1.47457E-17 3.49721E-18
 -1        71-3.17036E-03-3.17036E-03 2.71745E-03 4.69990E-17-2.28444E-18 2.24217E-17
 -1        72-6.34071E-03-6.34071E-03 5.43490E-03 4.07913E-18 3.82151E-17 1.76864E-17
 -3
    1PSTEP                       343         115           1          
  100CL  215 9.93781E-01          72                     0  115           1
 -4  DISP        4    1
 -5  D1          1    2    1    0
 -5  D2          1    2    2    0
 -5  D3          1    2    3    0
 -5  ALL         1    2    0    0    1ALL
 -1         1 0.00000E+00 0.00000E+00 0.00000E+00
 -1         2-3.27079E+00 0.00000E+00 0.00000E+00
 -1         3-1.32713E+01 0.00000E+00 0.00000E+00
 -1         4-1.65421E+01 0.00000E+00 0.00000E+00
 -1         5-2.65426E+01 0.00000E+00 0.00000E+00
 -1         6-2.98134E+01 0.00000E+00 0.00000E+00
 -1         7 0.00000E+00-3.27079E+00 0.00000E+00
 -1         8-3.27079E+00-3.27079E+00 0.00000E+00
 -1         9-1.32713E+01-3.27079E+00 0.00000E+00
 -1        10-1.65421E+01-3.27079E+00 0.00000E+00
 -1        11-2.65426E+01-3.27079E+00 0.00000E+00
 -1        12-2.98134E+01-3.27079E+00 0.00000E+00
 -1        13 0.00000E+00-1.32713E+01 0.00000E+00
 -1        14-3.27079E+00-1.32713E+01 0.00000E+00
 -1        15-1.32713E+01-1.32713E+01 0.00000E+00
 -1        16-1.65421E+01-1.32713E+01 0.00000E+00
 -1        17-2.65426E+01-1.32713E+01 0.00000E+00
 -1        18-2.98134E+01-1.32713E+01 0.00000E+00
 -1        19 0.00000E+00-1.65421E+01 0.00000E+00
 -1        20-3.27079E+00-1.65421E+01 0.00000E+00
 -1        21-1.32713E+01-1.65421E+01 0.00000E+00
 -1        22-1.65421E+01-1.65421E+01 0.00000E+00
 -1        23-2.65426E+01-1.65421E+01 0.00000E+00
 -1        24-2.98134E+01-1.65421E+01 0.00000E+00
 -1        25 0.00000E+00-2.65426E+01 0.00000E+00
 -1        26-3.27079E+00-2.65426E+01 0.00000E+00
 -1        27-1.32713E+01-2.65426E+01 0.00000E+00
 -1        28-1.65421E+01-2.65426E+01 0.00000E+00
 -1        29-2.65426E+01-2.65426E+01 0.00000E+00
 -1        30-2.98134E+01-2.65426E+01 0.00000E+00
 -1        31 0.00000E+00-2.98134E+01 0.00000E+00
 -1        32-3.27079E+00-2.98134E+01 0.00000E+00
 -1        33-1.32713E+01-2.98134E+01 0.00000E+00
 -1        34-1.65421E+01-2.98134E+01 0.00000E+00
 -1        35-2.65426E+01-2.98134E+01 0.00000E+00
 -1        36-2.98134E+01-2.98134E+01 0.00000E+00
 -1        37 0.00000E+00 0.00000E+00 3.90124E+00
 -1        38-3.27079E+00 0.00000E+00 3.90124E+00
 -1        39-1.32713E+01 0.00000E+00 3.90124E+00
 -1        40-1.65421E+01 0.00000E+00 3.90124E+00
 -1        41-2.65426E+01 0.00000E+00 3.90124E+00
 -1        42-2.98134E+01 0.00000E+00 3.90124E+00
 -1        43 0.00000E+00-3.27079E+00 3.90124E+00
 -1        44-3.27079E+00-3.27079E+00 3.90124E+00
 -1        45-1.32713E+01-3.27079E+00 3.90124E+00
 -1        46-1.65421E+01-3.27079E+00 3.90124E+00
 -1        47-2.65426E+01-3.27079E+00 3.90124E+00
 -1        48-2.98134E+01-3.27079E+00 3.90124E+00
 -1        49 0.00000E+00-1.32713E+01 3.90124E+00
 -1        50-3.27079E+00-1.32713E+01 3.90124E+00
 -1        51-1.32713E+01-1.32713E+01 3.90124E+00
 -1        52-1.65421E+01-1.32713E+01 3.90124E+00
 -1        53-2.65426E+01-1.32713E+01 3.90124E+00
 -1        54-2.98134E+01-1.32713E+01 3.90124E+00
 -1        55 0.00000E+00-1.65421E+01 3.90124E+00
 -1        56-3.27079E+00-1.65421E+01 3.90124E+00
 -1        57-1.32713E+01-1.65421E+01 3.90124E+00
 -1        58-1.65421E+01-1.65421E+01 3.90124E+00
 -1        59-2.65426E+01-1.65421E+01 3.90124E+00
 -1        60-2.98134E+01-1.65421E+01 3.90124E+00
 -1        61 0.00000E+00-2.65426E+01 3.90124E+00
 -1        62-3.27079E+00-2.65426E+01 3.90124E+00
 -1        63-1.32713E+01-2.65426E+01 3.90124E+00
 -1        64-1.65421E+01-2.65426E+01 3.90124E+00
 -1        65-2.65426E+01-2.65426E+01 3.90124E+00
 -1        66-2.98134E+01-2.65426E+01 3.90124E+00
 -1        67 0.00000E+00-2.98134E+01 3.90124E+00
 -1        68-3.27079E+00-2.98134E+01 3.90124E+00
 -1        69-1.32713E+01-2.98134E+01 3.90124E+00
 -1        70-1.65421E+01-2.98134E+01 3.90124E+00
 -1        71-2.65426E+01-2.98134E+01 3.90124E+00
 -1        72-2.98134E+01-2.98134E+01 3.90124E+00
 -3
    1PSTEP                       344         115           1          
  100CL  215 9.93781E-01          72                     0  115           1
 -4  STRESS      6    1
 -5  SXX         1    4    1    1
 -5  SYY         1    4    2    2
 -5  SZZ         1    4    3    3
 -5  SXY         1    4    1    2
 -5  SYZ         1    4    2    3
 -5  SZX         1    4    3    1
 -1         1-1.94514E+03-1.94514E+03 8.50194E-10-1.67110E-14 3.06841E-14-2.07097E-14
 -1         2-9.72569E+02-9.72569E+02 4.27906E-10-9.56067E-13 8.11783E-15-3.60688E-13
 -1         3-9.72569E+02-9.72569E+02 4.23404E-10-1.98131E-12 2.59892E-14-4.85604E-13
 -1         4-9.72569E+02-9.72569E+02 4.30014E-10-2.25202E-12 2.00535E-15-2.13545E-12
 -1         5-9.72569E+02-9.72569E+02 4.28120E-10 8.41392E-14-2.23608E-14 3.08371E-12
 -1         6-1.94514E+03-1.94514E+03 8.51165E-10 6.52193E-13 2.55036E-14-3.52655E-13
 -1         7-9.72569E+02-9.72569E+02 4.23184E-10 2.05285E-12 5.91762E-13-1.70541E-14
 -1         8-6.48379E+02-6.48379E+02 2.86481E-10 7.36759E-13-6.39244E-13-1.53219E-12
 -1         9-6.48379E+02-6.48379E+02 2.84636E-10 2.29806E-12 7.00657E-15 2.45601E-12
 -1        10-6.48379E+02-6.48379E+02 2.85591E-10 2.11593E-12-1.55028E-12 2.22665E-12
 -1        11-6.48379E+02-6.48379E+02 2.85515E-10 1.65900E-14-2.26297E-12-1.59016E-12
 -1        12-9.72569E+02-9.72569E+02 4.27345E-10-5.03935E-13-4.31867E-13 6.18692E-15
 -1        13-9.72569E+02-9.72569E+02 4.22126E-10-2.24687E-12-2.54184E-12 1.25207E-15
 -1        14-6.48379E+02-6.48379E+02 2.83922E-10-5.01216E-13 1.58442E-12 1.05868E-12
 -1        15-6.48379E+02-6.48379E+02 2.80156E-10-2.52493E-12 1.86677E-14-1.74112E-12
 -1        16-6.48379E+02-6.48379E+02 2.88368E-10-2.78156E-12-4.89999E-13-2.25012E-12
 -1        17-6.48379E+02-6.48379E+02 2.86167E-10 1.06859E-12 2.25890E-13 1.25771E-12
 -1        18-9.72569E+02-9.72569E+02 4.26158E-10 2.29332E-12-1.84831E-12 3.84398E-13
 -1        19-9.72569E+02-9.72569E+02 4.26803E-10-1.30125E-12-1.86069E-12-1.40495E-14
 -1        20-6.48379E+02-6.48379E+02 2.85039E-10 1.29201E-13 9.16719E-13-1.68436E-12
 -1        21-6.48379E+02-6.48379E+02 2.82161E-10 1.56954E-12-9.39259E-13 2.36893E-13
 -1        22-6.48379E+02-6.48379E+02 2.89995E-10 1.40347E-12-9.85562E-13-1.70441E-12
 -1        23-6.48379E+02-6.48379E+02 2.90118E-10 1.55900E-12-2.94197E-12 1.77967E-12
 -1        24-9.72569E+02-9.72569E+02 4.30439E-10 3.97246E-12-1.65520E-12-1.51357E-13
 -1        25-9.72569E+02-9.72569E+02 4.25152E-10 1.30397E-13-1.99412E-13-1.61956E-14
 -1        26-6.48379E+02-6.48379E+02 2.83516E-10 4.16028E-13 1.20543E-14-3.40240E-13
 -1        27-6.48379E+02-6.48379E+02 2.83681E-10-2.06889E-12 9.17783E-13-4.02540E-13
 -1        28-6.48379E+02-6.48379E+02 2.88689E-10-2.80563E-12 8.29517E-13-1.21037E-12
 -1        29-6.48379E+02-6.48379E+02 2.89130E-10-4.58753E-13 2.75563E-12 5.35216E-13
 -1        30-9.72569E+02-9.72569E+02 4.32387E-10-3.11045E-12 7.06784E-13 7.86113E-13
 -1        31-1.94514E+03-1.94514E+03 8.50891E-10-8.16147E-14-7.86056E-13 4.83444E-14
 -1        32-9.72569E+02-9.72569E+02 4.27050E-10 4.52838E-13-4.15235E-13-2.20538E-12
 -1        33-9.72569E+02-9.72569E+02 4.23942E-10 2.19278E-12 3.97684E-13 1.19160E-12
 -1        34-9.72569E+02-9.72569E+02 4.29113E-10 9.66714E-13-6.82578E-13-9.62199E-13
 -1        35-9.72569E+02-9.72569E+02 4.25342E-10 2.92972E-12-8.61490E-14 2.98119E-12
 -1        36-1.94514E+03-1.94514E+03 8.55342E-10 1.64689E-12 2.93069E-13-7.04666E-13
 -1        37-1.94514E+03-1.94514E+03 8.50616E-10 1.77164E-14 3.85113E-14-3.11480E-14
 -1        38-9.72569E+02-9.72569E+02 4.25591E-10-3.64781E-12 1.12806E-12-3.65907E-13
 -1        39-9.72569E+02-9.72569E+02 4.19057E-10 3.23967E-12 1.54592E-12-1.16358E-12
 -1        40-9.72569E+02-9.72569E+02 4.20836E-10 5.95392E-12-8.30328E-13-3.50419E-12
 -1        41-9.72569E+02-9.72569E+02 4.12800E-10-8.60180E-12-2.62434E-13 2.29356E-12
 -1        42-1.94514E+03-1.94514E+03 8.33475E-10-9.44180E-13 1.31853E-12-1.34848E-12
 -1        43-9.72569E+02-9.72569E+02 4.19479E-10-5.95737E-15 5.95676E-13 1.04834E-12
 -1        44-6.48379E+02-6.48379E+02 2.81525E-10-2.44175E-12 1.07386E-13-8.21928E-13
 -1        45-6.48379E+02-6.48379E+02 2.85004E-10 3.69259E-12 1.06175E-12 6.69301E-13
 -1        46-6.48379E+02-6.48379E+02 2.81534E-10 5.58813E-12-2.09414E-12 2.52444E-13
 -1        47-6.48379E+02-6.48379E+02 2.83789E-10-3.30044E-12-2.54013E-12-1.60147E-12
 -1        48-9.72569E+02-9.72569E+02 4.31832E-10 3.89919E-12 3.73033E-13-3.55563E-13
 -1        49-9.72569E+02-9.72569E+02 4.26255E-10 3.80422E-12-9.01787E-13 8.23782E-13
 -1        50-6.48379E+02-6.48379E+02 2.85137E-10-2.26782E-13 1.03637E-12 1.59978E-12
 -1        51-6.48379E+02-6.48379E+02 2.76820E-10-1.56380E-12 1.31378E-12-1.20988E-12
 -1        52-6.48379E+02-6.48379E+02 2.86508E-10-3.68774E-12 1.67694E-13-1.41731E-12
 -1        53-6.48379E+02-6.48379E+02 2.75724E-10-4.99241E-13 1.18388E-12 5.89733E-13
 -1        54-9.72569E+02-9.72569E+02 4.18926E-10 2.77485E-13 1.14403E-13-1.14814E-12
 -1        55-9.72569E+02-9.72569E+02 4.22371E-10 3.18017E-12-5.37263E-13-4.15285E-13
 -1        56-6.48379E+02-6.48379E+02 2.80147E-10-6.42815E-13 8.24950E-13-2.03873E-12
 -1        57-6.48379E+02-6.48379E+02 2.76130E-10 3.49891E-12 2.97340E-13 3.81500E-13
 -1        58-6.48379E+02-6.48379E+02 2.85038E-10 1.43630E-12-7.72508E-13-1.15206E-12
 -1        59-6.48379E+02-6.48379E+02 2.80895E-10 3.43885E-12-1.59900E-12 2.28976E-13
 -1        60-9.72569E+02-9.72569E+02 4.26242E-10 7.21584E-12-3.55895E-13-2.73495E-12
 -1        61-9.72569E+02-9.72569E+02 4.24041E-10-5.11889E-13-6.49234E-14 3.59593E-13
 -1        62-6.48379E+02-6.48379E+02 2.83764E-10-1.61559E-12 5.63791E-15-1.10433E-13
 -1        63-6.48379E+02-6.48379E+02 2.79388E-10-1.40679E-12 1.54136E-12-8.02761E-13
 -1        64-6.48379E+02-6.48379E+02 2.86774E-10-3.40564E-12 6.16082E-13-8.98821E-13
 -1        65-6.48379E+02-6.48379E+02 2.80968E-10-1.40973E-12 2.52233E-12-7.17395E-13
 -1        66-9.72569E+02-9.72569E+02 4.27950E-10-8.01847E-12 8.91382E-13-2.30796E-12
 -1        67-1.94514E+03-1.94514E+03 8.40516E-10 2.54123E-13 1.52551E-12 2.15322E-12
 -1        68-9.72569E+02-9.72569E+02 4.24550E-10-1.78444E-12 1.23346E-12-1.16127E-12
 -1        69-9.72569E+02-9.72569E+02 4.13773E-10 4.96378E-12 1.81507E-13 5.35304E-13
 -1        70-9.72569E+02-9.72569E+02 4.23716E-10 1.09908E-12-1.85906E-13-2.37091E-12
 -1        71-9.72569E+02-9.72569E+02 4.11523E-10 4.30041E-12-1.27554E-12-1.51338E-13
 -1        72-1.94514E+03-1.94514E+03 8.38500E-10-2.94605E-13 9.60809E-13-3.12079E-12
 -3
    1PSTEP                       345         115           1          
  100CL  215 9.93781E-01          72                     0  115           1
 -4  TOSTRAIN    6    1
 -5  EXX         1    4    1    1
 -5  EYY         1    4    2    2
 -5  EZZ         1    4    3    3
 -5  EXY         1    4    1    2
 -5  EYZ         1    4    2    3
 -5  EZX         1    4    3    1
 -1         1-6.51993E-03-6.51993E-03 5.58851E-03-1.06642E-19 1.95006E-19-1.27423E-19
 -1         2-3.25996E-03-3.25996E-03 2.79426E-03-6.10121E-18 5.14038E-20-2.21825E-18
 -1         3-3.25996E-03-3.25996E-03 2.79426E-03-1.26438E-17 1.63022E-19-2.98593E-18
 -1         4-3.25996E-03-3.25996E-03 2.79426E-03-1.43714E-17 1.12054E-20-1.31324E-17
 -1         5-3.25996E-03-3.25996E-03 2.79426E-03 5.36940E-19-1.40202E-19 1.89622E-17
 -1         6-6.51993E-03-6.51993E-03 5.58851E-03 4.16201E-18 1.62412E-19-2.17395E-18
 -1         7-3.25996E-03-3.25996E-03 2.79426E-03 1.31004E-17 3.64248E-18-1.05699E-19
 -1         8-2.17331E-03-2.17331E-03 1.86284E-03 4.70168E-18-3.93035E-18-9.42348E-18
 -1         9-2.17331E-03-2.17331E-03 1.86284E-03 1.46652E-17 4.54046E-20 1.51032E-17
 -1        10-2.17331E-03-2.17331E-03 1.86284E-03 1.35029E-17-9.53566E-18 1.36926E-17
 -1        11-2.17331E-03-2.17331E-03 1.86284E-03 1.05870E-19-1.39186E-17-9.77845E-18
 -1        12-3.25996E-03-3.25996E-03 2.79426E-03-3.21589E-18-2.65553E-18 3.95507E-20
 -1        13-3.25996E-03-3.25996E-03 2.79426E-03-1.43386E-17-1.56323E-17 8.37146E-21
 -1        14-2.17331E-03-2.17331E-03 1.86284E-03-3.19855E-18 9.74251E-18 6.51133E-18
 -1        15-2.17331E-03-2.17331E-03 1.86284E-03-1.61130E-17 1.14783E-19-1.07083E-17
 -1        16-2.17331E-03-2.17331E-03 1.86284E-03-1.77507E-17-3.01549E-18-1.38387E-17
 -1        17-2.17331E-03-2.17331E-03 1.86284E-03 6.81928E-18 1.39056E-18 7.73490E-18
 -1        18-3.25996E-03-3.25996E-03 2.79426E-03 1.46350E-17-1.13675E-17 2.36401E-18
 -1        19-3.25996E-03-3.25996E-03 2.79426E-03-8.30399E-18-1.14432E-17-8.81967E-20
 -1        20-2.17331E-03-2.17331E-03 1.86284E-03 8.24502E-19 5.63616E-18-1.03600E-17
 -1        21-2.17331E-03-2.17331E-03 1.86284E-03 1.00161E-17-5.77721E-18 1.45678E-18
 -1        22-2.17331E-03-2.17331E-03 1.86284E-03 8.95634E-18-6.06032E-18-1.04822E-17
 -1        23-2.17331E-03-2.17331E-03 1.86284E-03 9.94883E-18-1.80915E-17 1.09456E-17
 -1        24-3.25996E-03-3.25996E-03 2.79426E-03 2.53505E-17-1.01811E-17-9.29817E-19
 -1        25-3.25996E-03-3.25996E-03 2.79426E-03 8.32136E-19-1.22652E-18-1.01981E-19
 -1        26-2.17331E-03-2.17331E-03 1.86284E-03 2.65491E-18 7.40707E-20-2.09406E-18
 -1        27-2.17331E-03-2.17331E-03 1.86284E-03-1.32028E-17 5.64446E-18-2.47343E-18
 -1        28-2.17331E-03-2.17331E-03 1.86284E-03-1.79043E-17 5.10029E-18-7.44159E-18
 -1        29-2.17331E-03-2.17331E-03 1.86284E-03-2.92756E-18 1.69460E-17 3.29197E-18
 -1        30-3.25996E-03-3.25996E-03 2.79426E-03-1.98496E-17 4.34640E-18 4.83518E-18
 -1        31-6.51993E-03-6.51993E-03 5.58851E-03-5.20830E-19-4.83451E-18 3.05336E-19
 -1        32-3.25996E-03-3.25996E-03 2.79426E-03 2.88982E-18-2.55378E-18-1.35591E-17
 -1        33-3.25996E-03-3.25996E-03 2.79426E-03 1.39934E-17 2.44589E-18 7.32697E-18
 -1        34-3.25996E-03-3.25996E-03 2.79426E-03 6.16915E-18-4.19960E-18-5.91885E-18
 -1        35-3.25996E-03-3.25996E-03 2.79426E-03 1.86962E-17-5.31168E-19 1.83321E-17
 -1        36-6.51993E-03-6.51993E-03 5.58851E-03 1.05098E-17 1.79933E-18-4.33812E-18
 -1        37-6.51993E-03-6.51993E-03 5.58851E-03 1.13059E-19 2.44325E-19-1.93194E-19
 -1        38-3.25996E-03-3.25996E-03 2.79426E-03-2.32787E-17 7.10805E-18-2.25114E-18
 -1        39-3.25996E-03-3.25996E-03 2.79426E-03 2.06741E-17 9.74180E-18-7.26642E-18
 -1        40-3.25996E-03-3.25996E-03 2.79426E-03 3.79953E-17-5.23221E-18-2.16611E-17
 -1        41-3.25996E-03-3.25996E-03 2.79426E-03-5.48930E-17-1.65733E-18 1.39553E-17
 -1        42-6.51993E-03-6.51993E-03 5.58851E-03-6.02535E-18 8.31114E-18-8.59312E-18
 -1        43-3.25996E-03-3.25996E-03 2.79426E-03-3.80174E-20 3.66714E-18 6.60721E-18
 -1        44-2.17331E-03-2.17331E-03 1.86284E-03-1.55822E-17 7.74078E-19-4.94820E-18
 -1        45-2.17331E-03-2.17331E-03 1.86284E-03 2.35645E-17 6.68598E-18 3.80599E-18
 -1        46-2.17331E-03-2.17331E-03 1.86284E-03 3.56611E-17-1.29625E-17 1.24233E-18
 -1        47-2.17331E-03-2.17331E-03 1.86284E-03-2.10620E-17-1.56529E-17-9.85035E-18
 -1        48-3.25996E-03-3.25996E-03 2.79426E-03 2.48829E-17 2.40764E-18-2.18871E-18
 -1        49-3.25996E-03-3.25996E-03 2.79426E-03 2.42769E-17-5.38619E-18 5.19108E-18
 -1        50-2.17331E-03-2.17331E-03 1.86284E-03-1.44722E-18 6.35258E-18 9.92186E-18
 -1        51-2.17331E-03-2.17331E-03 1.86284E-03-9.97947E-18 8.23454E-18-7.33530E-18
 -1        52-2.17331E-03-2.17331E-03 1.86284E-03-2.35335E-17 1.14340E-18-8.61100E-18
 -1        53-2.17331E-03-2.17331E-03 1.86284E-03-3.18594E-18 7.48833E-18 3.46472E-18
 -1        54-3.25996E-03-3.25996E-03 2.79426E-03 1.77079E-18 9.18767E-19-7.30423E-18
 -1        55-3.25996E-03-3.25996E-03 2.79426E-03 2.02945E-17-3.14437E-18-2.62060E-18
 -1        56-2.17331E-03-2.17331E-03 1.86284E-03-4.10217E-18 5.05232E-18-1.25826E-17
 -1        57-2.17331E-03-2.17331E-03 1.86284E-03 2.23285E-17 1.98436E-18 2.40758E-18
 -1        58-2.17331E-03-2.17331E-03 1.86284E-03 9.16585E-18-4.64220E-18-7.02377E-18
 -1        59-2.17331E-03-2.17331E-03 1.86284E-03 2.19452E-17-9.62777E-18 1.18280E-18
 -1        60-3.25996E-03-3.25996E-03 2.79426E-03 4.60484E-17-1.96541E-18-1.71580E-17
 -1        61-3.25996E-03-3.25996E-03 2.79426E-03-3.26665E-18-4.17463E-19 2.26525E-18
 -1        62-2.17331E-03-2.17331E-03 1.86284E-03-1.03100E-17 1.00913E-19-6.43323E-19
 -1        63-2.17331E-03-2.17331E-03 1.86284E-03-8.97750E-18 9.50171E-18-4.94389E-18
 -1        64-2.17331E-03-2.17331E-03 1.86284E-03-2.17333E-17 3.74734E-18-5.53466E-18
 -1        65-2.17331E-03-2.17331E-03 1.86284E-03-8.99627E-18 1.54285E-17-4.63656E-18
 -1        66-3.25996E-03-3.25996E-03 2.79426E-03-5.11704E-17 5.41986E-18-1.45308E-17
 -1        67-6.51993E-03-6.51993E-03 5.58851E-03 1.62171E-18 9.34547E-18 1.35643E-17
 -1        68-3.25996E-03-3.25996E-03 2.79426E-03-1.13875E-17 7.68511E-18-6.98081E-18
 -1        69-3.25996E-03-3.25996E-03 2.79426E-03 3.16767E-17 1.15090E-18 3.20267E-18
 -1        70-3.25996E-03-3.25996E-03 2.79426E-03 7.01385E-18-1.20958E-18-1.46705E-17
 -1        71-3.25996E-03-3.25996E-03 2.79426E-03 2.74433E-17-7.97235E-18-1.20092E-18
 -1        72-6.51993E-03-6.51993E-03 5.58851E-03-1.88004E-18 5.80102E-18-1.97332E-17
 -3
    1PSTEP                       346         116           1          
  100CL  216 1.000000000          72                     0  116           1
 -4  DISP        4    1
 -5  D1          1    2    1    0
 -5  D2          1    2    2    0
 -5  D3          1    2    3    0
 -5  ALL         1    2    0    0    1ALL
 -1         1 0.00000E+00 0.00000E+00 0.00000E+00
 -1         2-3.33320E+00 0.00000E+00 0.00000E+00
 -1         3-1.33334E+01 0.00000E+00 0.00000E+00
 -1         4-1.66666E+01 0.00000E+00 0.00000E+00
 -1         5-2.66668E+01 0.00000E+00 0.00000E+00
 -1         6-3.00000E+01 0.00000E+00 0.00000E+00
 -1         7 0.00000E+00-3.33320E+00 0.00000E+00
 -1         8-3.33320E+00-3.33320E+00 0.00000E+00
 -1         9-1.33334E+01-3.33320E+00 0.00000E+00
 -1        10-1.66666E+01-3.33320E+00 0.00000E+00
 -1        11-2.66668E+01-3.33320E+00 0.00000E+00
 -1        12-3.00000E+01-3.33320E+00 0.00000E+00
 -1        13 0.00000E+00-1.33334E+01 0.00000E+00
 -1        14-3.33320E+00-1.33334E+01 0.00000E+00
 -1        15-1.33334E+01-1.33334E+01 0.00000E+00
 -1        16-1.66666E+01-1.33334E+01 0.00000E+00
 -1        17-2.66668E+01-1.33334E+01 0.00000E+00
 -1        18-3.00000E+01-1.33334E+01 0.00000E+00
 -1        19 0.00000E+00-1.66666E+01 0.00000E+00
 -1        20-3.33320E+00-1.66666E+01 0.00000E+00
 -1        21-1.33334E+01-1.66666E+01 0.00000E+00
 -1        22-1.66666E+01-1.66666E+01 0.00000E+00
 -1        23-2.66668E+01-1.66666E+01 0.00000E+00
 -1        24-3.00000E+01-1.66666E+01 0.00000E+00
 -1        25 0.00000E+00-2.66668E+01 0.00000E+00
 -1        26-3.33320E+00-2.66668E+01 0.00000E+00
 -1        27-1.33334E+01-2.66668E+01 0.00000E+00
 -1        28-1.66666E+01-2.66668E+01 0.00000E+00
 -1        29-2.66668E+01-2.66668E+01 0.00000E+00
 -1        30-3.00000E+01-2.66668E+01 0.00000E+00
 -1        31 0.00000E+00-3.00000E+01 0.00000E+00
 -1        32-3.33320E+00-3.00000E+01 0.00000E+00
 -1        33-1.33334E+01-3.00000E+01 0.00000E+00
 -1        34-1.66666E+01-3.00000E+01 0.00000E+00
 -1        35-2.66668E+01-3.00000E+01 0.00000E+00
 -1        36-3.00000E+01-3.00000E+01 0.00000E+00
 -1        37 0.00000E+00 0.00000E+00 3.97522E+00
 -1        38-3.33320E+00 0.00000E+00 3.97522E+00
 -1        39-1.33334E+01 0.00000E+00 3.97522E+00
 -1        40-1.66666E+01 0.00000E+00 3.97522E+00
 -1        41-2.66668E+01 0.00000E+00 3.97522E+00
 -1        42-3.00000E+01 0.00000E+00 3.97522E+00
 -1        43 0.00000E+00-3.33320E+00 3.97522E+00
 -1        44-3.33320E+00-3.33320E+00 3.97522E+00
 -1        45-1.33334E+01-3.33320E+00 3.97522E+00
 -1        46-1.66666E+01-3.33320E+00 3.97522E+00
 -1        47-2.66668E+01-3.33320E+00 3.97522E+00
 -1        48-3.00000E+01-3.33320E+00 3.97522E+00
 -1        49 0.00000E+00-1.33334E+01 3.97522E+00
 -1        50-3.33320E+00-1.33334E+01 3.97522E+00
 -1        51-1.33334E+01-1.33334E+01 3.97522E+00
 -1        52-1.66666E+01-1.33334E+01 3.97522E+00
 -1        53-2.66668E+01-1.33334E+01 3.97522E+00
 -1        54-3.00000E+01-1.33334E+01 3.97522E+00
 -1        55 0.00000E+00-1.66666E+01 3.97522E+00
 -1        56-3.33320E+00-1.66666E+01 3.97522E+00
 -1        57-1.33334E+01-1.66666E+01 3.97522E+00
 -1        58-1.66666E+01-1.66666E+01 3.97522E+00
 -1        59-2.66668E+01-1.66666E+01 3.97522E+00
 -1        60-3.00000E+01-1.66666E+01 3.97522E+00
 -1        61 0.00000E+00-2.66668E+01 3.97522E+00
 -1        62-3.33320E+00-2.66668E+01 3.97522E+00
 -1        63-1.33334E+01-2.66668E+01 3.97522E+00
 -1        64-1.66666E+01-2.66668E+01 3.97522E+00
 -1        65-2.66668E+01-2.66668E+01 3.97522E+00
 -1        66-3.00000E+01-2.66668E+01 3.97522E+00
 -1        67 0.00000E+00-3.00000E+01 3.97522E+00
 -1        68-3.33320E+00-3.00000E+01 3.97522E+00
 -1        69-1.33334E+01-3.00000E+01 3.97522E+00
 -1        70-1.66666E+01-3.00000E+01 3.97522E+00
 -1        71-2.66668E+01-3.00000E+01 3.97522E+00
 -1        72-3.00000E+01-3.00000E+01 3.97522E+00
 -3
    1PSTEP                       347         116           1          
  100CL  216 1.000000000          72                     0  116           1
 -4  STRESS      6    1
 -5  SXX         1    4    1    1
 -5  SYY         1    4    2    2
 -5  SZZ         1    4    3    3
 -5  SXY         1    4    1    2
 -5  SYZ         1    4    2    3
 -5  SZX         1    4    3    1
 -1         1-1.98192E+03-1.98192E+03-4.45180E-11 1.03176E-14-1.84078E-16-6.20360E-15
 -1         2-9.90960E+02-9.90960E+02-2.29883E-11-2.32585E-13-6.63420E-15-1.15823E-12
 -1         3-9.90960E+02-9.90960E+02-1.94538E-11-1.75577E-13 1.56240E-14 1.57549E-12
 -1         4-9.90960E+02-9.90960E+02-2.04449E-11-3.47311E-12 9.36327E-15-1.70908E-12
 -1         5-9.90960E+02-9.90960E+02-1.83970E-11 4.72346E-12 4.14351E-14 2.84686E-12
 -1         6-1.98192E+03-1.98192E+03-3.94280E-11 5.99848E-13-2.93813E-14-1.11534E-12
 -1         7-9.90960E+02-9.90960E+02-2.24794E-11-1.22106E-12-4.60901E-14-7.90495E-15
 -1         8-6.60640E+02-6.60640E+02-1.50711E-11-9.72534E-13-1.42046E-13-1.87625E-13
 -1         9-6.60640E+02-6.60640E+02-1.69101E-11-3.98191E-13 4.42752E-13 8.08571E-13
 -1        10-6.60640E+02-6.60640E+02-1.99730E-11-2.59820E-12 7.61268E-13 1.56541E-12
 -1        11-6.60640E+02-6.60640E+02-1.67657E-11 3.32405E-12-7.96164E-13-1.56480E-12
 -1        12-9.90960E+02-9.90960E+02-2.42867E-11 8.86284E-14-1.19748E-12 6.85285E-13
 -1        13-9.90960E+02-9.90960E+02-2.07523E-11 1.30085E-12 1.65146E-12 4.61769E-15
 -1        14-6.60640E+02-6.60640E+02-1.24133E-11 1.87766E-13 5.70304E-13-2.09729E-12
 -1        15-6.60640E+02-6.60640E+02-1.63808E-11 3.41349E-13-1.26181E-13-2.80276E-13
 -1        16-6.60640E+02-6.60640E+02-1.69387E-11 1.06178E-12-2.12818E-12-1.80081E-12
 -1        17-6.60640E+02-6.60640E+02-1.46821E-11-9.92481E-13 3.78077E-14 1.34661E-12
 -1        18-9.90960E+02-9.90960E+02-2.30462E-11 1.90562E-13 1.13705E-12-1.02931E-12
 -1        19-9.90960E+02-9.90960E+02-2.80147E-11 2.05946E-12 4.04050E-12-8.70573E-15
 -1        20-6.60640E+02-6.60640E+02-1.46831E-11 6.93505E-13-2.43599E-13-4.95434E-13
 -1        21-6.60640E+02-6.60640E+02-1.40476E-11 9.05221E-13 1.19172E-12 1.80103E-12
 -1        22-6.60640E+02-6.60640E+02-1.31076E-11 1.35414E-12-2.54200E-12 8.45065E-13
 -1        23-6.60640E+02-6.60640E+02-1.40524E-11-5.86357E-13-1.14524E-12 3.91747E-13
 -1        24-9.90960E+02-9.90960E+02-2.06432E-11 1.36262E-12 6.31297E-13 6.67286E-14
 -1        25-9.90960E+02-9.90960E+02-2.81817E-11-1.70230E-12-2.58110E-12 5.90613E-17
 -1        26-6.60640E+02-6.60640E+02-1.62387E-11 4.20220E-13 6.80385E-13 1.05707E-13
 -1        27-6.60640E+02-6.60640E+02-1.65976E-11-1.86946E-12 7.77058E-14-2.35908E-13
 -1        28-6.60640E+02-6.60640E+02-1.06104E-11-1.92469E-12 3.68040E-13-2.61047E-12
 -1        29-6.60640E+02-6.60640E+02-1.18850E-11 1.30582E-12 4.85353E-13 2.02649E-12
 -1        30-9.90960E+02-9.90960E+02-1.96659E-11 9.55327E-13 1.97348E-12 1.23322E-13
 -1        31-1.98192E+03-1.98192E+03-4.73754E-11 1.98788E-13 1.52837E-12 3.13149E-14
 -1        32-9.90960E+02-9.90960E+02-2.03047E-11 2.43202E-12-7.64835E-13-1.35379E-12
 -1        33-9.90960E+02-9.90960E+02-2.39107E-11-6.03313E-13 4.13369E-14 1.57728E-13
 -1        34-9.90960E+02-9.90960E+02-2.38156E-11-6.88640E-13 3.56161E-13 1.90677E-12
 -1        35-9.90960E+02-9.90960E+02-2.56343E-11 1.34945E-12 2.99438E-13-2.69540E-12
 -1        36-1.98192E+03-1.98192E+03-4.87567E-11-9.86607E-13-8.92650E-13-5.03497E-13
 -1        37-1.98192E+03-1.98192E+03-5.00299E-11-2.54898E-14 1.63906E-13 1.42515E-12
 -1        38-9.90960E+02-9.90960E+02-2.54898E-11 9.95498E-13-4.76133E-14-4.37740E-13
 -1        39-9.90960E+02-9.90960E+02-2.44404E-11-5.74298E-13 3.15318E-13 1.43327E-12
 -1        40-9.90960E+02-9.90960E+02-2.48635E-11 1.61562E-12-9.67339E-13-2.26529E-12
 -1        41-9.90960E+02-9.90960E+02-2.66951E-11-2.13158E-12 9.70232E-14 2.06837E-12
 -1        42-1.98192E+03-1.98192E+03-5.79235E-11-1.94065E-13 2.99527E-12-3.35397E-12
 -1        43-9.90960E+02-9.90960E+02-2.35904E-11-1.53623E-12-3.58177E-14 7.06256E-13
 -1        44-6.60640E+02-6.60640E+02-1.64449E-11-3.51989E-13-1.56544E-13 2.76520E-13
 -1        45-6.60640E+02-6.60640E+02-1.38306E-11-2.14490E-13 6.39205E-13-2.51820E-13
 -1        46-6.60640E+02-6.60640E+02-1.61135E-11 1.33144E-12 1.22610E-13 6.23378E-13
 -1        47-6.60640E+02-6.60640E+02-1.52834E-11-1.32157E-12-6.97733E-13-8.99248E-13
 -1        48-9.90960E+02-9.90960E+02-2.18088E-11-3.34082E-13 2.19908E-13 8.42260E-13
 -1        49-9.90960E+02-9.90960E+02-2.25264E-11 1.93073E-13-9.30489E-13 7.18213E-13
 -1        50-6.60640E+02-6.60640E+02-1.82082E-11 1.57016E-12-9.93214E-14-1.62647E-12
 -1        51-6.60640E+02-6.60640E+02-1.77904E-11 5.41514E-14 4.14212E-13-8.01938E-13
 -1        52-6.60640E+02-6.60640E+02-1.93995E-11 1.39698E-12-1.11685E-12-1.95931E-12
 -1        53-6.60640E+02-6.60640E+02-1.99168E-11-9.02806E-13-6.24764E-13 1.10488E-12
 -1        54-9.90960E+02-9.90960E+02-2.77016E-11 2.30470E-12 9.71215E-13-5.97441E-13
 -1        55-9.90960E+02-9.90960E+02-2.45405E-11-4.15876E-12 2.26213E-12 1.87882E-12
 -1        56-6.60640E+02-6.60640E+02-1.81832E-11-1.33106E-12-9.23528E-13 7.08713E-13
 -1        57-6.60640E+02-6.60640E+02-1.37276E-11-7.83521E-13 2.03632E-12 2.15488E-12
 -1        58-6.60640E+02-6.60640E+02-1.54442E-11 3.75431E-13-1.33995E-12 8.79544E-13
 -1        59-6.60640E+02-6.60640E+02-1.57656E-11 9.78252E-14-1.14161E-12-8.88172E-13
 -1        60-9.90960E+02-9.90960E+02-2.36287E-11 3.14158E-12-7.77733E-13-4.67154E-13
 -1        61-9.90960E+02-9.90960E+02-2.29138E-11 2.66573E-12-2.56748E-12 6.84681E-13
 -1        62-6.60640E+02-6.60640E+02-1.67284E-11 1.94078E-12 3.88370E-13 5.35208E-13
 -1        63-6.60640E+02-6.60640E+02-2.11621E-11-5.61340E-13-4.17665E-13 8.23468E-13
 -1        64-6.60640E+02-6.60640E+02-1.85495E-11 4.37416E-12-4.92238E-13-1.66213E-12
 -1        65-6.60640E+02-6.60640E+02-1.93965E-11-4.94457E-12-7.03878E-13 2.45248E-12
 -1        66-9.90960E+02-9.90960E+02-3.23576E-11 1.51713E-13 1.35718E-12-1.60122E-12
 -1        67-1.98192E+03-1.98192E+03-4.18923E-11-3.75280E-13 1.01438E-12-1.45614E-13
 -1        68-9.90960E+02-9.90960E+02-2.47699E-11 5.78008E-14 8.01621E-13-1.43144E-12
 -1        69-9.90960E+02-9.90960E+02-1.98292E-11 3.19118E-13 8.65738E-13-5.81276E-13
 -1        70-9.90960E+02-9.90960E+02-2.05815E-11 7.85134E-12-1.81154E-12 5.46193E-13
 -1        71-9.90960E+02-9.90960E+02-2.33788E-11-7.95471E-12-1.61689E-12-2.96132E-12
 -1        72-1.98192E+03-1.98192E+03-4.34821E-11 7.04003E-13-1.13639E-12 3.42899E-12
 -3
    1PSTEP                       348         116           1          
  100CL  216 1.000000000          72                     0  116           1
 -4  TOSTRAIN    6    1
 -5  EXX         1    4    1    1
 -5  EYY         1    4    2    2
 -5  EZZ         1    4    3    3
 -5  EXY         1    4    1    2
 -5  EYZ         1    4    2    3
 -5  EZX         1    4    3    1
 -1         1-6.64392E-03-6.64392E-03 5.69478E-03 6.58811E-20-1.84485E-21-3.87806E-20
 -1         2-3.32196E-03-3.32196E-03 2.84739E-03-1.48513E-18-4.00823E-20-7.12249E-18
 -1         3-3.32196E-03-3.32196E-03 2.84739E-03-1.12112E-18 9.88502E-20 9.68878E-18
 -1         4-3.32196E-03-3.32196E-03 2.84739E-03-2.21770E-17 5.52076E-20-1.05088E-17
 -1         5-3.32196E-03-3.32196E-03 2.84739E-03 3.01609E-17 2.58403E-19 1.75060E-17
 -1         6-6.64392E-03-6.64392E-03 5.69478E-03 3.83023E-18-1.84353E-19-6.85837E-18
 -1         7-3.32196E-03-3.32196E-03 2.84739E-03-7.79685E-18-2.83774E-19-4.88694E-20
 -1         8-2.21464E-03-2.21464E-03 1.89826E-03-6.20995E-18-8.72993E-19-1.15392E-18
 -1         9-2.21464E-03-2.21464E-03 1.89826E-03-2.54258E-18 2.72364E-18 4.97207E-18
 -1        10-2.21464E-03-2.21464E-03 1.89826E-03-1.65904E-17 4.68254E-18 9.62600E-18
 -1        11-2.21464E-03-2.21464E-03 1.89826E-03 2.12252E-17-4.89321E-18-9.62283E-18
 -1        12-3.32196E-03-3.32196E-03 2.84739E-03 5.65922E-19-7.36630E-18 4.21312E-18
 -1        13-3.32196E-03-3.32196E-03 2.84739E-03 8.30639E-18 1.01531E-17 2.79656E-20
 -1        14-2.21464E-03-2.21464E-03 1.89826E-03 1.19895E-18 3.50690E-18-1.28970E-17
 -1        15-2.21464E-03-2.21464E-03 1.89826E-03 2.17963E-18-7.75700E-19-1.72300E-18
 -1        16-2.21464E-03-2.21464E-03 1.89826E-03 6.77983E-18-1.30858E-17-1.10731E-17
 -1        17-2.21464E-03-2.21464E-03 1.89826E-03-6.33732E-18 2.33188E-19 8.28151E-18
 -1        18-3.32196E-03-3.32196E-03 2.84739E-03 1.21680E-18 6.99359E-18-6.32809E-18
 -1        19-3.32196E-03-3.32196E-03 2.84739E-03 1.31504E-17 2.48438E-17-5.26308E-20
 -1        20-2.21464E-03-2.21464E-03 1.89826E-03 4.42826E-18-1.49796E-18-3.04592E-18
 -1        21-2.21464E-03-2.21464E-03 1.89826E-03 5.78014E-18 7.32835E-18 1.10749E-17
 -1        22-2.21464E-03-2.21464E-03 1.89826E-03 8.64664E-18-1.56304E-17 5.19647E-18
 -1        23-2.21464E-03-2.21464E-03 1.89826E-03-3.74409E-18-7.04064E-18 2.40925E-18
 -1        24-3.32196E-03-3.32196E-03 2.84739E-03 8.70077E-18 3.87809E-18 4.10803E-19
 -1        25-3.32196E-03-3.32196E-03 2.84739E-03-1.08697E-17-1.58716E-17 1.81171E-22
 -1        26-2.21464E-03-2.21464E-03 1.89826E-03 2.68325E-18 4.18386E-18 6.49895E-19
 -1        27-2.21464E-03-2.21464E-03 1.89826E-03-1.19371E-17 4.76874E-19-1.45080E-18
 -1        28-2.21464E-03-2.21464E-03 1.89826E-03-1.22898E-17 2.26140E-18-1.60525E-17
 -1        29-2.21464E-03-2.21464E-03 1.89826E-03 8.33812E-18 2.98537E-18 1.24616E-17
 -1        30-3.32196E-03-3.32196E-03 2.84739E-03 6.10008E-18 1.21333E-17 7.58729E-19
 -1        31-6.64392E-03-6.64392E-03 5.69478E-03 1.26933E-18 9.39853E-18 1.96604E-19
 -1        32-3.32196E-03-3.32196E-03 2.84739E-03 1.55293E-17-4.70309E-18-8.32272E-18
 -1        33-3.32196E-03-3.32196E-03 2.84739E-03-3.85235E-18 2.51584E-19 9.69477E-19
 -1        34-3.32196E-03-3.32196E-03 2.84739E-03-4.39719E-18 2.19186E-18 1.17247E-17
 -1        35-3.32196E-03-3.32196E-03 2.84739E-03 8.61668E-18 1.84165E-18-1.65740E-17
 -1        36-6.64392E-03-6.64392E-03 5.69478E-03-6.29982E-18-5.48641E-18-3.09502E-18
 -1        37-6.64392E-03-6.64392E-03 5.69478E-03-1.62761E-19 1.02775E-18 8.98424E-18
 -1        38-3.32196E-03-3.32196E-03 2.84739E-03 6.35659E-18-2.97749E-19-2.58142E-18
 -1        39-3.32196E-03-3.32196E-03 2.84739E-03-3.66709E-18 1.98733E-18 8.77888E-18
 -1        40-3.32196E-03-3.32196E-03 2.84739E-03 1.03163E-17-6.09912E-18-1.39643E-17
 -1        41-3.32196E-03-3.32196E-03 2.84739E-03-1.36108E-17 6.10847E-19 1.25890E-17
 -1        42-6.64392E-03-6.64392E-03 5.69478E-03-1.23917E-18 1.88807E-17-2.08840E-17
 -1        43-3.32196E-03-3.32196E-03 2.84739E-03-9.80931E-18-2.10321E-19 4.45031E-18
 -1        44-2.21464E-03-2.21464E-03 1.89826E-03-2.24756E-18-9.65933E-19 1.77198E-18
 -1        45-2.21464E-03-2.21464E-03 1.89826E-03-1.36959E-18 3.96378E-18-1.70774E-18
 -1        46-2.21464E-03-2.21464E-03 1.89826E-03 8.50168E-18 6.50008E-19 3.67404E-18
 -1        47-2.21464E-03-2.21464E-03 1.89826E-03-8.43869E-18-4.27964E-18-5.47780E-18
 -1        48-3.32196E-03-3.32196E-03 2.84739E-03-2.13322E-18 1.57562E-18 5.25702E-18
 -1        49-3.32196E-03-3.32196E-03 2.84739E-03 1.23284E-18-6.04898E-18 4.52794E-18
 -1        50-2.21464E-03-2.21464E-03 1.89826E-03 1.00260E-17-7.10448E-19-9.92717E-18
 -1        51-2.21464E-03-2.21464E-03 1.89826E-03 3.45775E-19 2.64412E-18-4.97738E-18
 -1        52-2.21464E-03-2.21464E-03 1.89826E-03 8.92017E-18-6.71953E-18-1.20943E-17
 -1        53-2.21464E-03-2.21464E-03 1.89826E-03-5.76471E-18-3.87147E-18 6.74836E-18
 -1        54-3.32196E-03-3.32196E-03 2.84739E-03 1.47163E-17 5.84945E-18-3.74244E-18
 -1        55-3.32196E-03-3.32196E-03 2.84739E-03-2.65551E-17 1.35831E-17 1.18397E-17
 -1        56-2.21464E-03-2.21464E-03 1.89826E-03-8.49926E-18-5.77867E-18 4.54898E-18
 -1        57-2.21464E-03-2.21464E-03 1.89826E-03-5.00304E-18 1.26195E-17 1.32574E-17
 -1        58-2.21464E-03-2.21464E-03 1.89826E-03 2.39725E-18-8.09407E-18 5.41512E-18
 -1        59-2.21464E-03-2.21464E-03 1.89826E-03 6.24646E-19-7.05135E-18-5.55780E-18
 -1        60-3.32196E-03-3.32196E-03 2.84739E-03 2.00600E-17-4.89573E-18-3.01699E-18
 -1        61-3.32196E-03-3.32196E-03 2.84739E-03 1.70216E-17-1.56756E-17 4.31365E-18
 -1        62-2.21464E-03-2.21464E-03 1.89826E-03 1.23925E-17 2.38519E-18 3.36004E-18
 -1        63-2.21464E-03-2.21464E-03 1.89826E-03-3.58434E-18-2.51549E-18 5.22314E-18
 -1        64-2.21464E-03-2.21464E-03 1.89826E-03 2.79304E-17-3.24385E-18-1.00613E-17
 -1        65-2.21464E-03-2.21464E-03 1.89826E-03-3.15727E-17-4.57029E-18 1.50013E-17
 -1        66-3.32196E-03-3.32196E-03 2.84739E-03 9.68735E-19 8.23101E-18-9.96551E-18
 -1        67-6.64392E-03-6.64392E-03 5.69478E-03-2.39629E-18 6.46236E-18-9.17661E-19
 -1        68-3.32196E-03-3.32196E-03 2.84739E-03 3.69078E-19 4.92487E-18-8.81334E-18
 -1        69-3.32196E-03-3.32196E-03 2.84739E-03 2.03767E-18 5.40421E-18-3.73245E-18
 -1        70-3.32196E-03-3.32196E-03 2.84739E-03 5.01334E-17-1.14702E-17 3.20059E-18
 -1        71-3.32196E-03-3.32196E-03 2.84739E-03-5.07934E-17-1.03032E-17-1.80925E-17
 -1        72-6.64392E-03-6.64392E-03 5.69478E-03 4.49529E-18-7.23483E-18 2.13202E-17
 -3
 9999
