
 displacements (vx,vy,vz) for set NALL and time  0.1000000E-02

         1  0.000000E+00  0.000000E+00  0.000000E+00
         2 -4.081632E-10  0.000000E+00  0.000000E+00
         3 -1.500000E-02  0.000000E+00  0.000000E+00
         4 -1.500000E-02  0.000000E+00  0.000000E+00
         5 -3.000000E-02  0.000000E+00  0.000000E+00
         6 -3.000000E-02  0.000000E+00  0.000000E+00
         7  0.000000E+00  1.224490E-10  0.000000E+00
         8 -4.081632E-10  1.224490E-10  0.000000E+00
         9 -1.500000E-02  1.224490E-10  0.000000E+00
        10 -1.500000E-02  1.224490E-10  0.000000E+00
        11 -3.000000E-02  1.224490E-10  0.000000E+00
        12 -3.000000E-02  1.224490E-10  0.000000E+00
        13  0.000000E+00  0.000000E+00  1.714286E-10
        14 -4.081632E-10  0.000000E+00  1.714286E-10
        15 -1.500000E-02  0.000000E+00  1.714286E-10
        16 -1.500000E-02  0.000000E+00  1.714286E-10
        17 -3.000000E-02  0.000000E+00  1.714286E-10
        18 -3.000000E-02  0.000000E+00  1.714286E-10
        19  0.000000E+00  1.224490E-10  1.714286E-10
        20 -4.081632E-10  1.224490E-10  1.714286E-10
        21 -1.500000E-02  1.224490E-10  1.714286E-10
        22 -1.500000E-02  1.224490E-10  1.714286E-10
        23 -3.000000E-02  1.224490E-10  1.714286E-10
        24 -3.000000E-02  1.224490E-10  1.714286E-10

 stresses (elem, integ.pnt.,sxx,syy,szz,sxy,sxz,syz) for set EALL and time  0.1000000E-02

         1   1 -1.714286E-07 -1.100153E-51  1.323489E-23 -6.626432E-24  2.548628E-25  1.529177E-24
         1   2 -1.714286E-07  5.293956E-23  1.323489E-23 -4.485584E-23  7.645883E-24 -2.676059E-24
         1   3 -1.714286E-07 -3.970467E-23 -1.323489E-23  1.172369E-23  9.175059E-24 -5.097255E-24
         1   4 -1.714286E-07  1.323489E-23 -3.970467E-23 -2.650573E-23  5.403090E-23 -1.860498E-23
         1   5 -1.714286E-07  1.323489E-23  2.646978E-23  3.568079E-24 -1.044937E-23  1.784039E-23
         1   6 -1.714286E-07 -1.668725E-52  1.373582E-51  1.529177E-24 -3.058353E-24  1.656608E-24
         1   7 -1.714286E-07  2.646978E-23  5.293956E-23  6.116706E-24 -1.223341E-23  1.121396E-23
         1   8 -1.714286E-07  1.323489E-23  1.323489E-23  6.116706E-24  2.650573E-23 -1.427231E-23
         2   1 -1.714286E-07 -2.564601E-16 -3.668668E-16 -3.631737E-16  2.235019E-17  1.106981E-17
         2   2 -1.714286E-07 -3.928247E-16 -3.006927E-16  2.867612E-16  3.131105E-16 -1.294151E-17
         2   3 -1.714286E-07  4.106451E-16  4.029488E-16 -4.208274E-16  2.452989E-16 -3.058420E-17
         2   4 -1.714286E-07  1.258480E-16  1.227802E-16 -2.744578E-17  7.426340E-17  1.834145E-17
         2   5 -1.714286E-07  2.688643E-17  3.311094E-17 -2.573840E-16  8.341205E-17  8.296708E-17
         2   6 -1.714286E-07  2.479130E-16  2.524527E-16 -3.257982E-16  2.202405E-16 -7.958132E-17
         2   7 -1.714286E-07 -2.039447E-16 -9.500977E-17 -2.129260E-16 -1.058331E-16  4.131308E-17
         2   8 -1.714286E-07 -1.313507E-16 -2.220108E-16 -2.813402E-16 -2.768686E-16 -4.829836E-17
         3   1 -1.714286E-07 -5.155138E-16 -5.202722E-16 -1.297177E-16  2.660698E-16  4.671454E-18
         3   2 -1.714286E-07 -4.697290E-16 -5.429521E-16  4.175959E-16  1.976556E-16  3.004152E-18
         3   3 -1.714286E-07 -4.922245E-16 -3.975161E-16 -1.102911E-16 -5.872882E-16 -5.219259E-17
         3   4 -1.714286E-07 -5.412446E-16 -6.414076E-16  2.659870E-16 -3.997459E-17  3.006960E-17
         3   5 -1.714286E-07 -4.349731E-16 -2.805121E-16 -4.971945E-16 -2.831491E-17  7.429815E-17
         3   6 -1.714286E-07  2.206624E-17 -1.269401E-16 -8.670929E-17 -2.831491E-17 -1.585380E-17
         3   7 -1.714286E-07 -1.181343E-15 -9.274158E-16 -3.602665E-16 -4.228440E-16  1.743411E-17
         3   8 -1.714286E-07 -8.191091E-16 -9.950554E-16 -2.234381E-16 -3.544298E-16  1.121165E-17

 strains (elem, integ.pnt.,exx,eyy,ezz,exy,exz,eyz) forset EALL and time  0.1000000E-02

         1   1 -8.163265E-13  2.448979E-13  2.448979E-13 -4.102077E-29  1.577722E-30  9.466331E-30
         1   2 -8.163265E-13  2.448979E-13  2.448979E-13 -2.776790E-28  4.733165E-29 -1.656608E-29
         1   3 -8.163265E-13  2.448979E-13  2.448979E-13  7.257520E-29  5.679799E-29 -3.155444E-29
         1   4 -8.163265E-13  2.448979E-13  2.448979E-13 -1.640831E-28  3.344770E-28 -1.151737E-28
         1   5 -8.163265E-13  2.448979E-13  2.448979E-13  2.208811E-29 -6.468659E-29  1.104405E-28
         1   6 -8.163265E-13  2.448979E-13  2.448979E-13  9.466331E-30 -1.893266E-29  1.025519E-29
         1   7 -8.163265E-13  2.448979E-13  2.448979E-13  3.786532E-29 -7.573065E-29  6.941976E-29
         1   8 -8.163265E-13  2.448979E-13  2.448979E-13  3.786532E-29  1.640831E-28 -8.835242E-29
         2   1 -8.163265E-13  2.448979E-13  2.448979E-13 -2.248218E-21  1.383583E-22  6.852737E-23
         2   2 -8.163265E-13  2.448979E-13  2.448979E-13  1.775188E-21  1.938303E-21 -8.011410E-23
         2   3 -8.163265E-13  2.448979E-13  2.448979E-13 -2.605122E-21  1.518517E-21 -1.893307E-22
         2   4 -8.163265E-13  2.448979E-13  2.448979E-13 -1.699024E-22  4.597258E-22  1.135423E-22
         2   5 -8.163265E-13  2.448979E-13  2.448979E-13 -1.593330E-21  5.163603E-22  5.136058E-22
         2   6 -8.163265E-13  2.448979E-13  2.448979E-13 -2.016846E-21  1.363393E-21 -4.926463E-22
         2   7 -8.163265E-13  2.448979E-13  2.448979E-13 -1.318113E-21 -6.551575E-22  2.557477E-22
         2   8 -8.163265E-13  2.448979E-13  2.448979E-13 -1.741630E-21 -1.713949E-21 -2.989899E-22
         3   1 -8.163265E-13  2.448979E-13  2.448979E-13 -8.030146E-22  1.647099E-21  2.891853E-23
         3   2 -8.163265E-13  2.448979E-13  2.448979E-13  2.585117E-21  1.223583E-21  1.859713E-23
         3   3 -8.163265E-13  2.448979E-13  2.448979E-13 -6.827543E-22 -3.635594E-21 -3.230970E-22
         3   4 -8.163265E-13  2.448979E-13  2.448979E-13  1.646586E-21 -2.474617E-22  1.861451E-22
         3   5 -8.163265E-13  2.448979E-13  2.448979E-13 -3.077871E-21 -1.752828E-22  4.599409E-22
         3   6 -8.163265E-13  2.448979E-13  2.448979E-13 -5.367718E-22 -1.752828E-22 -9.814256E-23
         3   7 -8.163265E-13  2.448979E-13  2.448979E-13 -2.230221E-21 -2.617606E-21  1.079254E-22
         3   8 -8.163265E-13  2.448979E-13  2.448979E-13 -1.383188E-21 -2.194089E-21  6.940544E-23

 displacements (vx,vy,vz) for set NALL and time  0.2000000E-02

         1  0.000000E+00  0.000000E+00  0.000000E+00
         2 -8.163265E-10  0.000000E+00  0.000000E+00
         3 -3.000000E-02  0.000000E+00  0.000000E+00
         4 -3.000000E-02  0.000000E+00  0.000000E+00
         5 -6.000000E-02  0.000000E+00  0.000000E+00
         6 -6.000000E-02  0.000000E+00  0.000000E+00
         7  0.000000E+00  2.448979E-10  0.000000E+00
         8 -8.163265E-10  2.448979E-10  0.000000E+00
         9 -3.000000E-02  2.448979E-10  0.000000E+00
        10 -3.000000E-02  2.448979E-10  0.000000E+00
        11 -6.000000E-02  2.448980E-10  0.000000E+00
        12 -6.000000E-02  2.448979E-10  0.000000E+00
        13  0.000000E+00  0.000000E+00  3.428571E-10
        14 -8.163265E-10  0.000000E+00  3.428571E-10
        15 -3.000000E-02  0.000000E+00  3.428571E-10
        16 -3.000000E-02  0.000000E+00  3.428571E-10
        17 -6.000000E-02  0.000000E+00  3.428571E-10
        18 -6.000000E-02  0.000000E+00  3.428571E-10
        19  0.000000E+00  2.448979E-10  3.428571E-10
        20 -8.163265E-10  2.448979E-10  3.428571E-10
        21 -3.000000E-02  2.448979E-10  3.428571E-10
        22 -3.000000E-02  2.448979E-10  3.428571E-10
        23 -6.000000E-02  2.448979E-10  3.428571E-10
        24 -6.000000E-02  2.448980E-10  3.428571E-10

 stresses (elem, integ.pnt.,sxx,syy,szz,sxy,sxz,syz) for set EALL and time  0.2000000E-02

         1   1 -3.428571E-07 -2.646978E-23 -1.447569E-51 -7.391020E-24 -7.645883E-24  4.077804E-24
         1   2 -3.428571E-07  3.104231E-52  2.646978E-23 -1.248827E-23 -5.556008E-23  3.058353E-24
         1   3 -3.428571E-07  2.646978E-23  2.646978E-23 -9.175059E-24 -4.077804E-24  1.631122E-23
         1   4 -3.428571E-07  2.646978E-23  7.940934E-23 -1.427231E-23 -2.650573E-23  1.121396E-23
         1   5 -3.428571E-07 -2.646978E-23 -5.293956E-23 -2.038902E-24  1.121396E-23  4.077804E-24
         1   6 -3.428571E-07 -2.646978E-23 -2.646978E-23 -1.835012E-23 -3.670024E-23  3.058353E-24
         1   7 -3.428571E-07 -2.646978E-23 -7.940934E-23 -8.155608E-24  1.427231E-23  1.427231E-23
         1   8 -3.428571E-07 -2.646978E-23 -2.646978E-23 -2.446682E-23 -1.631122E-23  1.121396E-23
         2   1 -3.428571E-07 -1.257086E-15 -1.411361E-15 -2.294584E-17 -3.580601E-16 -1.016364E-17
         2   2 -3.428571E-07 -1.323040E-15 -1.147325E-15  4.559536E-16  8.663217E-17  5.477999E-18
         2   3 -3.428571E-07 -1.307327E-15 -1.460174E-15 -8.563504E-17  4.487939E-17 -3.893008E-17
         2   4 -3.428571E-07 -1.395368E-15 -1.247676E-15 -2.566705E-16  2.501220E-16  4.006048E-17
         2   5 -3.428571E-07 -6.283819E-16 -7.021104E-16  5.568300E-16 -2.148322E-16 -9.164777E-18
         2   6 -3.428571E-07 -3.839259E-16 -3.050417E-16  4.200016E-16 -7.800379E-17 -1.413832E-17
         2   7 -3.428571E-07 -1.243039E-15 -1.315341E-15  5.828293E-16  1.674922E-16 -3.793122E-17
         2   8 -3.428571E-07 -1.020671E-15 -9.698102E-16  4.460009E-16  3.727348E-16  2.044417E-17
         3   1 -3.428571E-07 -6.621112E-16 -8.511411E-16  5.299328E-16  1.555890E-16  1.102822E-18
         3   2 -3.428571E-07 -7.733935E-16 -7.942316E-16  8.720038E-16 -5.969672E-16  5.415369E-17
         3   3 -3.428571E-07 -9.234702E-16 -9.136651E-16  4.824476E-16 -5.575220E-16 -1.350687E-16
         3   4 -3.428571E-07 -1.119550E-15 -1.054617E-15  7.561044E-16  1.266200E-16  1.420645E-16
         3   5 -3.428571E-07  3.125893E-16  5.048396E-16  1.192074E-15 -3.404697E-16  1.402873E-16
         3   6 -3.428571E-07  1.299310E-15  1.032322E-15  9.744696E-17  1.384297E-16  1.141935E-16
         3   7 -3.428571E-07 -7.697401E-16 -3.786548E-16  1.458304E-15 -3.809814E-17  4.115799E-18
         3   8 -3.428571E-07  1.321831E-16 -4.903418E-17  6.373338E-16 -3.117549E-16  2.021043E-16

 strains (elem, integ.pnt.,exx,eyy,ezz,exy,exz,eyz) forset EALL and time  0.2000000E-02

         1   1 -1.632653E-12  4.897959E-13  4.897959E-13 -4.575393E-29 -4.733165E-29  2.524355E-29
         1   2 -1.632653E-12  4.897959E-13  4.897959E-13 -7.730837E-29 -3.439434E-28  1.893266E-29
         1   3 -1.632653E-12  4.897959E-13  4.897959E-13 -5.679799E-29 -2.524355E-29  1.009742E-28
         1   4 -1.632653E-12  4.897959E-13  4.897959E-13 -8.835242E-29 -1.640831E-28  6.941976E-29
         1   5 -1.632653E-12  4.897959E-13  4.897959E-13 -1.262177E-29  6.941976E-29  2.524355E-29
         1   6 -1.632653E-12  4.897959E-13  4.897959E-13 -1.135960E-28 -2.271919E-28  1.893266E-29
         1   7 -1.632653E-12  4.897959E-13  4.897959E-13 -5.048710E-29  8.835242E-29  8.835242E-29
         1   8 -1.632653E-12  4.897959E-13  4.897959E-13 -1.514613E-28 -1.009742E-28  6.941976E-29
         2   1 -1.632653E-12  4.897959E-13  4.897959E-13 -1.420457E-22 -2.216563E-21 -6.291777E-23
         2   2 -1.632653E-12  4.897959E-13  4.897959E-13  2.822570E-21  5.362944E-22  3.391142E-23
         2   3 -1.632653E-12  4.897959E-13  4.897959E-13 -5.301216E-22  2.778248E-22 -2.409957E-22
         2   4 -1.632653E-12  4.897959E-13  4.897959E-13 -1.588913E-21  1.548374E-21  2.479934E-22
         2   5 -1.632653E-12  4.897959E-13  4.897959E-13  3.447043E-21 -1.329914E-21 -5.673433E-23
         2   6 -1.632653E-12  4.897959E-13  4.897959E-13  2.600010E-21 -4.828806E-22 -8.752292E-23
         2   7 -1.632653E-12  4.897959E-13  4.897959E-13  3.607991E-21  1.036856E-21 -2.348123E-22
         2   8 -1.632653E-12  4.897959E-13  4.897959E-13  2.760958E-21  2.307406E-21  1.265591E-22
         3   1 -1.632653E-12  4.897959E-13  4.897959E-13  3.280536E-21  9.631700E-22  6.826992E-24
         3   2 -1.632653E-12  4.897959E-13  4.897959E-13  5.398119E-21 -3.695511E-21  3.352371E-22
         3   3 -1.632653E-12  4.897959E-13  4.897959E-13  2.986580E-21 -3.451326E-21 -8.361394E-22
         3   4 -1.632653E-12  4.897959E-13  4.897959E-13  4.680646E-21  7.838383E-22  8.794471E-22
         3   5 -1.632653E-12  4.897959E-13  4.897959E-13  7.379507E-21 -2.107670E-21  8.684452E-22
         3   6 -1.632653E-12  4.897959E-13  4.897959E-13  6.032431E-22  8.569458E-22  7.069121E-22
         3   7 -1.632653E-12  4.897959E-13  4.897959E-13  9.027597E-21 -2.358456E-22  2.547876E-23
         3   8 -1.632653E-12  4.897959E-13  4.897959E-13  3.945400E-21 -1.929912E-21  1.251122E-21

 displacements (vx,vy,vz) for set NALL and time  0.3500000E-02

         1  0.000000E+00  0.000000E+00  0.000000E+00
         2 -1.428571E-09  0.000000E+00  0.000000E+00
         3 -5.250000E-02  0.000000E+00  0.000000E+00
         4 -5.250000E-02  0.000000E+00  0.000000E+00
         5 -1.050000E-01  0.000000E+00  0.000000E+00
         6 -1.050000E-01  0.000000E+00  0.000000E+00
         7  0.000000E+00  4.285714E-10  0.000000E+00
         8 -1.428571E-09  4.285714E-10  0.000000E+00
         9 -5.250000E-02  4.285714E-10  0.000000E+00
        10 -5.250000E-02  4.285714E-10  0.000000E+00
        11 -1.050000E-01  4.285714E-10  0.000000E+00
        12 -1.050000E-01  4.285714E-10  0.000000E+00
        13  0.000000E+00  0.000000E+00  6.000000E-10
        14 -1.428571E-09  0.000000E+00  6.000000E-10
        15 -5.250000E-02  0.000000E+00  6.000000E-10
        16 -5.250000E-02  0.000000E+00  6.000000E-10
        17 -1.050000E-01  0.000000E+00  6.000000E-10
        18 -1.050000E-01  0.000000E+00  6.000000E-10
        19  0.000000E+00  4.285714E-10  6.000000E-10
        20 -1.428571E-09  4.285714E-10  6.000000E-10
        21 -5.250000E-02  4.285714E-10  6.000000E-10
        22 -5.250000E-02  4.285714E-10  6.000000E-10
        23 -1.050000E-01  4.285714E-10  6.000000E-10
        24 -1.050000E-01  4.285714E-10  6.000000E-10

 stresses (elem, integ.pnt.,sxx,syy,szz,sxy,sxz,syz) for set EALL and time  0.3500000E-02

         1   1 -6.000000E-07  2.554155E-51 -5.293956E-23 -9.684785E-24 -9.684785E-24  3.058353E-24
         1   2 -6.000000E-07 -5.293956E-23 -1.013298E-50  2.293765E-23 -5.352118E-23  7.645883E-24
         1   3 -6.000000E-07  2.686688E-50 -5.293956E-23 -3.058353E-23 -1.427231E-23  1.223341E-23
         1   4 -6.000000E-07  5.293956E-23  5.293956E-23  2.038902E-24 -5.912816E-23  2.956408E-23
         1   5 -6.000000E-07 -3.860184E-52 -5.293956E-23 -8.155608E-24  5.097255E-24 -5.097255E-24
         1   6 -6.000000E-07  5.293956E-23 -1.942959E-50 -1.239119E-50 -3.873914E-23  1.376259E-23
         1   7 -6.000000E-07  1.235259E-51 -1.058791E-22 -2.058765E-51  8.155608E-24  4.077804E-24
         1   8 -6.000000E-07 -5.293956E-23 -1.058791E-22 -4.189587E-50 -4.077804E-23  3.568079E-23
         2   1 -6.000000E-07 -2.620672E-17 -2.245837E-16 -1.601639E-17 -5.203929E-16 -2.418802E-17
         2   2 -6.000000E-07 -1.005562E-16 -1.063485E-16  1.892262E-16  1.087341E-15  3.629917E-17
         2   3 -6.000000E-07 -6.272920E-17 -3.098029E-16 -5.977400E-17 -4.520737E-16 -5.618329E-17
         2   4 -6.000000E-07  6.290533E-17  2.750617E-16  2.138828E-16 -3.152453E-16 -1.709374E-17
         2   5 -6.000000E-07  1.458957E-15  1.350167E-15 -2.698131E-17 -4.468443E-16 -5.827567E-17
         2   6 -6.000000E-07  1.279759E-15  1.423467E-15 -3.006381E-16 -5.494656E-16  1.888633E-16
         2   7 -6.000000E-07  1.011950E-15  8.544627E-16 -1.195323E-15 -1.918733E-16 -9.027093E-17
         2   8 -6.000000E-07  1.032736E-15  1.394392E-15 -1.006956E-16 -4.655301E-16  1.354703E-16
         3   1 -6.000000E-07  2.463212E-15  2.671204E-15  3.308537E-17 -2.736292E-15  5.320860E-17
         3   2 -6.000000E-07  2.780389E-15  2.808677E-15  2.769653E-15  5.475898E-16 -4.801783E-17
         3   3 -6.000000E-07 -6.774052E-16 -2.783945E-16  1.234763E-16 -1.350764E-16  6.486388E-17
         3   4 -6.000000E-07 -7.564321E-16 -1.065397E-15 -5.606657E-16  1.780521E-15  5.687175E-17
         3   5 -6.000000E-07 -7.635585E-16 -5.882016E-16  8.086195E-17 -1.914567E-15  1.869219E-16
         3   6 -6.000000E-07  1.046620E-17 -2.549369E-16  2.270116E-15 -1.357976E-16 -2.840946E-16
         3   7 -6.000000E-07  2.663587E-15  3.029963E-15 -1.887473E-15 -1.598739E-15  1.985772E-16
         3   8 -6.000000E-07  3.041408E-15  2.438753E-15 -7.928463E-16  8.641722E-16 -1.792050E-16

 strains (elem, integ.pnt.,exx,eyy,ezz,exy,exz,eyz) forset EALL and time  0.3500000E-02

         1   1 -2.857143E-12  8.571428E-13  8.571428E-13 -5.995343E-29 -5.995343E-29  1.893266E-29
         1   2 -2.857143E-12  8.571428E-13  8.571428E-13  1.419950E-28 -3.313216E-28  4.733165E-29
         1   3 -2.857143E-12  8.571428E-13  8.571428E-13 -1.893266E-28 -8.835242E-29  7.573065E-29
         1   4 -2.857143E-12  8.571428E-13  8.571428E-13  1.262177E-29 -3.660315E-28  1.830157E-28
         1   5 -2.857143E-12  8.571428E-13  8.571428E-13 -5.048710E-29  3.155444E-29 -3.155444E-29
         1   6 -2.857143E-12  8.571428E-13  8.571428E-13  1.051441E-56 -2.398137E-28  8.519698E-29
         1   7 -2.857143E-12  8.571428E-13  8.571428E-13 -1.529368E-56  5.048710E-29  2.524355E-29
         1   8 -2.857143E-12  8.571428E-13  8.571428E-13  1.147026E-56 -2.524355E-28  2.208811E-28
         2   1 -2.857143E-12  8.571428E-13  8.571428E-13 -9.914910E-23 -3.221480E-21 -1.497354E-22
         2   2 -2.857143E-12  8.571428E-13  8.571428E-13  1.171400E-21  6.731157E-21  2.247091E-22
         2   3 -2.857143E-12  8.571428E-13  8.571428E-13 -3.700295E-22 -2.798551E-21 -3.478013E-22
         2   4 -2.857143E-12  8.571428E-13  8.571428E-13  1.324036E-21 -1.951518E-21 -1.058184E-22
         2   5 -2.857143E-12  8.571428E-13  8.571428E-13 -1.670271E-22 -2.766179E-21 -3.607541E-22
         2   6 -2.857143E-12  8.571428E-13  8.571428E-13 -1.861093E-21 -3.401454E-21  1.169154E-21
         2   7 -2.857143E-12  8.571428E-13  8.571428E-13 -7.399617E-21 -1.187787E-21 -5.588201E-22
         2   8 -2.857143E-12  8.571428E-13  8.571428E-13 -6.233538E-22 -2.881853E-21  8.386259E-22
         3   1 -2.857143E-12  8.571428E-13  8.571428E-13  2.048142E-22 -1.693895E-20  3.293866E-22
         3   2 -2.857143E-12  8.571428E-13  8.571428E-13  1.714547E-20  3.389842E-21 -2.972532E-22
         3   3 -2.857143E-12  8.571428E-13  8.571428E-13  7.643770E-22 -8.361870E-22  4.015383E-22
         3   4 -2.857143E-12  8.571428E-13  8.571428E-13 -3.470788E-21  1.102227E-20  3.520632E-22
         3   5 -2.857143E-12  8.571428E-13  8.571428E-13  5.005740E-22 -1.185208E-20  1.157136E-21
         3   6 -2.857143E-12  8.571428E-13  8.571428E-13  1.405310E-20 -8.406520E-22 -1.758681E-21
         3   7 -2.857143E-12  8.571428E-13  8.571428E-13 -1.168436E-20 -9.896956E-21  1.229287E-21
         3   8 -2.857143E-12  8.571428E-13  8.571428E-13 -4.908096E-21  5.349637E-21 -1.109364E-21

 displacements (vx,vy,vz) for set NALL and time  0.5750000E-02

         1  0.000000E+00  0.000000E+00  0.000000E+00
         2 -2.346939E-09  0.000000E+00  0.000000E+00
         3 -8.625000E-02  0.000000E+00  0.000000E+00
         4 -8.625000E-02  0.000000E+00  0.000000E+00
         5 -1.725000E-01  0.000000E+00  0.000000E+00
         6 -1.725000E-01  0.000000E+00  0.000000E+00
         7  0.000000E+00  7.040816E-10  0.000000E+00
         8 -2.346939E-09  7.040816E-10  0.000000E+00
         9 -8.625000E-02  7.040816E-10  0.000000E+00
        10 -8.625000E-02  7.040816E-10  0.000000E+00
        11 -1.725000E-01  7.040816E-10  0.000000E+00
        12 -1.725000E-01  7.040816E-10  0.000000E+00
        13  0.000000E+00  0.000000E+00  9.857142E-10
        14 -2.346939E-09  0.000000E+00  9.857142E-10
        15 -8.625000E-02  0.000000E+00  9.857142E-10
        16 -8.625000E-02  0.000000E+00  9.857142E-10
        17 -1.725000E-01  0.000000E+00  9.857142E-10
        18 -1.725000E-01  0.000000E+00  9.857142E-10
        19  0.000000E+00  7.040816E-10  9.857142E-10
        20 -2.346939E-09  7.040816E-10  9.857142E-10
        21 -8.625000E-02  7.040816E-10  9.857142E-10
        22 -8.625000E-02  7.040816E-10  9.857142E-10
        23 -1.725000E-01  7.040816E-10  9.857142E-10
        24 -1.725000E-01  7.040816E-10  9.857143E-10

 stresses (elem, integ.pnt.,sxx,syy,szz,sxy,sxz,syz) for set EALL and time  0.5750000E-02

         1   1 -9.857142E-07  5.293956E-23 -5.293956E-23 -2.038902E-23 -3.058353E-23  1.223341E-23
         1   2 -9.857142E-07  5.293956E-23  2.646978E-22 -3.262243E-23 -1.916568E-22 -2.038902E-24
         1   3 -9.857142E-07  1.588187E-22  2.759342E-73 -5.301145E-23 -1.492976E-34  4.077804E-23
         1   4 -9.857142E-07  1.588187E-22  2.646978E-22 -6.524487E-23 -7.340047E-23  1.019451E-23
         1   5 -9.857142E-07 -1.588187E-22 -3.705769E-22  1.223341E-23  3.873914E-23 -4.077804E-24
         1   6 -9.857142E-07 -2.117582E-22 -1.058791E-22  1.182563E-22 -1.223341E-22 -6.116706E-24
         1   7 -9.857142E-07  5.293956E-23 -1.588187E-22 -4.077804E-23  7.340047E-23  3.262243E-23
         1   8 -9.857142E-07 -1.026294E-49 -1.852888E-51  6.524487E-23 -5.971902E-34  6.116706E-24
         2   1 -9.857143E-07 -1.963367E-15 -2.355907E-15  1.867678E-15  3.671892E-16  2.327590E-18
         2   2 -9.857143E-07 -2.147799E-15 -1.913448E-15  2.257368E-16  1.461816E-15 -3.122893E-18
         2   3 -9.857143E-07 -4.361801E-15 -4.668372E-15  1.736758E-15 -1.018289E-15 -5.149169E-17
         2   4 -9.857143E-07 -4.596564E-15 -4.343354E-15  2.316453E-16  7.633803E-17 -2.485720E-17
         2   5 -9.857142E-07 -1.406111E-15 -1.647957E-15 -3.147854E-17  6.227246E-16  6.250595E-17
         2   6 -9.857142E-07 -1.433326E-15 -1.138120E-15 -3.051353E-16  1.512109E-15  1.007951E-17
         2   7 -9.857143E-07 -2.573090E-15 -2.728967E-15 -1.174795E-16  1.379525E-15  8.686669E-18
         2   8 -9.857143E-07 -2.650637E-15 -2.336570E-15 -1.174795E-16  5.585542E-16 -1.165479E-17
         3   1 -9.857142E-07 -4.445311E-16 -1.616095E-15  7.754130E-16  2.727768E-15 -3.113602E-16
         3   2 -9.857143E-07 -3.522674E-15 -2.984365E-15 -1.140185E-15 -8.297705E-16  3.991487E-16
         3   3 -9.857142E-07  3.243751E-15  2.064073E-15 -9.669658E-17  1.631170E-16 -1.156333E-15
         3   4 -9.857142E-07  6.688427E-16  1.870018E-15  2.366215E-15 -1.478824E-15  1.025636E-15
         3   5 -9.857142E-07 -8.905296E-16  3.038293E-16 -3.943694E-15  5.144711E-16 -3.170397E-16
         3   6 -9.857142E-07  3.241482E-15  2.025625E-15 -1.207127E-15  1.609098E-15  8.631555E-16
         3   7 -9.857143E-07 -6.643407E-15 -5.457162E-15 -2.755760E-15  6.087609E-16 -1.162012E-15
         3   8 -9.857143E-07 -2.008160E-15 -2.561150E-15 -1.113819E-15 -2.127807E-15  1.489643E-15

 strains (elem, integ.pnt.,exx,eyy,ezz,exy,exz,eyz) forset EALL and time  0.5750000E-02

         1   1 -4.693877E-12  1.408163E-12  1.408163E-12 -1.262177E-28 -1.893266E-28  7.573065E-29
         1   2 -4.693877E-12  1.408163E-12  1.408163E-12 -2.019484E-28 -1.186447E-27 -1.262177E-29
         1   3 -4.693877E-12  1.408163E-12  1.408163E-12 -3.281661E-28  9.242230E-40  2.524355E-28
         1   4 -4.693877E-12  1.408163E-12  1.408163E-12 -4.038968E-28 -4.543839E-28  6.310887E-29
         1   5 -4.693877E-12  1.408163E-12  1.408163E-12  7.573065E-29  2.398137E-28 -2.524355E-29
         1   6 -4.693877E-12  1.408163E-12  1.408163E-12  7.320629E-28 -7.573065E-28 -3.786532E-29
         1   7 -4.693877E-12  1.408163E-12  1.408163E-12 -2.524355E-28  4.543839E-28  2.019484E-28
         1   8 -4.693877E-12  1.408163E-12  1.408163E-12  4.038968E-28  3.696892E-39  3.786532E-29
         2   1 -4.693877E-12  1.408163E-12  1.408163E-12  1.156181E-20  2.273076E-21  1.440889E-23
         2   2 -4.693877E-12  1.408163E-12  1.408163E-12  1.397418E-21  9.049340E-21 -1.933219E-23
         2   3 -4.693877E-12  1.408163E-12  1.408163E-12  1.075136E-20 -6.303695E-21 -3.187581E-22
         2   4 -4.693877E-12  1.408163E-12  1.408163E-12  1.433995E-21  4.725688E-22 -1.538779E-22
         2   5 -4.693877E-12  1.408163E-12  1.408163E-12 -1.948671E-22  3.854962E-21  3.869416E-22
         2   6 -4.693877E-12  1.408163E-12  1.408163E-12 -1.888933E-21  9.360676E-21  6.239698E-23
         2   7 -4.693877E-12  1.408163E-12  1.408163E-12 -7.272540E-22  8.539914E-21  5.377462E-23
         2   8 -4.693877E-12  1.408163E-12  1.408163E-12 -7.272540E-22  3.457717E-21 -7.214869E-23
         3   1 -4.693877E-12  1.408163E-12  1.408163E-12  4.800175E-21  1.688618E-20 -1.927468E-21
         3   2 -4.693877E-12  1.408163E-12  1.408163E-12 -7.058286E-21 -5.136675E-21  2.470920E-21
         3   3 -4.693877E-12  1.408163E-12  1.408163E-12 -5.985979E-22  1.009772E-21 -7.158250E-21
         3   4 -4.693877E-12  1.408163E-12  1.408163E-12  1.464800E-20 -9.154624E-21  6.349177E-21
         3   5 -4.693877E-12  1.408163E-12  1.408163E-12 -2.441335E-20  3.184821E-21 -1.962627E-21
         3   6 -4.693877E-12  1.408163E-12  1.408163E-12 -7.472688E-21  9.961085E-21  5.343343E-21
         3   7 -4.693877E-12  1.408163E-12  1.408163E-12 -1.705947E-20  3.768520E-21 -7.193409E-21
         3   8 -4.693877E-12  1.408163E-12  1.408163E-12 -6.895070E-21 -1.317214E-20  9.221600E-21

 displacements (vx,vy,vz) for set NALL and time  0.9125000E-02

         1  0.000000E+00  0.000000E+00  0.000000E+00
         2 -3.724490E-09  0.000000E+00  0.000000E+00
         3 -1.368750E-01  0.000000E+00  0.000000E+00
         4 -1.368750E-01  0.000000E+00  0.000000E+00
         5 -2.737500E-01  0.000000E+00  0.000000E+00
         6 -2.737500E-01  0.000000E+00  0.000000E+00
         7  0.000000E+00  1.117347E-09  0.000000E+00
         8 -3.724490E-09  1.117347E-09  0.000000E+00
         9 -1.368750E-01  1.117347E-09  0.000000E+00
        10 -1.368750E-01  1.117347E-09  0.000000E+00
        11 -2.737500E-01  1.117347E-09  0.000000E+00
        12 -2.737500E-01  1.117347E-09  0.000000E+00
        13  0.000000E+00  0.000000E+00  1.564286E-09
        14 -3.724490E-09  0.000000E+00  1.564286E-09
        15 -1.368750E-01  0.000000E+00  1.564286E-09
        16 -1.368750E-01  0.000000E+00  1.564286E-09
        17 -2.737500E-01  0.000000E+00  1.564286E-09
        18 -2.737500E-01  0.000000E+00  1.564286E-09
        19  0.000000E+00  1.117347E-09  1.564286E-09
        20 -3.724490E-09  1.117347E-09  1.564286E-09
        21 -1.368750E-01  1.117347E-09  1.564286E-09
        22 -1.368750E-01  1.117347E-09  1.564286E-09
        23 -2.737500E-01  1.117347E-09  1.564286E-09
        24 -2.737500E-01  1.117347E-09  1.564286E-09

 stresses (elem, integ.pnt.,sxx,syy,szz,sxy,sxz,syz) for set EALL and time  0.9125000E-02

         1   1 -1.564286E-06  1.058791E-22  1.058791E-22 -4.893365E-23 -1.223341E-23  8.155608E-24
         1   2 -1.564286E-06  3.176374E-22  2.117582E-22 -2.283570E-22 -9.786730E-23 -1.121396E-23
         1   3 -1.564286E-06 -1.976414E-50 -1.647012E-51 -1.631122E-23  1.631122E-23  8.155608E-24
         1   4 -1.564286E-06  2.117582E-22  1.058791E-22 -1.957346E-22  8.971169E-23 -2.650573E-23
         1   5 -1.564286E-06  1.058791E-22  1.058791E-22 -1.223341E-23 -1.223341E-23 -3.262243E-23
         1   6 -1.564286E-06  2.117582E-22  2.117582E-22 -6.116706E-23 -9.786730E-23 -2.956408E-23
         1   7 -1.564286E-06 -1.058791E-22 -1.058791E-22 -1.579525E-34  2.446682E-23 -4.893365E-23
         1   8 -1.564286E-06 -1.058791E-22 -1.058791E-22 -4.893365E-23  9.786730E-23 -4.485584E-23
         2   1 -1.564286E-06 -9.187199E-16 -5.447473E-16 -3.776310E-15  3.803831E-16 -9.880189E-17
         2   2 -1.564286E-06 -8.825373E-16 -1.459981E-15 -1.997541E-15 -2.629842E-15  8.866322E-17
         2   3 -1.564286E-06  2.497704E-15  2.501087E-15 -3.626361E-15  2.240739E-15 -1.093206E-16
         2   4 -1.564286E-06  3.173231E-15  3.077656E-15 -1.163450E-15  5.148449E-17 -6.412194E-18
         2   5 -1.564286E-06 -3.843658E-15 -3.440233E-15  1.155526E-17 -7.567962E-17 -3.582150E-16
         2   6 -1.564286E-06 -4.221803E-15 -4.533036E-15  2.200810E-15  4.716340E-16  4.259711E-16
         2   7 -1.564286E-06 -1.674859E-17  1.608621E-17  4.312483E-17  2.381397E-15 -3.687337E-16
         2   8 -1.564286E-06  2.444501E-16  4.150861E-16  5.904384E-16  1.921427E-16  3.308957E-16
         3   1 -1.564286E-06 -5.433891E-15 -7.298449E-15 -2.650240E-16 -1.645976E-15  2.344652E-16
         3   2 -1.564286E-06 -6.377816E-15 -4.673880E-15  1.376917E-15 -7.392769E-15 -2.074544E-16
         3   3 -1.564286E-06 -2.979488E-15 -3.213448E-15 -9.890832E-16 -2.466057E-16 -2.663824E-16
         3   4 -1.564286E-06 -6.235558E-15 -5.983885E-15 -4.417696E-16  3.037276E-15  2.423540E-16
         3   5 -1.564286E-06 -6.656589E-15 -7.118774E-15 -4.156383E-15  9.329143E-16  1.375883E-15
         3   6 -1.564286E-06 -2.942300E-15 -2.497827E-15  1.316753E-15 -3.445595E-15 -1.224039E-15
         3   7 -1.564286E-06 -3.791700E-15 -2.623287E-15 -3.549524E-15 -9.203451E-16  8.750358E-16
         3   8 -1.564286E-06 -2.389556E-15 -3.397347E-15 -2.656421E-16  1.268909E-15 -7.742304E-16

 strains (elem, integ.pnt.,exx,eyy,ezz,exy,exz,eyz) forset EALL and time  0.9125000E-02

         1   1 -7.448979E-12  2.234694E-12  2.234694E-12 -3.029226E-28 -7.573065E-29  5.048710E-29
         1   2 -7.448979E-12  2.234694E-12  2.234694E-12 -1.413639E-27 -6.058452E-28 -6.941976E-29
         1   3 -7.448979E-12  2.234694E-12  2.234694E-12 -1.009742E-28  1.009742E-28  5.048710E-29
         1   4 -7.448979E-12  2.234694E-12  2.234694E-12 -1.211690E-27  5.553581E-28 -1.640831E-28
         1   5 -7.448979E-12  2.234694E-12  2.234694E-12 -7.573065E-29 -7.573065E-29 -2.019484E-28
         1   6 -7.448979E-12  2.234694E-12  2.234694E-12 -3.786532E-28 -6.058452E-28 -1.830157E-28
         1   7 -7.448979E-12  2.234694E-12  2.234694E-12  9.778011E-40  1.514613E-28 -3.029226E-28
         1   8 -7.448979E-12  2.234694E-12  2.234694E-12 -3.029226E-28  6.058452E-28 -2.776790E-28
         2   1 -7.448979E-12  2.234694E-12  2.234694E-12 -2.337716E-20  2.354752E-21 -6.116307E-22
         2   2 -7.448979E-12  2.234694E-12  2.234694E-12 -1.236573E-20 -1.627997E-20  5.488675E-22
         2   3 -7.448979E-12  2.234694E-12  2.234694E-12 -2.244890E-20  1.387124E-20 -6.767468E-22
         2   4 -7.448979E-12  2.234694E-12  2.234694E-12 -7.202309E-21  3.187135E-22 -3.969453E-23
         2   5 -7.448979E-12  2.234694E-12  2.234694E-12  7.153254E-23 -4.684929E-22 -2.217521E-21
         2   6 -7.448979E-12  2.234694E-12  2.234694E-12  1.362406E-20  2.919639E-21  2.636964E-21
         2   7 -7.448979E-12  2.234694E-12  2.234694E-12  2.669633E-22  1.474198E-20 -2.282637E-21
         2   8 -7.448979E-12  2.234694E-12  2.234694E-12  3.655095E-21  1.189455E-21  2.048402E-21
         3   1 -7.448979E-12  2.234694E-12  2.234694E-12 -1.640625E-21 -1.018938E-20  1.451451E-21
         3   2 -7.448979E-12  2.234694E-12  2.234694E-12  8.523770E-21 -4.576476E-20 -1.284242E-21
         3   3 -7.448979E-12  2.234694E-12  2.234694E-12 -6.122896E-21 -1.526607E-21 -1.649034E-21
         3   4 -7.448979E-12  2.234694E-12  2.234694E-12 -2.734764E-21  1.880218E-20  1.500286E-21
         3   5 -7.448979E-12  2.234694E-12  2.234694E-12 -2.572999E-20  5.775183E-21  8.517374E-21
         3   6 -7.448979E-12  2.234694E-12  2.234694E-12  8.151329E-21 -2.132987E-20 -7.577383E-21
         3   7 -7.448979E-12  2.234694E-12  2.234694E-12 -2.197324E-20 -5.697374E-21  5.416889E-21
         3   8 -7.448979E-12  2.234694E-12  2.234694E-12 -1.644451E-21  7.855153E-21 -4.792855E-21

 displacements (vx,vy,vz) for set NALL and time  0.1418750E-01

         1  0.000000E+00  0.000000E+00  0.000000E+00
         2 -5.790816E-09  0.000000E+00  0.000000E+00
         3 -2.128125E-01  0.000000E+00  0.000000E+00
         4 -2.128125E-01  0.000000E+00  0.000000E+00
         5 -4.256250E-01  0.000000E+00  0.000000E+00
         6 -4.256250E-01  0.000000E+00  0.000000E+00
         7  0.000000E+00  1.737245E-09  0.000000E+00
         8 -5.790816E-09  1.737245E-09  0.000000E+00
         9 -2.128125E-01  1.737245E-09  0.000000E+00
        10 -2.128125E-01  1.737245E-09  0.000000E+00
        11 -4.256250E-01  1.737245E-09  0.000000E+00
        12 -4.256250E-01  1.737245E-09  0.000000E+00
        13  0.000000E+00  0.000000E+00  2.432143E-09
        14 -5.790816E-09  0.000000E+00  2.432143E-09
        15 -2.128125E-01  0.000000E+00  2.432143E-09
        16 -2.128125E-01  0.000000E+00  2.432143E-09
        17 -4.256250E-01  0.000000E+00  2.432143E-09
        18 -4.256250E-01  0.000000E+00  2.432143E-09
        19  0.000000E+00  1.737245E-09  2.432143E-09
        20 -5.790816E-09  1.737245E-09  2.432143E-09
        21 -2.128125E-01  1.737245E-09  2.432143E-09
        22 -2.128125E-01  1.737245E-09  2.432143E-09
        23 -4.256250E-01  1.737245E-09  2.432143E-09
        24 -4.256250E-01  1.737245E-09  2.432143E-09

 stresses (elem, integ.pnt.,sxx,syy,szz,sxy,sxz,syz) for set EALL and time  0.1418750E-01

         1   1 -2.432143E-06 -2.117582E-22  4.941036E-51  5.097255E-23  2.038902E-23 -1.223341E-23
         1   2 -2.432143E-06 -2.117582E-22  3.705777E-51  2.303959E-22 -7.887643E-50 -9.175059E-24
         1   3 -2.432143E-06  1.235259E-49  2.117582E-22 -4.077804E-23  3.262243E-23 -1.631122E-23
         1   4 -2.432143E-06  2.117582E-22  2.117582E-22  1.386453E-22  1.957346E-22 -1.223341E-23
         1   5 -2.432143E-06  2.117582E-22  2.117582E-22  3.262243E-23  2.038902E-23 -2.854463E-23
         1   6 -2.432143E-06 -2.117582E-22  3.396962E-50  2.283570E-22 -2.268759E-49 -3.364188E-23
         1   7 -2.432143E-06  4.235165E-22  4.235165E-22 -6.524487E-23  4.893365E-23 -1.631122E-23
         1   8 -2.432143E-06 -4.253408E-49  2.117582E-22  1.304897E-22  1.957346E-22 -3.670024E-23
         2   1 -2.432143E-06 -8.246750E-15 -6.546606E-15  5.747755E-15  3.430856E-15 -3.140206E-17
         2   2 -2.432143E-06 -6.792667E-15 -8.155563E-15  2.190216E-15  3.430856E-15 -7.216532E-17
         2   3 -2.432143E-06 -8.900439E-15 -7.524568E-15  6.498027E-15  1.828121E-15  1.097963E-16
         2   4 -2.432143E-06 -7.331594E-15 -8.865744E-15  4.308772E-15 -3.611331E-16 -1.494460E-16
         2   5 -2.432143E-06 -4.681481E-15 -3.376693E-15  1.626622E-16  2.337111E-15 -2.583924E-16
         2   6 -2.432143E-06 -4.297947E-15 -5.444456E-15 -5.310474E-15 -1.258005E-16 -1.920439E-16
         2   7 -2.432143E-06 -8.208567E-15 -7.228051E-15  6.070636E-16  8.414873E-16 -1.171940E-16
         2   8 -2.432143E-06 -7.710270E-15 -9.028034E-15 -3.771445E-15  1.388801E-15 -2.693246E-16
         3   1 -2.432143E-06  6.221409E-15  4.070501E-15  1.933970E-15  3.138920E-15  2.566639E-16
         3   2 -2.432143E-06  6.560196E-15  9.510662E-15  4.670538E-15 -5.618098E-15 -2.071998E-16
         3   3 -2.432143E-06  5.568967E-15  4.737393E-15  1.236522E-15  4.546434E-15  3.434958E-17
         3   4 -2.432143E-06  3.619449E-15  4.838174E-15 -3.141987E-15  6.735689E-15  4.389389E-16
         3   5 -2.432143E-06  2.062462E-16 -1.322181E-15  1.897423E-16  1.354944E-15  1.180197E-15
         3   6 -2.432143E-06  4.800453E-15  5.941731E-15  4.568251E-15  1.902258E-15 -1.419419E-15
         3   7 -2.432143E-06 -8.655899E-15 -8.864994E-15  7.081279E-16  9.383725E-15  9.578827E-16
         3   8 -2.432143E-06 -6.349997E-15 -6.940461E-15 -1.481126E-15  3.910589E-15 -7.732801E-16

 strains (elem, integ.pnt.,exx,eyy,ezz,exy,exz,eyz) forset EALL and time  0.1418750E-01

         1   1 -1.158163E-11  3.474490E-12  3.474490E-12  3.155444E-28  1.262177E-28 -7.573065E-29
         1   2 -1.158163E-11  3.474490E-12  3.474490E-12  1.426261E-27 -1.672747E-56 -5.679799E-29
         1   3 -1.158163E-11  3.474490E-12  3.474490E-12 -2.524355E-28  2.019484E-28 -1.009742E-28
         1   4 -1.158163E-11  3.474490E-12  3.474490E-12  8.582807E-28  1.211690E-27 -7.573065E-29
         1   5 -1.158163E-11  3.474490E-12  3.474490E-12  2.019484E-28  1.262177E-28 -1.767048E-28
         1   6 -1.158163E-11  3.474490E-12  3.474490E-12  1.413639E-27 -1.784263E-56 -2.082593E-28
         1   7 -1.158163E-11  3.474490E-12  3.474490E-12 -4.038968E-28  3.029226E-28 -1.009742E-28
         1   8 -1.158163E-11  3.474490E-12  3.474490E-12  8.077936E-28  1.211690E-27 -2.271919E-28
         2   1 -1.158163E-11  3.474490E-12  3.474490E-12  3.558134E-20  2.123864E-20 -1.943937E-22
         2   2 -1.158163E-11  3.474490E-12  3.474490E-12  1.355848E-20  2.123864E-20 -4.467377E-22
         2   3 -1.158163E-11  3.474490E-12  3.474490E-12  4.022588E-20  1.131694E-20  6.796913E-22
         2   4 -1.158163E-11  3.474490E-12  3.474490E-12  2.667335E-20 -2.235586E-21 -9.251422E-22
         2   5 -1.158163E-11  3.474490E-12  3.474490E-12  1.006957E-21  1.446783E-20 -1.599572E-21
         2   6 -1.158163E-11  3.474490E-12  3.474490E-12 -3.287436E-20 -7.787651E-22 -1.188843E-21
         2   7 -1.158163E-11  3.474490E-12  3.474490E-12  3.758013E-21  5.209207E-21 -7.254870E-22
         2   8 -1.158163E-11  3.474490E-12  3.474490E-12 -2.334704E-20  8.597339E-21 -1.667248E-21
         3   1 -1.158163E-11  3.474490E-12  3.474490E-12  1.197220E-20  1.943141E-20  1.588872E-21
         3   2 -1.158163E-11  3.474490E-12  3.474490E-12  2.891286E-20 -3.477870E-20 -1.282665E-21
         3   3 -1.158163E-11  3.474490E-12  3.474490E-12  7.654660E-21  2.814459E-20  2.126402E-22
         3   4 -1.158163E-11  3.474490E-12  3.474490E-12 -1.945039E-20  4.169712E-20  2.717241E-21
         3   5 -1.158163E-11  3.474490E-12  3.474490E-12  1.174595E-21  8.387751E-21  7.305982E-21
         3   6 -1.158163E-11  3.474490E-12  3.474490E-12  2.827965E-20  1.177588E-20 -8.786878E-21
         3   7 -1.158163E-11  3.474490E-12  3.474490E-12  4.383649E-21  5.808973E-20  5.929750E-21
         3   8 -1.158163E-11  3.474490E-12  3.474490E-12 -9.168878E-21  2.420841E-20 -4.786972E-21

 displacements (vx,vy,vz) for set NALL and time  0.2178125E-01

         1  0.000000E+00  0.000000E+00  0.000000E+00
         2 -8.890306E-09  0.000000E+00  0.000000E+00
         3 -3.267187E-01  0.000000E+00  0.000000E+00
         4 -3.267188E-01  0.000000E+00  0.000000E+00
         5 -6.534375E-01  0.000000E+00  0.000000E+00
         6 -6.534375E-01  0.000000E+00  0.000000E+00
         7  0.000000E+00  2.667092E-09  0.000000E+00
         8 -8.890306E-09  2.667092E-09  0.000000E+00
         9 -3.267187E-01  2.667092E-09  0.000000E+00
        10 -3.267188E-01  2.667092E-09  0.000000E+00
        11 -6.534375E-01  2.667092E-09  0.000000E+00
        12 -6.534375E-01  2.667092E-09  0.000000E+00
        13  0.000000E+00  0.000000E+00  3.733928E-09
        14 -8.890306E-09  0.000000E+00  3.733928E-09
        15 -3.267187E-01  0.000000E+00  3.733928E-09
        16 -3.267188E-01  0.000000E+00  3.733928E-09
        17 -6.534375E-01  0.000000E+00  3.733928E-09
        18 -6.534375E-01  0.000000E+00  3.733928E-09
        19  0.000000E+00  2.667092E-09  3.733928E-09
        20 -8.890306E-09  2.667092E-09  3.733928E-09
        21 -3.267187E-01  2.667092E-09  3.733928E-09
        22 -3.267188E-01  2.667092E-09  3.733928E-09
        23 -6.534375E-01  2.667092E-09  3.733928E-09
        24 -6.534375E-01  2.667092E-09  3.733928E-09

 stresses (elem, integ.pnt.,sxx,syy,szz,sxy,sxz,syz) for set EALL and time  0.2178125E-01

         1   1 -3.733928E-06 -2.117582E-22  2.117582E-22  2.038902E-23  4.077804E-24  8.155608E-24
         1   2 -3.733928E-06  2.117582E-22  2.117582E-22 -1.101007E-22  1.264119E-22 -2.242792E-23
         1   3 -3.733928E-06 -4.235165E-22 -1.317610E-49  7.340047E-23  6.524487E-23 -3.262243E-23
         1   4 -3.733928E-06  2.117582E-22 -2.117582E-22 -5.708926E-23  3.262243E-22 -1.182563E-22
         1   5 -3.733928E-06 -2.117582E-22  2.117582E-22  8.155608E-23 -8.971169E-23  1.712678E-22
         1   6 -3.733928E-06 -4.235165E-22 -9.799721E-50  3.751580E-22  3.262243E-23  6.116706E-24
         1   7 -3.733928E-06  8.470329E-22  8.470329E-22  6.524487E-23 -1.304897E-22  1.304897E-22
         1   8 -3.733928E-06  2.117582E-22  2.117582E-22  3.588468E-22  2.609795E-22 -8.971169E-23
         2   1 -3.733928E-06 -6.149679E-15 -5.163166E-15 -4.290024E-15  1.896499E-15  2.508079E-17
         2   2 -3.733928E-06 -6.160527E-15 -6.800107E-15  1.183112E-15  4.906724E-15  8.648573E-17
         2   3 -3.733928E-06 -7.642694E-15 -7.004926E-15 -4.048280E-15 -1.002320E-16  3.377243E-16
         2   4 -3.733928E-06 -7.089987E-15 -7.326907E-15  1.972170E-15  6.467531E-15  4.090681E-17
         2   5 -3.733928E-06 -9.233589E-16 -8.122481E-16 -8.852099E-15  1.096676E-15 -2.190408E-16
         2   6 -3.733928E-06 -2.689497E-15 -3.201456E-15  3.188800E-15  2.757057E-16  3.683481E-16
         2   7 -3.733928E-06  2.098964E-15  1.861329E-15 -9.111866E-15 -3.740710E-16  9.360280E-17
         2   8 -3.733928E-06  8.963800E-16  7.870816E-16  4.023660E-15  2.909811E-15  3.227692E-16
         3   1 -3.733928E-06  1.536037E-15 -1.856073E-15  1.916669E-15 -8.908485E-16  3.131769E-16
         3   2 -3.733928E-06  2.730217E-15  5.895128E-15 -1.231348E-14 -3.627416E-15  1.648197E-16
         3   3 -3.733928E-06 -1.973614E-15 -3.477496E-15  1.171952E-15  6.866544E-16 -1.529679E-16
         3   4 -3.733928E-06 -2.570152E-15  9.536511E-17  4.455833E-15  5.065163E-15  9.646918E-16
         3   5 -3.733928E-06 -2.390013E-15 -4.476918E-15  3.761666E-16 -3.911301E-15  1.634937E-15
         3   6 -3.733928E-06  5.007649E-15  5.932919E-15 -8.380851E-15  4.672079E-16 -1.847564E-16
         3   7 -3.733928E-06 -1.410937E-14 -1.430804E-14  1.403873E-15  2.562629E-15  1.168792E-15
         3   8 -3.733928E-06 -8.502423E-15 -8.076548E-15  5.782382E-15  3.733748E-16  6.151157E-16

 strains (elem, integ.pnt.,exx,eyy,ezz,exy,exz,eyz) forset EALL and time  0.2178125E-01

         1   1 -1.778061E-11  5.334183E-12  5.334183E-12  1.262177E-28  2.524355E-29  5.048710E-29
         1   2 -1.778061E-11  5.334183E-12  5.334183E-12 -6.815758E-28  7.825500E-28 -1.388395E-28
         1   3 -1.778061E-11  5.334183E-12  5.334183E-12  4.543839E-28  4.038968E-28 -2.019484E-28
         1   4 -1.778061E-11  5.334183E-12  5.334183E-12 -3.534097E-28  2.019484E-27 -7.320629E-28
         1   5 -1.778061E-11  5.334183E-12  5.334183E-12  5.048710E-28 -5.553581E-28  1.060229E-27
         1   6 -1.778061E-11  5.334183E-12  5.334183E-12  2.322407E-27  2.019484E-28  3.786532E-29
         1   7 -1.778061E-11  5.334183E-12  5.334183E-12  4.038968E-28 -8.077936E-28  8.077936E-28
         1   8 -1.778061E-11  5.334183E-12  5.334183E-12  2.221432E-27  1.615587E-27 -5.553581E-28
         2   1 -1.778061E-11  5.334183E-12  5.334183E-12 -2.655729E-20  1.174023E-20  1.552621E-22
         2   2 -1.778061E-11  5.334183E-12  5.334183E-12  7.324025E-21  3.037496E-20  5.353878E-22
         2   3 -1.778061E-11  5.334183E-12  5.334183E-12 -2.506078E-20 -6.204839E-22  2.090674E-21
         2   4 -1.778061E-11  5.334183E-12  5.334183E-12  1.220867E-20  4.003710E-20  2.532326E-22
         2   5 -1.778061E-11  5.334183E-12  5.334183E-12 -5.479871E-20  6.788947E-21 -1.355967E-21
         2   6 -1.778061E-11  5.334183E-12  5.334183E-12  1.974019E-20  1.706749E-21  2.280250E-21
         2   7 -1.778061E-11  5.334183E-12  5.334183E-12 -5.640679E-20 -2.315678E-21  5.794459E-22
         2   8 -1.778061E-11  5.334183E-12  5.334183E-12  2.490837E-20  1.801311E-20  1.998095E-21
         3   1 -1.778061E-11  5.334183E-12  5.334183E-12  1.186509E-20 -5.514776E-21  1.938714E-21
         3   2 -1.778061E-11  5.334183E-12  5.334183E-12 -7.622633E-20 -2.245544E-20  1.020313E-21
         3   3 -1.778061E-11  5.334183E-12  5.334183E-12  7.254939E-21  4.250718E-21 -9.469439E-22
         3   4 -1.778061E-11  5.334183E-12  5.334183E-12  2.758373E-20  3.135577E-20  5.971902E-21
         3   5 -1.778061E-11  5.334183E-12  5.334183E-12  2.328650E-21 -2.421281E-20  1.012104E-20
         3   6 -1.778061E-11  5.334183E-12  5.334183E-12 -5.188146E-20  2.892240E-21 -1.143730E-21
         3   7 -1.778061E-11  5.334183E-12  5.334183E-12  8.690642E-21  1.586390E-20  7.235379E-21
         3   8 -1.778061E-11  5.334183E-12  5.334183E-12  3.579570E-20  2.311368E-21  3.807859E-21

 displacements (vx,vy,vz) for set NALL and time  0.3078125E-01

         1  0.000000E+00  0.000000E+00  0.000000E+00
         2 -1.256377E-08  0.000000E+00  0.000000E+00
         3 -4.617187E-01  0.000000E+00  0.000000E+00
         4 -4.617188E-01  0.000000E+00  0.000000E+00
         5 -9.234375E-01  0.000000E+00  0.000000E+00
         6 -9.234375E-01  0.000000E+00  0.000000E+00
         7  0.000000E+00  3.769132E-09  0.000000E+00
         8 -1.256377E-08  3.769132E-09  0.000000E+00
         9 -4.617187E-01  3.769132E-09  0.000000E+00
        10 -4.617188E-01  3.769132E-09  0.000000E+00
        11 -9.234375E-01  3.769132E-09  0.000000E+00
        12 -9.234375E-01  3.769133E-09  0.000000E+00
        13  0.000000E+00  0.000000E+00  5.276785E-09
        14 -1.256377E-08  0.000000E+00  5.276785E-09
        15 -4.617187E-01  0.000000E+00  5.276786E-09
        16 -4.617188E-01  0.000000E+00  5.276785E-09
        17 -9.234375E-01  0.000000E+00  5.276786E-09
        18 -9.234375E-01  0.000000E+00  5.276785E-09
        19  0.000000E+00  3.769132E-09  5.276785E-09
        20 -1.256377E-08  3.769132E-09  5.276785E-09
        21 -4.617187E-01  3.769132E-09  5.276786E-09
        22 -4.617188E-01  3.769133E-09  5.276785E-09
        23 -9.234375E-01  3.769133E-09  5.276786E-09
        24 -9.234375E-01  3.769132E-09  5.276785E-09

 stresses (elem, integ.pnt.,sxx,syy,szz,sxy,sxz,syz) for set EALL and time  0.3078125E-01

         1   1 -5.276785E-06 -4.235165E-22 -4.235165E-22  9.786730E-23  1.223341E-22 -2.446682E-23
         1   2 -5.276785E-06 -4.235165E-22 -4.235165E-22  2.283570E-22  3.506911E-22 -4.077804E-24
         1   3 -5.276785E-06  4.235165E-22 -3.294024E-50 -6.524487E-23  3.262243E-23  1.631122E-23
         1   4 -5.276785E-06  4.235165E-22  4.235165E-22  6.524487E-23  2.283570E-22  4.077804E-23
         1   5 -5.276785E-06  1.647012E-51  4.235165E-22 -2.470518E-50  1.141785E-22 -8.155608E-24
         1   6 -5.276785E-06 -3.088147E-50  4.235165E-22 -1.688187E-49  3.425355E-22 -6.116706E-23
         1   7 -5.276785E-06  0.000000E+00  5.270438E-50  0.000000E+00 -3.262243E-23  0.000000E+00
         1   8 -5.276785E-06 -2.635219E-50 -2.832861E-49  1.712892E-49  1.957346E-22 -1.631122E-23
         2   1 -5.276786E-06 -2.241898E-14 -2.132237E-14 -2.130693E-15 -8.095666E-15  2.090469E-16
         2   2 -5.276786E-06 -2.312729E-14 -2.404171E-14  6.079011E-15  1.755979E-15 -3.252872E-18
         2   3 -5.276786E-06 -2.588207E-15 -2.269866E-16 -1.970701E-15  7.780439E-15 -1.050539E-16
         2   4 -5.276786E-06 -4.886872E-15 -6.657155E-15  8.975571E-15  6.685811E-15  5.869654E-16
         2   5 -5.276786E-06 -1.492740E-14 -1.295131E-14 -1.699207E-14 -9.279396E-15  1.094275E-15
         2   6 -5.276786E-06 -1.120455E-14 -1.377158E-14  9.278984E-15 -4.353574E-15 -6.023580E-16
         2   7 -5.276785E-06 -8.434191E-16  2.397283E-15 -1.556603E-14  7.338667E-16  7.801737E-16
         2   8 -5.276785E-06  1.289079E-15 -2.133816E-15  4.137260E-15 -4.739269E-15 -1.213982E-17
         3   1 -5.276785E-06  1.050803E-14  1.263235E-14 -8.973137E-17 -1.011747E-15  6.719571E-16
         3   2 -5.276785E-06  6.688421E-15  5.354262E-15  4.288777E-15 -1.359996E-14 -1.252853E-15
         3   3 -5.276785E-06  4.068930E-15  8.554052E-15 -3.348820E-16  6.014070E-15  8.552147E-16
         3   4 -5.276786E-06 -4.818244E-15 -1.054835E-14  2.949000E-15 -2.742947E-15 -1.598548E-15
         3   5 -5.276786E-06 -3.371474E-15 -1.760278E-15  1.715325E-14  4.981127E-15  2.324520E-15
         3   6 -5.276786E-06 -9.782953E-15 -1.014916E-14 -9.117803E-15  3.339186E-15 -4.330017E-15
         3   7 -5.276785E-06  4.966893E-15  8.938893E-15  1.616757E-14  1.603423E-14  2.507778E-15
         3   8 -5.276786E-06 -6.512151E-15 -1.127431E-14 -1.346470E-15  2.898708E-15 -4.675712E-15

 strains (elem, integ.pnt.,exx,eyy,ezz,exy,exz,eyz) forset EALL and time  0.3078125E-01

         1   1 -2.512755E-11  7.538265E-12  7.538265E-12  6.058452E-28  7.573065E-28 -1.514613E-28
         1   2 -2.512755E-11  7.538265E-12  7.538265E-12  1.413639E-27  2.170945E-27 -2.524355E-29
         1   3 -2.512755E-11  7.538265E-12  7.538265E-12 -4.038968E-28  2.019484E-28  1.009742E-28
         1   4 -2.512755E-11  7.538265E-12  7.538265E-12  4.038968E-28  1.413639E-27  2.524355E-28
         1   5 -2.512755E-11  7.538265E-12  7.538265E-12  0.000000E+00  7.068194E-28 -5.048710E-29
         1   6 -2.512755E-11  7.538265E-12  7.538265E-12  1.019579E-55  2.120458E-27 -3.786532E-28
         1   7 -2.512755E-11  7.538265E-12  7.538265E-12  0.000000E+00 -2.019484E-28  0.000000E+00
         1   8 -2.512755E-11  7.538265E-12  7.538265E-12  4.078315E-55  1.211690E-27 -1.009742E-28
         2   1 -2.512755E-11  7.538265E-12  7.538265E-12 -1.319001E-20 -5.011603E-20  1.294100E-21
         2   2 -2.512755E-11  7.538265E-12  7.538265E-12  3.763197E-20  1.087035E-20 -2.013683E-23
         2   3 -2.512755E-11  7.538265E-12  7.538265E-12 -1.219958E-20  4.816462E-20 -6.503339E-22
         2   4 -2.512755E-11  7.538265E-12  7.538265E-12  5.556306E-20  4.138836E-20  3.633595E-21
         2   5 -2.512755E-11  7.538265E-12  7.538265E-12 -1.051890E-19 -5.744388E-20  6.774081E-21
         2   6 -2.512755E-11  7.538265E-12  7.538265E-12  5.744133E-20 -2.695070E-20 -3.728883E-21
         2   7 -2.512755E-11  7.538265E-12  7.538265E-12 -9.636114E-20  4.542984E-21  4.829647E-21
         2   8 -2.512755E-11  7.538265E-12  7.538265E-12  2.561161E-20 -2.933833E-20 -7.515126E-23
         3   1 -2.512755E-11  7.538265E-12  7.538265E-12 -5.554799E-22 -6.263195E-21  4.159734E-21
         3   2 -2.512755E-11  7.538265E-12  7.538265E-12  2.654957E-20 -8.419023E-20 -7.755759E-21
         3   3 -2.512755E-11  7.538265E-12  7.538265E-12 -2.073079E-21  3.722996E-20  5.294186E-21
         3   4 -2.512755E-11  7.538265E-12  7.538265E-12  1.825571E-20 -1.698015E-20 -9.895776E-21
         3   5 -2.512755E-11  7.538265E-12  7.538265E-12  1.061868E-19  3.083555E-20  1.438989E-20
         3   6 -2.512755E-11  7.538265E-12  7.538265E-12 -5.644354E-20  2.067115E-20 -2.680487E-20
         3   7 -2.512755E-11  7.538265E-12  7.538265E-12  1.000849E-19  9.925955E-20  1.552434E-20
         3   8 -2.512755E-11  7.538265E-12  7.538265E-12 -8.335290E-21  1.794438E-20 -2.894489E-20

 displacements (vx,vy,vz) for set NALL and time  0.3978125E-01

         1  0.000000E+00  0.000000E+00  0.000000E+00
         2 -1.623724E-08  0.000000E+00  0.000000E+00
         3 -5.967187E-01  0.000000E+00  0.000000E+00
         4 -5.967188E-01  0.000000E+00  0.000000E+00
         5 -1.193437E+00  0.000000E+00  0.000000E+00
         6 -1.193438E+00  0.000000E+00  0.000000E+00
         7  0.000000E+00  4.871173E-09  0.000000E+00
         8 -1.623724E-08  4.871173E-09  0.000000E+00
         9 -5.967187E-01  4.871173E-09  0.000000E+00
        10 -5.967188E-01  4.871173E-09  0.000000E+00
        11 -1.193437E+00  4.871173E-09  0.000000E+00
        12 -1.193438E+00  4.871173E-09  0.000000E+00
        13  0.000000E+00  0.000000E+00  6.819643E-09
        14 -1.623724E-08  0.000000E+00  6.819643E-09
        15 -5.967187E-01  0.000000E+00  6.819643E-09
        16 -5.967188E-01  0.000000E+00  6.819643E-09
        17 -1.193437E+00  0.000000E+00  6.819643E-09
        18 -1.193438E+00  0.000000E+00  6.819643E-09
        19  0.000000E+00  4.871173E-09  6.819643E-09
        20 -1.623724E-08  4.871173E-09  6.819643E-09
        21 -5.967187E-01  4.871173E-09  6.819643E-09
        22 -5.967188E-01  4.871173E-09  6.819643E-09
        23 -1.193437E+00  4.871173E-09  6.819643E-09
        24 -1.193438E+00  4.871173E-09  6.819643E-09

 stresses (elem, integ.pnt.,sxx,syy,szz,sxy,sxz,syz) for set EALL and time  0.3978125E-01

         1   1 -6.819643E-06 -8.470329E-22 -4.235165E-22 -7.340047E-23 -1.223341E-22  1.631122E-23
         1   2 -6.819643E-06  4.298701E-49  1.270549E-21 -1.712678E-22 -1.247808E-21  9.786730E-23
         1   3 -6.819643E-06 -4.235165E-22 -4.235165E-22 -1.468009E-22 -1.631122E-22  2.609795E-22
         1   4 -6.819643E-06  4.235165E-22  1.694066E-21 -2.446682E-22 -1.076540E-21  3.670024E-22
         1   5 -6.819643E-06 -4.235165E-22 -1.270549E-21 -1.957346E-22  4.077804E-22 -1.794234E-22
         1   6 -6.819643E-06  8.470329E-22  8.470329E-22 -5.219589E-22 -7.176935E-22  4.077804E-23
         1   7 -6.819643E-06 -1.694066E-21 -2.964615E-21 -1.957346E-22  5.219589E-22 -3.789140E-48
         1   8 -6.819643E-06 -4.235165E-22 -4.235165E-22 -5.219589E-22 -6.524487E-22  3.099131E-22
         2   1 -6.819643E-06  2.985024E-15  1.060787E-15  3.157113E-17  2.509050E-15  3.191372E-16
         2   2 -6.819643E-06  4.223019E-15  3.374415E-15  5.504707E-15 -1.322145E-15 -1.759963E-16
         2   3 -6.819643E-06  1.830946E-16 -3.913292E-18  1.178250E-16  4.394796E-18 -2.502473E-17
         2   4 -6.819643E-06  4.978478E-16  1.554852E-16  6.138275E-15 -8.752623E-15 -1.011196E-15
         2   5 -6.819643E-06  4.776609E-16 -4.829236E-16 -8.977072E-15  3.382749E-15  1.535198E-15
         2   6 -6.819643E-06 -6.904288E-16  7.995258E-16  4.158455E-15 -1.084740E-14  1.783726E-16
         2   7 -6.819643E-06 -1.503298E-15 -7.266535E-16 -9.578271E-15  1.640178E-17  1.191036E-15
         2   8 -6.819643E-06 -3.594630E-15 -1.598434E-15 -3.010507E-15 -6.551361E-15 -6.568270E-16
         3   1 -6.819643E-06  6.828498E-15  5.769079E-15  3.935401E-15  4.869817E-15  3.120146E-16
         3   2 -6.819643E-06  4.029581E-15  7.308889E-15  1.707093E-14  4.913084E-16 -1.567321E-16
         3   3 -6.819643E-06  1.494390E-14  1.813727E-14  2.724809E-15 -1.969453E-15 -1.812492E-15
         3   4 -6.819643E-06  4.941854E-15  2.869764E-15 -2.748327E-15  2.868011E-14  3.161046E-15
         3   5 -6.819643E-06 -1.179129E-14 -6.902089E-15  2.345713E-15 -2.544921E-15  3.288961E-15
         3   6 -6.819643E-06  1.207699E-14  6.066519E-15  6.724221E-15  2.928215E-15 -3.902711E-15
         3   7 -6.819643E-06 -2.173723E-14 -1.259525E-14  8.754319E-15  1.016394E-14  1.164454E-15
         3   8 -6.819643E-06 -5.072085E-15 -1.643395E-14 -1.313823E-14  1.016394E-14 -5.849324E-16

 strains (elem, integ.pnt.,exx,eyy,ezz,exy,exz,eyz) forset EALL and time  0.3978125E-01

         1   1 -3.247449E-11  9.742347E-12  9.742347E-12 -4.543839E-28 -7.573065E-28  1.009742E-28
         1   2 -3.247449E-11  9.742347E-12  9.742347E-12 -1.060229E-27 -7.724526E-27  6.058452E-28
         1   3 -3.247449E-11  9.742347E-12  9.742347E-12 -9.087678E-28 -1.009742E-27  1.615587E-27
         1   4 -3.247449E-11  9.742347E-12  9.742347E-12 -1.514613E-27 -6.664297E-27  2.271919E-27
         1   5 -3.247449E-11  9.742347E-12  9.742347E-12 -1.211690E-27  2.524355E-27 -1.110716E-27
         1   6 -3.247449E-11  9.742347E-12  9.742347E-12 -3.231174E-27 -4.442865E-27  2.524355E-28
         1   7 -3.247449E-11  9.742347E-12  9.742347E-12 -1.211690E-27  3.231174E-27  1.566073E-53
         1   8 -3.247449E-11  9.742347E-12  9.742347E-12 -3.231174E-27 -4.038968E-27  1.918510E-27
         2   1 -3.247449E-11  9.742347E-12  9.742347E-12  1.954403E-22  1.553222E-20  1.975611E-21
         2   2 -3.247449E-11  9.742347E-12  9.742347E-12  3.407676E-20 -8.184706E-21 -1.089501E-21
         2   3 -3.247449E-11  9.742347E-12  9.742347E-12  7.293931E-22  2.720588E-23 -1.549150E-22
         2   4 -3.247449E-11  9.742347E-12  9.742347E-12  3.799884E-20 -5.418290E-20 -6.259784E-21
         2   5 -3.247449E-11  9.742347E-12  9.742347E-12 -5.557235E-20  2.094083E-20  9.503608E-21
         2   6 -3.247449E-11  9.742347E-12  9.742347E-12  2.574281E-20 -6.715060E-20  1.104211E-21
         2   7 -3.247449E-11  9.742347E-12  9.742347E-12 -5.929406E-20  1.015348E-22  7.373082E-21
         2   8 -3.247449E-11  9.742347E-12  9.742347E-12 -1.863647E-20 -4.055605E-20 -4.066072E-21
         3   1 -3.247449E-11  9.742347E-12  9.742347E-12  2.436201E-20  3.014649E-20  1.931519E-21
         3   2 -3.247449E-11  9.742347E-12  9.742347E-12  1.056772E-19  3.041433E-21 -9.702465E-22
         3   3 -3.247449E-11  9.742347E-12  9.742347E-12  1.686786E-20 -1.219185E-20 -1.122019E-20
         3   4 -3.247449E-11  9.742347E-12  9.742347E-12 -1.701345E-20  1.775435E-19  1.956838E-20
         3   5 -3.247449E-11  9.742347E-12  9.742347E-12  1.452108E-20 -1.575427E-20  2.036023E-20
         3   6 -3.247449E-11  9.742347E-12  9.742347E-12  4.162613E-20  1.812705E-20 -2.415964E-20
         3   7 -3.247449E-11  9.742347E-12  9.742347E-12  5.419340E-20  6.291961E-20  7.208527E-21
         3   8 -3.247449E-11  9.742347E-12  9.742347E-12 -8.133187E-20  6.291961E-20 -3.621010E-21

 displacements (vx,vy,vz) for set NALL and time  0.4878125E-01

         1  0.000000E+00  0.000000E+00  0.000000E+00
         2 -1.991071E-08  0.000000E+00  0.000000E+00
         3 -7.317187E-01  0.000000E+00  0.000000E+00
         4 -7.317188E-01  0.000000E+00  0.000000E+00
         5 -1.463437E+00  0.000000E+00  0.000000E+00
         6 -1.463438E+00  0.000000E+00  0.000000E+00
         7  0.000000E+00  5.973214E-09  0.000000E+00
         8 -1.991071E-08  5.973214E-09  0.000000E+00
         9 -7.317187E-01  5.973214E-09  0.000000E+00
        10 -7.317188E-01  5.973214E-09  0.000000E+00
        11 -1.463437E+00  5.973214E-09  0.000000E+00
        12 -1.463438E+00  5.973214E-09  0.000000E+00
        13  0.000000E+00  0.000000E+00  8.362500E-09
        14 -1.991071E-08  0.000000E+00  8.362500E-09
        15 -7.317187E-01  0.000000E+00  8.362500E-09
        16 -7.317188E-01  0.000000E+00  8.362500E-09
        17 -1.463437E+00  0.000000E+00  8.362500E-09
        18 -1.463438E+00  0.000000E+00  8.362500E-09
        19  0.000000E+00  5.973214E-09  8.362500E-09
        20 -1.991071E-08  5.973214E-09  8.362500E-09
        21 -7.317187E-01  5.973214E-09  8.362500E-09
        22 -7.317188E-01  5.973214E-09  8.362500E-09
        23 -1.463437E+00  5.973214E-09  8.362500E-09
        24 -1.463438E+00  5.973214E-09  8.362500E-09

 stresses (elem, integ.pnt.,sxx,syy,szz,sxy,sxz,syz) for set EALL and time  0.4878125E-01

         1   1 -8.362500E-06 -1.694066E-21 -1.694066E-21 -1.386453E-22 -9.786730E-23  1.631122E-23
         1   2 -8.362500E-06 -1.694066E-21 -1.694066E-21 -5.464257E-22 -3.262243E-22 -1.427231E-22
         1   3 -8.362500E-06 -1.694066E-21 -1.694066E-21 -1.794234E-22  1.957346E-22  6.524487E-23
         1   4 -8.362500E-06 -1.694066E-21 -1.694066E-21 -5.872038E-22  1.174408E-21 -2.283570E-22
         1   5 -8.362500E-06 -4.235165E-22 -8.470329E-22  3.262243E-22 -9.786730E-23  1.468009E-22
         1   6 -8.362500E-06 -1.270549E-21 -1.270549E-21  1.761611E-21 -3.262243E-22 -4.852587E-22
         1   7 -8.362500E-06  2.117582E-21  1.694066E-21  2.026552E-32 -1.957346E-22  1.304897E-22
         1   8 -8.362500E-06  4.235165E-22  4.235165E-22  1.435387E-21  1.043918E-21 -5.708926E-22
         2   1 -8.362500E-06  3.107284E-15  2.678769E-15 -2.272661E-15 -6.843642E-15  4.848513E-16
         2   2 -8.362500E-06  1.502186E-15  4.526747E-16  1.195749E-14  7.386511E-15 -2.050874E-16
         2   3 -8.362500E-06  9.766369E-15  1.164887E-14 -2.500531E-15 -9.776018E-15  1.917782E-16
         2   4 -8.362500E-06  5.986008E-15  4.347161E-15  1.282425E-14 -1.196527E-14 -3.528620E-16
         2   5 -8.362500E-06  9.880931E-15  1.027302E-14 -8.765968E-15 -7.597358E-15  2.102563E-15
         2   6 -8.362500E-06  8.987794E-15  8.352052E-15  1.750508E-14 -1.576908E-15 -6.176218E-16
         2   7 -8.362500E-06  1.161419E-14  1.431730E-14 -8.790421E-15  4.954055E-15  1.809489E-15
         2   8 -8.362500E-06  8.545793E-15  7.320716E-15  1.966989E-14 -1.255998E-14 -7.653963E-16
         3   1 -8.362500E-06  1.126902E-14  9.292899E-15  3.580190E-15  2.509444E-14  1.907336E-15
         3   2 -8.362500E-06  1.911736E-16 -2.015085E-15 -7.366082E-15 -1.176612E-15 -1.973746E-15
         3   3 -8.362500E-06  1.219856E-15  1.211591E-14  1.399142E-15  1.042134E-14 -1.892244E-15
         3   4 -8.362500E-06 -2.717552E-14 -3.959964E-14  2.329169E-14  1.042134E-14 -2.136146E-16
         3   5 -8.362500E-06 -1.391669E-14 -5.253983E-15  1.956471E-14 -8.769686E-15  1.091786E-14
         3   6 -8.362500E-06  2.248057E-15 -4.886572E-15 -2.327834E-15 -3.296550E-15 -9.126253E-15
         3   7 -8.362500E-06 -3.053361E-14 -8.998737E-15  2.516726E-14  8.557788E-15  7.118276E-15
         3   8 -8.362500E-06 -3.168640E-14 -4.903889E-14 -1.103794E-15  3.482884E-14 -7.366122E-15

 strains (elem, integ.pnt.,exx,eyy,ezz,exy,exz,eyz) forset EALL and time  0.4878125E-01

         1   1 -3.982143E-11  1.194643E-11  1.194643E-11 -8.582807E-28 -6.058452E-28  1.009742E-28
         1   2 -3.982143E-11  1.194643E-11  1.194643E-11 -3.382636E-27 -2.019484E-27 -8.835242E-28
         1   3 -3.982143E-11  1.194643E-11  1.194643E-11 -1.110716E-27  1.211690E-27  4.038968E-28
         1   4 -3.982143E-11  1.194643E-11  1.194643E-11 -3.635071E-27  7.270142E-27 -1.413639E-27
         1   5 -3.982143E-11  1.194643E-11  1.194643E-11  2.019484E-27 -6.058452E-28  9.087678E-28
         1   6 -3.982143E-11  1.194643E-11  1.194643E-11  1.090521E-26 -2.019484E-27 -3.003982E-27
         1   7 -3.982143E-11  1.194643E-11  1.194643E-11 -1.254532E-37 -1.211690E-27  8.077936E-28
         1   8 -3.982143E-11  1.194643E-11  1.194643E-11  8.885729E-27  6.462349E-27 -3.534097E-27
         2   1 -3.982143E-11  1.194643E-11  1.194643E-11 -1.406885E-20 -4.236540E-20  3.001460E-21
         2   2 -3.982143E-11  1.194643E-11  1.194643E-11  7.402257E-20  4.572602E-20 -1.269589E-21
         2   3 -3.982143E-11  1.194643E-11  1.194643E-11 -1.547948E-20 -6.051821E-20  1.187198E-21
         2   4 -3.982143E-11  1.194643E-11  1.194643E-11  7.938821E-20 -7.407073E-20 -2.184384E-21
         2   5 -3.982143E-11  1.194643E-11  1.194643E-11 -5.426552E-20 -4.703126E-20  1.301586E-20
         2   6 -3.982143E-11  1.194643E-11  1.194643E-11  1.083648E-19 -9.761813E-21 -3.823373E-21
         2   7 -3.982143E-11  1.194643E-11  1.194643E-11 -5.441689E-20  3.066796E-20  1.120160E-20
         2   8 -3.982143E-11  1.194643E-11  1.194643E-11  1.217660E-19 -7.775226E-20 -4.738168E-21
         3   1 -3.982143E-11  1.194643E-11  1.194643E-11  2.216308E-20  1.553465E-19  1.180732E-20
         3   2 -3.982143E-11  1.194643E-11  1.194643E-11 -4.559956E-20 -7.283791E-21 -1.221843E-20
         3   3 -3.982143E-11  1.194643E-11  1.194643E-11  8.661356E-21  6.451308E-20 -1.171389E-20
         3   4 -3.982143E-11  1.194643E-11  1.194643E-11  1.441866E-19  6.451308E-20 -1.322376E-21
         3   5 -3.982143E-11  1.194643E-11  1.194643E-11  1.211149E-19 -5.428853E-20  6.758673E-20
         3   6 -3.982143E-11  1.194643E-11  1.194643E-11 -1.441040E-20 -2.040721E-20 -5.649585E-20
         3   7 -3.982143E-11  1.194643E-11  1.194643E-11  1.557973E-19  5.297678E-20  4.406552E-20
         3   8 -3.982143E-11  1.194643E-11  1.194643E-11 -6.833009E-21  2.156071E-19 -4.559980E-20

 displacements (vx,vy,vz) for set NALL and time  0.5778125E-01

         1  0.000000E+00  0.000000E+00  0.000000E+00
         2 -2.358418E-08  0.000000E+00  0.000000E+00
         3 -8.667187E-01  0.000000E+00  0.000000E+00
         4 -8.667188E-01  0.000000E+00  0.000000E+00
         5 -1.733437E+00  0.000000E+00  0.000000E+00
         6 -1.733438E+00  0.000000E+00  0.000000E+00
         7  0.000000E+00  7.075255E-09  0.000000E+00
         8 -2.358418E-08  7.075255E-09  0.000000E+00
         9 -8.667187E-01  7.075255E-09  0.000000E+00
        10 -8.667188E-01  7.075255E-09  0.000000E+00
        11 -1.733437E+00  7.075255E-09  0.000000E+00
        12 -1.733438E+00  7.075255E-09  0.000000E+00
        13  0.000000E+00  0.000000E+00  9.905357E-09
        14 -2.358418E-08  0.000000E+00  9.905357E-09
        15 -8.667187E-01  0.000000E+00  9.905357E-09
        16 -8.667188E-01  0.000000E+00  9.905357E-09
        17 -1.733437E+00  0.000000E+00  9.905357E-09
        18 -1.733438E+00  0.000000E+00  9.905357E-09
        19  0.000000E+00  7.075255E-09  9.905357E-09
        20 -2.358418E-08  7.075255E-09  9.905357E-09
        21 -8.667187E-01  7.075255E-09  9.905357E-09
        22 -8.667188E-01  7.075255E-09  9.905357E-09
        23 -1.733437E+00  7.075255E-09  9.905357E-09
        24 -1.733438E+00  7.075255E-09  9.905357E-09

 stresses (elem, integ.pnt.,sxx,syy,szz,sxy,sxz,syz) for set EALL and time  0.5778125E-01

         1   1 -9.905357E-06  8.470329E-22 -1.185849E-49 -2.120458E-22 -2.283570E-22 -3.262243E-23
         1   2 -9.905357E-06  8.470329E-22  8.470329E-22 -7.992496E-22 -9.623618E-22 -6.116706E-23
         1   3 -9.905357E-06  8.470329E-22  8.470329E-22 -2.609795E-22  3.262243E-23 -2.283570E-22
         1   4 -9.905357E-06  8.470329E-22  8.470329E-22 -8.481832E-22  4.893365E-22 -2.691351E-22
         1   5 -9.905357E-06 -8.470329E-22 -1.694066E-21  6.524487E-23 -1.794234E-22  1.957346E-22
         1   6 -9.905357E-06 -1.694066E-21 -1.694066E-21  4.567141E-22 -9.134281E-22  1.427231E-22
         1   7 -9.905357E-06 -8.470329E-22 -8.470329E-22 -1.304897E-22 -6.524487E-23  1.304897E-22
         1   8 -9.905357E-06 -1.694066E-21 -8.470329E-22  2.609795E-22  1.304897E-22 -6.524487E-23
         2   1 -9.905357E-06 -1.773731E-14 -1.514969E-14  9.564935E-17 -7.451326E-16 -2.968454E-17
         2   2 -9.905357E-06 -1.900384E-14 -1.984706E-14  6.663413E-15 -6.218269E-15  2.237348E-16
         2   3 -9.905357E-06 -2.485600E-14 -2.300296E-14  3.569682E-16 -2.681326E-14  4.034185E-16
         2   4 -9.905357E-06 -2.552854E-14 -2.631433E-14  3.640850E-15  6.025554E-15  7.947941E-16
         2   5 -9.905357E-06  1.722371E-14  1.859865E-14  1.663430E-16 -2.780873E-15 -5.438872E-16
         2   6 -9.905357E-06  1.663317E-14  1.419098E-14 -3.048322E-14 -1.865297E-14  2.639301E-16
         2   7 -9.905357E-06  1.010502E-14  1.074538E-14  6.208006E-16 -1.078057E-14 -1.107841E-16
         2   8 -9.905357E-06  1.010847E-14  7.723709E-15 -2.565025E-14 -1.078057E-14  8.349893E-16
         3   1 -9.905357E-06  1.807983E-15 -9.838573E-15 -2.294827E-15 -3.653795E-14  5.028275E-16
         3   2 -9.905357E-06 -1.173853E-14  3.501245E-16 -2.294827E-15 -4.748423E-14 -1.107982E-16
         3   3 -9.905357E-06  6.005701E-15 -4.389748E-17 -8.564410E-15  1.835965E-16 -2.041293E-15
         3   4 -9.905357E-06 -1.540042E-14 -8.194284E-15  2.427441E-14  1.835965E-16  3.004259E-15
         3   5 -9.905357E-06 -2.379373E-14 -2.831675E-14  6.051369E-16  1.946287E-14  4.420698E-15
         3   6 -9.905357E-06 -9.610273E-15 -6.243783E-15 -3.442293E-14 -1.335046E-15 -3.528562E-15
         3   7 -9.905357E-06 -1.959601E-14 -1.852208E-14  2.258402E-15  6.851915E-16  1.876578E-15
         3   8 -9.905357E-06 -1.327216E-14 -1.478819E-14 -1.525563E-14 -8.071826E-15 -4.135048E-16

 strains (elem, integ.pnt.,exx,eyy,ezz,exy,exz,eyz) forset EALL and time  0.5778125E-01

         1   1 -4.716837E-11  1.415051E-11  1.415051E-11 -1.312665E-27 -1.413639E-27 -2.019484E-28
         1   2 -4.716837E-11  1.415051E-11  1.415051E-11 -4.947736E-27 -5.957478E-27 -3.786532E-28
         1   3 -4.716837E-11  1.415051E-11  1.415051E-11 -1.615587E-27  2.019484E-28 -1.413639E-27
         1   4 -4.716837E-11  1.415051E-11  1.415051E-11 -5.250658E-27  3.029226E-27 -1.666074E-27
         1   5 -4.716837E-11  1.415051E-11  1.415051E-11  4.038968E-28 -1.110716E-27  1.211690E-27
         1   6 -4.716837E-11  1.415051E-11  1.415051E-11  2.827277E-27 -5.654555E-27  8.835242E-28
         1   7 -4.716837E-11  1.415051E-11  1.415051E-11 -8.077936E-28 -4.038968E-28  8.077936E-28
         1   8 -4.716837E-11  1.415051E-11  1.415051E-11  1.615587E-27  8.077936E-28 -4.038968E-28
         2   1 -4.716837E-11  1.415051E-11  1.415051E-11  5.921150E-22 -4.612726E-21 -1.837614E-22
         2   2 -4.716837E-11  1.415051E-11  1.415051E-11  4.124970E-20 -3.849404E-20  1.385025E-21
         2   3 -4.716837E-11  1.415051E-11  1.415051E-11  2.209803E-21 -1.659869E-19  2.497353E-21
         2   4 -4.716837E-11  1.415051E-11  1.415051E-11  2.253859E-20  3.730105E-20  4.920154E-21
         2   5 -4.716837E-11  1.415051E-11  1.415051E-11  1.029743E-21 -1.721493E-20 -3.366921E-21
         2   6 -4.716837E-11  1.415051E-11  1.415051E-11 -1.887056E-19 -1.154707E-19  1.633853E-21
         2   7 -4.716837E-11  1.415051E-11  1.415051E-11  3.843051E-21 -6.673685E-20 -6.858066E-22
         2   8 -4.716837E-11  1.415051E-11  1.415051E-11 -1.587873E-19 -6.673685E-20  5.168982E-21
         3   1 -4.716837E-11  1.415051E-11  1.415051E-11 -1.420607E-20 -2.261873E-19  3.112742E-21
         3   2 -4.716837E-11  1.415051E-11  1.415051E-11 -1.420607E-20 -2.939500E-19 -6.858938E-22
         3   3 -4.716837E-11  1.415051E-11  1.415051E-11 -5.301777E-20  1.136550E-21 -1.263657E-20
         3   4 -4.716837E-11  1.415051E-11  1.415051E-11  1.502701E-19  1.136550E-21  1.859779E-20
         3   5 -4.716837E-11  1.415051E-11  1.415051E-11  3.746085E-21  1.204844E-19  2.736623E-20
         3   6 -4.716837E-11  1.415051E-11  1.415051E-11 -2.130943E-19 -8.264568E-21 -2.184348E-20
         3   7 -4.716837E-11  1.415051E-11  1.415051E-11  1.398058E-20  4.241662E-21  1.161691E-20
         3   8 -4.716837E-11  1.415051E-11  1.415051E-11 -9.443964E-20 -4.996845E-20 -2.559791E-21

 displacements (vx,vy,vz) for set NALL and time  0.6678125E-01

         1  0.000000E+00  0.000000E+00  0.000000E+00
         2 -2.725765E-08  0.000000E+00  0.000000E+00
         3 -1.001719E+00  0.000000E+00  0.000000E+00
         4 -1.001719E+00  0.000000E+00  0.000000E+00
         5 -2.003437E+00  0.000000E+00  0.000000E+00
         6 -2.003437E+00  0.000000E+00  0.000000E+00
         7  0.000000E+00  8.177296E-09  0.000000E+00
         8 -2.725765E-08  8.177296E-09  0.000000E+00
         9 -1.001719E+00  8.177296E-09  0.000000E+00
        10 -1.001719E+00  8.177296E-09  0.000000E+00
        11 -2.003437E+00  8.177296E-09  0.000000E+00
        12 -2.003437E+00  8.177296E-09  0.000000E+00
        13  0.000000E+00  0.000000E+00  1.144821E-08
        14 -2.725765E-08  0.000000E+00  1.144821E-08
        15 -1.001719E+00  0.000000E+00  1.144821E-08
        16 -1.001719E+00  0.000000E+00  1.144821E-08
        17 -2.003437E+00  0.000000E+00  1.144821E-08
        18 -2.003437E+00  0.000000E+00  1.144821E-08
        19  0.000000E+00  8.177296E-09  1.144821E-08
        20 -2.725765E-08  8.177296E-09  1.144821E-08
        21 -1.001719E+00  8.177296E-09  1.144821E-08
        22 -1.001719E+00  8.177296E-09  1.144821E-08
        23 -2.003437E+00  8.177295E-09  1.144821E-08
        24 -2.003437E+00  8.177296E-09  1.144821E-08

 stresses (elem, integ.pnt.,sxx,syy,szz,sxy,sxz,syz) for set EALL and time  0.6678125E-01

         1   1 -1.144821E-05 -1.322551E-48 -8.470329E-22  3.180687E-22  1.631122E-23 -3.262243E-23
         1   2 -1.144821E-05 -1.694066E-21 -1.694066E-21  1.264119E-21  9.134281E-22 -2.202014E-22
         1   3 -1.144821E-05  1.694066E-21  8.470329E-22 -1.631122E-22  2.609795E-22 -1.304897E-22
         1   4 -1.144821E-05 -6.561696E-48 -1.409183E-47  7.829384E-22  2.348815E-21 -5.382701E-22
         1   5 -1.144821E-05  8.470329E-22  6.719809E-48  5.872038E-22 -4.404028E-22  9.786730E-23
         1   6 -1.144821E-05 -1.694066E-21 -1.694066E-21  2.805529E-21  4.567141E-22 -3.343799E-22
         1   7 -1.144821E-05  5.082198E-21  3.388132E-21 -2.609795E-22 -3.262243E-22  6.524487E-23
         1   8 -1.144821E-05 -4.954212E-47 -3.520653E-47  1.957346E-21  1.696366E-21 -6.524487E-22
         2   1 -1.144821E-05  9.010946E-15  6.353383E-15  8.450119E-15  8.834543E-15  4.052081E-16
         2   2 -1.144821E-05  6.303263E-15  5.625198E-15  1.882356E-15  9.929170E-15 -4.423149E-16
         2   3 -1.144821E-05  4.316988E-17  7.533536E-16  7.611657E-15  1.641870E-14 -8.451653E-16
         2   4 -1.144821E-05 -6.097705E-15 -7.985611E-15  6.517030E-15 -2.517713E-14 -8.038520E-16
         2   5 -1.144821E-05 -2.174500E-14 -2.090151E-14  1.485730E-16  9.046345E-15  2.762631E-15
         2   6 -1.144821E-05 -2.009738E-14 -1.976314E-14  8.905591E-15  1.780336E-14 -1.289204E-15
         2   7 -1.144821E-05 -3.235471E-14 -2.814348E-14  1.806852E-14  1.342619E-14  1.512257E-15
         2   8 -1.144821E-05 -3.414029E-14 -3.501589E-14  1.369001E-14 -2.816964E-14 -1.650741E-15
         3   1 -1.144821E-05 -9.099965E-15 -1.945823E-14 -2.631841E-15  4.838906E-15  1.214153E-16
         3   2 -1.144821E-05 -3.291842E-14 -2.709914E-14 -4.425862E-16 -1.048587E-14  6.451198E-16
         3   3 -1.144821E-05  1.513835E-14  1.520529E-14 -9.822163E-15  3.143958E-14 -6.844517E-15
         3   4 -1.144821E-05 -2.053199E-14 -2.009003E-14  1.644889E-14  4.019660E-14  6.171736E-15
         3   5 -1.144821E-05 -6.622020E-14 -5.707386E-14 -6.628635E-14 -1.579581E-14  7.419060E-15
         3   6 -1.144821E-05 -2.882517E-14 -3.848042E-14 -3.125828E-14  1.266450E-14 -3.118996E-15
         3   7 -1.144821E-05 -4.526577E-14 -2.569422E-14 -5.598711E-14 -1.339242E-14  4.531281E-16
         3   8 -1.144821E-05 -1.972263E-14 -3.475518E-14 -3.445004E-15  2.163565E-14  2.407620E-15

 strains (elem, integ.pnt.,exx,eyy,ezz,exy,exz,eyz) forset EALL and time  0.6678125E-01

         1   1 -5.451530E-11  1.635459E-11  1.635459E-11  1.968997E-27  1.009742E-28 -2.019484E-28
         1   2 -5.451530E-11  1.635459E-11  1.635459E-11  7.825500E-27  5.654555E-27 -1.363152E-27
         1   3 -5.451530E-11  1.635459E-11  1.635459E-11 -1.009742E-27  1.615587E-27 -8.077936E-28
         1   4 -5.451530E-11  1.635459E-11  1.635459E-11  4.846761E-27  1.454028E-26 -3.332148E-27
         1   5 -5.451530E-11  1.635459E-11  1.635459E-11  3.635071E-27 -2.726303E-27  6.058452E-28
         1   6 -5.451530E-11  1.635459E-11  1.635459E-11  1.736756E-26  2.827277E-27 -2.069971E-27
         1   7 -5.451530E-11  1.635459E-11  1.635459E-11 -1.615587E-27 -2.019484E-27  4.038968E-28
         1   8 -5.451530E-11  1.635459E-11  1.635459E-11  1.211690E-26  1.050132E-26 -4.038968E-27
         2   1 -5.451530E-11  1.635459E-11  1.635459E-11  5.231026E-20  5.469003E-20  2.508431E-21
         2   2 -5.451530E-11  1.635459E-11  1.635459E-11  1.165268E-20  6.146629E-20 -2.738140E-21
         2   3 -5.451530E-11  1.635459E-11  1.635459E-11  4.711978E-20  1.016396E-19 -5.231976E-21
         2   4 -5.451530E-11  1.635459E-11  1.635459E-11  4.034352E-20 -1.558584E-19 -4.976226E-21
         2   5 -5.451530E-11  1.635459E-11  1.635459E-11  9.197378E-22  5.600119E-20  1.710200E-20
         2   6 -5.451530E-11  1.635459E-11  1.635459E-11  5.512985E-20  1.102113E-19 -7.980788E-21
         2   7 -5.451530E-11  1.635459E-11  1.635459E-11  1.118527E-19  8.311452E-20  9.361592E-21
         2   8 -5.451530E-11  1.635459E-11  1.635459E-11  8.474767E-20 -1.743835E-19 -1.021887E-20
         3   1 -5.451530E-11  1.635459E-11  1.635459E-11 -1.629235E-20  2.995513E-20  7.516188E-22
         3   2 -5.451530E-11  1.635459E-11  1.635459E-11 -2.739820E-21 -6.491256E-20  3.993599E-21
         3   3 -5.451530E-11  1.635459E-11  1.635459E-11 -6.080387E-20  1.946260E-19 -4.237082E-20
         3   4 -5.451530E-11  1.635459E-11  1.635459E-11  1.018265E-19  2.488361E-19  3.820598E-20
         3   5 -5.451530E-11  1.635459E-11  1.635459E-11 -4.103441E-19 -9.778358E-20  4.592752E-20
         3   6 -5.451530E-11  1.635459E-11  1.635459E-11 -1.935037E-19  7.839927E-20 -1.930807E-20
         3   7 -5.451530E-11  1.635459E-11  1.635459E-11 -3.465869E-19 -8.290546E-20  2.805079E-21
         3   8 -5.451530E-11  1.635459E-11  1.635459E-11 -2.132622E-20  1.339350E-19  1.490431E-20

 displacements (vx,vy,vz) for set NALL and time  0.7578125E-01

         1  0.000000E+00  0.000000E+00  0.000000E+00
         2 -3.093112E-08  0.000000E+00  0.000000E+00
         3 -1.136719E+00  0.000000E+00  0.000000E+00
         4 -1.136719E+00  0.000000E+00  0.000000E+00
         5 -2.273437E+00  0.000000E+00  0.000000E+00
         6 -2.273438E+00  0.000000E+00  0.000000E+00
         7  0.000000E+00  9.279336E-09  0.000000E+00
         8 -3.093112E-08  9.279336E-09  0.000000E+00
         9 -1.136719E+00  9.279336E-09  0.000000E+00
        10 -1.136719E+00  9.279336E-09  0.000000E+00
        11 -2.273437E+00  9.279336E-09  0.000000E+00
        12 -2.273438E+00  9.279336E-09  0.000000E+00
        13  0.000000E+00  0.000000E+00  1.299107E-08
        14 -3.093112E-08  0.000000E+00  1.299107E-08
        15 -1.136719E+00  0.000000E+00  1.299107E-08
        16 -1.136719E+00  0.000000E+00  1.299107E-08
        17 -2.273437E+00  0.000000E+00  1.299107E-08
        18 -2.273438E+00  0.000000E+00  1.299107E-08
        19  0.000000E+00  9.279336E-09  1.299107E-08
        20 -3.093112E-08  9.279336E-09  1.299107E-08
        21 -1.136719E+00  9.279336E-09  1.299107E-08
        22 -1.136719E+00  9.279336E-09  1.299107E-08
        23 -2.273437E+00  9.279336E-09  1.299107E-08
        24 -2.273438E+00  9.279336E-09  1.299107E-08

 stresses (elem, integ.pnt.,sxx,syy,szz,sxy,sxz,syz) for set EALL and time  0.7578125E-01

         1   1 -1.299107E-05  8.470329E-22  8.470329E-22 -1.468009E-22 -6.524487E-23  9.786730E-23
         1   2 -1.299107E-05  4.529283E-49 -2.974504E-48 -2.120458E-22 -9.134281E-22  8.155608E-24
         1   3 -1.299107E-05 -8.470329E-22 -8.470329E-22 -3.914692E-22  6.524487E-23  2.609795E-22
         1   4 -1.299107E-05 -8.470329E-22 -8.470329E-22 -4.567141E-22  8.481832E-22  2.772907E-22
         1   5 -1.299107E-05  8.470329E-22  8.470329E-22  1.957346E-22  3.262243E-22 -1.631122E-22
         1   6 -1.299107E-05 -3.186968E-48  1.818301E-48  9.786730E-22 -5.219589E-22 -5.301145E-22
         1   7 -1.299107E-05 -8.470329E-22 -8.470329E-22  2.098821E-32  2.609795E-22  1.304897E-22
         1   8 -1.299107E-05 -8.470329E-22 -8.470329E-22  7.829384E-22  5.219589E-22 -2.609795E-22
         2   1 -1.299107E-05 -1.185948E-14 -1.436343E-14 -4.256511E-15 -1.588620E-14  6.956846E-16
         2   2 -1.299107E-05 -5.927907E-15 -2.745134E-15  1.219981E-16 -1.917008E-14 -5.198666E-16
         2   3 -1.299107E-05 -2.187796E-14 -2.241511E-14 -3.923206E-15  6.188804E-16  1.219569E-15
         2   4 -1.299107E-05 -1.889981E-14 -1.768812E-14  5.928439E-15  6.188804E-16 -5.604082E-16
         2   5 -1.299107E-05 -7.650501E-15 -1.162133E-14 -1.672340E-16 -1.143886E-14  2.072446E-15
         2   6 -1.299107E-05 -4.484621E-15 -1.188330E-15 -1.672340E-16  2.139995E-14 -1.899627E-15
         2   7 -1.299107E-05 -1.931093E-14 -2.131495E-14 -6.241259E-16  1.982373E-14  2.596330E-15
         2   8 -1.299107E-05 -1.909846E-14 -1.777326E-14  3.754383E-15 -6.447324E-15 -1.940169E-15
         3   1 -1.299107E-05  4.206718E-15 -1.815595E-15 -2.324506E-15  1.738835E-14 -1.286578E-15
         3   2 -1.299107E-05 -1.838851E-14 -1.220001E-14  3.270356E-14 -1.326121E-14  1.506487E-15
         3   3 -1.299107E-05  3.120781E-14  2.615887E-14 -8.675175E-15 -3.553570E-14 -5.482940E-15
         3   4 -1.299107E-05  7.494535E-15  1.316569E-14  1.540662E-14 -9.264647E-15  5.984424E-15
         3   5 -1.299107E-05 -3.219928E-15  2.507571E-15 -3.290756E-14  1.704499E-14 -6.052117E-16
         3   6 -1.299107E-05  1.668891E-14  1.033918E-14 -6.636504E-15 -2.658300E-15  1.144348E-15
         3   7 -1.299107E-05 -2.489892E-15  4.210986E-15 -2.711421E-14 -1.894499E-15 -4.801574E-15
         3   8 -1.299107E-05  1.630090E-14  9.433837E-15 -1.835719E-14 -1.894499E-15  5.622285E-15

 strains (elem, integ.pnt.,exx,eyy,ezz,exy,exz,eyz) forset EALL and time  0.7578125E-01

         1   1 -6.186224E-11  1.855867E-11  1.855867E-11 -9.087678E-28 -4.038968E-28  6.058452E-28
         1   2 -6.186224E-11  1.855867E-11  1.855867E-11 -1.312665E-27 -5.654555E-27  5.048710E-29
         1   3 -6.186224E-11  1.855867E-11  1.855867E-11 -2.423381E-27  4.038968E-28  1.615587E-27
         1   4 -6.186224E-11  1.855867E-11  1.855867E-11 -2.827277E-27  5.250658E-27  1.716561E-27
         1   5 -6.186224E-11  1.855867E-11  1.855867E-11  1.211690E-27  2.019484E-27 -1.009742E-27
         1   6 -6.186224E-11  1.855867E-11  1.855867E-11  6.058452E-27 -3.231174E-27 -3.281661E-27
         1   7 -6.186224E-11  1.855867E-11  1.855867E-11 -1.299270E-37  1.615587E-27  8.077936E-28
         1   8 -6.186224E-11  1.855867E-11  1.855867E-11  4.846761E-27  3.231174E-27 -1.615587E-27
         2   1 -6.186224E-11  1.855867E-11  1.855867E-11 -2.634983E-20 -9.834313E-20  4.306619E-21
         2   2 -6.186224E-11  1.855867E-11  1.855867E-11  7.552264E-22 -1.186719E-19 -3.218222E-21
         2   3 -6.186224E-11  1.855867E-11  1.855867E-11 -2.428651E-20  3.831164E-21  7.549714E-21
         2   4 -6.186224E-11  1.855867E-11  1.855867E-11  3.669986E-20  3.831164E-21 -3.469194E-21
         2   5 -6.186224E-11  1.855867E-11  1.855867E-11 -1.035258E-21 -7.081201E-20  1.282943E-20
         2   6 -6.186224E-11  1.855867E-11  1.855867E-11 -1.035258E-21  1.324759E-19 -1.175960E-20
         2   7 -6.186224E-11  1.855867E-11  1.855867E-11 -3.863636E-21  1.227183E-19  1.607252E-20
         2   8 -6.186224E-11  1.855867E-11  1.855867E-11  2.324142E-20 -3.991201E-20 -1.201057E-20
         3   1 -6.186224E-11  1.855867E-11  1.855867E-11 -1.438980E-20  1.076422E-19 -7.964530E-21
         3   2 -6.186224E-11  1.855867E-11  1.855867E-11  2.024506E-19 -8.209318E-20  9.325871E-21
         3   3 -6.186224E-11  1.855867E-11  1.855867E-11 -5.370346E-20 -2.199829E-19 -3.394201E-20
         3   4 -6.186224E-11  1.855867E-11  1.855867E-11  9.537433E-20 -5.735258E-20  3.704643E-20
         3   5 -6.186224E-11  1.855867E-11  1.855867E-11 -2.037134E-19  1.055166E-19 -3.746549E-21
         3   6 -6.186224E-11  1.855867E-11  1.855867E-11 -4.108312E-20 -1.645614E-20  7.084060E-21
         3   7 -6.186224E-11  1.855867E-11  1.855867E-11 -1.678498E-19 -1.172785E-20 -2.972403E-20
         3   8 -6.186224E-11  1.855867E-11  1.855867E-11 -1.136397E-19 -1.172785E-20  3.480462E-20

 displacements (vx,vy,vz) for set NALL and time  0.8478125E-01

         1  0.000000E+00  0.000000E+00  0.000000E+00
         2 -3.460459E-08  0.000000E+00  0.000000E+00
         3 -1.271719E+00  0.000000E+00  0.000000E+00
         4 -1.271719E+00  0.000000E+00  0.000000E+00
         5 -2.543437E+00  0.000000E+00  0.000000E+00
         6 -2.543437E+00  0.000000E+00  0.000000E+00
         7  0.000000E+00  1.038138E-08  0.000000E+00
         8 -3.460459E-08  1.038138E-08  0.000000E+00
         9 -1.271719E+00  1.038138E-08  0.000000E+00
        10 -1.271719E+00  1.038138E-08  0.000000E+00
        11 -2.543437E+00  1.038138E-08  0.000000E+00
        12 -2.543437E+00  1.038138E-08  0.000000E+00
        13  0.000000E+00  0.000000E+00  1.453393E-08
        14 -3.460459E-08  0.000000E+00  1.453393E-08
        15 -1.271719E+00  0.000000E+00  1.453393E-08
        16 -1.271719E+00  0.000000E+00  1.453393E-08
        17 -2.543437E+00  0.000000E+00  1.453393E-08
        18 -2.543437E+00  0.000000E+00  1.453393E-08
        19  0.000000E+00  1.038138E-08  1.453393E-08
        20 -3.460459E-08  1.038138E-08  1.453393E-08
        21 -1.271719E+00  1.038138E-08  1.453393E-08
        22 -1.271719E+00  1.038138E-08  1.453393E-08
        23 -2.543437E+00  1.038138E-08  1.453393E-08
        24 -2.543437E+00  1.038138E-08  1.453393E-08

 stresses (elem, integ.pnt.,sxx,syy,szz,sxy,sxz,syz) for set EALL and time  0.8478125E-01

         1   1 -1.453393E-05  1.694066E-21  1.694066E-21 -3.914692E-22 -4.893365E-23 -3.262243E-23
         1   2 -1.453393E-05  8.470329E-22 -8.470329E-22 -1.565877E-21  5.382701E-22 -3.017575E-22
         1   3 -1.453393E-05  5.059621E-48 -5.059621E-48 -3.914692E-22  3.914692E-22 -3.914692E-22
         1   4 -1.453393E-05 -8.470329E-22 -2.541099E-21 -1.565877E-21  2.218325E-21 -1.027607E-21
         1   5 -1.453393E-05 -2.898741E-48  8.470329E-22  1.631122E-22 -7.176935E-22  6.198262E-22
         1   6 -1.453393E-05 -2.541099E-21 -2.541099E-21  1.468009E-21 -1.304897E-22 -3.180687E-22
         1   7 -1.453393E-05  1.694066E-21  2.541099E-21 -2.609795E-22 -7.829384E-22  2.609795E-22
         1   8 -1.453393E-05  1.180578E-47 -3.879043E-47  1.043918E-21  1.043918E-21 -1.043918E-21
         2   1 -1.453393E-05 -4.471672E-15 -1.217783E-14  3.333148E-15  1.465839E-14  7.203867E-16
         2   2 -1.453393E-05 -1.000986E-14 -6.060415E-15 -1.045361E-15  2.617495E-15 -7.265852E-17
         2   3 -1.453393E-05 -7.126243E-15 -9.614812E-15  4.771696E-16  1.744249E-14 -9.637932E-16
         2   4 -1.453393E-05 -1.733160E-14 -1.438745E-14 -2.806712E-15  8.685470E-15  4.325448E-16
         2   5 -1.453393E-05 -6.156389E-15 -9.146843E-15 -3.495151E-14  1.881895E-14  4.372700E-15
         2   6 -1.453393E-05 -9.666018E-16  1.568275E-15  7.655702E-17  3.494166E-15 -7.763688E-16
         2   7 -1.453393E-05 -8.810959E-15 -6.583824E-15 -3.474236E-14 -1.778105E-14  2.688520E-15
         2   8 -1.453393E-05 -8.288340E-15 -6.758764E-15  4.664224E-15 -4.645527E-15 -2.711654E-16
         3   1 -1.453393E-05  4.148094E-14  1.598816E-14  1.352539E-14  4.955443E-14  1.558671E-15
         3   2 -1.453393E-05  2.022881E-14  3.904772E-14 -1.055641E-14 -2.987678E-15 -1.314810E-15
         3   3 -1.453393E-05  3.147110E-14  2.328143E-14  2.628213E-15  3.324754E-14 -6.295138E-15
         3   4 -1.453393E-05 -1.188100E-14 -5.225603E-15  3.984554E-14  6.976484E-15  3.607525E-15
         3   5 -1.453393E-05 -6.854369E-15 -1.035648E-14  2.558306E-15 -4.739584E-15  1.367085E-14
         3   6 -1.453393E-05  3.449660E-14  3.953298E-14  2.558306E-15 -2.006436E-14 -9.829270E-15
         3   7 -1.453393E-05 -2.014809E-14 -6.347090E-15  9.547728E-15  2.838303E-14  5.817038E-15
         3   8 -1.453393E-05 -8.970867E-16 -8.024227E-15  7.907100E-16  1.962601E-14 -4.906936E-15

 strains (elem, integ.pnt.,exx,eyy,ezz,exy,exz,eyz) forset EALL and time  0.8478125E-01

         1   1 -6.920918E-11  2.076275E-11  2.076275E-11 -2.423381E-27 -3.029226E-28 -2.019484E-28
         1   2 -6.920918E-11  2.076275E-11  2.076275E-11 -9.693523E-27  3.332148E-27 -1.868023E-27
         1   3 -6.920918E-11  2.076275E-11  2.076275E-11 -2.423381E-27  2.423381E-27 -2.423381E-27
         1   4 -6.920918E-11  2.076275E-11  2.076275E-11 -9.693523E-27  1.373249E-26 -6.361374E-27
         1   5 -6.920918E-11  2.076275E-11  2.076275E-11  1.009742E-27 -4.442865E-27  3.837019E-27
         1   6 -6.920918E-11  2.076275E-11  2.076275E-11  9.087678E-27 -8.077936E-28 -1.968997E-27
         1   7 -6.920918E-11  2.076275E-11  2.076275E-11 -1.615587E-27 -4.846761E-27  1.615587E-27
         1   8 -6.920918E-11  2.076275E-11  2.076275E-11  6.462349E-27  6.462349E-27 -6.462349E-27
         2   1 -6.920918E-11  2.076275E-11  2.076275E-11  2.063377E-20  9.074244E-20  4.459537E-21
         2   2 -6.920918E-11  2.076275E-11  2.076275E-11 -6.471280E-21  1.620354E-20 -4.497909E-22
         2   3 -6.920918E-11  2.076275E-11  2.076275E-11  2.953907E-21  1.079773E-19 -5.966339E-21
         2   4 -6.920918E-11  2.076275E-11  2.076275E-11 -1.737488E-20  5.376720E-20  2.677658E-21
         2   5 -6.920918E-11  2.076275E-11  2.076275E-11 -2.163665E-19  1.164982E-19  2.706909E-20
         2   6 -6.920918E-11  2.076275E-11  2.076275E-11  4.739244E-22  2.163055E-20 -4.806093E-21
         2   7 -6.920918E-11  2.076275E-11  2.076275E-11 -2.150717E-19 -1.100732E-19  1.664322E-20
         2   8 -6.920918E-11  2.076275E-11  2.076275E-11  2.887377E-20 -2.875802E-20 -1.678643E-21
         3   1 -6.920918E-11  2.076275E-11  2.076275E-11  8.372861E-20  3.067655E-19  9.648914E-21
         3   2 -6.920918E-11  2.076275E-11  2.076275E-11 -6.534919E-20 -1.849515E-20 -8.139297E-21
         3   3 -6.920918E-11  2.076275E-11  2.076275E-11  1.626989E-20  2.058181E-19 -3.896990E-20
         3   4 -6.920918E-11  2.076275E-11  2.076275E-11  2.466628E-19  4.318776E-20  2.233230E-20
         3   5 -6.920918E-11  2.076275E-11  2.076275E-11  1.583713E-20 -2.934028E-20  8.462905E-20
         3   6 -6.920918E-11  2.076275E-11  2.076275E-11  1.583713E-20 -1.242080E-19 -6.084786E-20
         3   7 -6.920918E-11  2.076275E-11  2.076275E-11  5.910498E-20  1.757045E-19  3.601024E-20
         3   8 -6.920918E-11  2.076275E-11  2.076275E-11  4.894871E-21  1.214944E-19 -3.037627E-20

 displacements (vx,vy,vz) for set NALL and time  0.9378125E-01

         1  0.000000E+00  0.000000E+00  0.000000E+00
         2 -3.827806E-08  0.000000E+00  0.000000E+00
         3 -1.406719E+00  0.000000E+00  0.000000E+00
         4 -1.406719E+00  0.000000E+00  0.000000E+00
         5 -2.813437E+00  0.000000E+00  0.000000E+00
         6 -2.813437E+00  0.000000E+00  0.000000E+00
         7  0.000000E+00  1.148342E-08  0.000000E+00
         8 -3.827806E-08  1.148342E-08  0.000000E+00
         9 -1.406719E+00  1.148342E-08  0.000000E+00
        10 -1.406719E+00  1.148342E-08  0.000000E+00
        11 -2.813437E+00  1.148342E-08  0.000000E+00
        12 -2.813437E+00  1.148342E-08  0.000000E+00
        13  0.000000E+00  0.000000E+00  1.607679E-08
        14 -3.827806E-08  0.000000E+00  1.607679E-08
        15 -1.406719E+00  0.000000E+00  1.607679E-08
        16 -1.406719E+00  0.000000E+00  1.607679E-08
        17 -2.813437E+00  0.000000E+00  1.607679E-08
        18 -2.813437E+00  0.000000E+00  1.607679E-08
        19  0.000000E+00  1.148342E-08  1.607679E-08
        20 -3.827806E-08  1.148342E-08  1.607679E-08
        21 -1.406719E+00  1.148342E-08  1.607679E-08
        22 -1.406719E+00  1.148342E-08  1.607679E-08
        23 -2.813437E+00  1.148342E-08  1.607679E-08
        24 -2.813437E+00  1.148342E-08  1.607679E-08

 stresses (elem, integ.pnt.,sxx,syy,szz,sxy,sxz,syz) for set EALL and time  0.9378125E-01

         1   1 -1.607679E-05 -8.470329E-22 -8.470329E-22 -1.304897E-22 -4.730253E-22  1.631122E-22
         1   2 -1.607679E-05  8.470329E-22  1.694066E-21 -6.524487E-22 -1.582188E-21 -1.712678E-22
         1   3 -1.607679E-05  4.321759E-48  7.378614E-49 -6.524487E-23  1.298672E-32  4.567141E-22
         1   4 -1.607679E-05  1.694066E-21  1.694066E-21 -5.872038E-22  3.914692E-22 -2.772907E-22
         1   5 -1.607679E-05 -8.470329E-22 -2.541099E-21  3.914692E-22 -1.304897E-22  9.786730E-23
         1   6 -1.607679E-05 -2.541099E-21 -1.694066E-21  2.870774E-21 -1.239652E-21 -4.811809E-22
         1   7 -1.607679E-05  2.541099E-21  8.470329E-22 -1.304897E-22 -6.324526E-49  3.914692E-22
         1   8 -1.607679E-05 -4.363923E-47  6.640752E-48  2.348815E-21  5.219589E-22 -5.872038E-22
         2   1 -1.607679E-05 -1.137063E-14 -1.965008E-14  7.705314E-15 -1.847442E-14 -3.107726E-16
         2   2 -1.607679E-05 -1.142167E-14 -6.137889E-16  3.397637E-14  1.983754E-14  1.016938E-15
         2   3 -1.607679E-05  2.122773E-14  1.262767E-14  4.832006E-15  3.612294E-15 -9.353933E-16
         2   4 -1.607678E-05  2.174505E-14  3.299013E-14  4.204933E-14  1.236931E-14  3.489221E-15
         2   5 -1.607678E-05  3.154307E-14  2.501256E-14  5.352599E-16 -9.135915E-15 -5.351980E-16
         2   6 -1.607678E-05  4.666686E-14  5.055235E-14  4.913769E-15  2.589216E-14  1.322982E-15
         2   7 -1.607679E-05 -1.536199E-15 -8.387321E-15  1.997617E-15  1.348126E-14 -1.159819E-15
         2   8 -1.607679E-05  1.415595E-14  1.847864E-14  1.075463E-14  9.102755E-15  3.795265E-15
         3   1 -1.607679E-05 -1.202613E-14  5.898755E-15 -8.873752E-14 -6.357969E-14  1.853875E-15
         3   2 -1.607679E-05  5.387198E-14  2.142525E-14 -9.924365E-15  3.931527E-14 -1.133782E-16
         3   3 -1.607678E-05  7.445094E-15  3.381758E-14 -6.800216E-14  3.208517E-14  1.005434E-15
         3   4 -1.607678E-05  7.140441E-14  4.482023E-14 -2.421707E-14  5.814115E-15 -4.526916E-15
         3   5 -1.607678E-05  2.322309E-14  4.352361E-14  4.079086E-14  2.458302E-16  7.767197E-15
         3   6 -1.607678E-05  7.165222E-14  5.156340E-14 -2.994230E-15 -3.478224E-14  3.990405E-15
         3   7 -1.607678E-05  3.287738E-15  3.203586E-14 -1.352105E-14 -1.098306E-14  6.918756E-15
         3   8 -1.607678E-05  4.977808E-14  3.555180E-14 -3.979211E-14 -1.974008E-14 -4.231328E-16

 strains (elem, integ.pnt.,exx,eyy,ezz,exy,exz,eyz) forset EALL and time  0.9378125E-01

         1   1 -7.655612E-11  2.296684E-11  2.296684E-11 -8.077936E-28 -2.928252E-27  1.009742E-27
         1   2 -7.655612E-11  2.296684E-11  2.296684E-11 -4.038968E-27 -9.794497E-27 -1.060229E-27
         1   3 -7.655612E-11  2.296684E-11  2.296684E-11 -4.038968E-28 -8.039400E-38  2.827277E-27
         1   4 -7.655612E-11  2.296684E-11  2.296684E-11 -3.635071E-27  2.423381E-27 -1.716561E-27
         1   5 -7.655612E-11  2.296684E-11  2.296684E-11  2.423381E-27 -8.077936E-28  6.058452E-28
         1   6 -7.655612E-11  2.296684E-11  2.296684E-11  1.777146E-26 -7.674039E-27 -2.978739E-27
         1   7 -7.655612E-11  2.296684E-11  2.296684E-11 -8.077936E-28 -2.349110E-53  2.423381E-27
         1   8 -7.655612E-11  2.296684E-11  2.296684E-11  1.454028E-26  3.231174E-27 -3.635071E-27
         2   1 -7.655612E-11  2.296684E-11  2.296684E-11  4.769956E-20 -1.143654E-19 -1.923830E-21
         2   2 -7.655612E-11  2.296684E-11  2.296684E-11  2.103299E-19  1.228038E-19  6.295332E-21
         2   3 -7.655612E-11  2.296684E-11  2.296684E-11  2.991242E-20  2.236182E-20 -5.790530E-21
         2   4 -7.655612E-11  2.296684E-11  2.296684E-11  2.603054E-19  7.657193E-20  2.159994E-20
         2   5 -7.655612E-11  2.296684E-11  2.296684E-11  3.313514E-21 -5.655566E-20 -3.313131E-21
         2   6 -7.655612E-11  2.296684E-11  2.296684E-11  3.041857E-20  1.602848E-19  8.189889E-21
         2   7 -7.655612E-11  2.296684E-11  2.296684E-11  1.236620E-20  8.345544E-20 -7.179829E-21
         2   8 -7.655612E-11  2.296684E-11  2.296684E-11  6.657631E-20  5.635039E-20  2.349450E-20
         3   1 -7.655612E-11  2.296684E-11  2.296684E-11 -5.493275E-19 -3.935885E-19  1.147637E-20
         3   2 -7.655612E-11  2.296684E-11  2.296684E-11 -6.143655E-20  2.433802E-19 -7.018650E-22
         3   3 -7.655612E-11  2.296684E-11  2.296684E-11 -4.209657E-19  1.986225E-19  6.224118E-21
         3   4 -7.655612E-11  2.296684E-11  2.296684E-11 -1.499152E-19  3.599214E-20 -2.802376E-20
         3   5 -7.655612E-11  2.296684E-11  2.296684E-11  2.525148E-19  1.521806E-21  4.808265E-20
         3   6 -7.655612E-11  2.296684E-11  2.296684E-11 -1.853571E-20 -2.153186E-19  2.470251E-20
         3   7 -7.655612E-11  2.296684E-11  2.296684E-11 -8.370176E-20 -6.799039E-20  4.283040E-20
         3   8 -7.655612E-11  2.296684E-11  2.296684E-11 -2.463321E-19 -1.222005E-19 -2.619393E-21

 displacements (vx,vy,vz) for set NALL and time  0.1027812E+00

         1  0.000000E+00  0.000000E+00  0.000000E+00
         2 -4.195153E-08  0.000000E+00  0.000000E+00
         3 -1.541719E+00  0.000000E+00  0.000000E+00
         4 -1.541719E+00  0.000000E+00  0.000000E+00
         5 -3.083437E+00  0.000000E+00  0.000000E+00
         6 -3.083437E+00  0.000000E+00  0.000000E+00
         7  0.000000E+00  1.258546E-08  0.000000E+00
         8 -4.195153E-08  1.258546E-08  0.000000E+00
         9 -1.541719E+00  1.258546E-08  0.000000E+00
        10 -1.541719E+00  1.258546E-08  0.000000E+00
        11 -3.083437E+00  1.258546E-08  0.000000E+00
        12 -3.083437E+00  1.258546E-08  0.000000E+00
        13  0.000000E+00  0.000000E+00  1.761964E-08
        14 -4.195153E-08  0.000000E+00  1.761964E-08
        15 -1.541719E+00  0.000000E+00  1.761964E-08
        16 -1.541719E+00  0.000000E+00  1.761964E-08
        17 -3.083437E+00  0.000000E+00  1.761964E-08
        18 -3.083437E+00  0.000000E+00  1.761964E-08
        19  0.000000E+00  1.258546E-08  1.761964E-08
        20 -4.195153E-08  1.258546E-08  1.761964E-08
        21 -1.541719E+00  1.258546E-08  1.761964E-08
        22 -1.541719E+00  1.258546E-08  1.761964E-08
        23 -3.083437E+00  1.258546E-08  1.761964E-08
        24 -3.083437E+00  1.258546E-08  1.761964E-08

 stresses (elem, integ.pnt.,sxx,syy,szz,sxy,sxz,syz) for set EALL and time  0.1027812E+00

         1   1 -1.761964E-05  4.282231E-49  2.042295E-49  1.631122E-23 -8.155608E-23 -9.786730E-23
         1   2 -1.761964E-05  8.470329E-22 -8.470329E-22 -3.099131E-22 -4.404028E-22 -2.691351E-22
         1   3 -1.761964E-05  5.902891E-48 -8.470329E-22 -7.116517E-33  4.567141E-22 -4.567141E-22
         1   4 -1.761964E-05  8.470329E-22 -8.470329E-22 -3.262243E-22  1.892101E-21 -9.623618E-22
         1   5 -1.761964E-05 -1.343962E-48  4.690690E-48  1.957346E-22 -3.588468E-22  9.786730E-23
         1   6 -1.761964E-05 -2.541099E-21 -8.470329E-22  1.892101E-21 -7.176935E-22 -2.528239E-22
         1   7 -1.761964E-05  2.541099E-21  2.541099E-21 -3.914692E-22  1.304897E-22 -1.304897E-22
         1   8 -1.761964E-05 -3.135911E-48  1.694066E-21  1.304897E-21  1.565877E-21 -9.460505E-22
         2   1 -1.761964E-05  7.896488E-15  1.605691E-14 -1.563648E-14  1.199988E-14 -3.954468E-16
         2   2 -1.761964E-05  2.252574E-14  1.599468E-14 -2.658275E-14 -3.324898E-15  4.052960E-16
         2   3 -1.761964E-05 -2.345385E-14 -2.206581E-14 -1.050691E-14  2.059210E-15  3.264837E-15
         2   4 -1.761964E-05  5.273746E-16 -3.067759E-16 -1.050691E-14 -1.983333E-14 -2.475254E-15
         2   5 -1.761964E-05  1.269635E-14  1.060798E-14  3.355387E-14  8.897246E-15 -5.136112E-15
         2   6 -1.761964E-05 -4.724480E-15 -3.190002E-15  7.282816E-15 -9.711416E-15  4.393136E-15
         2   7 -1.761964E-05 -5.518457E-15 -1.437921E-14  2.952627E-14 -9.828957E-15 -1.475828E-15
         2   8 -1.761964E-05 -1.358732E-14 -6.355929E-15  1.201224E-14 -9.828957E-15  1.512586E-15
         3   1 -1.761964E-05 -4.774814E-15 -2.297954E-14 -5.573832E-15  2.073351E-15  6.232844E-16
         3   2 -1.761964E-05 -5.200368E-14 -3.166027E-14 -5.573832E-15 -3.514397E-14  1.840211E-15
         3   3 -1.761964E-05 -1.136513E-14 -2.084291E-14 -2.080182E-14 -3.616573E-14 -3.782733E-15
         3   4 -1.761964E-05 -6.799326E-14 -5.145527E-14  6.238984E-14  5.140444E-14  9.531546E-15
         3   5 -1.761964E-05 -1.322877E-14 -1.909664E-14 -3.440279E-14 -7.107531E-14  6.732146E-15
         3   6 -1.761964E-05 -1.180604E-15 -2.372942E-15 -8.694489E-14  5.371219E-14 -8.235756E-16
         3   7 -1.761964E-05 -3.295461E-14 -3.009554E-14 -3.269449E-14 -3.927388E-14  2.326129E-15
         3   8 -1.761964E-05 -3.030571E-14 -3.530346E-14  5.487569E-14  3.078226E-14  6.867760E-15

 strains (elem, integ.pnt.,exx,eyy,ezz,exy,exz,eyz) forset EALL and time  0.1027812E+00

         1   1 -8.390306E-11  2.517092E-11  2.517092E-11  1.009742E-28 -5.048710E-28 -6.058452E-28
         1   2 -8.390306E-11  2.517092E-11  2.517092E-11 -1.918510E-27 -2.726303E-27 -1.666074E-27
         1   3 -8.390306E-11  2.517092E-11  2.517092E-11  4.405463E-38  2.827277E-27 -2.827277E-27
         1   4 -8.390306E-11  2.517092E-11  2.517092E-11 -2.019484E-27  1.171301E-26 -5.957478E-27
         1   5 -8.390306E-11  2.517092E-11  2.517092E-11  1.211690E-27 -2.221432E-27  6.058452E-28
         1   6 -8.390306E-11  2.517092E-11  2.517092E-11  1.171301E-26 -4.442865E-27 -1.565100E-27
         1   7 -8.390306E-11  2.517092E-11  2.517092E-11 -2.423381E-27  8.077936E-28 -8.077936E-28
         1   8 -8.390306E-11  2.517092E-11  2.517092E-11  8.077936E-27  9.693523E-27 -5.856503E-27
         2   1 -8.390306E-11  2.517092E-11  2.517092E-11 -9.679726E-20  7.428499E-20 -2.448004E-21
         2   2 -8.390306E-11  2.517092E-11  2.517092E-11 -1.645599E-19 -2.058270E-20  2.508975E-21
         2   3 -8.390306E-11  2.517092E-11  2.517092E-11 -6.504276E-20  1.274749E-20  2.021089E-20
         2   4 -8.390306E-11  2.517092E-11  2.517092E-11 -6.504276E-20 -1.227778E-19 -1.532300E-20
         2   5 -8.390306E-11  2.517092E-11  2.517092E-11  2.077144E-19  5.507819E-20 -3.179498E-20
         2   6 -8.390306E-11  2.517092E-11  2.517092E-11  4.508410E-20 -6.011829E-20  2.719560E-20
         2   7 -8.390306E-11  2.517092E-11  2.517092E-11  1.827817E-19 -6.084592E-20 -9.136080E-21
         2   8 -8.390306E-11  2.517092E-11  2.517092E-11  7.436148E-20 -6.084592E-20  9.363625E-21
         3   1 -8.390306E-11  2.517092E-11  2.517092E-11 -3.450467E-20  1.283503E-20  3.858427E-21
         3   2 -8.390306E-11  2.517092E-11  2.517092E-11 -3.450467E-20 -2.175579E-19  1.139178E-20
         3   3 -8.390306E-11  2.517092E-11  2.517092E-11 -1.287732E-19 -2.238831E-19 -2.341692E-20
         3   4 -8.390306E-11  2.517092E-11  2.517092E-11  3.862228E-19  3.182180E-19  5.900481E-20
         3   5 -8.390306E-11  2.517092E-11  2.517092E-11 -2.129696E-19 -4.399900E-19  4.167519E-20
         3   6 -8.390306E-11  2.517092E-11  2.517092E-11 -5.382303E-19  3.325041E-19 -5.098325E-21
         3   7 -8.390306E-11  2.517092E-11  2.517092E-11 -2.023944E-19 -2.431240E-19  1.439985E-20
         3   8 -8.390306E-11  2.517092E-11  2.517092E-11  3.397066E-19  1.905569E-19  4.251471E-20

 displacements (vx,vy,vz) for set NALL and time  0.1117812E+00

         1  0.000000E+00  0.000000E+00  0.000000E+00
         2 -4.562500E-08  0.000000E+00  0.000000E+00
         3 -1.676719E+00  0.000000E+00  0.000000E+00
         4 -1.676719E+00  0.000000E+00  0.000000E+00
         5 -3.353437E+00  0.000000E+00  0.000000E+00
         6 -3.353437E+00  0.000000E+00  0.000000E+00
         7  0.000000E+00  1.368750E-08  0.000000E+00
         8 -4.562500E-08  1.368750E-08  0.000000E+00
         9 -1.676719E+00  1.368750E-08  0.000000E+00
        10 -1.676719E+00  1.368750E-08  0.000000E+00
        11 -3.353437E+00  1.368750E-08  0.000000E+00
        12 -3.353437E+00  1.368750E-08  0.000000E+00
        13  0.000000E+00  0.000000E+00  1.916250E-08
        14 -4.562500E-08  0.000000E+00  1.916250E-08
        15 -1.676719E+00  0.000000E+00  1.916250E-08
        16 -1.676719E+00  0.000000E+00  1.916250E-08
        17 -3.353437E+00  0.000000E+00  1.916250E-08
        18 -3.353437E+00  0.000000E+00  1.916250E-08
        19  0.000000E+00  1.368750E-08  1.916250E-08
        20 -4.562500E-08  1.368750E-08  1.916250E-08
        21 -1.676719E+00  1.368750E-08  1.916250E-08
        22 -1.676719E+00  1.368750E-08  1.916250E-08
        23 -3.353437E+00  1.368750E-08  1.916250E-08
        24 -3.353437E+00  1.368750E-08  1.916250E-08

 stresses (elem, integ.pnt.,sxx,syy,szz,sxy,sxz,syz) for set EALL and time  0.1117812E+00

         1   1 -1.916250E-05  5.533960E-49  1.694066E-21 -1.631122E-22 -2.609795E-22  1.304897E-22
         1   2 -1.916250E-05  1.694066E-21  5.082198E-21 -1.337520E-21 -2.055213E-21  8.155608E-24
         1   3 -1.916250E-05 -1.694066E-21 -1.694066E-21 -2.609795E-22  1.304897E-22  5.219589E-22
         1   4 -1.916250E-05  4.901508E-48  1.694066E-21 -1.435387E-21 -3.914692E-22  8.155608E-23
         1   5 -1.916250E-05 -1.694066E-21  2.055471E-47 -1.304897E-22  6.198262E-22  3.914692E-22
         1   6 -1.916250E-05 -2.014296E-48  1.694066E-21  3.914692E-22 -1.174408E-21 -5.301145E-22
         1   7 -1.916250E-05  1.307069E-47 -1.694066E-21 -5.219589E-22  3.914692E-22  6.524487E-22
         1   8 -1.916250E-05 -1.475723E-48  6.640752E-48  6.191737E-32 -6.191737E-32 -4.567141E-22
         2   1 -1.916250E-05 -1.180474E-14 -6.575364E-15 -2.470798E-14 -1.913104E-14 -3.533848E-17
         2   2 -1.916250E-05 -1.591685E-15 -1.121415E-14 -4.441127E-14  1.666874E-15  3.378033E-16
         2   3 -1.916250E-05 -8.220088E-14 -7.888436E-14 -2.043760E-14  3.240157E-16  1.207105E-15
         2   4 -1.916250E-05 -6.630607E-14 -7.026571E-14 -3.795163E-14 -8.433002E-15 -2.703285E-15
         2   5 -1.916250E-05 -8.781380E-14 -8.606327E-14 -3.566003E-14 -2.354879E-14 -1.374328E-15
         2   6 -1.916250E-05 -9.859006E-14 -9.969748E-14  2.563909E-14  1.147928E-14  4.301788E-15
         2   7 -1.916250E-05  2.700250E-15  2.537936E-15 -3.738659E-14  1.209243E-15 -1.318844E-16
         2   8 -1.916250E-05 -2.394247E-15  2.161167E-15  3.266955E-14 -2.506181E-14  1.260699E-15
         3   1 -1.916250E-05 -3.818265E-14 -4.099931E-14 -3.716488E-17 -1.572768E-14 -1.640550E-15
         3   2 -1.916250E-05 -3.330902E-14 -2.895060E-14  8.719853E-15 -9.159919E-15 -3.443193E-17
         3   3 -1.916250E-05  2.467903E-14  1.810777E-14 -1.387013E-16  7.239047E-14 -3.494396E-15
         3   4 -1.916250E-05  3.115669E-14  3.389920E-14 -4.830230E-14 -3.269375E-14  1.002631E-15
         3   5 -1.916250E-05 -7.859912E-15 -5.485811E-15  7.150038E-14 -1.084727E-14 -4.268769E-15
         3   6 -1.916250E-05  1.117917E-14  1.263381E-14 -1.606980E-14 -3.273982E-14 -1.165565E-15
         3   7 -1.916250E-05 -1.067586E-14 -1.205636E-14  7.544612E-14  4.373989E-14 -6.122615E-15
         3   8 -1.916250E-05  9.967245E-15  9.805982E-15 -4.715213E-14 -5.258730E-14 -1.285014E-16

 strains (elem, integ.pnt.,exx,eyy,ezz,exy,exz,eyz) forset EALL and time  0.1117812E+00

         1   1 -9.125000E-11  2.737500E-11  2.737500E-11 -1.009742E-27 -1.615587E-27  8.077936E-28
         1   2 -9.125000E-11  2.737500E-11  2.737500E-11 -8.279884E-27 -1.272275E-26  5.048710E-29
         1   3 -9.125000E-11  2.737500E-11  2.737500E-11 -1.615587E-27  8.077936E-28  3.231174E-27
         1   4 -9.125000E-11  2.737500E-11  2.737500E-11 -8.885729E-27 -2.423381E-27  5.048710E-28
         1   5 -9.125000E-11  2.737500E-11  2.737500E-11 -8.077936E-28  3.837019E-27  2.423381E-27
         1   6 -9.125000E-11  2.737500E-11  2.737500E-11  2.423381E-27 -7.270142E-27 -3.281661E-27
         1   7 -9.125000E-11  2.737500E-11  2.737500E-11 -3.231174E-27  2.423381E-27  4.038968E-27
         1   8 -9.125000E-11  2.737500E-11  2.737500E-11 -3.832980E-37  3.832980E-37 -2.827277E-27
         2   1 -9.125000E-11  2.737500E-11  2.737500E-11 -1.529542E-19 -1.184303E-19 -2.187620E-22
         2   2 -9.125000E-11  2.737500E-11  2.737500E-11 -2.749269E-19  1.031874E-20  2.091163E-21
         2   3 -9.125000E-11  2.737500E-11  2.737500E-11 -1.265184E-19  2.005811E-21  7.472558E-21
         2   4 -9.125000E-11  2.737500E-11  2.737500E-11 -2.349387E-19 -5.220430E-20 -1.673462E-20
         2   5 -9.125000E-11  2.737500E-11  2.737500E-11 -2.207526E-19 -1.457782E-19 -8.507747E-21
         2   6 -9.125000E-11  2.737500E-11  2.737500E-11  1.587182E-19  7.106221E-20  2.663011E-20
         2   7 -9.125000E-11  2.737500E-11  2.737500E-11 -2.314408E-19  7.485791E-21 -8.164273E-22
         2   8 -9.125000E-11  2.737500E-11  2.737500E-11  2.022401E-19 -1.551445E-19  7.804329E-21
         3   1 -9.125000E-11  2.737500E-11  2.737500E-11 -2.300683E-22 -9.736184E-20 -1.015578E-20
         3   2 -9.125000E-11  2.737500E-11  2.737500E-11  5.398004E-20 -5.670426E-20 -2.131500E-22
         3   3 -9.125000E-11  2.737500E-11  2.737500E-11 -8.586268E-22  4.481315E-19 -2.163197E-20
         3   4 -9.125000E-11  2.737500E-11  2.737500E-11 -2.990142E-19 -2.023899E-19  6.206764E-21
         3   5 -9.125000E-11  2.737500E-11  2.737500E-11  4.426214E-19 -6.714979E-20 -2.642572E-20
         3   6 -9.125000E-11  2.737500E-11  2.737500E-11 -9.947968E-20 -2.026751E-19 -7.215400E-21
         3   7 -9.125000E-11  2.737500E-11  2.737500E-11  4.670474E-19  2.707707E-19 -3.790191E-20
         3   8 -9.125000E-11  2.737500E-11  2.737500E-11 -2.918941E-19 -3.255404E-19 -7.954850E-22

 displacements (vx,vy,vz) for set NALL and time  0.1207812E+00

         1  0.000000E+00  0.000000E+00  0.000000E+00
         2 -4.929847E-08  0.000000E+00  0.000000E+00
         3 -1.811719E+00  0.000000E+00  0.000000E+00
         4 -1.811719E+00  0.000000E+00  0.000000E+00
         5 -3.623437E+00  0.000000E+00  0.000000E+00
         6 -3.623437E+00  0.000000E+00  0.000000E+00
         7  0.000000E+00  1.478954E-08  0.000000E+00
         8 -4.929847E-08  1.478954E-08  0.000000E+00
         9 -1.811719E+00  1.478954E-08  0.000000E+00
        10 -1.811719E+00  1.478954E-08  0.000000E+00
        11 -3.623437E+00  1.478954E-08  0.000000E+00
        12 -3.623437E+00  1.478954E-08  0.000000E+00
        13  0.000000E+00  0.000000E+00  2.070536E-08
        14 -4.929847E-08  0.000000E+00  2.070536E-08
        15 -1.811719E+00  0.000000E+00  2.070536E-08
        16 -1.811719E+00  0.000000E+00  2.070536E-08
        17 -3.623437E+00  0.000000E+00  2.070536E-08
        18 -3.623437E+00  0.000000E+00  2.070536E-08
        19  0.000000E+00  1.478954E-08  2.070536E-08
        20 -4.929847E-08  1.478954E-08  2.070536E-08
        21 -1.811719E+00  1.478954E-08  2.070536E-08
        22 -1.811719E+00  1.478954E-08  2.070536E-08
        23 -3.623437E+00  1.478954E-08  2.070536E-08
        24 -3.623437E+00  1.478954E-08  2.070536E-08

 stresses (elem, integ.pnt.,sxx,syy,szz,sxy,sxz,syz) for set EALL and time  0.1207812E+00

         1   1 -2.070536E-05 -1.694066E-21 -1.694066E-21 -3.588468E-22 -9.786730E-23  3.262243E-23
         1   2 -2.070536E-05  3.735423E-48  4.875155E-49 -1.141785E-21 -1.794234E-21 -3.425355E-22
         1   3 -2.070536E-05 -1.694066E-21 -1.694066E-21 -5.872038E-22  3.914692E-22  3.262243E-22
         1   4 -2.070536E-05  1.881546E-47 -1.694066E-21 -1.370142E-21  1.957346E-21 -6.850711E-22
         1   5 -2.070536E-05 -3.452137E-48 -1.694066E-21  4.567141E-22  1.957346E-22  9.786730E-23
         1   6 -2.070536E-05 -5.082198E-21 -3.388132E-21  2.805529E-21 -1.500632E-21 -9.623618E-22
         1   7 -2.070536E-05  3.388132E-21  5.541665E-68 -5.219589E-22  6.690261E-32  3.914692E-22
         1   8 -2.070536E-05 -1.694066E-21 -1.694066E-21  1.826856E-21  2.087836E-21 -1.304897E-21
         2   1 -2.070536E-05  1.892749E-14  2.381102E-14 -3.427882E-14  2.514944E-15  9.325445E-16
         2   2 -2.070536E-05  2.063695E-14  1.415313E-14  1.169552E-14  7.038183E-14 -2.255824E-16
         2   3 -2.070536E-05  5.502678E-14  6.425760E-14 -3.223183E-14  1.416793E-14  4.371973E-16
         2   4 -2.070536E-05  5.239654E-14  4.447376E-14  2.468879E-14 -3.346107E-15  1.653893E-16
         2   5 -2.070536E-05  4.933911E-14  5.560961E-14 -3.382464E-14 -2.576409E-15  3.975651E-15
         2   6 -2.070536E-05  5.539153E-14  4.781299E-14 -1.631060E-14  4.449256E-14 -1.232856E-15
         2   7 -2.070536E-05 -1.307805E-14 -2.460258E-15 -3.053680E-14  2.254023E-14  3.480304E-15
         2   8 -2.070536E-05 -1.136533E-14 -2.038283E-14 -3.929382E-14 -1.248784E-14 -8.418848E-16
         3   1 -2.070536E-05  5.934430E-15 -2.242531E-14  4.271874E-14  9.610693E-14 -5.980164E-15
         3   2 -2.070536E-05 -8.864304E-14 -6.418660E-14  2.520471E-14 -2.211280E-14  4.521169E-15
         3   3 -2.070536E-05  1.094375E-13  7.021252E-14  1.588082E-14 -6.499903E-14 -1.471262E-14
         3   4 -2.070536E-05  3.030794E-14  6.449638E-14  6.404442E-14  4.008519E-14  1.006083E-14
         3   5 -2.070536E-05  2.225525E-14  1.834639E-14 -2.509820E-15 -8.220231E-16 -1.358582E-14
         3   6 -2.070536E-05 -2.388833E-15  6.556553E-15 -7.256596E-14 -4.898562E-14  1.133357E-14
         3   7 -2.070536E-05 -6.470682E-14 -7.948090E-14 -1.494791E-13  1.887341E-14 -2.231828E-14
         3   8 -2.070536E-05 -7.390299E-14 -5.522560E-14  2.566130E-14 -4.242571E-14  1.687323E-14

 strains (elem, integ.pnt.,exx,eyy,ezz,exy,exz,eyz) forset EALL and time  0.1207812E+00

         1   1 -9.859693E-11  2.957908E-11  2.957908E-11 -2.221432E-27 -6.058452E-28  2.019484E-28
         1   2 -9.859693E-11  2.957908E-11  2.957908E-11 -7.068194E-27 -1.110716E-26 -2.120458E-27
         1   3 -9.859693E-11  2.957908E-11  2.957908E-11 -3.635071E-27  2.423381E-27  2.019484E-27
         1   4 -9.859693E-11  2.957908E-11  2.957908E-11 -8.481832E-27  1.211690E-26 -4.240916E-27
         1   5 -9.859693E-11  2.957908E-11  2.957908E-11  2.827277E-27  1.211690E-27  6.058452E-28
         1   6 -9.859693E-11  2.957908E-11  2.957908E-11  1.736756E-26 -9.289626E-27 -5.957478E-27
         1   7 -9.859693E-11  2.957908E-11  2.957908E-11 -3.231174E-27 -4.141590E-37  2.423381E-27
         1   8 -9.859693E-11  2.957908E-11  2.957908E-11  1.130911E-26  1.292470E-26 -8.077936E-27
         2   1 -9.859693E-11  2.957908E-11  2.957908E-11 -2.122022E-19  1.556870E-20  5.772895E-21
         2   2 -9.859693E-11  2.957908E-11  2.957908E-11  7.240086E-20  4.356970E-19 -1.396463E-21
         2   3 -9.859693E-11  2.957908E-11  2.957908E-11 -1.995304E-19  8.770622E-20  2.706459E-21
         2   4 -9.859693E-11  2.957908E-11  2.957908E-11  1.528354E-19 -2.071399E-20  1.023839E-21
         2   5 -9.859693E-11  2.957908E-11  2.957908E-11 -2.093906E-19 -1.594920E-20  2.461117E-20
         2   6 -9.859693E-11  2.957908E-11  2.957908E-11 -1.009704E-19  2.754301E-19 -7.631968E-21
         2   7 -9.859693E-11  2.957908E-11  2.957908E-11 -1.890373E-19  1.395348E-19  2.154474E-20
         2   8 -9.859693E-11  2.957908E-11  2.957908E-11 -2.432474E-19 -7.730567E-20 -5.211668E-21
         3   1 -9.859694E-11  2.957908E-11  2.957908E-11  2.644494E-19  5.949477E-19 -3.702006E-20
         3   2 -9.859694E-11  2.957908E-11  2.957908E-11  1.560292E-19 -1.368888E-19  2.798819E-20
         3   3 -9.859693E-11  2.957908E-11  2.957908E-11  9.830986E-20 -4.023749E-19 -9.107814E-20
         3   4 -9.859693E-11  2.957908E-11  2.957908E-11  3.964655E-19  2.481464E-19  6.228132E-20
         3   5 -9.859693E-11  2.957908E-11  2.957908E-11 -1.553698E-20 -5.088714E-21 -8.410269E-20
         3   6 -9.859693E-11  2.957908E-11  2.957908E-11 -4.492178E-19 -3.032443E-19  7.016020E-20
         3   7 -9.859694E-11  2.957908E-11  2.957908E-11 -9.253465E-19  1.168354E-19 -1.381608E-19
         3   8 -9.859694E-11  2.957908E-11  2.957908E-11  1.588556E-19 -2.626354E-19  1.044533E-19

 displacements (vx,vy,vz) for set NALL and time  0.1297812E+00

         1  0.000000E+00  0.000000E+00  0.000000E+00
         2 -5.297194E-08  0.000000E+00  0.000000E+00
         3 -1.946719E+00  0.000000E+00  0.000000E+00
         4 -1.946719E+00  0.000000E+00  0.000000E+00
         5 -3.893437E+00  0.000000E+00  0.000000E+00
         6 -3.893437E+00  0.000000E+00  0.000000E+00
         7  0.000000E+00  1.589158E-08  0.000000E+00
         8 -5.297194E-08  1.589158E-08  0.000000E+00
         9 -1.946719E+00  1.589158E-08  0.000000E+00
        10 -1.946719E+00  1.589158E-08  0.000000E+00
        11 -3.893437E+00  1.589158E-08  0.000000E+00
        12 -3.893437E+00  1.589158E-08  0.000000E+00
        13  0.000000E+00  0.000000E+00  2.224821E-08
        14 -5.297194E-08  0.000000E+00  2.224821E-08
        15 -1.946719E+00  0.000000E+00  2.224821E-08
        16 -1.946719E+00  0.000000E+00  2.224821E-08
        17 -3.893437E+00  0.000000E+00  2.224821E-08
        18 -3.893437E+00  0.000000E+00  2.224821E-08
        19  0.000000E+00  1.589158E-08  2.224821E-08
        20 -5.297194E-08  1.589158E-08  2.224821E-08
        21 -1.946719E+00  1.589158E-08  2.224821E-08
        22 -1.946719E+00  1.589158E-08  2.224821E-08
        23 -3.893437E+00  1.589158E-08  2.224821E-08
        24 -3.893437E+00  1.589158E-08  2.224821E-08

 stresses (elem, integ.pnt.,sxx,syy,szz,sxy,sxz,syz) for set EALL and time  0.1297812E+00

         1   1 -2.224821E-05 -1.694066E-21 -1.694066E-21  8.985982E-33  6.524486E-23  1.304897E-22
         1   2 -2.224821E-05 -1.694066E-21 -1.694066E-21  1.957346E-22 -6.524487E-22  6.524487E-23
         1   3 -2.224821E-05  1.694066E-21  4.216351E-49 -1.957346E-22 -2.108175E-49  1.304897E-22
         1   4 -2.224821E-05  1.694066E-21  1.694066E-21  3.594393E-32  1.161411E-58  2.609795E-22
         1   5 -2.224821E-05  1.694066E-21  8.011066E-48  1.264905E-48  1.957346E-22  5.219589E-22
         1   6 -2.224821E-05  1.694066E-21 -3.373080E-48  1.043918E-21 -5.219589E-22  6.524487E-23
         1   7 -2.224821E-05  1.694066E-21  6.746161E-48  0.000000E+00  0.000000E+00  5.219589E-22
         1   8 -2.224821E-05  1.694066E-21  0.000000E+00  1.043918E-21  3.373080E-48  2.609795E-22
         2   1 -2.224821E-05  7.529371E-15  1.663590E-16  8.351002E-15  8.013429E-16  1.054555E-16
         2   2 -2.224821E-05  5.992672E-15  3.975752E-15 -4.060151E-16 -3.641598E-14 -2.541527E-17
         2   3 -2.224821E-05 -1.980772E-14 -2.421361E-14  7.241749E-15  9.628600E-16 -1.676424E-15
         2   4 -2.224821E-05 -2.087162E-14 -1.930103E-14  9.431003E-15 -7.347179E-14 -2.606113E-15
         2   5 -2.224821E-05 -4.389230E-14 -4.626605E-14 -3.584343E-14  2.990652E-15  2.175445E-15
         2   6 -2.224821E-05 -4.934321E-14 -4.413417E-14  7.941660E-15  1.612618E-14  2.485847E-15
         2   7 -2.224821E-05 -2.853892E-14 -2.795555E-14 -3.807103E-14  3.862151E-14  3.935652E-16
         2   8 -2.224821E-05 -3.351704E-14 -2.472049E-14  1.447108E-14 -7.850664E-16 -9.485103E-17
         3   1 -2.224821E-05  5.670756E-14  2.612067E-14  8.135850E-14 -1.852353E-15  1.059955E-15
         3   2 -2.224821E-05  1.752170E-14  4.782447E-14 -2.810422E-14  6.904665E-15  4.247039E-17
         3   3 -2.224821E-05 -1.818138E-14 -2.602194E-14  6.438787E-14 -3.972193E-15 -1.196663E-14
         3   4 -2.224821E-05 -8.920595E-14 -7.860846E-14  2.060279E-14  1.354184E-14  1.395220E-14
         3   5 -2.224821E-05 -7.280031E-14 -6.691278E-14  7.764758E-14 -3.553056E-14  1.698239E-14
         3   6 -2.224821E-05  2.000174E-14  1.135727E-14 -9.922591E-15 -5.024938E-16 -1.375123E-14
         3   7 -2.224821E-05 -5.574057E-14 -2.710670E-14 -4.172449E-14  2.020364E-14  3.955805E-15
         3   8 -2.224821E-05  5.222776E-15 -2.312697E-14 -2.421045E-14 -1.482443E-14  1.585023E-16

 strains (elem, integ.pnt.,exx,eyy,ezz,exy,exz,eyz) forset EALL and time  0.1297812E+00

         1   1 -1.059439E-10  3.178316E-11  3.178316E-11 -5.562751E-38  4.038968E-28  8.077936E-28
         1   2 -1.059439E-10  3.178316E-11  3.178316E-11  1.211690E-27 -4.038968E-27  4.038968E-28
         1   3 -1.059439E-10  3.178316E-11  3.178316E-11 -1.211690E-27  0.000000E+00  8.077936E-28
         1   4 -1.059439E-10  3.178316E-11  3.178316E-11 -2.225100E-37 -5.220244E-54  1.615587E-27
         1   5 -1.059439E-10  3.178316E-11  3.178316E-11  1.044049E-53  1.211690E-27  3.231174E-27
         1   6 -1.059439E-10  3.178316E-11  3.178316E-11  6.462349E-27 -3.231174E-27  4.038968E-28
         1   7 -1.059439E-10  3.178316E-11  3.178316E-11  0.000000E+00  0.000000E+00  3.231174E-27
         1   8 -1.059439E-10  3.178316E-11  3.178316E-11  6.462349E-27  0.000000E+00  1.615587E-27
         2   1 -1.059439E-10  3.178316E-11  3.178316E-11  5.169668E-20  4.960694E-21  6.528200E-22
         2   2 -1.059439E-10  3.178316E-11  3.178316E-11 -2.513427E-21 -2.254323E-19 -1.573326E-22
         2   3 -1.059439E-10  3.178316E-11  3.178316E-11  4.482987E-20  5.960562E-21 -1.037786E-20
         2   4 -1.059439E-10  3.178316E-11  3.178316E-11  5.838240E-20 -4.548254E-19 -1.613308E-20
         2   5 -1.059439E-10  3.178316E-11  3.178316E-11 -2.218879E-19  1.851356E-20  1.346704E-20
         2   6 -1.059439E-10  3.178316E-11  3.178316E-11  4.916265E-20  9.982873E-20  1.538857E-20
         2   7 -1.059439E-10  3.178316E-11  3.178316E-11 -2.356778E-19  2.390856E-19  2.436356E-21
         2   8 -1.059439E-10  3.178316E-11  3.178316E-11  8.958286E-20 -4.859935E-21 -5.871730E-22
         3   1 -1.059439E-10  3.178316E-11  3.178316E-11  5.036478E-19 -1.146695E-20  6.561624E-21
         3   2 -1.059439E-10  3.178316E-11  3.178316E-11 -1.739785E-19  4.274316E-20  2.629120E-22
         3   3 -1.059439E-10  3.178316E-11  3.178316E-11  3.985916E-19 -2.458977E-20 -7.407911E-20
         3   4 -1.059439E-10  3.178316E-11  3.178316E-11  1.275411E-19  8.383045E-20  8.637076E-20
         3   5 -1.059439E-10  3.178316E-11  3.178316E-11  4.806755E-19 -2.199511E-19  1.051291E-19
         3   6 -1.059439E-10  3.178316E-11  3.178316E-11 -6.142556E-20 -3.110676E-21 -8.512664E-20
         3   7 -1.059439E-10  3.178316E-11  3.178316E-11 -2.582944E-19  1.250702E-19  2.448831E-20
         3   8 -1.059439E-10  3.178316E-11  3.178316E-11 -1.498742E-19 -9.177026E-20  9.812046E-22

 displacements (vx,vy,vz) for set NALL and time  0.1387812E+00

         1  0.000000E+00  0.000000E+00  0.000000E+00
         2 -5.664541E-08  0.000000E+00  0.000000E+00
         3 -2.081719E+00  0.000000E+00  0.000000E+00
         4 -2.081719E+00  0.000000E+00  0.000000E+00
         5 -4.163437E+00  0.000000E+00  0.000000E+00
         6 -4.163437E+00  0.000000E+00  0.000000E+00
         7  0.000000E+00  1.699362E-08  0.000000E+00
         8 -5.664541E-08  1.699362E-08  0.000000E+00
         9 -2.081719E+00  1.699362E-08  0.000000E+00
        10 -2.081719E+00  1.699362E-08  0.000000E+00
        11 -4.163437E+00  1.699362E-08  0.000000E+00
        12 -4.163437E+00  1.699362E-08  0.000000E+00
        13  0.000000E+00  0.000000E+00  2.379107E-08
        14 -5.664541E-08  0.000000E+00  2.379107E-08
        15 -2.081719E+00  0.000000E+00  2.379107E-08
        16 -2.081719E+00  0.000000E+00  2.379107E-08
        17 -4.163437E+00  0.000000E+00  2.379107E-08
        18 -4.163437E+00  0.000000E+00  2.379107E-08
        19  0.000000E+00  1.699362E-08  2.379107E-08
        20 -5.664541E-08  1.699362E-08  2.379107E-08
        21 -2.081719E+00  1.699362E-08  2.379107E-08
        22 -2.081719E+00  1.699362E-08  2.379107E-08
        23 -4.163437E+00  1.699362E-08  2.379107E-08
        24 -4.163437E+00  1.699362E-08  2.379107E-08

 stresses (elem, integ.pnt.,sxx,syy,szz,sxy,sxz,syz) for set EALL and time  0.1387812E+00

         1   1 -2.379107E-05 -3.388132E-21 -3.388132E-21  3.099131E-22  9.786730E-23  6.524487E-23
         1   2 -2.379107E-05 -5.082198E-21 -3.388132E-21  2.267259E-21 -6.198262E-22  4.404028E-22
         1   3 -2.379107E-05  1.694066E-21  1.694066E-21 -4.567141E-22 -6.524487E-22 -2.609795E-22
         1   4 -2.379107E-05  1.694066E-21  1.694066E-21  1.500632E-21 -1.957346E-21  1.337520E-21
         1   5 -2.379107E-05 -1.694066E-21 -1.694066E-21 -3.914692E-22  7.176935E-22  5.872038E-22
         1   6 -2.379107E-05  1.694066E-21  1.694066E-21 -9.134281E-22 -9.609137E-32  5.382701E-22
         1   7 -2.379107E-05 -1.694066E-21 -1.694066E-21 -7.687309E-32  2.609795E-22  5.219589E-22
         1   8 -2.379107E-05  3.499571E-47 -1.770867E-47 -5.219589E-22 -1.043918E-21  1.435387E-21
         2   1 -2.379107E-05  5.266366E-14  5.531958E-14  9.659282E-15 -1.851678E-14 -2.947639E-17
         2   2 -2.379107E-05  5.835604E-14  5.216825E-14  2.717332E-14 -9.759764E-15  1.270018E-16
         2   3 -2.379107E-05  3.562257E-14  3.744960E-14  1.212431E-14  3.512610E-14  4.702220E-16
         2   4 -2.379107E-05  4.453713E-14  4.181668E-14 -3.200467E-15  8.855043E-15 -1.953157E-15
         2   5 -2.379107E-05  5.182830E-14  5.308507E-14 -4.197465E-16 -2.125634E-14 -6.097064E-16
         2   6 -2.379107E-05  4.487937E-14  4.451603E-14 -9.176764E-15 -1.553046E-15  2.554137E-15
         2   7 -2.379107E-05  1.180004E-14  1.222792E-14 -1.566515E-15  3.539391E-14 -1.100081E-16
         2   8 -2.379107E-05  8.073293E-15  1.117729E-14 -1.566515E-15 -2.590522E-14  4.739777E-16
         3   1 -2.379107E-05 -1.157664E-13 -1.346503E-13 -5.364484E-14  6.127451E-14  4.445717E-15
         3   2 -2.379107E-05 -1.007495E-13 -7.952599E-14  3.275773E-15 -4.380970E-14 -4.224629E-15
         3   3 -2.379107E-05  4.522417E-14  4.833993E-14 -5.665757E-14 -7.285579E-14  1.191849E-15
         3   4 -2.379107E-05  2.648449E-14  2.469887E-14 -4.115468E-15 -2.031368E-14  3.398406E-16
         3   5 -2.379107E-05  1.278045E-14  3.007329E-15  7.295980E-14  1.507575E-14  1.984551E-14
         3   6 -2.379107E-05  6.610722E-14  7.455019E-14  2.041769E-14 -7.249443E-14 -2.033100E-14
         3   7 -2.379107E-05 -1.020750E-13 -8.984845E-14  8.089274E-14 -1.044843E-14  1.659164E-14
         3   8 -2.379107E-05 -8.250487E-14 -9.707100E-14 -6.677435E-15  9.463578E-14 -1.576653E-14

 strains (elem, integ.pnt.,exx,eyy,ezz,exy,exz,eyz) forset EALL and time  0.1387812E+00

         1   1 -1.132908E-10  3.398724E-11  3.398724E-11  1.918510E-27  6.058452E-28  4.038968E-28
         1   2 -1.132908E-10  3.398724E-11  3.398724E-11  1.403541E-26 -3.837019E-27  2.726303E-27
         1   3 -1.132908E-10  3.398724E-11  3.398724E-11 -2.827277E-27 -4.038968E-27 -1.615587E-27
         1   4 -1.132908E-10  3.398724E-11  3.398724E-11  9.289626E-27 -1.211690E-26  8.279884E-27
         1   5 -1.132908E-10  3.398724E-11  3.398724E-11 -2.423381E-27  4.442865E-27  3.635071E-27
         1   6 -1.132908E-10  3.398724E-11  3.398724E-11 -5.654555E-27  5.948513E-37  3.332148E-27
         1   7 -1.132908E-10  3.398724E-11  3.398724E-11  4.758811E-37  1.615587E-27  3.231174E-27
         1   8 -1.132908E-10  3.398724E-11  3.398724E-11 -3.231174E-27 -6.462349E-27  8.885729E-27
         2   1 -1.132908E-10  3.398724E-11  3.398724E-11  5.979555E-20 -1.146277E-19 -1.824729E-22
         2   2 -1.132908E-10  3.398724E-11  3.398724E-11  1.682158E-19 -6.041759E-20  7.862013E-22
         2   3 -1.132908E-10  3.398724E-11  3.398724E-11  7.505528E-20  2.174473E-19  2.910898E-21
         2   4 -1.132908E-10  3.398724E-11  3.398724E-11 -1.981241E-20  5.481693E-20 -1.209097E-20
         2   5 -1.132908E-10  3.398724E-11  3.398724E-11 -2.598431E-21 -1.315868E-19 -3.774373E-21
         2   6 -1.132908E-10  3.398724E-11  3.398724E-11 -5.680854E-20 -9.614092E-21  1.581133E-20
         2   7 -1.132908E-10  3.398724E-11  3.398724E-11 -9.697476E-21  2.191051E-19 -6.810023E-22
         2   8 -1.132908E-10  3.398724E-11  3.398724E-11 -9.697476E-21 -1.603656E-19  2.934147E-21
         3   1 -1.132908E-10  3.398724E-11  3.398724E-11 -3.320871E-19  3.793184E-19  2.752110E-20
         3   2 -1.132908E-10  3.398724E-11  3.398724E-11  2.027859E-20 -2.712029E-19 -2.615247E-20
         3   3 -1.132908E-10  3.398724E-11  3.398724E-11 -3.507374E-19 -4.510120E-19  7.378111E-21
         3   4 -1.132908E-10  3.398724E-11  3.398724E-11 -2.547670E-20 -1.257514E-19  2.103775E-21
         3   5 -1.132908E-10  3.398724E-11  3.398724E-11  4.516559E-19  9.332607E-20  1.228531E-19
         3   6 -1.132908E-10  3.398724E-11  3.398724E-11  1.263952E-19 -4.487750E-19 -1.258586E-19
         3   7 -1.132908E-10  3.398724E-11  3.398724E-11  5.007646E-19 -6.468078E-20  1.027101E-19
         3   8 -1.132908E-10  3.398724E-11  3.398724E-11 -4.133650E-20  5.858405E-19 -9.760234E-20

 displacements (vx,vy,vz) for set NALL and time  0.1477812E+00

         1  0.000000E+00  0.000000E+00  0.000000E+00
         2 -6.031888E-08  0.000000E+00  0.000000E+00
         3 -2.216719E+00  0.000000E+00  0.000000E+00
         4 -2.216719E+00  0.000000E+00  0.000000E+00
         5 -4.433437E+00  0.000000E+00  0.000000E+00
         6 -4.433437E+00  0.000000E+00  0.000000E+00
         7  0.000000E+00  1.809566E-08  0.000000E+00
         8 -6.031888E-08  1.809566E-08  0.000000E+00
         9 -2.216719E+00  1.809566E-08  0.000000E+00
        10 -2.216719E+00  1.809566E-08  0.000000E+00
        11 -4.433437E+00  1.809566E-08  0.000000E+00
        12 -4.433437E+00  1.809566E-08  0.000000E+00
        13  0.000000E+00  0.000000E+00  2.533393E-08
        14 -6.031888E-08  0.000000E+00  2.533393E-08
        15 -2.216719E+00  0.000000E+00  2.533393E-08
        16 -2.216719E+00  0.000000E+00  2.533393E-08
        17 -4.433437E+00  0.000000E+00  2.533393E-08
        18 -4.433437E+00  0.000000E+00  2.533393E-08
        19  0.000000E+00  1.809566E-08  2.533393E-08
        20 -6.031888E-08  1.809566E-08  2.533393E-08
        21 -2.216719E+00  1.809566E-08  2.533393E-08
        22 -2.216719E+00  1.809566E-08  2.533393E-08
        23 -4.433437E+00  1.809566E-08  2.533393E-08
        24 -4.433437E+00  1.809566E-08  2.533393E-08

 stresses (elem, integ.pnt.,sxx,syy,szz,sxy,sxz,syz) for set EALL and time  0.1477812E+00

         1   1 -2.533393E-05 -3.388132E-21 -1.694066E-21  7.176935E-22  1.304897E-22 -1.054088E-49
         1   2 -2.533393E-05 -5.082198E-21 -3.388132E-21  4.436651E-21 -8.481832E-22  4.404028E-22
         1   3 -2.533393E-05  1.694066E-21  1.694066E-21 -5.872038E-22 -6.524487E-22 -1.159496E-48
         1   4 -2.533393E-05  1.694066E-21  3.388132E-21  3.131754E-21 -2.348815E-21  1.337520E-21
         1   5 -2.533393E-05 -3.388132E-21 -3.388132E-21 -1.304897E-22  7.176935E-22 -2.424402E-48
         1   6 -2.533393E-05 -6.776264E-21 -5.082198E-21 -1.304897E-22 -2.609795E-22  5.382701E-22
         1   7 -2.533393E-05 -3.388132E-21 -6.776264E-21 -5.219589E-22 -1.304897E-22 -5.902891E-48
         1   8 -2.533393E-05 -6.776264E-21 -5.082198E-21 -5.219589E-22 -2.609795E-21  1.435387E-21
         2   1 -2.533393E-05 -3.586886E-14 -3.473094E-14  8.719519E-15 -9.323775E-15  9.372707E-16
         2   2 -2.533393E-05 -3.788643E-14 -3.875564E-14  1.528728E-14 -2.756011E-15 -2.796155E-16
         2   3 -2.533393E-05 -3.805322E-14 -3.107077E-14  8.617071E-15 -3.820082E-14 -5.932344E-16
         2   4 -2.533393E-05 -4.769905E-14 -5.289472E-14  1.737409E-14  1.434128E-14  1.984991E-15
         2   5 -2.533393E-05 -1.052951E-14 -5.106186E-15 -3.312082E-14 -1.087218E-14  5.028447E-15
         2   6 -2.533393E-05  6.048959E-15 -1.161143E-15  3.693532E-14  5.918396E-14 -3.308146E-15
         2   7 -2.533393E-05 -6.146110E-15  5.121754E-15 -2.791011E-14  2.318720E-14  3.497942E-15
         2   8 -2.533393E-05  2.804103E-15 -8.732471E-15  5.090305E-14 -1.184087E-14 -1.043539E-15
         3   1 -2.533393E-05 -6.007635E-14 -7.393714E-14  1.580264E-14 -4.845177E-14  4.598940E-15
         3   2 -2.533393E-05 -6.446783E-14 -5.301309E-14  2.667111E-15 -4.407326E-14 -3.734338E-15
         3   3 -2.533393E-05 -3.265538E-14 -1.871190E-14  1.112701E-14 -7.922466E-14 -2.299511E-15
         3   4 -2.533393E-05 -7.585814E-14 -8.834750E-14  1.112701E-14  6.088762E-14  2.824128E-15
         3   5 -2.533393E-05  9.658638E-14  1.020412E-13  5.184405E-15 -1.073329E-13  2.406193E-14
         3   6 -2.533393E-05  1.581338E-13  1.512248E-13  2.269844E-14 -1.538423E-14 -2.049521E-14
         3   7 -2.533393E-05 -6.645779E-14 -3.319865E-14  1.934846E-14 -3.421738E-14  1.716348E-14
         3   8 -2.533393E-05 -4.372165E-14 -7.457472E-14  7.189057E-14  8.106873E-16 -1.393674E-14

 strains (elem, integ.pnt.,exx,eyy,ezz,exy,exz,eyz) forset EALL and time  0.1477812E+00

         1   1 -1.206378E-10  3.619133E-11  3.619133E-11  4.442865E-27  8.077936E-28 -6.199039E-54
         1   2 -1.206378E-10  3.619133E-11  3.619133E-11  2.746498E-26 -5.250658E-27  2.726303E-27
         1   3 -1.206378E-10  3.619133E-11  3.619133E-11 -3.635071E-27 -4.038968E-27 -8.678655E-53
         1   4 -1.206378E-10  3.619133E-11  3.619133E-11  1.938705E-26 -1.454028E-26  8.279884E-27
         1   5 -1.206378E-10  3.619133E-11  3.619133E-11 -8.077936E-28  4.442865E-27  0.000000E+00
         1   6 -1.206378E-10  3.619133E-11  3.619133E-11 -8.077936E-28 -1.615587E-27  3.332148E-27
         1   7 -1.206378E-10  3.619133E-11  3.619133E-11 -3.231174E-27 -8.077936E-28  0.000000E+00
         1   8 -1.206378E-10  3.619133E-11  3.619133E-11 -3.231174E-27 -1.615587E-26  8.885729E-27
         2   1 -1.206378E-10  3.619133E-11  3.619133E-11  5.397798E-20 -5.771860E-20  5.802152E-21
         2   2 -1.206378E-10  3.619133E-11  3.619133E-11  9.463556E-20 -1.706102E-20 -1.730953E-21
         2   3 -1.206378E-10  3.619133E-11  3.619133E-11  5.334377E-20 -2.364813E-19 -3.672403E-21
         2   4 -1.206378E-10  3.619133E-11  3.619133E-11  1.075539E-19  8.877938E-20  1.228804E-20
         2   5 -1.206378E-10  3.619133E-11  3.619133E-11 -2.050336E-19 -6.730400E-20  3.112848E-20
         2   6 -1.206378E-10  3.619133E-11  3.619133E-11  2.286472E-19  3.663769E-19 -2.047900E-20
         2   7 -1.206378E-10  3.619133E-11  3.619133E-11 -1.727769E-19  1.435398E-19  2.165393E-20
         2   8 -1.206378E-10  3.619133E-11  3.619133E-11  3.151141E-19 -7.330060E-20 -6.460001E-21
         3   1 -1.206378E-10  3.619133E-11  3.619133E-11  9.782585E-20 -2.999396E-19  2.846963E-20
         3   2 -1.206378E-10  3.619133E-11  3.619133E-11  1.651068E-20 -2.728345E-19 -2.311733E-20
         3   3 -1.206378E-10  3.619133E-11  3.619133E-11  6.888149E-20 -4.904384E-19 -1.423507E-20
         3   4 -1.206378E-10  3.619133E-11  3.619132E-11  6.888149E-20  3.769234E-19  1.748270E-20
         3   5 -1.206377E-10  3.619132E-11  3.619133E-11  3.209394E-20 -6.644419E-19  1.489548E-19
         3   6 -1.206377E-10  3.619133E-11  3.619133E-11  1.405142E-19 -9.523574E-20 -1.268751E-19
         3   7 -1.206378E-10  3.619132E-11  3.619133E-11  1.197762E-19 -2.118219E-19  1.062501E-19
         3   8 -1.206378E-10  3.619133E-11  3.619132E-11  4.450369E-19  5.018540E-21 -8.627505E-20

 displacements (vx,vy,vz) for set NALL and time  0.1567812E+00

         1  0.000000E+00  0.000000E+00  0.000000E+00
         2 -6.399234E-08  0.000000E+00  0.000000E+00
         3 -2.351719E+00  0.000000E+00  0.000000E+00
         4 -2.351719E+00  0.000000E+00  0.000000E+00
         5 -4.703437E+00  0.000000E+00  0.000000E+00
         6 -4.703437E+00  0.000000E+00  0.000000E+00
         7  0.000000E+00  1.919770E-08  0.000000E+00
         8 -6.399234E-08  1.919770E-08  0.000000E+00
         9 -2.351719E+00  1.919770E-08  0.000000E+00
        10 -2.351719E+00  1.919770E-08  0.000000E+00
        11 -4.703437E+00  1.919770E-08  0.000000E+00
        12 -4.703437E+00  1.919770E-08  0.000000E+00
        13  0.000000E+00  0.000000E+00  2.687678E-08
        14 -6.399234E-08  0.000000E+00  2.687678E-08
        15 -2.351719E+00  0.000000E+00  2.687678E-08
        16 -2.351719E+00  0.000000E+00  2.687678E-08
        17 -4.703437E+00  0.000000E+00  2.687678E-08
        18 -4.703437E+00  0.000000E+00  2.687678E-08
        19  0.000000E+00  1.919770E-08  2.687678E-08
        20 -6.399234E-08  1.919770E-08  2.687678E-08
        21 -2.351719E+00  1.919770E-08  2.687678E-08
        22 -2.351719E+00  1.919770E-08  2.687678E-08
        23 -4.703437E+00  1.919770E-08  2.687678E-08
        24 -4.703437E+00  1.919770E-08  2.687678E-08

 stresses (elem, integ.pnt.,sxx,syy,szz,sxy,sxz,syz) for set EALL and time  0.1567812E+00

         1   1 -2.687678E-05 -1.976414E-48 -1.581131E-48  2.283570E-22  1.957346E-22 -1.304897E-22
         1   2 -2.687678E-05 -5.082198E-21 -5.082198E-21  1.141785E-21  1.500632E-21  1.468009E-22
         1   3 -2.687678E-05  3.388132E-21  3.373080E-48 -1.109163E-21 -5.219589E-22 -5.219589E-22
         1   4 -2.687678E-05  1.694066E-21  1.694066E-21 -1.957346E-22 -2.609795E-22  2.936019E-22
         1   5 -2.687678E-05  1.694066E-21  1.694066E-21 -5.219589E-22 -7.829384E-22 -1.304897E-22
         1   6 -2.687678E-05 -1.694066E-21 -1.694066E-21 -1.043918E-21  5.219589E-22  5.708926E-22
         1   7 -2.687678E-05  1.517886E-47  6.746161E-48 -5.219589E-22 -5.219589E-22 -7.829384E-22
         1   8 -2.687678E-05 -1.694066E-21 -1.694066E-21 -1.043918E-21 -5.219589E-22  7.176935E-22
         2   1 -2.687678E-05  5.470227E-15  6.122873E-15  3.432918E-14 -9.891629E-15  5.291674E-16
         2   2 -2.687678E-05 -4.533895E-15 -4.490764E-15  3.679620E-15  1.637942E-14  6.173584E-16
         2   3 -2.687678E-05  1.380060E-14  1.680338E-14  3.241978E-14  3.332790E-14  3.297791E-16
         2   4 -2.687678E-05  2.140959E-15  2.326877E-15  2.366277E-14 -2.797123E-14  2.204061E-15
         2   5 -2.687678E-05  2.419652E-14  2.540745E-14 -3.481170E-14 -1.299145E-14  2.174267E-15
         2   6 -2.687678E-05  2.294424E-14  1.854460E-14  8.973386E-15  4.173991E-14  7.173107E-16
         2   7 -2.687678E-05 -1.344745E-14 -9.886382E-15 -3.422057E-14 -4.137321E-14  1.974879E-15
         2   8 -2.687678E-05 -1.635525E-14 -2.061210E-14  2.707855E-14  1.992591E-14  2.304013E-15
         3   1 -2.687678E-05  4.208072E-15  2.144952E-15 -3.111891E-14 -1.006929E-13  6.086974E-15
         3   2 -2.687678E-05  5.444233E-14  4.815807E-14  3.018021E-14  4.817638E-14 -4.006914E-15
         3   3 -2.687678E-05 -4.330302E-14 -1.238706E-14 -2.043889E-14  6.037022E-14 -3.684575E-16
         3   4 -2.687678E-05 -3.427555E-14 -6.252312E-14 -2.919591E-14  2.534215E-14  4.203080E-16
         3   5 -2.687678E-05 -4.712683E-14 -3.111474E-14  9.485818E-15 -8.869568E-14  2.917233E-14
         3   6 -2.687678E-05  5.643243E-14  3.775195E-14  4.451389E-14 -5.504018E-15 -1.938123E-14
         3   7 -2.687678E-05 -4.866358E-14  3.275917E-16  3.540156E-14  1.039639E-13  2.271690E-14
         3   8 -2.687678E-05  1.368889E-14 -2.695490E-14 -1.714055E-14 -3.614836E-14 -1.495401E-14

 strains (elem, integ.pnt.,exx,eyy,ezz,exy,exz,eyz) forset EALL and time  0.1567812E+00

         1   1 -1.279847E-10  3.839541E-11  3.839541E-11  1.413639E-27  1.211690E-27 -8.077936E-28
         1   2 -1.279847E-10  3.839541E-11  3.839541E-11  7.068194E-27  9.289626E-27  9.087678E-28
         1   3 -1.279847E-10  3.839541E-11  3.839541E-11 -6.866245E-27 -3.231174E-27 -3.231174E-27
         1   4 -1.279847E-10  3.839541E-11  3.839541E-11 -1.211690E-27 -1.615587E-27  1.817536E-27
         1   5 -1.279847E-10  3.839541E-11  3.839541E-11 -3.231174E-27 -4.846761E-27 -8.077936E-28
         1   6 -1.279847E-10  3.839541E-11  3.839541E-11 -6.462349E-27  3.231174E-27  3.534097E-27
         1   7 -1.279847E-10  3.839541E-11  3.839541E-11 -3.231174E-27 -3.231174E-27 -4.846761E-27
         1   8 -1.279847E-10  3.839541E-11  3.839541E-11 -6.462349E-27 -3.231174E-27  4.442865E-27
         2   1 -1.279847E-10  3.839541E-11  3.839541E-11  2.125140E-19 -6.123389E-20  3.275798E-21
         2   2 -1.279847E-10  3.839541E-11  3.839541E-11  2.277860E-20  1.013964E-19  3.821743E-21
         2   3 -1.279847E-10  3.839541E-11  3.839541E-11  2.006939E-19  2.063155E-19  2.041490E-21
         2   4 -1.279847E-10  3.839541E-11  3.839541E-11  1.464838E-19 -1.731552E-19  1.364419E-20
         2   5 -1.279847E-10  3.839541E-11  3.839541E-11 -2.155010E-19 -8.042323E-20  1.345975E-20
         2   6 -1.279847E-10  3.839541E-11  3.839541E-11  5.554953E-20  2.583899E-19  4.440495E-21
         2   7 -1.279847E-10  3.839541E-11  3.839541E-11 -2.118416E-19 -2.561199E-19  1.222544E-20
         2   8 -1.279847E-10  3.839541E-11  3.839541E-11  1.676291E-19  1.233509E-19  1.426294E-20
         3   1 -1.279847E-10  3.839541E-11  3.839541E-11 -1.926409E-19 -6.233371E-19  3.768127E-20
         3   2 -1.279847E-10  3.839541E-11  3.839541E-11  1.868299E-19  2.982347E-19 -2.480471E-20
         3   3 -1.279847E-10  3.839541E-11  3.839541E-11 -1.265265E-19  3.737204E-19 -2.280927E-21
         3   4 -1.279847E-10  3.839541E-11  3.839541E-11 -1.807366E-19  1.568800E-19  2.601907E-21
         3   5 -1.279847E-10  3.839541E-11  3.839541E-11  5.872173E-20 -5.490685E-19  1.805906E-19
         3   6 -1.279847E-10  3.839541E-11  3.839541E-11  2.755622E-19 -3.407249E-20 -1.199790E-19
         3   7 -1.279847E-10  3.839541E-11  3.839541E-11  2.191525E-19  6.435862E-19  1.406284E-19
         3   8 -1.279847E-10  3.839541E-11  3.839541E-11 -1.061082E-19 -2.237756E-19 -9.257243E-20

 displacements (vx,vy,vz) for set NALL and time  0.1657812E+00

         1  0.000000E+00  0.000000E+00  0.000000E+00
         2 -6.766581E-08  0.000000E+00  0.000000E+00
         3 -2.486719E+00  0.000000E+00  0.000000E+00
         4 -2.486719E+00  0.000000E+00  0.000000E+00
         5 -4.973437E+00  0.000000E+00  0.000000E+00
         6 -4.973437E+00  0.000000E+00  0.000000E+00
         7  0.000000E+00  2.029974E-08  0.000000E+00
         8 -6.766581E-08  2.029974E-08  0.000000E+00
         9 -2.486719E+00  2.029974E-08  0.000000E+00
        10 -2.486719E+00  2.029974E-08  0.000000E+00
        11 -4.973437E+00  2.029974E-08  0.000000E+00
        12 -4.973437E+00  2.029974E-08  0.000000E+00
        13  0.000000E+00  0.000000E+00  2.841964E-08
        14 -6.766581E-08  0.000000E+00  2.841964E-08
        15 -2.486719E+00  0.000000E+00  2.841964E-08
        16 -2.486719E+00  0.000000E+00  2.841964E-08
        17 -4.973437E+00  0.000000E+00  2.841964E-08
        18 -4.973437E+00  0.000000E+00  2.841964E-08
        19  0.000000E+00  2.029974E-08  2.841964E-08
        20 -6.766581E-08  2.029974E-08  2.841964E-08
        21 -2.486719E+00  2.029974E-08  2.841964E-08
        22 -2.486719E+00  2.029974E-08  2.841964E-08
        23 -4.973437E+00  2.029974E-08  2.841964E-08
        24 -4.973437E+00  2.029974E-08  2.841964E-08

 stresses (elem, integ.pnt.,sxx,syy,szz,sxy,sxz,syz) for set EALL and time  0.1657812E+00

         1   1 -2.841964E-05 -3.388132E-21 -1.694066E-21 -3.914692E-22 -8.155608E-22  1.957346E-22
         1   2 -2.841964E-05  1.694066E-21  5.082198E-21 -1.826856E-21 -4.730253E-21 -1.794234E-22
         1   3 -2.841964E-05 -1.694066E-21 -1.694066E-21 -4.567141E-22  3.914692E-22  1.174408E-21
         1   4 -2.841964E-05  3.388132E-21  5.082198E-21 -1.892101E-21  3.914692E-22  1.631122E-22
         1   5 -2.841964E-05 -3.388132E-21 -5.082198E-21  7.829384E-22  5.219589E-22 -1.957346E-22
         1   6 -2.841964E-05 -5.082198E-21 -1.694066E-21  3.914692E-21 -3.392733E-21 -3.425355E-22
         1   7 -2.841964E-05  3.388132E-21  4.047697E-47  1.836576E-31  1.304897E-21  7.829384E-22
         1   8 -2.841964E-05 -8.095393E-47  1.694066E-21  3.131754E-21  1.565877E-21  4.805153E-47
         2   1 -2.841964E-05  5.865043E-14  4.825325E-14  5.205098E-14 -3.360761E-14 -1.818729E-16
         2   2 -2.841964E-05  5.811219E-14  5.594251E-14  3.887386E-15 -3.360761E-14  1.065041E-15
         2   3 -2.841964E-05  2.747722E-14  1.930084E-14  5.070921E-14  3.042818E-15 -2.233324E-15
         2   4 -2.841964E-05  3.168794E-14  3.807102E-14  4.734867E-15 -1.447122E-14 -2.012140E-15
         2   5 -2.841964E-05  4.203056E-14  3.737744E-14  3.401133E-14 -2.972684E-14  1.372692E-15
         2   6 -2.841964E-05  3.646625E-14  4.291267E-14 -9.773761E-15 -7.132267E-14  7.051970E-15
         2   7 -2.841964E-05  1.742511E-14  1.499280E-14  3.123353E-14 -2.367212E-14 -6.787588E-16
         2   8 -2.841964E-05  1.660976E-14  3.160894E-14 -3.794539E-15 -2.367212E-14  3.974789E-15
         3   1 -2.841964E-05 -3.860776E-14 -4.914000E-14 -2.265860E-14  1.559629E-14  4.566872E-16
         3   2 -2.841964E-05 -9.341466E-14 -8.332126E-14 -5.144569E-15 -1.917742E-15  8.489577E-16
         3   3 -2.841964E-05  1.392617E-13  1.469633E-13 -3.671383E-14 -1.032090E-14 -1.105932E-14
         3   4 -2.841964E-05  5.985712E-14  5.538744E-14 -1.919979E-14  5.973524E-14  1.336251E-14
         3   5 -2.841964E-05 -1.147395E-13 -9.302692E-14 -1.329432E-13  1.035692E-14  1.322039E-14
         3   6 -2.841964E-05 -5.180155E-14 -7.674609E-14  7.169033E-15 -2.778601E-15 -9.345195E-15
         3   7 -2.841964E-05 -1.010641E-13 -6.111766E-14 -1.133571E-13  3.153801E-14  1.704380E-15
         3   8 -2.841964E-05 -6.272386E-14 -1.022315E-13 -8.272876E-15  6.656609E-14  3.168354E-15

 strains (elem, integ.pnt.,exx,eyy,ezz,exy,exz,eyz) forset EALL and time  0.1657812E+00

         1   1 -1.353316E-10  4.059949E-11  4.059949E-11 -2.423381E-27 -5.048710E-27  1.211690E-27
         1   2 -1.353316E-10  4.059949E-11  4.059949E-11 -1.130911E-26 -2.928252E-26 -1.110716E-27
         1   3 -1.353316E-10  4.059949E-11  4.059949E-11 -2.827277E-27  2.423381E-27  7.270142E-27
         1   4 -1.353316E-10  4.059949E-11  4.059949E-11 -1.171301E-26  2.423381E-27  1.009742E-27
         1   5 -1.353316E-10  4.059949E-11  4.059949E-11  4.846761E-27  3.231174E-27 -1.211690E-27
         1   6 -1.353316E-10  4.059949E-11  4.059949E-11  2.423381E-26 -2.100263E-26 -2.120458E-27
         1   7 -1.353316E-10  4.059949E-11  4.059949E-11 -1.136928E-36  8.077936E-27  4.846761E-27
         1   8 -1.353316E-10  4.059949E-11  4.059949E-11  1.938705E-26  9.693523E-27 -2.088097E-53
         2   1 -1.353316E-10  4.059949E-11  4.059949E-11  3.222204E-19 -2.080471E-19 -1.125880E-21
         2   2 -1.353316E-10  4.059949E-11  4.059949E-11  2.406477E-20 -2.080471E-19  6.593113E-21
         2   3 -1.353316E-10  4.059949E-11  4.059949E-11  3.139142E-19  1.883649E-20 -1.382534E-20
         2   4 -1.353316E-10  4.059949E-11  4.059949E-11  2.931108E-20 -8.958373E-20 -1.245610E-20
         2   5 -1.353316E-10  4.059949E-11  4.059949E-11  2.105463E-19 -1.840233E-19  8.497620E-21
         2   6 -1.353316E-10  4.059949E-11  4.059949E-11 -6.050423E-20 -4.415213E-19  4.365505E-20
         2   7 -1.353316E-10  4.059949E-11  4.059949E-11  1.933504E-19 -1.465417E-19 -4.201840E-21
         2   8 -1.353316E-10  4.059949E-11  4.059949E-11 -2.349000E-20 -1.465417E-19  2.460584E-20
         3   1 -1.353316E-10  4.059949E-11  4.059949E-11 -1.402675E-19  9.654848E-20  2.827111E-21
         3   2 -1.353316E-10  4.059949E-11  4.059949E-11 -3.184733E-20 -1.187174E-20  5.255453E-21
         3   3 -1.353316E-10  4.059949E-11  4.059949E-11 -2.272761E-19 -6.389129E-20 -6.846248E-20
         3   4 -1.353316E-10  4.059949E-11  4.059949E-11 -1.188559E-19  3.697896E-19  8.272028E-20
         3   5 -1.353316E-10  4.059949E-11  4.059949E-11 -8.229820E-19  6.411430E-20  8.184052E-20
         3   6 -1.353316E-10  4.059949E-11  4.059949E-11  4.437973E-20 -1.720087E-20 -5.785121E-20
         3   7 -1.353316E-10  4.059949E-11  4.059949E-11 -7.017343E-19  1.952353E-19  1.055092E-20
         3   8 -1.353316E-10  4.059949E-11  4.059949E-11 -5.121304E-20  4.120758E-19  1.961362E-20

 displacements (vx,vy,vz) for set NALL and time  0.1747812E+00

         1  0.000000E+00  0.000000E+00  0.000000E+00
         2 -7.133928E-08  0.000000E+00  0.000000E+00
         3 -2.621719E+00  0.000000E+00  0.000000E+00
         4 -2.621719E+00  0.000000E+00  0.000000E+00
         5 -5.243437E+00  0.000000E+00  0.000000E+00
         6 -5.243437E+00  0.000000E+00  0.000000E+00
         7  0.000000E+00  2.140178E-08  0.000000E+00
         8 -7.133928E-08  2.140178E-08  0.000000E+00
         9 -2.621719E+00  2.140178E-08  0.000000E+00
        10 -2.621719E+00  2.140178E-08  0.000000E+00
        11 -5.243437E+00  2.140178E-08  0.000000E+00
        12 -5.243437E+00  2.140178E-08  0.000000E+00
        13  0.000000E+00  0.000000E+00  2.996250E-08
        14 -7.133928E-08  0.000000E+00  2.996250E-08
        15 -2.621719E+00  0.000000E+00  2.996250E-08
        16 -2.621719E+00  0.000000E+00  2.996250E-08
        17 -5.243437E+00  0.000000E+00  2.996250E-08
        18 -5.243437E+00  0.000000E+00  2.996250E-08
        19  0.000000E+00  2.140178E-08  2.996250E-08
        20 -7.133928E-08  2.140178E-08  2.996250E-08
        21 -2.621719E+00  2.140178E-08  2.996250E-08
        22 -2.621719E+00  2.140178E-08  2.996250E-08
        23 -5.243437E+00  2.140178E-08  2.996250E-08
        24 -5.243437E+00  2.140178E-08  2.996250E-08

 stresses (elem, integ.pnt.,sxx,syy,szz,sxy,sxz,syz) for set EALL and time  0.1747812E+00

         1   1 -2.996250E-05 -1.694066E-21  1.694066E-21  6.524487E-23 -8.155608E-22  1.957346E-22
         1   2 -2.996250E-05 -1.694066E-21 -1.668094E-47  4.567141E-22 -2.903396E-21  3.262243E-22
         1   3 -2.996250E-05  4.458791E-47 -7.167796E-48 -4.567141E-22 -5.219589E-22  1.174408E-21
         1   4 -2.996250E-05  1.694066E-21  3.388132E-21 -6.524486E-23 -2.870774E-21  1.272275E-21
         1   5 -2.996250E-05 -3.388132E-21 -3.388132E-21  1.304897E-22 -2.609795E-22 -7.176935E-22
         1   6 -2.996250E-05 -6.776264E-21 -6.776264E-21  1.957346E-21 -2.348815E-21  3.588468E-22
         1   7 -2.996250E-05  8.432701E-48 -3.388132E-21  4.840703E-32  2.609795E-22  2.609795E-22
         1   8 -2.996250E-05 -3.388132E-21 -3.388132E-21  1.826856E-21 -2.087836E-21  1.304897E-21
         2   1 -2.996250E-05  7.450907E-14  6.190573E-14  4.108414E-14  3.786289E-14  7.711422E-16
         2   2 -2.996250E-05  5.698016E-14  7.019917E-14  2.575936E-14 -3.876102E-14 -6.522468E-16
         2   3 -2.996250E-05  4.374818E-14  3.391542E-14  3.370500E-14  1.387213E-15  9.385362E-16
         2   4 -2.996250E-05  2.198186E-14  3.232156E-14  2.056947E-14 -2.488384E-14 -4.187015E-16
         2   5 -2.996250E-05  9.503258E-14  8.196054E-14  6.738909E-14  4.560774E-14  2.710548E-15
         2   6 -2.996250E-05  7.782782E-14  9.039291E-14  1.484698E-14  7.625731E-14 -2.667763E-15
         2   7 -2.996250E-05  1.829736E-14  7.995901E-15  6.010256E-14  5.177150E-15  2.877942E-15
         2   8 -2.996250E-05 -3.144825E-15  6.540956E-15  1.631748E-14 -1.233688E-14 -2.434218E-15
         3   1 -2.996250E-05 -4.441049E-14 -4.480727E-14 -1.903270E-14 -3.724464E-14 -4.083176E-15
         3   2 -2.996250E-05 -6.542056E-14 -6.617034E-14  2.859846E-15  2.161935E-15  6.206839E-15
         3   3 -2.996250E-05 -2.071641E-14 -3.330616E-14 -2.318176E-14  5.636240E-15 -6.703536E-15
         3   4 -2.996250E-05 -1.873975E-14 -1.033519E-15  3.373885E-14  5.817835E-14  1.024503E-14
         3   5 -2.996250E-05 -2.441144E-14 -1.747120E-14 -6.816272E-14  4.426974E-14 -1.261826E-14
         3   6 -2.996250E-05 -1.279460E-14 -2.485132E-14  1.940745E-14  4.863159E-15  1.912604E-14
         3   7 -2.996250E-05 -5.982723E-14 -6.507997E-14 -6.298981E-14 -1.190775E-13 -1.523862E-14
         3   8 -2.996250E-05 -2.522364E-14 -1.882436E-14 -1.044770E-14  2.103473E-14  2.316424E-14

 strains (elem, integ.pnt.,exx,eyy,ezz,exy,exz,eyz) forset EALL and time  0.1747812E+00

         1   1 -1.426786E-10  4.280357E-11  4.280357E-11  4.038968E-28 -5.048710E-27  1.211690E-27
         1   2 -1.426786E-10  4.280357E-11  4.280357E-11  2.827277E-27 -1.797341E-26  2.019484E-27
         1   3 -1.426786E-10  4.280357E-11  4.280357E-11 -2.827277E-27 -3.231174E-27  7.270142E-27
         1   4 -1.426786E-10  4.280357E-11  4.280357E-11 -4.038968E-28 -1.777146E-26  7.875987E-27
         1   5 -1.426786E-10  4.280357E-11  4.280357E-11  8.077936E-28 -1.615587E-27 -4.442865E-27
         1   6 -1.426786E-10  4.280357E-11  4.280357E-11  1.211690E-26 -1.454028E-26  2.221432E-27
         1   7 -1.426786E-10  4.280357E-11  4.280357E-11 -2.996626E-37  1.615587E-27  1.615587E-27
         1   8 -1.426786E-10  4.280357E-11  4.280357E-11  1.130911E-26 -1.292470E-26  8.077936E-27
         2   1 -1.426786E-10  4.280357E-11  4.280357E-11  2.543304E-19  2.343893E-19  4.773737E-21
         2   2 -1.426786E-10  4.280357E-11  4.280357E-11  1.594627E-19 -2.399492E-19 -4.037719E-21
         2   3 -1.426786E-10  4.280357E-11  4.280357E-11  2.086500E-19  8.587510E-21  5.809986E-21
         2   4 -1.426786E-10  4.280357E-11  4.280357E-11  1.273348E-19 -1.540428E-19 -2.591961E-21
         2   5 -1.426786E-10  4.280357E-11  4.280357E-11  4.171705E-19  2.823337E-19  1.677958E-20
         2   6 -1.426786E-10  4.280357E-11  4.280357E-11  9.190989E-20  4.720690E-19 -1.651473E-20
         2   7 -1.426786E-10  4.280357E-11  4.280357E-11  3.720635E-19  3.204903E-20  1.781583E-20
         2   8 -1.426786E-10  4.280357E-11  4.280357E-11  1.010129E-19 -7.637119E-20 -1.506897E-20
         3   1 -1.426786E-10  4.280357E-11  4.280357E-11 -1.178215E-19 -2.305621E-19 -2.527680E-20
         3   2 -1.426786E-10  4.280357E-11  4.280357E-11  1.770381E-20  1.338341E-20  3.842329E-20
         3   3 -1.426786E-10  4.280357E-11  4.280357E-11 -1.435061E-19  3.489101E-20 -4.149808E-20
         3   4 -1.426786E-10  4.280357E-11  4.280357E-11  2.088596E-19  3.601517E-19  6.342163E-20
         3   5 -1.426786E-10  4.280357E-11  4.280357E-11 -4.219597E-19  2.740508E-19 -7.811303E-20
         3   6 -1.426786E-10  4.280357E-11  4.280357E-11  1.201414E-19  3.010527E-20  1.183993E-19
         3   7 -1.426786E-10  4.280357E-11  4.280357E-11 -3.899369E-19 -7.371467E-19 -9.433431E-20
         3   8 -1.426786E-10  4.280357E-11  4.280357E-11 -6.467626E-20  1.302150E-19  1.433977E-19

 displacements (vx,vy,vz) for set NALL and time  0.1837813E+00

         1  0.000000E+00  0.000000E+00  0.000000E+00
         2 -7.501275E-08  0.000000E+00  0.000000E+00
         3 -2.756719E+00  0.000000E+00  0.000000E+00
         4 -2.756719E+00  0.000000E+00  0.000000E+00
         5 -5.513437E+00  0.000000E+00  0.000000E+00
         6 -5.513438E+00  0.000000E+00  0.000000E+00
         7  0.000000E+00  2.250383E-08  0.000000E+00
         8 -7.501275E-08  2.250383E-08  0.000000E+00
         9 -2.756719E+00  2.250383E-08  0.000000E+00
        10 -2.756719E+00  2.250383E-08  0.000000E+00
        11 -5.513437E+00  2.250383E-08  0.000000E+00
        12 -5.513438E+00  2.250383E-08  0.000000E+00
        13  0.000000E+00  0.000000E+00  3.150536E-08
        14 -7.501275E-08  0.000000E+00  3.150536E-08
        15 -2.756719E+00  0.000000E+00  3.150536E-08
        16 -2.756719E+00  0.000000E+00  3.150536E-08
        17 -5.513437E+00  0.000000E+00  3.150536E-08
        18 -5.513438E+00  0.000000E+00  3.150536E-08
        19  0.000000E+00  2.250383E-08  3.150536E-08
        20 -7.501275E-08  2.250383E-08  3.150536E-08
        21 -2.756719E+00  2.250383E-08  3.150536E-08
        22 -2.756719E+00  2.250383E-08  3.150536E-08
        23 -5.513437E+00  2.250383E-08  3.150536E-08
        24 -5.513438E+00  2.250383E-08  3.150536E-08

 stresses (elem, integ.pnt.,sxx,syy,szz,sxy,sxz,syz) for set EALL and time  0.1837813E+00

         1   1 -3.150536E-05 -1.976414E-48  1.694066E-21 -6.198262E-22 -5.219589E-22  3.262243E-22
         1   2 -3.150536E-05  1.694066E-21  3.388132E-21 -2.968641E-21 -2.609795E-21 -2.446682E-22
         1   3 -3.150536E-05  6.746161E-48  6.324526E-48 -5.219589E-22  3.914692E-22  7.829384E-22
         1   4 -3.150536E-05 -1.138415E-47  1.694066E-21 -2.870774E-21  1.174408E-21 -5.545814E-22
         1   5 -3.150536E-05  1.054088E-49  6.746161E-48  1.017993E-31  2.609795E-22  6.524487E-23
         1   6 -3.150536E-05 -3.388132E-21 -4.416627E-47  2.609795E-21 -1.826856E-21 -4.730253E-22
         1   7 -3.150536E-05  4.722313E-47 -1.694066E-21 -1.043918E-21 -6.746161E-48  5.219589E-22
         1   8 -3.150536E-05 -3.388132E-21 -1.694066E-21  1.565877E-21  1.043918E-21 -7.829384E-22
         2   1 -3.150536E-05 -5.252099E-14 -4.238488E-14  1.175712E-14 -7.271509E-14 -6.861607E-18
         2   2 -3.150536E-05 -3.161677E-14 -4.825121E-14  5.554220E-14  1.704434E-14 -8.876524E-16
         2   3 -3.150536E-05 -6.771668E-14 -6.032746E-14  1.995354E-14 -3.574674E-14  1.897212E-15
         2   4 -3.150536E-05 -4.113288E-14 -5.294142E-14 -1.939005E-15 -7.186680E-16 -6.690892E-15
         2   5 -3.150536E-05  2.248661E-14  2.729130E-14 -3.597747E-14 -7.997948E-14 -1.929681E-15
         2   6 -3.150536E-05  5.624987E-15  5.239615E-15  3.407867E-14 -3.181588E-14  2.490477E-15
         2   7 -3.150536E-05 -5.844605E-15 -3.786800E-15 -3.857129E-14 -3.771018E-14 -2.560730E-17
         2   8 -3.150536E-05 -1.702665E-14 -1.258612E-14  4.024187E-14 -5.522421E-14 -3.312763E-15
         3   1 -3.150536E-05  3.414232E-14  2.450465E-14  1.336921E-13 -2.084411E-15 -5.109295E-15
         3   2 -3.150536E-05 -3.335033E-14 -1.604263E-14 -5.020530E-14  8.110726E-14  6.482672E-15
         3   3 -3.150536E-05 -1.067892E-14 -2.753612E-14  1.161517E-13  1.196700E-15 -1.401447E-14
         3   4 -3.150536E-05 -6.856711E-14 -4.567301E-14  7.236665E-14  1.871074E-14  2.028318E-14
         3   5 -3.150536E-05 -4.889962E-14 -3.360279E-14  5.214990E-15  2.199033E-13 -1.016297E-14
         3   6 -3.150536E-05 -5.134436E-15 -2.646815E-14 -2.981308E-14 -6.032123E-14  1.039315E-14
         3   7 -3.150536E-05 -1.331274E-13 -1.250501E-13  1.946261E-14 -6.558999E-14 -1.906815E-14
         3   8 -3.150536E-05 -7.975779E-14 -9.550510E-14 -3.307950E-14  3.949422E-14  2.419366E-14

 strains (elem, integ.pnt.,exx,eyy,ezz,exy,exz,eyz) forset EALL and time  0.1837813E+00

         1   1 -1.500255E-10  4.500765E-11  4.500765E-11 -3.837019E-27 -3.231174E-27  2.019484E-27
         1   2 -1.500255E-10  4.500765E-11  4.500765E-11 -1.837730E-26 -1.615587E-26 -1.514613E-27
         1   3 -1.500255E-10  4.500765E-11  4.500765E-11 -3.231174E-27  2.423381E-27  4.846761E-27
         1   4 -1.500255E-10  4.500765E-11  4.500765E-11 -1.777146E-26  7.270142E-27 -3.433123E-27
         1   5 -1.500255E-10  4.500765E-11  4.500765E-11 -6.301861E-37  1.615587E-27  4.038968E-28
         1   6 -1.500255E-10  4.500765E-11  4.500765E-11  1.615587E-26 -1.130911E-26 -2.928252E-27
         1   7 -1.500255E-10  4.500765E-11  4.500765E-11 -6.462349E-27 -6.264292E-53  3.231174E-27
         1   8 -1.500255E-10  4.500765E-11  4.500765E-11  9.693523E-27  6.462349E-27 -4.846761E-27
         2   1 -1.500255E-10  4.500765E-11  4.500765E-11  7.278215E-20 -4.501410E-19 -4.247661E-23
         2   2 -1.500255E-10  4.500765E-11  4.500765E-11  3.438327E-19  1.055126E-19 -5.494991E-21
         2   3 -1.500255E-10  4.500765E-11  4.500765E-11  1.235219E-19 -2.212893E-19  1.174465E-20
         2   4 -1.500255E-10  4.500765E-11  4.500765E-11 -1.200336E-20 -4.448897E-21 -4.141981E-20
         2   5 -1.500255E-10  4.500765E-11  4.500765E-11 -2.227177E-19 -4.951110E-19 -1.194564E-20
         2   6 -1.500255E-10  4.500765E-11  4.500765E-11  2.109632E-19 -1.969554E-19  1.541724E-20
         2   7 -1.500255E-10  4.500765E-11  4.500765E-11 -2.387747E-19 -2.334439E-19 -1.585214E-22
         2   8 -1.500255E-10  4.500765E-11  4.500765E-11  2.491163E-19 -3.418642E-19 -2.050758E-20
         3   1 -1.500255E-10  4.500765E-11  4.500765E-11  8.276176E-19 -1.290349E-20 -3.162897E-20
         3   2 -1.500255E-10  4.500765E-11  4.500765E-11 -3.107947E-19  5.020925E-19  4.013082E-20
         3   3 -1.500255E-10  4.500765E-11  4.500765E-11  7.190346E-19  7.408146E-21 -8.675624E-20
         3   4 -1.500255E-10  4.500765E-11  4.500765E-11  4.479840E-19  1.158284E-19  1.255625E-19
         3   5 -1.500255E-10  4.500765E-11  4.500765E-11  3.228327E-20  1.361306E-18 -6.291365E-20
         3   6 -1.500255E-10  4.500765E-11  4.500765E-11 -1.845572E-19 -3.734171E-19  6.433858E-20
         3   7 -1.500255E-10  4.500765E-11  4.500765E-11  1.204828E-19 -4.060333E-19 -1.180409E-19
         3   8 -1.500255E-10  4.500765E-11  4.500765E-11 -2.047778E-19  2.444880E-19  1.497703E-19

 displacements (vx,vy,vz) for set NALL and time  0.1927813E+00

         1  0.000000E+00  0.000000E+00  0.000000E+00
         2 -7.868622E-08  0.000000E+00  0.000000E+00
         3 -2.891719E+00  0.000000E+00  0.000000E+00
         4 -2.891719E+00  0.000000E+00  0.000000E+00
         5 -5.783437E+00  0.000000E+00  0.000000E+00
         6 -5.783438E+00  0.000000E+00  0.000000E+00
         7  0.000000E+00  2.360587E-08  0.000000E+00
         8 -7.868622E-08  2.360587E-08  0.000000E+00
         9 -2.891719E+00  2.360587E-08  0.000000E+00
        10 -2.891719E+00  2.360587E-08  0.000000E+00
        11 -5.783437E+00  2.360587E-08  0.000000E+00
        12 -5.783438E+00  2.360587E-08  0.000000E+00
        13  0.000000E+00  0.000000E+00  3.304821E-08
        14 -7.868622E-08  0.000000E+00  3.304821E-08
        15 -2.891719E+00  0.000000E+00  3.304821E-08
        16 -2.891719E+00  0.000000E+00  3.304821E-08
        17 -5.783437E+00  0.000000E+00  3.304821E-08
        18 -5.783438E+00  0.000000E+00  3.304821E-08
        19  0.000000E+00  2.360587E-08  3.304821E-08
        20 -7.868622E-08  2.360587E-08  3.304821E-08
        21 -2.891719E+00  2.360587E-08  3.304821E-08
        22 -2.891719E+00  2.360587E-08  3.304821E-08
        23 -5.783437E+00  2.360587E-08  3.304821E-08
        24 -5.783438E+00  2.360587E-08  3.304821E-08

 stresses (elem, integ.pnt.,sxx,syy,szz,sxy,sxz,syz) for set EALL and time  0.1927813E+00

         1   1 -3.304821E-05 -1.694066E-21 -1.694066E-21  1.067845E-31  2.609795E-22 -1.304897E-22
         1   2 -3.304821E-05 -5.082198E-21 -1.694066E-21  2.609795E-21  2.544550E-21 -6.524487E-23
         1   3 -3.304821E-05  5.082198E-21  1.694066E-21 -1.565877E-21 -2.609795E-22 -1.304897E-21
         1   4 -3.304821E-05  1.694066E-21  1.694066E-21  1.043918E-21  7.829384E-22 -3.588468E-22
         1   5 -3.304821E-05  1.694066E-21  5.082198E-21 -1.304897E-22  6.524487E-23  6.524487E-22
         1   6 -3.304821E-05 -1.027735E-48  3.388132E-21 -1.304897E-22  2.348815E-21  3.588468E-22
         1   7 -3.304821E-05  5.082198E-21  5.082198E-21 -5.219589E-22 -2.609795E-22 -7.829384E-22
         1   8 -3.304821E-05  3.388132E-21  3.388132E-21  5.219589E-22  5.219589E-22  6.524487E-23
         2   1 -3.304821E-05  1.610242E-14  7.482323E-15 -1.790659E-15  2.073514E-14 -8.671765E-16
         2   2 -3.304821E-05  8.408628E-15  2.214461E-14  2.885890E-14 -5.369951E-14 -9.385600E-16
         2   3 -3.304821E-05  3.501581E-14  2.534250E-14 -6.682831E-15  3.670752E-14 -2.499103E-15
         2   4 -3.304821E-05  2.280929E-14  2.947511E-14  2.396673E-14  4.546454E-14  1.446362E-15
         2   5 -3.304821E-05 -2.473283E-14 -2.878353E-14  1.053519E-13  2.953535E-14 -1.604421E-15
         2   6 -3.304821E-05 -1.274407E-14 -5.685873E-15 -8.489301E-15 -4.927780E-14 -5.887676E-15
         2   7 -3.304821E-05 -2.552273E-14 -3.062665E-14  1.060833E-13  6.267795E-15 -3.236348E-15
         2   8 -3.304821E-05 -1.804669E-14 -1.805866E-14  9.991327E-16  2.378183E-14 -3.502753E-15
         3   1 -3.304821E-05  1.750250E-14  6.602835E-15  1.261160E-14 -7.606731E-14 -4.459328E-16
         3   2 -3.304821E-05 -4.697135E-14 -5.454479E-14  9.142476E-14  7.718049E-14  1.630432E-15
         3   3 -3.304821E-05  5.997837E-14  7.068513E-14 -7.821029E-16  5.695546E-14 -1.678874E-14
         3   4 -3.304821E-05 -2.524785E-14 -3.888470E-14  1.673193E-14  9.198353E-14  1.032924E-14
         3   5 -3.304821E-05  1.623589E-14  5.109609E-14 -1.321825E-13 -4.919965E-15  1.467857E-14
         3   6 -3.304821E-05  7.446598E-14  4.253587E-14 -2.709829E-14 -5.414560E-16 -2.613955E-15
         3   7 -3.304821E-05  6.169659E-15  6.263629E-14 -1.105179E-13 -4.889239E-14 -1.664243E-15
         3   8 -3.304821E-05  4.364737E-14  5.653852E-15  4.710838E-14  3.649716E-15  6.084855E-15

 strains (elem, integ.pnt.,exx,eyy,ezz,exy,exz,eyz) forset EALL and time  0.1927813E+00

         1   1 -1.573724E-10  4.721173E-11  4.721173E-11 -6.610471E-37  1.615587E-27 -8.077936E-28
         1   2 -1.573724E-10  4.721173E-11  4.721173E-11  1.615587E-26  1.575197E-26 -4.038968E-28
         1   3 -1.573724E-10  4.721173E-11  4.721173E-11 -9.693523E-27 -1.615587E-27 -8.077936E-27
         1   4 -1.573724E-10  4.721173E-11  4.721173E-11  6.462349E-27  4.846761E-27 -2.221432E-27
         1   5 -1.573724E-10  4.721173E-11  4.721173E-11 -8.077936E-28  4.038968E-28  4.038968E-27
         1   6 -1.573724E-10  4.721173E-11  4.721173E-11 -8.077936E-28  1.454028E-26  2.221432E-27
         1   7 -1.573724E-10  4.721173E-11  4.721173E-11 -3.231174E-27 -1.615587E-27 -4.846761E-27
         1   8 -1.573724E-10  4.721173E-11  4.721173E-11  3.231174E-27  3.231174E-27  4.038968E-28
         2   1 -1.573724E-10  4.721173E-11  4.721173E-11 -1.108503E-20  1.283604E-19 -5.368236E-21
         2   2 -1.573724E-10  4.721173E-11  4.721173E-11  1.786503E-19 -3.324255E-19 -5.810133E-21
         2   3 -1.573724E-10  4.721173E-11  4.721173E-11 -4.136991E-20  2.272370E-19 -1.547064E-20
         2   4 -1.573724E-10  4.721173E-11  4.721173E-11  1.483655E-19  2.814471E-19  8.953671E-21
         2   5 -1.573724E-10  4.721173E-11  4.721173E-11  6.521786E-19  1.828379E-19 -9.932131E-21
         2   6 -1.573724E-10  4.721173E-11  4.721173E-11 -5.255281E-20 -3.050531E-19 -3.644752E-20
         2   7 -1.573724E-10  4.721173E-11  4.721173E-11  6.567064E-19  3.880064E-20 -2.003453E-20
         2   8 -1.573724E-10  4.721173E-11  4.721173E-11  6.185107E-21  1.472209E-19 -2.168371E-20
         3   1 -1.573724E-10  4.721173E-11  4.721173E-11  7.807181E-20 -4.708929E-19 -2.760536E-21
         3   2 -1.573724E-10  4.721173E-11  4.721173E-11  5.659628E-19  4.777840E-19  1.009315E-20
         3   3 -1.573724E-10  4.721173E-11  4.721173E-11 -4.841589E-21  3.525814E-19 -1.039303E-19
         3   4 -1.573724E-10  4.721173E-11  4.721173E-11  1.035786E-19  5.694219E-19  6.394293E-20
         3   5 -1.573724E-10  4.721173E-11  4.721173E-11 -8.182726E-19 -3.045693E-20  9.086731E-20
         3   6 -1.573724E-10  4.721173E-11  4.721173E-11 -1.677513E-19 -3.351871E-21 -1.618163E-20
         3   7 -1.573724E-10  4.721173E-11  4.721173E-11 -6.841586E-19 -3.026672E-19 -1.030246E-20
         3   8 -1.573724E-10  4.721173E-11  4.721173E-11  2.916233E-19  2.259348E-20  3.766815E-20

 displacements (vx,vy,vz) for set NALL and time  0.2017813E+00

         1  0.000000E+00  0.000000E+00  0.000000E+00
         2 -8.235969E-08  0.000000E+00  0.000000E+00
         3 -3.026719E+00  0.000000E+00  0.000000E+00
         4 -3.026719E+00  0.000000E+00  0.000000E+00
         5 -6.053437E+00  0.000000E+00  0.000000E+00
         6 -6.053438E+00  0.000000E+00  0.000000E+00
         7  0.000000E+00  2.470791E-08  0.000000E+00
         8 -8.235969E-08  2.470791E-08  0.000000E+00
         9 -3.026719E+00  2.470791E-08  0.000000E+00
        10 -3.026719E+00  2.470791E-08  0.000000E+00
        11 -6.053437E+00  2.470791E-08  0.000000E+00
        12 -6.053438E+00  2.470791E-08  0.000000E+00
        13  0.000000E+00  0.000000E+00  3.459107E-08
        14 -8.235969E-08  0.000000E+00  3.459107E-08
        15 -3.026719E+00  0.000000E+00  3.459107E-08
        16 -3.026719E+00  0.000000E+00  3.459107E-08
        17 -6.053437E+00  0.000000E+00  3.459107E-08
        18 -6.053438E+00  0.000000E+00  3.459107E-08
        19  0.000000E+00  2.470791E-08  3.459107E-08
        20 -8.235969E-08  2.470791E-08  3.459107E-08
        21 -3.026719E+00  2.470791E-08  3.459107E-08
        22 -3.026719E+00  2.470791E-08  3.459107E-08
        23 -6.053437E+00  2.470791E-08  3.459107E-08
        24 -6.053438E+00  2.470791E-08  3.459107E-08

 stresses (elem, integ.pnt.,sxx,syy,szz,sxy,sxz,syz) for set EALL and time  0.2017813E+00

         1   1 -3.459107E-05 -1.694066E-21 -3.388132E-21 -2.936019E-22 -3.262243E-23  2.526094E-48
         1   2 -3.459107E-05  1.694066E-21 -1.694066E-21 -8.155608E-22 -4.893365E-22 -5.056477E-22
         1   3 -3.459107E-05  9.697606E-48 -3.388132E-21  3.914692E-22  5.219589E-22 -1.304897E-22
         1   4 -3.459107E-05  3.388132E-21 -1.328150E-47 -1.304897E-22  2.870774E-21 -1.631122E-21
         1   5 -3.459107E-05 -1.694066E-21 -1.694066E-21  3.914692E-22  6.524486E-23  1.435387E-21
         1   6 -3.459107E-05 -1.694066E-21 -1.694066E-21  3.001264E-21 -3.914692E-22 -7.666272E-22
         1   7 -3.459107E-05  6.776264E-21  6.776264E-21  1.117698E-31 -5.219589E-22  1.043918E-21
         1   8 -3.459107E-05  5.082198E-21  5.082198E-21  2.609795E-21  1.565877E-21 -1.892101E-21
         2   1 -3.459107E-05  3.984164E-14  3.111952E-14 -6.547472E-16  2.305260E-15 -8.438708E-16
         2   2 -3.459107E-05  4.032879E-14  4.418154E-14 -1.816878E-14 -4.262503E-15  2.652058E-16
         2   3 -3.459107E-05  7.413171E-14  6.734457E-14 -2.443550E-15 -3.325455E-14 -4.503864E-15
         2   4 -3.459107E-05  7.306234E-14  7.677472E-14  1.934958E-15 -6.983500E-15  1.088014E-15
         2   5 -3.459107E-05  2.847544E-14  3.000130E-14 -3.338567E-14  8.603348E-15  5.106254E-16
         2   6 -3.459107E-05  5.092832E-14  5.247720E-14 -1.587164E-14 -3.737099E-14  1.669535E-16
         2   7 -3.459107E-05  3.655637E-15  7.116488E-15 -2.889855E-14  4.164693E-14 -3.149368E-15
         2   8 -3.459107E-05  2.455199E-14  2.596052E-14  6.129520E-15 -2.840921E-14  9.897620E-16
         3   1 -3.459107E-05 -9.175300E-15 -9.645215E-15  6.126828E-14 -4.424185E-14 -7.550661E-15
         3   2 -3.459107E-05 -1.201769E-13 -1.085898E-13 -9.635803E-14 -5.737737E-14  6.357665E-15
         3   3 -3.459107E-05  1.180337E-13  1.120355E-13  3.725940E-14  1.310168E-13 -2.430964E-14
         3   4 -3.459107E-05  7.378509E-15  1.389916E-14  3.725940E-14 -1.492077E-13  2.727365E-14
         3   5 -3.459107E-05 -1.248112E-14  3.397410E-14  8.057427E-14  6.417858E-16 -1.142047E-14
         3   6 -3.459107E-05  6.112457E-14  1.414693E-14 -5.953801E-14  8.383345E-14  2.811145E-15
         3   7 -3.459107E-05 -6.916946E-14 -2.824255E-14 -1.709142E-13 -1.040008E-13 -2.817945E-14
         3   8 -3.459107E-05  4.782626E-15 -4.726148E-14  7.428227E-14  1.236817E-13  2.372713E-14

 strains (elem, integ.pnt.,exx,eyy,ezz,exy,exz,eyz) forset EALL and time  0.2017813E+00

         1   1 -1.647194E-10  4.941581E-11  4.941581E-11 -1.817536E-27 -2.019484E-28  0.000000E+00
         1   2 -1.647194E-10  4.941581E-11  4.941581E-11 -5.048710E-27 -3.029226E-27 -3.130200E-27
         1   3 -1.647194E-10  4.941581E-11  4.941581E-11  2.423381E-27  3.231174E-27 -8.077936E-28
         1   4 -1.647194E-10  4.941581E-11  4.941581E-11 -8.077936E-28  1.777146E-26 -1.009742E-26
         1   5 -1.647194E-10  4.941581E-11  4.941581E-11  2.423381E-27  4.038968E-28  8.885729E-27
         1   6 -1.647194E-10  4.941581E-11  4.941581E-11  1.857925E-26 -2.423381E-27 -4.745787E-27
         1   7 -1.647194E-10  4.941581E-11  4.941581E-11 -6.919081E-37 -3.231174E-27  6.462349E-27
         1   8 -1.647194E-10  4.941581E-11  4.941581E-11  1.615587E-26  9.693523E-27 -1.171301E-26
         2   1 -1.647194E-10  4.941581E-11  4.941581E-11 -4.053197E-21  1.427066E-20 -5.223962E-21
         2   2 -1.647194E-10  4.941581E-11  4.941581E-11 -1.124734E-19 -2.638692E-20  1.641750E-21
         2   3 -1.647194E-10  4.941581E-11  4.941581E-11 -1.512674E-20 -2.058615E-19 -2.788106E-20
         2   4 -1.647194E-10  4.941581E-11  4.941581E-11  1.197831E-20 -4.323119E-20  6.735328E-21
         2   5 -1.647194E-10  4.941581E-11  4.941581E-11 -2.066732E-19  5.325882E-20  3.161015E-21
         2   6 -1.647194E-10  4.941581E-11  4.941581E-11 -9.825298E-20 -2.313443E-19  1.033522E-21
         2   7 -1.647194E-10  4.941581E-11  4.941581E-11 -1.788958E-19  2.578143E-19 -1.949609E-20
         2   8 -1.647194E-10  4.941581E-11  4.941581E-11  3.794465E-20 -1.758666E-19  6.127098E-21
         3   1 -1.647194E-10  4.941581E-11  4.941581E-11  3.792798E-19 -2.738781E-19 -4.674219E-20
         3   2 -1.647194E-10  4.941581E-11  4.941581E-11 -5.965021E-19 -3.551933E-19  3.935698E-20
         3   3 -1.647194E-10  4.941581E-11  4.941581E-11  2.306535E-19  8.110566E-19 -1.504882E-19
         3   4 -1.647194E-10  4.941581E-11  4.941581E-11  2.306535E-19 -9.236669E-19  1.688369E-19
         3   5 -1.647194E-10  4.941581E-11  4.941581E-11  4.987931E-19  3.972960E-21 -7.069817E-20
         3   6 -1.647194E-10  4.941581E-11  4.941581E-11 -3.685686E-19  5.189690E-19  1.740232E-20
         3   7 -1.647194E-10  4.941581E-11  4.941581E-11 -1.058040E-18 -6.438145E-19 -1.744442E-19
         3   8 -1.647194E-10  4.941581E-11  4.941581E-11  4.598426E-19  7.656484E-19  1.468822E-19

 displacements (vx,vy,vz) for set NALL and time  0.2107813E+00

         1  0.000000E+00  0.000000E+00  0.000000E+00
         2 -8.603316E-08  0.000000E+00  0.000000E+00
         3 -3.161719E+00  0.000000E+00  0.000000E+00
         4 -3.161719E+00  0.000000E+00  0.000000E+00
         5 -6.323437E+00  0.000000E+00  0.000000E+00
         6 -6.323438E+00  0.000000E+00  0.000000E+00
         7  0.000000E+00  2.580995E-08  0.000000E+00
         8 -8.603316E-08  2.580995E-08  0.000000E+00
         9 -3.161719E+00  2.580995E-08  0.000000E+00
        10 -3.161719E+00  2.580995E-08  0.000000E+00
        11 -6.323437E+00  2.580995E-08  0.000000E+00
        12 -6.323438E+00  2.580995E-08  0.000000E+00
        13  0.000000E+00  0.000000E+00  3.613393E-08
        14 -8.603316E-08  0.000000E+00  3.613393E-08
        15 -3.161719E+00  0.000000E+00  3.613393E-08
        16 -3.161719E+00  0.000000E+00  3.613393E-08
        17 -6.323437E+00  0.000000E+00  3.613393E-08
        18 -6.323438E+00  0.000000E+00  3.613393E-08
        19  0.000000E+00  2.580995E-08  3.613393E-08
        20 -8.603316E-08  2.580995E-08  3.613393E-08
        21 -3.161719E+00  2.580995E-08  3.613393E-08
        22 -3.161719E+00  2.580995E-08  3.613393E-08
        23 -6.323437E+00  2.580995E-08  3.613393E-08
        24 -6.323438E+00  2.580995E-08  3.613393E-08

 stresses (elem, integ.pnt.,sxx,syy,szz,sxy,sxz,syz) for set EALL and time  0.2107813E+00

         1   1 -3.613393E-05 -1.694066E-21 -1.694066E-21  6.198262E-22 -2.609795E-22  6.524487E-23
         1   2 -3.613393E-05 -6.776264E-21 -3.388132E-21  5.578436E-21 -1.957346E-21  4.730253E-22
         1   3 -3.613393E-05  3.388132E-21  3.388132E-21 -7.829384E-22 -7.829384E-22  5.219589E-22
         1   4 -3.613393E-05  5.082198E-21  6.776264E-21  4.175671E-21 -3.653712E-21  1.304897E-21
         1   5 -3.613393E-05 -5.082198E-21 -8.470329E-21 -1.304897E-22  3.914692E-22 -4.567141E-22
         1   6 -3.613393E-05 -8.470329E-21 -6.776264E-21  9.134281E-22 -1.304897E-21  1.582188E-21
         1   7 -3.613393E-05  1.694066E-21 -3.388132E-21 -1.043918E-21  1.304897E-21 -2.609795E-22
         1   8 -3.613393E-05  7.410236E-47 -1.694066E-21  2.335100E-31 -1.565877E-21  2.414060E-21
         2   1 -3.613393E-05 -2.008819E-14 -4.187063E-14 -1.956497E-14 -1.205873E-14  2.368210E-15
         2   2 -3.613393E-05 -2.373085E-14 -1.301507E-14  1.984161E-14  5.142965E-14 -1.831356E-17
         2   3 -3.613393E-05  1.534884E-14  5.787710E-15 -2.516824E-14  3.769262E-14  2.833635E-16
         2   4 -3.613393E-05  3.537086E-15  1.558204E-14  3.613089E-14 -4.987756E-14 -9.987692E-16
         2   5 -3.613393E-05 -4.032883E-15 -1.997775E-14 -7.154115E-14  2.845454E-15  1.092313E-14
         2   6 -3.613393E-05 -2.264026E-15  1.119703E-14  6.857113E-14 -4.531814E-14  9.121088E-16
         2   7 -3.613393E-05  5.133098E-15  1.409539E-15 -7.559826E-14 -2.508383E-14  8.838280E-15
         2   8 -3.613393E-05 -1.267148E-15  1.352308E-14  8.202805E-14  3.621529E-14 -6.834674E-17
         3   1 -3.613393E-05  1.038528E-13  6.670714E-14  3.322833E-14 -1.542380E-13  1.278681E-14
         3   2 -3.613393E-05  1.478286E-13  2.020972E-13  1.032845E-13 -1.367240E-13 -4.091001E-15
         3   3 -3.613393E-05 -1.140884E-13 -1.090556E-13  2.831134E-14 -1.380300E-13  1.819613E-14
         3   4 -3.613393E-05 -1.252025E-13 -1.022087E-13  4.582538E-14  1.246806E-13  6.624503E-15
         3   5 -3.613393E-05  1.960361E-13  1.437444E-13  9.193330E-16 -4.458972E-14  4.231169E-14
         3   6 -3.613393E-05  2.660122E-13  2.902774E-13  1.060035E-13  1.670940E-14 -2.598333E-14
         3   7 -3.613393E-05  2.276699E-13  2.175566E-13  3.430998E-15 -1.323410E-13  4.772102E-14
         3   8 -3.613393E-05  2.425561E-13  2.355465E-13  3.845907E-14  7.782745E-14 -1.526783E-14

 strains (elem, integ.pnt.,exx,eyy,ezz,exy,exz,eyz) forset EALL and time  0.2107813E+00

         1   1 -1.720663E-10  5.161990E-11  5.161990E-11  3.837019E-27 -1.615587E-27  4.038968E-28
         1   2 -1.720663E-10  5.161990E-11  5.161990E-11  3.453317E-26 -1.211690E-26  2.928252E-27
         1   3 -1.720663E-10  5.161990E-11  5.161990E-11 -4.846761E-27 -4.846761E-27  3.231174E-27
         1   4 -1.720663E-10  5.161990E-11  5.161990E-11  2.584939E-26 -2.261822E-26  8.077936E-27
         1   5 -1.720663E-10  5.161990E-11  5.161990E-11 -8.077936E-28  2.423381E-27 -2.827277E-27
         1   6 -1.720663E-10  5.161990E-11  5.161990E-11  5.654555E-27 -8.077936E-27  9.794497E-27
         1   7 -1.720663E-10  5.161990E-11  5.161990E-11 -6.462349E-27  8.077936E-27 -1.615587E-27
         1   8 -1.720663E-10  5.161990E-11  5.161990E-11 -1.445538E-36 -9.693523E-27  1.494418E-26
         2   1 -1.720663E-10  5.161990E-11  5.161990E-11 -1.211165E-19 -7.464926E-20  1.466035E-20
         2   2 -1.720663E-10  5.161990E-11  5.161990E-11  1.228290E-19  3.183740E-19 -1.133697E-22
         2   3 -1.720663E-10  5.161990E-11  5.161990E-11 -1.558034E-19  2.333353E-19  1.754155E-21
         2   4 -1.720663E-10  5.161990E-11  5.161990E-11  2.236674E-19 -3.087658E-19 -6.182857E-21
         2   5 -1.720663E-10  5.161990E-11  5.161990E-11 -4.428738E-19  1.761472E-20  6.761936E-20
         2   6 -1.720663E-10  5.161990E-11  5.161990E-11  4.244880E-19 -2.805409E-19  5.646388E-21
         2   7 -1.720663E-10  5.161990E-11  5.161990E-11 -4.679893E-19 -1.552809E-19  5.471316E-20
         2   8 -1.720663E-10  5.161990E-11  5.161990E-11  5.077927E-19  2.241899E-19 -4.230988E-22
         3   1 -1.720663E-10  5.161990E-11  5.161990E-11  2.056992E-19 -9.548068E-19  7.915644E-20
         3   2 -1.720663E-10  5.161990E-11  5.161990E-11  6.393800E-19 -8.463866E-19 -2.532525E-20
         3   3 -1.720663E-10  5.161990E-11  5.161990E-11  1.752607E-19 -8.544712E-19  1.126427E-19
         3   4 -1.720663E-10  5.161990E-11  5.161990E-11  2.836809E-19  7.718320E-19  4.100883E-20
         3   5 -1.720663E-10  5.161990E-11  5.161990E-11  5.691109E-21 -2.760316E-19  2.619295E-19
         3   6 -1.720663E-10  5.161990E-11  5.161990E-11  6.562124E-19  1.034392E-19 -1.608492E-19
         3   7 -1.720663E-10  5.161990E-11  5.161990E-11  2.123951E-20 -8.192537E-19  2.954158E-19
         3   8 -1.720663E-10  5.161990E-11  5.161990E-11  2.380799E-19  4.817890E-19 -9.451511E-20

 displacements (vx,vy,vz) for set NALL and time  0.2197813E+00

         1  0.000000E+00  0.000000E+00  0.000000E+00
         2 -8.970663E-08  0.000000E+00  0.000000E+00
         3 -3.296719E+00  0.000000E+00  0.000000E+00
         4 -3.296719E+00  0.000000E+00  0.000000E+00
         5 -6.593437E+00  0.000000E+00  0.000000E+00
         6 -6.593438E+00  0.000000E+00  0.000000E+00
         7  0.000000E+00  2.691199E-08  0.000000E+00
         8 -8.970663E-08  2.691199E-08  0.000000E+00
         9 -3.296719E+00  2.691199E-08  0.000000E+00
        10 -3.296719E+00  2.691199E-08  0.000000E+00
        11 -6.593437E+00  2.691199E-08  0.000000E+00
        12 -6.593438E+00  2.691199E-08  0.000000E+00
        13  0.000000E+00  0.000000E+00  3.767678E-08
        14 -8.970663E-08  0.000000E+00  3.767678E-08
        15 -3.296719E+00  0.000000E+00  3.767678E-08
        16 -3.296719E+00  0.000000E+00  3.767678E-08
        17 -6.593437E+00  0.000000E+00  3.767678E-08
        18 -6.593438E+00  0.000000E+00  3.767678E-08
        19  0.000000E+00  2.691199E-08  3.767678E-08
        20 -8.970663E-08  2.691199E-08  3.767678E-08
        21 -3.296719E+00  2.691199E-08  3.767678E-08
        22 -3.296719E+00  2.691199E-08  3.767678E-08
        23 -6.593437E+00  2.691199E-08  3.767678E-08
        24 -6.593438E+00  2.691199E-08  3.767678E-08

 stresses (elem, integ.pnt.,sxx,syy,szz,sxy,sxz,syz) for set EALL and time  0.2197813E+00

         1   1 -3.767678E-05  1.694066E-21 -6.719809E-48 -4.240916E-22 -4.893365E-22  1.957346E-22
         1   2 -3.767678E-05  3.388132E-21  3.388132E-21 -3.555845E-21 -2.055213E-21  1.304897E-22
         1   3 -3.767678E-05  3.388132E-21  1.694066E-21 -6.524487E-22 -2.609795E-22  5.219589E-22
         1   4 -3.767678E-05  5.082198E-21  5.082198E-21 -3.784202E-21 -2.870774E-21  1.370142E-21
         1   5 -3.767678E-05 -1.694066E-21 -3.388132E-21 -6.524487E-22  1.174408E-21  1.957346E-22
         1   6 -3.767678E-05  1.694066E-21  1.694066E-21 -1.696366E-21 -3.914692E-22 -1.043918E-21
         1   7 -3.767678E-05 -1.694066E-21 -5.082198E-21  5.219589E-22  7.829384E-22  7.829384E-22
         1   8 -3.767678E-05  1.694066E-21 -6.767243E-47 -5.219589E-22 -1.565877E-21  1.957346E-22
         2   1 -3.767678E-05  5.354470E-14  4.211747E-14 -1.342245E-15  6.997975E-14  3.218626E-15
         2   2 -3.767678E-05  4.048630E-14  3.609508E-14  1.179328E-14 -6.794328E-14 -2.129933E-15
         2   3 -3.767678E-05  4.407477E-14  5.504903E-14 -5.009328E-15  2.693166E-14 -3.668971E-15
         2   4 -3.767678E-05  7.540201E-15 -5.751083E-15  3.001874E-14  9.417628E-15 -1.718975E-15
         2   5 -3.767678E-05 -3.274662E-14 -2.488859E-14 -6.765835E-14  6.977104E-14  1.889967E-14
         2   6 -3.767678E-05 -1.004211E-14 -1.558402E-14  1.991183E-14  3.255372E-14 -8.359975E-15
         2   7 -3.767678E-05  3.659660E-14  6.685613E-14 -1.311636E-13 -3.021620E-14  1.201207E-14
         2   8 -3.767678E-05  3.582495E-14  2.138298E-14  4.397676E-14 -8.275831E-14 -7.949016E-15
         3   1 -3.767678E-05  1.369295E-13  1.795842E-13  4.556240E-14 -6.236055E-14  8.394678E-15
         3   2 -3.767678E-05  2.089202E-13  1.556935E-13 -5.952181E-14 -9.818448E-15 -5.404512E-15
         3   3 -3.767678E-05  1.238590E-13  1.841143E-13  7.434274E-14  1.250849E-13  1.900890E-14
         3   4 -3.767678E-05  1.806021E-13  1.246460E-13  9.185677E-14 -1.502737E-14 -1.825933E-14
         3   5 -3.767678E-05  1.101261E-13  1.230609E-13 -1.416043E-13 -1.912891E-14  2.071514E-14
         3   6 -3.767678E-05  6.711839E-14  4.988519E-14 -3.652011E-14  4.654872E-14 -7.315094E-15
         3   7 -3.767678E-05  1.758687E-13  2.064042E-13 -1.456806E-13  1.540855E-13  3.132936E-14
         3   8 -3.767678E-05  1.176134E-13  9.765084E-14  2.945971E-14  3.148726E-14 -2.016991E-14

 strains (elem, integ.pnt.,exx,eyy,ezz,exy,exz,eyz) forset EALL and time  0.2197813E+00

         1   1 -1.794133E-10  5.382398E-11  5.382398E-11 -2.625329E-27 -3.029226E-27  1.211690E-27
         1   2 -1.794133E-10  5.382398E-11  5.382398E-11 -2.201237E-26 -1.272275E-26  8.077936E-28
         1   3 -1.794133E-10  5.382398E-11  5.382398E-11 -4.038968E-27 -1.615587E-27  3.231174E-27
         1   4 -1.794133E-10  5.382398E-11  5.382398E-11 -2.342601E-26 -1.777146E-26  8.481832E-27
         1   5 -1.794133E-10  5.382398E-11  5.382398E-11 -4.038968E-27  7.270142E-27  1.211690E-27
         1   6 -1.794133E-10  5.382398E-11  5.382398E-11 -1.050132E-26 -2.423381E-27 -6.462349E-27
         1   7 -1.794133E-10  5.382398E-11  5.382398E-11  3.231174E-27  4.846761E-27  4.846761E-27
         1   8 -1.794133E-10  5.382398E-11  5.382398E-11 -3.231174E-27 -9.693523E-27  1.211690E-27
         2   1 -1.794133E-10  5.382398E-11  5.382398E-11 -8.309137E-21  4.332080E-19  1.992483E-20
         2   2 -1.794133E-10  5.382398E-11  5.382398E-11  7.300603E-20 -4.206012E-19 -1.318530E-20
         2   3 -1.794133E-10  5.382398E-11  5.382398E-11 -3.101012E-20  1.667198E-19 -2.271268E-20
         2   4 -1.794133E-10  5.382398E-11  5.382398E-11  1.858303E-19  5.829960E-20 -1.064127E-20
         2   5 -1.794133E-10  5.382398E-11  5.382398E-11 -4.188374E-19  4.319160E-19  1.169980E-19
         2   6 -1.794133E-10  5.382398E-11  5.382398E-11  1.232637E-19  2.015230E-19 -5.175222E-20
         2   7 -1.794133E-10  5.382398E-11  5.382398E-11 -8.119651E-19 -1.870527E-19  7.436046E-20
         2   8 -1.794133E-10  5.382398E-11  5.382398E-11  2.722371E-19 -5.123133E-19 -4.920820E-20
         3   1 -1.794133E-10  5.382398E-11  5.382398E-11  2.820530E-19 -3.860415E-19  5.196705E-20
         3   2 -1.794133E-10  5.382398E-11  5.382398E-11 -3.684683E-19 -6.078087E-20 -3.345650E-20
         3   3 -1.794133E-10  5.382398E-11  5.382398E-11  4.602169E-19  7.743351E-19  1.176741E-19
         3   4 -1.794133E-10  5.382398E-11  5.382398E-11  5.686372E-19 -9.302659E-20 -1.130340E-19
         3   5 -1.794133E-10  5.382398E-11  5.382398E-11 -8.765982E-19 -1.184171E-19  1.282366E-19
         3   6 -1.794133E-10  5.382398E-11  5.382398E-11 -2.260769E-19  2.881587E-19 -4.528391E-20
         3   7 -1.794133E-10  5.382398E-11  5.382398E-11 -9.018326E-19  9.538627E-19  1.939437E-19
         3   8 -1.794133E-10  5.382398E-11  5.382398E-11  1.823696E-19  1.949211E-19 -1.248614E-19

 displacements (vx,vy,vz) for set NALL and time  0.2287813E+00

         1  0.000000E+00  0.000000E+00  0.000000E+00
         2 -9.338010E-08  0.000000E+00  0.000000E+00
         3 -3.431719E+00  0.000000E+00  0.000000E+00
         4 -3.431719E+00  0.000000E+00  0.000000E+00
         5 -6.863437E+00  0.000000E+00  0.000000E+00
         6 -6.863438E+00  0.000000E+00  0.000000E+00
         7  0.000000E+00  2.801403E-08  0.000000E+00
         8 -9.338010E-08  2.801403E-08  0.000000E+00
         9 -3.431719E+00  2.801403E-08  0.000000E+00
        10 -3.431719E+00  2.801403E-08  0.000000E+00
        11 -6.863437E+00  2.801403E-08  0.000000E+00
        12 -6.863438E+00  2.801403E-08  0.000000E+00
        13  0.000000E+00  0.000000E+00  3.921964E-08
        14 -9.338010E-08  0.000000E+00  3.921964E-08
        15 -3.431719E+00  0.000000E+00  3.921964E-08
        16 -3.431719E+00  0.000000E+00  3.921964E-08
        17 -6.863437E+00  0.000000E+00  3.921964E-08
        18 -6.863438E+00  0.000000E+00  3.921964E-08
        19  0.000000E+00  2.801403E-08  3.921964E-08
        20 -9.338010E-08  2.801403E-08  3.921964E-08
        21 -3.431719E+00  2.801403E-08  3.921964E-08
        22 -3.431719E+00  2.801403E-08  3.921964E-08
        23 -6.863437E+00  2.801403E-08  3.921964E-08
        24 -6.863438E+00  2.801403E-08  3.921964E-08

 stresses (elem, integ.pnt.,sxx,syy,szz,sxy,sxz,syz) for set EALL and time  0.2287813E+00

         1   1 -3.921964E-05  2.635219E-50 -9.275971E-48  3.262243E-23 -5.219589E-22  1.304897E-22
         1   2 -3.921964E-05  7.668488E-48  6.776264E-21  5.545814E-22 -2.936019E-21  6.850711E-22
         1   3 -3.921964E-05  7.125632E-47 -4.047697E-47 -1.435387E-21 -2.087836E-21  2.609795E-22
         1   4 -3.921964E-05  2.458659E-46  6.776264E-21 -9.134281E-22 -9.656240E-21  2.772907E-21
         1   5 -3.921964E-05 -3.388132E-21 -3.388132E-21 -1.565877E-21  1.500632E-21 -3.914692E-22
         1   6 -3.921964E-05  6.776264E-21  6.776264E-21 -6.785466E-21 -9.134281E-22  3.262243E-22
         1   7 -3.921964E-05 -1.355253E-20 -1.694066E-20 -5.069020E-31  2.609795E-22  2.609795E-22
         1   8 -3.921964E-05 -3.388132E-21 -6.776264E-21 -6.263507E-21 -6.263507E-21  2.414060E-21
         2   1 -3.921964E-05  4.234255E-14  2.945900E-14 -2.113284E-14 -3.151362E-14  2.540384E-15
         2   2 -3.921964E-05  1.802637E-14  3.863302E-14  2.265225E-14 -5.559541E-14 -2.265603E-15
         2   3 -3.921964E-05  4.754967E-14  5.036597E-14 -3.101961E-14 -7.574192E-14 -1.509055E-15
         2   4 -3.921964E-05 -3.697411E-15 -3.298790E-15  1.714399E-14 -1.444280E-14  5.690275E-15
         2   5 -3.921964E-05  6.847464E-14  6.692952E-14 -6.752300E-14 -2.191195E-14  1.353028E-14
         2   6 -3.921964E-05  1.029845E-13  1.013147E-13  2.533143E-15 -8.540033E-14 -1.641122E-14
         2   7 -3.921964E-05 -2.483467E-14 -1.067995E-14 -6.060232E-14 -5.624770E-14  9.480842E-15
         2   8 -3.921964E-05 -1.725572E-14 -3.913356E-14  2.696785E-14 -2.997665E-14 -8.455343E-15
         3   1 -3.921964E-05 -7.625230E-14 -6.574901E-14  1.042404E-13  3.220265E-14 -1.356736E-14
         3   2 -3.921964E-05 -9.259111E-14 -8.850483E-14 -8.437660E-16  7.160923E-14  1.374663E-14
         3   3 -3.921964E-05 -5.567954E-14 -8.780205E-14  1.019352E-13 -5.344563E-14 -2.079603E-14
         3   4 -3.921964E-05 -1.512555E-14  2.219200E-14 -2.066301E-14  1.041807E-13  2.804123E-14
         3   5 -3.921964E-05 -6.588558E-15  2.415499E-14 -1.299268E-13  9.453959E-14 -4.340541E-14
         3   6 -3.921964E-05  8.253664E-14  4.659804E-14 -2.484255E-14  6.969413E-15  3.700852E-14
         3   7 -3.921964E-05  1.398421E-14  2.101963E-15 -2.422117E-13 -1.481772E-13 -5.063408E-14
         3   8 -3.921964E-05  1.600022E-13  1.572949E-13 -6.707133E-14 -2.557893E-14  5.130312E-14

 strains (elem, integ.pnt.,exx,eyy,ezz,exy,exz,eyz) forset EALL and time  0.2287813E+00

         1   1 -1.867602E-10  5.602806E-11  5.602806E-11  2.019484E-28 -3.231174E-27  8.077936E-28
         1   2 -1.867602E-10  5.602806E-11  5.602806E-11  3.433123E-27 -1.817536E-26  4.240916E-27
         1   3 -1.867602E-10  5.602806E-11  5.602806E-11 -8.885729E-27 -1.292470E-26  1.615587E-27
         1   4 -1.867602E-10  5.602806E-11  5.602806E-11 -5.654555E-27 -5.977672E-26  1.716561E-26
         1   5 -1.867602E-10  5.602806E-11  5.602806E-11 -9.693523E-27  9.289626E-27 -2.423381E-27
         1   6 -1.867602E-10  5.602806E-11  5.602806E-11 -4.200527E-26 -5.654555E-27  2.019484E-27
         1   7 -1.867602E-10  5.602806E-11  5.602806E-11  3.137965E-36  1.615587E-27  1.615587E-27
         1   8 -1.867602E-10  5.602806E-11  5.602806E-11 -3.877409E-26 -3.877409E-26  1.494418E-26
         2   1 -1.867602E-10  5.602806E-11  5.602806E-11 -1.308224E-19 -1.950843E-19  1.572619E-20
         2   2 -1.867602E-10  5.602806E-11  5.602806E-11  1.402282E-19 -3.441621E-19 -1.402516E-20
         2   3 -1.867602E-10  5.602806E-11  5.602806E-11 -1.920261E-19 -4.688786E-19 -9.341769E-21
         2   4 -1.867602E-10  5.602806E-11  5.602806E-11  1.061295E-19 -8.940781E-20  3.522551E-20
         2   5 -1.867602E-10  5.602806E-11  5.602806E-11 -4.179995E-19 -1.356454E-19  8.375888E-20
         2   6 -1.867602E-10  5.602806E-11  5.602806E-11  1.568136E-20 -5.286687E-19 -1.015933E-19
         2   7 -1.867602E-10  5.602806E-11  5.602806E-11 -3.751572E-19 -3.482001E-19  5.869093E-20
         2   8 -1.867602E-10  5.602806E-11  5.602806E-11  1.669439E-19 -1.855697E-19 -5.234260E-20
         3   1 -1.867602E-10  5.602806E-11  5.602806E-11  6.452980E-19  1.993497E-19 -8.398843E-20
         3   2 -1.867602E-10  5.602806E-11  5.602806E-11 -5.223313E-21  4.432952E-19  8.509818E-20
         3   3 -1.867602E-10  5.602806E-11  5.602806E-11  6.310276E-19 -3.308539E-19 -1.287373E-19
         3   4 -1.867602E-10  5.602806E-11  5.602806E-11 -1.279139E-19  6.449280E-19  1.735886E-19
         3   5 -1.867602E-10  5.602806E-11  5.602806E-11 -8.043085E-19  5.852451E-19 -2.687002E-19
         3   6 -1.867602E-10  5.602806E-11  5.602806E-11 -1.537872E-19  4.314399E-20  2.291004E-19
         3   7 -1.867602E-10  5.602806E-11  5.602806E-11 -1.499406E-18 -9.172872E-19 -3.134491E-19
         3   8 -1.867602E-10  5.602806E-11  5.602806E-11 -4.152035E-19 -1.583457E-19  3.175907E-19

 displacements (vx,vy,vz) for set NALL and time  0.2377813E+00

         1  0.000000E+00  0.000000E+00  0.000000E+00
         2 -9.705357E-08  0.000000E+00  0.000000E+00
         3 -3.566719E+00  0.000000E+00  0.000000E+00
         4 -3.566719E+00  0.000000E+00  0.000000E+00
         5 -7.133437E+00  0.000000E+00  0.000000E+00
         6 -7.133438E+00  0.000000E+00  0.000000E+00
         7  0.000000E+00  2.911607E-08  0.000000E+00
         8 -9.705357E-08  2.911607E-08  0.000000E+00
         9 -3.566719E+00  2.911607E-08  0.000000E+00
        10 -3.566719E+00  2.911607E-08  0.000000E+00
        11 -7.133437E+00  2.911607E-08  0.000000E+00
        12 -7.133438E+00  2.911607E-08  0.000000E+00
        13  0.000000E+00  0.000000E+00  4.076250E-08
        14 -9.705357E-08  0.000000E+00  4.076250E-08
        15 -3.566719E+00  0.000000E+00  4.076250E-08
        16 -3.566719E+00  0.000000E+00  4.076250E-08
        17 -7.133437E+00  0.000000E+00  4.076250E-08
        18 -7.133438E+00  0.000000E+00  4.076250E-08
        19  0.000000E+00  2.911607E-08  4.076250E-08
        20 -9.705357E-08  2.911607E-08  4.076250E-08
        21 -3.566719E+00  2.911607E-08  4.076250E-08
        22 -3.566719E+00  2.911607E-08  4.076250E-08
        23 -7.133437E+00  2.911607E-08  4.076250E-08
        24 -7.133438E+00  2.911607E-08  4.076250E-08

 stresses (elem, integ.pnt.,sxx,syy,szz,sxy,sxz,syz) for set EALL and time  0.2377813E+00

         1   1 -4.076250E-05 -2.245207E-47  1.444100E-47 -1.565877E-21 -8.481832E-22  9.786730E-22
         1   2 -4.076250E-05  1.355253E-20  1.016440E-20 -9.134281E-21 -5.154344E-21 -5.872038E-22
         1   3 -4.076250E-05 -6.776264E-21 -6.776264E-21  7.829384E-22  1.174408E-21  1.174408E-21
         1   4 -4.076250E-05  3.388132E-21 -8.390538E-47 -6.785466E-21  5.611058E-21 -2.087836E-21
         1   5 -4.076250E-05  1.528427E-47  1.973252E-46  1.304897E-21 -1.174408E-21  2.936019E-21
         1   6 -4.076250E-05 -3.952829E-47  3.626061E-47  6.002528E-21 -5.480569E-21  6.524487E-23
         1   7 -4.076250E-05  1.016440E-20  1.016440E-20  5.219589E-22 -7.829384E-22  3.653712E-21
         1   8 -4.076250E-05  3.388132E-21  3.388132E-21  5.219589E-21  3.653712E-21 -1.435387E-21
         2   1 -4.076250E-05 -1.416032E-15 -1.449305E-14 -1.249018E-13 -7.687345E-14 -6.020226E-16
         2   2 -4.076250E-05 -1.776469E-14 -1.068454E-14 -2.303510E-15 -6.811643E-14  3.257643E-16
         2   3 -4.076250E-05  5.425985E-14  4.536120E-14 -1.311951E-13  7.070996E-14 -5.171636E-15
         2   4 -4.076250E-05  3.414713E-14  4.038689E-14  8.917220E-15 -1.686022E-14  1.804037E-15
         2   5 -4.076250E-05  5.500602E-14  5.472393E-14 -6.926050E-14 -7.157407E-14  2.322835E-15
         2   6 -4.076250E-05  6.829200E-14  7.123298E-14  7.956422E-16  7.291672E-14 -2.625042E-16
         2   7 -4.076250E-05  1.106819E-13  1.145782E-13 -6.708676E-14  3.746814E-14 -2.246779E-15
         2   8 -4.076250E-05  1.202038E-13  1.223044E-13  2.048341E-14 -1.507396E-14  1.215768E-15
         3   1 -4.076250E-05  2.836273E-14 -3.989072E-14  1.948969E-14  1.357258E-13 -5.994594E-15
         3   2 -4.076250E-05 -8.179120E-14 -1.390560E-14  1.975655E-15 -2.190056E-14  6.609895E-15
         3   3 -4.076250E-05  1.664191E-13  8.958643E-14 -2.296195E-14  8.805106E-14 -1.636667E-14
         3   4 -4.076250E-05  7.051304E-14  1.488166E-13  4.709419E-14 -3.454718E-14  1.737591E-14
         3   5 -4.076250E-05  1.694612E-14 -2.226551E-14 -1.448187E-13 -3.857762E-14 -1.200005E-14
         3   6 -4.076250E-05  1.036885E-14  4.810961E-14 -1.097907E-13  1.015347E-13  1.390245E-14
         3   7 -4.076250E-05  1.051170E-14 -3.727915E-14 -1.576771E-13 -7.295431E-14 -2.237213E-14
         3   8 -4.076250E-05  1.818230E-14  6.634100E-14  8.751943E-14 -2.041220E-14  2.466847E-14

 strains (elem, integ.pnt.,exx,eyy,ezz,exy,exz,eyz) forset EALL and time  0.2377813E+00

         1   1 -1.941071E-10  5.823214E-11  5.823214E-11 -9.693523E-27 -5.250658E-27  6.058452E-27
         1   2 -1.941071E-10  5.823214E-11  5.823214E-11 -5.654555E-26 -3.190785E-26 -3.635071E-27
         1   3 -1.941071E-10  5.823214E-11  5.823214E-11  4.846761E-27  7.270142E-27  7.270142E-27
         1   4 -1.941071E-10  5.823214E-11  5.823214E-11 -4.200527E-26  3.473512E-26 -1.292470E-26
         1   5 -1.941071E-10  5.823214E-11  5.823214E-11  8.077936E-27 -7.270142E-27  1.817536E-26
         1   6 -1.941071E-10  5.823214E-11  5.823214E-11  3.715850E-26 -3.392733E-26  4.038968E-28
         1   7 -1.941071E-10  5.823214E-11  5.823214E-11  3.231174E-27 -4.846761E-27  2.261822E-26
         1   8 -1.941071E-10  5.823214E-11  5.823214E-11  3.231174E-26  2.261822E-26 -8.885729E-27
         2   1 -1.941071E-10  5.823214E-11  5.823214E-11 -7.732013E-19 -4.758833E-19 -3.726807E-21
         2   2 -1.941071E-10  5.823214E-11  5.823214E-11 -1.425982E-20 -4.216731E-19  2.016636E-21
         2   3 -1.941071E-10  5.823214E-11  5.823214E-11 -8.121599E-19  4.377283E-19 -3.201489E-20
         2   4 -1.941071E-10  5.823214E-11  5.823214E-11  5.520184E-20 -1.043728E-19  1.116785E-20
         2   5 -1.941071E-10  5.823214E-11  5.823214E-11 -4.287555E-19 -4.430776E-19  1.437945E-20
         2   6 -1.941071E-10  5.823214E-11  5.823214E-11  4.925404E-21  4.513892E-19 -1.625026E-21
         2   7 -1.941071E-10  5.823214E-11  5.823214E-11 -4.152990E-19  2.319456E-19 -1.390863E-20
         2   8 -1.941071E-10  5.823214E-11  5.823214E-11  1.268021E-19 -9.331500E-20  7.526184E-21
         3   1 -1.941071E-10  5.823214E-11  5.823214E-11  1.206505E-19  8.402071E-19 -3.710939E-20
         3   2 -1.941071E-10  5.823214E-11  5.823214E-11  1.223024E-20 -1.355749E-19  4.091840E-20
         3   3 -1.941071E-10  5.823214E-11  5.823214E-11 -1.421454E-19  5.450780E-19 -1.013175E-19
         3   4 -1.941071E-10  5.823214E-11  5.823214E-11  2.915354E-19 -2.138635E-19  1.075652E-19
         3   5 -1.941071E-10  5.823214E-11  5.823214E-11 -8.964970E-19 -2.388139E-19 -7.428602E-20
         3   6 -1.941071E-10  5.823214E-11  5.823214E-11 -6.796566E-19  6.285479E-19  8.606279E-20
         3   7 -1.941071E-10  5.823214E-11  5.823214E-11 -9.760961E-19 -4.516219E-19 -1.384941E-19
         3   8 -1.941071E-10  5.823214E-11  5.823214E-11  5.417869E-19 -1.263613E-19  1.527095E-19

 displacements (vx,vy,vz) for set NALL and time  0.2467813E+00

         1  0.000000E+00  0.000000E+00  0.000000E+00
         2 -1.007270E-07  0.000000E+00  0.000000E+00
         3 -3.701719E+00  0.000000E+00  0.000000E+00
         4 -3.701719E+00  0.000000E+00  0.000000E+00
         5 -7.403437E+00  0.000000E+00  0.000000E+00
         6 -7.403438E+00  0.000000E+00  0.000000E+00
         7  0.000000E+00  3.021811E-08  0.000000E+00
         8 -1.007270E-07  3.021811E-08  0.000000E+00
         9 -3.701719E+00  3.021811E-08  0.000000E+00
        10 -3.701719E+00  3.021811E-08  0.000000E+00
        11 -7.403437E+00  3.021811E-08  0.000000E+00
        12 -7.403438E+00  3.021811E-08  0.000000E+00
        13  0.000000E+00  0.000000E+00  4.230536E-08
        14 -1.007270E-07  0.000000E+00  4.230536E-08
        15 -3.701719E+00  0.000000E+00  4.230536E-08
        16 -3.701719E+00  0.000000E+00  4.230536E-08
        17 -7.403437E+00  0.000000E+00  4.230536E-08
        18 -7.403438E+00  0.000000E+00  4.230536E-08
        19  0.000000E+00  3.021811E-08  4.230536E-08
        20 -1.007270E-07  3.021811E-08  4.230536E-08
        21 -3.701719E+00  3.021811E-08  4.230536E-08
        22 -3.701719E+00  3.021811E-08  4.230536E-08
        23 -7.403437E+00  3.021811E-08  4.230536E-08
        24 -7.403438E+00  3.021811E-08  4.230536E-08

 stresses (elem, integ.pnt.,sxx,syy,szz,sxy,sxz,syz) for set EALL and time  0.2467813E+00

         1   1 -4.230536E-05 -2.635219E-48 -8.011066E-48  1.239652E-21  2.609795E-22 -2.609795E-22
         1   2 -4.230536E-05 -3.388132E-21 -3.388132E-21  3.457978E-21  4.501896E-21 -6.524487E-22
         1   3 -4.230536E-05  6.776264E-21  3.388132E-21  7.829384E-22  6.524487E-22 -2.348815E-21
         1   4 -4.230536E-05  6.776264E-21  3.388132E-21  3.001264E-21  6.393997E-21 -3.653712E-21
         1   5 -4.230536E-05  3.388132E-21  3.388132E-21  9.134281E-22 -2.022591E-21  1.043918E-21
         1   6 -4.230536E-05 -1.016440E-20 -3.388132E-21  5.611058E-21  2.218325E-21 -6.524487E-22
         1   7 -4.230536E-05  1.016440E-20  1.355253E-20 -1.043918E-21 -2.348815E-21 -1.043918E-21
         1   8 -4.230536E-05  3.388132E-21  1.016440E-20  3.653712E-21  3.131754E-21 -3.653712E-21
         2   1 -4.230536E-05 -2.912233E-14 -4.111557E-14  1.817655E-14 -6.037625E-15 -1.002352E-15
         2   2 -4.230536E-05 -1.482706E-14 -1.982674E-14  2.255506E-14 -5.420122E-14  2.796974E-15
         2   3 -4.230536E-05 -7.031160E-15 -2.459755E-14  1.998657E-14  4.473349E-14  1.603860E-16
         2   4 -4.230536E-05  2.771360E-14  4.440676E-14  2.874359E-14 -7.808612E-15 -4.746529E-15
         2   5 -4.230536E-05 -1.022381E-13 -1.174870E-13  6.625727E-14  1.391892E-15 -4.903565E-15
         2   6 -4.230536E-05 -1.306034E-13 -1.144813E-13  8.377130E-14 -8.617828E-14  1.798195E-14
         2   7 -4.230536E-05 -5.387585E-14 -7.469791E-14  5.587855E-14  1.193062E-15 -3.740827E-15
         2   8 -4.230536E-05 -6.179166E-14 -2.397671E-14  3.336445E-15 -4.259203E-14  1.043845E-14
         3   1 -4.230536E-05  5.145542E-15  7.426100E-15 -6.408381E-14 -7.989229E-14  1.370919E-14
         3   2 -4.230536E-05  8.472875E-14  8.434214E-14  2.348637E-14 -1.587054E-13 -9.839829E-15
         3   3 -4.230536E-05  9.505475E-14  1.471581E-13 -4.776709E-14 -1.561882E-14  1.628742E-14
         3   4 -4.230536E-05  1.064439E-13  6.495464E-14 -3.982004E-15  1.770356E-13 -7.950900E-15
         3   5 -4.230536E-05  7.032100E-14  6.538250E-14  5.619108E-15 -1.289720E-13  4.858515E-14
         3   6 -4.230536E-05  1.465266E-13  1.408510E-13 -6.443703E-14 -5.453739E-14 -3.861167E-14
         3   7 -4.230536E-05 -4.993822E-14 -5.053910E-15  2.097080E-14  1.176590E-14  5.116339E-14
         3   8 -4.230536E-05 -4.192668E-14 -8.870492E-14 -1.405727E-14  9.933608E-14 -3.672274E-14

 strains (elem, integ.pnt.,exx,eyy,ezz,exy,exz,eyz) forset EALL and time  0.2467813E+00

         1   1 -2.014541E-10  6.043622E-11  6.043622E-11  7.674039E-27  1.615587E-27 -1.615587E-27
         1   2 -2.014541E-10  6.043622E-11  6.043622E-11  2.140653E-26  2.786888E-26 -4.038968E-27
         1   3 -2.014541E-10  6.043622E-11  6.043622E-11  4.846761E-27  4.038968E-27 -1.454028E-26
         1   4 -2.014541E-10  6.043622E-11  6.043622E-11  1.857925E-26  3.958188E-26 -2.261822E-26
         1   5 -2.014541E-10  6.043622E-11  6.043622E-11  5.654555E-27 -1.252080E-26  6.462349E-27
         1   6 -2.014541E-10  6.043622E-11  6.043622E-11  3.473512E-26  1.373249E-26 -4.038968E-27
         1   7 -2.014541E-10  6.043622E-11  6.043622E-11 -6.462349E-27 -1.454028E-26 -6.462349E-27
         1   8 -2.014541E-10  6.043622E-11  6.043622E-11  2.261822E-26  1.938705E-26 -2.261822E-26
         2   1 -2.014541E-10  6.043622E-11  6.043622E-11  1.125215E-19 -3.737578E-20 -6.205036E-21
         2   2 -2.014541E-10  6.043622E-11  6.043622E-11  1.396265E-19 -3.355314E-19  1.731460E-20
         2   3 -2.014541E-10  6.043622E-11  6.043622E-11  1.237264E-19  2.769216E-19  9.928655E-22
         2   4 -2.014541E-10  6.043622E-11  6.043622E-11  1.779365E-19 -4.833903E-20 -2.938328E-20
         2   5 -2.014541E-10  6.043622E-11  6.043622E-11  4.101640E-19  8.616471E-21 -3.035540E-20
         2   6 -2.014541E-10  6.043622E-11  6.043622E-11  5.185842E-19 -5.334846E-19  1.113168E-19
         2   7 -2.014541E-10  6.043622E-11  6.043622E-11  3.459148E-19  7.385624E-21 -2.315750E-20
         2   8 -2.014541E-10  6.043622E-11  6.043622E-11  2.065419E-20 -2.636649E-19  6.461897E-20
         3   1 -2.014541E-10  6.043622E-11  6.043622E-11 -3.967093E-19 -4.945713E-19  8.486640E-20
         3   2 -2.014541E-10  6.043622E-11  6.043622E-11  1.453918E-19 -9.824623E-19 -6.091323E-20
         3   3 -2.014541E-10  6.043622E-11  6.043622E-11 -2.957010E-19 -9.668795E-20  1.008269E-19
         3   4 -2.014541E-10  6.043622E-11  6.043622E-11 -2.465050E-20  1.095934E-18 -4.921986E-20
         3   5 -2.014541E-10  6.043622E-11  6.043622E-11  3.478495E-20 -7.983983E-19  3.007652E-19
         3   6 -2.014541E-10  6.043622E-11  6.043622E-11 -3.988959E-19 -3.376124E-19 -2.390246E-19
         3   7 -2.014541E-10  6.043622E-11  6.043622E-11  1.298192E-19  7.283653E-20  3.167257E-19
         3   8 -2.014541E-10  6.043622E-11  6.043622E-11 -8.702122E-20  6.149376E-19 -2.273312E-19

 displacements (vx,vy,vz) for set NALL and time  0.2557813E+00

         1  0.000000E+00  0.000000E+00  0.000000E+00
         2 -1.044005E-07  0.000000E+00  0.000000E+00
         3 -3.836719E+00  0.000000E+00  0.000000E+00
         4 -3.836719E+00  0.000000E+00  0.000000E+00
         5 -7.673437E+00  0.000000E+00  0.000000E+00
         6 -7.673438E+00  0.000000E+00  0.000000E+00
         7  0.000000E+00  3.132015E-08  0.000000E+00
         8 -1.044005E-07  3.132015E-08  0.000000E+00
         9 -3.836719E+00  3.132015E-08  0.000000E+00
        10 -3.836719E+00  3.132015E-08  0.000000E+00
        11 -7.673437E+00  3.132015E-08  0.000000E+00
        12 -7.673438E+00  3.132015E-08  0.000000E+00
        13  0.000000E+00  0.000000E+00  4.384821E-08
        14 -1.044005E-07  0.000000E+00  4.384821E-08
        15 -3.836719E+00  0.000000E+00  4.384821E-08
        16 -3.836719E+00  0.000000E+00  4.384821E-08
        17 -7.673437E+00  0.000000E+00  4.384821E-08
        18 -7.673438E+00  0.000000E+00  4.384821E-08
        19  0.000000E+00  3.132015E-08  4.384821E-08
        20 -1.044005E-07  3.132015E-08  4.384821E-08
        21 -3.836719E+00  3.132015E-08  4.384821E-08
        22 -3.836719E+00  3.132015E-08  4.384821E-08
        23 -7.673437E+00  3.132015E-08  4.384821E-08
        24 -7.673438E+00  3.132015E-08  4.384821E-08

 stresses (elem, integ.pnt.,sxx,syy,szz,sxy,sxz,syz) for set EALL and time  0.2557813E+00

         1   1 -4.384821E-05 -3.689307E-48  6.776264E-21 -1.631122E-21 -1.631122E-21  6.524487E-22
         1   2 -4.384821E-05  1.355253E-20  1.355253E-20 -9.460505E-21 -7.372670E-21 -4.567141E-22
         1   3 -4.384821E-05 -1.355253E-20 -1.355253E-20 -2.609795E-22  2.609795E-22  2.609795E-21
         1   4 -4.384821E-05 -3.451083E-46 -1.233283E-47 -8.090363E-21  1.043918E-21  5.872038E-22
         1   5 -4.384821E-05  4.216351E-48 -6.776264E-21  1.435387E-21  2.609795E-22  3.914692E-22
         1   6 -4.384821E-05 -5.396929E-47 -1.264905E-47  6.133017E-21 -5.480569E-21 -3.523223E-21
         1   7 -4.384821E-05  6.776264E-21 -2.698464E-47  1.565877E-21 -2.609795E-22  2.348815E-21
         1   8 -4.384821E-05  3.388132E-21 -3.388132E-21  6.263507E-21  5.219589E-22 -2.479305E-21
         2   1 -4.384821E-05 -2.480566E-14 -2.480150E-14 -1.876370E-14 -2.960894E-14  3.557850E-15
         2   2 -4.384821E-05 -4.652579E-14 -5.272088E-14 -2.752071E-14  4.044720E-14 -9.143277E-16
         2   3 -4.384821E-05 -1.622440E-14  3.978473E-15 -2.217783E-14 -1.086621E-14 -8.610190E-16
         2   4 -4.384821E-05 -5.998140E-14 -7.536029E-14 -9.042308E-15 -3.713726E-14  3.016346E-15
         2   5 -4.384821E-05  2.578728E-14  3.816427E-14 -6.702720E-14 -3.872820E-14  1.769694E-14
         2   6 -4.384821E-05  4.497991E-14  2.777893E-14 -1.448509E-14 -8.078642E-15 -7.342991E-15
         2   7 -4.384821E-05  9.347841E-14  1.260541E-13 -5.875198E-14  2.950291E-14  1.327808E-14
         2   8 -4.384821E-05  9.063416E-14  6.424938E-14  1.130416E-14  3.231856E-15 -3.412317E-15
         3   1 -4.384821E-05 -8.662426E-15 -4.356504E-14 -1.831840E-15  4.835733E-14  1.144248E-14
         3   2 -4.384821E-05  1.283856E-14  3.996846E-14  5.946728E-14 -7.424092E-14 -1.139852E-14
         3   3 -4.384821E-05 -2.669662E-14  1.925363E-15 -6.836519E-15  5.220786E-14 -1.763289E-15
         3   4 -4.384821E-05 -9.645841E-14 -1.274877E-13  1.067752E-14  6.972190E-14 -1.828460E-15
         3   5 -4.384821E-05 -8.650623E-14 -8.443268E-14  1.499516E-13 -3.782471E-14  5.590970E-14
         3   6 -4.384821E-05  4.659632E-14  4.693005E-14 -6.021683E-14 -9.036682E-14 -5.210991E-14
         3   7 -4.384821E-05 -1.439470E-13 -7.834886E-14  3.672079E-14  3.445465E-15  4.270393E-14
         3   8 -4.384821E-05 -1.021072E-13 -1.599326E-13  3.672079E-14  1.260437E-13 -4.253985E-14

 strains (elem, integ.pnt.,exx,eyy,ezz,exy,exz,eyz) forset EALL and time  0.2557813E+00

         1   1 -2.088010E-10  6.264030E-11  6.264030E-11 -1.009742E-26 -1.009742E-26  4.038968E-27
         1   2 -2.088010E-10  6.264030E-11  6.264030E-11 -5.856503E-26 -4.564034E-26 -2.827277E-27
         1   3 -2.088010E-10  6.264030E-11  6.264030E-11 -1.615587E-27  1.615587E-27  1.615587E-26
         1   4 -2.088010E-10  6.264030E-11  6.264030E-11 -5.008320E-26  6.462349E-27  3.635071E-27
         1   5 -2.088010E-10  6.264030E-11  6.264030E-11  8.885729E-27  1.615587E-27  2.423381E-27
         1   6 -2.088010E-10  6.264030E-11  6.264030E-11  3.796630E-26 -3.392733E-26 -2.181043E-26
         1   7 -2.088010E-10  6.264030E-11  6.264030E-11  9.693523E-27 -1.615587E-27  1.454028E-26
         1   8 -2.088010E-10  6.264030E-11  6.264030E-11  3.877409E-26  3.231174E-27 -1.534808E-26
         2   1 -2.088010E-10  6.264030E-11  6.264030E-11 -1.161562E-19 -1.832934E-19  2.202479E-20
         2   2 -2.088010E-10  6.264030E-11  6.264030E-11 -1.703663E-19  2.503875E-19 -5.660124E-21
         2   3 -2.088010E-10  6.264030E-11  6.264030E-11 -1.372914E-19 -6.726699E-20 -5.330118E-21
         2   4 -2.088010E-10  6.264030E-11  6.264030E-11 -5.597619E-20 -2.298973E-19  1.867262E-20
         2   5 -2.088010E-10  6.264030E-11  6.264030E-11 -4.149303E-19 -2.397460E-19  1.095525E-19
         2   6 -2.088010E-10  6.264030E-11  6.264030E-11 -8.966963E-20 -5.001064E-20 -4.545661E-20
         2   7 -2.088010E-10  6.264030E-11  6.264030E-11 -3.637027E-19  1.826371E-19  8.219761E-20
         2   8 -2.088010E-10  6.264030E-11  6.264030E-11  6.997815E-20  2.000673E-20 -2.112387E-20
         3   1 -2.088010E-10  6.264030E-11  6.264030E-11 -1.133996E-20  2.993549E-19  7.083442E-20
         3   2 -2.088010E-10  6.264030E-11  6.264030E-11  3.681308E-19 -4.595866E-19 -7.056226E-20
         3   3 -2.088010E-10  6.264030E-11  6.264030E-11 -4.232131E-20  3.231915E-19 -1.091560E-20
         3   4 -2.088010E-10  6.264030E-11  6.264030E-11  6.609891E-20  4.316118E-19 -1.131904E-20
         3   5 -2.088010E-10  6.264030E-11  6.264030E-11  9.282717E-19 -2.341530E-19  3.461077E-19
         3   6 -2.088010E-10  6.264030E-11  6.264030E-11 -3.727709E-19 -5.594136E-19 -3.225851E-19
         3   7 -2.088010E-10  6.264030E-11  6.264030E-11  2.273192E-19  2.132907E-20  2.643576E-19
         3   8 -2.088010E-10  6.264030E-11  6.264030E-11  2.273192E-19  7.802706E-19 -2.633419E-19

 displacements (vx,vy,vz) for set NALL and time  0.2647813E+00

         1  0.000000E+00  0.000000E+00  0.000000E+00
         2 -1.080740E-07  0.000000E+00  0.000000E+00
         3 -3.971719E+00  0.000000E+00  0.000000E+00
         4 -3.971719E+00  0.000000E+00  0.000000E+00
         5 -7.943437E+00  0.000000E+00  0.000000E+00
         6 -7.943438E+00  0.000000E+00  0.000000E+00
         7  0.000000E+00  3.242219E-08  0.000000E+00
         8 -1.080740E-07  3.242219E-08  0.000000E+00
         9 -3.971719E+00  3.242219E-08  0.000000E+00
        10 -3.971719E+00  3.242219E-08  0.000000E+00
        11 -7.943437E+00  3.242219E-08  0.000000E+00
        12 -7.943438E+00  3.242219E-08  0.000000E+00
        13  0.000000E+00  0.000000E+00  4.539107E-08
        14 -1.080740E-07  0.000000E+00  4.539107E-08
        15 -3.971719E+00  0.000000E+00  4.539107E-08
        16 -3.971719E+00  0.000000E+00  4.539107E-08
        17 -7.943437E+00  0.000000E+00  4.539107E-08
        18 -7.943438E+00  0.000000E+00  4.539107E-08
        19  0.000000E+00  3.242219E-08  4.539107E-08
        20 -1.080740E-07  3.242219E-08  4.539107E-08
        21 -3.971719E+00  3.242219E-08  4.539107E-08
        22 -3.971719E+00  3.242219E-08  4.539107E-08
        23 -7.943437E+00  3.242219E-08  4.539107E-08
        24 -7.943438E+00  3.242219E-08  4.539107E-08

 stresses (elem, integ.pnt.,sxx,syy,szz,sxy,sxz,syz) for set EALL and time  0.2647813E+00

         1   1 -4.539107E-05 -6.776264E-21 -6.776264E-21 -1.239652E-21 -4.567141E-22  5.219589E-22
         1   2 -4.539107E-05 -7.378613E-49 -6.776264E-21 -5.154344E-21 -2.675039E-21 -7.829384E-22
         1   3 -4.539107E-05 -6.776264E-21 -6.776264E-21 -1.174408E-21  1.565877E-21 -2.276829E-47
         1   4 -4.539107E-05  3.836879E-47 -1.016440E-20 -5.089099E-21  8.351343E-21 -1.696366E-21
         1   5 -4.539107E-05 -1.180578E-47 -6.776264E-21  1.826856E-21 -9.134281E-22  2.087836E-21
         1   6 -4.539107E-05 -1.016440E-20 -6.776264E-21  8.090363E-21 -3.131754E-21 -2.218325E-21
         1   7 -4.539107E-05  6.776264E-21  6.776264E-21  5.219589E-22 -1.565877E-21  1.565877E-21
         1   8 -4.539107E-05 -3.388132E-21 -3.388132E-21  6.785466E-21  5.219589E-21 -3.131754E-21
         2   1 -4.539107E-05  1.124721E-14  3.652152E-15 -3.133547E-15 -4.566694E-14  1.347745E-15
         2   2 -4.539107E-05 -2.422488E-14 -2.204265E-14  7.130110E-14 -1.063887E-14 -1.242839E-15
         2   3 -4.539107E-05  2.673005E-13  2.771003E-13 -1.169456E-14  2.523904E-14 -7.146496E-15
         2   4 -4.539107E-05  2.086826E-13  1.973985E-13  8.463264E-14 -6.233113E-14  4.788115E-15
         2   5 -4.539107E-05  1.600906E-13  1.762794E-13 -6.574646E-14 -5.080825E-14  1.352410E-14
         2   6 -4.539107E-05  1.957919E-13  1.810875E-13 -8.326050E-14  1.486938E-14 -1.066929E-14
         2   7 -4.539107E-05  1.551033E-14  4.909393E-14 -5.397220E-14  6.855107E-14  5.029854E-15
         2   8 -4.539107E-05  2.806584E-14 -1.049609E-16 -1.240283E-13 -8.907525E-14 -4.638338E-15
         3   1 -4.539107E-05 -5.297815E-14 -2.087621E-14  4.168839E-14  5.712368E-14  8.134294E-16
         3   2 -4.539107E-05 -2.714690E-14 -8.191209E-14  7.671646E-14  4.836666E-14  4.581238E-15
         3   3 -4.539107E-05 -1.352120E-13 -9.015689E-14  5.988470E-14 -1.207450E-14 -6.031442E-15
         3   4 -4.539107E-05 -1.068693E-13 -1.453328E-13  8.615576E-14  4.046760E-14  5.686229E-15
         3   5 -4.539107E-05 -2.084039E-14  3.042720E-14  1.508464E-13  3.930557E-14  9.880631E-15
         3   6 -4.539107E-05  4.394519E-14 -1.391397E-14 -2.429396E-14 -3.950759E-14  1.599242E-14
         3   7 -4.539107E-05 -2.212940E-13 -1.570732E-13  1.801725E-13 -4.506266E-14  3.035760E-15
         3   8 -4.539107E-05 -1.539970E-13 -1.955544E-13  7.508830E-14  1.125637E-13  1.709741E-14

 strains (elem, integ.pnt.,exx,eyy,ezz,exy,exz,eyz) forset EALL and time  0.2647813E+00

         1   1 -2.161480E-10  6.484439E-11  6.484439E-11 -7.674039E-27 -2.827277E-27  3.231174E-27
         1   2 -2.161480E-10  6.484439E-11  6.484439E-11 -3.190785E-26 -1.655977E-26 -4.846761E-27
         1   3 -2.161480E-10  6.484439E-11  6.484439E-11 -7.270142E-27  9.693523E-27 -2.505717E-52
         1   4 -2.161480E-10  6.484439E-11  6.484439E-11 -3.150395E-26  5.169879E-26 -1.050132E-26
         1   5 -2.161480E-10  6.484439E-11  6.484439E-11  1.130911E-26 -5.654555E-27  1.292470E-26
         1   6 -2.161480E-10  6.484439E-11  6.484439E-11  5.008320E-26 -1.938705E-26 -1.373249E-26
         1   7 -2.161480E-10  6.484439E-11  6.484439E-11  3.231174E-27 -9.693523E-27  9.693523E-27
         1   8 -2.161480E-10  6.484439E-11  6.484439E-11  4.200527E-26  3.231174E-26 -1.938705E-26
         2   1 -2.161480E-10  6.484439E-11  6.484439E-11 -1.939815E-20 -2.827001E-19  8.343186E-21
         2   2 -2.161480E-10  6.484439E-11  6.484439E-11  4.413878E-19 -6.585967E-20 -7.693764E-21
         2   3 -2.161479E-10  6.484439E-11  6.484439E-11 -7.239487E-20  1.562417E-19 -4.424021E-20
         2   4 -2.161479E-10  6.484439E-11  6.484439E-11  5.239163E-19 -3.858594E-19  2.964071E-20
         2   5 -2.161479E-10  6.484439E-11  6.484439E-11 -4.070019E-19 -3.145273E-19  8.372059E-20
         2   6 -2.161479E-10  6.484439E-11  6.484439E-11 -5.154221E-19  9.204854E-20 -6.604799E-20
         2   7 -2.161480E-10  6.484439E-11  6.484439E-11 -3.341136E-19  4.243638E-19  3.113719E-20
         2   8 -2.161480E-10  6.484439E-11  6.484439E-11 -7.677945E-19 -5.514182E-19 -2.871352E-20
         3   1 -2.161480E-10  6.484439E-11  6.484439E-11  2.580710E-19  3.536228E-19  5.035515E-21
         3   2 -2.161480E-10  6.484439E-11  6.484438E-11  4.749114E-19  2.994127E-19  2.836005E-20
         3   3 -2.161480E-10  6.484439E-11  6.484439E-11  3.707148E-19 -7.474693E-20 -3.733750E-20
         3   4 -2.161480E-10  6.484439E-11  6.484439E-11  5.333452E-19  2.505137E-19  3.520046E-20
         3   5 -2.161480E-10  6.484438E-11  6.484439E-11  9.338110E-19  2.433202E-19  6.116581E-20
         3   6 -2.161480E-10  6.484439E-11  6.484438E-11 -1.503912E-19 -2.445708E-19  9.900072E-20
         3   7 -2.161480E-10  6.484438E-11  6.484439E-11  1.115354E-18 -2.789594E-19  1.879280E-20
         3   8 -2.161480E-10  6.484439E-11  6.484439E-11  4.648324E-19  6.968226E-19  1.058411E-19

 displacements (vx,vy,vz) for set NALL and time  0.2737813E+00

         1  0.000000E+00  0.000000E+00  0.000000E+00
         2 -1.117474E-07  0.000000E+00  0.000000E+00
         3 -4.106719E+00  0.000000E+00  0.000000E+00
         4 -4.106719E+00  0.000000E+00  0.000000E+00
         5 -8.213437E+00  0.000000E+00  0.000000E+00
         6 -8.213438E+00  0.000000E+00  0.000000E+00
         7  0.000000E+00  3.352423E-08  0.000000E+00
         8 -1.117474E-07  3.352423E-08  0.000000E+00
         9 -4.106719E+00  3.352423E-08  0.000000E+00
        10 -4.106719E+00  3.352423E-08  0.000000E+00
        11 -8.213437E+00  3.352423E-08  0.000000E+00
        12 -8.213438E+00  3.352423E-08  0.000000E+00
        13  0.000000E+00  0.000000E+00  4.693393E-08
        14 -1.117474E-07  0.000000E+00  4.693393E-08
        15 -4.106719E+00  0.000000E+00  4.693393E-08
        16 -4.106719E+00  0.000000E+00  4.693393E-08
        17 -8.213437E+00  0.000000E+00  4.693393E-08
        18 -8.213438E+00  0.000000E+00  4.693393E-08
        19  0.000000E+00  3.352423E-08  4.693393E-08
        20 -1.117474E-07  3.352423E-08  4.693393E-08
        21 -4.106719E+00  3.352423E-08  4.693393E-08
        22 -4.106719E+00  3.352423E-08  4.693393E-08
        23 -8.213437E+00  3.352423E-08  4.693393E-08
        24 -8.213438E+00  3.352423E-08  4.693393E-08

 stresses (elem, integ.pnt.,sxx,syy,szz,sxy,sxz,syz) for set EALL and time  0.2737813E+00

         1   1 -4.693393E-05 -2.023848E-47 -2.150339E-47  6.524487E-22 -7.176935E-22 -1.304897E-22
         1   2 -4.693393E-05 -6.776264E-21  3.388132E-21  6.133017E-21 -6.524487E-21  9.786730E-23
         1   3 -4.693393E-05  6.776264E-21 -3.388132E-21 -2.870774E-21 -1.043918E-21  1.043918E-21
         1   4 -4.693393E-05 -3.388132E-21  6.776264E-21  2.609795E-21 -7.307425E-21  2.936019E-21
         1   5 -4.693393E-05 -6.776264E-21 -6.776264E-21  6.524487E-22  2.936019E-21 -1.696366E-21
         1   6 -4.693393E-05 -3.388132E-21 -3.388132E-21  3.784202E-21 -2.870774E-21 -2.316193E-21
         1   7 -4.693393E-05 -2.023848E-47 -1.016440E-20  3.033034E-31  2.087836E-21 -5.219589E-22
         1   8 -4.693393E-05 -3.035772E-47 -4.756043E-46  3.131754E-21 -4.175671E-21  5.219589E-22
         2   1 -4.693393E-05 -4.506612E-14 -4.708627E-14  3.507157E-14  3.456884E-14  2.407473E-15
         2   2 -4.693393E-05 -4.599441E-14 -5.004461E-14 -4.335007E-15  4.770436E-14 -2.853837E-15
         2   3 -4.693393E-05 -5.264947E-14 -3.850971E-14  3.519042E-14 -7.804095E-14 -2.327131E-15
         2   4 -4.693393E-05 -7.560662E-14 -9.286872E-14  1.767639E-14  9.529222E-15 -1.402338E-15
         2   5 -4.693393E-05  1.711525E-14  2.835199E-14  3.213481E-15  3.331419E-14  1.371942E-14
         2   6 -4.693393E-05  4.649885E-14  3.838446E-14 -6.684266E-14  1.580016E-14 -1.210216E-14
         2   7 -4.693393E-05 -4.957797E-14 -2.218133E-14  1.199287E-14  5.228342E-15  8.984812E-15
         2   8 -4.693393E-05 -4.222323E-14 -6.354952E-14 -4.054923E-14  2.274238E-14 -1.065066E-14
         3   1 -4.693393E-05 -1.369770E-13 -1.609985E-13 -7.820012E-14 -1.055068E-13  2.505208E-15
         3   2 -4.693393E-05 -2.160882E-13 -1.972596E-13 -7.820012E-14  8.334408E-15 -7.482143E-15
         3   3 -4.693393E-05  1.825100E-13  1.816484E-13 -1.004499E-13  5.536905E-14 -6.862330E-15
         3   4 -4.693393E-05  6.164381E-14  4.795903E-14  3.090537E-14  5.536905E-14 -5.164353E-15
         3   5 -4.693393E-05  1.192392E-13  1.214468E-13  1.379563E-13 -3.660527E-14  1.871710E-14
         3   6 -4.693393E-05  9.738603E-14  1.097249E-13 -3.718408E-14 -6.287632E-14 -3.024152E-14
         3   7 -4.693393E-05 -2.311856E-13 -2.058182E-13  1.320660E-13  1.524318E-14  9.349564E-15
         3   8 -4.693393E-05 -2.947938E-13 -3.149683E-13  2.698175E-14 -1.978489E-14 -2.792374E-14

 strains (elem, integ.pnt.,exx,eyy,ezz,exy,exz,eyz) forset EALL and time  0.2737813E+00

         1   1 -2.234949E-10  6.704847E-11  6.704847E-11  4.038968E-27 -4.442865E-27 -8.077936E-28
         1   2 -2.234949E-10  6.704847E-11  6.704847E-11  3.796630E-26 -4.038968E-26  6.058452E-28
         1   3 -2.234949E-10  6.704847E-11  6.704847E-11 -1.777146E-26 -6.462349E-27  6.462349E-27
         1   4 -2.234949E-10  6.704847E-11  6.704847E-11  1.615587E-26 -4.523644E-26  1.817536E-26
         1   5 -2.234949E-10  6.704847E-11  6.704847E-11  4.038968E-27  1.817536E-26 -1.050132E-26
         1   6 -2.234949E-10  6.704847E-11  6.704847E-11  2.342601E-26 -1.777146E-26 -1.433834E-26
         1   7 -2.234949E-10  6.704847E-11  6.704847E-11 -1.877592E-36  1.292470E-26 -3.231174E-27
         1   8 -2.234949E-10  6.704847E-11  6.704847E-11  1.938705E-26 -2.584939E-26  3.231174E-27
         2   1 -2.234949E-10  6.704847E-11  6.704847E-11  2.171097E-19  2.139976E-19  1.490340E-20
         2   2 -2.234949E-10  6.704847E-11  6.704847E-11 -2.683576E-20  2.953127E-19 -1.766661E-20
         2   3 -2.234949E-10  6.704847E-11  6.704847E-11  2.178455E-19 -4.831107E-19 -1.440605E-20
         2   4 -2.234949E-10  6.704847E-11  6.704847E-11  1.094252E-19  5.899042E-20 -8.681143E-21
         2   5 -2.234949E-10  6.704847E-11  6.704847E-11  1.989298E-20  2.062307E-19  8.492972E-20
         2   6 -2.234949E-10  6.704847E-11  6.704847E-11 -4.137879E-19  9.781051E-20 -7.491816E-20
         2   7 -2.234949E-10  6.704847E-11  6.704847E-11  7.424160E-20  3.236593E-20  5.562027E-20
         2   8 -2.234949E-10  6.704847E-11  6.704847E-11 -2.510191E-19  1.407861E-19 -6.593269E-20
         3   1 -2.234949E-10  6.704847E-11  6.704847E-11 -4.840960E-19 -6.531375E-19  1.550843E-20
         3   2 -2.234949E-10  6.704847E-11  6.704847E-11 -4.840960E-19  5.159395E-20 -4.631803E-20
         3   3 -2.234949E-10  6.704847E-11  6.704847E-11 -6.218327E-19  3.427608E-19 -4.248109E-20
         3   4 -2.234949E-10  6.704847E-11  6.704847E-11  1.913189E-19  3.427608E-19 -3.196980E-20
         3   5 -2.234949E-10  6.704847E-11  6.704847E-11  8.540150E-19 -2.266041E-19  1.158678E-19
         3   6 -2.234949E-10  6.704847E-11  6.704847E-11 -2.301871E-19 -3.892344E-19 -1.872094E-19
         3   7 -2.234949E-10  6.704847E-11  6.704847E-11  8.175512E-19  9.436256E-20  5.787825E-20
         3   8 -2.234949E-10  6.704847E-11  6.704847E-11  1.670299E-19 -1.224779E-19 -1.728612E-19

 displacements (vx,vy,vz) for set NALL and time  0.2827813E+00

         1  0.000000E+00  0.000000E+00  0.000000E+00
         2 -1.154209E-07  0.000000E+00  0.000000E+00
         3 -4.241719E+00  0.000000E+00  0.000000E+00
         4 -4.241719E+00  0.000000E+00  0.000000E+00
         5 -8.483437E+00  0.000000E+00  0.000000E+00
         6 -8.483438E+00  0.000000E+00  0.000000E+00
         7  0.000000E+00  3.462627E-08  0.000000E+00
         8 -1.154209E-07  3.462627E-08  0.000000E+00
         9 -4.241719E+00  3.462627E-08  0.000000E+00
        10 -4.241719E+00  3.462627E-08  0.000000E+00
        11 -8.483437E+00  3.462627E-08  0.000000E+00
        12 -8.483438E+00  3.462627E-08  0.000000E+00
        13  0.000000E+00  0.000000E+00  4.847678E-08
        14 -1.154209E-07  0.000000E+00  4.847678E-08
        15 -4.241719E+00  0.000000E+00  4.847678E-08
        16 -4.241719E+00  0.000000E+00  4.847678E-08
        17 -8.483437E+00  0.000000E+00  4.847678E-08
        18 -8.483438E+00  0.000000E+00  4.847678E-08
        19  0.000000E+00  3.462627E-08  4.847678E-08
        20 -1.154209E-07  3.462627E-08  4.847678E-08
        21 -4.241719E+00  3.462627E-08  4.847678E-08
        22 -4.241719E+00  3.462627E-08  4.847678E-08
        23 -8.483437E+00  3.462627E-08  4.847678E-08
        24 -8.483438E+00  3.462627E-08  4.847678E-08

 stresses (elem, integ.pnt.,sxx,syy,szz,sxy,sxz,syz) for set EALL and time  0.2827813E+00

         1   1 -4.847678E-05 -3.388132E-21  4.743394E-48  3.588468E-22  8.481832E-22 -5.219589E-22
         1   2 -4.847678E-05 -1.016440E-20 -3.388132E-21  4.665008E-21  3.196998E-21  6.524487E-23
         1   3 -4.847678E-05  3.388132E-21  8.432701E-48 -1.304897E-21 -7.831847E-32 -1.304897E-21
         1   4 -4.847678E-05  3.388132E-21  6.776264E-21  3.001264E-21 -7.829384E-22  6.524487E-22
         1   5 -4.847678E-05  3.388132E-21  6.776264E-21 -7.829384E-22  7.829384E-22 -1.304897E-21
         1   6 -4.847678E-05  3.388132E-21  6.776264E-21 -1.826856E-21  3.131754E-21 -7.176935E-22
         1   7 -4.847678E-05 -3.388132E-21 -1.016440E-20 -5.219589E-22 -7.829384E-22 -2.087836E-21
         1   8 -4.847678E-05 -3.388132E-21 -3.388132E-21 -1.565877E-21 -3.131754E-21 -1.304897E-22
         2   1 -4.847678E-05 -3.109532E-15 -1.394856E-14 -9.751283E-16  3.831688E-14  1.531475E-15
         2   2 -4.847678E-05 -2.806894E-15  4.518247E-15  2.529592E-14  5.145240E-14 -1.085424E-15
         2   3 -4.847678E-05  5.473251E-14  5.096005E-14 -3.639228E-15  5.713214E-16  7.689368E-16
         2   4 -4.847678E-05  4.708053E-14  5.086610E-14  2.701033E-14  7.062746E-14 -1.573157E-15
         2   5 -4.847678E-05  4.569614E-14  3.699222E-14 -7.089045E-14  4.730206E-14  6.478080E-15
         2   6 -4.847678E-05  4.734532E-14  5.603612E-14  1.667973E-14  1.665250E-14 -3.563122E-15
         2   7 -4.847678E-05 -1.546032E-15 -3.183377E-15 -7.316982E-14  2.132200E-15  5.715541E-15
         2   8 -4.847678E-05 -7.851467E-15 -2.700243E-15 -3.814175E-14 -1.538183E-14 -4.050856E-15
         3   1 -4.847678E-05  1.609617E-13  9.256362E-14 -5.003414E-14 -5.584122E-14 -2.325695E-15
         3   2 -4.847678E-05  5.908082E-14  1.281573E-13  9.883515E-14 -9.086929E-14  4.841037E-15
         3   3 -4.847678E-05  2.031426E-13  1.384436E-13 -9.103150E-14  8.392363E-14 -1.126898E-14
         3   4 -4.847678E-05  1.002447E-13  1.716643E-13  4.908078E-14 -2.116058E-14  1.642685E-14
         3   5 -4.847678E-05  5.146195E-14  8.105092E-15 -1.445985E-13  8.807889E-14  2.636755E-16
         3   6 -4.847678E-05  5.017367E-14  8.680990E-14 -3.951430E-14  1.802275E-14  6.481184E-15
         3   7 -4.847678E-05  1.067784E-13  6.712062E-14 -1.568551E-13  5.175416E-14 -8.679611E-15
         3   8 -4.847678E-05  1.044731E-13  1.434524E-13  5.331329E-14 -8.835812E-14  1.806700E-14

 strains (elem, integ.pnt.,exx,eyy,ezz,exy,exz,eyz) forset EALL and time  0.2827813E+00

         1   1 -2.308418E-10  6.925255E-11  6.925255E-11  2.221432E-27  5.250658E-27 -3.231174E-27
         1   2 -2.308418E-10  6.925255E-11  6.925255E-11  2.887862E-26  1.979094E-26  4.038968E-28
         1   3 -2.308418E-10  6.925255E-11  6.925255E-11 -8.077936E-27  4.848286E-37 -8.077936E-27
         1   4 -2.308418E-10  6.925255E-11  6.925255E-11  1.857925E-26 -4.846761E-27  4.038968E-27
         1   5 -2.308418E-10  6.925255E-11  6.925255E-11 -4.846761E-27  4.846761E-27 -8.077936E-27
         1   6 -2.308418E-10  6.925255E-11  6.925255E-11 -1.130911E-26  1.938705E-26 -4.442865E-27
         1   7 -2.308418E-10  6.925255E-11  6.925255E-11 -3.231174E-27 -4.846761E-27 -1.292470E-26
         1   8 -2.308418E-10  6.925255E-11  6.925255E-11 -9.693523E-27 -1.938705E-26 -8.077936E-28
         2   1 -2.308418E-10  6.925255E-11  6.925255E-11 -6.036508E-21  2.371997E-19  9.480559E-21
         2   2 -2.308418E-10  6.925255E-11  6.925255E-11  1.565938E-19  3.185149E-19 -6.719290E-21
         2   3 -2.308418E-10  6.925255E-11  6.925255E-11 -2.252855E-20  3.536751E-21  4.760085E-21
         2   4 -2.308418E-10  6.925255E-11  6.925255E-11  1.672068E-19  4.372176E-19 -9.738588E-21
         2   5 -2.308418E-10  6.925255E-11  6.925255E-11 -4.388456E-19  2.928223E-19  4.010240E-20
         2   6 -2.308418E-10  6.925255E-11  6.925255E-11  1.032555E-19  1.030869E-19 -2.205742E-20
         2   7 -2.308418E-10  6.925255E-11  6.925255E-11 -4.529560E-19  1.319933E-20  3.538192E-20
         2   8 -2.308418E-10  6.925255E-11  6.925255E-11 -2.361156E-19 -9.522088E-20 -2.507673E-20
         3   1 -2.308418E-10  6.925255E-11  6.925255E-11 -3.097352E-19 -3.456837E-19 -1.439716E-20
         3   2 -2.308418E-10  6.925255E-11  6.925255E-11  6.118367E-19 -5.625241E-19  2.996832E-20
         3   3 -2.308418E-10  6.925255E-11  6.925255E-11 -5.635283E-19  5.195272E-19 -6.976036E-20
         3   4 -2.308418E-10  6.925255E-11  6.925255E-11  3.038334E-19 -1.309941E-19  1.016900E-19
         3   5 -2.308418E-10  6.925255E-11  6.925255E-11 -8.951337E-19  5.452503E-19  1.632277E-21
         3   6 -2.308418E-10  6.925255E-11  6.925255E-11 -2.446124E-19  1.115694E-19  4.012162E-20
         3   7 -2.308418E-10  6.925255E-11  6.925255E-11 -9.710080E-19  3.203829E-19 -5.373092E-20
         3   8 -2.308418E-10  6.925255E-11  6.925255E-11  3.300346E-19 -5.469788E-19  1.118433E-19

 displacements (vx,vy,vz) for set NALL and time  0.2917813E+00

         1  0.000000E+00  0.000000E+00  0.000000E+00
         2 -1.190944E-07  0.000000E+00  0.000000E+00
         3 -4.376719E+00  0.000000E+00  0.000000E+00
         4 -4.376719E+00  0.000000E+00  0.000000E+00
         5 -8.753437E+00  0.000000E+00  0.000000E+00
         6 -8.753438E+00  0.000000E+00  0.000000E+00
         7  0.000000E+00  3.572831E-08  0.000000E+00
         8 -1.190944E-07  3.572831E-08  0.000000E+00
         9 -4.376719E+00  3.572831E-08  0.000000E+00
        10 -4.376719E+00  3.572831E-08  0.000000E+00
        11 -8.753437E+00  3.572832E-08  0.000000E+00
        12 -8.753438E+00  3.572831E-08  0.000000E+00
        13  0.000000E+00  0.000000E+00  5.001964E-08
        14 -1.190944E-07  0.000000E+00  5.001964E-08
        15 -4.376719E+00  0.000000E+00  5.001964E-08
        16 -4.376719E+00  0.000000E+00  5.001964E-08
        17 -8.753437E+00  0.000000E+00  5.001964E-08
        18 -8.753438E+00  0.000000E+00  5.001964E-08
        19  0.000000E+00  3.572831E-08  5.001964E-08
        20 -1.190944E-07  3.572831E-08  5.001964E-08
        21 -4.376719E+00  3.572831E-08  5.001964E-08
        22 -4.376719E+00  3.572831E-08  5.001964E-08
        23 -8.753437E+00  3.572831E-08  5.001964E-08
        24 -8.753438E+00  3.572832E-08  5.001964E-08

 stresses (elem, integ.pnt.,sxx,syy,szz,sxy,sxz,syz) for set EALL and time  0.2917813E+00

         1   1 -5.001964E-05  3.388132E-21  3.388132E-21 -2.609795E-22 -4.567141E-22  5.219589E-22
         1   2 -5.001964E-05  1.355253E-20  3.388132E-21 -4.306161E-21 -5.023855E-21 -1.304897E-22
         1   3 -5.001964E-05 -6.776264E-21 -6.776264E-21  3.914692E-22  8.081109E-32  1.043918E-21
         1   4 -5.001964E-05  6.776264E-21 -3.388132E-21 -3.653712E-21  2.870774E-21 -4.567141E-22
         1   5 -5.001964E-05  3.388132E-21 -3.388132E-21  6.524486E-22  9.134281E-22  2.087836E-21
         1   6 -5.001964E-05  6.776264E-21 -3.388132E-21  2.218325E-21 -3.653712E-21 -6.524487E-23
         1   7 -5.001964E-05  6.776264E-21 -3.388132E-21  1.043918E-21  1.826856E-21  2.609795E-21
         1   8 -5.001964E-05  6.776264E-21 -3.388132E-21  2.609795E-21  2.087836E-21 -3.914692E-22
         2   1 -5.001964E-05 -4.203131E-14 -4.199641E-14  3.667855E-14  3.308124E-14  1.778964E-15
         2   2 -5.001964E-05 -3.194786E-14 -4.852970E-14  1.067347E-13 -1.946087E-14 -1.493147E-15
         2   3 -5.001964E-05  1.515832E-13  1.645743E-13  4.118776E-14  6.452395E-14 -2.430166E-15
         2   4 -5.001964E-05  1.511716E-13  1.335526E-13  1.331364E-13 -5.532188E-15 -4.846471E-15
         2   5 -5.001964E-05  9.497028E-14  1.067907E-13  7.214517E-14  2.776240E-14  1.084831E-14
         2   6 -5.001964E-05  1.092472E-13  1.020546E-13  5.463113E-14  1.372251E-13 -2.219179E-15
         2   7 -5.001964E-05 -7.920993E-14 -5.443326E-14  7.785250E-14  1.438166E-14  6.639183E-15
         2   8 -5.001964E-05 -7.542808E-14 -8.365781E-14  7.796359E-15 -2.064641E-14 -5.572502E-15
         3   1 -5.001964E-05  8.481681E-14  4.397830E-14 -5.151415E-15 -6.152546E-14  2.205828E-15
         3   2 -5.001964E-05  6.052905E-14  8.113301E-14  9.993280E-14 -5.276845E-14  4.411338E-15
         3   3 -5.001964E-05  2.736256E-14  3.251662E-14 -1.922534E-14 -7.152909E-15 -2.396254E-14
         3   4 -5.001964E-05 -4.283415E-14 -3.744954E-14  7.710185E-14  2.787516E-14  2.711689E-14
         3   5 -5.001964E-05  2.226945E-14  5.470236E-14 -1.202190E-13 -1.433034E-13  3.440063E-14
         3   6 -5.001964E-05  2.374639E-13  1.944923E-13 -1.513475E-14  4.935095E-14 -6.242210E-15
         3   7 -5.001964E-05 -4.832033E-14  3.010515E-14 -6.586940E-14 -9.675116E-14  8.232261E-15
         3   8 -5.001964E-05  1.209652E-13  6.277422E-14 -3.084133E-14 -2.669502E-14  1.646334E-14

 strains (elem, integ.pnt.,exx,eyy,ezz,exy,exz,eyz) forset EALL and time  0.2917813E+00

         1   1 -2.381888E-10  7.145663E-11  7.145663E-11 -1.615587E-27 -2.827277E-27  3.231174E-27
         1   2 -2.381888E-10  7.145663E-11  7.145663E-11 -2.665719E-26 -3.110005E-26 -8.077936E-28
         1   3 -2.381888E-10  7.145663E-11  7.145663E-11  2.423381E-27 -5.002591E-37  6.462349E-27
         1   4 -2.381888E-10  7.145663E-11  7.145663E-11 -2.261822E-26  1.777146E-26 -2.827277E-27
         1   5 -2.381888E-10  7.145663E-11  7.145663E-11  4.038968E-27  5.654555E-27  1.292470E-26
         1   6 -2.381888E-10  7.145663E-11  7.145663E-11  1.373249E-26 -2.261822E-26 -4.038968E-28
         1   7 -2.381888E-10  7.145663E-11  7.145663E-11  6.462349E-27  1.130911E-26  1.615587E-26
         1   8 -2.381888E-10  7.145663E-11  7.145663E-11  1.615587E-26  1.292470E-26 -2.423381E-27
         2   1 -2.381888E-10  7.145663E-11  7.145663E-11  2.270577E-19  2.047886E-19  1.101263E-20
         2   2 -2.381888E-10  7.145663E-11  7.145663E-11  6.607386E-19 -1.204720E-19 -9.243293E-21
         2   3 -2.381888E-10  7.145663E-11  7.145663E-11  2.549718E-19  3.994340E-19 -1.504388E-20
         2   4 -2.381888E-10  7.145663E-11  7.145663E-11  8.241780E-19 -3.424688E-20 -3.000196E-20
         2   5 -2.381888E-10  7.145663E-11  7.145663E-11  4.466129E-19  1.718625E-19  6.715622E-20
         2   6 -2.381888E-10  7.145663E-11  7.145663E-11  3.381927E-19  8.494888E-19 -1.373777E-20
         2   7 -2.381888E-10  7.145663E-11  7.145663E-11  4.819440E-19  8.902935E-20  4.109971E-20
         2   8 -2.381888E-10  7.145663E-11  7.145663E-11  4.826317E-20 -1.278111E-19 -3.449644E-20
         3   1 -2.381888E-10  7.145663E-11  7.145663E-11 -3.188971E-20 -3.808719E-19  1.365513E-20
         3   2 -2.381888E-10  7.145663E-11  7.145663E-11  6.186316E-19 -3.266618E-19  2.730829E-20
         3   3 -2.381888E-10  7.145663E-11  7.145663E-11 -1.190140E-19 -4.427991E-20 -1.483395E-19
         3   4 -2.381888E-10  7.145663E-11  7.145663E-11  4.772972E-19  1.725605E-19  1.678665E-19
         3   5 -2.381888E-10  7.145663E-11  7.145663E-11 -7.442126E-19 -8.871165E-19  2.129563E-19
         3   6 -2.381888E-10  7.145663E-11  7.145663E-11 -9.369131E-20  3.055059E-19 -3.864225E-20
         3   7 -2.381888E-10  7.145663E-11  7.145663E-11 -4.077630E-19 -5.989357E-19  5.096162E-20
         3   8 -2.381888E-10  7.145663E-11  7.145663E-11 -1.909225E-19 -1.652549E-19  1.019159E-19

 displacements (vx,vy,vz) for set NALL and time  0.3007813E+00

         1  0.000000E+00  0.000000E+00  0.000000E+00
         2 -1.227679E-07  0.000000E+00  0.000000E+00
         3 -4.511719E+00  0.000000E+00  0.000000E+00
         4 -4.511719E+00  0.000000E+00  0.000000E+00
         5 -9.023437E+00  0.000000E+00  0.000000E+00
         6 -9.023438E+00  0.000000E+00  0.000000E+00
         7  0.000000E+00  3.683036E-08  0.000000E+00
         8 -1.227679E-07  3.683036E-08  0.000000E+00
         9 -4.511719E+00  3.683036E-08  0.000000E+00
        10 -4.511719E+00  3.683036E-08  0.000000E+00
        11 -9.023437E+00  3.683036E-08  0.000000E+00
        12 -9.023438E+00  3.683036E-08  0.000000E+00
        13  0.000000E+00  0.000000E+00  5.156250E-08
        14 -1.227679E-07  0.000000E+00  5.156250E-08
        15 -4.511719E+00  0.000000E+00  5.156250E-08
        16 -4.511719E+00  0.000000E+00  5.156250E-08
        17 -9.023437E+00  0.000000E+00  5.156250E-08
        18 -9.023438E+00  0.000000E+00  5.156250E-08
        19  0.000000E+00  3.683036E-08  5.156250E-08
        20 -1.227679E-07  3.683036E-08  5.156250E-08
        21 -4.511719E+00  3.683036E-08  5.156250E-08
        22 -4.511719E+00  3.683036E-08  5.156250E-08
        23 -9.023437E+00  3.683036E-08  5.156250E-08
        24 -9.023438E+00  3.683036E-08  5.156250E-08

 stresses (elem, integ.pnt.,sxx,syy,szz,sxy,sxz,syz) for set EALL and time  0.3007813E+00

         1   1 -5.156250E-05 -1.016440E-20 -6.776264E-21  1.011295E-21 -1.957346E-22 -2.635219E-48
         1   2 -5.156250E-05  1.668094E-47  3.388132E-21  4.143049E-21 -2.153081E-21  1.239652E-21
         1   3 -5.156250E-05  1.391396E-47 -4.047697E-47  1.435387E-21 -1.565877E-21 -2.276829E-47
         1   4 -5.156250E-05  1.016440E-20  1.355253E-20  4.567141E-21 -7.307425E-21  3.457978E-21
         1   5 -5.156250E-05 -1.016440E-20 -1.016440E-20 -1.174408E-21  2.479305E-21 -6.324526E-49
         1   6 -5.156250E-05 -3.388132E-21 -3.388132E-21 -7.437915E-21  5.219589E-22  1.957346E-21
         1   7 -5.156250E-05 -1.355253E-20 -1.694066E-20  5.219589E-22  5.219589E-22  1.045655E-46
         1   8 -5.156250E-05 -6.776264E-21 -6.776264E-21 -5.741548E-21 -7.307425E-21  4.175671E-21
         2   1 -5.156250E-05  1.143108E-13  9.832747E-14  1.545478E-14 -1.608813E-14  1.303518E-15
         2   2 -5.156250E-05  9.879379E-14  9.962761E-14 -9.400793E-14 -4.235918E-14 -1.294814E-15
         2   3 -5.156250E-05 -3.167529E-14 -3.213833E-14  9.828808E-15  6.615734E-14 -5.999416E-15
         2   4 -5.156250E-05 -6.277877E-14 -6.720660E-14 -9.525540E-14 -1.264970E-13 -1.149153E-15
         2   5 -5.156250E-05 -2.655778E-14 -2.209290E-14  7.181381E-14 -1.219249E-14  1.216773E-14
         2   6 -5.156250E-05 -5.576682E-15 -5.150709E-15  3.678574E-14 -3.408503E-14 -4.977971E-15
         2   7 -5.156250E-05 -1.462728E-13 -1.262876E-13  6.559729E-15 -1.455053E-14  4.864793E-15
         2   8 -5.156250E-05 -1.408782E-13 -1.457139E-13 -1.095431E-14 -1.021207E-13 -4.832310E-15
         3   1 -5.156250E-05  3.556667E-13  3.097850E-13  6.642892E-14  2.193751E-13 -6.233382E-15
         3   2 -5.156250E-05  3.479322E-13  3.578030E-13 -2.114126E-14  5.299174E-14  6.636054E-15
         3   3 -5.156250E-05  1.975725E-13  1.510671E-13  5.651915E-14  1.561394E-13 -2.282668E-14
         3   4 -5.156250E-05  2.098029E-13  2.456698E-13  1.353323E-13  1.211113E-13  6.568828E-15
         3   5 -5.156250E-05  1.692753E-13  1.698549E-13  1.449536E-13  3.435969E-14 -6.670002E-15
         3   6 -5.156250E-05  2.425186E-13  2.525776E-13  3.986939E-14 -5.321048E-14  2.483332E-14
         3   7 -5.156250E-05 -9.390302E-14 -9.394722E-14  1.581803E-13  3.400386E-13 -2.326330E-14
         3   8 -5.156250E-05 -6.948855E-16  3.536020E-14 -1.696001E-14  5.981405E-14  2.476609E-14

 strains (elem, integ.pnt.,exx,eyy,ezz,exy,exz,eyz) forset EALL and time  0.3007813E+00

         1   1 -2.455357E-10  7.366071E-11  7.366071E-11  6.260400E-27 -1.211690E-27 -5.220244E-53
         1   2 -2.455357E-10  7.366071E-11  7.366071E-11  2.564745E-26 -1.332859E-26  7.674039E-27
         1   3 -2.455357E-10  7.366071E-11  7.366071E-11  8.885729E-27 -9.693523E-27 -2.088097E-52
         1   4 -2.455357E-10  7.366071E-11  7.366071E-11  2.827277E-26 -4.523644E-26  2.140653E-26
         1   5 -2.455357E-10  7.366071E-11  7.366071E-11 -7.270142E-27  1.534808E-26  1.044049E-52
         1   6 -2.455357E-10  7.366071E-11  7.366071E-11 -4.604423E-26  3.231174E-27  1.211690E-26
         1   7 -2.455357E-10  7.366071E-11  7.366071E-11  3.231174E-27  3.231174E-27  4.176195E-52
         1   8 -2.455357E-10  7.366071E-11  7.366071E-11 -3.554292E-26 -4.523644E-26  2.584939E-26
         2   1 -2.455357E-10  7.366071E-11  7.366071E-11  9.567248E-20 -9.959319E-20  8.069394E-21
         2   2 -2.455357E-10  7.366071E-11  7.366071E-11 -5.819539E-19 -2.622235E-19 -8.015513E-21
         2   3 -2.455357E-10  7.366071E-11  7.366071E-11  6.084500E-20  4.095454E-19 -3.713924E-20
         2   4 -2.455357E-10  7.366071E-11  7.366071E-11 -5.896763E-19 -7.830770E-19 -7.113802E-21
         2   5 -2.455357E-10  7.366071E-11  7.366071E-11  4.445617E-19 -7.547731E-20  7.532402E-20
         2   6 -2.455357E-10  7.366071E-11  7.366071E-11  2.277213E-19 -2.110026E-19 -3.081601E-20
         2   7 -2.455357E-10  7.366071E-11  7.366071E-11  4.060785E-20 -9.007468E-20  3.011539E-20
         2   8 -2.455357E-10  7.366071E-11  7.366071E-11 -6.781237E-20 -6.321758E-19 -2.991430E-20
         3   1 -2.455357E-10  7.366071E-11  7.366071E-11  4.112266E-19  1.358036E-18 -3.858760E-20
         3   2 -2.455357E-10  7.366071E-11  7.366071E-11 -1.308745E-19  3.280441E-19  4.108033E-20
         3   3 -2.455357E-10  7.366071E-11  7.366071E-11  3.498805E-19  9.665773E-19 -1.413080E-19
         3   4 -2.455357E-10  7.366071E-11  7.366071E-11  8.377714E-19  7.497368E-19  4.066417E-20
         3   5 -2.455357E-10  7.366071E-11  7.366071E-11  8.973318E-19  2.127029E-19 -4.129049E-20
         3   6 -2.455357E-10  7.366071E-11  7.366071E-11  2.468105E-19 -3.293982E-19  1.537300E-19
         3   7 -2.455357E-10  7.366071E-11  7.366071E-11  9.792116E-19  2.105001E-18 -1.440109E-19
         3   8 -2.455357E-10  7.366071E-11  7.366071E-11 -1.049906E-19  3.702774E-19  1.533139E-19

 displacements (vx,vy,vz) for set NALL and time  0.3097813E+00

         1  0.000000E+00  0.000000E+00  0.000000E+00
         2 -1.264413E-07  0.000000E+00  0.000000E+00
         3 -4.646719E+00  0.000000E+00  0.000000E+00
         4 -4.646719E+00  0.000000E+00  0.000000E+00
         5 -9.293437E+00  0.000000E+00  0.000000E+00
         6 -9.293438E+00  0.000000E+00  0.000000E+00
         7  0.000000E+00  3.793240E-08  0.000000E+00
         8 -1.264413E-07  3.793240E-08  0.000000E+00
         9 -4.646719E+00  3.793240E-08  0.000000E+00
        10 -4.646719E+00  3.793240E-08  0.000000E+00
        11 -9.293437E+00  3.793240E-08  0.000000E+00
        12 -9.293438E+00  3.793240E-08  0.000000E+00
        13  0.000000E+00  0.000000E+00  5.310535E-08
        14 -1.264413E-07  0.000000E+00  5.310535E-08
        15 -4.646719E+00  0.000000E+00  5.310535E-08
        16 -4.646719E+00  0.000000E+00  5.310535E-08
        17 -9.293437E+00  0.000000E+00  5.310536E-08
        18 -9.293438E+00  0.000000E+00  5.310535E-08
        19  0.000000E+00  3.793240E-08  5.310535E-08
        20 -1.264413E-07  3.793240E-08  5.310535E-08
        21 -4.646719E+00  3.793240E-08  5.310535E-08
        22 -4.646719E+00  3.793240E-08  5.310536E-08
        23 -9.293437E+00  3.793240E-08  5.310536E-08
        24 -9.293438E+00  3.793240E-08  5.310535E-08

 stresses (elem, integ.pnt.,sxx,syy,szz,sxy,sxz,syz) for set EALL and time  0.3097813E+00

         1   1 -5.310535E-05 -3.388132E-21 -4.890967E-47  9.460505E-22  1.565877E-21 -2.609795E-22
         1   2 -5.310535E-05 -9.644902E-48 -6.776264E-21  4.077804E-21  1.187457E-20 -9.786730E-23
         1   3 -5.310535E-05  2.833388E-46 -5.059621E-48  1.043918E-21 -7.829384E-22 -3.131754E-21
         1   4 -5.310535E-05  3.388132E-21 -6.776264E-21  4.175671E-21  3.392733E-21 -1.174408E-21
         1   5 -5.310535E-05  3.388132E-21  1.355253E-20 -1.043918E-21 -1.957346E-21  1.304897E-21
         1   6 -5.310535E-05  1.016440E-20  3.388132E-21 -7.307425E-21  8.351343E-21  4.240916E-22
         1   7 -5.310535E-05  1.619079E-46  6.776264E-21  1.043918E-21 -5.219589E-21 -1.043918E-21
         1   8 -5.310535E-05 -3.857961E-46 -1.016440E-20 -5.219589E-21 -1.043918E-21 -6.524487E-22
         2   1 -5.310535E-05  1.315476E-15 -7.896560E-15  6.762762E-14 -3.344835E-14 -1.270870E-15
         2   2 -5.310535E-05 -1.728231E-14 -7.059149E-15  1.639548E-13  2.347226E-14  2.140907E-15
         2   3 -5.310535E-05  2.214443E-13  2.079987E-13  6.099278E-14  7.420632E-14 -1.779500E-15
         2   4 -5.310535E-05  2.103707E-13  2.263927E-13  1.967266E-13 -1.336386E-14  3.930803E-15
         2   5 -5.310535E-05  3.822978E-14  3.044190E-14 -1.250674E-15 -2.913249E-14 -4.234325E-15
         2   6 -5.310535E-05  3.089475E-14  3.610621E-14  1.563756E-13  1.465260E-14  6.200076E-15
         2   7 -5.310535E-05  2.189520E-13  2.069306E-13 -4.667578E-15  1.548867E-14 -4.742954E-15
         2   8 -5.310535E-05  2.191412E-13  2.301515E-13  1.704728E-13 -5.456747E-14  7.989973E-15
         3   1 -5.310536E-05 -3.108728E-13 -2.342324E-13 -2.263235E-14 -1.867358E-13  4.366622E-15
         3   2 -5.310536E-05 -2.262850E-13 -2.626325E-13  8.245187E-14 -1.429508E-13  4.490144E-16
         3   3 -5.310536E-05 -1.166724E-13 -4.380871E-14  1.123341E-14  1.266653E-13  1.894012E-14
         3   4 -5.310536E-05 -3.750422E-14 -8.485458E-14 -2.379466E-14  2.158110E-14  9.377735E-15
         3   5 -5.310536E-05 -1.475140E-13 -1.116794E-13  1.496154E-13 -1.833872E-13  1.722958E-15
         3   6 -5.310536E-05 -9.058557E-14 -1.519335E-13 -2.552493E-14  9.267139E-15 -7.252977E-15
         3   7 -5.310536E-05 -3.079728E-13 -2.759149E-13  3.546620E-14 -5.018477E-14  1.629646E-14
         3   8 -5.310536E-05 -2.564640E-13 -3.288148E-13 -6.961801E-14  1.599837E-13  1.675745E-15

 strains (elem, integ.pnt.,exx,eyy,ezz,exy,exz,eyz) forset EALL and time  0.3097813E+00

         1   1 -2.528826E-10  7.586479E-11  7.586479E-11  5.856503E-27  9.693523E-27 -1.615587E-27
         1   2 -2.528826E-10  7.586479E-11  7.586479E-11  2.524355E-26  7.350921E-26 -6.058452E-28
         1   3 -2.528826E-10  7.586479E-11  7.586479E-11  6.462349E-27 -4.846761E-27 -1.938705E-26
         1   4 -2.528826E-10  7.586479E-11  7.586479E-11  2.584939E-26  2.100263E-26 -7.270142E-27
         1   5 -2.528826E-10  7.586479E-11  7.586479E-11 -6.462349E-27 -1.211690E-26  8.077936E-27
         1   6 -2.528826E-10  7.586479E-11  7.586479E-11 -4.523644E-26  5.169879E-26  2.625329E-27
         1   7 -2.528826E-10  7.586479E-11  7.586479E-11  6.462349E-27 -3.231174E-26 -6.462349E-27
         1   8 -2.528826E-10  7.586479E-11  7.586479E-11 -3.231174E-26 -6.462349E-27 -4.038968E-27
         2   1 -2.528826E-10  7.586479E-11  7.586479E-11  4.186472E-19 -2.070612E-19 -7.867293E-21
         2   2 -2.528826E-10  7.586479E-11  7.586479E-11  1.014958E-18  1.453045E-19  1.325323E-20
         2   3 -2.528826E-10  7.586479E-11  7.586479E-11  3.775744E-19  4.593724E-19 -1.101595E-20
         2   4 -2.528826E-10  7.586479E-11  7.586479E-11  1.217831E-18 -8.272865E-20  2.433354E-20
         2   5 -2.528826E-10  7.586479E-11  7.586479E-11 -7.742268E-21 -1.803440E-19 -2.621249E-20
         2   6 -2.528826E-10  7.586479E-11  7.586479E-11  9.680397E-19  9.070658E-20  3.838143E-20
         2   7 -2.528826E-10  7.586479E-11  7.586479E-11 -2.889453E-20  9.588223E-20 -2.936114E-20
         2   8 -2.528826E-10  7.586479E-11  7.586479E-11  1.055308E-18 -3.377986E-19  4.946174E-20
         3   1 -2.528826E-10  7.586479E-11  7.586479E-11 -1.401050E-19 -1.155984E-18  2.703147E-20
         3   2 -2.528826E-10  7.586479E-11  7.586479E-11  5.104163E-19 -8.849332E-19  2.779613E-21
         3   3 -2.528826E-10  7.586479E-11  7.586479E-11  6.954013E-20  7.841186E-19  1.172484E-19
         3   4 -2.528826E-10  7.586479E-11  7.586479E-11 -1.473003E-19  1.335973E-19  5.805265E-20
         3   5 -2.528826E-10  7.586479E-11  7.586479E-11  9.261907E-19 -1.135254E-18  1.066593E-20
         3   6 -2.528826E-10  7.586479E-11  7.586479E-11 -1.580115E-19  5.736800E-20 -4.489938E-20
         3   7 -2.528826E-10  7.586479E-11  7.586479E-11  2.195527E-19 -3.106676E-19  1.008828E-19
         3   8 -2.528826E-10  7.586479E-11  7.586479E-11 -4.309686E-19  9.903750E-19  1.037366E-20

 displacements (vx,vy,vz) for set NALL and time  0.3187813E+00

         1  0.000000E+00  0.000000E+00  0.000000E+00
         2 -1.301148E-07  0.000000E+00  0.000000E+00
         3 -4.781719E+00  0.000000E+00  0.000000E+00
         4 -4.781719E+00  0.000000E+00  0.000000E+00
         5 -9.563437E+00  0.000000E+00  0.000000E+00
         6 -9.563438E+00  0.000000E+00  0.000000E+00
         7  0.000000E+00  3.903444E-08  0.000000E+00
         8 -1.301148E-07  3.903444E-08  0.000000E+00
         9 -4.781719E+00  3.903444E-08  0.000000E+00
        10 -4.781719E+00  3.903444E-08  0.000000E+00
        11 -9.563437E+00  3.903444E-08  0.000000E+00
        12 -9.563438E+00  3.903444E-08  0.000000E+00
        13  0.000000E+00  0.000000E+00  5.464821E-08
        14 -1.301148E-07  0.000000E+00  5.464821E-08
        15 -4.781719E+00  0.000000E+00  5.464821E-08
        16 -4.781719E+00  0.000000E+00  5.464821E-08
        17 -9.563437E+00  0.000000E+00  5.464821E-08
        18 -9.563438E+00  0.000000E+00  5.464821E-08
        19  0.000000E+00  3.903444E-08  5.464821E-08
        20 -1.301148E-07  3.903444E-08  5.464821E-08
        21 -4.781719E+00  3.903444E-08  5.464821E-08
        22 -4.781719E+00  3.903444E-08  5.464821E-08
        23 -9.563437E+00  3.903444E-08  5.464821E-08
        24 -9.563438E+00  3.903444E-08  5.464821E-08

 stresses (elem, integ.pnt.,sxx,syy,szz,sxy,sxz,syz) for set EALL and time  0.3187813E+00

         1   1 -5.464821E-05 -3.388132E-21 -3.373080E-48 -1.141785E-21 -1.043918E-21  1.304897E-22
         1   2 -5.464821E-05  5.296790E-48  6.776264E-21 -2.185703E-21 -6.133017E-21 -4.567141E-22
         1   3 -5.464821E-05  4.089860E-47  3.860345E-67 -1.435387E-21  1.765779E-31  1.043918E-21
         1   4 -5.464821E-05  6.776264E-21  6.776264E-21 -2.479305E-21  3.653712E-21 -1.957346E-22
         1   5 -5.464821E-05 -3.388132E-21 -3.388132E-21  6.524487E-22 -6.524487E-22  1.304897E-22
         1   6 -5.464821E-05 -6.776264E-21 -1.349232E-47  5.872038E-21 -5.741548E-21 -1.565877E-21
         1   7 -5.464821E-05  3.388132E-21  8.095393E-47 -5.219589E-22 -1.565877E-21  1.043918E-21
         1   8 -5.464821E-05 -3.388132E-21 -3.388132E-21  4.697630E-21  7.063116E-31 -1.304897E-21
         2   1 -5.464821E-05  1.477013E-14 -2.614469E-15 -2.079902E-14 -1.573514E-14  1.816959E-15
         2   2 -5.464821E-05 -1.143426E-14 -3.926492E-15  1.860756E-14  5.869951E-14 -2.532887E-16
         2   3 -5.464821E-05 -6.106962E-15 -7.542595E-15 -2.977375E-14 -3.648642E-15 -4.383293E-15
         2   4 -5.464821E-05 -4.819882E-14 -4.592538E-14  1.838985E-14  1.386539E-14  2.718741E-15
         2   5 -5.464821E-05 -4.844991E-14 -4.847381E-14 -6.864092E-14 -1.087511E-14  1.298123E-14
         2   6 -5.464821E-05 -2.971013E-14 -3.052405E-14  1.892926E-14  1.204801E-13 -3.917316E-15
         2   7 -5.464821E-05 -6.275924E-14 -4.683417E-14 -6.477446E-14 -1.361692E-14  6.780983E-15
         2   8 -5.464821E-05 -5.990693E-14 -6.595517E-14 -2.974639E-14 -3.113095E-14 -9.452856E-16
         3   1 -5.464821E-05  1.787366E-13  1.377763E-13  2.780579E-14  4.080510E-14 -7.077972E-16
         3   2 -5.464821E-05  1.265865E-13  1.476368E-13  1.904878E-14  6.707616E-14  5.123686E-15
         3   3 -5.464821E-05  1.466800E-13  1.330337E-13  8.074171E-15  2.783758E-13 -2.176135E-14
         3   4 -5.464821E-05  7.220761E-14  9.080890E-14 -6.828462E-16 -1.069330E-13  2.083615E-14
         3   5 -5.464821E-05  2.303213E-14  4.102176E-14  1.161794E-14  5.658825E-14  1.841202E-14
         3   6 -5.464821E-05  1.510355E-13  1.280908E-13  8.167408E-14 -1.346789E-14  3.409389E-15
         3   7 -5.464821E-05 -9.024458E-15  3.627919E-14  4.335874E-14 -6.899744E-15 -2.641534E-15
         3   8 -5.464821E-05  9.665661E-14  7.126298E-14  4.335874E-14  2.032687E-13  1.912186E-14

 strains (elem, integ.pnt.,exx,eyy,ezz,exy,exz,eyz) forset EALL and time  0.3187813E+00

         1   1 -2.602296E-10  7.806887E-11  7.806887E-11 -7.068194E-27 -6.462349E-27  8.077936E-28
         1   2 -2.602296E-10  7.806887E-11  7.806887E-11 -1.353054E-26 -3.796630E-26 -2.827277E-27
         1   3 -2.602296E-10  7.806887E-11  7.806887E-11 -8.885729E-27 -1.093101E-36  6.462349E-27
         1   4 -2.602296E-10  7.806887E-11  7.806887E-11 -1.534808E-26  2.261822E-26 -1.211690E-27
         1   5 -2.602296E-10  7.806887E-11  7.806887E-11  4.038968E-27 -4.038968E-27  8.077936E-28
         1   6 -2.602296E-10  7.806887E-11  7.806887E-11  3.635071E-26 -3.554292E-26 -9.693523E-27
         1   7 -2.602296E-10  7.806887E-11  7.806887E-11 -3.231174E-27 -9.693523E-27  6.462349E-27
         1   8 -2.602296E-10  7.806887E-11  7.806887E-11  2.908057E-26 -4.372405E-36 -8.077936E-27
         2   1 -2.602296E-10  7.806887E-11  7.806887E-11 -1.287558E-19 -9.740802E-20  1.124784E-20
         2   2 -2.602296E-10  7.806887E-11  7.806887E-11  1.151897E-19  3.633779E-19 -1.567977E-21
         2   3 -2.602296E-10  7.806887E-11  7.806887E-11 -1.843137E-19 -2.258683E-20 -2.713467E-20
         2   4 -2.602296E-10  7.806887E-11  7.806887E-11  1.138419E-19  8.583339E-20  1.683030E-20
         2   5 -2.602296E-10  7.806887E-11  7.806887E-11 -4.249200E-19 -6.732213E-20  8.036002E-20
         2   6 -2.602296E-10  7.806887E-11  7.806887E-11  1.171811E-19  7.458295E-19 -2.425005E-20
         2   7 -2.602296E-10  7.806887E-11  7.806887E-11 -4.009847E-19 -8.429520E-20  4.197751E-20
         2   8 -2.602296E-10  7.806887E-11  7.806887E-11 -1.841443E-19 -1.927154E-19 -5.851768E-21
         3   1 -2.602296E-10  7.806887E-11  7.806887E-11  1.721311E-19  2.526030E-19 -4.381602E-21
         3   2 -2.602296E-10  7.806887E-11  7.806887E-11  1.179210E-19  4.152333E-19  3.171806E-20
         3   3 -2.602296E-10  7.806887E-11  7.806887E-11  4.998297E-20  1.723279E-18 -1.347131E-19
         3   4 -2.602296E-10  7.806887E-11  7.806887E-11 -4.227143E-21 -6.619661E-19  1.289857E-19
         3   5 -2.602296E-10  7.806887E-11  7.806887E-11  7.192058E-20  3.503082E-19  1.139791E-19
         3   6 -2.602296E-10  7.806887E-11  7.806887E-11  5.056015E-19 -8.337265E-20  2.110574E-20
         3   7 -2.602296E-10  7.806887E-11  7.806887E-11  2.684113E-19 -4.271270E-20 -1.635236E-20
         3   8 -2.602296E-10  7.806887E-11  7.806887E-11  2.684113E-19  1.258330E-18  1.183734E-19

 displacements (vx,vy,vz) for set NALL and time  0.3277813E+00

         1  0.000000E+00  0.000000E+00  0.000000E+00
         2 -1.337883E-07  0.000000E+00  0.000000E+00
         3 -4.916719E+00  0.000000E+00  0.000000E+00
         4 -4.916719E+00  0.000000E+00  0.000000E+00
         5 -9.833437E+00  0.000000E+00  0.000000E+00
         6 -9.833438E+00  0.000000E+00  0.000000E+00
         7  0.000000E+00  4.013648E-08  0.000000E+00
         8 -1.337883E-07  4.013648E-08  0.000000E+00
         9 -4.916719E+00  4.013648E-08  0.000000E+00
        10 -4.916719E+00  4.013648E-08  0.000000E+00
        11 -9.833437E+00  4.013648E-08  0.000000E+00
        12 -9.833438E+00  4.013648E-08  0.000000E+00
        13  0.000000E+00  0.000000E+00  5.619107E-08
        14 -1.337883E-07  0.000000E+00  5.619107E-08
        15 -4.916719E+00  0.000000E+00  5.619107E-08
        16 -4.916719E+00  0.000000E+00  5.619107E-08
        17 -9.833437E+00  0.000000E+00  5.619107E-08
        18 -9.833438E+00  0.000000E+00  5.619107E-08
        19  0.000000E+00  4.013648E-08  5.619107E-08
        20 -1.337883E-07  4.013648E-08  5.619107E-08
        21 -4.916719E+00  4.013648E-08  5.619107E-08
        22 -4.916719E+00  4.013648E-08  5.619107E-08
        23 -9.833437E+00  4.013648E-08  5.619107E-08
        24 -9.833438E+00  4.013648E-08  5.619107E-08

 stresses (elem, integ.pnt.,sxx,syy,szz,sxy,sxz,syz) for set EALL and time  0.3277813E+00

         1   1 -5.619107E-05 -3.388132E-21 -2.213584E-48  6.850711E-22  1.370142E-21 -3.914692E-22
         1   2 -5.619107E-05 -1.355253E-20 -3.388132E-21  4.991232E-21  4.110426E-21 -2.283570E-22
         1   3 -5.619107E-05  3.388132E-21  3.388132E-21 -1.565877E-21 -2.609795E-22 -1.565877E-21
         1   4 -5.619107E-05 -6.776264E-21 -3.388132E-21  2.740284E-21 -2.609795E-22  1.957346E-22
         1   5 -5.619107E-05 -4.216351E-48  6.776264E-21 -6.524486E-22  1.174408E-21  6.524487E-22
         1   6 -5.619107E-05  8.037418E-48  3.388132E-21 -2.218325E-21  3.914692E-21  3.588468E-22
         1   7 -5.619107E-05  5.396929E-47  3.388132E-21 -5.219589E-22 -5.219589E-22 -1.043918E-21
         1   8 -5.619107E-05  1.011924E-47  3.204426E-47 -2.087836E-21 -1.043918E-21  7.829384E-22
         2   1 -5.619107E-05  7.703497E-14  4.764955E-14 -2.254184E-14 -2.836430E-14  3.035268E-15
         2   2 -5.619107E-05  4.846441E-14  7.255966E-14  3.875728E-14 -4.149982E-14 -3.481503E-16
         2   3 -5.619107E-05  1.148704E-13  1.096611E-13 -3.627805E-14 -7.308595E-14 -5.595539E-15
         2   4 -5.619107E-05  5.792480E-14  6.836284E-14  2.939958E-14  6.702633E-14  8.260733E-15
         2   5 -5.619107E-05  2.817626E-14  2.295710E-14  3.806426E-15 -1.015853E-14  1.995858E-14
         2   6 -5.619107E-05  8.408017E-14  8.407055E-14  3.883450E-14 -1.891554E-14 -9.908196E-15
         2   7 -5.619107E-05  7.257944E-14  9.153643E-14  1.420578E-14 -1.130740E-14  1.132777E-14
         2   8 -5.619107E-05  1.001083E-13  8.644148E-14 -3.308259E-15 -2.039618E-13 -1.299313E-15
         3   1 -5.619107E-05 -2.025662E-13 -2.486896E-13 -5.224674E-15  1.386644E-14  1.857627E-15
         3   2 -5.619107E-05 -2.119357E-13 -1.753911E-13  6.483147E-14 -1.087318E-13  2.478682E-15
         3   3 -5.619107E-05 -2.237821E-13 -2.631653E-13 -1.949875E-14  1.494216E-14  2.214630E-15
         3   4 -5.619107E-05 -2.300027E-13 -1.825196E-13  5.055739E-14 -5.511398E-14  1.593521E-15
         3   5 -5.619107E-05 -1.745459E-13 -2.216688E-13 -2.860858E-13  5.175026E-14  6.575758E-15
         3   6 -5.619107E-05 -1.900019E-13 -1.509789E-13 -4.088927E-14  1.130494E-13  1.013573E-14
         3   7 -5.619107E-05 -2.220328E-13 -2.624156E-13 -3.020989E-13  1.958772E-13  6.932760E-15
         3   8 -5.619107E-05 -2.343400E-13 -1.843784E-13  1.315377E-14  2.073682E-14  9.250566E-15

 strains (elem, integ.pnt.,exx,eyy,ezz,exy,exz,eyz) forset EALL and time  0.3277813E+00

         1   1 -2.675765E-10  8.027296E-11  8.027296E-11  4.240916E-27  8.481832E-27 -2.423381E-27
         1   2 -2.675765E-10  8.027296E-11  8.027296E-11  3.089810E-26  2.544550E-26 -1.413639E-27
         1   3 -2.675765E-10  8.027296E-11  8.027296E-11 -9.693523E-27 -1.615587E-27 -9.693523E-27
         1   4 -2.675765E-10  8.027296E-11  8.027296E-11  1.696366E-26 -1.615587E-27  1.211690E-27
         1   5 -2.675765E-10  8.027296E-11  8.027296E-11 -4.038968E-27  7.270142E-27  4.038968E-27
         1   6 -2.675765E-10  8.027296E-11  8.027296E-11 -1.373249E-26  2.423381E-26  2.221432E-27
         1   7 -2.675765E-10  8.027296E-11  8.027296E-11 -3.231174E-27 -3.231174E-27 -6.462349E-27
         1   8 -2.675765E-10  8.027296E-11  8.027296E-11 -1.292470E-26 -6.462349E-27  4.846761E-27
         2   1 -2.675765E-10  8.027296E-11  8.027296E-11 -1.395447E-19 -1.755885E-19  1.878975E-20
         2   2 -2.675765E-10  8.027296E-11  8.027296E-11  2.399260E-19 -2.569037E-19 -2.155216E-21
         2   3 -2.675765E-10  8.027296E-11  8.027296E-11 -2.245784E-19 -4.524368E-19 -3.463905E-20
         2   4 -2.675765E-10  8.027296E-11  8.027296E-11  1.819974E-19  4.149249E-19  5.113787E-20
         2   5 -2.675765E-10  8.027296E-11  8.027296E-11  2.356359E-20 -6.288612E-20  1.235531E-19
         2   6 -2.675765E-10  8.027296E-11  8.027296E-11  2.404040E-19 -1.170962E-19 -6.133645E-20
         2   7 -2.675765E-10  8.027296E-11  8.027296E-11  8.794052E-20 -6.999817E-20  7.012430E-20
         2   8 -2.675765E-10  8.027296E-11  8.027296E-11 -2.047970E-20 -1.262621E-18 -8.043367E-21
         3   1 -2.675765E-10  8.027296E-11  8.027296E-11 -3.234322E-20  8.583987E-20  1.149960E-20
         3   2 -2.675765E-10  8.027296E-11  8.027296E-11  4.013376E-19 -6.731016E-19  1.534422E-20
         3   3 -2.675765E-10  8.027296E-11  8.027296E-11 -1.207065E-19  9.249908E-20  1.370961E-20
         3   4 -2.675765E-10  8.027296E-11  8.027296E-11  3.129743E-19 -3.411818E-19  9.864654E-21
         3   5 -2.675765E-10  8.027296E-11  8.027296E-11 -1.771007E-18  3.203588E-19  4.070707E-20
         3   6 -2.675765E-10  8.027296E-11  8.027296E-11 -2.531241E-19  6.998295E-19  6.274497E-20
         3   7 -2.675765E-10  8.027296E-11  8.027296E-11 -1.870136E-18  1.212573E-18  4.291709E-20
         3   8 -2.675765E-10  8.027296E-11  8.027296E-11  8.142808E-20  1.283708E-19  5.726541E-20

 displacements (vx,vy,vz) for set NALL and time  0.3367813E+00

         1  0.000000E+00  0.000000E+00  0.000000E+00
         2 -1.374617E-07  0.000000E+00  0.000000E+00
         3 -5.051719E+00  0.000000E+00  0.000000E+00
         4 -5.051719E+00  0.000000E+00  0.000000E+00
         5 -1.010344E+01  0.000000E+00  0.000000E+00
         6 -1.010344E+01  0.000000E+00  0.000000E+00
         7  0.000000E+00  4.123852E-08  0.000000E+00
         8 -1.374617E-07  4.123852E-08  0.000000E+00
         9 -5.051719E+00  4.123852E-08  0.000000E+00
        10 -5.051719E+00  4.123852E-08  0.000000E+00
        11 -1.010344E+01  4.123852E-08  0.000000E+00
        12 -1.010344E+01  4.123852E-08  0.000000E+00
        13  0.000000E+00  0.000000E+00  5.773393E-08
        14 -1.374617E-07  0.000000E+00  5.773393E-08
        15 -5.051719E+00  0.000000E+00  5.773393E-08
        16 -5.051719E+00  0.000000E+00  5.773393E-08
        17 -1.010344E+01  0.000000E+00  5.773393E-08
        18 -1.010344E+01  0.000000E+00  5.773393E-08
        19  0.000000E+00  4.123852E-08  5.773393E-08
        20 -1.374617E-07  4.123852E-08  5.773393E-08
        21 -5.051719E+00  4.123852E-08  5.773393E-08
        22 -5.051719E+00  4.123852E-08  5.773393E-08
        23 -1.010344E+01  4.123852E-08  5.773393E-08
        24 -1.010344E+01  4.123852E-08  5.773393E-08

 stresses (elem, integ.pnt.,sxx,syy,szz,sxy,sxz,syz) for set EALL and time  0.3367813E+00

         1   1 -5.773393E-05 -1.355253E-20  2.034389E-47 -4.567141E-22 -5.872038E-22  9.134281E-22
         1   2 -5.773393E-05  3.388132E-21  3.388132E-21 -3.979937E-21 -1.631122E-21 -7.829384E-22
         1   3 -5.773393E-05 -1.016440E-20  3.388132E-21  1.043918E-21  1.565877E-21  2.087836E-21
         1   4 -5.773393E-05  3.388132E-21  3.388132E-21 -2.479305E-21  7.307425E-21 -2.609795E-21
         1   5 -5.773393E-05 -7.589431E-48  3.388132E-21  1.957346E-21 -1.043918E-21  2.479305E-21
         1   6 -5.773393E-05 -6.776264E-21 -3.388132E-21  1.187457E-20 -2.087836E-21 -2.740284E-21
         1   7 -5.773393E-05  1.355253E-20  1.694066E-20  5.219589E-22 -1.043918E-21  3.653712E-21
         1   8 -5.773393E-05 -2.593056E-46  3.388132E-21  1.043918E-20  6.263507E-21 -4.567141E-21
         2   1 -5.773393E-05 -6.013809E-15 -3.404185E-14 -5.784071E-14 -2.924798E-14 -2.059275E-15
         2   2 -5.773393E-05 -3.976058E-14 -1.627719E-14  2.972946E-14 -2.924798E-14  2.052540E-16
         2   3 -5.773393E-05  1.601626E-14 -8.909414E-15 -7.231679E-14  3.749435E-15 -9.856981E-15
         2   4 -5.773393E-05 -2.367465E-14 -5.014401E-15  2.401041E-14 -6.630671E-14  4.142217E-15
         2   5 -5.773393E-05 -1.821456E-13 -1.883401E-13  7.146517E-16 -1.345647E-14  1.123861E-16
         2   6 -5.773393E-05 -1.583925E-13 -1.459326E-13  1.233129E-13 -7.475559E-14 -3.170945E-15
         2   7 -5.773393E-05 -1.010056E-13 -1.040978E-13  2.667117E-15  8.404922E-14 -7.685319E-15
         2   8 -5.773393E-05 -8.319669E-14 -7.555994E-14  1.427794E-13  4.902115E-14  7.660184E-16
         3   1 -5.773393E-05 -2.407055E-14 -2.478706E-14 -1.917120E-15  1.009997E-13  1.207636E-15
         3   2 -5.773393E-05 -5.435842E-14 -6.054097E-14 -1.683005E-13  1.009997E-13  3.640398E-15
         3   3 -5.773393E-05 -1.403946E-14 -1.381172E-15 -7.154791E-15 -1.466459E-13 -4.855399E-15
         3   4 -5.773393E-05 -5.149653E-14 -5.386321E-14  1.066864E-13  2.386629E-13  1.091505E-14
         3   5 -5.773393E-05 -1.063215E-13 -9.006154E-14 -1.351947E-13  2.299531E-13  1.056999E-14
         3   6 -5.773393E-05 -7.125474E-14 -9.780631E-14 -1.702228E-13 -1.378417E-13  6.311501E-15
         3   7 -5.773393E-05 -9.629042E-14 -6.665565E-14 -1.217596E-13 -2.438385E-14  4.506958E-15
         3   8 -5.773393E-05 -6.839285E-14 -9.112855E-14  8.840881E-14  1.157284E-13  1.358615E-14

 strains (elem, integ.pnt.,exx,eyy,ezz,exy,exz,eyz) forset EALL and time  0.3367813E+00

         1   1 -2.749235E-10  8.247704E-11  8.247704E-11 -2.827277E-27 -3.635071E-27  5.654555E-27
         1   2 -2.749235E-10  8.247704E-11  8.247704E-11 -2.463770E-26 -1.009742E-26 -4.846761E-27
         1   3 -2.749235E-10  8.247704E-11  8.247704E-11  6.462349E-27  9.693523E-27  1.292470E-26
         1   4 -2.749235E-10  8.247704E-11  8.247704E-11 -1.534808E-26  4.523644E-26 -1.615587E-26
         1   5 -2.749235E-10  8.247704E-11  8.247704E-11  1.211690E-26 -6.462349E-27  1.534808E-26
         1   6 -2.749235E-10  8.247704E-11  8.247704E-11  7.350921E-26 -1.292470E-26 -1.696366E-26
         1   7 -2.749235E-10  8.247704E-11  8.247704E-11  3.231174E-27 -6.462349E-27  2.261822E-26
         1   8 -2.749235E-10  8.247704E-11  8.247704E-11  6.462349E-26  3.877409E-26 -2.827277E-26
         2   1 -2.749235E-10  8.247704E-11  8.247704E-11 -3.580616E-19 -1.810589E-19 -1.274789E-20
         2   2 -2.749235E-10  8.247704E-11  8.247704E-11  1.840395E-19 -1.810589E-19  1.270620E-21
         2   3 -2.749235E-10  8.247704E-11  8.247704E-11 -4.476753E-19  2.321079E-20 -6.101940E-20
         2   4 -2.749235E-10  8.247704E-11  8.247704E-11  1.486359E-19 -4.104701E-19  2.564230E-20
         2   5 -2.749235E-10  8.247704E-11  8.247704E-11  4.424034E-21 -8.330196E-20  6.957235E-22
         2   6 -2.749235E-10  8.247704E-11  8.247704E-11  7.633656E-19 -4.627727E-19 -1.962966E-20
         2   7 -2.749235E-10  8.247704E-11  8.247704E-11  1.651072E-20  5.203047E-19 -4.757578E-20
         2   8 -2.749235E-10  8.247704E-11  8.247704E-11  8.838725E-19  3.034643E-19  4.742019E-21
         3   1 -2.749235E-10  8.247704E-11  8.247704E-11 -1.186789E-20  6.252365E-19  7.475840E-21
         3   2 -2.749235E-10  8.247704E-11  8.247704E-11 -1.041860E-18  6.252365E-19  2.253580E-20
         3   3 -2.749235E-10  8.247704E-11  8.247704E-11 -4.429156E-20 -9.078080E-19 -3.005723E-20
         3   4 -2.749235E-10  8.247704E-11  8.247704E-11  6.604398E-19  1.477437E-18  6.756934E-20
         3   5 -2.749235E-10  8.247704E-11  8.247704E-11 -8.369196E-19  1.423519E-18  6.543328E-20
         3   6 -2.749235E-10  8.247704E-11  8.247704E-11 -1.053760E-18 -8.533056E-19  3.907120E-20
         3   7 -2.749235E-10  8.247704E-11  8.247704E-11 -7.537500E-19 -1.509476E-19  2.790021E-20
         3   8 -2.749235E-10  8.247704E-11  8.247704E-11  5.472926E-19  7.164141E-19  8.410474E-20

 displacements (vx,vy,vz) for set NALL and time  0.3457813E+00

         1  0.000000E+00  0.000000E+00  0.000000E+00
         2 -1.411352E-07  0.000000E+00  0.000000E+00
         3 -5.186719E+00  0.000000E+00  0.000000E+00
         4 -5.186719E+00  0.000000E+00  0.000000E+00
         5 -1.037344E+01  0.000000E+00  0.000000E+00
         6 -1.037344E+01  0.000000E+00  0.000000E+00
         7  0.000000E+00  4.234056E-08  0.000000E+00
         8 -1.411352E-07  4.234056E-08  0.000000E+00
         9 -5.186719E+00  4.234056E-08  0.000000E+00
        10 -5.186719E+00  4.234056E-08  0.000000E+00
        11 -1.037344E+01  4.234056E-08  0.000000E+00
        12 -1.037344E+01  4.234056E-08  0.000000E+00
        13  0.000000E+00  0.000000E+00  5.927678E-08
        14 -1.411352E-07  0.000000E+00  5.927678E-08
        15 -5.186719E+00  0.000000E+00  5.927678E-08
        16 -5.186719E+00  0.000000E+00  5.927678E-08
        17 -1.037344E+01  0.000000E+00  5.927678E-08
        18 -1.037344E+01  0.000000E+00  5.927678E-08
        19  0.000000E+00  4.234056E-08  5.927678E-08
        20 -1.411352E-07  4.234056E-08  5.927678E-08
        21 -5.186719E+00  4.234056E-08  5.927678E-08
        22 -5.186719E+00  4.234056E-08  5.927678E-08
        23 -1.037344E+01  4.234056E-08  5.927678E-08
        24 -1.037344E+01  4.234056E-08  5.927678E-08

 stresses (elem, integ.pnt.,sxx,syy,szz,sxy,sxz,syz) for set EALL and time  0.3457813E+00

         1   1 -5.927678E-05 -1.016440E-20 -6.776264E-21  9.134281E-22  5.872038E-22 -5.219589E-22
         1   2 -5.927678E-05 -1.355253E-20 -6.776264E-21  3.392733E-21  4.567141E-22  5.545814E-22
         1   3 -5.927678E-05  6.776264E-21  3.388132E-21 -2.479305E-21 -1.565877E-21 -7.829384E-22
         1   4 -5.927678E-05  3.388132E-21  1.016440E-20  1.723803E-30 -3.653712E-21  2.283570E-21
         1   5 -5.927678E-05 -1.016440E-20 -6.776264E-21 -1.435387E-21  1.696366E-21 -2.348815E-21
         1   6 -5.927678E-05 -3.388132E-21 -3.388132E-21 -4.045182E-21  1.565877E-21  7.503159E-22
         1   7 -5.927678E-05 -1.016440E-20 -1.016440E-20 -1.043918E-21 -7.661345E-31 -3.131754E-21
         1   8 -5.927678E-05 -6.776264E-21 -6.776264E-21 -3.653712E-21 -4.175671E-21  2.479305E-21
         2   1 -5.927678E-05  2.092847E-13  1.660878E-13 -7.523599E-14 -5.897481E-15  2.162860E-15
         2   2 -5.927678E-05  1.937580E-13  2.242029E-13  6.049778E-14  3.788761E-14  1.253248E-15
         2   3 -5.927678E-05  2.346289E-13  2.077101E-13 -8.938761E-14  7.744698E-15 -3.322820E-15
         2   4 -5.927678E-05  2.077685E-13  2.393800E-13  8.575274E-14  6.028680E-14  3.860571E-15
         2   5 -5.927678E-05  2.218115E-13  1.939744E-13 -1.032709E-15  2.583953E-14  1.355758E-14
         2   6 -5.927678E-05  2.459405E-13  2.690849E-13  5.150940E-14  6.086760E-14  2.069864E-15
         2   7 -5.927678E-05  1.552070E-13  1.436481E-13 -3.854122E-15  9.895974E-14  8.071902E-15
         2   8 -5.927678E-05  1.680023E-13  1.923132E-13 -5.639623E-14  2.890360E-14  4.677187E-15
         3   1 -5.927678E-05 -7.815285E-14 -1.406817E-13 -4.370458E-15 -1.920790E-13  4.255678E-15
         3   2 -5.927678E-05 -6.699250E-14 -3.503880E-14  1.882839E-13  4.436052E-14  3.071038E-15
         3   3 -5.927678E-05 -1.713796E-13 -1.830705E-13 -1.631077E-14  1.422952E-13 -1.970416E-14
         3   4 -5.927678E-05 -2.067809E-13 -1.860713E-13  2.747431E-14  2.182939E-15  1.933214E-14
         3   5 -5.927678E-05 -1.167429E-13 -1.121842E-13 -1.238721E-13 -1.426576E-13  3.984225E-14
         3   6 -5.927678E-05  9.150007E-14  7.792267E-14  1.563525E-13 -2.545330E-15 -4.799837E-15
         3   7 -5.927678E-05 -2.362407E-13 -1.808441E-13 -7.950309E-14  8.146839E-15  1.588241E-14
         3   8 -5.927678E-05 -7.455932E-14 -9.938083E-14  2.558112E-14 -9.693737E-14  1.146127E-14

 strains (elem, integ.pnt.,exx,eyy,ezz,exy,exz,eyz) forset EALL and time  0.3457813E+00

         1   1 -2.822704E-10  8.468112E-11  8.468112E-11  5.654555E-27  3.635071E-27 -3.231174E-27
         1   2 -2.822704E-10  8.468112E-11  8.468112E-11  2.100263E-26  2.827277E-27  3.433123E-27
         1   3 -2.822704E-10  8.468112E-11  8.468112E-11 -1.534808E-26 -9.693523E-27 -4.846761E-27
         1   4 -2.822704E-10  8.468112E-11  8.468112E-11 -1.067116E-35 -2.261822E-26  1.413639E-26
         1   5 -2.822704E-10  8.468112E-11  8.468112E-11 -8.885729E-27  1.050132E-26 -1.454028E-26
         1   6 -2.822704E-10  8.468112E-11  8.468112E-11 -2.504160E-26  9.693523E-27  4.644813E-27
         1   7 -2.822704E-10  8.468112E-11  8.468112E-11 -6.462349E-27  4.742737E-36 -1.938705E-26
         1   8 -2.822704E-10  8.468112E-11  8.468112E-11 -2.261822E-26 -2.584939E-26  1.534808E-26
         2   1 -2.822704E-10  8.468112E-11  8.468112E-11 -4.657466E-19 -3.650822E-20  1.338913E-20
         2   2 -2.822704E-10  8.468112E-11  8.468112E-11  3.745101E-19  2.345423E-19  7.758202E-21
         2   3 -2.822704E-10  8.468112E-11  8.468112E-11 -5.533519E-19  4.794337E-20 -2.056984E-20
         2   4 -2.822704E-10  8.468112E-11  8.468112E-11  5.308503E-19  3.732040E-19  2.389877E-20
         2   5 -2.822704E-10  8.468112E-11  8.468112E-11 -6.392959E-21  1.599590E-19  8.392789E-20
         2   6 -2.822704E-10  8.468112E-11  8.468112E-11  3.188677E-19  3.767994E-19  1.281344E-20
         2   7 -2.822704E-10  8.468112E-11  8.468112E-11 -2.385885E-20  6.126079E-19  4.996892E-20
         2   8 -2.822704E-10  8.468112E-11  8.468112E-11 -3.491195E-19  1.789271E-19  2.895401E-20
         3   1 -2.822704E-10  8.468112E-11  8.468112E-11 -2.705522E-20 -1.189060E-18  2.634467E-20
         3   2 -2.822704E-10  8.468112E-11  8.468112E-11  1.165567E-18  2.746127E-19  1.901119E-20
         3   3 -2.822704E-10  8.468112E-11  8.468112E-11 -1.009715E-19  8.808752E-19 -1.219781E-19
         3   4 -2.822704E-10  8.468112E-11  8.468112E-11  1.700791E-19  1.351343E-20  1.196752E-19
         3   5 -2.822704E-10  8.468112E-11  8.468112E-11 -7.668273E-19 -8.831185E-19  2.466425E-19
         3   6 -2.822704E-10  8.468112E-11  8.468112E-11  9.678962E-19 -1.575680E-20 -2.971327E-20
         3   7 -2.822704E-10  8.468112E-11  8.468112E-11 -4.921620E-19  5.043281E-20  9.831967E-20
         3   8 -2.822704E-10  8.468112E-11  8.468112E-11  1.583593E-19 -6.000885E-19  7.095071E-20

 displacements (vx,vy,vz) for set NALL and time  0.3547813E+00

         1  0.000000E+00  0.000000E+00  0.000000E+00
         2 -1.448087E-07  0.000000E+00  0.000000E+00
         3 -5.321719E+00  0.000000E+00  0.000000E+00
         4 -5.321719E+00  0.000000E+00  0.000000E+00
         5 -1.064344E+01  0.000000E+00  0.000000E+00
         6 -1.064344E+01  0.000000E+00  0.000000E+00
         7  0.000000E+00  4.344260E-08  0.000000E+00
         8 -1.448087E-07  4.344260E-08  0.000000E+00
         9 -5.321719E+00  4.344260E-08  0.000000E+00
        10 -5.321719E+00  4.344260E-08  0.000000E+00
        11 -1.064344E+01  4.344260E-08  0.000000E+00
        12 -1.064344E+01  4.344260E-08  0.000000E+00
        13  0.000000E+00  0.000000E+00  6.081964E-08
        14 -1.448087E-07  0.000000E+00  6.081964E-08
        15 -5.321719E+00  0.000000E+00  6.081964E-08
        16 -5.321719E+00  0.000000E+00  6.081964E-08
        17 -1.064344E+01  0.000000E+00  6.081964E-08
        18 -1.064344E+01  0.000000E+00  6.081964E-08
        19  0.000000E+00  4.344260E-08  6.081964E-08
        20 -1.448087E-07  4.344260E-08  6.081964E-08
        21 -5.321719E+00  4.344260E-08  6.081964E-08
        22 -5.321719E+00  4.344260E-08  6.081964E-08
        23 -1.064344E+01  4.344260E-08  6.081964E-08
        24 -1.064344E+01  4.344260E-08  6.081964E-08

 stresses (elem, integ.pnt.,sxx,syy,szz,sxy,sxz,syz) for set EALL and time  0.3547813E+00

         1   1 -6.081964E-05  3.388132E-21 -3.668225E-47  1.304897E-22  1.174408E-21 -7.829384E-22
         1   2 -6.081964E-05  3.388132E-21 -3.388132E-21  1.304897E-21  5.872038E-21 -2.936019E-22
         1   3 -6.081964E-05  1.016440E-20  6.776264E-21 -1.174408E-21  1.043918E-21 -3.653712E-21
         1   4 -6.081964E-05  1.016440E-20  6.776264E-21  5.895566E-31  7.829384E-21 -2.675039E-21
         1   5 -6.081964E-05  3.388132E-21  6.776264E-21 -1.174408E-21 -2.609795E-22  1.826856E-21
         1   6 -6.081964E-05  3.388132E-21  3.388132E-21 -2.218325E-21  4.436651E-21  9.460505E-22
         1   7 -6.081964E-05  1.016440E-20  1.016440E-20 -1.043918E-21 -2.087836E-21 -1.565877E-21
         1   8 -6.081964E-05  3.388132E-21  6.776264E-21 -2.087836E-21  3.131754E-21 -1.435387E-21
         2   1 -6.081964E-05 -9.949661E-14 -1.134807E-13  3.528774E-14 -3.286974E-14  1.490515E-15
         2   2 -6.081964E-05 -9.069569E-14 -9.767483E-14  1.777371E-14  1.159996E-13  4.217596E-16
         2   3 -6.081964E-05 -1.066529E-13 -1.126646E-13  3.599719E-14 -6.708773E-14 -1.796139E-17
         2   4 -6.081964E-05 -9.548071E-14 -9.132583E-14  5.788973E-14 -6.708773E-14 -6.219783E-15
         2   5 -6.081964E-05 -1.493945E-14 -2.469978E-14 -1.424830E-13 -2.697307E-14  7.071153E-15
         2   6 -6.081964E-05 -3.129057E-14 -1.967338E-14 -1.249689E-13  4.308307E-14  8.215571E-15
         2   7 -6.081964E-05  9.612402E-14  9.433602E-14 -1.489598E-13 -5.897789E-14  5.562677E-15
         2   8 -6.081964E-05  8.214415E-14  1.048954E-13 -1.139318E-13 -4.146385E-14  1.574028E-15
         3   1 -6.081964E-05 -4.637092E-14 -1.267387E-13 -5.799078E-14 -8.868562E-14  6.706132E-15
         3   2 -6.081964E-05 -2.179425E-13 -1.088372E-13  1.346636E-13 -1.412277E-13 -3.911395E-15
         3   3 -6.081964E-05 -1.228239E-13 -1.650167E-13 -1.207261E-13 -1.464004E-13 -1.694859E-15
         3   4 -6.081964E-05 -3.608039E-13 -3.020682E-13  7.192832E-14  2.873997E-14  2.066117E-14
         3   5 -6.081964E-05 -8.753577E-14 -1.443808E-13 -1.461782E-13  6.120038E-14  3.342862E-14
         3   6 -6.081964E-05 -9.753691E-14 -5.723479E-14  1.690745E-13 -5.264085E-14 -3.917010E-14
         3   7 -6.081964E-05  4.617968E-14  2.750961E-14 -1.627505E-13 -2.346750E-14  2.502763E-14
         3   8 -6.081964E-05 -3.022988E-14 -4.029733E-14  8.244603E-14  2.217290E-13 -1.459752E-14

 strains (elem, integ.pnt.,exx,eyy,ezz,exy,exz,eyz) forset EALL and time  0.3547813E+00

         1   1 -2.896173E-10  8.688520E-11  8.688520E-11  8.077936E-28  7.270142E-27 -4.846761E-27
         1   2 -2.896173E-10  8.688520E-11  8.688520E-11  8.077936E-27  3.635071E-26 -1.817536E-27
         1   3 -2.896173E-10  8.688520E-11  8.688520E-11 -7.270142E-27  6.462349E-27 -2.261822E-26
         1   4 -2.896173E-10  8.688520E-11  8.688520E-11 -3.649636E-36  4.846761E-26 -1.655977E-26
         1   5 -2.896173E-10  8.688520E-11  8.688520E-11 -7.270142E-27 -1.615587E-27  1.130911E-26
         1   6 -2.896173E-10  8.688520E-11  8.688520E-11 -1.373249E-26  2.746498E-26  5.856503E-27
         1   7 -2.896173E-10  8.688520E-11  8.688520E-11 -6.462349E-27 -1.292470E-26 -9.693523E-27
         1   8 -2.896173E-10  8.688520E-11  8.688520E-11 -1.292470E-26  1.938705E-26 -8.885729E-27
         2   1 -2.896173E-10  8.688520E-11  8.688520E-11  2.184479E-19 -2.034793E-19  9.226996E-21
         2   2 -2.896173E-10  8.688520E-11  8.688520E-11  1.100277E-19  7.180925E-19  2.610893E-21
         2   3 -2.896173E-10  8.688520E-11  8.688520E-11  2.228397E-19 -4.153050E-19 -1.111896E-22
         2   4 -2.896173E-10  8.688520E-11  8.688520E-11  3.583650E-19 -4.153050E-19 -3.850342E-20
         2   5 -2.896173E-10  8.688520E-11  8.688520E-11 -8.820374E-19 -1.669761E-19  4.377381E-20
         2   6 -2.896173E-10  8.688520E-11  8.688520E-11 -7.736172E-19  2.667047E-19  5.085830E-20
         2   7 -2.896173E-10  8.688520E-11  8.688520E-11 -9.221322E-19 -3.651012E-19  3.443562E-20
         2   8 -2.896173E-10  8.688520E-11  8.688520E-11 -7.052918E-19 -2.566810E-19  9.743983E-21
         3   1 -2.896173E-10  8.688520E-11  8.688520E-11 -3.589905E-19 -5.490062E-19  4.151415E-20
         3   2 -2.896173E-10  8.688520E-11  8.688520E-11  8.336319E-19 -8.742669E-19 -2.421340E-20
         3   3 -2.896173E-10  8.688520E-11  8.688520E-11 -7.473518E-19 -9.062881E-19 -1.049198E-20
         3   4 -2.896173E-10  8.688520E-11  8.688520E-11  4.452706E-19  1.779141E-19  1.279025E-19
         3   5 -2.896173E-10  8.688520E-11  8.688520E-11 -9.049124E-19  3.788595E-19  2.069391E-19
         3   6 -2.896173E-10  8.688520E-11  8.688520E-11  1.046651E-18 -3.258719E-19 -2.424815E-19
         3   7 -2.896173E-10  8.688520E-11  8.688520E-11 -1.007503E-18 -1.452750E-19  1.549329E-19
         3   8 -2.896173E-10  8.688520E-11  8.688520E-11  5.103802E-19  1.372608E-18 -9.036563E-20

 displacements (vx,vy,vz) for set NALL and time  0.3637813E+00

         1  0.000000E+00  0.000000E+00  0.000000E+00
         2 -1.484821E-07  0.000000E+00  0.000000E+00
         3 -5.456719E+00  0.000000E+00  0.000000E+00
         4 -5.456719E+00  0.000000E+00  0.000000E+00
         5 -1.091344E+01  0.000000E+00  0.000000E+00
         6 -1.091344E+01  0.000000E+00  0.000000E+00
         7  0.000000E+00  4.454464E-08  0.000000E+00
         8 -1.484821E-07  4.454464E-08  0.000000E+00
         9 -5.456719E+00  4.454464E-08  0.000000E+00
        10 -5.456719E+00  4.454464E-08  0.000000E+00
        11 -1.091344E+01  4.454464E-08  0.000000E+00
        12 -1.091344E+01  4.454464E-08  0.000000E+00
        13  0.000000E+00  0.000000E+00  6.236250E-08
        14 -1.484821E-07  0.000000E+00  6.236250E-08
        15 -5.456719E+00  0.000000E+00  6.236250E-08
        16 -5.456719E+00  0.000000E+00  6.236250E-08
        17 -1.091344E+01  0.000000E+00  6.236250E-08
        18 -1.091344E+01  0.000000E+00  6.236250E-08
        19  0.000000E+00  4.454464E-08  6.236250E-08
        20 -1.484821E-07  4.454464E-08  6.236250E-08
        21 -5.456719E+00  4.454464E-08  6.236250E-08
        22 -5.456719E+00  4.454464E-08  6.236250E-08
        23 -1.091344E+01  4.454464E-08  6.236250E-08
        24 -1.091344E+01  4.454464E-08  6.236250E-08

 stresses (elem, integ.pnt.,sxx,syy,szz,sxy,sxz,syz) for set EALL and time  0.3637813E+00

         1   1 -6.236250E-05 -3.388132E-21 -3.388132E-21 -1.109163E-21 -1.109163E-21  1.549509E-47
         1   2 -6.236250E-05  6.776264E-21  1.016440E-20 -3.457978E-21 -4.762875E-21 -1.598499E-21
         1   3 -6.236250E-05  6.746161E-47 -3.388132E-21 -2.087836E-21  1.565877E-21 -2.361156E-47
         1   4 -6.236250E-05  6.776264E-21 -1.240661E-46 -4.436651E-21  7.307425E-21 -2.675039E-21
         1   5 -6.236250E-05 -9.275971E-47 -3.388132E-21  2.870774E-21 -1.043918E-21 -3.710389E-47
         1   6 -6.236250E-05 -1.355253E-20 -1.016440E-20  1.539779E-20 -4.697630E-21 -3.490600E-21
         1   7 -6.236250E-05  1.694066E-20  1.355253E-20  1.612033E-30 -1.043918E-21  5.219589E-22
         1   8 -6.236250E-05 -1.103419E-45 -8.011066E-47  1.252701E-20  5.219589E-21 -4.567141E-21
         2   1 -6.236250E-05  1.500475E-13  1.631076E-13  7.213918E-14  9.983077E-14  6.906189E-16
         2   2 -6.236250E-05  1.545881E-13  1.357623E-13 -4.608056E-14  3.415314E-14 -2.087759E-15
         2   3 -6.236250E-05  7.345178E-15  2.278977E-14  7.783015E-14  6.365379E-14  9.082239E-16
         2   4 -6.236250E-05  8.522615E-15 -1.240266E-14 -9.830125E-16 -6.402353E-15 -6.321936E-15
         2   5 -6.236250E-05 -1.247322E-13 -1.122815E-13 -7.025435E-14  8.547810E-14  2.359820E-15
         2   6 -6.236250E-05 -1.420055E-13 -1.489755E-13  1.731582E-14 -6.339119E-14 -3.557444E-15
         2   7 -6.236250E-05  3.468251E-14  4.951780E-14 -7.079588E-14  1.162184E-13  2.577425E-15
         2   8 -6.236250E-05  1.404620E-14  4.976623E-15  3.428833E-14  6.367627E-14 -7.791621E-15
         3   1 -6.236250E-05 -6.894342E-14 -1.315285E-13  1.651826E-14  4.484752E-15 -5.679868E-15
         3   2 -6.236250E-05 -2.328098E-13 -1.767517E-13 -9.732297E-14 -2.178630E-14  5.163048E-15
         3   3 -6.236250E-05  1.369616E-13  1.037202E-13 -3.405150E-14 -9.764227E-15 -4.173807E-14
         3   4 -6.236250E-05 -6.861431E-14 -3.882535E-14  9.730376E-14 -7.982037E-14  3.765717E-14
         3   5 -6.236250E-05 -1.142734E-13 -7.589544E-14 -1.234934E-13 -1.829075E-14  1.486065E-14
         3   6 -6.236250E-05  5.776667E-14  2.284125E-14 -8.846537E-14 -7.767143E-16 -1.322537E-14
         3   7 -6.236250E-05 -1.448078E-13 -7.708625E-14 -7.808994E-14  1.036717E-13 -2.119755E-14
         3   8 -6.236250E-05 -1.447731E-14 -7.567190E-14 -7.808994E-14 -3.644059E-14  1.926876E-14

 strains (elem, integ.pnt.,exx,eyy,ezz,exy,exz,eyz) forset EALL and time  0.3637813E+00

         1   1 -2.969643E-10  8.908928E-11  8.908928E-11 -6.866245E-27 -6.866245E-27  6.264292E-53
         1   2 -2.969643E-10  8.908928E-11  8.908928E-11 -2.140653E-26 -2.948447E-26 -9.895471E-27
         1   3 -2.969643E-10  8.908928E-11  8.908928E-11 -1.292470E-26  9.693523E-27 -1.566073E-52
         1   4 -2.969643E-10  8.908928E-11  8.908928E-11 -2.746498E-26  4.523644E-26 -1.655977E-26
         1   5 -2.969643E-10  8.908928E-11  8.908928E-11  1.777146E-26 -6.462349E-27 -3.340956E-52
         1   6 -2.969643E-10  8.908928E-11  8.908928E-11  9.531964E-26 -2.908057E-26 -2.160848E-26
         1   7 -2.969643E-10  8.908928E-11  8.908928E-11 -9.979251E-36 -6.462349E-27  3.231174E-27
         1   8 -2.969643E-10  8.908928E-11  8.908928E-11  7.754818E-26  3.231174E-26 -2.827277E-26
         2   1 -2.969643E-10  8.908928E-11  8.908928E-11  4.465759E-19  6.180000E-19  4.275260E-21
         2   2 -2.969643E-10  8.908928E-11  8.908928E-11 -2.852606E-19  2.114242E-19 -1.292422E-20
         2   3 -2.969643E-10  8.908928E-11  8.908928E-11  4.818057E-19  3.940473E-19  5.622339E-21
         2   4 -2.969643E-10  8.908928E-11  8.908928E-11 -6.085316E-21 -3.963361E-20 -3.913579E-20
         2   5 -2.969643E-10  8.908928E-11  8.908928E-11 -4.349079E-19  5.291502E-19  1.460841E-20
         2   6 -2.969643E-10  8.908928E-11  8.908928E-11  1.071932E-19 -3.924217E-19 -2.202227E-20
         2   7 -2.969643E-10  8.908928E-11  8.908928E-11 -4.382602E-19  7.194471E-19  1.595549E-20
         2   8 -2.969643E-10  8.908928E-11  8.908928E-11  2.122611E-19  3.941864E-19 -4.823385E-20
         3   1 -2.969643E-10  8.908928E-11  8.908928E-11  1.022559E-19  2.776275E-20 -3.516109E-20
         3   2 -2.969643E-10  8.908928E-11  8.908928E-11 -6.024755E-19 -1.348676E-19  3.196172E-20
         3   3 -2.969643E-10  8.908928E-11  8.908928E-11 -2.107950E-19 -6.044521E-20 -2.583785E-19
         3   4 -2.969643E-10  8.908928E-11  8.908928E-11  6.023566E-19 -4.941261E-19  2.331158E-19
         3   5 -2.969643E-10  8.908928E-11  8.908928E-11 -7.644832E-19 -1.132284E-19  9.199450E-20
         3   6 -2.969643E-10  8.908928E-11  8.908928E-11 -5.476428E-19 -4.808231E-21 -8.187132E-20
         3   7 -2.969643E-10  8.908928E-11  8.908928E-11 -4.834139E-19  6.417771E-19 -1.312230E-19
         3   8 -2.969643E-10  8.908928E-11  8.908928E-11 -4.834139E-19 -2.255846E-19  1.192828E-19

 displacements (vx,vy,vz) for set NALL and time  0.3727813E+00

         1  0.000000E+00  0.000000E+00  0.000000E+00
         2 -1.521556E-07  0.000000E+00  0.000000E+00
         3 -5.591719E+00  0.000000E+00  0.000000E+00
         4 -5.591719E+00  0.000000E+00  0.000000E+00
         5 -1.118344E+01  0.000000E+00  0.000000E+00
         6 -1.118344E+01  0.000000E+00  0.000000E+00
         7  0.000000E+00  4.564668E-08  0.000000E+00
         8 -1.521556E-07  4.564668E-08  0.000000E+00
         9 -5.591719E+00  4.564668E-08  0.000000E+00
        10 -5.591719E+00  4.564668E-08  0.000000E+00
        11 -1.118344E+01  4.564668E-08  0.000000E+00
        12 -1.118344E+01  4.564668E-08  0.000000E+00
        13  0.000000E+00  0.000000E+00  6.390535E-08
        14 -1.521556E-07  0.000000E+00  6.390535E-08
        15 -5.591719E+00  0.000000E+00  6.390535E-08
        16 -5.591719E+00  0.000000E+00  6.390535E-08
        17 -1.118344E+01  0.000000E+00  6.390535E-08
        18 -1.118344E+01  0.000000E+00  6.390535E-08
        19  0.000000E+00  4.564668E-08  6.390535E-08
        20 -1.521556E-07  4.564668E-08  6.390535E-08
        21 -5.591719E+00  4.564668E-08  6.390535E-08
        22 -5.591719E+00  4.564668E-08  6.390535E-08
        23 -1.118344E+01  4.564668E-08  6.390536E-08
        24 -1.118344E+01  4.564668E-08  6.390535E-08

 stresses (elem, integ.pnt.,sxx,syy,szz,sxy,sxz,syz) for set EALL and time  0.3727813E+00

         1   1 -6.390535E-05 -3.388132E-21 -3.388132E-21 -1.631122E-21 -1.565877E-21  1.174408E-21
         1   2 -6.390535E-05  6.776264E-21  6.776264E-21 -8.286098E-21 -4.306161E-21  1.304897E-22
         1   3 -6.390535E-05 -1.016440E-20 -1.016440E-20  1.304897E-22  2.609795E-22  3.131754E-21
         1   4 -6.390535E-05 -3.314052E-46 -3.388132E-21 -6.524487E-21  1.826856E-21  1.239652E-21
         1   5 -6.390535E-05 -3.388132E-21 -1.016440E-20  7.829384E-22 -1.435387E-21  1.696366E-21
         1   6 -6.390535E-05  3.388132E-21 -5.396929E-47  2.348815E-21 -4.175671E-21  4.567141E-22
         1   7 -6.390535E-05 -3.388132E-21 -1.016440E-20  2.087836E-21 -5.219589E-22  2.609795E-21
         1   8 -6.390535E-05  3.388132E-21 -3.388132E-21  3.653712E-21  3.131754E-21  1.565877E-21
         2   1 -6.390535E-05  4.043647E-15  1.398783E-14 -8.564531E-14  4.803744E-14  1.478149E-15
         2   2 -6.390535E-05  9.263471E-15 -8.891383E-15 -6.813128E-14  6.555147E-14 -1.839421E-15
         2   3 -6.390535E-05  1.947246E-14  3.247435E-14 -8.038650E-14 -4.889336E-15  3.376126E-15
         2   4 -6.390535E-05  2.356628E-14  6.967801E-15 -1.908737E-14  3.013873E-14 -7.954277E-15
         2   5 -6.390535E-05  7.902137E-14  8.365121E-14 -2.123496E-13  3.573046E-14  3.618551E-15
         2   6 -6.390535E-05  4.497830E-14  4.394505E-14  3.284687E-14 -2.994717E-14 -7.499558E-16
         2   7 -6.390535E-05 -2.376955E-14 -1.608199E-14 -2.183088E-13  5.180889E-14  5.516527E-15
         2   8 -6.390535E-05 -5.893862E-14 -5.841550E-14 -9.571052E-14  3.429485E-14 -6.864812E-15
         3   1 -6.390535E-05  1.026574E-13  6.019783E-14  2.330644E-14  1.768239E-13  2.220938E-15
         3   2 -6.390535E-05 -4.498778E-15  2.366083E-14  5.792402E-15  1.680669E-13 -2.744745E-15
         3   3 -6.390535E-05  1.176766E-13  1.302707E-13 -8.717661E-15  1.157132E-13 -3.024894E-14
         3   4 -6.390535E-05 -6.582881E-14 -8.441451E-14 -2.623170E-14  4.565702E-14  2.247819E-14
         3   5 -6.390535E-05 -3.017398E-14  1.828214E-14 -1.222701E-13 -1.338290E-13  4.075853E-14
         3   6 -6.390535E-05  1.453646E-13  1.029000E-13  5.287028E-14  4.131132E-14 -3.546646E-14
         3   7 -6.390535E-05  1.111629E-14  1.146261E-13 -7.352423E-14 -9.105877E-14  8.288653E-15
         3   8 -6.390535E-05  1.103057E-13  2.109576E-14  3.155998E-14  4.905351E-14 -1.024353E-14

 strains (elem, integ.pnt.,exx,eyy,ezz,exy,exz,eyz) forset EALL and time  0.3727813E+00

         1   1 -3.043112E-10  9.129336E-11  9.129336E-11 -1.009742E-26 -9.693523E-27  7.270142E-27
         1   2 -3.043112E-10  9.129336E-11  9.129336E-11 -5.129489E-26 -2.665719E-26  8.077936E-28
         1   3 -3.043112E-10  9.129336E-11  9.129336E-11  8.077936E-28  1.615587E-27  1.938705E-26
         1   4 -3.043112E-10  9.129336E-11  9.129336E-11 -4.038968E-26  1.130911E-26  7.674039E-27
         1   5 -3.043112E-10  9.129336E-11  9.129336E-11  4.846761E-27 -8.885729E-27  1.050132E-26
         1   6 -3.043112E-10  9.129336E-11  9.129336E-11  1.454028E-26 -2.584939E-26  2.827277E-27
         1   7 -3.043112E-10  9.129336E-11  9.129336E-11  1.292470E-26 -3.231174E-27  1.615587E-26
         1   8 -3.043112E-10  9.129336E-11  9.129336E-11  2.261822E-26  1.938705E-26  9.693523E-27
         2   1 -3.043112E-10  9.129336E-11  9.129336E-11 -5.301853E-19  2.973746E-19  9.150449E-21
         2   2 -3.043112E-10  9.129336E-11  9.129336E-11 -4.217651E-19  4.057948E-19 -1.138689E-20
         2   3 -3.043112E-10  9.129336E-11  9.129336E-11 -4.976307E-19 -3.026732E-20  2.089982E-20
         2   4 -3.043112E-10  9.129336E-11  9.129336E-11 -1.181599E-19  1.865731E-19 -4.924076E-20
         2   5 -3.043112E-10  9.129336E-11  9.129336E-11 -1.314545E-18  2.211886E-19  2.240056E-20
         2   6 -3.043112E-10  9.129336E-11  9.129336E-11  2.033378E-19 -1.853872E-19 -4.642584E-21
         2   7 -3.043112E-10  9.129336E-11  9.129336E-11 -1.351435E-18  3.207217E-19  3.414993E-20
         2   8 -3.043112E-10  9.129336E-11  9.129336E-11 -5.924937E-19  2.123015E-19 -4.249646E-20
         3   1 -3.043112E-10  9.129336E-11  9.129336E-11  1.442779E-19  1.094624E-18  1.374866E-20
         3   2 -3.043112E-10  9.129336E-11  9.129336E-11  3.585773E-20  1.040414E-18 -1.699128E-20
         3   3 -3.043112E-10  9.129336E-11  9.129336E-11 -5.396647E-20  7.163195E-19 -1.872553E-19
         3   4 -3.043112E-10  9.129336E-11  9.129336E-11 -1.623867E-19  2.826387E-19  1.391507E-19
         3   5 -3.043112E-10  9.129336E-11  9.129336E-11 -7.569099E-19 -8.284654E-19  2.523147E-19
         3   6 -3.043112E-10  9.129336E-11  9.129336E-11  3.272922E-19  2.557368E-19 -2.195543E-19
         3   7 -3.043112E-10  9.129336E-11  9.129336E-11 -4.551500E-19 -5.636971E-19  5.131071E-20
         3   8 -3.043112E-10  9.129336E-11  9.129336E-11  1.953713E-19  3.036646E-19 -6.341230E-20

 displacements (vx,vy,vz) for set NALL and time  0.3817813E+00

         1  0.000000E+00  0.000000E+00  0.000000E+00
         2 -1.558291E-07  0.000000E+00  0.000000E+00
         3 -5.726719E+00  0.000000E+00  0.000000E+00
         4 -5.726719E+00  0.000000E+00  0.000000E+00
         5 -1.145344E+01  0.000000E+00  0.000000E+00
         6 -1.145344E+01  0.000000E+00  0.000000E+00
         7  0.000000E+00  4.674872E-08  0.000000E+00
         8 -1.558291E-07  4.674872E-08  0.000000E+00
         9 -5.726719E+00  4.674872E-08  0.000000E+00
        10 -5.726719E+00  4.674872E-08  0.000000E+00
        11 -1.145344E+01  4.674872E-08  0.000000E+00
        12 -1.145344E+01  4.674872E-08  0.000000E+00
        13  0.000000E+00  0.000000E+00  6.544821E-08
        14 -1.558291E-07  0.000000E+00  6.544821E-08
        15 -5.726719E+00  0.000000E+00  6.544821E-08
        16 -5.726719E+00  0.000000E+00  6.544821E-08
        17 -1.145344E+01  0.000000E+00  6.544821E-08
        18 -1.145344E+01  0.000000E+00  6.544821E-08
        19  0.000000E+00  4.674872E-08  6.544821E-08
        20 -1.558291E-07  4.674872E-08  6.544821E-08
        21 -5.726719E+00  4.674872E-08  6.544821E-08
        22 -5.726719E+00  4.674872E-08  6.544821E-08
        23 -1.145344E+01  4.674872E-08  6.544821E-08
        24 -1.145344E+01  4.674872E-08  6.544821E-08

 stresses (elem, integ.pnt.,sxx,syy,szz,sxy,sxz,syz) for set EALL and time  0.3817813E+00

         1   1 -6.544821E-05 -1.016440E-20 -6.776264E-21  7.829384E-22  2.609795E-22 -3.914692E-22
         1   2 -6.544821E-05 -6.776264E-21 -1.016440E-20  3.914692E-21  9.134281E-22 -7.829384E-22
         1   3 -6.544821E-05  6.776264E-21  6.776264E-21 -1.043918E-21  2.609795E-22 -2.087836E-21
         1   4 -6.544821E-05  6.776264E-21  3.388132E-21  2.087836E-21  4.958610E-21 -1.109163E-21
         1   5 -6.544821E-05 -6.776264E-21 -3.388132E-21  1.826856E-21 -1.435387E-21 -3.914692E-22
         1   6 -6.544821E-05 -6.776264E-21 -6.776264E-21  8.090363E-21 -7.829384E-22 -3.588468E-21
         1   7 -6.544821E-05  3.388132E-21  3.388132E-21  1.565877E-21 -3.653712E-21 -1.565877E-21
         1   8 -6.544821E-05 -3.388132E-21 -3.388132E-21  7.829384E-21  1.043918E-21 -3.914692E-21
         2   1 -6.544821E-05 -2.740906E-14 -5.496208E-14  1.459551E-14 -4.651626E-14  1.461733E-15
         2   2 -6.544821E-05 -3.767765E-14 -2.576511E-14  4.086656E-14  2.161943E-13 -2.340787E-16
         2   3 -6.544821E-05 -5.717727E-14 -7.187912E-14  6.621958E-15  2.961039E-15 -3.540557E-15
         2   4 -6.544821E-05 -7.641715E-14 -6.361517E-14  4.165003E-14 -1.455300E-14 -1.496200E-15
         2   5 -6.544821E-05  1.375736E-14  2.107486E-16  6.905421E-14 -3.005334E-14  1.045755E-14
         2   6 -6.544821E-05  2.181558E-14  3.726207E-14  3.402614E-14 -1.263805E-13  3.885290E-16
         2   7 -6.544821E-05 -1.079595E-13 -1.086550E-13  6.631689E-14 -5.900539E-14  5.455261E-15
         2   8 -6.544821E-05 -1.088726E-13 -9.253668E-14  4.880286E-14  1.105075E-14 -8.735927E-16
         3   1 -6.544821E-05  1.580933E-13  8.509838E-14  1.992940E-13 -8.497203E-14  1.614860E-14
         3   2 -6.544821E-05  1.129824E-13  1.779029E-13  2.693501E-13  2.598146E-15 -1.538190E-14
         3   3 -6.544821E-05 -1.138926E-13 -9.417045E-14  1.695845E-13 -1.656061E-13 -4.634532E-15
         3   4 -6.544821E-05 -2.925011E-13 -3.128606E-13  9.952836E-14 -1.656061E-13  2.289885E-15
         3   5 -6.544821E-05  2.998492E-14  1.518275E-14  8.831238E-15 -6.505260E-14  8.105055E-14
         3   6 -6.544821E-05  1.733031E-13  1.887426E-13 -2.619683E-14  7.505968E-14 -7.507780E-14
         3   7 -6.544821E-05 -5.561496E-15  7.235339E-14  3.295863E-14  1.850804E-13  6.026741E-14
         3   8 -6.544821E-05  4.259007E-15 -6.558139E-14  6.798670E-14  1.150243E-13 -5.740602E-14

 strains (elem, integ.pnt.,exx,eyy,ezz,exy,exz,eyz) forset EALL and time  0.3817813E+00

         1   1 -3.116582E-10  9.349745E-11  9.349745E-11  4.846761E-27  1.615587E-27 -2.423381E-27
         1   2 -3.116582E-10  9.349745E-11  9.349745E-11  2.423381E-26  5.654555E-27 -4.846761E-27
         1   3 -3.116582E-10  9.349745E-11  9.349745E-11 -6.462349E-27  1.615587E-27 -1.292470E-26
         1   4 -3.116582E-10  9.349745E-11  9.349745E-11  1.292470E-26  3.069616E-26 -6.866245E-27
         1   5 -3.116582E-10  9.349745E-11  9.349745E-11  1.130911E-26 -8.885729E-27 -2.423381E-27
         1   6 -3.116582E-10  9.349745E-11  9.349745E-11  5.008320E-26 -4.846761E-27 -2.221432E-26
         1   7 -3.116582E-10  9.349745E-11  9.349745E-11  9.693523E-27 -2.261822E-26 -9.693523E-27
         1   8 -3.116582E-10  9.349745E-11  9.349745E-11  4.846761E-26  6.462349E-27 -2.423381E-26
         2   1 -3.116582E-10  9.349745E-11  9.349745E-11  9.035317E-20 -2.879578E-19  9.048821E-21
         2   2 -3.116582E-10  9.349745E-11  9.349745E-11  2.529835E-19  1.338345E-18 -1.449059E-21
         2   3 -3.116582E-10  9.349745E-11  9.349745E-11  4.099307E-20  1.833024E-20 -2.191773E-20
         2   4 -3.116582E-10  9.349745E-11  9.349745E-11  2.578335E-19 -9.008998E-20 -9.262193E-21
         2   5 -3.116582E-10  9.349745E-11  9.349745E-11  4.274785E-19 -1.860445E-19  6.473722E-20
         2   6 -3.116582E-10  9.349745E-11  9.349745E-11  2.106380E-19 -7.823557E-19  2.405179E-21
         2   7 -3.116582E-10  9.349745E-11  9.349745E-11  4.105331E-19 -3.652715E-19  3.377066E-20
         2   8 -3.116582E-10  9.349745E-11  9.349745E-11  3.021129E-19  6.840938E-20 -5.407955E-21
         3   1 -3.116581E-10  9.349745E-11  9.349744E-11  1.233725E-18 -5.260173E-19  9.996755E-20
         3   2 -3.116581E-10  9.349745E-11  9.349745E-11  1.667406E-18  1.608376E-20 -9.522126E-20
         3   3 -3.116582E-10  9.349745E-11  9.349745E-11  1.049809E-18 -1.025180E-18 -2.868996E-20
         3   4 -3.116582E-10  9.349745E-11  9.349744E-11  6.161279E-19 -1.025180E-18  1.417548E-20
         3   5 -3.116581E-10  9.349745E-11  9.349744E-11  5.466957E-20 -4.027066E-19  5.017415E-19
         3   6 -3.116581E-10  9.349745E-11  9.349745E-11 -1.621709E-19  4.646552E-19 -4.647673E-19
         3   7 -3.116582E-10  9.349745E-11  9.349745E-11  2.040296E-19  1.145736E-18  3.730840E-19
         3   8 -3.116582E-10  9.349745E-11  9.349744E-11  4.208700E-19  7.120551E-19 -3.553706E-19

 displacements (vx,vy,vz) for set NALL and time  0.3907813E+00

         1  0.000000E+00  0.000000E+00  0.000000E+00
         2 -1.595025E-07  0.000000E+00  0.000000E+00
         3 -5.861719E+00  0.000000E+00  0.000000E+00
         4 -5.861719E+00  0.000000E+00  0.000000E+00
         5 -1.172344E+01  0.000000E+00  0.000000E+00
         6 -1.172344E+01  0.000000E+00  0.000000E+00
         7  0.000000E+00  4.785076E-08  0.000000E+00
         8 -1.595025E-07  4.785076E-08  0.000000E+00
         9 -5.861719E+00  4.785076E-08  0.000000E+00
        10 -5.861719E+00  4.785076E-08  0.000000E+00
        11 -1.172344E+01  4.785076E-08  0.000000E+00
        12 -1.172344E+01  4.785076E-08  0.000000E+00
        13  0.000000E+00  0.000000E+00  6.699107E-08
        14 -1.595025E-07  0.000000E+00  6.699107E-08
        15 -5.861719E+00  0.000000E+00  6.699107E-08
        16 -5.861719E+00  0.000000E+00  6.699107E-08
        17 -1.172344E+01  0.000000E+00  6.699107E-08
        18 -1.172344E+01  0.000000E+00  6.699107E-08
        19  0.000000E+00  4.785076E-08  6.699107E-08
        20 -1.595025E-07  4.785076E-08  6.699107E-08
        21 -5.861719E+00  4.785076E-08  6.699107E-08
        22 -5.861719E+00  4.785076E-08  6.699107E-08
        23 -1.172344E+01  4.785076E-08  6.699107E-08
        24 -1.172344E+01  4.785076E-08  6.699107E-08

 stresses (elem, integ.pnt.,sxx,syy,szz,sxy,sxz,syz) for set EALL and time  0.3907813E+00

         1   1 -6.699107E-05  1.475723E-47 -1.096251E-47 -3.001264E-21 -5.219589E-22  9.134281E-22
         1   2 -6.699107E-05  1.016440E-20  1.355253E-20 -1.043918E-20 -6.524487E-21 -1.011295E-21
         1   3 -6.699107E-05 -1.016440E-20 -1.355253E-20 -3.001264E-21 -2.609795E-22  2.870774E-21
         1   4 -6.699107E-05 -6.776264E-21 -6.776264E-21 -1.043918E-20  3.392733E-21  3.262243E-22
         1   5 -6.699107E-05  2.740628E-47 -6.776264E-21  5.219589E-22  2.348815E-21  1.696366E-21
         1   6 -6.699107E-05  3.388132E-21  3.388132E-21  2.087836E-21 -3.653712E-21 -4.599763E-21
         1   7 -6.699107E-05  6.776264E-21 -6.776264E-21  5.219589E-22 -1.043918E-21  3.131754E-21
         1   8 -6.699107E-05 -1.581131E-46 -1.355253E-20  2.087836E-21  2.087836E-21 -3.262243E-21
         2   1 -6.699107E-05  8.508370E-14  3.791225E-14 -4.320660E-14  9.155387E-15  5.663751E-15
         2   2 -6.699107E-05  3.367882E-14  6.692850E-14 -1.693554E-14 -8.358648E-15 -5.254378E-15
         2   3 -6.699107E-05  1.008182E-13  9.214017E-14 -6.555074E-14 -7.888789E-15 -5.807975E-15
         2   4 -6.699107E-05 -4.783263E-16  4.742524E-15  4.505399E-15  9.719542E-14  1.057123E-17
         2   5 -6.699107E-05  1.573673E-14  6.861035E-16  3.979417E-16  3.416837E-14  3.260913E-14
         2   6 -6.699107E-05  4.634154E-14  6.484936E-14  3.979417E-16  2.541135E-14 -2.487455E-14
         2   7 -6.699107E-05  4.460678E-14  6.804955E-14  1.485139E-15  4.061478E-14  2.113740E-14
         2   8 -6.699107E-05  2.531993E-14  1.579892E-14  3.651321E-14 -4.695540E-14 -1.960960E-14
         3   1 -6.699107E-05 -3.192774E-13 -3.237354E-13  7.732186E-14 -2.483246E-14  1.246537E-14
         3   2 -6.699107E-05 -2.199568E-13 -2.243225E-13  9.483589E-14  1.940930E-13 -1.310705E-14
         3   3 -6.699107E-05 -2.726410E-13 -2.149169E-13  9.717217E-14  1.195463E-13  2.994012E-15
         3   4 -6.699107E-05 -2.633655E-13 -3.256096E-13 -6.045414E-14 -1.256502E-13 -8.401323E-15
         3   5 -6.699107E-05 -3.656871E-13 -3.436252E-13  2.947551E-13 -3.200559E-14  5.599275E-14
         3   6 -6.699107E-05 -1.968987E-13 -2.144405E-13  1.546428E-13 -3.209872E-13 -5.362188E-14
         3   7 -6.699107E-05 -3.190506E-13 -2.348068E-13  5.422879E-14  6.335903E-14  4.652139E-14
         3   8 -6.699107E-05 -2.403075E-13 -3.157276E-13 -1.582736E-14  2.833096E-14 -4.891616E-14

 strains (elem, integ.pnt.,exx,eyy,ezz,exy,exz,eyz) forset EALL and time  0.3907813E+00

         1   1 -3.190051E-10  9.570153E-11  9.570153E-11 -1.857925E-26 -3.231174E-27  5.654555E-27
         1   2 -3.190051E-10  9.570153E-11  9.570153E-11 -6.462349E-26 -4.038968E-26 -6.260400E-27
         1   3 -3.190051E-10  9.570153E-11  9.570153E-11 -1.857925E-26 -1.615587E-27  1.777146E-26
         1   4 -3.190051E-10  9.570153E-11  9.570153E-11 -6.462349E-26  2.100263E-26  2.019484E-27
         1   5 -3.190051E-10  9.570153E-11  9.570153E-11  3.231174E-27  1.454028E-26  1.050132E-26
         1   6 -3.190051E-10  9.570153E-11  9.570153E-11  1.292470E-26 -2.261822E-26 -2.847472E-26
         1   7 -3.190051E-10  9.570153E-11  9.570153E-11  3.231174E-27 -6.462349E-27  1.938705E-26
         1   8 -3.190051E-10  9.570153E-11  9.570153E-11  1.292470E-26  1.292470E-26 -2.019484E-26
         2   1 -3.190051E-10  9.570153E-11  9.570153E-11 -2.674694E-19  5.667621E-20  3.506131E-20
         2   2 -3.190051E-10  9.570153E-11  9.570153E-11 -1.048391E-19 -5.174401E-20 -3.252710E-20
         2   3 -3.190051E-10  9.570153E-11  9.570153E-11 -4.057903E-19 -4.883536E-20 -3.595413E-20
         2   4 -3.190051E-10  9.570153E-11  9.570153E-11  2.789057E-20  6.016859E-19  6.544097E-23
         2   5 -3.190051E-10  9.570153E-11  9.570153E-11  2.463449E-21  2.115185E-19  2.018660E-19
         2   6 -3.190051E-10  9.570153E-11  9.570153E-11  2.463449E-21  1.573084E-19 -1.539853E-19
         2   7 -3.190051E-10  9.570153E-11  9.570153E-11  9.193718E-21  2.514248E-19  1.308506E-19
         2   8 -3.190051E-10  9.570153E-11  9.570153E-11  2.260342E-19 -2.906763E-19 -1.213928E-19
         3   1 -3.190051E-10  9.570153E-11  9.570153E-11  4.786591E-19 -1.537247E-19  7.716657E-20
         3   2 -3.190051E-10  9.570153E-11  9.570153E-11  5.870793E-19  1.201528E-18 -8.113885E-20
         3   3 -3.190051E-10  9.570153E-11  9.570153E-11  6.015420E-19  7.400486E-19  1.853436E-20
         3   4 -3.190051E-10  9.570153E-11  9.570153E-11 -3.742399E-19 -7.778345E-19 -5.200819E-20
         3   5 -3.190051E-10  9.570153E-11  9.570153E-11  1.824675E-18 -1.981298E-19  3.466218E-19
         3   6 -3.190051E-10  9.570153E-11  9.570153E-11  9.573128E-19 -1.987063E-18 -3.319450E-19
         3   7 -3.190051E-10  9.570153E-11  9.570153E-11  3.357020E-19  3.922226E-19  2.879896E-19
         3   8 -3.190051E-10  9.570153E-11  9.570153E-11 -9.797886E-20  1.753821E-19 -3.028143E-19

 displacements (vx,vy,vz) for set NALL and time  0.3997813E+00

         1  0.000000E+00  0.000000E+00  0.000000E+00
         2 -1.631760E-07  0.000000E+00  0.000000E+00
         3 -5.996719E+00  0.000000E+00  0.000000E+00
         4 -5.996719E+00  0.000000E+00  0.000000E+00
         5 -1.199344E+01  0.000000E+00  0.000000E+00
         6 -1.199344E+01  0.000000E+00  0.000000E+00
         7  0.000000E+00  4.895280E-08  0.000000E+00
         8 -1.631760E-07  4.895280E-08  0.000000E+00
         9 -5.996719E+00  4.895280E-08  0.000000E+00
        10 -5.996719E+00  4.895280E-08  0.000000E+00
        11 -1.199344E+01  4.895280E-08  0.000000E+00
        12 -1.199344E+01  4.895280E-08  0.000000E+00
        13  0.000000E+00  0.000000E+00  6.853393E-08
        14 -1.631760E-07  0.000000E+00  6.853393E-08
        15 -5.996719E+00  0.000000E+00  6.853393E-08
        16 -5.996719E+00  0.000000E+00  6.853393E-08
        17 -1.199344E+01  0.000000E+00  6.853393E-08
        18 -1.199344E+01  0.000000E+00  6.853393E-08
        19  0.000000E+00  4.895280E-08  6.853393E-08
        20 -1.631760E-07  4.895280E-08  6.853393E-08
        21 -5.996719E+00  4.895280E-08  6.853393E-08
        22 -5.996719E+00  4.895280E-08  6.853393E-08
        23 -1.199344E+01  4.895280E-08  6.853393E-08
        24 -1.199344E+01  4.895280E-08  6.853393E-08

 stresses (elem, integ.pnt.,sxx,syy,szz,sxy,sxz,syz) for set EALL and time  0.3997813E+00

         1   1 -6.853393E-05 -6.776264E-21 -6.776264E-21  6.524487E-23  3.262243E-22 -2.609795E-22
         1   2 -6.853393E-05 -3.388132E-21  3.388132E-21  4.501896E-21 -8.481832E-22  5.219589E-22
         1   3 -6.853393E-05  3.388132E-21 -2.192502E-47 -1.826856E-21 -1.043918E-21 -7.829384E-22
         1   4 -6.853393E-05  1.016440E-20  1.355253E-20  2.609795E-21 -7.307425E-21  1.761611E-21
         1   5 -6.853393E-05 -3.388132E-21 -3.388132E-21 -7.829384E-22  2.218325E-21 -1.307069E-47
         1   6 -6.853393E-05 -3.388132E-21  6.619670E-47 -3.914692E-21  1.043918E-21  1.957346E-22
         1   7 -6.853393E-05 -1.355253E-20 -1.355253E-20 -1.043918E-21 -8.857802E-31 -5.219589E-22
         1   8 -6.853393E-05  6.029381E-47 -3.330917E-46 -2.087836E-21 -6.263507E-21  1.435387E-21
         2   1 -6.853393E-05 -3.122298E-13 -3.499984E-13 -1.775497E-13 -2.446511E-14  2.679840E-15
         2   2 -6.853393E-05 -3.043482E-13 -2.877255E-13  5.013280E-14  3.683401E-14 -6.622669E-16
         2   3 -6.853393E-05 -6.688706E-14 -9.278458E-14 -1.841320E-13  1.495888E-13  1.691573E-15
         2   4 -6.853393E-05 -6.218551E-14 -3.793197E-14  7.857852E-14  1.145608E-13 -7.813241E-15
         2   5 -6.853393E-05  7.699347E-14  4.199207E-14  6.448884E-14  4.393439E-15  1.098957E-14
         2   6 -6.853393E-05  5.467787E-14  9.132323E-14 -7.562344E-14  5.693554E-14  4.679360E-15
         2   7 -6.853393E-05 -2.293559E-13 -2.524862E-13  4.927871E-14  1.754793E-13  1.000130E-14
         2   8 -6.853393E-05 -2.548516E-13 -2.105753E-13 -5.580550E-14  1.579653E-13 -2.471613E-15
         3   1 -6.853393E-05  2.331683E-13  2.505986E-13  6.885550E-14 -8.240684E-14 -2.526368E-15
         3   2 -6.853393E-05  1.855346E-13  1.613214E-13  5.134146E-14 -1.524630E-13  5.335434E-15
         3   3 -6.853393E-05 -8.448740E-15  2.078189E-15  6.557528E-14  1.343334E-13 -4.596160E-15
         3   4 -6.853393E-05 -3.684533E-14 -4.231244E-14  8.308932E-14 -7.583499E-14  6.789858E-15
         3   5 -6.853393E-05  9.167104E-14  1.148968E-13  1.407176E-13  2.396269E-14 -7.358741E-15
         3   6 -6.853393E-05  6.130600E-14  3.302043E-14  1.407176E-13  1.115329E-13  1.845768E-14
         3   7 -6.853393E-05  8.649349E-14  1.028158E-13  1.423713E-13  1.185453E-13 -9.428534E-15
         3   8 -6.853393E-05  7.536555E-14  6.582606E-14  7.231512E-14  1.185453E-13  1.991211E-14

 strains (elem, integ.pnt.,exx,eyy,ezz,exy,exz,eyz) forset EALL and time  0.3997813E+00

         1   1 -3.263520E-10  9.790561E-11  9.790561E-11  4.038968E-28  2.019484E-27 -1.615587E-27
         1   2 -3.263520E-10  9.790561E-11  9.790561E-11  2.786888E-26 -5.250658E-27  3.231174E-27
         1   3 -3.263520E-10  9.790561E-11  9.790561E-11 -1.130911E-26 -6.462349E-27 -4.846761E-27
         1   4 -3.263520E-10  9.790561E-11  9.790561E-11  1.615587E-26 -4.523644E-26  1.090521E-26
         1   5 -3.263520E-10  9.790561E-11  9.790561E-11 -4.846761E-27  1.373249E-26  3.132146E-53
         1   6 -3.263520E-10  9.790561E-11  9.790561E-11 -2.423381E-26  6.462349E-27  1.211690E-27
         1   7 -3.263520E-10  9.790561E-11  9.790561E-11 -6.462349E-27  5.483401E-36 -3.231174E-27
         1   8 -3.263520E-10  9.790561E-11  9.790561E-11 -1.292470E-26 -3.877409E-26  8.885729E-27
         2   1 -3.263520E-10  9.790561E-11  9.790561E-11 -1.099117E-18 -1.514507E-19  1.658949E-20
         2   2 -3.263520E-10  9.790561E-11  9.790561E-11  3.103459E-19  2.280201E-19 -4.099748E-21
         2   3 -3.263520E-10  9.790561E-11  9.790561E-11 -1.139865E-18  9.260262E-19  1.047164E-20
         2   4 -3.263520E-10  9.790561E-11  9.790561E-11  4.864385E-19  7.091857E-19 -4.836768E-20
         2   5 -3.263520E-10  9.790561E-11  9.790561E-11  3.992167E-19  2.719748E-20  6.803065E-20
         2   6 -3.263520E-10  9.790561E-11  9.790561E-11 -4.681451E-19  3.524581E-19  2.896747E-20
         2   7 -3.263520E-10  9.790561E-11  9.790561E-11  3.050587E-19  1.086300E-18  6.191281E-20
         2   8 -3.263520E-10  9.790561E-11  9.790561E-11 -3.454626E-19  9.778802E-19 -1.530046E-20
         3   1 -3.263520E-10  9.790561E-11  9.790561E-11  4.262483E-19 -5.101376E-19 -1.563942E-20
         3   2 -3.263520E-10  9.790561E-11  9.790561E-11  3.178281E-19 -9.438185E-19  3.302887E-20
         3   3 -3.263520E-10  9.790561E-11  9.790561E-11  4.059422E-19  8.315879E-19 -2.845242E-20
         3   4 -3.263520E-10  9.790561E-11  9.790561E-11  5.143624E-19 -4.694547E-19  4.203245E-20
         3   5 -3.263520E-10  9.790561E-11  9.790561E-11  8.711088E-19  1.483405E-19 -4.555411E-20
         3   6 -3.263520E-10  9.790561E-11  9.790561E-11  8.711088E-19  6.904415E-19  1.142619E-19
         3   7 -3.263520E-10  9.790561E-11  9.790561E-11  8.813459E-19  7.338519E-19 -5.836711E-20
         3   8 -3.263520E-10  9.790561E-11  9.790561E-11  4.476650E-19  7.338519E-19  1.232654E-19

 displacements (vx,vy,vz) for set NALL and time  0.4087813E+00

         1  0.000000E+00  0.000000E+00  0.000000E+00
         2 -1.668495E-07  0.000000E+00  0.000000E+00
         3 -6.131719E+00  0.000000E+00  0.000000E+00
         4 -6.131719E+00  0.000000E+00  0.000000E+00
         5 -1.226344E+01  0.000000E+00  0.000000E+00
         6 -1.226344E+01  0.000000E+00  0.000000E+00
         7  0.000000E+00  5.005484E-08  0.000000E+00
         8 -1.668495E-07  5.005484E-08  0.000000E+00
         9 -6.131719E+00  5.005485E-08  0.000000E+00
        10 -6.131719E+00  5.005484E-08  0.000000E+00
        11 -1.226344E+01  5.005484E-08  0.000000E+00
        12 -1.226344E+01  5.005484E-08  0.000000E+00
        13  0.000000E+00  0.000000E+00  7.007678E-08
        14 -1.668495E-07  0.000000E+00  7.007678E-08
        15 -6.131719E+00  0.000000E+00  7.007678E-08
        16 -6.131719E+00  0.000000E+00  7.007678E-08
        17 -1.226344E+01  0.000000E+00  7.007678E-08
        18 -1.226344E+01  0.000000E+00  7.007678E-08
        19  0.000000E+00  5.005484E-08  7.007678E-08
        20 -1.668495E-07  5.005484E-08  7.007678E-08
        21 -6.131719E+00  5.005484E-08  7.007678E-08
        22 -6.131719E+00  5.005484E-08  7.007678E-08
        23 -1.226344E+01  5.005484E-08  7.007678E-08
        24 -1.226344E+01  5.005485E-08  7.007678E-08

 stresses (elem, integ.pnt.,sxx,syy,szz,sxy,sxz,syz) for set EALL and time  0.4087813E+00

         1   1 -7.007678E-05 -6.776264E-21 -1.654918E-47  3.396454E-31  1.761611E-21 -5.219589E-22
         1   2 -7.007678E-05 -1.016440E-20 -3.388132E-21  1.826856E-21  4.762875E-21 -3.262243E-22
         1   3 -7.007678E-05  6.776264E-21  3.388132E-21 -1.043918E-21  7.829384E-22 -1.304897E-21
         1   4 -7.007678E-05 -3.388132E-21 -1.075169E-46  7.829384E-22  5.480569E-21  1.304897E-22
         1   5 -7.007678E-05  1.016440E-20  1.694066E-20  5.219589E-22 -6.524486E-22 -2.609795E-22
         1   6 -7.007678E-05  1.016440E-20  1.355253E-20  2.087836E-21  2.348815E-21 -1.500632E-21
         1   7 -7.007678E-05  6.776264E-21  6.776264E-21 -2.546910E-72 -1.565877E-21 -1.565877E-21
         1   8 -7.007678E-05  3.388132E-21 -2.023848E-46  2.087836E-21  3.131754E-21 -1.043918E-21
         2   1 -7.007678E-05  1.616104E-13  1.320311E-13 -4.788366E-15  4.123465E-14  2.231294E-15
         2   2 -7.007678E-05  1.339911E-13  1.547998E-13 -1.354538E-14 -2.882149E-14 -1.747321E-15
         2   3 -7.007678E-05  2.023406E-13  1.920402E-13 -1.787043E-14 -1.833775E-15 -5.167933E-15
         2   4 -7.007678E-05  1.511856E-13  1.598923E-13  1.715764E-14  1.568026E-14  1.950343E-15
         2   5 -7.007678E-05 -6.001056E-15 -1.486251E-14 -6.915806E-14  5.819136E-14  1.572653E-14
         2   6 -7.007678E-05  2.075439E-14  3.120962E-14  1.059823E-13  4.505583E-14 -1.021875E-14
         2   7 -7.007678E-05  1.135423E-13  1.239598E-13 -6.670448E-14  1.332685E-13  8.327302E-15
         2   8 -7.007678E-05  1.167621E-13  1.151152E-13  3.351663E-15  1.067029E-14 -6.521090E-15
         3   1 -7.007678E-05  6.164682E-15 -4.882268E-14 -1.376710E-13  1.019808E-13  1.887417E-14
         3   2 -7.007678E-05  1.229587E-13  1.792312E-13  3.001799E-13 -2.920850E-13 -1.846844E-14
         3   3 -7.007678E-05  2.239261E-13  2.491188E-13 -1.310011E-13 -9.116337E-15  1.431331E-14
         3   4 -7.007678E-05  2.205852E-13  1.968578E-13 -1.310011E-13  9.596787E-14 -1.292526E-14
         3   5 -7.007678E-05  3.635855E-14 -5.858392E-15 -1.324933E-13  1.541723E-13  7.500024E-14
         3   6 -7.007678E-05  2.026624E-13  2.434140E-13  7.619000E-15 -4.723906E-14 -7.446833E-14
         3   7 -7.007678E-05 -8.590588E-15  2.937256E-14 -1.116778E-13  2.462019E-13  7.043938E-14
         3   8 -7.007678E-05  3.757834E-14 -1.669929E-15 -1.116778E-13  1.005436E-15 -6.892515E-14

 strains (elem, integ.pnt.,exx,eyy,ezz,exy,exz,eyz) forset EALL and time  0.4087813E+00

         1   1 -3.336990E-10  1.001097E-10  1.001097E-10 -2.102567E-36  1.090521E-26 -3.231174E-27
         1   2 -3.336990E-10  1.001097E-10  1.001097E-10  1.130911E-26  2.948447E-26 -2.019484E-27
         1   3 -3.336990E-10  1.001097E-10  1.001097E-10 -6.462349E-27  4.846761E-27 -8.077936E-27
         1   4 -3.336990E-10  1.001097E-10  1.001097E-10  4.846761E-27  3.392733E-26  8.077936E-28
         1   5 -3.336990E-10  1.001097E-10  1.001097E-10  3.231174E-27 -4.038968E-27 -1.615587E-27
         1   6 -3.336990E-10  1.001097E-10  1.001097E-10  1.292470E-26  1.454028E-26 -9.289626E-27
         1   7 -3.336990E-10  1.001097E-10  1.001097E-10  0.000000E+00 -9.693523E-27 -9.693523E-27
         1   8 -3.336990E-10  1.001097E-10  1.001097E-10  1.292470E-26  1.938705E-26 -6.462349E-27
         2   1 -3.336990E-10  1.001097E-10  1.001097E-10 -2.964227E-20  2.552621E-19  1.381277E-20
         2   2 -3.336990E-10  1.001097E-10  1.001097E-10 -8.385237E-20 -1.784187E-19 -1.081675E-20
         2   3 -3.336990E-10  1.001097E-10  1.001097E-10 -1.106264E-19 -1.135194E-20 -3.199196E-20
         2   4 -3.336990E-10  1.001097E-10  1.001097E-10  1.062140E-19  9.706828E-20  1.207355E-20
         2   5 -3.336990E-10  1.001097E-10  1.001097E-10 -4.281214E-19  3.602322E-19  9.735471E-20
         2   6 -3.336990E-10  1.001097E-10  1.001097E-10  6.560808E-19  2.789170E-19 -6.325895E-20
         2   7 -3.336990E-10  1.001097E-10  1.001097E-10 -4.129325E-19  8.249957E-19  5.154996E-20
         2   8 -3.336990E-10  1.001097E-10  1.001097E-10  2.074839E-20  6.605420E-20 -4.036865E-20
         3   1 -3.336990E-10  1.001097E-10  1.001097E-10 -8.522487E-19  6.313094E-19  1.168401E-19
         3   2 -3.336990E-10  1.001097E-10  1.001097E-10  1.858257E-18 -1.808145E-18 -1.143284E-19
         3   3 -3.336990E-10  1.001097E-10  1.001097E-10 -8.109593E-19 -5.643447E-20  8.860620E-20
         3   4 -3.336990E-10  1.001097E-10  1.001097E-10 -8.109593E-19  5.940868E-19 -8.001351E-20
         3   5 -3.336990E-10  1.001097E-10  1.001097E-10 -8.201965E-19  9.544002E-19  4.642872E-19
         3   6 -3.336990E-10  1.001097E-10  1.001097E-10  4.716524E-20 -2.924323E-19 -4.609944E-19
         3   7 -3.336990E-10  1.001097E-10  1.001097E-10 -6.913387E-19  1.524107E-18  4.360533E-19
         3   8 -3.336990E-10  1.001097E-10  1.001097E-10 -6.913387E-19  6.224127E-21 -4.266795E-19

 displacements (vx,vy,vz) for set NALL and time  0.4177813E+00

         1  0.000000E+00  0.000000E+00  0.000000E+00
         2 -1.705230E-07  0.000000E+00  0.000000E+00
         3 -6.266719E+00  0.000000E+00  0.000000E+00
         4 -6.266719E+00  0.000000E+00  0.000000E+00
         5 -1.253344E+01  0.000000E+00  0.000000E+00
         6 -1.253344E+01  0.000000E+00  0.000000E+00
         7  0.000000E+00  5.115689E-08  0.000000E+00
         8 -1.705230E-07  5.115689E-08  0.000000E+00
         9 -6.266719E+00  5.115689E-08  0.000000E+00
        10 -6.266719E+00  5.115689E-08  0.000000E+00
        11 -1.253344E+01  5.115689E-08  0.000000E+00
        12 -1.253344E+01  5.115689E-08  0.000000E+00
        13  0.000000E+00  0.000000E+00  7.161964E-08
        14 -1.705230E-07  0.000000E+00  7.161964E-08
        15 -6.266719E+00  0.000000E+00  7.161964E-08
        16 -6.266719E+00  0.000000E+00  7.161964E-08
        17 -1.253344E+01  0.000000E+00  7.161964E-08
        18 -1.253344E+01  0.000000E+00  7.161964E-08
        19  0.000000E+00  5.115689E-08  7.161964E-08
        20 -1.705230E-07  5.115689E-08  7.161964E-08
        21 -6.266719E+00  5.115689E-08  7.161964E-08
        22 -6.266719E+00  5.115689E-08  7.161964E-08
        23 -1.253344E+01  5.115689E-08  7.161964E-08
        24 -1.253344E+01  5.115689E-08  7.161964E-08

 stresses (elem, integ.pnt.,sxx,syy,szz,sxy,sxz,syz) for set EALL and time  0.4177813E+00

         1   1 -7.161964E-05 -1.339745E-46  6.776264E-21 -4.632385E-21 -9.786730E-22  1.435387E-21
         1   2 -7.161964E-05  1.694066E-20  1.694066E-20 -2.159605E-20 -6.720221E-21 -1.794234E-21
         1   3 -7.161964E-05 -3.049319E-20 -2.710505E-20 -1.304897E-21  1.565877E-21  2.348815E-21
         1   4 -7.161964E-05 -1.355253E-20 -2.032879E-20 -1.826856E-20  1.096114E-20 -1.304897E-21
         1   5 -7.161964E-05 -6.776264E-21 -3.388132E-21  2.609795E-22 -2.609795E-22  1.696366E-21
         1   6 -7.161964E-05 -3.388132E-21  4.764476E-46  7.829384E-22 -6.002528E-21 -5.186967E-21
         1   7 -7.161964E-05  2.698464E-46 -3.388132E-21  2.087836E-21 -3.131754E-21  3.131754E-21
         1   8 -7.161964E-05 -3.388132E-21 -1.016440E-20  4.175671E-21  7.307425E-21 -4.697630E-21
         2   1 -7.161964E-05 -5.540149E-14 -8.247048E-14 -7.604931E-14  1.094945E-13  5.268528E-15
         2   2 -7.161964E-05 -9.979952E-14 -7.690834E-14  2.763852E-15 -8.725272E-15 -5.088709E-15
         2   3 -7.161964E-05  5.132531E-14  6.147451E-14 -9.242294E-14  5.623680E-14 -6.390321E-15
         2   4 -7.161964E-05 -4.643434E-14 -5.747378E-14 -4.852764E-15 -1.013895E-13  4.760123E-15
         2   5 -7.161964E-05 -8.625879E-14 -8.068301E-14  5.028135E-15  1.215435E-13  3.132126E-14
         2   6 -7.161964E-05 -2.526919E-14 -2.995472E-14  5.028135E-15 -5.433250E-15 -2.884015E-14
         2   7 -7.161964E-05 -1.634294E-13 -1.206354E-13  1.876525E-14  1.848166E-14  1.966241E-14
         2   8 -7.161964E-05 -1.558014E-13 -1.944175E-13  5.379332E-14  1.848166E-14 -1.899132E-14
         3   1 -7.161964E-05 -8.837288E-14 -8.428672E-14 -1.371622E-13 -1.412051E-13  9.903417E-15
         3   2 -7.161964E-05 -6.336305E-14 -7.966138E-14  7.300617E-14  2.966458E-13 -8.544426E-15
         3   3 -7.161964E-05 -2.714572E-14  2.354856E-14 -1.291026E-13  2.582621E-13  4.334361E-15
         3   4 -7.161964E-05 -6.322538E-14 -1.143682E-13  4.603774E-14  2.582621E-13 -7.497075E-15
         3   5 -7.161964E-05 -8.939020E-14 -6.971069E-14  6.340514E-15 -3.910654E-14  4.252911E-14
         3   6 -7.161964E-05 -3.195998E-14 -5.119089E-14  2.165089E-13  3.094960E-14 -3.293558E-14
         3   7 -7.161964E-05 -5.443409E-14  1.185355E-14  2.366312E-14  1.982596E-13  3.696005E-14
         3   8 -7.161964E-05 -5.809335E-14 -1.121688E-13  2.366312E-14 -1.190879E-14 -3.188823E-14

 strains (elem, integ.pnt.,exx,eyy,ezz,exy,exz,eyz) forset EALL and time  0.4177813E+00

         1   1 -3.410459E-10  1.023138E-10  1.023138E-10 -2.867667E-26 -6.058452E-27  8.885729E-27
         1   2 -3.410459E-10  1.023138E-10  1.023138E-10 -1.336898E-25 -4.160137E-26 -1.110716E-26
         1   3 -3.410459E-10  1.023138E-10  1.023138E-10 -8.077936E-27  9.693523E-27  1.454028E-26
         1   4 -3.410459E-10  1.023138E-10  1.023138E-10 -1.130911E-25  6.785466E-26 -8.077936E-27
         1   5 -3.410459E-10  1.023138E-10  1.023138E-10  1.615587E-27 -1.615587E-27  1.050132E-26
         1   6 -3.410459E-10  1.023138E-10  1.023138E-10  4.846761E-27 -3.715850E-26 -3.210979E-26
         1   7 -3.410459E-10  1.023138E-10  1.023138E-10  1.292470E-26 -1.938705E-26  1.938705E-26
         1   8 -3.410459E-10  1.023138E-10  1.023138E-10  2.584939E-26  4.523644E-26 -2.908057E-26
         2   1 -3.410459E-10  1.023138E-10  1.023138E-10 -4.707814E-19  6.778229E-19  3.261470E-20
         2   2 -3.410459E-10  1.023138E-10  1.023138E-10  1.710956E-20 -5.401359E-20 -3.150153E-20
         2   3 -3.410459E-10  1.023138E-10  1.023138E-10 -5.721420E-19  3.481326E-19 -3.955913E-20
         2   4 -3.410459E-10  1.023138E-10  1.023138E-10 -3.004092E-20 -6.276494E-19  2.946743E-20
         2   5 -3.410459E-10  1.023138E-10  1.023138E-10  3.112655E-20  7.524122E-19  1.938935E-19
         2   6 -3.410459E-10  1.023138E-10  1.023138E-10  3.112655E-20 -3.363440E-20 -1.785343E-19
         2   7 -3.410459E-10  1.023138E-10  1.023138E-10  1.161659E-19  1.144103E-19  1.217197E-19
         2   8 -3.410459E-10  1.023138E-10  1.023138E-10  3.330063E-19  1.144103E-19 -1.175653E-19
         3   1 -3.410459E-10  1.023138E-10  1.023138E-10 -8.490996E-19 -8.741268E-19  6.130687E-20
         3   2 -3.410459E-10  1.023138E-10  1.023138E-10  4.519430E-19  1.836379E-18 -5.289406E-20
         3   3 -3.410459E-10  1.023138E-10  1.023138E-10 -7.992066E-19  1.598766E-18  2.683176E-20
         3   4 -3.410459E-10  1.023138E-10  1.023138E-10  2.849955E-19  1.598766E-18 -4.641046E-20
         3   5 -3.410459E-10  1.023138E-10  1.023138E-10  3.925080E-20 -2.420881E-19  2.632754E-19
         3   6 -3.410459E-10  1.023138E-10  1.023138E-10  1.340293E-18  1.915928E-19 -2.038869E-19
         3   7 -3.410459E-10  1.023138E-10  1.023138E-10  1.464860E-19  1.227322E-18  2.288003E-19
         3   8 -3.410459E-10  1.023138E-10  1.023138E-10  1.464860E-19 -7.372110E-20 -1.974033E-19

 displacements (vx,vy,vz) for set NALL and time  0.4267813E+00

         1  0.000000E+00  0.000000E+00  0.000000E+00
         2 -1.741964E-07  0.000000E+00  0.000000E+00
         3 -6.401719E+00  0.000000E+00  0.000000E+00
         4 -6.401719E+00  0.000000E+00  0.000000E+00
         5 -1.280344E+01  0.000000E+00  0.000000E+00
         6 -1.280344E+01  0.000000E+00  0.000000E+00
         7  0.000000E+00  5.225893E-08  0.000000E+00
         8 -1.741964E-07  5.225893E-08  0.000000E+00
         9 -6.401719E+00  5.225893E-08  0.000000E+00
        10 -6.401719E+00  5.225893E-08  0.000000E+00
        11 -1.280344E+01  5.225893E-08  0.000000E+00
        12 -1.280344E+01  5.225893E-08  0.000000E+00
        13  0.000000E+00  0.000000E+00  7.316250E-08
        14 -1.741964E-07  0.000000E+00  7.316250E-08
        15 -6.401719E+00  0.000000E+00  7.316250E-08
        16 -6.401719E+00  0.000000E+00  7.316250E-08
        17 -1.280344E+01  0.000000E+00  7.316250E-08
        18 -1.280344E+01  0.000000E+00  7.316250E-08
        19  0.000000E+00  5.225893E-08  7.316250E-08
        20 -1.741964E-07  5.225893E-08  7.316250E-08
        21 -6.401719E+00  5.225893E-08  7.316250E-08
        22 -6.401719E+00  5.225893E-08  7.316250E-08
        23 -1.280344E+01  5.225893E-08  7.316250E-08
        24 -1.280344E+01  5.225893E-08  7.316250E-08

 stresses (elem, integ.pnt.,sxx,syy,szz,sxy,sxz,syz) for set EALL and time  0.4267813E+00

         1   1 -7.316250E-05 -1.016440E-20 -3.388132E-21 -1.696366E-21  3.914692E-22 -1.454641E-47
         1   2 -7.316250E-05 -1.016440E-20  6.776264E-21 -4.828120E-21  2.348815E-21 -4.893365E-22
         1   3 -7.316250E-05 -1.016440E-20 -6.776264E-21 -3.392733E-21 -7.829384E-22 -5.219589E-22
         1   4 -7.316250E-05 -1.016440E-20 -1.016440E-20 -6.524486E-21  1.304897E-21  3.262243E-21
         1   5 -7.316250E-05 -3.388132E-21  8.770009E-47  2.609795E-22  1.696366E-21  3.921206E-47
         1   6 -7.316250E-05  1.016440E-20  1.016440E-20 -7.829384E-22  3.653712E-21 -4.404028E-21
         1   7 -7.316250E-05  3.238157E-46  2.428618E-46  3.131754E-21 -3.131754E-21 -2.833388E-46
         1   8 -7.316250E-05  6.776264E-21 -1.016440E-20  2.087836E-21 -1.043918E-21 -6.524487E-22
         2   1 -7.316250E-05  3.715697E-14 -1.820347E-14 -1.842482E-13 -1.940863E-14  4.383391E-15
         2   2 -7.316250E-05 -4.212583E-15  5.115467E-14 -1.317061E-13 -6.757223E-14 -6.994274E-15
         2   3 -7.316250E-05 -6.667823E-14 -8.534522E-14 -2.091312E-13 -4.913594E-15 -9.326370E-15
         2   4 -7.316250E-05 -1.681520E-13 -1.562303E-13 -1.478321E-13  1.260044E-14  4.308892E-15
         2   5 -7.316250E-05 -5.629191E-14 -7.326502E-14 -2.765149E-13  2.326446E-14  3.006880E-14
         2   6 -7.316250E-05  2.490188E-14  4.862027E-14  1.087939E-13  3.639999E-14 -3.740615E-14
         2   7 -7.316250E-05  7.631237E-14  9.603270E-14 -1.262676E-13 -1.833778E-14  1.635904E-14
         2   8 -7.316250E-05  9.740193E-14  7.767479E-14  1.189289E-13  1.669029E-14 -2.610299E-14
         3   1 -7.316250E-05  1.184681E-13  1.667495E-13 -1.999961E-13 -1.767568E-13  9.945303E-15
         3   2 -7.316250E-05  2.110056E-13  1.973957E-13  3.254249E-13  1.034678E-13 -2.112526E-16
         3   3 -7.316250E-05 -2.723153E-13 -1.846295E-13 -1.722050E-13 -3.015901E-13  9.533237E-15
         3   4 -7.316250E-05 -2.375872E-13 -2.888718E-13 -3.209268E-14  1.537749E-13  2.558385E-14
         3   5 -7.316250E-05 -1.988036E-13 -1.493685E-13 -5.368474E-13 -2.162011E-13  3.752844E-14
         3   6 -7.316250E-05  2.214902E-14 -6.368724E-14  9.365791E-14  1.253226E-13 -2.658351E-14
         3   7 -7.316250E-05  4.091818E-14  1.297578E-13 -4.723661E-13 -7.973712E-14  3.711638E-14
         3   8 -7.316250E-05  2.040614E-13  8.055053E-14 -5.202929E-14  2.534709E-14 -7.884050E-16

 strains (elem, integ.pnt.,exx,eyy,ezz,exy,exz,eyz) forset EALL and time  0.4267813E+00

         1   1 -3.483928E-10  1.045179E-10  1.045179E-10 -1.050132E-26  2.423381E-27  3.132146E-53
         1   2 -3.483928E-10  1.045179E-10  1.045179E-10 -2.988836E-26  1.454028E-26 -3.029226E-27
         1   3 -3.483928E-10  1.045179E-10  1.045179E-10 -2.100263E-26 -4.846761E-27 -3.231174E-27
         1   4 -3.483928E-10  1.045179E-10  1.045179E-10 -4.038968E-26  8.077936E-27  2.019484E-26
         1   5 -3.483928E-10  1.045179E-10  1.045179E-10  1.615587E-27  1.050132E-26  3.132146E-53
         1   6 -3.483928E-10  1.045179E-10  1.045179E-10 -4.846761E-27  2.261822E-26 -2.726303E-26
         1   7 -3.483928E-10  1.045179E-10  1.045179E-10  1.938705E-26 -1.938705E-26  0.000000E+00
         1   8 -3.483928E-10  1.045179E-10  1.045179E-10  1.292470E-26 -6.462349E-27 -4.038968E-27
         2   1 -3.483928E-10  1.045179E-10  1.045179E-10 -1.140584E-18 -1.201487E-19  2.713527E-20
         2   2 -3.483928E-10  1.045179E-10  1.045179E-10 -8.153233E-19 -4.183043E-19 -4.329789E-20
         2   3 -3.483928E-10  1.045179E-10  1.045179E-10 -1.294622E-18 -3.041748E-20 -5.773467E-20
         2   4 -3.483928E-10  1.045179E-10  1.045179E-10 -9.151513E-19  7.800273E-20  2.667409E-20
         2   5 -3.483928E-10  1.045179E-10  1.045179E-10 -1.711759E-18  1.440181E-19  1.861402E-19
         2   6 -3.483928E-10  1.045179E-10  1.045179E-10  6.734860E-19  2.253333E-19 -2.315619E-19
         2   7 -3.483928E-10  1.045179E-10  1.045179E-10 -7.816564E-19 -1.135196E-19  1.012702E-19
         2   8 -3.483928E-10  1.045179E-10  1.045179E-10  7.362267E-19  1.033208E-19 -1.615899E-19
         3   1 -3.483928E-10  1.045179E-10  1.045179E-10 -1.238071E-18 -1.094209E-18  6.156616E-20
         3   2 -3.483928E-10  1.045179E-10  1.045179E-10  2.014535E-18  6.405147E-19 -1.307754E-21
         3   3 -3.483928E-10  1.045179E-10  1.045179E-10 -1.066031E-18 -1.866986E-18  5.901528E-20
         3   4 -3.483928E-10  1.045179E-10  1.045179E-10 -1.986689E-19  9.519396E-19  1.583762E-19
         3   5 -3.483928E-10  1.045179E-10  1.045179E-10 -3.323341E-18 -1.338388E-18  2.323189E-19
         3   6 -3.483928E-10  1.045179E-10  1.045179E-10  5.797870E-19  7.758065E-19 -1.645646E-19
         3   7 -3.483928E-10  1.045179E-10  1.045179E-10 -2.924171E-18 -4.936108E-19  2.297680E-19
         3   8 -3.483928E-10  1.045179E-10  1.045179E-10 -3.220861E-19  1.569105E-19 -4.880602E-21

 displacements (vx,vy,vz) for set NALL and time  0.4357813E+00

         1  0.000000E+00  0.000000E+00  0.000000E+00
         2 -1.778699E-07  0.000000E+00  0.000000E+00
         3 -6.536719E+00  0.000000E+00  0.000000E+00
         4 -6.536719E+00  0.000000E+00  0.000000E+00
         5 -1.307344E+01  0.000000E+00  0.000000E+00
         6 -1.307344E+01  0.000000E+00  0.000000E+00
         7  0.000000E+00  5.336097E-08  0.000000E+00
         8 -1.778699E-07  5.336097E-08  0.000000E+00
         9 -6.536719E+00  5.336097E-08  0.000000E+00
        10 -6.536719E+00  5.336097E-08  0.000000E+00
        11 -1.307344E+01  5.336097E-08  0.000000E+00
        12 -1.307344E+01  5.336097E-08  0.000000E+00
        13  0.000000E+00  0.000000E+00  7.470535E-08
        14 -1.778699E-07  0.000000E+00  7.470535E-08
        15 -6.536719E+00  0.000000E+00  7.470535E-08
        16 -6.536719E+00  0.000000E+00  7.470535E-08
        17 -1.307344E+01  0.000000E+00  7.470535E-08
        18 -1.307344E+01  0.000000E+00  7.470535E-08
        19  0.000000E+00  5.336097E-08  7.470535E-08
        20 -1.778699E-07  5.336097E-08  7.470535E-08
        21 -6.536719E+00  5.336097E-08  7.470535E-08
        22 -6.536719E+00  5.336097E-08  7.470535E-08
        23 -1.307344E+01  5.336097E-08  7.470535E-08
        24 -1.307344E+01  5.336097E-08  7.470535E-08

 stresses (elem, integ.pnt.,sxx,syy,szz,sxy,sxz,syz) for set EALL and time  0.4357813E+00

         1   1 -7.470535E-05 -1.016440E-20 -6.776264E-21 -1.304897E-21 -8.481832E-22  6.524487E-22
         1   2 -7.470535E-05 -3.388132E-21 -1.746623E-46 -5.741548E-21 -6.067772E-21 -3.588468E-22
         1   3 -7.470535E-05 -3.388132E-21 -3.388132E-21 -2.870774E-21 -5.219589E-22  1.565877E-21
         1   4 -7.470535E-05 -3.388132E-21 -5.902891E-47 -7.307425E-21 -2.087836E-21  1.826856E-21
         1   5 -7.470535E-05  2.740628E-47  3.963370E-46  4.342841E-47  2.870774E-21  1.696366E-21
         1   6 -7.470535E-05 -9.399827E-47  2.042822E-46  2.087836E-21 -2.348815E-21 -4.012559E-21
         1   7 -7.470535E-05  1.619079E-46 -3.388132E-21 -7.420777E-47 -1.565877E-21  3.131754E-21
         1   8 -7.470535E-05 -1.416694E-46 -6.776264E-21  2.087836E-21 -3.131754E-21 -1.826856E-21
         2   1 -7.470535E-05 -7.388103E-15 -1.577074E-14  1.421069E-13 -1.058359E-14  1.297694E-15
         2   2 -7.470535E-05  3.197194E-14  3.973934E-14  6.329378E-14  8.574360E-14 -1.436950E-15
         2   3 -7.470535E-05 -1.387216E-13 -1.295611E-13  1.475564E-13 -7.210110E-14 -7.437106E-15
         2   4 -7.470535E-05 -1.256343E-13 -1.353542E-13 -2.758391E-14 -2.044964E-15  6.878335E-15
         2   5 -7.470535E-05 -3.705309E-14 -2.097829E-14  1.073173E-14  8.350737E-15  1.357786E-14
         2   6 -7.470535E-05  8.585236E-14  7.033696E-14 -5.932441E-14 -4.419137E-14 -1.367806E-14
         2   7 -7.470535E-05 -2.389577E-14  9.722129E-15  4.005135E-14 -7.768805E-14  4.843059E-15
         2   8 -7.470535E-05  7.273689E-14  3.973419E-14  5.023276E-15 -7.631911E-15 -5.362773E-15
         3   1 -7.470535E-05 -1.516047E-13 -1.764358E-13 -2.329731E-17 -2.798241E-14 -1.348731E-14
         3   2 -7.470535E-05 -1.312035E-13 -1.284085E-13  5.251881E-14 -1.243096E-13  2.505069E-14
         3   3 -7.470535E-05 -1.064048E-13 -1.410254E-13 -8.694739E-17 -3.968030E-13 -4.348265E-14
         3   4 -7.470535E-05 -3.773926E-14  1.961858E-14  8.748323E-14 -1.165784E-13  5.529648E-14
         3   5 -7.470536E-05 -6.663766E-13 -6.072207E-13  3.084639E-14  9.635090E-14 -2.034001E-14
         3   6 -7.470536E-05 -3.507939E-13 -4.326871E-13  3.084639E-14  6.132283E-14  6.324468E-14
         3   7 -7.470536E-05 -5.686346E-13 -5.192682E-13  1.151203E-13 -4.726195E-13 -5.033534E-14
         3   8 -7.470535E-05 -2.047875E-13 -2.321179E-13 -9.504811E-14 -1.223388E-13  9.349046E-14

 strains (elem, integ.pnt.,exx,eyy,ezz,exy,exz,eyz) forset EALL and time  0.4357813E+00

         1   1 -3.557398E-10  1.067219E-10  1.067219E-10 -8.077936E-27 -5.250658E-27  4.038968E-27
         1   2 -3.557398E-10  1.067219E-10  1.067219E-10 -3.554292E-26 -3.756240E-26 -2.221432E-27
         1   3 -3.557398E-10  1.067219E-10  1.067219E-10 -1.777146E-26 -3.231174E-27  9.693523E-27
         1   4 -3.557398E-10  1.067219E-10  1.067219E-10 -4.523644E-26 -1.292470E-26  1.130911E-26
         1   5 -3.557398E-10  1.067219E-10  1.067219E-10  3.967385E-52  1.777146E-26  1.050132E-26
         1   6 -3.557398E-10  1.067219E-10  1.067219E-10  1.292470E-26 -1.454028E-26 -2.483965E-26
         1   7 -3.557398E-10  1.067219E-10  1.067219E-10 -8.352390E-53 -9.693523E-27  1.938705E-26
         1   8 -3.557398E-10  1.067219E-10  1.067219E-10  1.292470E-26 -1.938705E-26 -1.130911E-26
         2   1 -3.557398E-10  1.067219E-10  1.067219E-10  8.797096E-19 -6.551746E-20  8.033344E-21
         2   2 -3.557398E-10  1.067219E-10  1.067219E-10  3.918186E-19  5.307937E-19 -8.895407E-21
         2   3 -3.557398E-10  1.067219E-10  1.067219E-10  9.134446E-19 -4.463402E-19 -4.603923E-20
         2   4 -3.557398E-10  1.067219E-10  1.067219E-10 -1.707576E-19 -1.265930E-20  4.258017E-20
         2   5 -3.557398E-10  1.067219E-10  1.067219E-10  6.643449E-20  5.169504E-20  8.405342E-20
         2   6 -3.557398E-10  1.067219E-10  1.067219E-10 -3.672464E-19 -2.735656E-19 -8.467370E-20
         2   7 -3.557398E-10  1.067219E-10  1.067219E-10  2.479369E-19 -4.809260E-19  2.998084E-20
         2   8 -3.557398E-10  1.067219E-10  1.067219E-10  3.109647E-20 -4.724516E-20 -3.319812E-20
         3   1 -3.557398E-10  1.067219E-10  1.067219E-10 -1.442214E-22 -1.732244E-19 -8.349290E-20
         3   2 -3.557398E-10  1.067219E-10  1.067219E-10  3.251164E-19 -7.695356E-19  1.550757E-19
         3   3 -3.557398E-10  1.067219E-10  1.067219E-10 -5.382458E-22 -2.456399E-18 -2.691783E-19
         3   4 -3.557398E-10  1.067219E-10  1.067219E-10  5.415628E-19 -7.216758E-19  3.423115E-19
         3   5 -3.557398E-10  1.067219E-10  1.067219E-10  1.909539E-19  5.964580E-19 -1.259143E-19
         3   6 -3.557398E-10  1.067219E-10  1.067219E-10  1.909539E-19  3.796175E-19  3.915147E-19
         3   7 -3.557398E-10  1.067219E-10  1.067219E-10  7.126495E-19 -2.925739E-18 -3.115997E-19
         3   8 -3.557398E-10  1.067219E-10  1.067219E-10 -5.883931E-19 -7.573351E-19  5.787505E-19

 displacements (vx,vy,vz) for set NALL and time  0.4447813E+00

         1  0.000000E+00  0.000000E+00  0.000000E+00
         2 -1.815434E-07  0.000000E+00  0.000000E+00
         3 -6.671719E+00  0.000000E+00  0.000000E+00
         4 -6.671719E+00  0.000000E+00  0.000000E+00
         5 -1.334344E+01  0.000000E+00  0.000000E+00
         6 -1.334344E+01  0.000000E+00  0.000000E+00
         7  0.000000E+00  5.446301E-08  0.000000E+00
         8 -1.815434E-07  5.446301E-08  0.000000E+00
         9 -6.671719E+00  5.446301E-08  0.000000E+00
        10 -6.671719E+00  5.446301E-08  0.000000E+00
        11 -1.334344E+01  5.446301E-08  0.000000E+00
        12 -1.334344E+01  5.446301E-08  0.000000E+00
        13  0.000000E+00  0.000000E+00  7.624821E-08
        14 -1.815434E-07  0.000000E+00  7.624821E-08
        15 -6.671719E+00  0.000000E+00  7.624821E-08
        16 -6.671719E+00  0.000000E+00  7.624821E-08
        17 -1.334344E+01  0.000000E+00  7.624821E-08
        18 -1.334344E+01  0.000000E+00  7.624821E-08
        19  0.000000E+00  5.446301E-08  7.624821E-08
        20 -1.815434E-07  5.446301E-08  7.624821E-08
        21 -6.671719E+00  5.446301E-08  7.624821E-08
        22 -6.671719E+00  5.446301E-08  7.624821E-08
        23 -1.334344E+01  5.446301E-08  7.624821E-08
        24 -1.334344E+01  5.446301E-08  7.624821E-08

 stresses (elem, integ.pnt.,sxx,syy,szz,sxy,sxz,syz) for set EALL and time  0.4447813E+00

         1   1 -7.624821E-05 -6.776264E-21  7.960684E-57 -2.348815E-21 -5.219589E-22  1.304897E-21
         1   2 -7.624821E-05  2.491600E-46  6.776264E-21 -8.612322E-21 -3.914692E-21 -2.772907E-21
         1   3 -7.624821E-05 -1.355253E-20 -1.355253E-20 -5.480569E-21  2.348815E-21  3.131754E-21
         1   4 -7.624821E-05 -2.032879E-20 -2.710505E-20 -1.174408E-20  1.435387E-20 -1.239652E-21
         1   5 -7.624821E-05 -7.083469E-47  4.351274E-46  3.914692E-21  2.609795E-21  2.870774E-21
         1   6 -7.624821E-05 -1.355253E-20 -6.776264E-21  2.374913E-20 -7.829384E-22 -1.158096E-20
         1   7 -7.624821E-05  2.710505E-20  2.710505E-20  2.463713E-30 -3.653712E-21  4.175671E-21
         1   8 -7.624821E-05  6.776264E-21 -1.355253E-20  1.983444E-20  8.351343E-21 -1.004771E-20
         2   1 -7.624821E-05 -1.036109E-13 -1.695477E-13  2.529977E-14 -2.337479E-14  5.659216E-15
         2   2 -7.624821E-05 -1.625232E-13 -1.298216E-13 -9.728297E-15 -7.591690E-14 -4.529553E-15
         2   3 -7.624821E-05  9.722341E-14  8.889733E-14 -1.278431E-15 -1.136678E-14 -1.920699E-14
         2   4 -7.624821E-05 -2.907309E-14 -2.860650E-14 -1.278431E-15 -1.164510E-13  5.659973E-15
         2   5 -7.624821E-05  1.948815E-13  1.985702E-13  1.483478E-13  8.462562E-15  4.598669E-14
         2   6 -7.624821E-05  3.077423E-13  3.119133E-13  8.235506E-15  1.047898E-13 -2.709404E-14
         2   7 -7.624821E-05 -7.716310E-14 -1.586380E-14  1.708476E-13  9.769089E-14  2.112048E-14
         2   8 -7.624821E-05 -3.168653E-14 -5.975061E-14  6.576340E-14 -7.393319E-15 -1.690452E-14
         3   1 -7.624821E-05 -1.182570E-13 -1.685125E-13  3.332260E-13  1.129849E-14 -2.240206E-14
         3   2 -7.624821E-05 -2.482643E-13 -1.612339E-13  1.797336E-14  1.251397E-13  1.872053E-14
         3   3 -7.624821E-05 -4.479227E-14 -1.722351E-13  2.866316E-13 -2.381768E-13 -2.957449E-14
         3   4 -7.624821E-05 -8.479030E-14  4.506509E-14  2.392112E-14 -1.681206E-13  3.988849E-14
         3   5 -7.624821E-05  1.881218E-13  1.579491E-13 -2.532094E-15 -1.329738E-13 -7.643321E-14
         3   6 -7.624821E-05  1.969824E-13  2.247425E-13  6.752405E-14  4.216654E-14  4.869803E-14
         3   7 -7.624821E-05 -7.993716E-14 -1.872972E-13 -9.449902E-15 -2.634124E-13 -8.360564E-14
         3   8 -7.624821E-05  1.893269E-14  8.951780E-14 -1.495622E-13 -1.233001E-13  6.986599E-14

 strains (elem, integ.pnt.,exx,eyy,ezz,exy,exz,eyz) forset EALL and time  0.4447813E+00

         1   1 -3.630867E-10  1.089260E-10  1.089260E-10 -1.454028E-26 -3.231174E-27  8.077936E-27
         1   2 -3.630867E-10  1.089260E-10  1.089260E-10 -5.331438E-26 -2.423381E-26 -1.716561E-26
         1   3 -3.630867E-10  1.089260E-10  1.089260E-10 -3.392733E-26  1.454028E-26  1.938705E-26
         1   4 -3.630867E-10  1.089260E-10  1.089260E-10 -7.270142E-26  8.885729E-26 -7.674039E-27
         1   5 -3.630867E-10  1.089260E-10  1.089260E-10  2.423381E-26  1.615587E-26  1.777146E-26
         1   6 -3.630867E-10  1.089260E-10  1.089260E-10  1.470184E-25 -4.846761E-27 -7.169168E-26
         1   7 -3.630867E-10  1.089260E-10  1.089260E-10 -1.525155E-35 -2.261822E-26  2.584939E-26
         1   8 -3.630867E-10  1.089260E-10  1.089260E-10  1.227846E-25  5.169879E-26 -6.220010E-26
         2   1 -3.630867E-10  1.089260E-10  1.089260E-10  1.566176E-19 -1.447011E-19  3.503324E-20
         2   2 -3.630867E-10  1.089260E-10  1.089260E-10 -6.022279E-20 -4.699617E-19 -2.804009E-20
         2   3 -3.630867E-10  1.089260E-10  1.089260E-10 -7.914099E-21 -7.036577E-20 -1.189004E-19
         2   4 -3.630867E-10  1.089260E-10  1.089260E-10 -7.914099E-21 -7.208871E-19  3.503793E-20
         2   5 -3.630867E-10  1.089260E-10  1.089260E-10  9.183434E-19  5.238729E-20  2.846795E-19
         2   6 -3.630867E-10  1.089260E-10  1.089260E-10  5.098170E-20  6.486985E-19 -1.677250E-19
         2   7 -3.630867E-10  1.089260E-10  1.089260E-10  1.057628E-18  6.047531E-19  1.307459E-19
         2   8 -3.630867E-10  1.089260E-10  1.089260E-10  4.071067E-19 -4.576817E-20 -1.046470E-19
         3   1 -3.630867E-10  1.089260E-10  1.089260E-10  2.062828E-18  6.994303E-20 -1.386794E-19
         3   2 -3.630867E-10  1.089260E-10  1.089260E-10  1.112636E-19  7.746744E-19  1.158890E-19
         3   3 -3.630867E-10  1.089260E-10  1.089260E-10  1.774386E-18 -1.474428E-18 -1.830802E-19
         3   4 -3.630867E-10  1.089260E-10  1.089260E-10  1.480831E-19 -1.040747E-18  2.469288E-19
         3   5 -3.630867E-10  1.089260E-10  1.089260E-10 -1.567487E-20 -8.231712E-19 -4.731580E-19
         3   6 -3.630867E-10  1.089260E-10  1.089260E-10  4.180060E-19  2.610309E-19  3.014640E-19
         3   7 -3.630867E-10  1.089260E-10  1.089260E-10 -5.849940E-20 -1.630648E-18 -5.175587E-19
         3   8 -3.630867E-10  1.089260E-10  1.089260E-10 -9.258611E-19 -7.632862E-19  4.325037E-19

 displacements (vx,vy,vz) for set NALL and time  0.4537813E+00

         1  0.000000E+00  0.000000E+00  0.000000E+00
         2 -1.852168E-07  0.000000E+00  0.000000E+00
         3 -6.806719E+00  0.000000E+00  0.000000E+00
         4 -6.806719E+00  0.000000E+00  0.000000E+00
         5 -1.361344E+01  0.000000E+00  0.000000E+00
         6 -1.361344E+01  0.000000E+00  0.000000E+00
         7  0.000000E+00  5.556505E-08  0.000000E+00
         8 -1.852168E-07  5.556505E-08  0.000000E+00
         9 -6.806719E+00  5.556505E-08  0.000000E+00
        10 -6.806719E+00  5.556505E-08  0.000000E+00
        11 -1.361344E+01  5.556505E-08  0.000000E+00
        12 -1.361344E+01  5.556505E-08  0.000000E+00
        13  0.000000E+00  0.000000E+00  7.779107E-08
        14 -1.852168E-07  0.000000E+00  7.779107E-08
        15 -6.806719E+00  0.000000E+00  7.779107E-08
        16 -6.806719E+00  0.000000E+00  7.779107E-08
        17 -1.361344E+01  0.000000E+00  7.779107E-08
        18 -1.361344E+01  0.000000E+00  7.779107E-08
        19  0.000000E+00  5.556505E-08  7.779107E-08
        20 -1.852168E-07  5.556505E-08  7.779107E-08
        21 -6.806719E+00  5.556505E-08  7.779107E-08
        22 -6.806719E+00  5.556505E-08  7.779107E-08
        23 -1.361344E+01  5.556505E-08  7.779107E-08
        24 -1.361344E+01  5.556505E-08  7.779107E-08

 stresses (elem, integ.pnt.,sxx,syy,szz,sxy,sxz,syz) for set EALL and time  0.4537813E+00

         1   1 -7.779107E-05 -6.776264E-21 -6.776264E-21  3.914692E-22  1.892101E-21 -1.174408E-21
         1   2 -7.779107E-05 -2.032879E-20 -1.355253E-20  6.393997E-21  3.457978E-21 -5.545814E-22
         1   3 -7.779107E-05 -6.776264E-21 -6.776264E-21 -5.741548E-21 -1.565877E-21 -1.565877E-21
         1   4 -7.779107E-05 -2.032879E-20 -1.355253E-20  2.609795E-22 -1.565877E-21  5.089099E-21
         1   5 -7.779107E-05  2.066012E-47  6.813623E-46  5.219589E-22  3.653712E-21 -4.306161E-21
         1   6 -7.779107E-05  6.776264E-21  3.116937E-45  4.697630E-21  5.219589E-21 -9.558373E-21
         1   7 -7.779107E-05  3.035772E-46  1.457171E-45  3.131754E-21 -6.263507E-21 -4.697630E-21
         1   8 -7.779107E-05  6.776264E-21 -6.776264E-21  7.307425E-21 -6.263507E-21 -3.914692E-21
         2   1 -7.779107E-05  1.353935E-13  1.237866E-13  3.435636E-14 -1.199977E-13  3.777753E-15
         2   2 -7.779107E-05  1.365829E-13  1.387962E-13  3.435636E-14 -4.118451E-14 -5.392402E-15
         2   3 -7.779107E-05 -1.751037E-13 -1.453420E-13  3.252122E-14  1.220711E-13 -1.485930E-14
         2   4 -7.779107E-05 -2.343367E-13 -2.713179E-13  4.127824E-14  3.450097E-14  7.311433E-15
         2   5 -7.779107E-05  1.780086E-14  5.837771E-14  1.538848E-14 -1.128927E-13  3.273582E-14
         2   6 -7.779107E-05  1.725606E-13  1.392032E-13  1.538848E-14 -1.128927E-13 -3.282855E-14
         2   7 -7.779107E-05 -1.613411E-13 -7.939554E-14  5.743058E-14  1.428380E-13  1.409877E-14
         2   8 -7.779107E-05 -6.700366E-14 -1.395556E-13  9.245865E-14 -8.484446E-14 -2.012472E-14
         3   1 -7.779107E-05 -6.865966E-14 -5.563400E-14 -2.883464E-13 -1.987745E-14  1.280982E-15
         3   2 -7.779107E-05 -2.045077E-13 -2.246836E-13  3.596729E-13  3.391603E-13  2.580838E-15
         3   3 -7.779107E-05  4.044116E-13  4.527218E-13 -3.105358E-13 -3.416350E-14 -1.991849E-14
         3   4 -7.779107E-05  2.267455E-13  1.860967E-13  3.974487E-14  2.460611E-13  2.396286E-14
         3   5 -7.779107E-05 -4.118181E-14  3.120236E-14 -2.665262E-13 -4.127512E-15  2.598016E-14
         3   6 -7.779107E-05  3.161944E-14 -4.842609E-14  1.538107E-13  1.710128E-13 -1.175020E-14
         3   7 -7.779107E-05 -1.198026E-13 -1.213390E-14 -2.291015E-13 -2.676122E-13  4.780689E-15
         3   8 -7.779107E-05 -8.881946E-14 -1.893379E-13  5.112310E-14  2.227808E-13  9.631816E-15

 strains (elem, integ.pnt.,exx,eyy,ezz,exy,exz,eyz) forset EALL and time  0.4537813E+00

         1   1 -3.704337E-10  1.111301E-10  1.111301E-10  2.423381E-27  1.171301E-26 -7.270142E-27
         1   2 -3.704337E-10  1.111301E-10  1.111301E-10  3.958188E-26  2.140653E-26 -3.433123E-27
         1   3 -3.704337E-10  1.111301E-10  1.111301E-10 -3.554292E-26 -9.693523E-27 -9.693523E-27
         1   4 -3.704337E-10  1.111301E-10  1.111301E-10  1.615587E-27 -9.693523E-27  3.150395E-26
         1   5 -3.704337E-10  1.111301E-10  1.111301E-10  3.231174E-27  2.261822E-26 -2.665719E-26
         1   6 -3.704337E-10  1.111301E-10  1.111301E-10  2.908057E-26  3.231174E-26 -5.917088E-26
         1   7 -3.704337E-10  1.111301E-10  1.111301E-10  1.938705E-26 -3.877409E-26 -2.908057E-26
         1   8 -3.704337E-10  1.111301E-10  1.111301E-10  4.523644E-26 -3.877409E-26 -2.423381E-26
         2   1 -3.704337E-10  1.111301E-10  1.111301E-10  2.126822E-19 -7.428427E-19  2.338609E-20
         2   2 -3.704337E-10  1.111301E-10  1.111301E-10  2.126822E-19 -2.549517E-19 -3.338154E-20
         2   3 -3.704337E-10  1.111301E-10  1.111301E-10  2.013219E-19  7.556785E-19 -9.198612E-20
         2   4 -3.704337E-10  1.111301E-10  1.111301E-10  2.555320E-19  2.135774E-19  4.526125E-20
         2   5 -3.704337E-10  1.111301E-10  1.111301E-10  9.526200E-20 -6.988598E-19  2.026503E-19
         2   6 -3.704337E-10  1.111301E-10  1.111301E-10  9.526200E-20 -6.988598E-19 -2.032244E-19
         2   7 -3.704337E-10  1.111301E-10  1.111301E-10  3.555226E-19  8.842352E-19  8.727809E-20
         2   8 -3.704337E-10  1.111301E-10  1.111301E-10  5.723630E-19 -5.252276E-19 -1.245816E-19
         3   1 -3.704337E-10  1.111301E-10  1.111301E-10 -1.785002E-18 -1.230509E-19  7.929886E-21
         3   2 -3.704337E-10  1.111301E-10  1.111301E-10  2.226546E-18  2.099564E-18  1.597661E-20
         3   3 -3.704337E-10  1.111301E-10  1.111301E-10 -1.922365E-18 -2.114883E-19 -1.233049E-19
         3   4 -3.704337E-10  1.111301E-10  1.111301E-10  2.460397E-19  1.523235E-18  1.483415E-19
         3   5 -3.704337E-10  1.111301E-10  1.111301E-10 -1.649924E-18 -2.555126E-20  1.608296E-19
         3   6 -3.704337E-10  1.111301E-10  1.111301E-10  9.521613E-19  1.058651E-18 -7.273936E-20
         3   7 -3.704337E-10  1.111301E-10  1.111301E-10 -1.418247E-18 -1.656647E-18  2.959474E-20
         3   8 -3.704337E-10  1.111301E-10  1.111301E-10  3.164763E-19  1.379119E-18  5.962553E-20

 displacements (vx,vy,vz) for set NALL and time  0.4627813E+00

         1  0.000000E+00  0.000000E+00  0.000000E+00
         2 -1.888903E-07  0.000000E+00  0.000000E+00
         3 -6.941719E+00  0.000000E+00  0.000000E+00
         4 -6.941719E+00  0.000000E+00  0.000000E+00
         5 -1.388344E+01  0.000000E+00  0.000000E+00
         6 -1.388344E+01  0.000000E+00  0.000000E+00
         7  0.000000E+00  5.666709E-08  0.000000E+00
         8 -1.888903E-07  5.666709E-08  0.000000E+00
         9 -6.941719E+00  5.666709E-08  0.000000E+00
        10 -6.941719E+00  5.666709E-08  0.000000E+00
        11 -1.388344E+01  5.666709E-08  0.000000E+00
        12 -1.388344E+01  5.666709E-08  0.000000E+00
        13  0.000000E+00  0.000000E+00  7.933393E-08
        14 -1.888903E-07  0.000000E+00  7.933393E-08
        15 -6.941719E+00  0.000000E+00  7.933393E-08
        16 -6.941719E+00  0.000000E+00  7.933393E-08
        17 -1.388344E+01  0.000000E+00  7.933393E-08
        18 -1.388344E+01  0.000000E+00  7.933393E-08
        19  0.000000E+00  5.666709E-08  7.933393E-08
        20 -1.888903E-07  5.666709E-08  7.933393E-08
        21 -6.941719E+00  5.666709E-08  7.933393E-08
        22 -6.941719E+00  5.666709E-08  7.933393E-08
        23 -1.388344E+01  5.666709E-08  7.933393E-08
        24 -1.388344E+01  5.666709E-08  7.933393E-08

 stresses (elem, integ.pnt.,sxx,syy,szz,sxy,sxz,syz) for set EALL and time  0.4627813E+00

         1   1 -7.933393E-05 -3.373080E-47  6.776264E-21 -3.784202E-21 -2.609795E-21  9.134281E-22
         1   2 -7.933393E-05  1.355253E-20  2.032879E-20 -1.631122E-20 -1.252701E-20 -1.435387E-21
         1   3 -7.933393E-05 -8.432701E-47  1.242427E-56 -2.609795E-21  1.304897E-21  1.304897E-21
         1   4 -7.933393E-05  6.776264E-21  6.776264E-21 -1.513681E-20  7.568404E-21 -1.631122E-21
         1   5 -7.933393E-05 -6.776264E-21  1.686540E-46  1.565877E-21  5.219589E-22  2.218325E-21
         1   6 -7.933393E-05 -1.355253E-20  6.776264E-21  7.829384E-21 -9.395261E-21 -4.893365E-21
         1   7 -7.933393E-05  6.776264E-21  1.355253E-20  1.043918E-21 -1.043918E-21  2.087836E-21
         1   8 -7.933393E-05 -1.395612E-46  1.872060E-46  7.307425E-21  5.219589E-21 -5.089099E-21
         2   1 -7.933393E-05 -5.566375E-14 -1.207266E-13 -1.129865E-13  6.037681E-14  3.365539E-16
         2   2 -7.933393E-05 -1.082927E-13 -9.959862E-14  1.836881E-14 -1.235206E-13 -4.767438E-16
         2   3 -7.933393E-05  1.681213E-13  1.387279E-13 -1.345758E-13 -7.778895E-16 -2.371263E-14
         2   4 -7.933393E-05  9.028158E-14  1.010309E-13  5.536488E-15  3.425018E-14 -3.217866E-15
         2   5 -7.933393E-05 -1.866403E-13 -1.843654E-13  3.016764E-15  8.178161E-14  2.530522E-14
         2   6 -7.933393E-05 -1.348597E-13 -1.184905E-13  2.482133E-13 -4.519515E-14  9.618919E-16
         2   7 -7.933393E-05 -2.124302E-13 -1.744859E-13  1.125872E-14  6.715302E-14  1.256037E-15
         2   8 -7.933393E-05 -1.858604E-13 -1.674360E-13  1.513710E-13 -1.079873E-13 -1.779230E-15
         3   1 -7.933393E-05 -1.463212E-13 -9.991796E-14  1.682123E-14  2.709204E-14  4.681793E-15
         3   2 -7.933393E-05 -8.703975E-15 -8.518741E-14  1.394195E-13 -2.969176E-13  9.442231E-15
         3   3 -7.933393E-05 -2.350137E-13 -1.667548E-13  6.277768E-14 -2.848003E-13  2.173752E-15
         3   4 -7.933393E-05 -8.756026E-14 -1.290731E-13  8.029171E-14 -1.446880E-13  1.075949E-14
         3   5 -7.933392E-05  1.566420E-13  2.100678E-13  2.990060E-13 -2.961768E-14  1.998073E-14
         3   6 -7.933392E-05  3.130032E-13  2.328315E-13  8.883759E-14  2.943920E-13  3.392163E-14
         3   7 -7.933393E-05 -2.473031E-13 -1.720217E-13  7.009331E-14 -1.707693E-14  1.747269E-14
         3   8 -7.933393E-05 -8.110571E-14 -1.263069E-13  3.716553E-17 -2.272454E-13  3.523889E-14

 strains (elem, integ.pnt.,exx,eyy,ezz,exy,exz,eyz) forset EALL and time  0.4627813E+00

         1   1 -3.777806E-10  1.133342E-10  1.133342E-10 -2.342601E-26 -1.615587E-26  5.654555E-27
         1   2 -3.777806E-10  1.133342E-10  1.133342E-10 -1.009742E-25 -7.754818E-26 -8.885729E-27
         1   3 -3.777806E-10  1.133342E-10  1.133342E-10 -1.615587E-26  8.077936E-27  8.077936E-27
         1   4 -3.777806E-10  1.133342E-10  1.133342E-10 -9.370405E-26  4.685203E-26 -1.009742E-26
         1   5 -3.777806E-10  1.133342E-10  1.133342E-10  9.693523E-27  3.231174E-27  1.373249E-26
         1   6 -3.777806E-10  1.133342E-10  1.133342E-10  4.846761E-26 -5.816114E-26 -3.029226E-26
         1   7 -3.777806E-10  1.133342E-10  1.133342E-10  6.462349E-27 -6.462349E-27  1.292470E-26
         1   8 -3.777806E-10  1.133342E-10  1.133342E-10  4.523644E-26  3.231174E-26 -3.150395E-26
         2   1 -3.777806E-10  1.133342E-10  1.133342E-10 -6.994400E-19  3.737612E-19  2.083429E-21
         2   2 -3.777806E-10  1.133342E-10  1.133342E-10  1.137117E-19 -7.646511E-19 -2.951271E-21
         2   3 -3.777806E-10  1.133342E-10  1.133342E-10 -8.330882E-19 -4.815506E-21 -1.467925E-19
         2   4 -3.777806E-10  1.133342E-10  1.133342E-10  3.427350E-20  2.120249E-19 -1.992012E-20
         2   5 -3.777806E-10  1.133342E-10  1.133342E-10  1.867520E-20  5.062671E-19  1.566514E-19
         2   6 -3.777806E-10  1.133342E-10  1.133342E-10  1.536558E-18 -2.797795E-19  5.954569E-21
         2   7 -3.777806E-10  1.133342E-10  1.133342E-10  6.969681E-20  4.157092E-19  7.775465E-21
         2   8 -3.777806E-10  1.133342E-10  1.133342E-10  9.370585E-19 -6.684930E-19 -1.101428E-20
         3   1 -3.777806E-10  1.133342E-10  1.133342E-10  1.041314E-19  1.677126E-19  2.898253E-20
         3   2 -3.777806E-10  1.133342E-10  1.133342E-10  8.630729E-19 -1.838061E-18  5.845191E-20
         3   3 -3.777806E-10  1.133342E-10  1.133342E-10  3.886237E-19 -1.763050E-18  1.345656E-20
         3   4 -3.777806E-10  1.133342E-10  1.133342E-10  4.970439E-19 -8.956878E-19  6.660634E-20
         3   5 -3.777806E-10  1.133342E-10  1.133342E-10  1.850990E-18 -1.833476E-19  1.236902E-19
         3   6 -3.777806E-10  1.133342E-10  1.133342E-10  5.499470E-19  1.822426E-18  2.099911E-19
         3   7 -3.777806E-10  1.133342E-10  1.133342E-10  4.339109E-19 -1.057143E-19  1.081643E-19
         3   8 -3.777806E-10  1.133342E-10  1.133342E-10  2.300727E-22 -1.406757E-18  2.181455E-19

 displacements (vx,vy,vz) for set NALL and time  0.4717813E+00

         1  0.000000E+00  0.000000E+00  0.000000E+00
         2 -1.925638E-07  0.000000E+00  0.000000E+00
         3 -7.076719E+00  0.000000E+00  0.000000E+00
         4 -7.076719E+00  0.000000E+00  0.000000E+00
         5 -1.415344E+01  0.000000E+00  0.000000E+00
         6 -1.415344E+01  0.000000E+00  0.000000E+00
         7  0.000000E+00  5.776913E-08  0.000000E+00
         8 -1.925638E-07  5.776913E-08  0.000000E+00
         9 -7.076719E+00  5.776913E-08  0.000000E+00
        10 -7.076719E+00  5.776913E-08  0.000000E+00
        11 -1.415344E+01  5.776913E-08  0.000000E+00
        12 -1.415344E+01  5.776913E-08  0.000000E+00
        13  0.000000E+00  0.000000E+00  8.087678E-08
        14 -1.925638E-07  0.000000E+00  8.087678E-08
        15 -7.076719E+00  0.000000E+00  8.087678E-08
        16 -7.076719E+00  0.000000E+00  8.087678E-08
        17 -1.415344E+01  0.000000E+00  8.087678E-08
        18 -1.415344E+01  0.000000E+00  8.087678E-08
        19  0.000000E+00  5.776913E-08  8.087678E-08
        20 -1.925638E-07  5.776913E-08  8.087678E-08
        21 -7.076719E+00  5.776913E-08  8.087678E-08
        22 -7.076719E+00  5.776913E-08  8.087678E-08
        23 -1.415344E+01  5.776913E-08  8.087678E-08
        24 -1.415344E+01  5.776913E-08  8.087678E-08

 stresses (elem, integ.pnt.,sxx,syy,szz,sxy,sxz,syz) for set EALL and time  0.4717813E+00

         1   1 -8.087678E-05  6.776264E-21  6.776264E-21  9.786730E-22 -1.957346E-22 -1.304897E-22
         1   2 -8.087678E-05 -1.254364E-47  8.538110E-48  3.066509E-21  9.786730E-22  7.829384E-22
         1   3 -8.087678E-05  6.776264E-21  8.455169E-67  7.829384E-22 -2.613270E-31 -5.219589E-22
         1   4 -8.087678E-05  6.776264E-21  1.355253E-20  2.870774E-21 -1.565877E-21 -1.304897E-22
         1   5 -8.087678E-05  6.776264E-21  1.355253E-20 -1.304897E-21 -1.957346E-21 -1.174408E-21
         1   6 -8.087678E-05  6.776264E-21  6.776264E-21 -4.436651E-21 -7.829384E-22  3.001264E-21
         1   7 -8.087678E-05  7.420777E-47 -6.776264E-21 -2.087836E-21  1.565877E-21 -1.565877E-21
         1   8 -8.087678E-05 -6.776264E-21  1.754002E-46 -5.219589E-21 -1.045308E-30  2.087836E-21
         2   1 -8.087678E-05  3.252129E-14  1.388191E-14  3.382720E-14  1.593136E-13  4.264151E-15
         2   2 -8.087678E-05  2.597745E-14  2.048514E-14  7.761229E-14 -1.428035E-13 -1.220581E-15
         2   3 -8.087678E-05  1.614956E-13  1.747096E-13  3.054637E-14  2.017259E-13 -6.383378E-15
         2   4 -8.087678E-05  1.252998E-13  1.121250E-13  1.181165E-13  7.912766E-14  8.224856E-16
         2   5 -8.087678E-05 -7.219368E-14 -6.102000E-14 -1.348100E-13  1.639234E-13  2.656155E-14
         2   6 -8.087678E-05 -1.655363E-14 -2.776653E-14  7.535838E-14  6.321770E-14 -6.598336E-15
         2   7 -8.087678E-05 -4.830361E-14 -5.276487E-15 -1.203240E-13  3.854826E-14  1.591403E-14
         2   8 -8.087678E-05 -2.231552E-14 -4.121092E-14  1.248725E-13  7.357633E-14 -4.555270E-15
         3   1 -8.087678E-05 -1.079748E-13 -2.107157E-13 -2.184439E-13  1.042207E-13  9.158178E-15
         3   2 -8.087678E-05 -8.709988E-14 -1.128111E-14  1.668649E-13 -5.788267E-13 -8.160933E-15
         3   3 -8.087678E-05 -5.288488E-13 -5.972778E-13 -2.410528E-13 -1.182093E-13  1.016045E-14
         3   4 -8.087678E-05 -5.438658E-13 -4.815911E-13  5.668576E-14  9.195913E-14 -2.097620E-14
         3   5 -8.087678E-05  8.083368E-14 -2.471360E-14 -1.535605E-14 -3.278611E-13  3.317651E-14
         3   6 -8.087678E-05  3.400269E-14  1.457042E-13  1.247562E-13 -2.840761E-13 -1.764175E-14
         3   7 -8.087678E-05 -2.086850E-13 -2.799204E-13 -5.730957E-14 -1.984815E-13  3.417879E-14
         3   8 -8.087678E-05 -2.914080E-13 -1.932505E-13 -5.730957E-14  8.174306E-14 -3.045702E-14

 strains (elem, integ.pnt.,exx,eyy,ezz,exy,exz,eyz) forset EALL and time  0.4717813E+00

         1   1 -3.851275E-10  1.155383E-10  1.155383E-10  6.058452E-27 -1.211690E-27 -8.077936E-28
         1   2 -3.851275E-10  1.155383E-10  1.155383E-10  1.898315E-26  6.058452E-27  4.846761E-27
         1   3 -3.851275E-10  1.155383E-10  1.155383E-10  4.846761E-27  1.617738E-36 -3.231174E-27
         1   4 -3.851275E-10  1.155383E-10  1.155383E-10  1.777146E-26 -9.693523E-27 -8.077936E-28
         1   5 -3.851275E-10  1.155383E-10  1.155383E-10 -8.077936E-27 -1.211690E-26 -7.270142E-27
         1   6 -3.851275E-10  1.155383E-10  1.155383E-10 -2.746498E-26 -4.846761E-27  1.857925E-26
         1   7 -3.851275E-10  1.155383E-10  1.155383E-10 -1.292470E-26  9.693523E-27 -9.693523E-27
         1   8 -3.851275E-10  1.155383E-10  1.155383E-10 -3.231174E-26  6.470954E-36  1.292470E-26
         2   1 -3.851275E-10  1.155383E-10  1.155383E-10  2.094065E-19  9.862271E-19  2.639712E-20
         2   2 -3.851275E-10  1.155383E-10  1.155383E-10  4.804570E-19 -8.840216E-19 -7.555977E-21
         2   3 -3.851275E-10  1.155383E-10  1.155383E-10  1.890966E-19  1.248779E-18 -3.951615E-20
         2   4 -3.851275E-10  1.155383E-10  1.155383E-10  7.311977E-19  4.898379E-19  5.091578E-21
         2   5 -3.851275E-10  1.155383E-10  1.155383E-10 -8.345383E-19  1.014764E-18  1.644287E-19
         2   6 -3.851275E-10  1.155383E-10  1.155383E-10  4.665043E-19  3.913477E-19 -4.084684E-20
         2   7 -3.851275E-10  1.155383E-10  1.155383E-10 -7.448631E-19  2.386321E-19  9.851540E-20
         2   8 -3.851275E-10  1.155383E-10  1.155383E-10  7.730199E-19  4.554725E-19 -2.819929E-20
         3   1 -3.851275E-10  1.155383E-10  1.155383E-10 -1.352272E-18  6.451756E-19  5.669348E-20
         3   2 -3.851275E-10  1.155383E-10  1.155383E-10  1.032973E-18 -3.583213E-18 -5.052006E-20
         3   3 -3.851275E-10  1.155383E-10  1.155383E-10 -1.492232E-18 -7.317718E-19  6.289803E-20
         3   4 -3.851275E-10  1.155383E-10  1.155383E-10  3.509118E-19  5.692708E-19 -1.298527E-19
         3   5 -3.851275E-10  1.155383E-10  1.155383E-10 -9.506128E-20 -2.029617E-18  2.053784E-19
         3   6 -3.851275E-10  1.155383E-10  1.155383E-10  7.723005E-19 -1.758566E-18 -1.092109E-19
         3   7 -3.851275E-10  1.155383E-10  1.155383E-10 -3.547735E-19 -1.228695E-18  2.115830E-19
         3   8 -3.851275E-10  1.155383E-10  1.155383E-10 -3.547735E-19  5.060285E-19 -1.885434E-19

 displacements (vx,vy,vz) for set NALL and time  0.4807813E+00

         1  0.000000E+00  0.000000E+00  0.000000E+00
         2 -1.962372E-07  0.000000E+00  0.000000E+00
         3 -7.211719E+00  0.000000E+00  0.000000E+00
         4 -7.211719E+00  0.000000E+00  0.000000E+00
         5 -1.442344E+01  0.000000E+00  0.000000E+00
         6 -1.442344E+01  0.000000E+00  0.000000E+00
         7  0.000000E+00  5.887117E-08  0.000000E+00
         8 -1.962372E-07  5.887117E-08  0.000000E+00
         9 -7.211719E+00  5.887117E-08  0.000000E+00
        10 -7.211719E+00  5.887117E-08  0.000000E+00
        11 -1.442344E+01  5.887117E-08  0.000000E+00
        12 -1.442344E+01  5.887117E-08  0.000000E+00
        13  0.000000E+00  0.000000E+00  8.241964E-08
        14 -1.962372E-07  0.000000E+00  8.241964E-08
        15 -7.211719E+00  0.000000E+00  8.241964E-08
        16 -7.211719E+00  0.000000E+00  8.241964E-08
        17 -1.442344E+01  0.000000E+00  8.241964E-08
        18 -1.442344E+01  0.000000E+00  8.241964E-08
        19  0.000000E+00  5.887117E-08  8.241964E-08
        20 -1.962372E-07  5.887117E-08  8.241964E-08
        21 -7.211719E+00  5.887117E-08  8.241964E-08
        22 -7.211719E+00  5.887117E-08  8.241964E-08
        23 -1.442344E+01  5.887117E-08  8.241964E-08
        24 -1.442344E+01  5.887117E-08  8.241964E-08

 stresses (elem, integ.pnt.,sxx,syy,szz,sxy,sxz,syz) for set EALL and time  0.4807813E+00

         1   1 -8.241964E-05 -1.355253E-20 -1.355253E-20  1.109163E-21  4.175671E-21 -1.565877E-21
         1   2 -8.241964E-05 -3.388132E-20 -2.710505E-20  1.207030E-20  2.113934E-20 -3.914692E-22
         1   3 -8.241964E-05  1.846762E-45  1.770867E-46 -5.480569E-21 -1.304897E-21 -5.219589E-21
         1   4 -8.241964E-05 -1.355253E-20 -2.032879E-20  5.480569E-21  4.958610E-21  3.001264E-21
         1   5 -8.241964E-05  6.776264E-21  2.032879E-20 -5.219589E-22 -1.304897E-21 -4.175671E-21
         1   6 -8.241964E-05  2.032879E-20  6.776264E-21 -2.609795E-21  1.565877E-20 -6.393997E-21
         1   7 -8.241964E-05  1.355253E-20  1.355253E-20  4.175671E-21 -1.096114E-20 -7.829384E-21
         1   8 -8.241964E-05  6.776264E-21 -6.776264E-21  1.043918E-21 -5.219589E-21 -3.001264E-21
         2   1 -8.241964E-05  2.375841E-14 -3.612443E-14 -1.185298E-14  9.948038E-14  2.954887E-15
         2   2 -8.241964E-05 -5.471842E-14 -3.350666E-15  1.019882E-13 -7.128147E-14 -1.222823E-15
         2   3 -8.241964E-05  1.993527E-13  1.984552E-13 -4.423593E-14  5.436121E-14 -3.026194E-14
         2   4 -8.241964E-05  4.007017E-14  4.268234E-14  1.133904E-13  8.938928E-14  2.956526E-14
         2   5 -8.241964E-05 -2.703593E-13 -2.372350E-13  2.094541E-14  1.320197E-13  4.424462E-14
         2   6 -8.241964E-05 -3.521205E-14 -7.005095E-14  9.100155E-14 -1.044198E-13 -3.535172E-14
         2   7 -8.241964E-05 -3.837466E-13 -2.916370E-13 -6.194294E-14 -5.857429E-14  1.102779E-14
         2   8 -8.241964E-05 -2.294050E-13 -3.129995E-13  4.314127E-14  4.650992E-14 -4.563636E-15
         3   1 -8.241964E-05  6.577200E-14 -3.596885E-14  1.859445E-13  1.888806E-13 -6.135387E-15
         3   2 -8.241964E-05 -1.256411E-13 -4.139256E-14  1.684304E-13  2.239087E-13  1.933238E-14
         3   3 -8.241964E-05  1.285714E-14 -5.435265E-14  1.197635E-13 -1.323001E-13 -4.706932E-14
         3   4 -8.241964E-05 -1.959087E-13 -1.002662E-13  2.949038E-13  2.179806E-13  6.417361E-14
         3   5 -8.241964E-05 -3.448996E-15  9.425146E-15 -2.604943E-13  2.614478E-13  1.803636E-14
         3   6 -8.241964E-05  2.254362E-13  1.841293E-13 -1.203820E-13 -1.326180E-13  2.730821E-14
         3   7 -8.241964E-05 -3.978875E-13 -3.504823E-13 -2.065901E-13  2.915537E-14 -2.289757E-14
         3   8 -8.241964E-05 -1.863551E-13 -2.162680E-13  3.538591E-13  1.692677E-13  7.214943E-14

 strains (elem, integ.pnt.,exx,eyy,ezz,exy,exz,eyz) forset EALL and time  0.4807813E+00

         1   1 -3.924745E-10  1.177423E-10  1.177423E-10  6.866245E-27  2.584939E-26 -9.693523E-27
         1   2 -3.924745E-10  1.177423E-10  1.177423E-10  7.472090E-26  1.308626E-25 -2.423381E-27
         1   3 -3.924745E-10  1.177423E-10  1.177423E-10 -3.392733E-26 -8.077936E-27 -3.231174E-26
         1   4 -3.924745E-10  1.177423E-10  1.177423E-10  3.392733E-26  3.069616E-26  1.857925E-26
         1   5 -3.924745E-10  1.177423E-10  1.177423E-10 -3.231174E-27 -8.077936E-27 -2.584939E-26
         1   6 -3.924745E-10  1.177423E-10  1.177423E-10 -1.615587E-26  9.693523E-26 -3.958188E-26
         1   7 -3.924745E-10  1.177423E-10  1.177423E-10  2.584939E-26 -6.785466E-26 -4.846761E-26
         1   8 -3.924745E-10  1.177423E-10  1.177423E-10  6.462349E-27 -3.231174E-26 -1.857925E-26
         2   1 -3.924745E-10  1.177423E-10  1.177423E-10 -7.337561E-20  6.158309E-19  1.829216E-20
         2   2 -3.924745E-10  1.177423E-10  1.177423E-10  6.313558E-19 -4.412662E-19 -7.569855E-21
         2   3 -3.924745E-10  1.177423E-10  1.177423E-10 -2.738415E-19  3.365218E-19 -1.873358E-19
         2   4 -3.924745E-10  1.177423E-10  1.177423E-10  7.019405E-19  5.533622E-19  1.830231E-19
         2   5 -3.924745E-10  1.177423E-10  1.177423E-10  1.296621E-19  8.172645E-19  2.738952E-19
         2   6 -3.924745E-10  1.177423E-10  1.177423E-10  5.633429E-19 -6.464084E-19 -2.188440E-19
         2   7 -3.924745E-10  1.177423E-10  1.177423E-10 -3.834563E-19 -3.626027E-19  6.826727E-20
         2   8 -3.924745E-10  1.177423E-10  1.177423E-10  2.670650E-19  2.879186E-19 -2.825108E-20
         3   1 -3.924745E-10  1.177423E-10  1.177423E-10  1.151085E-18  1.169261E-18 -3.798096E-20
         3   2 -3.924745E-10  1.177423E-10  1.177423E-10  1.042665E-18  1.386101E-18  1.196767E-19
         3   3 -3.924745E-10  1.177423E-10  1.177423E-10  7.413928E-19 -8.190008E-19 -2.913815E-19
         3   4 -3.924745E-10  1.177423E-10  1.177423E-10  1.825595E-18  1.349404E-18  3.972652E-19
         3   5 -3.924745E-10  1.177423E-10  1.177423E-10 -1.612583E-18  1.618487E-18  1.116536E-19
         3   6 -3.924745E-10  1.177423E-10  1.177423E-10 -7.452218E-19 -8.209683E-19  1.690508E-19
         3   7 -3.924745E-10  1.177423E-10  1.177423E-10 -1.278891E-18  1.804856E-19 -1.417469E-19
         3   8 -3.924745E-10  1.177423E-10  1.177423E-10  2.190556E-18  1.047847E-18  4.466394E-19

 displacements (vx,vy,vz) for set NALL and time  0.4897813E+00

         1  0.000000E+00  0.000000E+00  0.000000E+00
         2 -1.999107E-07  0.000000E+00  0.000000E+00
         3 -7.346719E+00  0.000000E+00  0.000000E+00
         4 -7.346719E+00  0.000000E+00  0.000000E+00
         5 -1.469344E+01  0.000000E+00  0.000000E+00
         6 -1.469344E+01  0.000000E+00  0.000000E+00
         7  0.000000E+00  5.997321E-08  0.000000E+00
         8 -1.999107E-07  5.997321E-08  0.000000E+00
         9 -7.346719E+00  5.997321E-08  0.000000E+00
        10 -7.346719E+00  5.997321E-08  0.000000E+00
        11 -1.469344E+01  5.997321E-08  0.000000E+00
        12 -1.469344E+01  5.997321E-08  0.000000E+00
        13  0.000000E+00  0.000000E+00  8.396250E-08
        14 -1.999107E-07  0.000000E+00  8.396250E-08
        15 -7.346719E+00  0.000000E+00  8.396250E-08
        16 -7.346719E+00  0.000000E+00  8.396250E-08
        17 -1.469344E+01  0.000000E+00  8.396250E-08
        18 -1.469344E+01  0.000000E+00  8.396250E-08
        19  0.000000E+00  5.997321E-08  8.396250E-08
        20 -1.999107E-07  5.997321E-08  8.396250E-08
        21 -7.346719E+00  5.997321E-08  8.396250E-08
        22 -7.346719E+00  5.997321E-08  8.396250E-08
        23 -1.469344E+01  5.997321E-08  8.396250E-08
        24 -1.469344E+01  5.997321E-08  8.396250E-08

 stresses (elem, integ.pnt.,sxx,syy,szz,sxy,sxz,syz) for set EALL and time  0.4897813E+00

         1   1 -8.396250E-05 -6.776264E-21  3.921206E-47 -2.414060E-21 -2.218325E-21  1.435387E-21
         1   2 -8.396250E-05  1.355253E-20 -3.330917E-47 -1.102638E-20 -6.133017E-21 -1.043918E-21
         1   3 -8.396250E-05 -1.686540E-47  4.385005E-47 -7.829384E-22  2.348815E-21  1.826856E-21
         1   4 -8.396250E-05  2.032879E-20  1.355253E-20 -9.395261E-21  1.017820E-20 -5.480569E-21
         1   5 -8.396250E-05 -1.355253E-20 -1.355253E-20  1.304897E-21 -1.826856E-21  5.350079E-21
         1   6 -8.396250E-05 -2.710505E-20 -2.710505E-20  1.487583E-20 -5.741548E-21  1.304897E-21
         1   7 -8.396250E-05  1.355253E-20  1.355253E-20 -4.175671E-21  2.087836E-21  5.741548E-21
         1   8 -8.396250E-05 -1.234547E-45  6.776264E-21  9.395261E-21  9.395261E-21 -3.131754E-21
         2   1 -8.396250E-05 -1.942180E-14 -2.648464E-14 -1.356853E-13  1.906190E-14 -2.426471E-15
         2   2 -8.396250E-05  2.744106E-14  2.229750E-15 -2.184403E-14  2.073378E-13  6.665759E-15
         2   3 -8.396250E-05  7.297297E-14  4.899086E-14 -1.235904E-13  1.587246E-13  2.787767E-15
         2   4 -8.396250E-05  1.697868E-13  1.942575E-13  3.403590E-14  5.364036E-14 -9.900444E-15
         2   5 -8.396250E-05  1.112122E-13  8.954947E-14 -6.734054E-15  2.329075E-14 -1.426995E-14
         2   6 -8.396250E-05  5.135087E-14  7.252493E-14 -4.176212E-14  5.831882E-14  4.144316E-14
         2   7 -8.396250E-05  4.598063E-14  7.398657E-15 -2.513183E-14  6.946202E-14 -9.055711E-15
         2   8 -8.396250E-05  3.607026E-14  1.069263E-13 -2.513183E-14 -3.562219E-14  2.487695E-14
         3   1 -8.396250E-05 -1.179548E-13 -3.078362E-14 -2.719086E-13  1.949254E-13 -9.094206E-15
         3   2 -8.396250E-05 -1.855894E-13 -3.400623E-13  1.134002E-13 -5.902816E-14  5.744165E-15
         3   3 -8.396250E-05  3.273889E-13  4.128745E-13 -2.491889E-13  1.001379E-13 -3.276014E-14
         3   4 -8.396250E-05  2.898950E-13  1.739241E-13  4.854974E-14  3.803625E-13 -5.513881E-15
         3   5 -8.396250E-05 -2.076468E-13 -5.421103E-14 -2.655503E-13  1.276382E-13 -1.027411E-14
         3   6 -8.396250E-05 -2.144827E-13 -3.374332E-13 -1.254380E-13 -2.998813E-14  3.269556E-14
         3   7 -8.396250E-05  1.257403E-15  1.530076E-13 -2.254596E-13  2.711505E-13 -3.394004E-14
         3   8 -8.396250E-05  2.456217E-14 -5.988625E-14 -2.254596E-13 -1.141583E-13  2.143752E-14

 strains (elem, integ.pnt.,exx,eyy,ezz,exy,exz,eyz) forset EALL and time  0.4897813E+00

         1   1 -3.998214E-10  1.199464E-10  1.199464E-10 -1.494418E-26 -1.373249E-26  8.885729E-27
         1   2 -3.998214E-10  1.199464E-10  1.199464E-10 -6.825856E-26 -3.796630E-26 -6.462349E-27
         1   3 -3.998214E-10  1.199464E-10  1.199464E-10 -4.846761E-27  1.454028E-26  1.130911E-26
         1   4 -3.998214E-10  1.199464E-10  1.199464E-10 -5.816114E-26  6.300790E-26 -3.392733E-26
         1   5 -3.998214E-10  1.199464E-10  1.199464E-10  8.077936E-27 -1.130911E-26  3.311954E-26
         1   6 -3.998214E-10  1.199464E-10  1.199464E-10  9.208847E-26 -3.554292E-26  8.077936E-27
         1   7 -3.998214E-10  1.199464E-10  1.199464E-10 -2.584939E-26  1.292470E-26  3.554292E-26
         1   8 -3.998214E-10  1.199464E-10  1.199464E-10  5.816114E-26  5.816114E-26 -1.938705E-26
         2   1 -3.998214E-10  1.199464E-10  1.199464E-10 -8.399564E-19  1.180022E-19 -1.502101E-20
         2   2 -3.998214E-10  1.199464E-10  1.199464E-10 -1.352250E-19  1.283520E-18  4.126422E-20
         2   3 -3.998214E-10  1.199464E-10  1.199464E-10 -7.650835E-19  9.825807E-19  1.725760E-20
         2   4 -3.998214E-10  1.199464E-10  1.199464E-10  2.106984E-19  3.320594E-19 -6.128846E-20
         2   5 -3.998214E-10  1.199464E-10  1.199464E-10 -4.168700E-20  1.441808E-19 -8.833778E-20
         2   6 -3.998214E-10  1.199464E-10  1.199464E-10 -2.585274E-19  3.610213E-19  2.565529E-19
         2   7 -3.998214E-10  1.199464E-10  1.199464E-10 -1.555780E-19  4.300030E-19 -5.605916E-20
         2   8 -3.998214E-10  1.199464E-10  1.199464E-10 -1.555780E-19 -2.205183E-19  1.540002E-19
         3   1 -3.998214E-10  1.199464E-10  1.199464E-10 -1.683244E-18  1.206681E-18 -5.629747E-20
         3   2 -3.998214E-10  1.199464E-10  1.199464E-10  7.020013E-19 -3.654124E-19  3.555912E-20
         3   3 -3.998214E-10  1.199464E-10  1.199464E-10 -1.542598E-18  6.199013E-19 -2.028009E-19
         3   4 -3.998214E-10  1.199464E-10  1.199464E-10  3.005460E-19  2.354625E-18 -3.413355E-20
         3   5 -3.998214E-10  1.199464E-10  1.199464E-10 -1.643883E-18  7.901411E-19 -6.360160E-20
         3   6 -3.998214E-10  1.199464E-10  1.199464E-10 -7.765212E-19 -1.856408E-19  2.024011E-19
         3   7 -3.998214E-10  1.199464E-10  1.199464E-10 -1.395702E-18  1.678550E-18 -2.101050E-19
         3   8 -3.998214E-10  1.199464E-10  1.199464E-10 -1.395702E-18 -7.066943E-19  1.327084E-19

 displacements (vx,vy,vz) for set NALL and time  0.4987813E+00

         1  0.000000E+00  0.000000E+00  0.000000E+00
         2 -2.035842E-07  0.000000E+00  0.000000E+00
         3 -7.481719E+00  0.000000E+00  0.000000E+00
         4 -7.481719E+00  0.000000E+00  0.000000E+00
         5 -1.496344E+01  0.000000E+00  0.000000E+00
         6 -1.496344E+01  0.000000E+00  0.000000E+00
         7  0.000000E+00  6.107525E-08  0.000000E+00
         8 -2.035842E-07  6.107525E-08  0.000000E+00
         9 -7.481719E+00  6.107525E-08  0.000000E+00
        10 -7.481719E+00  6.107525E-08  0.000000E+00
        11 -1.496344E+01  6.107525E-08  0.000000E+00
        12 -1.496344E+01  6.107525E-08  0.000000E+00
        13  0.000000E+00  0.000000E+00  8.550535E-08
        14 -2.035842E-07  0.000000E+00  8.550535E-08
        15 -7.481719E+00  0.000000E+00  8.550535E-08
        16 -7.481719E+00  0.000000E+00  8.550535E-08
        17 -1.496344E+01  0.000000E+00  8.550535E-08
        18 -1.496344E+01  0.000000E+00  8.550535E-08
        19  0.000000E+00  6.107525E-08  8.550535E-08
        20 -2.035842E-07  6.107525E-08  8.550535E-08
        21 -7.481719E+00  6.107525E-08  8.550535E-08
        22 -7.481719E+00  6.107525E-08  8.550535E-08
        23 -1.496344E+01  6.107525E-08  8.550535E-08
        24 -1.496344E+01  6.107525E-08  8.550535E-08

 stresses (elem, integ.pnt.,sxx,syy,szz,sxy,sxz,syz) for set EALL and time  0.4987813E+00

         1   1 -8.550535E-05 -6.776264E-21  6.776264E-21 -1.826856E-21 -1.696366E-21  1.304897E-22
         1   2 -8.550535E-05  6.776264E-21  1.193227E-46 -3.914692E-21 -5.089099E-21  2.609795E-22
         1   3 -8.550535E-05 -6.776264E-21 -6.776264E-21 -1.105131E-30 -5.219589E-22 -2.609795E-22
         1   4 -8.550535E-05  6.776264E-21 -4.722313E-47 -2.087836E-21  3.653712E-21 -6.669268E-47
         1   5 -8.550535E-05 -6.324526E-48  4.519928E-46 -1.043918E-21 -4.175671E-21  1.957346E-21
         1   6 -8.550535E-05 -6.776264E-21 -6.776264E-21 -2.120824E-46 -7.568404E-21  2.479305E-21
         1   7 -8.550535E-05  6.776264E-21  6.776264E-21 -1.043918E-21 -5.219589E-22  1.565877E-21
         1   8 -8.550535E-05 -6.776264E-21 -6.776264E-21  2.361156E-47  2.087836E-21  2.218325E-21
         2   1 -8.550535E-05 -1.544279E-13 -1.993492E-13 -3.796489E-15  1.659893E-13 -2.276767E-16
         2   2 -8.550535E-05 -1.662505E-13 -1.577872E-13  6.625965E-14  8.279763E-14  1.463412E-15
         2   3 -8.550535E-05 -1.392864E-13 -1.640191E-13 -1.416869E-14  7.520364E-14 -1.498174E-14
         2   4 -8.550535E-05 -1.605214E-13 -1.444193E-13  9.091552E-14  4.017557E-14  1.143607E-16
         2   5 -8.550535E-05 -1.216386E-13 -1.252485E-13  3.072714E-15  1.888374E-13  1.390436E-14
         2   6 -8.550535E-05 -6.777664E-14 -5.553605E-14 -3.195536E-14  2.683256E-14  6.810580E-15
         2   7 -8.550535E-05 -2.641234E-13 -2.475447E-13  1.146753E-14  8.926686E-14 -8.497021E-16
         2   8 -8.550535E-05 -2.196738E-13 -1.997944E-13  1.146753E-14 -8.587349E-14  5.461530E-15
         3   1 -8.550535E-05  1.583567E-13  1.222457E-13 -6.516405E-14 -2.257779E-14  2.442905E-14
         3   2 -8.550535E-05  2.415801E-13  2.273309E-13  1.625184E-13  1.087775E-13 -1.466162E-14
         3   3 -8.550535E-05 -1.755795E-13 -9.648960E-14 -5.179863E-14 -1.715090E-13  1.052986E-14
         3   4 -8.550535E-05 -2.207050E-13 -2.908852E-13  8.831365E-14  3.865939E-14 -1.556618E-14
         3   5 -8.550535E-05 -1.483357E-14 -1.202678E-14  1.155100E-14  1.165212E-13  1.050697E-13
         3   6 -8.550535E-05  1.320635E-13  1.203471E-13 -5.850515E-14 -2.512735E-13 -5.381333E-14
         3   7 -8.550535E-05 -3.351713E-14  8.449052E-14  4.310890E-14  1.630503E-13  9.117046E-14
         3   8 -8.550535E-05 -1.496894E-14 -8.261641E-14  1.131650E-13  1.280222E-13 -5.471790E-14

 strains (elem, integ.pnt.,exx,eyy,ezz,exy,exz,eyz) forset EALL and time  0.4987813E+00

         1   1 -4.071684E-10  1.221505E-10  1.221505E-10 -1.130911E-26 -1.050132E-26  8.077936E-28
         1   2 -4.071684E-10  1.221505E-10  1.221505E-10 -2.423381E-26 -3.150395E-26  1.615587E-27
         1   3 -4.071684E-10  1.221505E-10  1.221505E-10  6.841286E-36 -3.231174E-27 -1.615587E-27
         1   4 -4.071684E-10  1.221505E-10  1.221505E-10 -1.292470E-26  2.261822E-26 -1.419906E-51
         1   5 -4.071684E-10  1.221505E-10  1.221505E-10 -6.462349E-27 -2.584939E-26  1.211690E-26
         1   6 -4.071684E-10  1.221505E-10  1.221505E-10 -7.464948E-52 -4.685203E-26  1.534808E-26
         1   7 -4.071684E-10  1.221505E-10  1.221505E-10 -6.462349E-27 -3.231174E-27  9.693523E-27
         1   8 -4.071684E-10  1.221505E-10  1.221505E-10 -4.593814E-52  1.292470E-26  1.373249E-26
         2   1 -4.071684E-10  1.221505E-10  1.221505E-10 -2.350207E-20  1.027553E-18 -1.409427E-21
         2   2 -4.071684E-10  1.221505E-10  1.221505E-10  4.101788E-19  5.125568E-19  9.059218E-21
         2   3 -4.071684E-10  1.221505E-10  1.221505E-10 -8.771093E-20  4.655463E-19 -9.274409E-20
         2   4 -4.071684E-10  1.221505E-10  1.221505E-10  5.628104E-19  2.487059E-19  7.079471E-22
         2   5 -4.071684E-10  1.221505E-10  1.221505E-10  1.902156E-20  1.168993E-18  8.607460E-20
         2   6 -4.071684E-10  1.221505E-10  1.221505E-10 -1.978189E-19  1.661063E-19  4.216073E-20
         2   7 -4.071684E-10  1.221505E-10  1.221505E-10  7.098944E-20  5.526044E-19 -5.260061E-21
         2   8 -4.071684E-10  1.221505E-10  1.221505E-10  7.098944E-20 -5.315978E-19  3.380947E-20
         3   1 -4.071683E-10  1.221505E-10  1.221505E-10 -4.033965E-19 -1.397673E-19  1.512275E-19
         3   2 -4.071683E-10  1.221505E-10  1.221505E-10  1.006066E-18  6.733844E-19 -9.076239E-20
         3   3 -4.071684E-10  1.221505E-10  1.221505E-10 -3.206582E-19 -1.061723E-18  6.518483E-20
         3   4 -4.071684E-10  1.221505E-10  1.221505E-10  5.467036E-19  2.393200E-19 -9.636209E-20
         3   5 -4.071684E-10  1.221505E-10  1.221505E-10  7.150616E-20  7.213218E-19  6.504312E-19
         3   6 -4.071684E-10  1.221505E-10  1.221505E-10 -3.621747E-19 -1.555503E-18 -3.331301E-19
         3   7 -4.071684E-10  1.221505E-10  1.221505E-10  2.668646E-19  1.009359E-18  5.643885E-19
         3   8 -4.071684E-10  1.221505E-10  1.221505E-10  7.005455E-19  7.925185E-19 -3.387298E-19

 displacements (vx,vy,vz) for set NALL and time  0.5077813E+00

         1  0.000000E+00  0.000000E+00  0.000000E+00
         2 -2.072576E-07  0.000000E+00  0.000000E+00
         3 -7.616719E+00  0.000000E+00  0.000000E+00
         4 -7.616719E+00  0.000000E+00  0.000000E+00
         5 -1.523344E+01  0.000000E+00  0.000000E+00
         6 -1.523344E+01  0.000000E+00  0.000000E+00
         7  0.000000E+00  6.217729E-08  0.000000E+00
         8 -2.072576E-07  6.217729E-08  0.000000E+00
         9 -7.616719E+00  6.217729E-08  0.000000E+00
        10 -7.616719E+00  6.217729E-08  0.000000E+00
        11 -1.523344E+01  6.217729E-08  0.000000E+00
        12 -1.523344E+01  6.217729E-08  0.000000E+00
        13  0.000000E+00  0.000000E+00  8.704821E-08
        14 -2.072576E-07  0.000000E+00  8.704821E-08
        15 -7.616719E+00  0.000000E+00  8.704821E-08
        16 -7.616719E+00  0.000000E+00  8.704821E-08
        17 -1.523344E+01  0.000000E+00  8.704821E-08
        18 -1.523344E+01  0.000000E+00  8.704821E-08
        19  0.000000E+00  6.217729E-08  8.704821E-08
        20 -2.072576E-07  6.217729E-08  8.704821E-08
        21 -7.616719E+00  6.217729E-08  8.704821E-08
        22 -7.616719E+00  6.217729E-08  8.704821E-08
        23 -1.523344E+01  6.217729E-08  8.704821E-08
        24 -1.523344E+01  6.217729E-08  8.704821E-08

 stresses (elem, integ.pnt.,sxx,syy,szz,sxy,sxz,syz) for set EALL and time  0.5077813E+00

         1   1 -8.704821E-05 -6.776264E-21  2.656301E-47 -1.304897E-22  2.740284E-21 -1.826856E-21
         1   2 -8.704821E-05 -2.032879E-20 -6.776264E-21  8.742812E-21  8.742812E-21 -1.500632E-21
         1   3 -8.704821E-05  6.776264E-21  6.776264E-21 -7.568404E-21 -2.609795E-22 -4.436651E-21
         1   4 -8.704821E-05 -1.355253E-20 -6.776264E-21  1.304897E-21  9.134281E-21  5.219589E-22
         1   5 -8.704821E-05  6.776264E-21  1.355253E-20  2.609795E-21  2.348815E-21 -3.131754E-21
         1   6 -8.704821E-05 -1.723433E-46  1.355253E-20  7.829384E-21  8.351343E-21 -4.893365E-21
         1   7 -8.704821E-05  2.032879E-20  2.032879E-20  1.043918E-21 -3.653712E-21 -5.219589E-21
         1   8 -8.704821E-05  6.776264E-21  6.776264E-21  1.043918E-20  5.219589E-21 -2.870774E-21
         2   1 -8.704821E-05 -3.411117E-14 -1.005870E-13  2.694556E-14 -6.854966E-16  3.473382E-15
         2   2 -8.704821E-05 -6.213714E-14 -1.876871E-14 -3.435357E-14 -1.583118E-13 -2.455701E-15
         2   3 -8.704821E-05 -1.419388E-13 -1.770444E-13  4.863720E-15  7.548369E-14 -8.996313E-15
         2   4 -8.704821E-05 -2.033377E-13 -1.730963E-13 -1.265032E-14  5.427549E-15  2.412755E-17
         2   5 -8.704821E-05 -2.791100E-13 -3.106707E-13  1.396904E-13  4.529093E-14  2.543254E-14
         2   6 -8.704821E-05 -2.338834E-13 -1.974584E-13 -4.218456E-16 -1.911485E-13 -1.164463E-14
         2   7 -8.704821E-05 -5.182929E-13 -5.184834E-13 -1.574349E-15  1.603682E-13  1.296284E-14
         2   8 -8.704821E-05 -5.064392E-13 -4.831413E-13  3.345372E-14  2.025589E-14 -9.164801E-15
         3   1 -8.704821E-05  2.603967E-13  2.041642E-13  1.255843E-13 -2.446431E-13  9.870018E-15
         3   2 -8.704821E-05  1.230972E-13  1.484071E-13  1.781264E-13 -2.271290E-13 -8.786504E-15
         3   3 -8.704821E-05  5.635146E-14  7.833937E-14  8.589299E-14  2.467658E-13 -1.791888E-14
         3   4 -8.704821E-05 -1.805083E-13 -2.097249E-13  1.209211E-13 -6.848680E-14  5.376934E-15
         3   5 -8.704821E-05 -3.339524E-14 -1.181884E-14  6.969855E-15  1.772057E-13  6.462431E-14
         3   6 -8.704821E-05  3.487170E-14  2.052404E-14  6.969855E-15 -5.923376E-14 -4.695511E-14
         3   7 -8.704821E-05 -7.981414E-14  1.998268E-14  2.601185E-14  1.553549E-13  3.683541E-14
         3   8 -8.704821E-05 -1.111075E-13 -1.799817E-13  1.661241E-13  1.524260E-14 -3.279168E-14

 strains (elem, integ.pnt.,exx,eyy,ezz,exy,exz,eyz) forset EALL and time  0.5077813E+00

         1   1 -4.145153E-10  1.243546E-10  1.243546E-10 -8.077936E-28  1.696366E-26 -1.130911E-26
         1   2 -4.145153E-10  1.243546E-10  1.243546E-10  5.412217E-26  5.412217E-26 -9.289626E-27
         1   3 -4.145153E-10  1.243546E-10  1.243546E-10 -4.685203E-26 -1.615587E-27 -2.746498E-26
         1   4 -4.145153E-10  1.243546E-10  1.243546E-10  8.077936E-27  5.654555E-26  3.231174E-27
         1   5 -4.145153E-10  1.243546E-10  1.243546E-10  1.615587E-26  1.454028E-26 -1.938705E-26
         1   6 -4.145153E-10  1.243546E-10  1.243546E-10  4.846761E-26  5.169879E-26 -3.029226E-26
         1   7 -4.145153E-10  1.243546E-10  1.243546E-10  6.462349E-27 -2.261822E-26 -3.231174E-26
         1   8 -4.145153E-10  1.243546E-10  1.243546E-10  6.462349E-26  3.231174E-26 -1.777146E-26
         2   1 -4.145153E-10  1.243546E-10  1.243546E-10  1.668058E-19 -4.243550E-21  2.150189E-20
         2   2 -4.145153E-10  1.243546E-10  1.243546E-10 -2.126649E-19 -9.800255E-19 -1.520196E-20
         2   3 -4.145153E-10  1.243546E-10  1.243546E-10  3.010874E-20  4.672800E-19 -5.569146E-20
         2   4 -4.145153E-10  1.243546E-10  1.243546E-10 -7.831148E-20  3.359911E-20  1.493610E-22
         2   5 -4.145153E-10  1.243546E-10  1.243546E-10  8.647503E-19  2.803724E-19  1.574395E-19
         2   6 -4.145153E-10  1.243546E-10  1.243546E-10 -2.611425E-21 -1.183301E-18 -7.208580E-20
         2   7 -4.145153E-10  1.243546E-10  1.243546E-10 -9.745971E-21  9.927553E-19  8.024615E-20
         2   8 -4.145153E-10  1.243546E-10  1.243546E-10  2.070945E-19  1.253936E-19 -5.673448E-20
         3   1 -4.145153E-10  1.243546E-10  1.243546E-10  7.774264E-19 -1.514457E-18  6.110011E-20
         3   2 -4.145153E-10  1.243546E-10  1.243546E-10  1.102687E-18 -1.406037E-18 -5.439264E-20
         3   3 -4.145153E-10  1.243546E-10  1.243546E-10  5.317185E-19  1.527598E-18 -1.109264E-19
         3   4 -4.145153E-10  1.243546E-10  1.243546E-10  7.485589E-19 -4.239659E-19  3.328578E-20
         3   5 -4.145153E-10  1.243546E-10  1.243546E-10  4.314672E-20  1.096988E-18  4.000553E-19
         3   6 -4.145153E-10  1.243546E-10  1.243546E-10  4.314672E-20 -3.666852E-19 -2.906745E-19
         3   7 -4.145153E-10  1.243546E-10  1.243546E-10  1.610258E-19  9.617207E-19  2.280287E-19
         3   8 -4.145153E-10  1.243546E-10  1.243546E-10  1.028387E-18  9.435892E-20 -2.029961E-19

 displacements (vx,vy,vz) for set NALL and time  0.5167813E+00

         1  0.000000E+00  0.000000E+00  0.000000E+00
         2 -2.109311E-07  0.000000E+00  0.000000E+00
         3 -7.751719E+00  0.000000E+00  0.000000E+00
         4 -7.751719E+00  0.000000E+00  0.000000E+00
         5 -1.550344E+01  0.000000E+00  0.000000E+00
         6 -1.550344E+01  0.000000E+00  0.000000E+00
         7  0.000000E+00  6.327933E-08  0.000000E+00
         8 -2.109311E-07  6.327933E-08  0.000000E+00
         9 -7.751719E+00  6.327933E-08  0.000000E+00
        10 -7.751719E+00  6.327933E-08  0.000000E+00
        11 -1.550344E+01  6.327933E-08  0.000000E+00
        12 -1.550344E+01  6.327933E-08  0.000000E+00
        13  0.000000E+00  0.000000E+00  8.859107E-08
        14 -2.109311E-07  0.000000E+00  8.859107E-08
        15 -7.751719E+00  0.000000E+00  8.859107E-08
        16 -7.751719E+00  0.000000E+00  8.859107E-08
        17 -1.550344E+01  0.000000E+00  8.859107E-08
        18 -1.550344E+01  0.000000E+00  8.859107E-08
        19  0.000000E+00  6.327933E-08  8.859107E-08
        20 -2.109311E-07  6.327933E-08  8.859107E-08
        21 -7.751719E+00  6.327933E-08  8.859107E-08
        22 -7.751719E+00  6.327933E-08  8.859107E-08
        23 -1.550344E+01  6.327933E-08  8.859107E-08
        24 -1.550344E+01  6.327933E-08  8.859107E-08

 stresses (elem, integ.pnt.,sxx,syy,szz,sxy,sxz,syz) for set EALL and time  0.5167813E+00

         1   1 -8.859107E-05 -2.266288E-47  6.776264E-21 -2.414060E-21 -1.696366E-21  1.565877E-21
         1   2 -8.859107E-05  2.032879E-20  2.032879E-20 -1.180932E-20 -8.090363E-21 -1.304897E-22
         1   3 -8.859107E-05 -2.032879E-20 -2.032879E-20  7.829384E-22 -1.565877E-21  3.131754E-21
         1   4 -8.859107E-05 -6.776264E-21 -6.776264E-21 -8.612322E-21 -6.263507E-21  1.304897E-21
         1   5 -8.859107E-05 -6.776264E-21 -6.776264E-21 -1.043918E-21  3.784202E-21  3.653712E-21
         1   6 -8.859107E-05 -1.463074E-46  3.204426E-47 -3.131754E-21 -2.609795E-21 -4.045182E-21
         1   7 -8.859107E-05 -2.032879E-20 -2.032879E-20  1.043918E-21 -2.609795E-21  5.219589E-21
         1   8 -8.859107E-05 -2.158771E-46 -2.032879E-20 -1.043918E-21 -7.307425E-21 -2.609795E-21
         2   1 -8.859107E-05 -2.116894E-13 -2.465323E-13  2.759415E-14 -9.590392E-14  6.104932E-15
         2   2 -8.859107E-05 -2.559014E-13 -2.142946E-13  1.064073E-13  8.799345E-14 -4.410244E-15
         2   3 -8.859107E-05 -2.556683E-13 -2.440656E-13  7.284311E-15 -1.466893E-14 -9.728052E-15
         2   4 -8.859107E-05 -3.696916E-13 -3.747210E-13 -1.022972E-14 -1.372672E-13  1.618605E-14
         2   5 -8.859107E-05 -1.053737E-13 -9.588424E-14  1.123374E-14 -7.082290E-14  3.861690E-14
         2   6 -8.859107E-05  2.891785E-14  1.285503E-14  2.214022E-13  3.426131E-14 -3.705555E-14
         2   7 -8.859107E-05  3.454479E-14  9.047989E-14  4.192489E-14  8.536710E-14  2.278392E-14
         2   8 -8.859107E-05  9.902495E-14  3.632598E-14  1.470091E-13  1.028811E-13 -1.645925E-14
         3   1 -8.859107E-05  8.705309E-14 -2.094950E-15  5.656816E-14  2.598375E-13  1.133284E-14
         3   2 -8.859107E-05  9.356733E-16  4.263002E-14 -4.851605E-14  1.197252E-13 -2.004275E-14
         3   3 -8.859107E-05 -1.528187E-14 -3.070810E-14  1.971832E-14 -1.608012E-13 -9.310528E-15
         3   4 -8.859107E-05 -2.048168E-13 -2.272906E-13  1.773446E-13  2.595357E-13 -2.988287E-14
         3   5 -8.859107E-05  2.486111E-13  2.172645E-13  2.722726E-13 -2.956398E-13  6.293811E-14
         3   6 -8.859107E-05  2.154297E-13  2.846763E-13 -7.952005E-15  5.464087E-14 -6.496045E-14
         3   7 -8.859107E-05 -1.164344E-13 -7.405917E-14  2.505473E-13  6.290031E-14  4.229474E-14
         3   8 -8.859107E-05 -2.530333E-13 -2.479548E-13  1.104350E-13 -1.822962E-13 -7.480057E-14

 strains (elem, integ.pnt.,exx,eyy,ezz,exy,exz,eyz) forset EALL and time  0.5167813E+00

         1   1 -4.218622E-10  1.265587E-10  1.265587E-10 -1.494418E-26 -1.050132E-26  9.693523E-27
         1   2 -4.218622E-10  1.265587E-10  1.265587E-10 -7.310532E-26 -5.008320E-26 -8.077936E-28
         1   3 -4.218622E-10  1.265587E-10  1.265587E-10  4.846761E-27 -9.693523E-27  1.938705E-26
         1   4 -4.218622E-10  1.265587E-10  1.265587E-10 -5.331438E-26 -3.877409E-26  8.077936E-27
         1   5 -4.218622E-10  1.265587E-10  1.265587E-10 -6.462349E-27  2.342601E-26  2.261822E-26
         1   6 -4.218622E-10  1.265587E-10  1.265587E-10 -1.938705E-26 -1.615587E-26 -2.504160E-26
         1   7 -4.218622E-10  1.265587E-10  1.265587E-10  6.462349E-27 -1.615587E-26  3.231174E-26
         1   8 -4.218622E-10  1.265587E-10  1.265587E-10 -6.462349E-27 -4.523644E-26 -1.615587E-26
         2   1 -4.218622E-10  1.265587E-10  1.265587E-10  1.708209E-19 -5.936909E-19  3.779243E-20
         2   2 -4.218622E-10  1.265587E-10  1.265587E-10  6.587119E-19  5.447213E-19 -2.730151E-20
         2   3 -4.218622E-10  1.265587E-10  1.265587E-10  4.509335E-20 -9.080765E-20 -6.022128E-20
         2   4 -4.218622E-10  1.265587E-10  1.265587E-10 -6.332687E-20 -8.497492E-19  1.001994E-19
         2   5 -4.218622E-10  1.265587E-10  1.265587E-10  6.954220E-20 -4.384275E-19  2.390570E-19
         2   6 -4.218622E-10  1.265587E-10  1.265587E-10  1.370585E-18  2.120938E-19 -2.293915E-19
         2   7 -4.218622E-10  1.265587E-10  1.265587E-10  2.595350E-19  5.284630E-19  1.410433E-19
         2   8 -4.218622E-10  1.265587E-10  1.265587E-10  9.100563E-19  6.368832E-19 -1.018906E-19
         3   1 -4.218622E-10  1.265587E-10  1.265587E-10  3.501839E-19  1.608518E-18  7.015569E-20
         3   2 -4.218622E-10  1.265587E-10  1.265587E-10 -3.003374E-19  7.411559E-19 -1.240742E-19
         3   3 -4.218622E-10  1.265587E-10  1.265587E-10  1.220658E-19 -9.954358E-19 -5.763660E-20
         3   4 -4.218622E-10  1.265587E-10  1.265587E-10  1.097848E-18  1.606649E-18 -1.849892E-19
         3   5 -4.218622E-10  1.265587E-10  1.265587E-10  1.685497E-18 -1.830151E-18  3.896169E-19
         3   6 -4.218622E-10  1.265587E-10  1.265587E-10 -4.922670E-20  3.382530E-19 -4.021361E-19
         3   7 -4.218622E-10  1.265587E-10  1.265587E-10  1.551007E-18  3.893829E-19  2.618246E-19
         3   8 -4.218622E-10  1.265587E-10  1.265587E-10  6.836452E-19 -1.128500E-18 -4.630511E-19

 displacements (vx,vy,vz) for set NALL and time  0.5257813E+00

         1  0.000000E+00  0.000000E+00  0.000000E+00
         2 -2.146046E-07  0.000000E+00  0.000000E+00
         3 -7.886719E+00  0.000000E+00  0.000000E+00
         4 -7.886719E+00  0.000000E+00  0.000000E+00
         5 -1.577344E+01  0.000000E+00  0.000000E+00
         6 -1.577344E+01  0.000000E+00  0.000000E+00
         7  0.000000E+00  6.438137E-08  0.000000E+00
         8 -2.146046E-07  6.438137E-08  0.000000E+00
         9 -7.886719E+00  6.438138E-08  0.000000E+00
        10 -7.886719E+00  6.438138E-08  0.000000E+00
        11 -1.577344E+01  6.438138E-08  0.000000E+00
        12 -1.577344E+01  6.438137E-08  0.000000E+00
        13  0.000000E+00  0.000000E+00  9.013392E-08
        14 -2.146046E-07  0.000000E+00  9.013392E-08
        15 -7.886719E+00  0.000000E+00  9.013392E-08
        16 -7.886719E+00  0.000000E+00  9.013392E-08
        17 -1.577344E+01  0.000000E+00  9.013392E-08
        18 -1.577344E+01  0.000000E+00  9.013393E-08
        19  0.000000E+00  6.438137E-08  9.013392E-08
        20 -2.146046E-07  6.438137E-08  9.013392E-08
        21 -7.886719E+00  6.438137E-08  9.013392E-08
        22 -7.886719E+00  6.438137E-08  9.013393E-08
        23 -1.577344E+01  6.438137E-08  9.013393E-08
        24 -1.577344E+01  6.438137E-08  9.013392E-08

 stresses (elem, integ.pnt.,sxx,syy,szz,sxy,sxz,syz) for set EALL and time  0.5257813E+00

         1   1 -9.013392E-05 -1.790895E-46  6.776264E-21 -3.849447E-21 -4.436651E-21  2.348815E-21
         1   2 -9.013392E-05  3.388132E-20  2.032879E-20 -1.924724E-20 -2.140032E-20  7.176935E-22
         1   3 -9.013392E-05 -1.355253E-20 -6.776264E-21  3.131754E-21  2.609795E-21  6.785466E-21
         1   4 -9.013392E-05  2.032879E-20  2.032879E-20 -1.226603E-20  4.697630E-21 -3.523223E-21
         1   5 -9.013392E-05 -1.355253E-20 -2.032879E-20  5.824768E-31 -2.870774E-21  3.392733E-21
         1   6 -9.013392E-05 -2.032879E-20 -2.032879E-20  3.131754E-21 -1.983444E-20  6.589731E-21
         1   7 -9.013392E-05  6.776264E-21 -6.776264E-21 -2.087836E-21  8.351343E-21  7.307425E-21
         1   8 -9.013392E-05 -6.776264E-21  6.776264E-21  1.043918E-21  1.043918E-20  2.348815E-21
         2   1 -9.013392E-05  2.278881E-13  1.989701E-13  1.048649E-13 -1.520363E-13 -2.132156E-15
         2   2 -9.013392E-05  2.421546E-13  2.362521E-13  4.356583E-14 -3.819507E-14  1.562701E-15
         2   3 -9.013392E-05  2.186416E-13  1.949089E-13  1.042659E-13  8.583911E-15 -1.158704E-14
         2   4 -9.013392E-05  2.416717E-13  2.526396E-13  8.675188E-14 -9.650030E-14 -5.977116E-15
         2   5 -9.013392E-05  6.333940E-14  6.089512E-14 -1.393502E-13 -1.367641E-13  1.497577E-15
         2   6 -9.013392E-05  8.698972E-14  1.021988E-13  1.058463E-13 -1.017360E-13  1.337190E-14
         2   7 -9.013392E-05  1.723126E-13  1.750537E-13 -1.372681E-13  3.203560E-14 -7.957312E-15
         2   8 -9.013392E-05  2.047266E-13  2.368060E-13  1.429564E-13 -7.304862E-14  5.832085E-15
         3   1 -9.013393E-05 -4.568496E-14 -1.690591E-13 -2.194518E-14  1.281567E-13  7.217863E-15
         3   2 -9.013393E-05 -1.879908E-13 -1.014038E-13  4.811097E-14  2.332409E-13 -8.969597E-15
         3   3 -9.013393E-05  2.804329E-14 -3.205456E-14 -8.190051E-14  1.359685E-13 -1.735595E-14
         3   4 -9.013393E-05 -1.939302E-13 -1.502904E-13  1.808100E-13  3.088425E-14 -3.411949E-15
         3   5 -9.013393E-05 -2.449098E-13 -2.994772E-13 -6.504741E-15 -1.897640E-14  5.151125E-14
         3   6 -9.013393E-05 -2.395715E-13 -1.685459E-13 -6.504741E-15 -8.903254E-14 -3.903264E-14
         3   7 -9.013393E-05 -6.177895E-13 -6.090806E-13 -2.427602E-14  1.246473E-13  2.693744E-14
         3   8 -9.013393E-05 -6.921187E-13 -6.640404E-13 -1.643883E-13 -5.049303E-14 -3.347499E-14

 strains (elem, integ.pnt.,exx,eyy,ezz,exy,exz,eyz) forset EALL and time  0.5257813E+00

         1   1 -4.292092E-10  1.287627E-10  1.287627E-10 -2.382991E-26 -2.746498E-26  1.454028E-26
         1   2 -4.292092E-10  1.287627E-10  1.287627E-10 -1.191496E-25 -1.324781E-25  4.442865E-27
         1   3 -4.292092E-10  1.287627E-10  1.287627E-10  1.938705E-26  1.615587E-26  4.200527E-26
         1   4 -4.292092E-10  1.287627E-10  1.287627E-10 -7.593260E-26  2.908057E-26 -2.181043E-26
         1   5 -4.292092E-10  1.287627E-10  1.287627E-10 -3.605809E-36 -1.777146E-26  2.100263E-26
         1   6 -4.292092E-10  1.287627E-10  1.287627E-10  1.938705E-26 -1.227846E-25  4.079358E-26
         1   7 -4.292092E-10  1.287627E-10  1.287627E-10 -1.292470E-26  5.169879E-26  4.523644E-26
         1   8 -4.292092E-10  1.287627E-10  1.287627E-10  6.462349E-27  6.462349E-26  1.454028E-26
         2   1 -4.292092E-10  1.287627E-10  1.287627E-10  6.491640E-19 -9.411771E-19 -1.319906E-20
         2   2 -4.292092E-10  1.287627E-10  1.287627E-10  2.696932E-19 -2.364457E-19  9.673866E-21
         2   3 -4.292092E-10  1.287627E-10  1.287627E-10  6.454557E-19  5.313850E-20 -7.172933E-20
         2   4 -4.292092E-10  1.287627E-10  1.287628E-10  5.370355E-19 -5.973828E-19 -3.700119E-20
         2   5 -4.292092E-10  1.287627E-10  1.287627E-10 -8.626440E-19 -8.466348E-19  9.270717E-21
         2   6 -4.292092E-10  1.287627E-10  1.287627E-10  6.552390E-19 -6.297944E-19  8.277843E-20
         2   7 -4.292092E-10  1.287627E-10  1.287627E-10 -8.497550E-19  1.983156E-19 -4.925955E-20
         2   8 -4.292092E-10  1.287627E-10  1.287628E-10  8.849684E-19 -4.522057E-19  3.610338E-20
         3   1 -4.292092E-10  1.287628E-10  1.287627E-10 -1.358511E-19  7.933512E-19  4.468201E-20
         3   2 -4.292092E-10  1.287627E-10  1.287628E-10  2.978298E-19  1.443872E-18 -5.552608E-20
         3   3 -4.292092E-10  1.287628E-10  1.287627E-10 -5.070032E-19  8.417095E-19 -1.074416E-19
         3   4 -4.292092E-10  1.287627E-10  1.287627E-10  1.119300E-18  1.911882E-19 -2.112159E-20
         3   5 -4.292092E-10  1.287627E-10  1.287627E-10 -4.026744E-20 -1.174729E-19  3.188792E-19
         3   6 -4.292092E-10  1.287627E-10  1.287628E-10 -4.026744E-20 -5.511538E-19 -2.416306E-19
         3   7 -4.292092E-10  1.287627E-10  1.287627E-10 -1.502801E-19  7.716263E-19  1.667556E-19
         3   8 -4.292092E-10  1.287627E-10  1.287627E-10 -1.017642E-18 -3.125759E-19 -2.072261E-19

 displacements (vx,vy,vz) for set NALL and time  0.5347813E+00

         1  0.000000E+00  0.000000E+00  0.000000E+00
         2 -2.182781E-07  0.000000E+00  0.000000E+00
         3 -8.021719E+00  0.000000E+00  0.000000E+00
         4 -8.021719E+00  0.000000E+00  0.000000E+00
         5 -1.604344E+01  0.000000E+00  0.000000E+00
         6 -1.604344E+01  0.000000E+00  0.000000E+00
         7  0.000000E+00  6.548342E-08  0.000000E+00
         8 -2.182781E-07  6.548342E-08  0.000000E+00
         9 -8.021719E+00  6.548342E-08  0.000000E+00
        10 -8.021719E+00  6.548342E-08  0.000000E+00
        11 -1.604344E+01  6.548342E-08  0.000000E+00
        12 -1.604344E+01  6.548342E-08  0.000000E+00
        13  0.000000E+00  0.000000E+00  9.167678E-08
        14 -2.182781E-07  0.000000E+00  9.167678E-08
        15 -8.021719E+00  0.000000E+00  9.167678E-08
        16 -8.021719E+00  0.000000E+00  9.167678E-08
        17 -1.604344E+01  0.000000E+00  9.167678E-08
        18 -1.604344E+01  0.000000E+00  9.167678E-08
        19  0.000000E+00  6.548342E-08  9.167678E-08
        20 -2.182781E-07  6.548342E-08  9.167678E-08
        21 -8.021719E+00  6.548342E-08  9.167678E-08
        22 -8.021719E+00  6.548342E-08  9.167678E-08
        23 -1.604344E+01  6.548342E-08  9.167678E-08
        24 -1.604344E+01  6.548342E-08  9.167678E-08

 stresses (elem, integ.pnt.,sxx,syy,szz,sxy,sxz,syz) for set EALL and time  0.5347813E+00

         1   1 -9.167678E-05 -6.776264E-21  6.776264E-21  9.786730E-22 -1.043918E-21  5.290167E-47
         1   2 -9.167678E-05 -6.776264E-21 -1.433559E-47  3.849447E-21 -7.176935E-21  1.957346E-22
         1   3 -9.167678E-05  6.776264E-21  6.776264E-21 -7.829384E-22  3.131754E-21  1.043918E-21
         1   4 -9.167678E-05  1.355253E-20  2.032879E-20  2.087836E-21  6.263507E-21 -4.175671E-21
         1   5 -9.167678E-05  6.746161E-48  0.000000E+00  1.777342E-30 -1.174408E-21  5.219589E-22
         1   6 -9.167678E-05 -3.388132E-20 -2.032879E-20  1.774660E-20 -7.307425E-21  5.154344E-21
         1   7 -9.167678E-05  1.355253E-20  6.776264E-21 -8.351343E-21  7.307425E-21  2.087836E-21
         1   8 -9.167678E-05 -6.776264E-21  6.776264E-21  9.395261E-21  1.043918E-20  7.829384E-22
         2   1 -9.167678E-05  1.732007E-13  1.128474E-13  6.555923E-14 -4.022958E-14  2.686314E-17
         2   2 -9.167678E-05  1.662416E-13  1.785149E-13  5.680221E-14 -2.241269E-13  2.730388E-15
         2   3 -9.167678E-05  6.676928E-14  2.213380E-14  5.327344E-14 -5.564796E-14 -1.090219E-14
         2   4 -9.167678E-05  6.594460E-14  1.021148E-13  8.830151E-14 -1.782462E-13 -6.537931E-15
         2   5 -9.167678E-05  1.428565E-15 -2.832334E-14  1.364664E-13 -6.591132E-15  1.102931E-14
         2   6 -9.167678E-05  2.607120E-15  4.083166E-14  3.138218E-14 -2.693017E-13  1.945827E-14
         2   7 -9.167678E-05 -3.020357E-13 -3.160698E-13  1.265056E-13 -1.628408E-14  1.002553E-16
         2   8 -9.167678E-05 -2.947228E-13 -2.326013E-13  5.644950E-14 -2.789946E-13  1.018995E-14
         3   1 -9.167678E-05 -1.977299E-13 -2.956700E-13 -2.581084E-14 -2.594254E-13 -2.359482E-15
         3   2 -9.167678E-05 -3.836546E-13 -2.593842E-13  9.217235E-15 -1.422896E-14  9.385902E-16
         3   3 -9.167678E-05 -6.995692E-14 -1.376453E-13 -9.632735E-14  1.399095E-13 -2.998191E-14
         3   4 -9.167678E-05 -3.173582E-13 -2.448048E-13  1.313551E-13  3.482533E-14  3.970481E-14
         3   5 -9.167678E-05 -4.381640E-13 -4.587613E-13  8.209068E-15  1.126514E-13  1.881672E-14
         3   6 -9.167678E-05 -2.987843E-13 -2.830594E-13 -2.720155E-13 -6.248893E-14 -3.526335E-14
         3   7 -9.167678E-05 -3.103910E-13 -3.007366E-13  3.063666E-14  1.393556E-13 -8.805706E-15
         3   8 -9.167678E-05 -2.324879E-13 -2.684800E-13 -1.094756E-13 -3.578472E-14  3.502867E-15

 strains (elem, integ.pnt.,exx,eyy,ezz,exy,exz,eyz) forset EALL and time  0.5347813E+00

         1   1 -4.365561E-10  1.309668E-10  1.309668E-10  6.058452E-27 -6.462349E-27 -2.505717E-52
         1   2 -4.365561E-10  1.309668E-10  1.309668E-10  2.382991E-26 -4.442865E-26  1.211690E-27
         1   3 -4.365561E-10  1.309668E-10  1.309668E-10 -4.846761E-27  1.938705E-26  6.462349E-27
         1   4 -4.365561E-10  1.309668E-10  1.309668E-10  1.292470E-26  3.877409E-26 -2.584939E-26
         1   5 -4.365561E-10  1.309668E-10  1.309668E-10 -1.100259E-35 -7.270142E-27  3.231174E-27
         1   6 -4.365561E-10  1.309668E-10  1.309668E-10  1.098599E-25 -4.523644E-26  3.190785E-26
         1   7 -4.365561E-10  1.309668E-10  1.309668E-10 -5.169879E-26  4.523644E-26  1.292470E-26
         1   8 -4.365561E-10  1.309668E-10  1.309668E-10  5.816114E-26  6.462349E-26  4.846761E-27
         2   1 -4.365561E-10  1.309668E-10  1.309668E-10  4.058429E-19 -2.490403E-19  1.662956E-22
         2   2 -4.365561E-10  1.309668E-10  1.309668E-10  3.516327E-19 -1.387453E-18  1.690240E-20
         2   3 -4.365561E-10  1.309668E-10  1.309668E-10  3.297880E-19 -3.444874E-19 -6.748977E-20
         2   4 -4.365561E-10  1.309668E-10  1.309668E-10  5.466284E-19 -1.103429E-18 -4.047291E-20
         2   5 -4.365561E-10  1.309668E-10  1.309668E-10  8.447919E-19 -4.080225E-20  6.827670E-20
         2   6 -4.365561E-10  1.309668E-10  1.309668E-10  1.942706E-19 -1.667106E-18  1.204559E-19
         2   7 -4.365561E-10  1.309668E-10  1.309668E-10  7.831301E-19 -1.008062E-19  6.206278E-22
         2   8 -4.365561E-10  1.309668E-10  1.309668E-10  3.494493E-19 -1.727109E-18  6.308063E-20
         3   1 -4.365561E-10  1.309668E-10  1.309668E-10 -1.597814E-19 -1.605967E-18 -1.460632E-20
         3   2 -4.365561E-10  1.309668E-10  1.309668E-10  5.705907E-20 -8.808401E-20  5.810320E-21
         3   3 -4.365561E-10  1.309668E-10  1.309668E-10 -5.963122E-19  8.661067E-19 -1.856023E-19
         3   4 -4.365561E-10  1.309668E-10  1.309668E-10  8.131507E-19  2.155854E-19  2.457917E-19
         3   5 -4.365561E-10  1.309668E-10  1.309668E-10  5.081804E-20  6.973659E-19  1.164845E-19
         3   6 -4.365561E-10  1.309668E-10  1.309668E-10 -1.683905E-18 -3.868362E-19 -2.182969E-19
         3   7 -4.365561E-10  1.309668E-10  1.309668E-10  1.896555E-19  8.626777E-19 -5.451151E-20
         3   8 -4.365561E-10  1.309668E-10  1.309668E-10 -6.777062E-19 -2.215245E-19  2.168441E-20

 displacements (vx,vy,vz) for set NALL and time  0.5437813E+00

         1  0.000000E+00  0.000000E+00  0.000000E+00
         2 -2.219515E-07  0.000000E+00  0.000000E+00
         3 -8.156719E+00  0.000000E+00  0.000000E+00
         4 -8.156719E+00  0.000000E+00  0.000000E+00
         5 -1.631344E+01  0.000000E+00  0.000000E+00
         6 -1.631344E+01  0.000000E+00  0.000000E+00
         7  0.000000E+00  6.658546E-08  0.000000E+00
         8 -2.219515E-07  6.658546E-08  0.000000E+00
         9 -8.156719E+00  6.658546E-08  0.000000E+00
        10 -8.156719E+00  6.658546E-08  0.000000E+00
        11 -1.631344E+01  6.658546E-08  0.000000E+00
        12 -1.631344E+01  6.658546E-08  0.000000E+00
        13  0.000000E+00  0.000000E+00  9.321964E-08
        14 -2.219515E-07  0.000000E+00  9.321964E-08
        15 -8.156719E+00  0.000000E+00  9.321964E-08
        16 -8.156719E+00  0.000000E+00  9.321964E-08
        17 -1.631344E+01  0.000000E+00  9.321964E-08
        18 -1.631344E+01  0.000000E+00  9.321964E-08
        19  0.000000E+00  6.658546E-08  9.321964E-08
        20 -2.219515E-07  6.658546E-08  9.321964E-08
        21 -8.156719E+00  6.658546E-08  9.321964E-08
        22 -8.156719E+00  6.658546E-08  9.321964E-08
        23 -1.631344E+01  6.658546E-08  9.321964E-08
        24 -1.631344E+01  6.658546E-08  9.321964E-08

 stresses (elem, integ.pnt.,sxx,syy,szz,sxy,sxz,syz) for set EALL and time  0.5437813E+00

         1   1 -9.321964E-05 -1.355253E-20 -6.776264E-21  1.826856E-21  2.348815E-21 -1.043918E-21
         1   2 -9.321964E-05 -2.032879E-20 -1.355253E-20  1.383191E-20  5.741548E-21  2.544550E-21
         1   3 -9.321964E-05  1.355253E-20  6.776264E-21 -1.826856E-21 -2.609795E-21 -2.609795E-21
         1   4 -9.321964E-05  1.355253E-20  2.032879E-20  1.017820E-20 -1.304897E-20  6.654976E-21
         1   5 -9.321964E-05 -4.553659E-47  6.776264E-21 -2.870774E-21  1.304897E-21 -3.653712E-21
         1   6 -9.321964E-05  1.355253E-20  5.843862E-46 -1.539779E-20  4.697630E-21  6.067772E-21
         1   7 -9.321964E-05 -1.355253E-20 -1.355253E-20  1.043918E-21  1.565877E-21 -6.263507E-21
         1   8 -9.321964E-05 -1.028790E-46 -6.776264E-21 -1.148310E-20 -7.307425E-21  1.017820E-20
         2   1 -9.321964E-05  1.660516E-13  1.215465E-13 -5.084740E-15  5.830493E-14  2.250807E-16
         2   2 -9.321964E-05  1.342993E-13  1.400697E-13  1.087565E-13 -1.518635E-13  3.735306E-15
         2   3 -9.321964E-05  2.707783E-13  2.433107E-13 -1.897651E-14  7.641655E-14 -1.108619E-14
         2   4 -9.321964E-05  2.407753E-13  2.659154E-13  1.386498E-13  6.360411E-15  3.815248E-16
         2   5 -9.321964E-05  4.494869E-14  3.211519E-14 -1.411193E-13  7.404928E-14  1.215129E-14
         2   6 -9.321964E-05  5.218814E-14  6.734912E-14  1.741333E-13 -7.482002E-14  1.729413E-14
         2   7 -9.321964E-05  5.772677E-14  6.193069E-14 -1.438706E-13  2.373737E-14  8.400135E-16
         2   8 -9.321964E-05  6.671545E-14  1.012462E-13  2.064101E-13 -1.163749E-13  1.394035E-14
         3   1 -9.321964E-05  3.351093E-13  2.677775E-13  4.662613E-14  6.905209E-14 -3.163377E-15
         3   2 -9.321964E-05  1.081283E-13  1.649017E-13  6.414016E-14  2.091644E-13 -4.342831E-15
         3   3 -9.321964E-05  4.405922E-13  4.088201E-13 -1.738585E-14  1.177437E-13 -3.669768E-14
         3   4 -9.321964E-05  1.510731E-13  1.600220E-13  1.927826E-13  2.228279E-13  1.726947E-14
         3   5 -9.321964E-05  2.496044E-13  2.761686E-13  2.850536E-13  1.013370E-13  2.172842E-14
         3   6 -9.321964E-05  2.928417E-13  2.891007E-13  7.488521E-14 -1.788875E-13 -3.781997E-14
         3   7 -9.321964E-05  6.610573E-14  1.282297E-13  2.982469E-13  1.967439E-13 -1.180588E-14
         3   8 -9.321964E-05  4.680496E-14 -4.760569E-15 -5.203380E-14  9.165972E-14 -1.620766E-14

 strains (elem, integ.pnt.,exx,eyy,ezz,exy,exz,eyz) forset EALL and time  0.5437813E+00

         1   1 -4.439030E-10  1.331709E-10  1.331709E-10  1.130911E-26  1.454028E-26 -6.462349E-27
         1   2 -4.439030E-10  1.331709E-10  1.331709E-10  8.562612E-26  3.554292E-26  1.575197E-26
         1   3 -4.439030E-10  1.331709E-10  1.331709E-10 -1.130911E-26 -1.615587E-26 -1.615587E-26
         1   4 -4.439030E-10  1.331709E-10  1.331709E-10  6.300790E-26 -8.077936E-26  4.119747E-26
         1   5 -4.439030E-10  1.331709E-10  1.331709E-10 -1.777146E-26  8.077936E-27 -2.261822E-26
         1   6 -4.439030E-10  1.331709E-10  1.331709E-10 -9.531964E-26  2.908057E-26  3.756240E-26
         1   7 -4.439030E-10  1.331709E-10  1.331709E-10  6.462349E-27  9.693523E-27 -3.877409E-26
         1   8 -4.439030E-10  1.331709E-10  1.331709E-10 -7.108583E-26 -4.523644E-26  6.300790E-26
         2   1 -4.439030E-10  1.331709E-10  1.331709E-10 -3.147696E-20  3.609353E-19  1.393357E-21
         2   2 -4.439030E-10  1.331709E-10  1.331709E-10  6.732544E-19 -9.401073E-19  2.312332E-20
         2   3 -4.439030E-10  1.331709E-10  1.331709E-10 -1.174736E-19  4.730548E-19 -6.862880E-20
         2   4 -4.439030E-10  1.331709E-10  1.331709E-10  8.583083E-19  3.937397E-20  2.361820E-21
         2   5 -4.439030E-10  1.331709E-10  1.331709E-10 -8.735958E-19  4.584003E-19  7.522224E-20
         2   6 -4.439030E-10  1.331709E-10  1.331709E-10  1.077968E-18 -4.631716E-19  1.070589E-19
         2   7 -4.439030E-10  1.331709E-10  1.331709E-10 -8.906275E-19  1.469457E-19  5.200084E-21
         2   8 -4.439030E-10  1.331709E-10  1.331709E-10  1.277777E-18 -7.204161E-19  8.629743E-20
         3   1 -4.439030E-10  1.331709E-10  1.331709E-10  2.886379E-19  4.274653E-19 -1.958281E-20
         3   2 -4.439030E-10  1.331709E-10  1.331709E-10  3.970582E-19  1.294827E-18 -2.688419E-20
         3   3 -4.439030E-10  1.331709E-10  1.331709E-10 -1.076267E-19  7.288897E-19 -2.271761E-19
         3   4 -4.439030E-10  1.331709E-10  1.331709E-10  1.193416E-18  1.379411E-18  1.069063E-19
         3   5 -4.439030E-10  1.331709E-10  1.331709E-10  1.764618E-18  6.273245E-19  1.345093E-19
         3   6 -4.439030E-10  1.331709E-10  1.331709E-10  4.635751E-19 -1.107399E-18 -2.341236E-19
         3   7 -4.439030E-10  1.331709E-10  1.331709E-10  1.846290E-18  1.217939E-18 -7.308404E-20
         3   8 -4.439030E-10  1.331709E-10  1.331709E-10 -3.221140E-19  5.674173E-19 -1.003332E-19

 displacements (vx,vy,vz) for set NALL and time  0.5527813E+00

         1  0.000000E+00  0.000000E+00  0.000000E+00
         2 -2.256250E-07  0.000000E+00  0.000000E+00
         3 -8.291719E+00  0.000000E+00  0.000000E+00
         4 -8.291719E+00  0.000000E+00  0.000000E+00
         5 -1.658344E+01  0.000000E+00  0.000000E+00
         6 -1.658344E+01  0.000000E+00  0.000000E+00
         7  0.000000E+00  6.768750E-08  0.000000E+00
         8 -2.256250E-07  6.768750E-08  0.000000E+00
         9 -8.291719E+00  6.768750E-08  0.000000E+00
        10 -8.291719E+00  6.768750E-08  0.000000E+00
        11 -1.658344E+01  6.768750E-08  0.000000E+00
        12 -1.658344E+01  6.768750E-08  0.000000E+00
        13  0.000000E+00  0.000000E+00  9.476250E-08
        14 -2.256250E-07  0.000000E+00  9.476250E-08
        15 -8.291719E+00  0.000000E+00  9.476250E-08
        16 -8.291719E+00  0.000000E+00  9.476250E-08
        17 -1.658344E+01  0.000000E+00  9.476250E-08
        18 -1.658344E+01  0.000000E+00  9.476250E-08
        19  0.000000E+00  6.768750E-08  9.476250E-08
        20 -2.256250E-07  6.768750E-08  9.476250E-08
        21 -8.291719E+00  6.768750E-08  9.476250E-08
        22 -8.291719E+00  6.768750E-08  9.476250E-08
        23 -1.658344E+01  6.768750E-08  9.476250E-08
        24 -1.658344E+01  6.768750E-08  9.476250E-08

 stresses (elem, integ.pnt.,sxx,syy,szz,sxy,sxz,syz) for set EALL and time  0.5527813E+00

         1   1 -9.476250E-05 -1.355253E-20 -6.776264E-21 -3.979937E-21 -2.218325E-21  1.565877E-21
         1   2 -9.476250E-05 -2.032879E-20  8.854336E-48 -1.441912E-20 -1.265750E-20 -2.609795E-21
         1   3 -9.476250E-05 -1.355253E-20 -1.355253E-20 -6.785466E-21  2.143359E-30  2.609795E-21
         1   4 -9.476250E-05 -3.388132E-20 -3.388132E-20 -1.722464E-20  6.785466E-21  3.001264E-21
         1   5 -9.476250E-05  8.432701E-48 -1.355253E-20  5.480569E-21 -1.043918E-21 -1.043918E-21
         1   6 -9.476250E-05  6.776264E-21  6.776264E-21  2.113934E-20 -1.148310E-20 -1.422338E-20
         1   7 -9.476250E-05  2.032879E-20  6.776264E-21  6.263507E-21 -8.873302E-21  2.087836E-21
         1   8 -9.476250E-05  2.032879E-20 -6.776264E-21  2.192227E-20  7.348659E-30 -8.612322E-21
         2   1 -9.476250E-05  9.199894E-14  7.313281E-14  3.300922E-14  6.680991E-14  2.278206E-15
         2   2 -9.476250E-05  6.319198E-14  4.268726E-14  4.176624E-14 -3.827430E-14 -2.131494E-15
         2   3 -9.476250E-05  9.599431E-15  2.097957E-14  2.749361E-14  1.983360E-13 -1.267001E-14
         2   4 -9.476250E-05 -4.434114E-14 -6.811109E-14  8.003572E-14  2.319560E-14 -5.669187E-15
         2   5 -9.476250E-05  1.875267E-14  4.174155E-14  3.828308E-15  5.794106E-14  2.345060E-14
         2   6 -9.476250E-05  4.585727E-14  3.525811E-14  7.388445E-14  1.455112E-13 -4.417150E-15
         2   7 -9.476250E-05 -2.212732E-13 -1.680380E-13  1.428744E-14 -4.415937E-14  8.502380E-15
         2   8 -9.476250E-05 -2.193022E-13 -2.331666E-13  1.193716E-13  1.309810E-13 -7.954844E-15
         3   1 -9.476250E-05  1.129851E-13  3.544858E-14  5.168165E-14 -1.878120E-13  4.352560E-15
         3   2 -9.476250E-05  2.726511E-15  1.128455E-13  8.670972E-14 -2.053261E-13  4.113250E-15
         3   3 -9.476250E-05  3.980758E-13  3.854075E-13  1.481611E-15 -1.510316E-13 -2.916382E-14
         3   4 -9.476250E-05  1.904125E-13  2.355269E-13 -5.106049E-14  3.393613E-13  6.085409E-14
         3   5 -9.476250E-05  8.011011E-14  9.641946E-14 -2.523480E-13 -5.667710E-14  4.976035E-14
         3   6 -9.476250E-05  4.121119E-13  3.633565E-13 -1.822919E-13 -4.134991E-15 -4.138998E-14
         3   7 -9.476250E-05 -8.140710E-14 -2.294849E-16 -1.761880E-13 -4.075159E-14  1.624398E-14
         3   8 -9.476250E-05  1.531900E-13  3.943004E-14  3.398045E-14  9.936070E-14  1.535086E-14

 strains (elem, integ.pnt.,exx,eyy,ezz,exy,exz,eyz) forset EALL and time  0.5527813E+00

         1   1 -4.512500E-10  1.353750E-10  1.353750E-10 -2.463770E-26 -1.373249E-26  9.693523E-27
         1   2 -4.512500E-10  1.353750E-10  1.353750E-10 -8.926119E-26 -7.835598E-26 -1.615587E-26
         1   3 -4.512500E-10  1.353750E-10  1.353750E-10 -4.200527E-26 -1.326841E-35  1.615587E-26
         1   4 -4.512500E-10  1.353750E-10  1.353750E-10 -1.066288E-25  4.200527E-26  1.857925E-26
         1   5 -4.512500E-10  1.353750E-10  1.353750E-10  3.392733E-26 -6.462349E-27 -6.462349E-27
         1   6 -4.512500E-10  1.353750E-10  1.353750E-10  1.308626E-25 -7.108583E-26 -8.804950E-26
         1   7 -4.512500E-10  1.353750E-10  1.353750E-10  3.877409E-26 -5.492996E-26  1.292470E-26
         1   8 -4.512500E-10  1.353750E-10  1.353750E-10  1.357093E-25 -4.549170E-35 -5.331438E-26
         2   1 -4.512500E-10  1.353750E-10  1.353750E-10  2.043428E-19  4.135852E-19  1.410318E-20
         2   2 -4.512500E-10  1.353750E-10  1.353750E-10  2.585529E-19 -2.369361E-19 -1.319496E-20
         2   3 -4.512500E-10  1.353750E-10  1.353750E-10  1.701986E-19  1.227794E-18 -7.843342E-20
         2   4 -4.512500E-10  1.353750E-10  1.353750E-10  4.954592E-19  1.435918E-19 -3.509497E-20
         2   5 -4.512500E-10  1.353750E-10  1.353750E-10  2.369905E-20  3.586827E-19  1.451704E-19
         2   6 -4.512500E-10  1.353750E-10  1.353750E-10  4.573799E-19  9.007838E-19 -2.734426E-20
         2   7 -4.512500E-10  1.353750E-10  1.353750E-10  8.844605E-20 -2.733676E-19  5.263378E-20
         2   8 -4.512500E-10  1.353750E-10  1.353750E-10  7.389674E-19  8.108346E-19 -4.924427E-20
         3   1 -4.512500E-10  1.353750E-10  1.353750E-10  3.199340E-19 -1.162646E-18  2.694442E-20
         3   2 -4.512500E-10  1.353750E-10  1.353750E-10  5.367745E-19 -1.271066E-18  2.546298E-20
         3   3 -4.512500E-10  1.353750E-10  1.353750E-10  9.171879E-21 -9.349577E-19 -1.805379E-19
         3   4 -4.512500E-10  1.353750E-10  1.353750E-10 -3.160888E-19  2.100808E-18  3.767158E-19
         3   5 -4.512500E-10  1.353750E-10  1.353750E-10 -1.562155E-18 -3.508582E-19  3.080403E-19
         3   6 -4.512500E-10  1.353750E-10  1.353750E-10 -1.128474E-18 -2.559756E-20 -2.562237E-19
         3   7 -4.512500E-10  1.353750E-10  1.353750E-10 -1.090687E-18 -2.522717E-19  1.005579E-19
         3   8 -4.512500E-10  1.353750E-10  1.353750E-10  2.103551E-19  6.150900E-19  9.502914E-20

 displacements (vx,vy,vz) for set NALL and time  0.5617813E+00

         1  0.000000E+00  0.000000E+00  0.000000E+00
         2 -2.292985E-07  0.000000E+00  0.000000E+00
         3 -8.426719E+00  0.000000E+00  0.000000E+00
         4 -8.426719E+00  0.000000E+00  0.000000E+00
         5 -1.685344E+01  0.000000E+00  0.000000E+00
         6 -1.685344E+01  0.000000E+00  0.000000E+00
         7  0.000000E+00  6.878954E-08  0.000000E+00
         8 -2.292985E-07  6.878954E-08  0.000000E+00
         9 -8.426719E+00  6.878954E-08  0.000000E+00
        10 -8.426719E+00  6.878954E-08  0.000000E+00
        11 -1.685344E+01  6.878954E-08  0.000000E+00
        12 -1.685344E+01  6.878954E-08  0.000000E+00
        13  0.000000E+00  0.000000E+00  9.630535E-08
        14 -2.292985E-07  0.000000E+00  9.630535E-08
        15 -8.426719E+00  0.000000E+00  9.630535E-08
        16 -8.426719E+00  0.000000E+00  9.630535E-08
        17 -1.685344E+01  0.000000E+00  9.630535E-08
        18 -1.685344E+01  0.000000E+00  9.630535E-08
        19  0.000000E+00  6.878954E-08  9.630535E-08
        20 -2.292985E-07  6.878954E-08  9.630535E-08
        21 -8.426719E+00  6.878954E-08  9.630535E-08
        22 -8.426719E+00  6.878954E-08  9.630535E-08
        23 -1.685344E+01  6.878954E-08  9.630535E-08
        24 -1.685344E+01  6.878954E-08  9.630535E-08

 stresses (elem, integ.pnt.,sxx,syy,szz,sxy,sxz,syz) for set EALL and time  0.5617813E+00

         1   1 -9.630535E-05 -6.776264E-21 -6.776264E-21  2.414060E-21  1.957346E-21 -1.304897E-21
         1   2 -9.630535E-05 -1.355253E-20 -6.776264E-21  1.102638E-20  9.525750E-21  7.829384E-22
         1   3 -9.630535E-05  6.776264E-21  1.686540E-46 -2.348815E-21 -4.175671E-21 -4.697630E-21
         1   4 -9.630535E-05  3.440542E-46 -6.776264E-21  6.263507E-21 -5.219589E-21  6.785466E-21
         1   5 -9.630535E-05  6.776264E-21  6.776264E-21 -1.565877E-21  1.304897E-21 -2.870774E-21
         1   6 -9.630535E-05  2.710505E-20  2.032879E-20 -1.409289E-20  8.873302E-21 -2.348815E-21
         1   7 -9.630535E-05 -1.355253E-20 -1.355253E-20  6.263507E-21 -6.263507E-21 -4.175671E-21
         1   8 -9.630535E-05  6.776264E-21 -6.776264E-21 -6.263507E-21 -1.252701E-20  3.653712E-21
         2   1 -9.630535E-05  2.961378E-13  2.647517E-13 -4.326845E-15  3.340171E-15  3.646926E-15
         2   2 -9.630535E-05  2.645411E-13  2.698338E-13 -2.184088E-14 -1.017440E-13 -2.745807E-15
         2   3 -9.630535E-05  2.540782E-13  2.541829E-13 -1.614800E-14  6.237332E-14 -8.433002E-15
         2   4 -9.630535E-05  1.902151E-13  1.839765E-13 -2.490502E-14  6.237332E-14 -2.175636E-15
         2   5 -9.630535E-05  1.712686E-13  1.737063E-13 -1.379568E-13  1.246569E-14  2.569044E-14
         2   6 -9.630535E-05  2.016573E-13  2.053535E-13 -3.287255E-14 -1.380536E-14 -1.081766E-14
         2   7 -9.630535E-05  1.423445E-13  1.762729E-13 -1.320678E-13 -9.872881E-14  1.361051E-14
         2   8 -9.630535E-05  1.404668E-13  1.326318E-13  8.044492E-15  4.138347E-14 -1.024749E-14
         3   1 -9.630535E-05  2.278055E-13  1.210695E-13  3.966268E-13 -1.167023E-13  4.937315E-15
         3   2 -9.630535E-05  6.961157E-14  1.837970E-13  1.339163E-13  5.895916E-15 -5.134328E-15
         3   3 -9.630535E-05 -2.381529E-14 -4.570891E-14  3.318498E-13  2.587382E-13 -4.096336E-14
         3   4 -9.630535E-05 -3.134298E-13 -2.896293E-13  3.493638E-13  3.988504E-13  4.410787E-14
         3   5 -9.630535E-05 -1.021920E-13 -8.040608E-14  3.052691E-13 -5.274515E-14  6.432698E-14
         3   6 -9.630535E-05  2.058142E-13  1.821214E-13  1.651568E-13 -2.030468E-16 -6.840377E-14
         3   7 -9.630535E-05 -1.436444E-13 -3.701612E-14  3.736921E-13 -8.018834E-14  1.842631E-14
         3   8 -9.630535E-05  3.294125E-14 -8.113644E-14  9.346758E-14 -2.903568E-13 -1.916157E-14

 strains (elem, integ.pnt.,exx,eyy,ezz,exy,exz,eyz) forset EALL and time  0.5617813E+00

         1   1 -4.585969E-10  1.375791E-10  1.375791E-10  1.494418E-26  1.211690E-26 -8.077936E-27
         1   2 -4.585969E-10  1.375791E-10  1.375791E-10  6.825856E-26  5.896893E-26  4.846761E-27
         1   3 -4.585969E-10  1.375791E-10  1.375791E-10 -1.454028E-26 -2.584939E-26 -2.908057E-26
         1   4 -4.585969E-10  1.375791E-10  1.375791E-10  3.877409E-26 -3.231174E-26  4.200527E-26
         1   5 -4.585969E-10  1.375791E-10  1.375791E-10 -9.693523E-27  8.077936E-27 -1.777146E-26
         1   6 -4.585969E-10  1.375791E-10  1.375791E-10 -8.724171E-26  5.492996E-26 -1.454028E-26
         1   7 -4.585969E-10  1.375791E-10  1.375791E-10  3.877409E-26 -3.877409E-26 -2.584939E-26
         1   8 -4.585969E-10  1.375791E-10  1.375791E-10 -3.877409E-26 -7.754818E-26  2.261822E-26
         2   1 -4.585969E-10  1.375791E-10  1.375791E-10 -2.678523E-20  2.067725E-20  2.257621E-20
         2   2 -4.585969E-10  1.375791E-10  1.375791E-10 -1.352054E-19 -6.298441E-19 -1.699785E-20
         2   3 -4.585969E-10  1.375791E-10  1.375791E-10 -9.996383E-20  3.861206E-19 -5.220430E-20
         2   4 -4.585969E-10  1.375791E-10  1.375791E-10 -1.541739E-19  3.861206E-19 -1.346823E-20
         2   5 -4.585969E-10  1.375791E-10  1.375791E-10 -8.540181E-19  7.716855E-20  1.590360E-19
         2   6 -4.585969E-10  1.375791E-10  1.375791E-10 -2.034968E-19 -8.546177E-20 -6.696647E-20
         2   7 -4.585969E-10  1.375791E-10  1.375791E-10 -8.175625E-19 -6.111783E-19  8.425554E-20
         2   8 -4.585969E-10  1.375791E-10  1.375791E-10  4.979924E-20  2.561834E-19 -6.343685E-20
         3   1 -4.585969E-10  1.375791E-10  1.375791E-10  2.455309E-18 -7.224430E-19  3.056433E-20
         3   2 -4.585969E-10  1.375791E-10  1.375791E-10  8.290056E-19  3.649853E-20 -3.178393E-20
         3   3 -4.585969E-10  1.375791E-10  1.375791E-10  2.054308E-18  1.601712E-18 -2.535827E-19
         3   4 -4.585969E-10  1.375791E-10  1.375791E-10  2.162729E-18  2.469074E-18  2.730487E-19
         3   5 -4.585969E-10  1.375791E-10  1.375791E-10  1.889761E-18 -3.265176E-19  3.982147E-19
         3   6 -4.585969E-10  1.375791E-10  1.375791E-10  1.022400E-18 -1.256956E-21 -4.234519E-19
         3   7 -4.585969E-10  1.375791E-10  1.375791E-10  2.313332E-18 -4.964040E-19  1.140676E-19
         3   8 -4.585969E-10  1.375791E-10  1.375791E-10  5.786088E-19 -1.797447E-18 -1.186193E-19

 displacements (vx,vy,vz) for set NALL and time  0.5707813E+00

         1  0.000000E+00  0.000000E+00  0.000000E+00
         2 -2.329719E-07  0.000000E+00  0.000000E+00
         3 -8.561719E+00  0.000000E+00  0.000000E+00
         4 -8.561719E+00  0.000000E+00  0.000000E+00
         5 -1.712344E+01  0.000000E+00  0.000000E+00
         6 -1.712344E+01  0.000000E+00  0.000000E+00
         7  0.000000E+00  6.989158E-08  0.000000E+00
         8 -2.329719E-07  6.989158E-08  0.000000E+00
         9 -8.561719E+00  6.989158E-08  0.000000E+00
        10 -8.561719E+00  6.989158E-08  0.000000E+00
        11 -1.712344E+01  6.989158E-08  0.000000E+00
        12 -1.712344E+01  6.989158E-08  0.000000E+00
        13  0.000000E+00  0.000000E+00  9.784821E-08
        14 -2.329719E-07  0.000000E+00  9.784821E-08
        15 -8.561719E+00  0.000000E+00  9.784821E-08
        16 -8.561719E+00  0.000000E+00  9.784821E-08
        17 -1.712344E+01  0.000000E+00  9.784821E-08
        18 -1.712344E+01  0.000000E+00  9.784821E-08
        19  0.000000E+00  6.989158E-08  9.784821E-08
        20 -2.329719E-07  6.989158E-08  9.784821E-08
        21 -8.561719E+00  6.989158E-08  9.784821E-08
        22 -8.561719E+00  6.989158E-08  9.784821E-08
        23 -1.712344E+01  6.989158E-08  9.784821E-08
        24 -1.712344E+01  6.989158E-08  9.784821E-08

 stresses (elem, integ.pnt.,sxx,syy,szz,sxy,sxz,syz) for set EALL and time  0.5707813E+00

         1   1 -9.784821E-05 -2.032879E-20 -1.355253E-20 -2.544550E-21 -2.609795E-22 -2.861171E-47
         1   2 -9.784821E-05 -6.776264E-21 -2.032879E-20 -7.764139E-21  4.436651E-21 -1.239652E-21
         1   3 -9.784821E-05 -6.776264E-21 -6.776264E-21 -1.826856E-21  1.565877E-21 -2.609795E-21
         1   4 -9.784821E-05  6.776264E-21 -6.776264E-21 -7.046445E-21  1.774660E-20 -3.784202E-21
         1   5 -9.784821E-05 -6.776264E-21  1.254786E-45  2.348815E-21 -5.219589E-21  3.653712E-21
         1   6 -9.784821E-05  1.139469E-46 -1.355253E-20  1.278799E-20 -5.219589E-22 -2.153081E-21
         1   7 -9.784821E-05  2.032879E-20  2.710505E-20  4.175671E-21 -6.785466E-21  1.043918E-21
         1   8 -9.784821E-05  2.032879E-20 -2.408379E-45  1.461485E-20  8.351343E-21 -4.697630E-21
         2   1 -9.784821E-05  1.968972E-14  2.205723E-14  3.235765E-14 -1.781155E-13  1.555710E-15
         2   2 -9.784821E-05 -1.455400E-14 -9.206665E-15 -2.894147E-14 -1.343304E-13 -9.144480E-16
         2   3 -9.784821E-05  8.094023E-15  3.002869E-14  2.506194E-14 -8.396913E-14 -7.891021E-15
         2   4 -9.784821E-05 -5.816704E-14 -7.594236E-14  7.547903E-15 -8.396913E-14  1.277309E-14
         2   5 -9.784821E-05 -3.281948E-16  2.849016E-14  9.184403E-15 -1.862436E-13  1.525272E-14
         2   6 -9.784821E-05  7.878598E-14  4.580821E-14  1.142686E-13 -6.364534E-14 -1.710030E-14
         2   7 -9.784821E-05  6.688927E-14  1.152748E-13  3.427666E-14 -1.219801E-13  5.805986E-15
         2   8 -9.784821E-05  1.139861E-13  5.788568E-14  3.427666E-14  1.813216E-14 -3.412767E-15
         3   1 -9.784821E-05 -2.095810E-13 -2.301420E-13 -2.116824E-13  1.089453E-15  9.862453E-15
         3   2 -9.784821E-05 -2.208693E-13 -2.289055E-13  5.102809E-14 -1.039948E-13 -1.058808E-14
         3   3 -9.784821E-05  5.350742E-14  1.035064E-13 -2.158188E-13 -3.059773E-14 -1.258485E-14
         3   4 -9.784821E-05 -5.053548E-14 -1.116845E-13 -4.067846E-14  2.496268E-13 -2.336278E-15
         3   5 -9.784821E-05 -1.094044E-13 -6.711295E-14  1.421729E-14  4.065895E-15  5.925447E-14
         3   6 -9.784821E-05  2.973298E-14 -1.408304E-15  8.427343E-14 -2.411306E-13 -4.776706E-14
         3   7 -9.784821E-05 -1.615685E-13 -4.871711E-14  5.305966E-14  1.660323E-13  3.680718E-14
         3   8 -9.784821E-05 -1.151858E-13 -1.994400E-13 -1.699648E-14  9.597613E-14 -3.951526E-14

 strains (elem, integ.pnt.,exx,eyy,ezz,exy,exz,eyz) forset EALL and time  0.5707813E+00

         1   1 -4.659439E-10  1.397832E-10  1.397832E-10 -1.575197E-26 -1.615587E-27 -2.505717E-52
         1   2 -4.659439E-10  1.397832E-10  1.397832E-10 -4.806372E-26  2.746498E-26 -7.674039E-27
         1   3 -4.659439E-10  1.397832E-10  1.397832E-10 -1.130911E-26  9.693523E-27 -1.615587E-26
         1   4 -4.659439E-10  1.397832E-10  1.397832E-10 -4.362085E-26  1.098599E-25 -2.342601E-26
         1   5 -4.659439E-10  1.397832E-10  1.397832E-10  1.454028E-26 -3.231174E-26  2.261822E-26
         1   6 -4.659439E-10  1.397832E-10  1.397832E-10  7.916377E-26 -3.231174E-27 -1.332859E-26
         1   7 -4.659439E-10  1.397832E-10  1.397832E-10  2.584939E-26 -4.200527E-26  6.462349E-27
         1   8 -4.659439E-10  1.397832E-10  1.397832E-10  9.047288E-26  5.169879E-26 -2.908057E-26
         2   1 -4.659439E-10  1.397832E-10  1.397832E-10  2.003093E-19 -1.102619E-18  9.630583E-21
         2   2 -4.659439E-10  1.397832E-10  1.397832E-10 -1.791615E-19 -8.315689E-19 -5.660869E-21
         2   3 -4.659439E-10  1.397832E-10  1.397832E-10  1.551453E-19 -5.198089E-19 -4.884918E-20
         2   4 -4.659439E-10  1.397832E-10  1.397832E-10  4.672511E-20 -5.198089E-19  7.907150E-20
         2   5 -4.659439E-10  1.397832E-10  1.397832E-10  5.685583E-20 -1.152936E-18  9.442157E-20
         2   6 -4.659439E-10  1.397832E-10  1.397832E-10  7.073771E-19 -3.939950E-19 -1.058590E-19
         2   7 -4.659439E-10  1.397832E-10  1.397832E-10  2.121888E-19 -7.551150E-19  3.594182E-20
         2   8 -4.659439E-10  1.397832E-10  1.397832E-10  2.121888E-19  1.122467E-19 -2.112665E-20
         3   1 -4.659439E-10  1.397832E-10  1.397832E-10 -1.310415E-18  6.744235E-21  6.105328E-20
         3   2 -4.659439E-10  1.397832E-10  1.397832E-10  3.158882E-19 -6.437771E-19 -6.554526E-20
         3   3 -4.659439E-10  1.397832E-10  1.397832E-10 -1.336021E-18 -1.894145E-19 -7.790619E-20
         3   4 -4.659439E-10  1.397832E-10  1.397832E-10 -2.518190E-19  1.545309E-18 -1.446267E-20
         3   5 -4.659439E-10  1.397832E-10  1.397832E-10  8.801182E-20  2.516983E-20  3.668134E-19
         3   6 -4.659439E-10  1.397832E-10  1.397832E-10  5.216927E-19 -1.492713E-18 -2.957009E-19
         3   7 -4.659439E-10  1.397832E-10  1.397832E-10  3.284646E-19  1.027819E-18  2.278540E-19
         3   8 -4.659439E-10  1.397832E-10  1.397832E-10 -1.052163E-19  5.941379E-19 -2.446183E-19

 displacements (vx,vy,vz) for set NALL and time  0.5797813E+00

         1  0.000000E+00  0.000000E+00  0.000000E+00
         2 -2.366454E-07  0.000000E+00  0.000000E+00
         3 -8.696719E+00  0.000000E+00  0.000000E+00
         4 -8.696719E+00  0.000000E+00  0.000000E+00
         5 -1.739344E+01  0.000000E+00  0.000000E+00
         6 -1.739344E+01  0.000000E+00  0.000000E+00
         7  0.000000E+00  7.099362E-08  0.000000E+00
         8 -2.366454E-07  7.099362E-08  0.000000E+00
         9 -8.696719E+00  7.099362E-08  0.000000E+00
        10 -8.696719E+00  7.099362E-08  0.000000E+00
        11 -1.739344E+01  7.099362E-08  0.000000E+00
        12 -1.739344E+01  7.099362E-08  0.000000E+00
        13  0.000000E+00  0.000000E+00  9.939107E-08
        14 -2.366454E-07  0.000000E+00  9.939107E-08
        15 -8.696719E+00  0.000000E+00  9.939107E-08
        16 -8.696719E+00  0.000000E+00  9.939107E-08
        17 -1.739344E+01  0.000000E+00  9.939107E-08
        18 -1.739344E+01  0.000000E+00  9.939107E-08
        19  0.000000E+00  7.099362E-08  9.939107E-08
        20 -2.366454E-07  7.099362E-08  9.939107E-08
        21 -8.696719E+00  7.099362E-08  9.939107E-08
        22 -8.696719E+00  7.099362E-08  9.939107E-08
        23 -1.739344E+01  7.099362E-08  9.939107E-08
        24 -1.739344E+01  7.099362E-08  9.939107E-08

 stresses (elem, integ.pnt.,sxx,syy,szz,sxy,sxz,syz) for set EALL and time  0.5797813E+00

         1   1 -9.939107E-05 -6.776264E-21 -6.776264E-21 -2.609795E-22  3.914692E-21 -7.829384E-22
         1   2 -9.939107E-05 -3.388132E-20 -1.355253E-20  1.070016E-20  8.351343E-21 -3.392733E-21
         1   3 -9.939107E-05  1.355253E-20  6.776264E-21 -1.122212E-20 -3.653712E-21 -5.219589E-22
         1   4 -9.939107E-05 -2.710505E-20 -3.388132E-20 -2.609795E-22  4.697630E-21  6.263507E-21
         1   5 -9.939107E-05  6.776264E-21  6.776264E-21  3.653712E-21  6.524486E-21 -2.348815E-21
         1   6 -9.939107E-05  2.032879E-20  2.032879E-20  1.409289E-20  1.096114E-20 -2.218325E-20
         1   7 -9.939107E-05  1.355253E-20  6.776264E-21  7.307425E-21 -1.670269E-20 -3.131754E-21
         1   8 -9.939107E-05  2.032879E-20 -6.776264E-21  1.774660E-20 -8.351343E-21 -1.252701E-20
         2   1 -9.939107E-05  6.700434E-14  2.828921E-14 -7.083311E-15 -3.054295E-14  6.555083E-15
         2   2 -9.939107E-05  1.240129E-14  2.989521E-14 -1.034105E-13 -2.178593E-14 -4.626181E-15
         2   3 -9.939107E-05 -1.712085E-13 -1.597459E-13 -2.643527E-14 -8.633278E-14 -1.066047E-14
         2   4 -9.939107E-05 -2.865853E-13 -2.999454E-13 -7.022036E-14  1.875143E-14  4.332674E-15
         2   5 -9.939107E-05  7.459681E-14  8.408525E-14 -1.337829E-13 -1.828937E-14  4.167946E-14
         2   6 -9.939107E-05  1.482484E-13  1.406575E-13 -9.875482E-14 -7.083148E-14 -2.622400E-14
         2   7 -9.939107E-05  7.145855E-15  6.681195E-14 -1.164907E-13  7.936703E-14  2.446390E-14
         2   8 -9.939107E-05  2.002364E-14 -1.842126E-14 -4.643455E-14 -6.074525E-14 -1.726514E-14
         3   1 -9.939107E-05  5.137291E-14  4.326458E-14  1.031131E-16 -2.044197E-13  1.838562E-14
         3   2 -9.939107E-05  6.918669E-14  8.295197E-14  8.767329E-14  9.331895E-14 -1.233238E-14
         3   3 -9.939107E-05 -3.176209E-14  5.945135E-14  3.848231E-16  9.799394E-14 -9.091736E-16
         3   4 -9.939107E-05 -1.540648E-13 -2.277997E-13  3.848231E-16  3.782185E-13  1.522507E-14
         3   5 -9.939107E-05 -2.007979E-13 -1.548808E-13 -2.561127E-13 -1.887137E-13  8.791086E-14
         3   6 -9.939107E-05  4.659187E-14 -1.680371E-14  9.416801E-14  3.896874E-14 -7.358252E-14
         3   7 -9.939107E-05  1.889461E-13  3.341849E-13 -1.902378E-13 -1.707550E-14  6.861607E-14
         3   8 -9.939107E-05  2.962194E-13  1.453236E-13  1.993058E-14  1.930929E-13 -4.602507E-14

 strains (elem, integ.pnt.,exx,eyy,ezz,exy,exz,eyz) forset EALL and time  0.5797813E+00

         1   1 -4.732908E-10  1.419872E-10  1.419872E-10 -1.615587E-27  2.423381E-26 -4.846761E-27
         1   2 -4.732908E-10  1.419872E-10  1.419872E-10  6.623907E-26  5.169879E-26 -2.100263E-26
         1   3 -4.732908E-10  1.419872E-10  1.419872E-10 -6.947025E-26 -2.261822E-26 -3.231174E-27
         1   4 -4.732908E-10  1.419872E-10  1.419872E-10 -1.615587E-27  2.908057E-26  3.877409E-26
         1   5 -4.732908E-10  1.419872E-10  1.419872E-10  2.261822E-26  4.038968E-26 -1.454028E-26
         1   6 -4.732908E-10  1.419872E-10  1.419872E-10  8.724171E-26  6.785466E-26 -1.373249E-25
         1   7 -4.732908E-10  1.419872E-10  1.419872E-10  4.523644E-26 -1.033976E-25 -1.938705E-26
         1   8 -4.732908E-10  1.419872E-10  1.419872E-10  1.098599E-25 -5.169879E-26 -7.754818E-26
         2   1 -4.732908E-10  1.419872E-10  1.419872E-10 -4.384907E-20 -1.890754E-19  4.057908E-20
         2   2 -4.732908E-10  1.419872E-10  1.419872E-10 -6.401603E-19 -1.348653E-19 -2.863826E-20
         2   3 -4.732908E-10  1.419872E-10  1.419872E-10 -1.636469E-19 -5.344410E-19 -6.599339E-20
         2   4 -4.732908E-10  1.419872E-10  1.419872E-10 -4.346975E-19  1.160803E-19  2.682132E-20
         2   5 -4.732908E-10  1.419872E-10  1.419872E-10 -8.281798E-19 -1.132199E-19  2.580157E-19
         2   6 -4.732908E-10  1.419872E-10  1.419872E-10 -6.113394E-19 -4.384806E-19 -1.623390E-19
         2   7 -4.732908E-10  1.419872E-10  1.419872E-10 -7.211328E-19  4.913197E-19  1.514432E-19
         2   8 -4.732908E-10  1.419872E-10  1.419872E-10 -2.874520E-19 -3.760420E-19 -1.068794E-19
         3   1 -4.732908E-10  1.419872E-10  1.419872E-10  6.383193E-22 -1.265455E-18  1.138157E-19
         3   2 -4.732908E-10  1.419872E-10  1.419872E-10  5.427394E-19  5.776887E-19 -7.634330E-20
         3   3 -4.732908E-10  1.419872E-10  1.419872E-10  2.382238E-21  6.066292E-19 -5.628218E-21
         3   4 -4.732908E-10  1.419872E-10  1.419872E-10  2.382238E-21  2.341353E-18  9.425043E-20
         3   5 -4.732908E-10  1.419872E-10  1.419872E-10 -1.585460E-18 -1.168228E-18  5.442101E-19
         3   6 -4.732908E-10  1.419872E-10  1.419872E-10  5.829448E-19  2.412350E-19 -4.555108E-19
         3   7 -4.732908E-10  1.419872E-10  1.419872E-10 -1.177663E-18 -1.057055E-19  4.247661E-19
         3   8 -4.732908E-10  1.419872E-10  1.419872E-10  1.233798E-19  1.195337E-18 -2.849171E-19

 displacements (vx,vy,vz) for set NALL and time  0.5887813E+00

         1  0.000000E+00  0.000000E+00  0.000000E+00
         2 -2.403189E-07  0.000000E+00  0.000000E+00
         3 -8.831719E+00  0.000000E+00  0.000000E+00
         4 -8.831719E+00  0.000000E+00  0.000000E+00
         5 -1.766344E+01  0.000000E+00  0.000000E+00
         6 -1.766344E+01  0.000000E+00  0.000000E+00
         7  0.000000E+00  7.209566E-08  0.000000E+00
         8 -2.403189E-07  7.209566E-08  0.000000E+00
         9 -8.831719E+00  7.209566E-08  0.000000E+00
        10 -8.831719E+00  7.209566E-08  0.000000E+00
        11 -1.766344E+01  7.209566E-08  0.000000E+00
        12 -1.766344E+01  7.209566E-08  0.000000E+00
        13  0.000000E+00  0.000000E+00  1.009339E-07
        14 -2.403189E-07  0.000000E+00  1.009339E-07
        15 -8.831719E+00  0.000000E+00  1.009339E-07
        16 -8.831719E+00  0.000000E+00  1.009339E-07
        17 -1.766344E+01  0.000000E+00  1.009339E-07
        18 -1.766344E+01  0.000000E+00  1.009339E-07
        19  0.000000E+00  7.209566E-08  1.009339E-07
        20 -2.403189E-07  7.209566E-08  1.009339E-07
        21 -8.831719E+00  7.209566E-08  1.009339E-07
        22 -8.831719E+00  7.209566E-08  1.009339E-07
        23 -1.766344E+01  7.209566E-08  1.009339E-07
        24 -1.766344E+01  7.209566E-08  1.009339E-07

 stresses (elem, integ.pnt.,sxx,syy,szz,sxy,sxz,syz) for set EALL and time  0.5887813E+00

         1   1 -1.009339E-04 -6.776264E-21 -6.776264E-21 -3.914692E-22 -5.219589E-22 -1.264905E-47
         1   2 -1.009339E-04 -1.509454E-46  6.776264E-21  1.304897E-22 -1.043918E-21 -5.089099E-21
         1   3 -1.009339E-04 -1.355253E-20 -1.355253E-20 -3.392733E-21 -2.609795E-21  2.609795E-21
         1   4 -1.009339E-04 -2.032879E-20 -4.065758E-20 -2.870774E-21  5.219589E-21 -1.565877E-21
         1   5 -1.009339E-04  6.776264E-21 -1.355253E-20  4.175671E-21  1.565877E-21 -1.565877E-21
         1   6 -1.009339E-04 -6.776264E-21 -6.776264E-21  2.087836E-20  1.043918E-21 -2.335766E-20
         1   7 -1.009339E-04  3.388132E-20  1.355253E-20  4.175671E-21 -1.618073E-20 -1.173118E-45
         1   8 -1.009339E-04  2.032879E-20 -1.355253E-20  2.087836E-20 -8.351343E-21 -1.983444E-20
         2   1 -1.009339E-04 -2.481612E-14 -2.326281E-14 -2.808873E-13  3.072080E-14  8.510837E-15
         2   2 -1.009339E-04 -4.376168E-14 -5.539799E-14 -6.627507E-16  8.326291E-14 -4.640598E-15
         2   3 -1.009339E-04  1.493888E-13  1.905610E-13 -2.826980E-13 -2.030110E-14  4.029653E-15
         2   4 -1.009339E-04  8.362617E-14  4.918595E-14  4.131167E-14 -2.304695E-13 -1.356211E-15
         2   5 -1.009339E-04 -5.990945E-14 -4.580882E-14 -1.367957E-13  1.895312E-14  3.624406E-14
         2   6 -1.009339E-04 -4.080372E-14 -6.163630E-14  3.834467E-14 -5.986003E-14 -2.060333E-14
         2   7 -1.009339E-04 -3.019528E-14  2.352423E-14 -1.277345E-13  6.434755E-14  3.176287E-14
         2   8 -1.009339E-04 -5.790664E-14 -1.015431E-13  8.243387E-14 -7.576473E-14 -1.731894E-14
         3   1 -1.009339E-04  1.236021E-13  1.906192E-13 -1.808403E-13  8.814695E-14  3.260773E-14
         3   2 -1.009339E-04  4.569983E-13  4.343707E-13  1.694404E-13 -3.445129E-14 -2.538800E-14
         3   3 -1.009339E-04 -1.799858E-13 -2.735952E-14 -1.007144E-13 -3.089070E-13  6.176732E-14
         3   4 -1.009339E-04  1.649591E-14 -1.030752E-13 -1.182284E-13 -9.873857E-14 -2.688882E-14
         3   5 -1.009339E-04 -3.114790E-13 -3.261088E-13  1.361665E-14 -1.426526E-13  9.253412E-14
         3   6 -1.009339E-04 -1.283189E-13 -1.467442E-13 -1.264956E-13  1.497373E-14 -9.324848E-14
         3   7 -1.009339E-04  1.730646E-13  2.440440E-13  5.081802E-14  1.731803E-13  1.216937E-13
         3   8 -1.009339E-04  2.193103E-13  1.039414E-13 -2.294065E-13  1.731803E-13 -9.474931E-14

 strains (elem, integ.pnt.,exx,eyy,ezz,exy,exz,eyz) forset EALL and time  0.5887813E+00

         1   1 -4.806377E-10  1.441913E-10  1.441913E-10 -2.423381E-27 -3.231174E-27 -8.352390E-53
         1   2 -4.806377E-10  1.441913E-10  1.441913E-10  8.077936E-28 -6.462349E-27 -3.150395E-26
         1   3 -4.806377E-10  1.441913E-10  1.441913E-10 -2.100263E-26 -1.615587E-26  1.615587E-26
         1   4 -4.806377E-10  1.441913E-10  1.441913E-10 -1.777146E-26  3.231174E-26 -9.693523E-27
         1   5 -4.806377E-10  1.441913E-10  1.441913E-10  2.584939E-26  9.693523E-27 -9.693523E-27
         1   6 -4.806377E-10  1.441913E-10  1.441913E-10  1.292470E-25  6.462349E-27 -1.445950E-25
         1   7 -4.806377E-10  1.441913E-10  1.441913E-10  2.584939E-26 -1.001664E-25  2.004574E-51
         1   8 -4.806377E-10  1.441913E-10  1.441913E-10  1.292470E-25 -5.169879E-26 -1.227846E-25
         2   1 -4.806377E-10  1.441913E-10  1.441913E-10 -1.738826E-18  1.901764E-19  5.268613E-20
         2   2 -4.806377E-10  1.441913E-10  1.441913E-10 -4.102743E-21  5.154370E-19 -2.872751E-20
         2   3 -4.806377E-10  1.441913E-10  1.441913E-10 -1.750035E-18 -1.256735E-19  2.494547E-20
         2   4 -4.806377E-10  1.441913E-10  1.441913E-10  2.557389E-19 -1.426716E-18 -8.395592E-21
         2   5 -4.806377E-10  1.441913E-10  1.441913E-10 -8.468304E-19  1.173289E-19  2.243680E-19
         2   6 -4.806377E-10  1.441913E-10  1.441913E-10  2.373718E-19 -3.705621E-19 -1.275444E-19
         2   7 -4.806377E-10  1.441913E-10  1.441913E-10 -7.907377E-19  3.983420E-19  1.966273E-19
         2   8 -4.806377E-10  1.441913E-10  1.441913E-10  5.103049E-19 -4.690198E-19 -1.072125E-19
         3   1 -4.806377E-10  1.441913E-10  1.441913E-10 -1.119488E-18  5.456716E-19  2.018574E-19
         3   2 -4.806377E-10  1.441913E-10  1.441913E-10  1.048917E-18 -2.132699E-19 -1.571638E-19
         3   3 -4.806377E-10  1.441913E-10  1.441913E-10 -6.234698E-19 -1.912281E-18  3.823691E-19
         3   4 -4.806377E-10  1.441913E-10  1.441913E-10 -7.318900E-19 -6.112388E-19 -1.664546E-19
         3   5 -4.806377E-10  1.441913E-10  1.441913E-10  8.429353E-20 -8.830874E-19  5.728303E-19
         3   6 -4.806377E-10  1.441913E-10  1.441913E-10 -7.830682E-19  9.269451E-20 -5.772525E-19
         3   7 -4.806377E-10  1.441913E-10  1.441913E-10  3.145877E-19  1.072068E-18  7.533420E-19
         3   8 -4.806377E-10  1.441913E-10  1.441913E-10 -1.420136E-18  1.072068E-18 -5.865433E-19

 displacements (vx,vy,vz) for set NALL and time  0.5977813E+00

         1  0.000000E+00  0.000000E+00  0.000000E+00
         2 -2.439923E-07  0.000000E+00  0.000000E+00
         3 -8.966719E+00  0.000000E+00  0.000000E+00
         4 -8.966719E+00  0.000000E+00  0.000000E+00
         5 -1.793344E+01  0.000000E+00  0.000000E+00
         6 -1.793344E+01  0.000000E+00  0.000000E+00
         7  0.000000E+00  7.319770E-08  0.000000E+00
         8 -2.439923E-07  7.319770E-08  0.000000E+00
         9 -8.966719E+00  7.319770E-08  0.000000E+00
        10 -8.966719E+00  7.319770E-08  0.000000E+00
        11 -1.793344E+01  7.319770E-08  0.000000E+00
        12 -1.793344E+01  7.319770E-08  0.000000E+00
        13  0.000000E+00  0.000000E+00  1.024768E-07
        14 -2.439923E-07  0.000000E+00  1.024768E-07
        15 -8.966719E+00  0.000000E+00  1.024768E-07
        16 -8.966719E+00  0.000000E+00  1.024768E-07
        17 -1.793344E+01  0.000000E+00  1.024768E-07
        18 -1.793344E+01  0.000000E+00  1.024768E-07
        19  0.000000E+00  7.319770E-08  1.024768E-07
        20 -2.439923E-07  7.319770E-08  1.024768E-07
        21 -8.966719E+00  7.319770E-08  1.024768E-07
        22 -8.966719E+00  7.319770E-08  1.024768E-07
        23 -1.793344E+01  7.319770E-08  1.024768E-07
        24 -1.793344E+01  7.319770E-08  1.024768E-07

 stresses (elem, integ.pnt.,sxx,syy,szz,sxy,sxz,syz) for set EALL and time  0.5977813E+00

         1   1 -1.024768E-04 -6.776264E-21 -6.776264E-21  3.653712E-21 -4.306161E-21 -2.609795E-22
         1   2 -1.024768E-04  4.065758E-20 -6.776264E-21  7.829384E-22  3.914692E-22  6.981201E-21
         1   3 -1.024768E-04 -1.355253E-20 -1.355253E-20  1.774660E-20  6.785466E-21 -3.131754E-21
         1   4 -1.024768E-04  8.131516E-20  8.131516E-20  1.487583E-20  6.785466E-21 -1.252701E-20
         1   5 -1.024768E-04 -1.355253E-20 -6.776264E-21 -8.612322E-21 -2.244423E-20  2.870774E-21
         1   6 -1.024768E-04 -6.776264E-20 -6.098637E-20 -2.009542E-20 -1.774660E-20  4.508420E-20
         1   7 -1.024768E-04 -2.710505E-20 -2.032879E-20 -1.774660E-20  2.401011E-20 -1.043918E-21
         1   8 -1.024768E-04 -3.388132E-20  2.032879E-20 -2.922970E-20  2.505403E-20  2.557599E-20
         2   1 -1.024768E-04  4.173742E-13  3.967108E-13  2.066097E-13  4.192428E-14 -2.576947E-15
         2   2 -1.024768E-04  4.035316E-13  4.292288E-13  1.453106E-13  1.732795E-13  3.293426E-15
         2   3 -1.024768E-04 -7.721457E-15 -3.472997E-14  1.968871E-13  1.498629E-13 -5.175751E-15
         2   4 -1.024768E-04 -1.320858E-14  1.728413E-14  1.443450E-13 -1.303617E-13  8.934385E-15
         2   5 -1.024768E-04  4.571822E-13  4.437954E-13  1.407759E-13  6.076508E-14 -7.018495E-15
         2   6 -1.024768E-04  4.837144E-13  4.936170E-13  1.057478E-13 -1.143753E-13  6.650277E-15
         2   7 -1.024768E-04  8.462863E-14  6.489676E-14  1.425890E-13  3.638982E-14 -9.617301E-15
         2   8 -1.024768E-04  1.195163E-13  1.342143E-13  2.476687E-15  2.465582E-13  1.229124E-14
         3   1 -1.024768E-04 -1.434691E-13 -3.118802E-13  2.486272E-13 -3.172952E-14  1.812732E-14
         3   2 -1.024768E-04 -3.334186E-13 -1.795927E-13  2.311132E-13 -3.644962E-13 -1.679049E-14
         3   3 -1.024768E-04  1.026022E-13  8.714568E-14  1.623018E-13 -3.168671E-13 -3.941615E-14
         3   4 -1.024768E-04 -3.067970E-13 -2.926159E-13  5.721756E-14 -1.767549E-13  3.508846E-14
         3   5 -1.024768E-04 -6.093295E-13 -6.166188E-13 -2.557499E-13  1.430369E-13  1.251956E-13
         3   6 -1.024768E-04 -2.631091E-13 -2.545442E-13 -4.558151E-14  9.049479E-14 -1.145419E-13
         3   7 -1.024768E-04 -3.895293E-13 -2.438640E-13 -1.888840E-13 -1.367519E-13  6.765208E-14
         3   8 -1.024768E-04 -2.627586E-13 -3.938386E-13 -1.188279E-13  7.341648E-14 -6.266294E-14

 strains (elem, integ.pnt.,exx,eyy,ezz,exy,exz,eyz) forset EALL and time  0.5977813E+00

         1   1 -4.879847E-10  1.463954E-10  1.463954E-10  2.261822E-26 -2.665719E-26 -1.615587E-27
         1   2 -4.879847E-10  1.463954E-10  1.463954E-10  4.846761E-27  2.423381E-27  4.321696E-26
         1   3 -4.879847E-10  1.463954E-10  1.463954E-10  1.098599E-25  4.200527E-26 -1.938705E-26
         1   4 -4.879847E-10  1.463954E-10  1.463954E-10  9.208847E-26  4.200527E-26 -7.754818E-26
         1   5 -4.879847E-10  1.463954E-10  1.463954E-10 -5.331438E-26 -1.389405E-25  1.777146E-26
         1   6 -4.879847E-10  1.463954E-10  1.463954E-10 -1.244002E-25 -1.098599E-25  2.790927E-25
         1   7 -4.879847E-10  1.463954E-10  1.463954E-10 -1.098599E-25  1.486340E-25 -6.462349E-27
         1   8 -4.879847E-10  1.463954E-10  1.463954E-10 -1.809458E-25  1.550964E-25  1.583275E-25
         2   1 -4.879847E-10  1.463954E-10  1.463954E-10  1.279012E-18  2.595313E-19 -1.595253E-20
         2   2 -4.879847E-10  1.463954E-10  1.463954E-10  8.995417E-19  1.072683E-18  2.038788E-20
         2   3 -4.879847E-10  1.463954E-10  1.463954E-10  1.218825E-18  9.277227E-19 -3.204036E-20
         2   4 -4.879847E-10  1.463954E-10  1.463954E-10  8.935642E-19 -8.070007E-19  5.530810E-20
         2   5 -4.879847E-10  1.463954E-10  1.463954E-10  8.714699E-19  3.761648E-19 -4.344783E-20
         2   6 -4.879847E-10  1.463954E-10  1.463954E-10  6.546295E-19 -7.080374E-19  4.116838E-20
         2   7 -4.879847E-10  1.463954E-10  1.463954E-10  8.826936E-19  2.252703E-19 -5.953567E-20
         2   8 -4.879847E-10  1.463954E-10  1.463954E-10  1.533187E-20  1.526313E-18  7.608860E-20
         3   1 -4.879847E-10  1.463954E-10  1.463954E-10  1.539121E-18 -1.964208E-19  1.122168E-19
         3   2 -4.879847E-10  1.463954E-10  1.463954E-10  1.430701E-18 -2.256405E-18 -1.039411E-19
         3   3 -4.879847E-10  1.463954E-10  1.463954E-10  1.004725E-18 -1.961558E-18 -2.440048E-19
         3   4 -4.879847E-10  1.463954E-10  1.463954E-10  3.542040E-19 -1.094197E-18  2.172143E-19
         3   5 -4.879847E-10  1.463954E-10  1.463954E-10 -1.583214E-18  8.854665E-19  7.750201E-19
         3   6 -4.879847E-10  1.463954E-10  1.463954E-10 -2.821713E-19  5.602059E-19 -7.090689E-19
         3   7 -4.879847E-10  1.463954E-10  1.463954E-10 -1.169282E-18 -8.465596E-19  4.187986E-19
         3   8 -4.879847E-10  1.463954E-10  1.463954E-10 -7.356011E-19  4.544830E-19 -3.879134E-19

 displacements (vx,vy,vz) for set NALL and time  0.6067813E+00

         1  0.000000E+00  0.000000E+00  0.000000E+00
         2 -2.476658E-07  0.000000E+00  0.000000E+00
         3 -9.101719E+00  0.000000E+00  0.000000E+00
         4 -9.101719E+00  0.000000E+00  0.000000E+00
         5 -1.820344E+01  0.000000E+00  0.000000E+00
         6 -1.820344E+01  0.000000E+00  0.000000E+00
         7  0.000000E+00  7.429974E-08  0.000000E+00
         8 -2.476658E-07  7.429974E-08  0.000000E+00
         9 -9.101719E+00  7.429974E-08  0.000000E+00
        10 -9.101719E+00  7.429974E-08  0.000000E+00
        11 -1.820344E+01  7.429974E-08  0.000000E+00
        12 -1.820344E+01  7.429974E-08  0.000000E+00
        13  0.000000E+00  0.000000E+00  1.040196E-07
        14 -2.476658E-07  0.000000E+00  1.040196E-07
        15 -9.101719E+00  0.000000E+00  1.040196E-07
        16 -9.101719E+00  0.000000E+00  1.040196E-07
        17 -1.820344E+01  0.000000E+00  1.040196E-07
        18 -1.820344E+01  0.000000E+00  1.040196E-07
        19  0.000000E+00  7.429974E-08  1.040196E-07
        20 -2.476658E-07  7.429974E-08  1.040196E-07
        21 -9.101719E+00  7.429974E-08  1.040196E-07
        22 -9.101719E+00  7.429974E-08  1.040196E-07
        23 -1.820344E+01  7.429974E-08  1.040196E-07
        24 -1.820344E+01  7.429974E-08  1.040196E-07

 stresses (elem, integ.pnt.,sxx,syy,szz,sxy,sxz,syz) for set EALL and time  0.6067813E+00

         1   1 -1.040196E-04 -1.355253E-20 -6.776264E-21  9.786730E-22  4.175671E-21 -7.829384E-22
         1   2 -1.040196E-04 -4.065758E-20  6.776264E-21  1.637646E-20  5.480569E-21 -4.632385E-21
         1   3 -1.040196E-04  4.944936E-45 -1.355253E-20 -1.148310E-20 -3.131754E-21  1.565877E-21
         1   4 -1.040196E-04 -4.065758E-20 -3.388132E-20  3.914692E-21 -3.131754E-21  7.176935E-21
         1   5 -1.040196E-04  1.355253E-20  6.776264E-21  4.436651E-21  1.800758E-20 -3.392733E-21
         1   6 -1.040196E-04  2.032879E-20  2.710505E-20  2.113934E-20  1.931248E-20 -2.955592E-20
         1   7 -1.040196E-04  3.388132E-20  1.355253E-20  5.219589E-21 -1.252701E-20 -1.590667E-45
         1   8 -1.040196E-04  2.032879E-20 -6.776264E-21  2.192227E-20 -1.252701E-20 -1.774660E-20
         2   1 -1.040196E-04 -1.003907E-13 -1.406655E-13 -4.288828E-14  7.873168E-14  9.584682E-15
         2   2 -1.040196E-04 -1.501565E-13 -1.136222E-13  1.234950E-13 -1.759551E-14 -8.221340E-15
         2   3 -1.040196E-04 -1.823079E-15  1.926955E-14 -6.436279E-14  2.590036E-13 -7.186661E-15
         2   4 -1.040196E-04 -1.391019E-13 -1.578843E-13 -2.933472E-14 -2.122099E-14  8.039207E-15
         2   5 -1.040196E-04 -3.401966E-13 -3.335116E-13 -1.310458E-13  1.024337E-13  5.254186E-14
         2   6 -1.040196E-04 -2.281061E-13 -2.371014E-13  9.066501E-15  1.549758E-13 -4.694300E-14
         2   7 -1.040196E-04 -3.992553E-13 -3.312029E-13 -1.062756E-13  3.411390E-13  3.577052E-14
         2   8 -1.040196E-04 -3.746778E-13 -4.389898E-13  6.886471E-14 -1.842820E-13 -3.068246E-14
         3   1 -1.040196E-04 -7.453809E-15 -1.742842E-13  2.458712E-13 -2.490065E-13 -8.901848E-15
         3   2 -1.040196E-04 -2.445649E-13 -1.018434E-13  2.633853E-13  1.713303E-13  1.642941E-14
         3   3 -1.040196E-04 -2.408262E-13 -3.685392E-13  1.520162E-13  2.033108E-14 -6.060439E-14
         3   4 -1.040196E-04 -5.098057E-13 -3.704578E-13  8.196007E-14 -2.598935E-13  6.367695E-14
         3   5 -1.040196E-04  3.171669E-13  2.951036E-13 -2.638723E-13 -1.637172E-13  1.848039E-14
         3   6 -1.040196E-04  5.649111E-13  5.753396E-13 -5.370392E-14 -2.360487E-14  1.406788E-14
         3   7 -1.040196E-04 -7.383183E-14 -5.677766E-14  6.102731E-14 -4.845725E-13 -3.322215E-14
         3   8 -1.040196E-04  1.420441E-13  1.490989E-13  1.310834E-13 -6.423564E-14  6.131541E-14

 strains (elem, integ.pnt.,exx,eyy,ezz,exy,exz,eyz) forset EALL and time  0.6067813E+00

         1   1 -4.953316E-10  1.485995E-10  1.485995E-10  6.058452E-27  2.584939E-26 -4.846761E-27
         1   2 -4.953316E-10  1.485995E-10  1.485995E-10  1.013781E-25  3.392733E-26 -2.867667E-26
         1   3 -4.953316E-10  1.485995E-10  1.485995E-10 -7.108583E-26 -1.938705E-26  9.693523E-27
         1   4 -4.953316E-10  1.485995E-10  1.485995E-10  2.423381E-26 -1.938705E-26  4.442865E-26
         1   5 -4.953316E-10  1.485995E-10  1.485995E-10  2.746498E-26  1.114755E-25 -2.100263E-26
         1   6 -4.953316E-10  1.485995E-10  1.485995E-10  1.308626E-25  1.195534E-25 -1.829652E-25
         1   7 -4.953316E-10  1.485995E-10  1.485995E-10  3.231174E-26 -7.754818E-26  2.672765E-51
         1   8 -4.953316E-10  1.485995E-10  1.485995E-10  1.357093E-25 -7.754818E-26 -1.098599E-25
         2   1 -4.953316E-10  1.485995E-10  1.485995E-10 -2.654989E-19  4.873866E-19  5.933375E-20
         2   2 -4.953316E-10  1.485995E-10  1.485995E-10  7.644932E-19 -1.089246E-19 -5.089401E-20
         2   3 -4.953316E-10  1.485995E-10  1.485995E-10 -3.984363E-19  1.603355E-18 -4.448885E-20
         2   4 -4.953316E-10  1.485995E-10  1.485995E-10 -1.815959E-19 -1.313680E-19  4.976652E-20
         2   5 -4.953316E-10  1.485995E-10  1.485995E-10 -8.112358E-19  6.341133E-19  3.252592E-19
         2   6 -4.953316E-10  1.485995E-10  1.485995E-10  5.612596E-20  9.593740E-19 -2.905996E-19
         2   7 -4.953316E-10  1.485995E-10  1.485995E-10 -6.578968E-19  2.111813E-18  2.214365E-19
         2   8 -4.953316E-10  1.485995E-10  1.485995E-10  4.263054E-19 -1.140794E-18 -1.899390E-19
         3   1 -4.953316E-10  1.485995E-10  1.485995E-10  1.522060E-18 -1.541469E-18 -5.510668E-20
         3   2 -4.953316E-10  1.485995E-10  1.485995E-10  1.630480E-18  1.060616E-18  1.017059E-19
         3   3 -4.953316E-10  1.485995E-10  1.485995E-10  9.410527E-19  1.258591E-19 -3.751701E-19
         3   4 -4.953316E-10  1.485995E-10  1.485995E-10  5.073719E-19 -1.608864E-18  3.941907E-19
         3   5 -4.953316E-10  1.485995E-10  1.485995E-10 -1.633495E-18 -1.013487E-18  1.144024E-19
         3   6 -4.953316E-10  1.485995E-10  1.485995E-10 -3.324529E-19 -1.461254E-19  8.708685E-20
         3   7 -4.953316E-10  1.485995E-10  1.485995E-10  3.777881E-19 -2.999734E-18 -2.056609E-19
         3   8 -4.953316E-10  1.485995E-10  1.485995E-10  8.114690E-19 -3.976492E-19  3.795716E-19

 displacements (vx,vy,vz) for set NALL and time  0.6157813E+00

         1  0.000000E+00  0.000000E+00  0.000000E+00
         2 -2.513393E-07  0.000000E+00  0.000000E+00
         3 -9.236719E+00  0.000000E+00  0.000000E+00
         4 -9.236719E+00  0.000000E+00  0.000000E+00
         5 -1.847344E+01  0.000000E+00  0.000000E+00
         6 -1.847344E+01  0.000000E+00  0.000000E+00
         7  0.000000E+00  7.540178E-08  0.000000E+00
         8 -2.513393E-07  7.540178E-08  0.000000E+00
         9 -9.236719E+00  7.540178E-08  0.000000E+00
        10 -9.236719E+00  7.540178E-08  0.000000E+00
        11 -1.847344E+01  7.540178E-08  0.000000E+00
        12 -1.847344E+01  7.540178E-08  0.000000E+00
        13  0.000000E+00  0.000000E+00  1.055625E-07
        14 -2.513393E-07  0.000000E+00  1.055625E-07
        15 -9.236719E+00  0.000000E+00  1.055625E-07
        16 -9.236719E+00  0.000000E+00  1.055625E-07
        17 -1.847344E+01  0.000000E+00  1.055625E-07
        18 -1.847344E+01  0.000000E+00  1.055625E-07
        19  0.000000E+00  7.540178E-08  1.055625E-07
        20 -2.513393E-07  7.540178E-08  1.055625E-07
        21 -9.236719E+00  7.540178E-08  1.055625E-07
        22 -9.236719E+00  7.540178E-08  1.055625E-07
        23 -1.847344E+01  7.540178E-08  1.055625E-07
        24 -1.847344E+01  7.540178E-08  1.055625E-07

 stresses (elem, integ.pnt.,sxx,syy,szz,sxy,sxz,syz) for set EALL and time  0.6157813E+00

         1   1 -1.055625E-04 -1.355253E-20 -2.710505E-20 -1.043918E-21 -6.524487E-22 -5.219589E-22
         1   2 -1.055625E-04 -2.032879E-20 -2.032879E-20  1.826856E-21 -3.523223E-21 -2.544550E-21
         1   3 -1.055625E-04  2.924461E-45 -2.032879E-20 -9.656240E-21 -1.252701E-20  1.043918E-21
         1   4 -1.055625E-04 -4.743385E-20 -8.131516E-20 -6.785466E-21 -2.296619E-20  1.905150E-20
         1   5 -1.055625E-04  5.936622E-46 -2.032879E-20  3.653712E-21  1.826856E-21 -1.565877E-21
         1   6 -1.055625E-04  7.453890E-20  1.355253E-20 -1.565877E-21 -1.043918E-21 -2.942543E-20
         1   7 -1.055625E-04  1.241294E-44 -3.388132E-20  2.087836E-20 -3.758104E-20 -2.008888E-44
         1   8 -1.055625E-04  2.710505E-20 -7.453890E-20  1.565877E-20 -4.593238E-20 -7.829384E-21
         2   1 -1.055625E-04  2.381180E-13  2.182580E-13  2.918984E-14 -6.833250E-14  1.135532E-14
         2   2 -1.055625E-04  1.873372E-13  2.061052E-13  2.918790E-15 -1.579040E-14 -8.601295E-15
         2   3 -1.055625E-04  4.349726E-14  9.690968E-14  1.323951E-14  3.865258E-13 -8.912032E-15
         2   4 -1.055625E-04 -1.113006E-13 -1.579498E-13 -1.443868E-13  7.127313E-14  1.369150E-14
         2   5 -1.055625E-04  1.519435E-13  1.888321E-13  1.597111E-14 -6.362344E-14  6.264600E-14
         2   6 -1.055625E-04  3.097075E-13  2.660555E-13  1.597111E-14 -2.324315E-15 -5.439326E-14
         2   7 -1.055625E-04 -2.659812E-13 -1.558202E-13  5.960498E-14  1.392762E-14  4.237865E-14
         2   8 -1.055625E-04 -2.122343E-13 -3.213033E-13 -4.547923E-14 -9.115659E-14 -3.210047E-14
         3   1 -1.055625E-04  1.674372E-13  1.018833E-13  3.908071E-13 -7.472422E-14 -7.974980E-15
         3   2 -1.055625E-04 -1.285956E-13 -5.101533E-14  4.052642E-14  6.538806E-14  4.745487E-15
         3   3 -1.055625E-04  2.284667E-13  1.742293E-13  3.101304E-13 -2.949120E-13 -3.768458E-14
         3   4 -1.055625E-04 -9.689492E-14 -4.710320E-14  1.525041E-13  1.954809E-13  3.716239E-14
         3   5 -1.055625E-04  2.845707E-13  3.022037E-13  2.306106E-15  1.927469E-13 -5.343111E-17
         3   6 -1.055625E-04  2.929577E-13  2.797707E-13  2.306106E-15 -1.575338E-13 -1.470650E-14
         3   7 -1.055625E-04 -2.219454E-14  6.754891E-15  8.606508E-15 -5.481445E-14 -2.976303E-14
         3   8 -1.055625E-04 -4.313631E-14 -8.411192E-14  1.487188E-13  1.524169E-14  1.771040E-14

 strains (elem, integ.pnt.,exx,eyy,ezz,exy,exz,eyz) forset EALL and time  0.6157813E+00

         1   1 -5.026786E-10  1.508036E-10  1.508036E-10 -6.462349E-27 -4.038968E-27 -3.231174E-27
         1   2 -5.026786E-10  1.508036E-10  1.508036E-10  1.130911E-26 -2.181043E-26 -1.575197E-26
         1   3 -5.026786E-10  1.508036E-10  1.508036E-10 -5.977672E-26 -7.754818E-26  6.462349E-27
         1   4 -5.026786E-10  1.508036E-10  1.508036E-10 -4.200527E-26 -1.421717E-25  1.179379E-25
         1   5 -5.026786E-10  1.508036E-10  1.508036E-10  2.261822E-26  1.130911E-26 -9.693523E-27
         1   6 -5.026786E-10  1.508036E-10  1.508036E-10 -9.693523E-27 -6.462349E-27 -1.821574E-25
         1   7 -5.026786E-10  1.508036E-10  1.508036E-10  1.292470E-25 -2.326445E-25  3.675051E-51
         1   8 -5.026786E-10  1.508036E-10  1.508036E-10  9.693523E-26 -2.843433E-25 -4.846761E-26
         2   1 -5.026785E-10  1.508036E-10  1.508036E-10  1.806990E-19 -4.230107E-19  7.029486E-20
         2   2 -5.026785E-10  1.508036E-10  1.508036E-10  1.806870E-20 -9.775008E-20 -5.324611E-20
         2   3 -5.026786E-10  1.508036E-10  1.508036E-10  8.195885E-20  2.392779E-18 -5.516972E-20
         2   4 -5.026786E-10  1.508036E-10  1.508036E-10 -8.938231E-19  4.412146E-19  8.475690E-20
         2   5 -5.026785E-10  1.508036E-10  1.508036E-10  9.886875E-20 -3.938594E-19  3.878086E-19
         2   6 -5.026785E-10  1.508036E-10  1.508036E-10  9.886875E-20 -1.438862E-20 -3.367202E-19
         2   7 -5.026786E-10  1.508036E-10  1.508036E-10  3.689832E-19  8.621860E-20  2.623440E-19
         2   8 -5.026786E-10  1.508036E-10  1.508036E-10 -2.815381E-19 -5.643027E-19 -1.987172E-19
         3   1 -5.026786E-10  1.508036E-10  1.508036E-10  2.419282E-18 -4.625785E-19 -4.936893E-20
         3   2 -5.026786E-10  1.508036E-10  1.508036E-10  2.508778E-19  4.047832E-19  2.937682E-20
         3   3 -5.026786E-10  1.508036E-10  1.508036E-10  1.919855E-18 -1.825646E-18 -2.332855E-19
         3   4 -5.026786E-10  1.508036E-10  1.508036E-10  9.440730E-19  1.210120E-18  2.300529E-19
         3   5 -5.026785E-10  1.508036E-10  1.508036E-10  1.427590E-20  1.193195E-18 -3.307640E-22
         3   6 -5.026785E-10  1.508036E-10  1.508036E-10  1.427590E-20 -9.752092E-19 -9.104024E-20
         3   7 -5.026786E-10  1.508036E-10  1.508036E-10  5.327838E-20 -3.393276E-19 -1.842473E-19
         3   8 -5.026786E-10  1.508036E-10  1.508036E-10  9.206401E-19  9.435330E-20  1.096358E-19

 displacements (vx,vy,vz) for set NALL and time  0.6247813E+00

         1  0.000000E+00  0.000000E+00  0.000000E+00
         2 -2.550127E-07  0.000000E+00  0.000000E+00
         3 -9.371719E+00  0.000000E+00  0.000000E+00
         4 -9.371719E+00  0.000000E+00  0.000000E+00
         5 -1.874344E+01  0.000000E+00  0.000000E+00
         6 -1.874344E+01  0.000000E+00  0.000000E+00
         7  0.000000E+00  7.650382E-08  0.000000E+00
         8 -2.550127E-07  7.650382E-08  0.000000E+00
         9 -9.371719E+00  7.650382E-08  0.000000E+00
        10 -9.371719E+00  7.650382E-08  0.000000E+00
        11 -1.874344E+01  7.650382E-08  0.000000E+00
        12 -1.874344E+01  7.650382E-08  0.000000E+00
        13  0.000000E+00  0.000000E+00  1.071054E-07
        14 -2.550127E-07  0.000000E+00  1.071054E-07
        15 -9.371719E+00  0.000000E+00  1.071054E-07
        16 -9.371719E+00  0.000000E+00  1.071054E-07
        17 -1.874344E+01  0.000000E+00  1.071054E-07
        18 -1.874344E+01  0.000000E+00  1.071054E-07
        19  0.000000E+00  7.650382E-08  1.071054E-07
        20 -2.550127E-07  7.650382E-08  1.071054E-07
        21 -9.371719E+00  7.650382E-08  1.071054E-07
        22 -9.371719E+00  7.650382E-08  1.071054E-07
        23 -1.874344E+01  7.650382E-08  1.071054E-07
        24 -1.874344E+01  7.650382E-08  1.071054E-07

 stresses (elem, integ.pnt.,sxx,syy,szz,sxy,sxz,syz) for set EALL and time  0.6247813E+00

         1   1 -1.071054E-04 -1.355253E-20  6.796757E-46 -3.066509E-21  4.436651E-21 -5.219589E-22
         1   2 -1.071054E-04 -4.743385E-20  2.710505E-20 -4.567141E-22 -1.304897E-21 -1.957346E-21
         1   3 -1.071054E-04  6.776264E-21  6.776264E-21 -1.826856E-20 -3.653712E-21  2.609795E-21
         1   4 -1.071054E-04 -4.743385E-20 -1.355253E-20 -1.565877E-20 -7.829384E-21  1.448436E-20
         1   5 -1.071054E-04  6.776264E-21  1.355253E-20  2.609795E-21  2.035640E-20 -5.219589E-21
         1   6 -1.071054E-04  4.065758E-20  6.776264E-20  5.741548E-21  1.461485E-20 -2.583697E-20
         1   7 -1.071054E-04  6.776264E-21  8.635086E-46  6.263507E-21 -5.219589E-21 -2.087836E-21
         1   8 -1.071054E-04  1.355253E-20  8.392224E-45  9.395261E-21 -8.351343E-21 -9.395261E-21
         2   1 -1.071054E-04  9.498675E-15 -1.801537E-14  1.317284E-13 -1.022920E-13  5.530189E-15
         2   2 -1.071054E-04 -6.249585E-14 -3.330187E-14  3.540124E-14 -2.336473E-13 -1.864000E-15
         2   3 -1.071054E-04  6.913993E-14  8.611950E-14  1.088233E-13  1.222420E-13 -1.050658E-14
         2   4 -1.071054E-04 -6.333780E-14 -7.029450E-14  2.125314E-14  1.572701E-13  1.834894E-14
         2   5 -1.071054E-04 -1.478947E-13 -1.305057E-13 -1.299205E-13 -9.466353E-14  3.667572E-14
         2   6 -1.071054E-04 -4.226562E-14 -6.966786E-14  4.521986E-14  2.030751E-13 -2.716948E-14
         2   7 -1.071054E-04  9.564397E-14  1.575265E-13 -1.020760E-13  7.341945E-14  2.063895E-14
         2   8 -1.071054E-04  1.407898E-13  7.723686E-14 -3.201987E-14 -1.017209E-13 -6.956542E-15
         3   1 -1.071054E-04  1.325761E-13  7.431425E-14  2.616036E-13 -2.007831E-13 -6.757095E-15
         3   2 -1.071054E-04 -1.800806E-14  6.210730E-14  1.214913E-13 -4.315675E-14  1.795801E-14
         3   3 -1.071054E-04  4.607687E-14 -2.243317E-14  2.107302E-13 -2.619550E-13 -1.804412E-14
         3   4 -1.071054E-04 -7.850143E-14  2.604031E-14  1.932161E-13  1.826959E-14  4.992174E-14
         3   5 -1.071054E-04  1.035408E-13  7.688255E-14 -2.766823E-13 -1.751418E-13 -1.393080E-14
         3   6 -1.071054E-04  1.648853E-13  1.555022E-13 -1.365700E-13 -1.436976E-18  3.505648E-14
         3   7 -1.071054E-04 -1.143137E-13 -1.512201E-13 -2.670047E-13 -2.120415E-13 -2.521782E-14
         3   8 -1.071054E-04 -2.696336E-14 -1.192007E-14  1.321988E-14 -7.192924E-14  6.702021E-14

 strains (elem, integ.pnt.,exx,eyy,ezz,exy,exz,eyz) forset EALL and time  0.6247813E+00

         1   1 -5.100255E-10  1.530076E-10  1.530076E-10 -1.898315E-26  2.746498E-26 -3.231174E-27
         1   2 -5.100255E-10  1.530076E-10  1.530076E-10 -2.827278E-27 -8.077936E-27 -1.211690E-26
         1   3 -5.100255E-10  1.530076E-10  1.530076E-10 -1.130911E-25 -2.261822E-26  1.615587E-26
         1   4 -5.100255E-10  1.530076E-10  1.530076E-10 -9.693523E-26 -4.846761E-26  8.966509E-26
         1   5 -5.100255E-10  1.530076E-10  1.530076E-10  1.615587E-26  1.260158E-25 -3.231174E-26
         1   6 -5.100255E-10  1.530076E-10  1.530076E-10  3.554292E-26  9.047288E-26 -1.599431E-25
         1   7 -5.100255E-10  1.530076E-10  1.530076E-10  3.877409E-26 -3.231174E-26 -1.292470E-26
         1   8 -5.100255E-10  1.530076E-10  1.530076E-10  5.816114E-26 -5.169879E-26 -5.816114E-26
         2   1 -5.100255E-10  1.530076E-10  1.530076E-10  8.154617E-19 -6.332362E-19  3.423450E-20
         2   2 -5.100255E-10  1.530076E-10  1.530076E-10  2.191505E-19 -1.446388E-18 -1.153905E-20
         2   3 -5.100255E-10  1.530076E-10  1.530076E-10  6.736682E-19  7.567361E-19 -6.504074E-20
         2   4 -5.100255E-10  1.530076E-10  1.530076E-10  1.315671E-19  9.735766E-19  1.135887E-19
         2   5 -5.100255E-10  1.530076E-10  1.530076E-10 -8.042697E-19 -5.860123E-19  2.270402E-19
         2   6 -5.100255E-10  1.530076E-10  1.530076E-10  2.799324E-19  1.257131E-18 -1.681920E-19
         2   7 -5.100255E-10  1.530076E-10  1.530076E-10 -6.318991E-19  4.545014E-19  1.277649E-19
         2   8 -5.100255E-10  1.530076E-10  1.530076E-10 -1.982183E-19 -6.297008E-19 -4.306431E-20
         3   1 -5.100255E-10  1.530076E-10  1.530076E-10  1.619451E-18 -1.242943E-18 -4.182964E-20
         3   2 -5.100255E-10  1.530076E-10  1.530076E-10  7.520891E-19 -2.671608E-19  1.111686E-19
         3   3 -5.100255E-10  1.530076E-10  1.530076E-10  1.304520E-18 -1.621626E-18 -1.117017E-19
         3   4 -5.100255E-10  1.530076E-10  1.530076E-10  1.196100E-18  1.130975E-19  3.090394E-19
         3   5 -5.100255E-10  1.530076E-10  1.530076E-10 -1.712795E-18 -1.084211E-18 -8.623829E-20
         3   6 -5.100255E-10  1.530076E-10  1.530076E-10 -8.454335E-19 -8.895279E-24  2.170163E-19
         3   7 -5.100255E-10  1.530076E-10  1.530076E-10 -1.652886E-18 -1.312638E-18 -1.561103E-19
         3   8 -5.100255E-10  1.530076E-10  1.530076E-10  8.183735E-20 -4.452762E-19  4.148870E-19

 displacements (vx,vy,vz) for set NALL and time  0.6337813E+00

         1  0.000000E+00  0.000000E+00  0.000000E+00
         2 -2.586862E-07  0.000000E+00  0.000000E+00
         3 -9.506719E+00  0.000000E+00  0.000000E+00
         4 -9.506719E+00  0.000000E+00  0.000000E+00
         5 -1.901344E+01  0.000000E+00  0.000000E+00
         6 -1.901344E+01  0.000000E+00  0.000000E+00
         7  0.000000E+00  7.760586E-08  0.000000E+00
         8 -2.586862E-07  7.760586E-08  0.000000E+00
         9 -9.506719E+00  7.760586E-08  0.000000E+00
        10 -9.506719E+00  7.760586E-08  0.000000E+00
        11 -1.901344E+01  7.760586E-08  0.000000E+00
        12 -1.901344E+01  7.760586E-08  0.000000E+00
        13  0.000000E+00  0.000000E+00  1.086482E-07
        14 -2.586862E-07  0.000000E+00  1.086482E-07
        15 -9.506719E+00  0.000000E+00  1.086482E-07
        16 -9.506719E+00  0.000000E+00  1.086482E-07
        17 -1.901344E+01  0.000000E+00  1.086482E-07
        18 -1.901344E+01  0.000000E+00  1.086482E-07
        19  0.000000E+00  7.760586E-08  1.086482E-07
        20 -2.586862E-07  7.760586E-08  1.086482E-07
        21 -9.506719E+00  7.760586E-08  1.086482E-07
        22 -9.506719E+00  7.760586E-08  1.086482E-07
        23 -1.901344E+01  7.760586E-08  1.086482E-07
        24 -1.901344E+01  7.760586E-08  1.086482E-07

 stresses (elem, integ.pnt.,sxx,syy,szz,sxy,sxz,syz) for set EALL and time  0.6337813E+00

         1   1 -1.086482E-04 -2.710505E-20 -1.355253E-20  9.656240E-21  5.089099E-21 -1.565877E-21
         1   2 -1.086482E-04  2.032879E-20  2.032879E-20  2.975166E-20  1.944297E-20 -7.046445E-21
         1   3 -1.086482E-04  6.776264E-21  1.355253E-20  1.800758E-20  2.087836E-21 -6.263507E-21
         1   4 -1.086482E-04  5.421011E-20  4.743385E-20  3.810300E-20  3.131754E-21 -2.857725E-20
         1   5 -1.086482E-04  6.776264E-21  2.710505E-20 -6.524486E-21  9.656240E-21  2.609795E-21
         1   6 -1.086482E-04 -3.388132E-20  1.355253E-20 -5.480569E-21  2.401011E-20 -7.437915E-21
         1   7 -1.086482E-04 -6.776264E-21  1.355253E-20 -2.192227E-20  2.087836E-21 -1.043918E-21
         1   8 -1.086482E-04 -5.421011E-20 -1.355253E-20 -2.087836E-20  4.175671E-21 -2.896872E-20
         2   1 -1.086482E-04  5.455722E-14  1.571419E-14 -1.377239E-13  1.867162E-13  4.171449E-15
         2   2 -1.086482E-04  1.112798E-13  1.045665E-13  3.741641E-14  9.038904E-14 -6.236482E-15
         2   3 -1.086482E-04  5.161080E-15 -1.197327E-14 -1.311989E-13  2.871955E-13  3.719871E-16
         2   4 -1.086482E-04  4.840406E-14  4.542663E-14 -8.741380E-14 -6.308522E-14 -2.588995E-14
         2   5 -1.086482E-04 -2.973778E-14 -5.794231E-14 -5.735822E-15  2.183421E-13  1.936752E-14
         2   6 -1.086482E-04 -5.069983E-14 -2.383375E-15  9.934839E-14 -1.757236E-13 -3.621399E-15
         2   7 -1.086482E-04  3.908583E-14  3.258998E-14 -2.140638E-14  2.601584E-14  1.556806E-14
         2   8 -1.086482E-04  4.644160E-15  5.669643E-14  1.187059E-13  1.311001E-13 -2.327487E-14
         3   1 -1.086482E-04  4.528782E-14 -5.414933E-14  2.534251E-13  1.041560E-14 -2.762413E-14
         3   2 -1.086482E-04 -1.804845E-13 -9.283554E-14  2.359111E-13  1.680419E-13  3.609016E-14
         3   3 -1.086482E-04 -3.039119E-13 -4.486120E-13  1.802078E-13  4.125654E-14 -7.141065E-14
         3   4 -1.086482E-04 -4.394067E-13 -2.766506E-13  1.451797E-13 -2.879960E-14  8.211527E-14
         3   5 -1.086482E-04 -6.418192E-14 -4.101681E-14  1.922326E-14 -2.413530E-13 -5.930812E-14
         3   6 -1.086482E-04  1.501228E-13  1.089014E-13 -5.083288E-14  3.843465E-15  8.866519E-14
         3   7 -1.086482E-04 -3.082975E-13 -3.303952E-13  7.174217E-14 -1.262531E-13 -1.030946E-13
         3   8 -1.086482E-04 -3.715242E-15  3.017056E-14  1.417983E-13 -5.619691E-14  1.346903E-13

 strains (elem, integ.pnt.,exx,eyy,ezz,exy,exz,eyz) forset EALL and time  0.6337813E+00

         1   1 -5.173724E-10  1.552117E-10  1.552117E-10  5.977672E-26  3.150395E-26 -9.693523E-27
         1   2 -5.173724E-10  1.552117E-10  1.552117E-10  1.841769E-25  1.203612E-25 -4.362085E-26
         1   3 -5.173724E-10  1.552117E-10  1.552117E-10  1.114755E-25  1.292470E-26 -3.877409E-26
         1   4 -5.173724E-10  1.552117E-10  1.552117E-10  2.358757E-25  1.938705E-26 -1.769068E-25
         1   5 -5.173724E-10  1.552117E-10  1.552117E-10 -4.038968E-26  5.977672E-26  1.615587E-26
         1   6 -5.173724E-10  1.552117E-10  1.552117E-10 -3.392733E-26  1.486340E-25 -4.604423E-26
         1   7 -5.173724E-10  1.552117E-10  1.552117E-10 -1.357093E-25  1.292470E-26 -6.462349E-27
         1   8 -5.173724E-10  1.552117E-10  1.552117E-10 -1.292470E-25  2.584939E-26 -1.793302E-25
         2   1 -5.173724E-10  1.552117E-10  1.552117E-10 -8.525768E-19  1.155862E-18  2.582326E-20
         2   2 -5.173724E-10  1.552117E-10  1.552117E-10  2.316254E-19  5.595512E-19 -3.860679E-20
         2   3 -5.173724E-10  1.552117E-10  1.552117E-10 -8.121836E-19  1.777877E-18  2.302777E-21
         2   4 -5.173724E-10  1.552117E-10  1.552117E-10 -5.411330E-19 -3.905275E-19 -1.602711E-19
         2   5 -5.173724E-10  1.552117E-10  1.552117E-10 -3.550747E-20  1.351642E-18  1.198942E-19
         2   6 -5.173724E-10  1.552117E-10  1.552117E-10  6.150138E-19 -1.087813E-18 -2.241818E-20
         2   7 -5.173724E-10  1.552117E-10  1.552117E-10 -1.325157E-19  1.610505E-19  9.637370E-20
         2   8 -5.173724E-10  1.552117E-10  1.552117E-10  7.348461E-19  8.115718E-19 -1.440825E-19
         3   1 -5.173724E-10  1.552117E-10  1.552117E-10  1.568822E-18  6.447750E-20 -1.710065E-19
         3   2 -5.173724E-10  1.552117E-10  1.552117E-10  1.460402E-18  1.040259E-18  2.234153E-19
         3   3 -5.173724E-10  1.552117E-10  1.552117E-10  1.115572E-18  2.553976E-19 -4.420659E-19
         3   4 -5.173724E-10  1.552117E-10  1.552117E-10  8.987315E-19 -1.782832E-19  5.083326E-19
         3   5 -5.173724E-10  1.552117E-10  1.552117E-10  1.190011E-19 -1.494090E-18 -3.671455E-19
         3   6 -5.173724E-10  1.552117E-10  1.552117E-10 -3.146798E-19  2.379288E-20  5.488798E-19
         3   7 -5.173724E-10  1.552117E-10  1.552117E-10  4.441182E-19 -7.815665E-19 -6.382049E-19
         3   8 -5.173724E-10  1.552117E-10  1.552117E-10  8.777991E-19 -3.478856E-19  8.337971E-19

 displacements (vx,vy,vz) for set NALL and time  0.6427813E+00

         1  0.000000E+00  0.000000E+00  0.000000E+00
         2 -2.623597E-07  0.000000E+00  0.000000E+00
         3 -9.641719E+00  0.000000E+00  0.000000E+00
         4 -9.641719E+00  0.000000E+00  0.000000E+00
         5 -1.928344E+01  0.000000E+00  0.000000E+00
         6 -1.928344E+01  0.000000E+00  0.000000E+00
         7  0.000000E+00  7.870790E-08  0.000000E+00
         8 -2.623597E-07  7.870790E-08  0.000000E+00
         9 -9.641719E+00  7.870790E-08  0.000000E+00
        10 -9.641719E+00  7.870791E-08  0.000000E+00
        11 -1.928344E+01  7.870791E-08  0.000000E+00
        12 -1.928344E+01  7.870790E-08  0.000000E+00
        13  0.000000E+00  0.000000E+00  1.101911E-07
        14 -2.623597E-07  0.000000E+00  1.101911E-07
        15 -9.641719E+00  0.000000E+00  1.101911E-07
        16 -9.641719E+00  0.000000E+00  1.101911E-07
        17 -1.928344E+01  0.000000E+00  1.101911E-07
        18 -1.928344E+01  0.000000E+00  1.101911E-07
        19  0.000000E+00  7.870790E-08  1.101911E-07
        20 -2.623597E-07  7.870790E-08  1.101911E-07
        21 -9.641719E+00  7.870790E-08  1.101911E-07
        22 -9.641719E+00  7.870790E-08  1.101911E-07
        23 -1.928344E+01  7.870790E-08  1.101911E-07
        24 -1.928344E+01  7.870791E-08  1.101911E-07

 stresses (elem, integ.pnt.,sxx,syy,szz,sxy,sxz,syz) for set EALL and time  0.6427813E+00

         1   1 -1.101911E-04  6.776264E-21  1.355253E-20 -3.914692E-22 -9.525750E-21  1.043918E-21
         1   2 -1.101911E-04  6.776264E-20  4.065758E-20 -1.683318E-20 -3.170900E-20  3.784202E-21
         1   3 -1.101911E-04  6.327899E-45  6.776264E-21  1.330995E-20  7.307425E-21  2.609795E-21
         1   4 -1.101911E-04  8.131516E-20  8.809143E-20 -3.131754E-21  7.307425E-21 -1.070016E-20
         1   5 -1.101911E-04 -2.032879E-20 -2.032879E-20  1.826856E-21 -1.226603E-20  2.609795E-21
         1   6 -1.101911E-04 -5.421011E-20 -4.065758E-20  1.748562E-20 -3.444929E-20  3.092607E-20
         1   7 -1.101911E-04  2.032879E-20  6.776264E-21 -8.351343E-21  2.714186E-20  4.175671E-21
         1   8 -1.101911E-04 -6.776264E-21  4.743385E-20  7.307425E-21  2.714186E-20  1.644171E-20
         2   1 -1.101911E-04  1.284258E-13  1.489629E-13  4.334735E-15  9.436296E-14 -2.126519E-15
         2   2 -1.101911E-04  1.384921E-13  9.349949E-14  1.309175E-14 -2.471607E-13  3.507571E-15
         2   3 -1.101911E-04  2.446899E-13  2.626194E-13  1.617745E-14 -1.443492E-13 -6.110979E-15
         2   4 -1.101911E-04  2.737372E-13  2.514451E-13  3.369149E-14  3.079119E-14 -2.799896E-15
         2   5 -1.101911E-04  6.949541E-14  1.011890E-13  3.144342E-15  6.507195E-14 -3.951818E-15
         2   6 -1.101911E-04  6.817894E-14  4.084724E-14  3.144342E-15  1.526421E-13  1.939790E-14
         2   7 -1.101911E-04  1.726239E-13  2.017100E-13 -1.283774E-13  1.243000E-13 -7.936277E-15
         2   8 -1.101911E-04  1.902885E-13  1.856573E-13 -9.334937E-14 -2.259807E-13  1.309044E-14
         3   1 -1.101911E-04 -1.138624E-14  2.659846E-14  2.740076E-13  3.118156E-13 -4.525882E-15
         3   2 -1.101911E-04 -1.834287E-13 -2.616006E-13 -4.124502E-14 -4.412879E-13  1.499822E-14
         3   3 -1.101911E-04  9.316714E-14  1.654721E-13  2.570226E-13 -3.223850E-13 -4.091504E-14
         3   4 -1.101911E-04 -8.969220E-14 -1.479662E-13  2.219945E-13  9.795189E-14  4.204563E-14
         3   5 -1.101911E-04 -2.159641E-13 -7.608982E-14  2.629020E-14  2.767831E-13  1.949833E-14
         3   6 -1.101911E-04 -7.716753E-14 -2.310721E-13 -2.539344E-13  3.118112E-13  2.892673E-14
         3   7 -1.101911E-04 -7.156450E-13 -5.414503E-13  9.811636E-14  1.228798E-13 -1.689082E-14
         3   8 -1.101911E-04 -5.876652E-13 -7.216719E-13  2.382286E-13  1.228798E-13  5.597414E-14

 strains (elem, integ.pnt.,exx,eyy,ezz,exy,exz,eyz) forset EALL and time  0.6427813E+00

         1   1 -5.247194E-10  1.574158E-10  1.574158E-10 -2.423381E-27 -5.896893E-26  6.462349E-27
         1   2 -5.247194E-10  1.574158E-10  1.574158E-10 -1.042054E-25 -1.962938E-25  2.342601E-26
         1   3 -5.247194E-10  1.574158E-10  1.574158E-10  8.239494E-26  4.523644E-26  1.615587E-26
         1   4 -5.247194E-10  1.574158E-10  1.574158E-10 -1.938705E-26  4.523644E-26 -6.623907E-26
         1   5 -5.247194E-10  1.574158E-10  1.574158E-10  1.130911E-26 -7.593260E-26  1.615587E-26
         1   6 -5.247194E-10  1.574158E-10  1.574158E-10  1.082443E-25 -2.132575E-25  1.914471E-25
         1   7 -5.247194E-10  1.574158E-10  1.574158E-10 -5.169879E-26  1.680211E-25  2.584939E-26
         1   8 -5.247194E-10  1.574158E-10  1.574158E-10  4.523644E-26  1.680211E-25  1.017820E-25
         2   1 -5.247194E-10  1.574158E-10  1.574158E-10  2.683407E-20  5.841516E-19 -1.316417E-20
         2   2 -5.247194E-10  1.574158E-10  1.574158E-10  8.104418E-20 -1.530043E-18  2.171354E-20
         2   3 -5.247194E-10  1.574158E-10  1.574158E-10  1.001461E-19 -8.935901E-19 -3.782987E-20
         2   4 -5.247194E-10  1.574158E-10  1.574158E-10  2.085663E-19  1.906121E-19 -1.733269E-20
         2   5 -5.247194E-10  1.574158E-10  1.574158E-10  1.946498E-20  4.028264E-19 -2.446363E-20
         2   6 -5.247194E-10  1.574158E-10  1.574158E-10  1.946498E-20  9.449274E-19  1.200823E-19
         2   7 -5.247194E-10  1.574158E-10  1.574158E-10 -7.947175E-19  7.694763E-19 -4.912933E-20
         2   8 -5.247194E-10  1.574158E-10  1.574158E-10 -5.778770E-19 -1.398928E-18  8.103603E-20
         3   1 -5.247194E-10  1.574158E-10  1.574158E-10  1.696238E-18  1.930287E-18 -2.801737E-20
         3   2 -5.247194E-10  1.574158E-10  1.574158E-10 -2.553263E-19 -2.731782E-18  9.284615E-20
         3   3 -5.247194E-10  1.574158E-10  1.574158E-10  1.591092E-18 -1.995716E-18 -2.532836E-19
         3   4 -5.247194E-10  1.574158E-10  1.574158E-10  1.374252E-18  6.063689E-19  2.602825E-19
         3   5 -5.247194E-10  1.574158E-10  1.574158E-10  1.627489E-19  1.713419E-18  1.207039E-19
         3   6 -5.247194E-10  1.574158E-10  1.574158E-10 -1.571975E-18  1.930260E-18  1.790703E-19
         3   7 -5.247194E-10  1.574158E-10  1.574158E-10  6.073870E-19  7.606848E-19 -1.045622E-19
         3   8 -5.247194E-10  1.574158E-10  1.574158E-10  1.474749E-18  7.606848E-19  3.465066E-19

 displacements (vx,vy,vz) for set NALL and time  0.6517813E+00

         1  0.000000E+00  0.000000E+00  0.000000E+00
         2 -2.660332E-07  0.000000E+00  0.000000E+00
         3 -9.776719E+00  0.000000E+00  0.000000E+00
         4 -9.776719E+00  0.000000E+00  0.000000E+00
         5 -1.955344E+01  0.000000E+00  0.000000E+00
         6 -1.955344E+01  0.000000E+00  0.000000E+00
         7  0.000000E+00  7.980995E-08  0.000000E+00
         8 -2.660332E-07  7.980995E-08  0.000000E+00
         9 -9.776719E+00  7.980995E-08  0.000000E+00
        10 -9.776719E+00  7.980995E-08  0.000000E+00
        11 -1.955344E+01  7.980994E-08  0.000000E+00
        12 -1.955344E+01  7.980995E-08  0.000000E+00
        13  0.000000E+00  0.000000E+00  1.117339E-07
        14 -2.660332E-07  0.000000E+00  1.117339E-07
        15 -9.776719E+00  0.000000E+00  1.117339E-07
        16 -9.776719E+00  0.000000E+00  1.117339E-07
        17 -1.955344E+01  0.000000E+00  1.117339E-07
        18 -1.955344E+01  0.000000E+00  1.117339E-07
        19  0.000000E+00  7.980995E-08  1.117339E-07
        20 -2.660332E-07  7.980995E-08  1.117339E-07
        21 -9.776719E+00  7.980995E-08  1.117339E-07
        22 -9.776719E+00  7.980995E-08  1.117339E-07
        23 -1.955344E+01  7.980995E-08  1.117339E-07
        24 -1.955344E+01  7.980995E-08  1.117339E-07

 stresses (elem, integ.pnt.,sxx,syy,szz,sxy,sxz,syz) for set EALL and time  0.6517813E+00

         1   1 -1.117339E-04 -2.032879E-20 -2.032879E-20 -4.632385E-21  7.959874E-21 -7.829384E-22
         1   2 -1.117339E-04 -1.355253E-20  4.065758E-20 -7.503159E-21  3.001264E-21 -9.786730E-22
         1   3 -1.117339E-04  4.411989E-45 -6.776264E-21 -1.383191E-20 -8.351343E-21  1.565877E-21
         1   4 -1.117339E-04 -4.065758E-20 -4.743385E-20 -1.670269E-20 -2.192227E-20  3.614566E-20
         1   5 -1.117339E-04 -6.776264E-21 -6.776264E-21  9.395261E-21  3.157851E-20 -5.480569E-21
         1   6 -1.117339E-04  1.694066E-19  1.219727E-19  2.087836E-21  2.661990E-20 -4.521469E-20
         1   7 -1.117339E-04 -6.776264E-21 -2.710505E-20  4.906414E-20 -2.401011E-20 -3.131754E-21
         1   8 -1.117339E-04  1.084202E-19 -6.776264E-21  4.175671E-20 -3.340537E-20 -8.090363E-21
         2   1 -1.117339E-04  7.888673E-14  5.831482E-14 -1.753500E-13  7.185822E-14  1.348756E-15
         2   2 -1.117339E-04  8.215699E-14  6.976405E-14  1.661737E-13 -1.207962E-13  2.662643E-15
         2   3 -1.117339E-04  3.167757E-14  1.821624E-14 -1.759228E-13  1.466338E-13  5.620558E-17
         2   4 -1.117339E-04  4.876245E-14  6.189960E-14  4.300264E-14  4.154955E-14 -7.933946E-15
         2   5 -1.117339E-04  1.776374E-13  1.606847E-13 -4.977377E-15  7.678159E-14  6.326181E-15
         2   6 -1.117339E-04  1.353179E-13  1.525954E-13 -4.977377E-15  1.380807E-13  2.053370E-14
         2   7 -1.117339E-04  1.304283E-13  1.205861E-13 -1.586881E-13  2.433849E-14  5.033628E-15
         2   8 -1.117339E-04  1.019234E-13  1.447310E-13  1.645225E-14 -1.858299E-13  9.937115E-15
         3   1 -1.117339E-04 -7.717850E-14  5.644911E-14 -5.101322E-13 -8.886349E-15  1.739925E-14
         3   2 -1.117339E-04  3.779489E-13  2.019569E-13 -2.225171E-15 -4.117092E-13 -5.212853E-15
         3   3 -1.117339E-04 -1.751467E-13  2.996972E-15 -3.726638E-13 -1.629451E-14  3.377363E-14
         3   4 -1.117339E-04  2.582955E-13  9.790607E-14 -1.449813E-13  5.376163E-14 -3.037642E-14
         3   5 -1.117339E-04 -2.321508E-14  6.456427E-14  2.903141E-14 -3.316431E-14  4.856050E-14
         3   6 -1.117339E-04  2.283764E-13  1.228423E-13  9.908755E-14 -1.382485E-13  5.708937E-15
         3   7 -1.117339E-04  1.017197E-14  1.424674E-13  1.083467E-13 -6.081192E-14  6.493488E-14
         3   8 -1.117339E-04  2.400783E-13  1.501468E-13 -2.419340E-13  1.493565E-13 -1.945463E-14

 strains (elem, integ.pnt.,exx,eyy,ezz,exy,exz,eyz) forset EALL and time  0.6517813E+00

         1   1 -5.320663E-10  1.596199E-10  1.596199E-10 -2.867667E-26  4.927541E-26 -4.846761E-27
         1   2 -5.320663E-10  1.596199E-10  1.596199E-10 -4.644813E-26  1.857925E-26 -6.058452E-27
         1   3 -5.320663E-10  1.596199E-10  1.596199E-10 -8.562612E-26 -5.169879E-26  9.693523E-27
         1   4 -5.320663E-10  1.596199E-10  1.596199E-10 -1.033976E-25 -1.357093E-25  2.237588E-25
         1   5 -5.320663E-10  1.596199E-10  1.596199E-10  5.816114E-26  1.954860E-25 -3.392733E-26
         1   6 -5.320663E-10  1.596199E-10  1.596199E-10  1.292470E-26  1.647899E-25 -2.799005E-25
         1   7 -5.320663E-10  1.596199E-10  1.596199E-10  3.037304E-25 -1.486340E-25 -1.938705E-26
         1   8 -5.320663E-10  1.596199E-10  1.596199E-10  2.584939E-25 -2.067952E-25 -5.008320E-26
         2   1 -5.320663E-10  1.596199E-10  1.596199E-10 -1.085500E-18  4.448366E-19  8.349445E-21
         2   2 -5.320663E-10  1.596199E-10  1.596199E-10  1.028694E-18 -7.477858E-19  1.648303E-20
         2   3 -5.320663E-10  1.596199E-10  1.596199E-10 -1.089046E-18  9.077328E-19  3.479393E-22
         2   4 -5.320663E-10  1.596199E-10  1.596199E-10  2.662068E-19  2.572115E-19 -4.911490E-20
         2   5 -5.320663E-10  1.596199E-10  1.596199E-10 -3.081233E-20  4.753146E-19  3.916207E-20
         2   6 -5.320663E-10  1.596199E-10  1.596199E-10 -3.081233E-20  8.547854E-19  1.271134E-19
         2   7 -5.320663E-10  1.596199E-10  1.596199E-10 -9.823549E-19  1.506669E-19  3.116055E-20
         2   8 -5.320663E-10  1.596199E-10  1.596199E-10  1.018472E-19 -1.150376E-18  6.151547E-20
         3   1 -5.320663E-10  1.596199E-10  1.596199E-10 -3.157961E-18 -5.501073E-20  1.077096E-19
         3   2 -5.320663E-10  1.596199E-10  1.596199E-10 -1.377487E-20 -2.548676E-18 -3.227004E-20
         3   3 -5.320663E-10  1.596199E-10  1.596199E-10 -2.306966E-18 -1.008708E-19  2.090748E-19
         3   4 -5.320663E-10  1.596199E-10  1.596199E-10 -8.975034E-19  3.328101E-19 -1.880445E-19
         3   5 -5.320663E-10  1.596199E-10  1.596199E-10  1.797183E-19 -2.053028E-19  3.006126E-19
         3   6 -5.320663E-10  1.596199E-10  1.596199E-10  6.133991E-19 -8.558241E-19  3.534104E-20
         3   7 -5.320663E-10  1.596199E-10  1.596199E-10  6.707177E-19 -3.764548E-19  4.019778E-19
         3   8 -5.320663E-10  1.596199E-10  1.596199E-10 -1.497687E-18  9.245878E-19 -1.204334E-19

 displacements (vx,vy,vz) for set NALL and time  0.6607813E+00

         1  0.000000E+00  0.000000E+00  0.000000E+00
         2 -2.697066E-07  0.000000E+00  0.000000E+00
         3 -9.911719E+00  0.000000E+00  0.000000E+00
         4 -9.911719E+00  0.000000E+00  0.000000E+00
         5 -1.982344E+01  0.000000E+00  0.000000E+00
         6 -1.982344E+01  0.000000E+00  0.000000E+00
         7  0.000000E+00  8.091199E-08  0.000000E+00
         8 -2.697066E-07  8.091199E-08  0.000000E+00
         9 -9.911719E+00  8.091199E-08  0.000000E+00
        10 -9.911719E+00  8.091199E-08  0.000000E+00
        11 -1.982344E+01  8.091199E-08  0.000000E+00
        12 -1.982344E+01  8.091199E-08  0.000000E+00
        13  0.000000E+00  0.000000E+00  1.132768E-07
        14 -2.697066E-07  0.000000E+00  1.132768E-07
        15 -9.911719E+00  0.000000E+00  1.132768E-07
        16 -9.911719E+00  0.000000E+00  1.132768E-07
        17 -1.982344E+01  0.000000E+00  1.132768E-07
        18 -1.982344E+01  0.000000E+00  1.132768E-07
        19  0.000000E+00  8.091199E-08  1.132768E-07
        20 -2.697066E-07  8.091199E-08  1.132768E-07
        21 -9.911719E+00  8.091199E-08  1.132768E-07
        22 -9.911719E+00  8.091199E-08  1.132768E-07
        23 -1.982344E+01  8.091199E-08  1.132768E-07
        24 -1.982344E+01  8.091199E-08  1.132768E-07

 stresses (elem, integ.pnt.,sxx,syy,szz,sxy,sxz,syz) for set EALL and time  0.6607813E+00

         1   1 -1.132768E-04  2.032879E-20 -1.626303E-19 -1.565877E-21 -8.220853E-21  1.565877E-21
         1   2 -1.132768E-04  6.098637E-20 -2.371692E-19 -3.079558E-20  1.422338E-20 -6.217836E-20
         1   3 -1.132768E-04 -2.710505E-20 -2.100642E-19  1.957346E-20 -7.672796E-20  8.351343E-21
         1   4 -1.132768E-04 -2.303930E-19 -8.538092E-19 -9.656240E-21 -1.618073E-20 -5.872038E-21
         1   5 -1.132768E-04  1.151965E-19 -9.486769E-20  4.019084E-20 -5.741548E-20 -1.565877E-21
         1   6 -1.132768E-04  3.794708E-19 -7.453890E-20  6.211311E-20 -3.497125E-20 -2.883171E-19
         1   7 -1.132768E-04  1.355253E-19 -8.131516E-20  1.294458E-19 -3.497125E-19  6.263507E-21
         1   8 -1.132768E-04  1.626303E-19 -6.234162E-19  1.513681E-19 -2.902092E-19 -2.320107E-19
         2   1 -1.132768E-04  4.800244E-15 -7.483150E-15 -1.862128E-15  6.820985E-14  6.186221E-15
         2   2 -1.132768E-04 -1.841020E-14 -2.772468E-14 -1.594884E-13 -1.156875E-13 -8.209740E-15
         2   3 -1.132768E-04 -9.454915E-14 -6.415806E-14 -6.949558E-15  1.187970E-13 -6.784854E-15
         2   4 -1.132768E-04 -1.747491E-13 -2.173752E-13 -8.576272E-14  1.538251E-13 -7.321067E-15
         2   5 -1.132768E-04  2.005514E-14  4.409076E-14  5.240099E-15  6.316570E-14  3.605837E-14
         2   6 -1.132768E-04  6.475746E-14  5.295470E-14 -1.699003E-13  1.332218E-13 -3.152784E-14
         2   7 -1.132768E-04  5.206101E-14  1.187711E-13  1.955632E-14 -7.954967E-14  2.308729E-14
         2   8 -1.132768E-04  3.977377E-14 -5.340556E-15 -8.552789E-14 -9.493533E-15 -3.063917E-14
         3   1 -1.132768E-04 -5.656441E-14 -1.151969E-13  3.320157E-13  3.491210E-13 -3.718153E-15
         3   2 -1.132768E-04 -2.346121E-13 -1.979689E-13  3.427711E-14 -2.113281E-13  6.403634E-15
         3   3 -1.132768E-04 -2.215530E-13 -2.199457E-13  2.821148E-13 -5.868925E-13 -5.604420E-14
         3   4 -1.132768E-04 -4.736111E-13 -4.754086E-13  1.069745E-13  1.837251E-13  5.080720E-14
         3   5 -1.132768E-04  3.175432E-13  4.054237E-13  3.115273E-13 -4.947209E-13  3.844970E-14
         3   6 -1.132768E-04  6.134706E-13  5.257839E-13  1.013588E-13  8.324227E-14 -2.050488E-14
         3   7 -1.132768E-04 -5.761374E-14  9.050649E-14  3.970478E-13 -3.789125E-13 -1.387634E-14
         3   8 -1.132768E-04  1.643032E-13  3.817576E-14  4.676711E-14 -3.088564E-13  2.389869E-14

 strains (elem, integ.pnt.,exx,eyy,ezz,exy,exz,eyz) forset EALL and time  0.6607813E+00

         1   1 -5.394132E-10  1.618240E-10  1.618240E-10 -9.693523E-27 -5.089099E-26  9.693523E-27
         1   2 -5.394132E-10  1.618240E-10  1.618240E-10 -1.906393E-25  8.804950E-26 -3.849136E-25
         1   3 -5.394132E-10  1.618240E-10  1.618240E-10  1.211690E-25 -4.749826E-25  5.169879E-26
         1   4 -5.394132E-10  1.618240E-10  1.618240E-10 -5.977672E-26 -1.001664E-25 -3.635071E-26
         1   5 -5.394132E-10  1.618240E-10  1.618240E-10  2.488004E-25 -3.554292E-25 -9.693523E-27
         1   6 -5.394132E-10  1.618240E-10  1.618240E-10  3.845097E-25 -2.164887E-25 -1.784820E-24
         1   7 -5.394132E-10  1.618240E-10  1.618240E-10  8.013312E-25 -2.164887E-24  3.877409E-26
         1   8 -5.394132E-10  1.618240E-10  1.618240E-10  9.370405E-25 -1.796533E-24 -1.436257E-24
         2   1 -5.394132E-10  1.618240E-10  1.618240E-10 -1.152746E-20  4.222515E-19  3.829565E-20
         2   2 -5.394132E-10  1.618240E-10  1.618240E-10 -9.873094E-19 -7.161608E-19 -5.082220E-20
         2   3 -5.394132E-10  1.618240E-10  1.618240E-10 -4.302107E-20  7.354101E-19 -4.200148E-20
         2   4 -5.394132E-10  1.618240E-10  1.618240E-10 -5.309120E-19  9.522505E-19 -4.532089E-20
         2   5 -5.394132E-10  1.618240E-10  1.618240E-10  3.243871E-20  3.910257E-19  2.232185E-19
         2   6 -5.394132E-10  1.618240E-10  1.618240E-10 -1.051763E-18  8.247066E-19 -1.951724E-19
         2   7 -5.394132E-10  1.618240E-10  1.618240E-10  1.210629E-19 -4.924504E-19  1.429213E-19
         2   8 -5.394132E-10  1.618240E-10  1.618240E-10 -5.294584E-19 -5.876949E-20 -1.896710E-19
         3   1 -5.394132E-10  1.618240E-10  1.618240E-10  2.055335E-18  2.161226E-18 -2.301714E-20
         3   2 -5.394132E-10  1.618240E-10  1.618240E-10  2.121916E-19 -1.308221E-18  3.964154E-20
         3   3 -5.394132E-10  1.618240E-10  1.618240E-10  1.746425E-18 -3.633144E-18 -3.469403E-19
         3   4 -5.394132E-10  1.618240E-10  1.618240E-10  6.622228E-19  1.137346E-18  3.145207E-19
         3   5 -5.394132E-10  1.618240E-10  1.618240E-10  1.928502E-18 -3.062558E-18  2.380220E-19
         3   6 -5.394132E-10  1.618240E-10  1.618240E-10  6.274595E-19  5.153093E-19 -1.269349E-19
         3   7 -5.394132E-10  1.618240E-10  1.618240E-10  2.457915E-18 -2.345649E-18 -8.590114E-20
         3   8 -5.394132E-10  1.618240E-10  1.618240E-10  2.895107E-19 -1.911968E-18  1.479443E-19

 displacements (vx,vy,vz) for set NALL and time  0.6697813E+00

         1  0.000000E+00  0.000000E+00  0.000000E+00
         2 -3.113733E-02  0.000000E+00  0.000000E+00
         3 -1.003115E+01  0.000000E+00  0.000000E+00
         4 -1.006229E+01  0.000000E+00  0.000000E+00
         5 -2.006230E+01  0.000000E+00  0.000000E+00
         6 -2.009344E+01  0.000000E+00  0.000000E+00
         7  0.000000E+00  9.340821E-03  0.000000E+00
         8 -3.113733E-02  9.340821E-03  0.000000E+00
         9 -1.003115E+01  9.340821E-03  0.000000E+00
        10 -1.006229E+01  9.340821E-03  0.000000E+00
        11 -2.006230E+01  9.340821E-03  0.000000E+00
        12 -2.009344E+01  9.340821E-03  0.000000E+00
        13  0.000000E+00  0.000000E+00  1.307715E-02
        14 -3.113733E-02  0.000000E+00  1.307715E-02
        15 -1.003115E+01  0.000000E+00  1.307715E-02
        16 -1.006229E+01  0.000000E+00  1.307715E-02
        17 -2.006230E+01  0.000000E+00  1.307715E-02
        18 -2.009344E+01  0.000000E+00  1.307715E-02
        19  0.000000E+00  9.340821E-03  1.307715E-02
        20 -3.113733E-02  9.340821E-03  1.307715E-02
        21 -1.003115E+01  9.340821E-03  1.307715E-02
        22 -1.006229E+01  9.340821E-03  1.307715E-02
        23 -2.006230E+01  9.340821E-03  1.307715E-02
        24 -2.009344E+01  9.340821E-03  1.307715E-02

 stresses (elem, integ.pnt.,sxx,syy,szz,sxy,sxz,syz) for set EALL and time  0.6697813E+00

         1   1 -1.307597E+01 -4.352345E-14  4.778697E-13 -3.125668E-13  1.311208E-13  5.497526E-14
         1   2 -1.307597E+01  1.923914E-12  1.426503E-12 -1.713097E-12  4.386519E-13  4.532808E-14
         1   3 -1.307597E+01 -1.806667E-12 -8.331632E-13  2.335210E-13 -1.160153E-13 -1.107031E-13
         1   4 -1.307597E+01 -1.021469E-13 -5.009638E-13 -1.167010E-12 -2.373723E-13  9.924283E-14
         1   5 -1.307597E+01 -2.069585E-13  7.780928E-13 -4.200203E-13  1.815852E-13  3.703903E-13
         1   6 -1.307597E+01  2.836130E-12  2.185943E-12 -2.421110E-12  4.891163E-13  1.153557E-13
         1   7 -1.307597E+01 -2.869883E-12 -1.434497E-12  4.336165E-13 -3.112378E-13  2.047119E-13
         1   8 -1.307597E+01 -9.148807E-14 -6.421930E-13 -1.567474E-12 -4.325948E-13  1.692704E-13
         2   1 -1.307597E+01  2.857448E-12  2.731319E-12  1.569942E-12  2.625270E-12  3.073073E-13
         2   2 -1.307597E+01 -1.443380E-12 -4.003269E-12 -1.550507E-13  3.535927E-12 -2.416243E-13
         2   3 -1.307597E+01  1.152927E-12  2.572325E-12  1.074481E-12  4.384752E-12  6.417771E-14
         2   4 -1.307597E+01 -4.149828E-12 -6.498318E-12 -6.329990E-13  6.416215E-12 -1.049268E-12
         2   5 -1.307597E+01  3.584023E-12  4.139169E-12  4.012548E-12  2.286132E-13  1.390255E-12
         2   6 -1.307597E+01 -3.484541E-12 -3.782987E-12  4.012548E-12  9.728994E-13 -9.374359E-14
         2   7 -1.307597E+01  4.378104E-12  6.477000E-12  2.726638E-12  1.053315E-12  1.147125E-12
         2   8 -1.307597E+01 -3.695052E-12 -3.782099E-12  2.481461E-12  2.874627E-12 -9.015669E-13
         3   1 -1.307597E+01 -8.971161E-14 -2.746419E-12  8.752517E-13 -1.783069E-12 -3.181860E-13
         3   2 -1.307597E+01 -6.297577E-13 -8.118456E-13  5.074868E-13 -2.594713E-13  3.592036E-15
         3   3 -1.307597E+01 -7.816457E-13 -3.065295E-12  3.955919E-13 -3.743086E-12 -1.449746E-12
         3   4 -1.307597E+01 -1.111180E-12 -6.421930E-13 -2.523749E-13 -5.207640E-13 -4.436336E-13
         3   5 -1.307597E+01 -1.980761E-12 -1.470915E-12 -1.786335E-12 -6.513679E-13 -5.596735E-14
         3   6 -1.307597E+01  8.304985E-13  1.900820E-12 -4.553764E-13  8.196920E-13  4.609438E-13
         3   7 -1.307597E+01  2.966701E-13  1.180463E-12 -1.308163E-12 -2.486657E-12 -1.187630E-12
         3   8 -1.307597E+01  3.318441E-12  5.039838E-12 -3.975072E-13  8.057151E-13  1.323922E-14

 strains (elem, integ.pnt.,exx,eyy,ezz,exy,exz,eyz) forset EALL and time  0.6697813E+00

         1   1 -6.227272E-05  1.868182E-05  1.868182E-05 -1.934773E-18  8.117339E-19  3.403018E-19
         1   2 -6.227272E-05  1.868182E-05  1.868182E-05 -1.060489E-17  2.715534E-18  2.805849E-19
         1   3 -6.227272E-05  1.868182E-05  1.868182E-05  1.446381E-18 -7.182751E-19 -6.852625E-19
         1   4 -6.227272E-05  1.868182E-05  1.868182E-05 -7.223732E-18 -1.469547E-18  6.143221E-19
         1   5 -6.227272E-05  1.868182E-05  1.868182E-05 -2.599861E-18  1.124189E-18  2.292749E-18
         1   6 -6.227272E-05  1.868182E-05  1.868182E-05 -1.498779E-17  3.027989E-18  7.140621E-19
         1   7 -6.227272E-05  1.868182E-05  1.868182E-05  2.685512E-18 -1.927014E-18  1.267185E-18
         1   8 -6.227272E-05  1.868182E-05  1.868182E-05 -9.702421E-18 -2.678285E-18  1.047799E-18
         2   1 -6.227272E-05  1.868182E-05  1.868182E-05  9.718689E-18  1.625110E-17  1.902260E-18
         2   2 -6.227272E-05  1.868182E-05  1.868182E-05 -9.600371E-19  2.188860E-17 -1.495676E-18
         2   3 -6.227272E-05  1.868182E-05  1.868182E-05  6.650996E-18  2.714299E-17  3.972659E-19
         2   4 -6.227272E-05  1.868182E-05  1.868182E-05 -3.919317E-18  3.971895E-17 -6.495064E-18
         2   5 -6.227272E-05  1.868182E-05  1.868182E-05  2.483958E-17  1.411969E-18  8.605804E-18
         2   6 -6.227272E-05  1.868182E-05  1.868182E-05  2.483958E-17  6.019541E-18 -5.802813E-19
         2   7 -6.227272E-05  1.868182E-05  1.868182E-05  1.687774E-17  6.516079E-18  7.100810E-18
         2   8 -6.227272E-05  1.868182E-05  1.868182E-05  1.535995E-17  1.779108E-17 -5.580781E-18
         3   1 -6.227272E-05  1.868182E-05  1.868182E-05  5.418150E-18 -1.103786E-17 -1.969600E-18
         3   2 -6.227272E-05  1.868182E-05  1.868182E-05  3.141467E-18 -1.605891E-18  2.223503E-20
         3   3 -6.227272E-05  1.868182E-05  1.868182E-05  2.448291E-18 -2.317145E-17 -8.974058E-18
         3   4 -6.227272E-05  1.868182E-05  1.868182E-05 -1.563007E-18 -3.223376E-18 -2.746132E-18
         3   5 -6.227272E-05  1.868182E-05  1.868182E-05 -1.105830E-17 -4.030899E-18 -3.464429E-19
         3   6 -6.227272E-05  1.868182E-05  1.868182E-05 -2.818874E-18  5.075832E-18  2.853284E-18
         3   7 -6.227272E-05  1.868182E-05  1.868182E-05 -8.097650E-18 -1.539216E-17 -7.351536E-18
         3   8 -6.227272E-05  1.868182E-05  1.868182E-05 -2.460150E-18  4.989574E-18  8.195197E-20

 displacements (vx,vy,vz) for set NALL and time  0.6787813E+00

         1  0.000000E+00  0.000000E+00  0.000000E+00
         2 -1.191864E-01  0.000000E+00  0.000000E+00
         3 -1.012213E+01  0.000000E+00  0.000000E+00
         4 -1.024131E+01  0.000000E+00  0.000000E+00
         5 -2.024425E+01  0.000000E+00  0.000000E+00
         6 -2.036344E+01  0.000000E+00  0.000000E+00
         7  0.000000E+00  3.575037E-02  0.000000E+00
         8 -1.191864E-01  3.575037E-02  0.000000E+00
         9 -1.012213E+01  3.575037E-02  0.000000E+00
        10 -1.024131E+01  3.575037E-02  0.000000E+00
        11 -2.024425E+01  3.575037E-02  0.000000E+00
        12 -2.036344E+01  3.575037E-02  0.000000E+00
        13  0.000000E+00  0.000000E+00  5.005051E-02
        14 -1.191864E-01  0.000000E+00  5.005051E-02
        15 -1.012213E+01  0.000000E+00  5.005051E-02
        16 -1.024131E+01  0.000000E+00  5.005051E-02
        17 -2.024425E+01  0.000000E+00  5.005051E-02
        18 -2.036344E+01  0.000000E+00  5.005051E-02
        19  0.000000E+00  3.575037E-02  5.005051E-02
        20 -1.191864E-01  3.575037E-02  5.005051E-02
        21 -1.012213E+01  3.575037E-02  5.005051E-02
        22 -1.024131E+01  3.575037E-02  5.005051E-02
        23 -2.024425E+01  3.575037E-02  5.005051E-02
        24 -2.036344E+01  3.575037E-02  5.005051E-02

 stresses (elem, integ.pnt.,sxx,syy,szz,sxy,sxz,syz) for set EALL and time  0.6787813E+00

         1   1 -5.003322E+01  1.314817E-12  1.549352E-12 -2.928559E-13  6.298431E-13 -1.290692E-13
         1   2 -5.003322E+01  3.400758E-12 -1.467621E-12 -2.272013E-12  4.264726E-12  1.795061E-13
         1   3 -5.003322E+01 -6.360874E-13  9.630150E-13  8.873782E-13  1.509129E-13 -1.436049E-12
         1   4 -5.003322E+01  1.854959E-12 -1.112265E-12 -1.091778E-12  2.103123E-12 -6.578011E-13
         1   5 -5.003322E+01  2.547903E-12  6.446159E-12 -9.148964E-13 -1.284636E-12  8.246466E-13
         1   6 -5.003322E+01  6.936551E-12  4.409969E-12 -5.252107E-12  2.350247E-12  1.508385E-12
         1   7 -5.003322E+01 -2.935241E-12  2.320475E-12  9.222541E-13 -1.389094E-12 -4.823327E-13
         1   8 -5.003322E+01  1.851405E-12  1.225978E-12 -3.414956E-12  5.631161E-13  6.710776E-13
         2   1 -5.003322E+01  4.090148E-12  1.321925E-12  2.148786E-12 -1.101608E-12  2.961884E-13
         2   2 -5.003322E+01  2.594099E-13 -2.750456E-12 -2.061220E-13  2.855338E-12 -4.858572E-13
         2   3 -5.003322E+01  2.299154E-12  1.911816E-12  1.418643E-12  2.299615E-12 -5.598016E-13
         2   4 -5.003322E+01 -2.537242E-12 -4.527236E-12 -8.487215E-13  6.606733E-12 -2.532521E-12
         2   5 -5.003322E+01  8.571189E-12  8.201618E-12  6.827124E-12 -2.293123E-12  1.961906E-12
         2   6 -5.003322E+01 -1.101604E-12  1.620424E-12  4.796126E-12  1.777628E-12  2.328857E-13
         2   7 -5.003322E+01  6.783747E-12  8.787956E-12  4.431239E-12  4.429970E-13  1.105369E-12
         2   8 -5.003322E+01 -3.905363E-12 -1.563567E-13  2.435258E-12  4.224856E-12 -1.813128E-12
         3   1 -5.003322E+01  1.417871E-12 -3.340347E-12  1.931856E-12 -3.501277E-12 -3.703724E-13
         3   2 -5.003322E+01  7.178193E-13  6.645159E-13  5.136589E-13 -6.998993E-13 -4.896553E-14
         3   3 -5.003322E+01 -2.416421E-13 -4.207416E-12  1.086712E-12 -6.083159E-12 -1.937817E-12
         3   4 -5.003322E+01 -5.046056E-13  8.137654E-13 -3.314850E-13 -7.605418E-13 -1.146635E-12
         3   5 -5.003322E+01  1.464067E-12  1.098050E-12 -1.469607E-12 -1.955290E-12  1.849125E-13
         3   6 -5.003322E+01  3.063169E-12  6.080142E-12 -2.790221E-13  1.493906E-12  9.155973E-13
         3   7 -5.003322E+01  3.006312E-12  3.429186E-12 -1.657767E-12 -3.849675E-12 -1.382395E-12
         3   8 -5.003322E+01  5.042503E-12  9.438257E-12 -6.072502E-13  1.542976E-12 -1.825857E-13

 strains (elem, integ.pnt.,exx,eyy,ezz,exy,exz,eyz) forset EALL and time  0.6787813E+00

         1   1 -2.383443E-04  7.150329E-05  7.150329E-05 -1.811389E-18  3.896618E-18 -7.988092E-19
         1   2 -2.383443E-04  7.150329E-05  7.150329E-05 -1.406419E-17  2.639988E-17  1.110963E-18
         1   3 -2.383443E-04  7.150329E-05  7.150329E-05  5.499875E-18  9.321259E-19 -8.887705E-18
         1   4 -2.383443E-04  7.150329E-05  7.150329E-05 -6.752923E-18  1.301810E-17 -4.071131E-18
         1   5 -2.383443E-04  7.150329E-05  7.150329E-05 -5.661469E-18 -7.963114E-18  5.103738E-18
         1   6 -2.383443E-04  7.150329E-05  7.150329E-05 -3.251279E-17  1.454015E-17  9.335394E-18
         1   7 -2.383443E-04  7.150329E-05  7.150329E-05  5.719233E-18 -8.607841E-18 -2.985158E-18
         1   8 -2.383443E-04  7.150329E-05  7.150329E-05 -2.113209E-17  3.478131E-18  4.153299E-18
         2   1 -2.383443E-04  7.150329E-05  7.150329E-05  1.330193E-17 -6.821638E-18  1.833110E-18
         2   2 -2.383443E-04  7.150329E-05  7.150329E-05 -1.277111E-18  1.767549E-17 -3.006970E-18
         2   3 -2.383443E-04  7.150329E-05  7.150329E-05  8.778876E-18  1.423373E-17 -3.464612E-18
         2   4 -2.383443E-04  7.150329E-05  7.150329E-05 -5.258195E-18  4.089874E-17 -1.567377E-17
         2   5 -2.383443E-04  7.150329E-05  7.150329E-05  4.226281E-17 -1.420279E-17  1.214224E-17
         2   6 -2.383443E-04  7.150329E-05  7.150329E-05  2.968906E-17  1.099890E-17  1.441330E-18
         2   7 -2.383443E-04  7.150329E-05  7.150329E-05  2.742088E-17  2.731356E-18  6.841127E-18
         2   8 -2.383443E-04  7.150329E-05  7.150329E-05  1.506392E-17  2.614454E-17 -1.122145E-17
         3   1 -2.383443E-04  7.150329E-05  7.150329E-05  1.195878E-17 -2.167316E-17 -2.292235E-18
         3   2 -2.383443E-04  7.150329E-05  7.150329E-05  3.178834E-18 -4.330061E-18 -3.030477E-19
         3   3 -2.383443E-04  7.150329E-05  7.150329E-05  6.723316E-18 -3.765681E-17 -1.199315E-17
         3   4 -2.383443E-04  7.150329E-05  7.150329E-05 -2.056628E-18 -4.704920E-18 -7.096526E-18
         3   5 -2.383443E-04  7.150329E-05  7.150329E-05 -9.098485E-18 -1.209400E-17  1.144423E-18
         3   6 -2.383443E-04  7.150329E-05  7.150329E-05 -1.727668E-18  9.259692E-18  5.666632E-18
         3   7 -2.383443E-04  7.150329E-05  7.150329E-05 -1.026409E-17 -2.381985E-17 -8.555644E-18
         3   8 -2.383443E-04  7.150329E-05  7.150329E-05 -3.760423E-18  9.565620E-18 -1.130023E-18

 displacements (vx,vy,vz) for set NALL and time  0.6877813E+00

         1  0.000000E+00  0.000000E+00  0.000000E+00
         2 -2.064950E-01  0.000000E+00  0.000000E+00
         3 -1.021347E+01  0.000000E+00  0.000000E+00
         4 -1.041997E+01  0.000000E+00  0.000000E+00
         5 -2.042694E+01  0.000000E+00  0.000000E+00
         6 -2.063344E+01  0.000000E+00  0.000000E+00
         7  0.000000E+00  6.193186E-02  0.000000E+00
         8 -2.064950E-01  6.193186E-02  0.000000E+00
         9 -1.021347E+01  6.193186E-02  0.000000E+00
        10 -1.041997E+01  6.193186E-02  0.000000E+00
        11 -2.042694E+01  6.193186E-02  0.000000E+00
        12 -2.063344E+01  6.193186E-02  0.000000E+00
        13  0.000000E+00  0.000000E+00  8.670461E-02
        14 -2.064950E-01  0.000000E+00  8.670461E-02
        15 -1.021347E+01  0.000000E+00  8.670461E-02
        16 -1.041997E+01  0.000000E+00  8.670461E-02
        17 -2.042694E+01  0.000000E+00  8.670461E-02
        18 -2.063344E+01  0.000000E+00  8.670461E-02
        19  0.000000E+00  6.193186E-02  8.670461E-02
        20 -2.064950E-01  6.193186E-02  8.670461E-02
        21 -1.021347E+01  6.193186E-02  8.670461E-02
        22 -1.041997E+01  6.193186E-02  8.670461E-02
        23 -2.042694E+01  6.193186E-02  8.670461E-02
        24 -2.063344E+01  6.193186E-02  8.670461E-02

 stresses (elem, integ.pnt.,sxx,syy,szz,sxy,sxz,syz) for set EALL and time  0.6877813E+00

         1   1 -8.665270E+01  1.158663E-11  1.219084E-11 -4.936504E-13 -1.778317E-13  1.623656E-13
         1   2 -8.665270E+01  1.489913E-11  1.413853E-11 -2.708260E-12 -9.210949E-13  2.090492E-13
         1   3 -8.665270E+01  8.643769E-12  9.745566E-12  3.713388E-13 -2.519635E-13  2.587446E-13
         1   4 -8.665270E+01  1.201313E-11  1.182832E-11 -1.843271E-12 -1.247540E-12  3.788075E-13
         1   5 -8.665270E+01  1.049905E-11  1.083315E-11 -5.885096E-13  7.789945E-14  5.087274E-13
         1   6 -8.665270E+01  1.416697E-11  1.293011E-11 -3.160597E-12 -6.653637E-13  6.115407E-13
         1   7 -8.665270E+01  7.015954E-12  7.840524E-12  3.778289E-13  6.049075E-14  6.062016E-13
         1   8 -8.665270E+01  1.074074E-11  1.007255E-11 -2.194258E-12 -9.378204E-13  7.812991E-13
         2   1 -8.665270E+01  1.599382E-11  1.474274E-11  3.408706E-12  1.222920E-12  2.100075E-13
         2   2 -8.665270E+01  1.044929E-11  1.175723E-11  1.553215E-12  1.988994E-13  5.578752E-14
         2   3 -8.665270E+01  1.329975E-11  1.253204E-11  1.913478E-12  1.768618E-12  4.372646E-13
         2   4 -8.665270E+01  7.506431E-12  8.970754E-12  1.367579E-13  1.068433E-12  9.596822E-14
         2   5 -8.665270E+01  1.510527E-11  1.321445E-11  3.837143E-12  9.282351E-13  5.563693E-13
         2   6 -8.665270E+01  8.622444E-12  9.823758E-12  3.066939E-12  1.580312E-13  1.700321E-13
         2   7 -8.665270E+01  1.300120E-11  1.159374E-11  2.077778E-12  1.384345E-12  7.836264E-13
         2   8 -8.665270E+01  6.269576E-12  7.634382E-12  1.062509E-12  5.791316E-13  2.102813E-13
         3   1 -8.665270E+01  1.163639E-11  1.187097E-11  2.499359E-13  5.626461E-13 -3.107673E-14
         3   2 -8.665270E+01  1.115302E-11  1.128808E-11  3.724683E-13  7.251639E-14  5.585597E-14
         3   3 -8.665270E+01  1.165772E-11  1.178567E-11  1.671752E-13  5.032888E-13 -3.915394E-14
         3   4 -8.665270E+01  1.120278E-11  1.127386E-11  2.897076E-13  2.232146E-13  2.568279E-13
         3   5 -8.665270E+01  1.097531E-11  1.122411E-11 -1.043208E-12  4.473245E-13 -1.081525E-13
         3   6 -8.665270E+01  1.150844E-11  1.108194E-11 -6.294868E-14 -3.753933E-13  8.624819E-15
         3   7 -8.665270E+01  1.120989E-11  1.135206E-11 -8.327186E-13  6.794439E-14 -1.155452E-13
         3   8 -8.665270E+01  1.177856E-11  1.127386E-11  7.752236E-14 -4.221854E-13  2.080909E-13

 strains (elem, integ.pnt.,exx,eyy,ezz,exy,exz,eyz) forset EALL and time  0.6877813E+00

         1   1 -4.129047E-04  1.238714E-04  1.238714E-04 -3.054202E-18 -1.100377E-18  1.004706E-18
         1   2 -4.129047E-04  1.238714E-04  1.238714E-04 -1.676539E-17 -5.702099E-18  1.293580E-18
         1   3 -4.129047E-04  1.238714E-04  1.238714E-04  2.306910E-18 -1.559213E-18  1.601091E-18
         1   4 -4.129047E-04  1.238714E-04  1.238714E-04 -1.140428E-17 -7.723066E-18  2.344030E-18
         1   5 -4.129047E-04  1.238714E-04  1.238714E-04 -3.641255E-18  4.846184E-19  3.147964E-18
         1   6 -4.129047E-04  1.238714E-04  1.238714E-04 -1.956567E-17 -4.117104E-18  3.784165E-18
         1   7 -4.129047E-04  1.238714E-04  1.238714E-04  2.348010E-18  3.773424E-19  3.751126E-18
         1   8 -4.129047E-04  1.238714E-04  1.238714E-04 -1.357641E-17 -5.803444E-18  4.834616E-18
         2   1 -4.129047E-04  1.238714E-04  1.238714E-04  2.110049E-17  7.570683E-18  1.299509E-18
         2   2 -4.129047E-04  1.238714E-04  1.238714E-04  9.612689E-18  1.230720E-18  3.452087E-19
         2   3 -4.129047E-04  1.238714E-04  1.238714E-04  1.183322E-17  1.094867E-17  2.705758E-18
         2   4 -4.129047E-04  1.238714E-04  1.238714E-04  8.331141E-19  6.613650E-18  5.938436E-19
         2   5 -4.129047E-04  1.238714E-04  1.238714E-04  2.375240E-17  5.744254E-18  3.442768E-18
         2   6 -4.129047E-04  1.238714E-04  1.238714E-04  1.898388E-17  9.757345E-19  1.052145E-18
         2   7 -4.129047E-04  1.238714E-04  1.238714E-04  1.284804E-17  8.566050E-18  4.849017E-18
         2   8 -4.129047E-04  1.238714E-04  1.238714E-04  6.562265E-18  3.580780E-18  1.301204E-18
         3   1 -4.129047E-04  1.238714E-04  1.238714E-04  1.547213E-18  3.483030E-18 -1.923003E-19
         3   2 -4.129047E-04  1.238714E-04  1.238714E-04  2.305841E-18  4.485174E-19  3.456322E-19
         3   3 -4.129047E-04  1.238714E-04  1.238714E-04  1.034271E-18  3.115605E-18 -2.422814E-19
         3   4 -4.129047E-04  1.238714E-04  1.238714E-04  1.792899E-18  1.381598E-18  1.589231E-18
         3   5 -4.129047E-04  1.238714E-04  1.238714E-04 -6.458242E-18  2.767813E-18 -6.692389E-19
         3   6 -4.129047E-04  1.238714E-04  1.238714E-04 -3.892178E-19 -2.325833E-18  5.336969E-20
         3   7 -4.129047E-04  1.238714E-04  1.238714E-04 -5.153650E-18  4.192491E-19 -7.149844E-19
         3   8 -4.129047E-04  1.238714E-04  1.238714E-04  4.818728E-19 -2.615263E-18  1.287650E-18

 displacements (vx,vy,vz) for set NALL and time  0.6967813E+00

         1  0.000000E+00  0.000000E+00  0.000000E+00
         2 -2.933749E-01  0.000000E+00  0.000000E+00
         3 -1.030503E+01  0.000000E+00  0.000000E+00
         4 -1.059841E+01  0.000000E+00  0.000000E+00
         5 -2.061006E+01  0.000000E+00  0.000000E+00
         6 -2.090344E+01  0.000000E+00  0.000000E+00
         7  0.000000E+00  8.797891E-02  0.000000E+00
         8 -2.933749E-01  8.797891E-02  0.000000E+00
         9 -1.030503E+01  8.797891E-02  0.000000E+00
        10 -1.059841E+01  8.797891E-02  0.000000E+00
        11 -2.061006E+01  8.797891E-02  0.000000E+00
        12 -2.090344E+01  8.797891E-02  0.000000E+00
        13  0.000000E+00  0.000000E+00  1.231705E-01
        14 -2.933749E-01  0.000000E+00  1.231705E-01
        15 -1.030503E+01  0.000000E+00  1.231705E-01
        16 -1.059841E+01  0.000000E+00  1.231705E-01
        17 -2.061006E+01  0.000000E+00  1.231705E-01
        18 -2.090344E+01  0.000000E+00  1.231705E-01
        19  0.000000E+00  8.797891E-02  1.231705E-01
        20 -2.933749E-01  8.797891E-02  1.231705E-01
        21 -1.030503E+01  8.797891E-02  1.231705E-01
        22 -1.059841E+01  8.797891E-02  1.231705E-01
        23 -2.061006E+01  8.797891E-02  1.231705E-01
        24 -2.090344E+01  8.797891E-02  1.231705E-01

 stresses (elem, integ.pnt.,sxx,syy,szz,sxy,sxz,syz) for set EALL and time  0.6967813E+00

         1   1 -1.230657E+02  4.265759E-13  1.251289E-12 -6.459911E-13 -2.224234E-14  1.426840E-13
         1   2 -1.230657E+02  5.047815E-12  2.922045E-12 -3.768769E-12  7.838657E-14  3.812894E-13
         1   3 -1.230657E+02 -3.554799E-12 -1.834277E-12  7.150153E-13 -3.932547E-13 -1.068076E-13
         1   4 -1.230657E+02  1.365043E-12  5.474391E-13 -2.407762E-12 -1.597520E-12  4.981616E-13
         1   5 -1.230657E+02 -5.900967E-13  9.313575E-13 -1.126035E-12 -1.792185E-13  7.807909E-13
         1   6 -1.230657E+02  5.815652E-12  3.348621E-12 -6.074353E-12 -7.858957E-14  1.307503E-12
         1   7 -1.230657E+02 -7.329996E-12 -4.905623E-12  7.472952E-13 -2.626453E-13  5.312993E-13
         1   8 -1.230657E+02 -6.114255E-13 -1.763181E-12 -4.196647E-12 -1.468005E-12  1.424375E-12
         2   1 -1.230657E+02  2.353277E-12  1.315276E-12  2.543760E-12  6.076455E-13 -3.034431E-13
         2   2 -1.230657E+02  2.083112E-12  8.815903E-13  5.574326E-13  3.285249E-12  1.333109E-12
         2   3 -1.230657E+02 -1.990688E-13 -5.687679E-13  2.513294E-12 -2.416147E-12 -1.611425E-12
         2   4 -1.230657E+02  1.656537E-12  3.960047E-12  5.357168E-13 -8.016365E-12  2.521892E-12
         2   5 -1.230657E+02  1.706304E-12  4.336855E-12 -1.535283E-12  4.508060E-13  1.763695E-13
         2   6 -1.230657E+02  1.366465E-11  9.135835E-12 -1.494080E-11  3.102159E-12  3.785782E-12
         2   7 -1.230657E+02 -1.795174E-11 -1.464577E-11  1.920378E-12 -7.434814E-13 -1.131613E-12
         2   8 -1.230657E+02 -3.867622E-12 -4.898514E-12 -1.141514E-11 -5.993685E-12  4.974769E-12
         3   1 -1.230657E+02  2.950484E-12  4.194663E-13  8.462276E-13 -3.564887E-12  1.237873E-12
         3   2 -1.230657E+02 -1.706304E-13  6.754119E-13 -3.088173E-13 -6.772752E-13 -2.957064E-13
         3   3 -1.230657E+02  4.052471E-12  4.706554E-12 -2.843013E-13  7.409132E-12  2.389752E-12
         3   4 -1.230657E+02 -1.173084E-12  6.398639E-14 -8.793244E-13  2.088926E-12 -1.373984E-12
         3   5 -1.230657E+02  1.478797E-11  9.022081E-12  1.580703E-11 -2.787794E-12  3.466865E-12
         3   6 -1.230657E+02  7.251791E-13  4.592801E-12  2.996536E-12 -9.268931E-14 -2.594877E-14
         3   7 -1.230657E+02 -2.488360E-12 -5.062034E-12  1.156362E-11  6.231470E-12  4.618470E-12
         3   8 -1.230657E+02 -1.864137E-11 -1.439694E-11 -1.386880E-12  7.012550E-13 -1.103131E-12

 strains (elem, integ.pnt.,exx,eyy,ezz,exy,exz,eyz) forset EALL and time  0.6967813E+00

         1   1 -5.865777E-04  1.759733E-04  1.759733E-04 -3.994987E-18 -1.382561E-19  8.827636E-19
         1   2 -5.865777E-04  1.759733E-04  1.759733E-04 -2.332987E-17  4.847944E-19  2.358978E-18
         1   3 -5.865777E-04  1.759733E-04  1.759733E-04  4.444640E-18 -2.434413E-18 -6.608020E-19
         1   4 -5.865777E-04  1.759733E-04  1.759733E-04 -1.489024E-17 -9.890701E-18  3.082048E-18
         1   5 -5.865777E-04  1.759733E-04  1.759733E-04 -6.965443E-18 -1.111668E-18  4.830632E-18
         1   6 -5.865777E-04  1.759733E-04  1.759733E-04 -3.760327E-17 -4.886177E-19  8.089317E-18
         1   7 -5.865777E-04  1.759733E-04  1.759733E-04  4.651116E-18 -1.624512E-18  3.287066E-18
         1   8 -5.865777E-04  1.759733E-04  1.759733E-04 -2.595962E-17 -9.087573E-18  8.812387E-18
         2   1 -5.865777E-04  1.759733E-04  1.759733E-04  1.574975E-17  3.761734E-18 -1.877355E-18
         2   2 -5.865777E-04  1.759733E-04  1.759733E-04  3.451273E-18  2.034029E-17  8.247740E-18
         2   3 -5.865777E-04  1.759733E-04  1.759733E-04  1.556083E-17 -1.495346E-17 -9.969638E-18
         2   4 -5.865777E-04  1.759733E-04  1.759733E-04  3.316530E-18 -4.962757E-17  1.560255E-17
         2   5 -5.865777E-04  1.759733E-04  1.759733E-04 -9.493845E-18  2.789170E-18  1.091170E-18
         2   6 -5.865777E-04  1.759733E-04  1.759733E-04 -9.249500E-17  1.920519E-17  2.342204E-17
         2   7 -5.865777E-04  1.759733E-04  1.759733E-04  1.193478E-17 -4.579900E-18 -7.001112E-18
         2   8 -5.865777E-04  1.759733E-04  1.759733E-04 -7.063295E-17 -3.708688E-17  3.077812E-17
         3   1 -5.865777E-04  1.759733E-04  1.759733E-04  5.235561E-18 -2.206954E-17  7.658525E-18
         3   2 -5.865777E-04  1.759733E-04  1.759733E-04 -1.915975E-18 -4.190697E-18 -1.829490E-18
         3   3 -5.865777E-04  1.759733E-04  1.759733E-04 -1.774870E-18  4.587005E-17  1.478502E-17
         3   4 -5.865777E-04  1.759733E-04  1.759733E-04 -5.458994E-18  1.292964E-17 -8.500624E-18
         3   5 -5.865777E-04  1.759733E-04  1.759733E-04  9.785560E-17 -1.725077E-17  2.144895E-17
         3   6 -5.865777E-04  1.759733E-04  1.759733E-04  1.853856E-17 -5.638486E-19 -1.605410E-19
         3   7 -5.865777E-04  1.759733E-04  1.759733E-04  7.154212E-17  3.856734E-17  2.857375E-17
         3   8 -5.865777E-04  1.759733E-04  1.759733E-04 -8.641763E-18  4.326656E-18 -6.824898E-18

 displacements (vx,vy,vz) for set NALL and time  0.7057813E+00

         1  0.000000E+00  0.000000E+00  0.000000E+00
         2 -3.799775E-01  0.000000E+00  0.000000E+00
         3 -1.039673E+01  0.000000E+00  0.000000E+00
         4 -1.077671E+01  0.000000E+00  0.000000E+00
         5 -2.079346E+01  0.000000E+00  0.000000E+00
         6 -2.117344E+01  0.000000E+00  0.000000E+00
         7  0.000000E+00  1.139370E-01  0.000000E+00
         8 -3.799775E-01  1.139370E-01  0.000000E+00
         9 -1.039673E+01  1.139370E-01  0.000000E+00
        10 -1.077671E+01  1.139370E-01  0.000000E+00
        11 -2.079346E+01  1.139370E-01  0.000000E+00
        12 -2.117344E+01  1.139370E-01  0.000000E+00
        13  0.000000E+00  0.000000E+00  1.595117E-01
        14 -3.799775E-01  0.000000E+00  1.595117E-01
        15 -1.039673E+01  0.000000E+00  1.595117E-01
        16 -1.077671E+01  0.000000E+00  1.595117E-01
        17 -2.079346E+01  0.000000E+00  1.595117E-01
        18 -2.117344E+01  0.000000E+00  1.595117E-01
        19  0.000000E+00  1.139370E-01  1.595117E-01
        20 -3.799775E-01  1.139370E-01  1.595117E-01
        21 -1.039673E+01  1.139370E-01  1.595117E-01
        22 -1.077671E+01  1.139370E-01  1.595117E-01
        23 -2.079346E+01  1.139370E-01  1.595117E-01
        24 -2.117344E+01  1.139370E-01  1.595117E-01

 stresses (elem, integ.pnt.,sxx,syy,szz,sxy,sxz,syz) for set EALL and time  0.7057813E+00

         1   1 -1.593361E+02 -4.934917E-11 -4.801233E-11 -1.137450E-12 -8.196233E-13  5.051220E-13
         1   2 -1.593361E+02 -4.216723E-11 -4.178324E-11 -5.829310E-12 -4.596732E-12  3.069356E-13
         1   3 -1.593361E+02 -5.591958E-11 -5.395699E-11  4.451236E-13 -5.095171E-13  1.445788E-12
         1   4 -1.593361E+02 -4.896518E-11 -4.831099E-11 -4.246736E-12 -3.210576E-12  9.416252E-13
         1   5 -1.593361E+02 -5.269126E-11 -5.397121E-11 -7.402025E-13  7.218464E-13  9.483364E-13
         1   6 -1.593361E+02 -4.697415E-11 -4.838210E-11 -3.915860E-12 -3.055262E-12  5.100527E-13
         1   7 -1.593361E+02 -5.698620E-11 -5.765462E-11  4.161730E-13  7.910627E-13  1.889003E-12
         1   8 -1.593361E+02 -5.151086E-11 -5.264859E-11 -2.759485E-12 -1.908903E-12  1.144742E-12
         2   1 -1.593361E+02 -4.374583E-11 -4.154148E-11  7.623466E-12  1.089522E-11 -1.373198E-12
         2   2 -1.593361E+02 -5.791061E-11 -6.045629E-11  9.845552E-12  1.454329E-11  2.467126E-12
         2   3 -1.593361E+02 -4.209612E-11 -4.166947E-11  5.506130E-12  9.306631E-13 -3.874428E-12
         2   4 -1.593361E+02 -5.129754E-11 -4.902207E-11  7.465765E-12 -7.957680E-12  5.832735E-12
         2   5 -1.593361E+02 -4.835365E-11 -3.913802E-11 -5.615916E-12  4.619413E-12 -2.622306E-12
         2   6 -1.593361E+02 -3.379067E-11 -4.575109E-11 -2.122301E-11  8.241237E-12  5.838761E-12
         2   7 -1.593361E+02 -7.339800E-11 -6.597429E-11  4.554643E-13 -7.326166E-13 -5.124632E-12
         2   8 -1.593361E+02 -5.388588E-11 -6.101093E-11 -1.511663E-11 -9.585966E-12  9.204780E-12
         3   1 -1.593361E+02 -5.646000E-11 -5.764040E-11 -6.855720E-12 -9.142898E-12  1.799703E-12
         3   2 -1.593361E+02 -5.202284E-11 -5.246371E-11 -1.816660E-12 -2.091712E-12 -1.033528E-12
         3   3 -1.593361E+02 -4.504001E-11 -4.216723E-11 -6.081162E-12  1.162399E-11  3.872785E-12
         3   4 -1.593361E+02 -4.435737E-11 -4.575109E-11 -4.822057E-13  2.735645E-12 -3.194814E-12
         3   5 -1.593361E+02 -3.148676E-11 -3.846960E-11  2.051460E-11 -7.544347E-12  4.642520E-12
         3   6 -1.593361E+02 -4.779901E-11 -4.219567E-11  3.857703E-12 -1.782198E-13 -1.694514E-12
         3   7 -1.593361E+02 -5.378633E-11 -5.673021E-11  1.537782E-11  9.448611E-12  6.717794E-12
         3   8 -1.593361E+02 -7.383887E-11 -6.920261E-11 -7.891637E-13  7.002420E-13 -3.858266E-12

 strains (elem, integ.pnt.,exx,eyy,ezz,exy,exz,eyz) forset EALL and time  0.7057813E+00

         1   1 -7.596662E-04  2.278999E-04  2.278999E-04 -7.035872E-18 -5.068110E-18  3.124569E-18
         1   2 -7.596662E-04  2.278999E-04  2.278999E-04 -3.608734E-17 -2.845554E-17  1.898633E-18
         1   3 -7.596662E-04  2.278999E-04  2.278999E-04  2.782629E-18 -3.149032E-18  8.943317E-18
         1   4 -7.596662E-04  2.278999E-04  2.278999E-04 -2.626884E-17 -1.987368E-17  5.824679E-18
         1   5 -7.596662E-04  2.278999E-04  2.278999E-04 -4.578065E-18  4.495376E-18  5.866193E-18
         1   6 -7.596662E-04  2.278999E-04  2.278999E-04 -2.424138E-17 -1.889205E-17  3.155069E-18
         1   7 -7.596662E-04  2.278999E-04  2.278999E-04  2.596245E-18  4.919955E-18  1.168494E-17
         1   8 -7.596662E-04  2.278999E-04  2.278999E-04 -1.706707E-17 -1.179793E-17  7.081115E-18
         2   1 -7.596662E-04  2.278999E-04  2.278999E-04  4.719415E-17  6.743384E-17 -8.494288E-18
         2   2 -7.596662E-04  2.278999E-04  2.278999E-04  6.095305E-17  9.002227E-17  1.526108E-17
         2   3 -7.596662E-04  2.278999E-04  2.278999E-04  3.405791E-17  5.755101E-18 -2.396633E-17
         2   4 -7.596662E-04  2.278999E-04  2.278999E-04  4.619175E-17 -4.928051E-17  3.607996E-17
         2   5 -7.596662E-04  2.278999E-04  2.278999E-04 -3.474589E-17  2.849787E-17 -1.622099E-17
         2   6 -7.596662E-04  2.278999E-04  2.278999E-04 -1.313832E-16  5.092380E-17  3.611724E-17
         2   7 -7.596662E-04  2.278999E-04  2.278999E-04  2.921772E-18 -4.564112E-18 -3.169981E-17
         2   8 -7.596662E-04  2.278999E-04  2.278999E-04 -9.349889E-17 -5.938305E-17  5.693867E-17
         3   1 -7.596662E-04  2.278999E-04  2.278999E-04 -4.244638E-17 -5.660462E-17  1.113255E-17
         3   2 -7.596662E-04  2.278999E-04  2.278999E-04 -1.124509E-17 -1.294448E-17 -6.393167E-18
         3   3 -7.596662E-04  2.278999E-04  2.278999E-04 -3.764091E-17  7.196592E-17  2.395616E-17
         3   4 -7.596662E-04  2.278999E-04  2.278999E-04 -2.972811E-18  1.693031E-17 -1.976239E-17
         3   5 -7.596662E-04  2.278999E-04  2.278999E-04  1.270010E-16 -4.668699E-17  2.871757E-17
         3   6 -7.596662E-04  2.278999E-04  2.278999E-04  2.386342E-17 -1.076768E-18 -1.048188E-17
         3   7 -7.596662E-04  2.278999E-04  2.278999E-04  9.513178E-17  5.847302E-17  4.155474E-17
         3   8 -7.596662E-04  2.278999E-04  2.278999E-04 -4.972372E-18  4.304106E-18 -2.386636E-17

 displacements (vx,vy,vz) for set NALL and time  0.7147813E+00

         1  0.000000E+00  0.000000E+00  0.000000E+00
         2 -4.663950E-01  0.000000E+00  0.000000E+00
         3 -1.048852E+01  0.000000E+00  0.000000E+00
         4 -1.095492E+01  0.000000E+00  0.000000E+00
         5 -2.097704E+01  0.000000E+00  0.000000E+00
         6 -2.144344E+01  0.000000E+00  0.000000E+00
         7  0.000000E+00  1.398337E-01  0.000000E+00
         8 -4.663950E-01  1.398337E-01  0.000000E+00
         9 -1.048852E+01  1.398337E-01  0.000000E+00
        10 -1.095492E+01  1.398337E-01  0.000000E+00
        11 -2.097704E+01  1.398337E-01  0.000000E+00
        12 -2.144344E+01  1.398337E-01  0.000000E+00
        13  0.000000E+00  0.000000E+00  1.957671E-01
        14 -4.663950E-01  0.000000E+00  1.957671E-01
        15 -1.048852E+01  0.000000E+00  1.957671E-01
        16 -1.095492E+01  0.000000E+00  1.957671E-01
        17 -2.097704E+01  0.000000E+00  1.957671E-01
        18 -2.144344E+01  0.000000E+00  1.957671E-01
        19  0.000000E+00  1.398337E-01  1.957671E-01
        20 -4.663950E-01  1.398337E-01  1.957671E-01
        21 -1.048852E+01  1.398337E-01  1.957671E-01
        22 -1.095492E+01  1.398337E-01  1.957671E-01
        23 -2.097704E+01  1.398337E-01  1.957671E-01
        24 -2.144344E+01  1.398337E-01  1.957671E-01

 stresses (elem, integ.pnt.,sxx,syy,szz,sxy,sxz,syz) for set EALL and time  0.7147813E+00

         1   1 -1.955025E+02 -8.363784E-12 -7.368096E-12 -7.861684E-13 -5.611136E-13  3.441301E-13
         1   2 -1.955025E+02 -3.186204E-12 -2.731032E-12 -4.048030E-12 -3.271405E-12  2.989219E-13
         1   3 -1.955025E+02 -1.297240E-11 -1.157844E-11  3.310586E-13 -4.935767E-13  1.009375E-12
         1   4 -1.955025E+02 -7.837492E-12 -7.069389E-12 -2.930803E-12 -2.969902E-12  9.033414E-13
         1   5 -1.955025E+02 -1.079611E-11 -1.164956E-11 -6.952489E-13  6.157627E-13  6.104473E-13
         1   6 -1.955025E+02 -5.903011E-12 -7.140510E-12 -3.629667E-12 -2.094529E-12  5.140032E-13
         1   7 -1.955025E+02 -1.490688E-11 -1.539050E-11  3.328457E-13  6.311577E-13  1.277884E-12
         1   8 -1.955025E+02 -1.008490E-11 -1.100947E-11 -2.601573E-12 -1.840794E-12  1.118423E-12
         2   1 -1.955025E+02 -3.598703E-12 -3.299996E-12  7.788680E-12  8.333756E-12 -1.343094E-12
         2   2 -1.955025E+02 -1.928791E-11 -1.918834E-11  1.149715E-11  1.205972E-11  2.128620E-12
         2   3 -1.955025E+02  8.676715E-13 -9.814645E-13  4.693749E-12 -1.048296E-13 -3.521305E-12
         2   4 -1.955025E+02 -1.029826E-11 -6.329735E-12  8.480942E-12 -8.361434E-12  5.231544E-12
         2   5 -1.955025E+02 -6.173269E-12  2.275860E-13 -4.175570E-12  3.858022E-12 -2.834689E-12
         2   6 -1.955025E+02  3.996979E-12 -4.580168E-12 -1.680538E-11  7.986325E-12  4.838507E-12
         2   7 -1.955025E+02 -2.740988E-11 -2.317110E-11  9.132307E-14 -3.865592E-13 -5.012901E-12
         2   8 -1.955025E+02 -1.273059E-11 -1.745300E-11 -1.278338E-11 -8.888063E-12  7.939650E-12
         3   1 -1.955025E+02 -1.755257E-11 -1.705472E-11 -9.841233E-12 -8.550187E-12  1.615987E-12
         3   2 -1.955025E+02 -1.055430E-11 -1.139352E-11 -2.494254E-12 -1.955399E-12 -1.120478E-12
         3   3 -1.955025E+02 -4.580168E-12 -8.676715E-13 -8.245584E-12  1.098423E-11  3.777759E-12
         3   4 -1.955025E+02 -1.223275E-12 -3.755168E-12 -1.988932E-13  2.377771E-12 -3.008124E-12
         3   5 -1.955025E+02  6.557321E-12  9.814645E-13  1.670962E-11 -6.685507E-12  3.868723E-12
         3   6 -1.955025E+02 -6.258614E-12 -1.820688E-12  2.925285E-12 -5.455317E-13 -2.291506E-12
         3   7 -1.955025E+02 -1.162111E-11 -1.399654E-11  1.265839E-11  8.874535E-12  6.029948E-12
         3   8 -1.955025E+02 -2.813531E-11 -2.539006E-11 -6.361445E-13  6.179307E-13 -4.177235E-12

 strains (elem, integ.pnt.,exx,eyy,ezz,exy,exz,eyz) forset EALL and time  0.7147813E+00

         1   1 -9.323549E-04  2.797065E-04  2.797065E-04 -4.861978E-18 -3.468041E-18  2.128342E-18
         1   2 -9.323549E-04  2.797065E-04  2.797065E-04 -2.506010E-17 -2.025073E-17  1.848743E-18
         1   3 -9.323549E-04  2.797065E-04  2.797065E-04  2.072925E-18 -3.050155E-18  6.242684E-18
         1   4 -9.323549E-04  2.797065E-04  2.797065E-04 -1.812520E-17 -1.838408E-17  5.586897E-18
         1   5 -9.323549E-04  2.797065E-04  2.797065E-04 -4.299468E-18  3.837120E-18  3.775434E-18
         1   6 -9.323549E-04  2.797065E-04  2.797065E-04 -2.246999E-17 -1.294557E-17  3.178956E-18
         1   7 -9.323549E-04  2.797065E-04  2.797065E-04  2.082168E-18  3.931348E-18  7.903333E-18
         1   8 -9.323549E-04  2.797065E-04  2.797065E-04 -1.608836E-17 -1.137549E-17  6.917111E-18
         2   1 -9.323549E-04  2.797065E-04  2.797065E-04  4.821209E-17  5.157972E-17 -8.306633E-18
         2   2 -9.323549E-04  2.797065E-04  2.797065E-04  7.117573E-17  7.465169E-17  1.316488E-17
         2   3 -9.323549E-04  2.797065E-04  2.797065E-04  2.900109E-17 -6.507032E-19 -2.177822E-17
         2   4 -9.323549E-04  2.797065E-04  2.797065E-04  5.245217E-17 -5.177731E-17  3.235554E-17
         2   5 -9.323549E-04  2.797065E-04  2.797065E-04 -2.583250E-17  2.379775E-17 -1.753171E-17
         2   6 -9.323549E-04  2.797065E-04  2.797065E-04 -1.040389E-16  4.936105E-17  2.992472E-17
         2   7 -9.323549E-04  2.797065E-04  2.797065E-04  6.531515E-19 -2.399468E-18 -3.100330E-17
         2   8 -9.323549E-04  2.797065E-04  2.797065E-04 -7.906969E-17 -5.504254E-17  4.910437E-17
         3   1 -9.323549E-04  2.797065E-04  2.797065E-04 -6.093016E-17 -5.293737E-17  9.994395E-18
         3   2 -9.323549E-04  2.797065E-04  2.797065E-04 -1.543615E-17 -1.210108E-17 -6.929820E-18
         3   3 -9.323549E-04  2.797065E-04  2.797065E-04 -5.102558E-17  6.800504E-17  2.336431E-17
         3   4 -9.323549E-04  2.797065E-04  2.797065E-04 -1.198802E-18  1.471206E-17 -1.860435E-17
         3   5 -9.323549E-04  2.797065E-04  2.797065E-04  1.034471E-16 -4.137126E-17  2.392690E-17
         3   6 -9.323549E-04  2.797065E-04  2.797065E-04  1.809167E-17 -3.351261E-18 -1.417228E-17
         3   7 -9.323549E-04  2.797065E-04  2.797065E-04  7.830014E-17  5.490964E-17  3.729343E-17
         3   8 -9.323549E-04  2.797065E-04  2.797065E-04 -4.022365E-18  3.783034E-18 -2.583495E-17

 displacements (vx,vy,vz) for set NALL and time  0.7237813E+00

         1  0.000000E+00  0.000000E+00  0.000000E+00
         2 -5.526910E-01  0.000000E+00  0.000000E+00
         3 -1.058037E+01  0.000000E+00  0.000000E+00
         4 -1.113306E+01  0.000000E+00  0.000000E+00
         5 -2.116075E+01  0.000000E+00  0.000000E+00
         6 -2.171344E+01  0.000000E+00  0.000000E+00
         7  0.000000E+00  1.656882E-01  0.000000E+00
         8 -5.526910E-01  1.656882E-01  0.000000E+00
         9 -1.058037E+01  1.656882E-01  0.000000E+00
        10 -1.113306E+01  1.656882E-01  0.000000E+00
        11 -2.116075E+01  1.656882E-01  0.000000E+00
        12 -2.171344E+01  1.656882E-01  0.000000E+00
        13  0.000000E+00  0.000000E+00  2.319635E-01
        14 -5.526910E-01  0.000000E+00  2.319635E-01
        15 -1.058037E+01  0.000000E+00  2.319635E-01
        16 -1.113306E+01  0.000000E+00  2.319635E-01
        17 -2.116075E+01  0.000000E+00  2.319635E-01
        18 -2.171344E+01  0.000000E+00  2.319635E-01
        19  0.000000E+00  1.656882E-01  2.319635E-01
        20 -5.526910E-01  1.656882E-01  2.319635E-01
        21 -1.058037E+01  1.656882E-01  2.319635E-01
        22 -1.113306E+01  1.656882E-01  2.319635E-01
        23 -2.116075E+01  1.656882E-01  2.319635E-01
        24 -2.171344E+01  1.656882E-01  2.319635E-01

 stresses (elem, integ.pnt.,sxx,syy,szz,sxy,sxz,syz) for set EALL and time  0.7237813E+00

         1   1 -2.315920E+02 -2.105534E-12 -2.461198E-12  5.961765E-13  2.099903E-13 -2.159517E-13
         1   2 -2.315920E+02 -4.851264E-12 -3.072941E-12  3.100366E-12  4.996499E-13  2.237622E-13
         1   3 -2.315920E+02  1.010087E-12 -1.991721E-13 -2.786487E-13 -4.737214E-13 -2.192403E-13
         1   4 -2.315920E+02 -1.166580E-12  5.406101E-13  2.225540E-12 -2.578945E-12  8.909379E-13
         1   5 -2.315920E+02 -1.493791E-12 -1.863682E-12 -2.924244E-13  4.967780E-13 -8.079006E-13
         1   6 -2.315920E+02 -9.958606E-13 -1.066994E-12 -1.140635E-12  7.864376E-13  1.653894E-13
         1   7 -2.315920E+02 -3.428606E-12 -4.637865E-12 -2.318470E-13  3.372520E-13 -8.111892E-13
         1   8 -2.315920E+02 -2.347386E-12 -2.518105E-12 -1.080058E-12 -1.767972E-12  8.325652E-13
         2   1 -2.315920E+02 -1.892135E-12 -4.011896E-12  7.385160E-12  7.274188E-12 -2.421509E-12
         2   2 -2.315920E+02 -2.814018E-11 -2.446972E-11  2.509265E-11  1.730406E-11  2.137182E-12
         2   3 -2.315920E+02  2.044360E-11  1.350102E-11  1.282667E-12 -1.458653E-12 -5.664074E-12
         2   4 -2.315920E+02  9.958606E-14  6.800305E-12  1.899890E-11 -1.237171E-11  5.849058E-12
         2   5 -2.315920E+02  3.599325E-12  1.051344E-11 -4.561570E-12  2.778634E-12 -5.794522E-12
         2   6 -2.315920E+02  1.138126E-11  4.637865E-12 -1.603428E-11  1.307084E-11  4.263128E-12
         2   7 -2.315920E+02 -1.725684E-11 -1.515131E-11 -9.689468E-13 -7.583219E-13 -9.037086E-12
         2   8 -2.315920E+02 -3.570872E-12 -7.269783E-12 -1.240667E-11 -1.163641E-11  7.977607E-12
         3   1 -2.315920E+02 -2.737194E-11 -2.303283E-11 -2.374536E-11 -1.505757E-11  1.836138E-12
         3   2 -2.315920E+02 -4.879717E-12 -8.393683E-12 -4.385169E-12 -3.567375E-12 -2.256531E-12
         3   3 -2.315920E+02  2.404292E-12  9.489129E-12 -1.809351E-11  1.333334E-11  4.916464E-12
         3   4 -2.315920E+02  1.951887E-11  1.156621E-11  9.868551E-13  2.909968E-12 -5.337406E-12
         3   5 -2.315920E+02  1.206414E-11  7.781940E-12  1.571367E-11 -1.254651E-11  3.780251E-12
         3   6 -2.315920E+02  4.353334E-12  9.460676E-12  3.191628E-12 -1.108780E-12 -5.342202E-12
         3   7 -2.315920E+02 -4.452920E-12 -5.975164E-12  1.277484E-11  1.076508E-11  6.860030E-12
         3   8 -2.315920E+02 -1.754137E-11 -1.685850E-11  4.626712E-13  6.914812E-13 -8.427050E-12

 strains (elem, integ.pnt.,exx,eyy,ezz,exy,exz,eyz) forset EALL and time  0.7237813E+00

         1   1 -1.104771E-03  3.314313E-04  3.314313E-04  3.686119E-18  1.302224E-18 -1.335366E-18
         1   2 -1.104771E-03  3.314313E-04  3.314313E-04  1.919338E-17  3.095949E-18  1.383663E-18
         1   3 -1.104771E-03  3.314313E-04  3.314313E-04 -1.746856E-18 -2.928221E-18 -1.355702E-18
         1   4 -1.104771E-03  3.314313E-04  3.314313E-04  1.376040E-17 -1.596488E-17  5.509233E-18
         1   5 -1.104771E-03  3.314313E-04  3.314313E-04 -1.810447E-18  3.083277E-18 -4.995761E-18
         1   6 -1.104771E-03  3.314313E-04  3.314313E-04 -7.063015E-18  4.877002E-18  1.022708E-18
         1   7 -1.104771E-03  3.314313E-04  3.314313E-04 -1.434240E-18  2.108211E-18 -5.016097E-18
         1   8 -1.104771E-03  3.314313E-04  3.314313E-04 -6.686808E-18 -1.092845E-17  5.148278E-18
         2   1 -1.104771E-03  3.314313E-04  3.314313E-04  4.569299E-17  4.501628E-17 -1.497373E-17
         2   2 -1.104771E-03  3.314313E-04  3.314313E-04  1.553471E-16  1.071265E-16  1.321555E-17
         2   3 -1.104771E-03  3.314313E-04  3.314313E-04  7.794341E-18 -9.026331E-18 -3.502456E-17
         2   4 -1.104771E-03  3.314313E-04  3.314313E-04  1.175026E-16 -7.660576E-17  3.616843E-17
         2   5 -1.104771E-03  3.314313E-04  3.314313E-04 -2.822421E-17  1.709730E-17 -3.583120E-17
         2   6 -1.104771E-03  3.314313E-04  3.314313E-04 -9.926925E-17  8.083207E-17  2.636162E-17
         2   7 -1.104771E-03  3.314313E-04  3.314313E-04 -5.912748E-18 -4.672035E-18 -5.588203E-17
         2   8 -1.104771E-03  3.314313E-04  3.314313E-04 -7.674119E-17 -7.203487E-17  4.933060E-17
         3   1 -1.104771E-03  3.314313E-04  3.314313E-04 -1.470069E-16 -9.322851E-17  1.135400E-17
         3   2 -1.104771E-03  3.314313E-04  3.314313E-04 -2.711841E-17 -2.207516E-17 -1.395356E-17
         3   3 -1.104771E-03  3.314313E-04  3.314313E-04 -1.119070E-16  8.255036E-17  3.040161E-17
         3   4 -1.104771E-03  3.314313E-04  3.314313E-04  6.248752E-18  1.800334E-17 -3.300456E-17
         3   5 -1.104771E-03  3.314313E-04  3.314313E-04  9.728814E-17 -7.763517E-17  2.337569E-17
         3   6 -1.104771E-03  3.314313E-04  3.314313E-04  1.974507E-17 -6.806728E-18 -3.303422E-17
         3   7 -1.104771E-03  3.314313E-04  3.314313E-04  7.903700E-17  6.660053E-17  4.241991E-17
         3   8 -1.104771E-03  3.314313E-04  3.314313E-04  2.793539E-18  4.219518E-18 -5.210979E-17

 displacements (vx,vy,vz) for set NALL and time  0.7327813E+00

         1  0.000000E+00  0.000000E+00  0.000000E+00
         2 -6.389136E-01  0.000000E+00  0.000000E+00
         3 -1.067226E+01  0.000000E+00  0.000000E+00
         4 -1.131118E+01  0.000000E+00  0.000000E+00
         5 -2.134452E+01  0.000000E+00  0.000000E+00
         6 -2.198344E+01  0.000000E+00  0.000000E+00
         7  0.000000E+00  1.915149E-01  0.000000E+00
         8 -6.389136E-01  1.915149E-01  0.000000E+00
         9 -1.067226E+01  1.915149E-01  0.000000E+00
        10 -1.131118E+01  1.915149E-01  0.000000E+00
        11 -2.134452E+01  1.915149E-01  0.000000E+00
        12 -2.198344E+01  1.915149E-01  0.000000E+00
        13  0.000000E+00  0.000000E+00  2.681209E-01
        14 -6.389136E-01  0.000000E+00  2.681209E-01
        15 -1.067226E+01  0.000000E+00  2.681209E-01
        16 -1.131118E+01  0.000000E+00  2.681209E-01
        17 -2.134452E+01  0.000000E+00  2.681209E-01
        18 -2.198344E+01  0.000000E+00  2.681209E-01
        19  0.000000E+00  1.915149E-01  2.681209E-01
        20 -6.389136E-01  1.915149E-01  2.681209E-01
        21 -1.067226E+01  1.915149E-01  2.681209E-01
        22 -1.131118E+01  1.915149E-01  2.681209E-01
        23 -2.134452E+01  1.915149E-01  2.681209E-01
        24 -2.198344E+01  1.915149E-01  2.681209E-01

 stresses (elem, integ.pnt.,sxx,syy,szz,sxy,sxz,syz) for set EALL and time  0.7327813E+00

         1   1 -2.676245E+02 -3.841840E-13 -7.541390E-13  6.339746E-13 -7.953869E-15 -1.578884E-13
         1   2 -2.676245E+02 -3.315366E-12 -4.268711E-14  3.507518E-12 -9.794618E-13  2.203860E-13
         1   3 -2.676245E+02  3.059243E-12  1.465591E-12 -5.006608E-13 -6.008072E-13  2.675332E-13
         1   4 -2.676245E+02  6.260776E-13  3.301137E-12  2.372883E-12 -3.638819E-12  1.228569E-12
         1   5 -2.676245E+02 -2.988098E-13 -1.878233E-12 -1.342179E-13  9.398485E-13 -1.019696E-12
         1   6 -2.676245E+02 -4.126421E-13  4.268711E-14 -1.713734E-13 -3.165945E-14 -1.842032E-13
         1   7 -2.676245E+02 -1.309071E-12 -4.112192E-12 -4.582435E-13  8.076717E-13 -5.920817E-13
         1   8 -2.676245E+02 -9.248874E-13 -1.067178E-12 -4.953991E-13 -2.232525E-12  8.239803E-13
         2   1 -2.676245E+02 -3.799153E-12 -1.038720E-12  2.301927E-12  8.622448E-12 -2.306377E-12
         2   2 -2.676245E+02 -1.733097E-11 -1.848352E-11  1.696306E-11  1.763594E-11  2.589261E-12
         2   3 -2.676245E+02  1.475551E-11  1.310494E-11  1.851234E-13 -1.467762E-12 -5.535964E-12
         2   4 -2.676245E+02  7.555619E-12  1.044411E-11  1.457524E-11 -1.412687E-11  6.833335E-12
         2   5 -2.676245E+02 -4.411001E-13  1.135477E-11 -1.095173E-11  2.941634E-12 -5.384106E-12
         2   6 -2.676245E+02  2.260994E-11  9.590371E-12 -2.668819E-11  1.178902E-11  5.417821E-12
         2   7 -2.676245E+02 -2.700671E-11 -1.962184E-11 -2.938828E-12 -1.272473E-12 -8.613692E-12
         2   8 -2.676245E+02  2.362020E-12 -6.630731E-12 -1.836056E-11 -1.361685E-11  9.665733E-12
         3   1 -2.676245E+02 -1.848352E-11 -1.630648E-11 -1.832329E-11 -1.409339E-11  2.320631E-12
         3   2 -2.676245E+02 -2.632372E-12 -4.994392E-12 -3.950650E-12 -3.165294E-12 -1.978128E-12
         3   3 -2.676245E+02  5.862363E-12  1.222274E-11 -1.449716E-11  1.599396E-11  5.732228E-12
         3   4 -2.676245E+02  1.619264E-11  1.065755E-11 -2.644080E-13  3.544671E-12 -5.163446E-12
         3   5 -2.676245E+02  2.132933E-11  1.395869E-11  2.321455E-11 -1.196689E-11  5.256918E-12
         3   6 -2.676245E+02  4.823644E-12  1.136900E-11  4.610552E-12 -8.814229E-13 -4.190485E-12
         3   7 -2.676245E+02 -3.671092E-12 -6.844167E-12  1.784685E-11  1.306791E-11  8.668514E-12
         3   8 -2.676245E+02 -2.566918E-11 -2.229690E-11 -1.106845E-12  7.585008E-13 -7.381833E-12

 strains (elem, integ.pnt.,exx,eyy,ezz,exy,exz,eyz) forset EALL and time  0.7327813E+00

         1   1 -1.277011E-03  3.831032E-04  3.831032E-04  3.917539E-18 -4.209962E-20 -9.761557E-19
         1   2 -1.277011E-03  3.831032E-04  3.831032E-04  2.171296E-17 -6.058500E-18  1.362551E-18
         1   3 -1.277011E-03  3.831032E-04  3.831032E-04 -3.132474E-18 -3.710114E-18  1.654042E-18
         1   4 -1.277011E-03  3.831032E-04  3.831032E-04  1.466294E-17 -2.252406E-17  7.595712E-18
         1   5 -1.277011E-03  3.831032E-04  3.831032E-04 -8.336421E-19  5.847034E-18 -6.304339E-18
         1   6 -1.277011E-03  3.831032E-04  3.831032E-04 -1.063741E-18 -1.693663E-19 -1.138848E-18
         1   7 -1.277011E-03  3.831032E-04  3.831032E-04 -2.846963E-18  5.041370E-18 -3.660584E-18
         1   8 -1.277011E-03  3.831032E-04  3.831032E-04 -3.077062E-18 -1.378611E-17  5.094313E-18
         2   1 -1.277011E-03  3.831032E-04  3.831032E-04  1.423950E-17  5.335466E-17 -1.425933E-17
         2   2 -1.277011E-03  3.831032E-04  3.831032E-04  1.050337E-16  1.091739E-16  1.600828E-17
         2   3 -1.277011E-03  3.831032E-04  3.831032E-04  1.086819E-18 -9.088162E-18 -3.422646E-17
         2   4 -1.277011E-03  3.831032E-04  3.831032E-04  9.020264E-17 -8.748409E-17  4.224754E-17
         2   5 -1.277011E-03  3.831032E-04  3.831032E-04 -6.775978E-17  1.805714E-17 -3.328759E-17
         2   6 -1.277011E-03  3.831032E-04  3.831032E-04 -1.652133E-16  7.284767E-17  3.349604E-17
         2   7 -1.277011E-03  3.831032E-04  3.831032E-04 -1.796617E-17 -7.874746E-18 -5.325472E-17
         2   8 -1.277011E-03  3.831032E-04  3.831032E-04 -1.134706E-16 -8.432161E-17  5.975903E-17
         3   1 -1.277011E-03  3.831032E-04  3.831032E-04 -1.134445E-16 -8.726166E-17  1.434746E-17
         3   2 -1.277011E-03  3.831032E-04  3.831032E-04 -2.443692E-17 -1.958562E-17 -1.222991E-17
         3   3 -1.277011E-03  3.831032E-04  3.831032E-04 -8.967099E-17  9.902608E-17  3.543988E-17
         3   4 -1.277011E-03  3.831032E-04  3.831032E-04 -1.529711E-18  2.192952E-17 -3.192334E-17
         3   5 -1.277011E-03  3.831032E-04  3.831032E-04  1.437237E-16 -7.404725E-17  3.250124E-17
         3   6 -1.277011E-03  3.831032E-04  3.831032E-04  2.851196E-17 -5.396669E-18 -2.590795E-17
         3   7 -1.277011E-03  3.831032E-04  3.831032E-04  1.103717E-16  8.084518E-17  5.359366E-17
         3   8 -1.277011E-03  3.831032E-04  3.831032E-04 -7.005657E-18  4.614876E-18 -4.563867E-17

 displacements (vx,vy,vz) for set NALL and time  0.7417813E+00

         1  0.000000E+00  0.000000E+00  0.000000E+00
         2 -7.251009E-01  0.000000E+00  0.000000E+00
         3 -1.076417E+01  0.000000E+00  0.000000E+00
         4 -1.148927E+01  0.000000E+00  0.000000E+00
         5 -2.152834E+01  0.000000E+00  0.000000E+00
         6 -2.225344E+01  0.000000E+00  0.000000E+00
         7  0.000000E+00  2.173253E-01  0.000000E+00
         8 -7.251009E-01  2.173253E-01  0.000000E+00
         9 -1.076417E+01  2.173253E-01  0.000000E+00
        10 -1.148927E+01  2.173253E-01  0.000000E+00
        11 -2.152834E+01  2.173253E-01  0.000000E+00
        12 -2.225344E+01  2.173253E-01  0.000000E+00
        13  0.000000E+00  0.000000E+00  3.042554E-01
        14 -7.251009E-01  0.000000E+00  3.042554E-01
        15 -1.076417E+01  0.000000E+00  3.042554E-01
        16 -1.148927E+01  0.000000E+00  3.042554E-01
        17 -2.152834E+01  0.000000E+00  3.042554E-01
        18 -2.225344E+01  0.000000E+00  3.042554E-01
        19  0.000000E+00  2.173253E-01  3.042554E-01
        20 -7.251009E-01  2.173253E-01  3.042554E-01
        21 -1.076417E+01  2.173253E-01  3.042554E-01
        22 -1.148927E+01  2.173253E-01  3.042554E-01
        23 -2.152834E+01  2.173253E-01  3.042554E-01
        24 -2.225344E+01  2.173253E-01  3.042554E-01

 stresses (elem, integ.pnt.,sxx,syy,szz,sxy,sxz,syz) for set EALL and time  0.7417813E+00

         1   1 -3.036162E+02 -5.692597E-14 -1.394686E-12  1.355380E-12 -5.156923E-13 -1.464086E-13
         1   2 -3.036162E+02 -8.894683E-12 -3.130929E-13  8.304093E-12 -4.300883E-12 -4.633530E-13
         1   3 -3.036162E+02  8.197340E-12  3.927892E-12 -1.885060E-12 -2.759659E-14  1.503567E-12
         1   4 -3.036162E+02 -1.024668E-12  4.027513E-12  5.063653E-12 -2.103470E-12  7.073672E-13
         1   5 -3.036162E+02  7.115747E-14 -5.920301E-12  1.990074E-12  1.861612E-12 -2.198322E-12
         1   6 -3.036162E+02 -1.114326E-11 -5.834912E-12  1.134898E-11 -1.923579E-12 -2.908431E-12
         1   7 -3.036162E+02  1.195445E-11  3.002845E-12 -1.915029E-12  1.961487E-12 -5.461533E-13
         1   8 -3.036162E+02  3.273243E-13  2.106261E-12  7.443881E-12 -1.143861E-13 -1.737711E-12
         2   1 -3.036162E+02 -6.546487E-12 -1.636622E-12  2.094230E-12  1.300783E-11 -3.590574E-12
         2   2 -3.036162E+02 -2.708253E-11 -2.511859E-11  2.544016E-11  2.115400E-11  2.865660E-12
         2   3 -3.036162E+02  2.151802E-11  1.764705E-11 -1.543154E-12 -4.133554E-12 -7.242563E-12
         2   4 -3.036162E+02  9.335860E-12  1.356261E-11  2.189018E-11 -1.706952E-11  9.106668E-12
         2   5 -3.036162E+02 -7.884247E-12  7.229599E-12 -2.090558E-11  5.849477E-12 -9.745218E-12
         2   6 -3.036162E+02  1.999525E-11  4.482920E-12 -2.632470E-11  1.386453E-11  4.467655E-12
         2   7 -3.036162E+02 -2.298386E-11 -1.665085E-11 -1.078132E-11 -3.585029E-12 -1.339940E-11
         2   8 -3.036162E+02  1.324952E-11  2.846299E-14 -1.616548E-11 -1.634619E-11  1.070921E-11
         3   1 -3.036162E+02 -3.017077E-11 -2.269923E-11 -2.884361E-11 -1.532588E-11  2.214224E-12
         3   2 -3.036162E+02 -3.600568E-12 -7.457302E-12 -5.471466E-12 -3.910767E-12 -2.565166E-12
         3   3 -3.036162E+02  5.920301E-12  1.583965E-11 -2.186819E-11  1.843971E-11  6.549453E-12
         3   4 -3.036162E+02  2.628557E-11  1.660815E-11  1.643807E-12  3.615790E-12 -5.501562E-12
         3   5 -3.036162E+02  1.630929E-11  1.164136E-11  1.786561E-11 -1.365644E-11  3.923969E-12
         3   6 -3.036162E+02  7.201136E-12  1.161290E-11  4.090556E-12 -1.734374E-12 -6.632665E-12
         3   7 -3.036162E+02 -3.728651E-12 -5.948764E-12  1.471405E-11  1.456732E-11  8.260295E-12
         3   8 -3.036162E+02 -1.899904E-11 -2.042219E-11  8.690678E-13  9.302243E-14 -9.570295E-12

 strains (elem, integ.pnt.,exx,eyy,ezz,exy,exz,eyz) forset EALL and time  0.7417813E+00

         1   1 -1.449150E-03  4.347451E-04  4.347451E-04  8.366342E-18 -3.173429E-18 -9.050244E-19
         1   2 -1.449150E-03  4.347451E-04  4.347451E-04  5.140088E-17 -2.661575E-17 -2.864216E-18
         1   3 -1.449150E-03  4.347451E-04  4.347451E-04 -1.177808E-17 -1.538626E-19  9.294295E-18
         1   4 -1.449150E-03  4.347451E-04  4.347451E-04  3.125646E-17 -1.301009E-17  4.372590E-18
         1   5 -1.449150E-03  4.347451E-04  4.347451E-04  1.229140E-17  1.160525E-17 -1.358892E-17
         1   6 -1.449150E-03  4.347451E-04  4.347451E-04  7.025270E-17 -1.183707E-17 -1.797846E-17
         1   7 -1.449150E-03  4.347451E-04  4.347451E-04 -1.198494E-17  1.221141E-17 -3.376046E-18
         1   8 -1.449150E-03  4.347451E-04  4.347451E-04  4.597635E-17 -6.448152E-19 -1.074166E-17
         2   1 -1.449150E-03  4.347451E-04  4.347451E-04  1.293874E-17  8.049837E-17 -2.219513E-17
         2   2 -1.449150E-03  4.347451E-04  4.347451E-04  1.575240E-16  1.309489E-16  1.771407E-17
         2   3 -1.449150E-03  4.347451E-04  4.347451E-04 -9.673310E-18 -2.559507E-17 -4.476990E-17
         2   4 -1.449150E-03  4.347451E-04  4.347451E-04  1.354532E-16 -1.057097E-16  5.629286E-17
         2   5 -1.449150E-03  4.347451E-04  4.347451E-04 -1.293850E-16  3.599794E-17 -6.024005E-17
         2   6 -1.449150E-03  4.347451E-04  4.347451E-04 -1.629465E-16  8.563652E-17  2.761680E-17
         2   7 -1.449150E-03  4.347451E-04  4.347451E-04 -6.644680E-17 -2.218512E-17 -8.282837E-17
         2   8 -1.449150E-03  4.347451E-04  4.347451E-04 -9.979180E-17 -1.012171E-16  6.619897E-17
         3   1 -1.449150E-03  4.347451E-04  4.347451E-04 -1.785736E-16 -9.489969E-17  1.368722E-17
         3   2 -1.449150E-03  4.347451E-04  4.347451E-04 -3.382597E-17 -2.420396E-17 -1.585657E-17
         3   3 -1.449150E-03  4.347451E-04  4.347451E-04 -1.352104E-16  1.141670E-16  4.048544E-17
         3   4 -1.449150E-03  4.347451E-04  4.347451E-04  1.040334E-17  2.235999E-17 -3.400790E-17
         3   5 -1.449150E-03  4.347451E-04  4.347451E-04  1.106177E-16 -8.451657E-17  2.425601E-17
         3   6 -1.449150E-03  4.347451E-04  4.347451E-04  2.530649E-17 -1.068122E-17 -4.099981E-17
         3   7 -1.449150E-03  4.347451E-04  4.347451E-04  9.102581E-17  9.009403E-17  5.106100E-17
         3   8 -1.449150E-03  4.347451E-04  4.347451E-04  5.281527E-18  4.522782E-19 -5.915877E-17

 displacements (vx,vy,vz) for set NALL and time  0.7507813E+00

         1  0.000000E+00  0.000000E+00  0.000000E+00
         2 -8.112852E-01  0.000000E+00  0.000000E+00
         3 -1.085608E+01  0.000000E+00  0.000000E+00
         4 -1.166736E+01  0.000000E+00  0.000000E+00
         5 -2.171215E+01  0.000000E+00  0.000000E+00
         6 -2.252344E+01  0.000000E+00  0.000000E+00
         7  0.000000E+00  2.431290E-01  0.000000E+00
         8 -8.112852E-01  2.431290E-01  0.000000E+00
         9 -1.085608E+01  2.431290E-01  0.000000E+00
        10 -1.166736E+01  2.431290E-01  0.000000E+00
        11 -2.171215E+01  2.431290E-01  0.000000E+00
        12 -2.252344E+01  2.431290E-01  0.000000E+00
        13  0.000000E+00  0.000000E+00  3.403806E-01
        14 -8.112852E-01  0.000000E+00  3.403806E-01
        15 -1.085608E+01  0.000000E+00  3.403806E-01
        16 -1.166736E+01  0.000000E+00  3.403806E-01
        17 -2.171215E+01  0.000000E+00  3.403806E-01
        18 -2.252344E+01  0.000000E+00  3.403806E-01
        19  0.000000E+00  2.431290E-01  3.403806E-01
        20 -8.112852E-01  2.431290E-01  3.403806E-01
        21 -1.085608E+01  2.431290E-01  3.403806E-01
        22 -1.166736E+01  2.431290E-01  3.403806E-01
        23 -2.171215E+01  2.431290E-01  3.403806E-01
        24 -2.252344E+01  2.431290E-01  3.403806E-01

 stresses (elem, integ.pnt.,sxx,syy,szz,sxy,sxz,syz) for set EALL and time  0.7507813E+00

         1   1 -3.395806E+02  7.401654E-13 -1.992753E-13  8.172099E-13 -1.337564E-12  2.435205E-13
         1   2 -3.395806E+02 -5.665112E-12  5.095754E-12  6.062530E-12 -8.902426E-12 -7.157529E-13
         1   3 -3.395806E+02  6.405278E-12  2.391304E-12 -2.209769E-12  1.464235E-13  3.071430E-12
         1   4 -3.395806E+02 -1.281056E-12  4.754139E-12  3.035552E-12 -2.206434E-12  6.491138E-13
         1   5 -3.395806E+02 -1.281056E-12 -1.013457E-11  2.735804E-12  2.570421E-12 -1.921838E-12
         1   6 -3.395806E+02 -1.486024E-11 -7.914076E-12  1.527564E-11 -4.994441E-12 -4.034269E-12
         1   7 -3.395806E+02  1.523033E-11  3.302276E-12 -2.318598E-12  2.904168E-12  9.082658E-13
         1   8 -3.395806E+02  3.985506E-13  2.619047E-12  1.023434E-11  5.425722E-13 -2.669402E-12
         2   1 -3.395806E+02  2.562111E-13  4.270185E-13  9.393044E-12  1.236915E-11 -3.628675E-12
         2   2 -3.395806E+02 -3.384833E-11 -2.069616E-11  3.393092E-11  1.410812E-11  2.655964E-12
         2   3 -3.395806E+02  2.843943E-11  1.742236E-11  6.761741E-13 -6.923238E-12 -5.727120E-12
         2   4 -3.395806E+02  2.533643E-12  1.531573E-11  2.523153E-11 -1.982135E-11  1.012749E-11
         2   5 -3.395806E+02 -6.860764E-12 -8.540370E-13 -1.719230E-11  9.204281E-12 -1.143998E-11
         2   6 -3.395806E+02  5.921323E-12 -1.878881E-12 -1.247348E-11  1.105686E-11  2.439867E-12
         2   7 -3.395806E+02 -8.597306E-12 -1.377846E-11 -1.232151E-11 -2.817732E-12 -1.353843E-11
         2   8 -3.395806E+02  1.232660E-11  4.213249E-12 -7.812417E-12 -1.540126E-11  9.909750E-12
         3   1 -3.395806E+02 -3.512939E-11 -1.950051E-11 -3.353931E-11 -8.736733E-12  1.621825E-12
         3   2 -3.395806E+02 -3.017597E-12 -7.629397E-12 -6.711931E-12 -2.811989E-12 -2.420122E-12
         3   3 -3.395806E+02  4.668736E-12  1.904503E-11 -2.413464E-11  1.967501E-11  6.950208E-12
         3   4 -3.395806E+02  3.151397E-11  1.856107E-11  3.391825E-12  3.456244E-12 -3.225002E-12
         3   5 -3.395806E+02  4.213249E-12  4.953415E-12  5.354965E-12 -9.544141E-12  7.426279E-13
         3   6 -3.395806E+02  6.291406E-12  3.871634E-12  1.649816E-12 -3.671829E-12 -8.222109E-12
         3   7 -3.395806E+02 -3.074533E-12 -3.586955E-12  6.232430E-12  1.383688E-11  6.066074E-12
         3   8 -3.395806E+02 -6.234470E-12 -1.696687E-11  2.387463E-12 -2.521707E-12 -9.025617E-12

 strains (elem, integ.pnt.,exx,eyy,ezz,exy,exz,eyz) forset EALL and time  0.7507813E+00

         1   1 -1.621254E-03  4.863762E-04  4.863762E-04  5.032372E-18 -8.246708E-18  1.505062E-18
         1   2 -1.621254E-03  4.863762E-04  4.863762E-04  3.751919E-17 -5.509958E-17 -4.423662E-18
         1   3 -1.621254E-03  4.863762E-04  4.863762E-04 -1.379446E-17  9.333091E-19  1.898276E-17
         1   4 -1.621254E-03  4.863762E-04  4.863762E-04  1.869236E-17 -1.363908E-17  4.011804E-18
         1   5 -1.621254E-03  4.863762E-04  4.863762E-04  1.689566E-17  1.605970E-17 -1.187779E-17
         1   6 -1.621254E-03  4.863762E-04  4.863762E-04  9.456094E-17 -3.079316E-17 -2.493352E-17
         1   7 -1.621254E-03  4.863762E-04  4.863762E-04 -1.454121E-17  1.808559E-17  5.613475E-18
         1   8 -1.621254E-03  4.863762E-04  4.863762E-04  6.320525E-17  3.459082E-18 -1.649806E-17
         2   1 -1.621254E-03  4.863762E-04  4.863762E-04  5.809213E-17  7.657781E-17 -2.242678E-17
         2   2 -1.621254E-03  4.863762E-04  4.863762E-04  2.100671E-16  8.734811E-17  1.641501E-17
         2   3 -1.621254E-03  4.863762E-04  4.863762E-04  3.875996E-18 -4.283693E-17 -3.539608E-17
         2   4 -1.621254E-03  4.863762E-04  4.863762E-04  1.559592E-16 -1.227212E-16  6.259227E-17
         2   5 -1.621254E-03  4.863762E-04  4.863762E-04 -1.064362E-16  5.689336E-17 -7.070402E-17
         2   6 -1.621254E-03  4.863762E-04  4.863762E-04 -7.721024E-17  6.836725E-17  1.507943E-17
         2   7 -1.621254E-03  4.863762E-04  4.863762E-04 -7.614879E-17 -1.729467E-17 -8.367331E-17
         2   8 -1.621254E-03  4.863762E-04  4.863762E-04 -4.822176E-17 -9.523057E-17  6.124653E-17
         3   1 -1.621254E-03  4.863762E-04  4.863762E-04 -2.076351E-16 -5.411994E-17  1.002358E-17
         3   2 -1.621254E-03  4.863762E-04  4.863762E-04 -4.148009E-17 -1.742513E-17 -1.495740E-17
         3   3 -1.621254E-03  4.863762E-04  4.863762E-04 -1.491411E-16  1.218009E-16  4.295528E-17
         3   4 -1.621254E-03  4.863762E-04  4.863762E-04  2.134371E-17  2.135024E-17 -1.993190E-17
         3   5 -1.621254E-03  4.863762E-04  4.863762E-04  3.317433E-17 -5.914542E-17  4.589761E-18
         3   6 -1.621254E-03  4.863762E-04  4.863762E-04  1.022654E-17 -2.277534E-17 -5.081618E-17
         3   7 -1.621254E-03  4.863762E-04  4.863762E-04  3.863187E-17  8.548963E-17  3.749096E-17
         3   8 -1.621254E-03  4.863762E-04  4.863762E-04  1.481813E-17 -1.582703E-17 -5.578221E-17

 displacements (vx,vy,vz) for set NALL and time  0.7597813E+00

         1  0.000000E+00  0.000000E+00  0.000000E+00
         2 -8.974944E-01  0.000000E+00  0.000000E+00
         3 -1.094797E+01  0.000000E+00  0.000000E+00
         4 -1.184547E+01  0.000000E+00  0.000000E+00
         5 -2.189594E+01  0.000000E+00  0.000000E+00
         6 -2.279344E+01  0.000000E+00  0.000000E+00
         7  0.000000E+00  2.689343E-01  0.000000E+00
         8 -8.974944E-01  2.689343E-01  0.000000E+00
         9 -1.094797E+01  2.689343E-01  0.000000E+00
        10 -1.184547E+01  2.689343E-01  0.000000E+00
        11 -2.189594E+01  2.689343E-01  0.000000E+00
        12 -2.279344E+01  2.689343E-01  0.000000E+00
        13  0.000000E+00  0.000000E+00  3.765081E-01
        14 -8.974944E-01  0.000000E+00  3.765081E-01
        15 -1.094797E+01  0.000000E+00  3.765081E-01
        16 -1.184547E+01  0.000000E+00  3.765081E-01
        17 -2.189594E+01  0.000000E+00  3.765081E-01
        18 -2.279344E+01  0.000000E+00  3.765081E-01
        19  0.000000E+00  2.689343E-01  3.765081E-01
        20 -8.974944E-01  2.689343E-01  3.765081E-01
        21 -1.094797E+01  2.689343E-01  3.765081E-01
        22 -1.184547E+01  2.689343E-01  3.765081E-01
        23 -2.189594E+01  2.689343E-01  3.765081E-01
        24 -2.279344E+01  2.689343E-01  3.765081E-01

 stresses (elem, integ.pnt.,sxx,syy,szz,sxy,sxz,syz) for set EALL and time  0.7597813E+00

         1   1 -3.755293E+02  4.270923E-13 -3.132010E-13  9.163838E-13 -6.470843E-13 -1.316622E-14
         1   2 -3.755293E+02 -5.182053E-12  2.591026E-12  5.791406E-12 -5.011016E-12 -2.164198E-13
         1   3 -3.755293E+02  5.893873E-12  2.619499E-12 -1.475404E-12 -3.470971E-13  1.680888E-12
         1   4 -3.755293E+02  2.847282E-14  5.011216E-12  3.399619E-12 -3.625506E-12  1.166308E-12
         1   5 -3.755293E+02 -4.840379E-13 -5.950819E-12  1.299799E-12  1.935643E-12 -1.740136E-12
         1   6 -3.755293E+02 -7.659188E-12 -3.758412E-12  7.686253E-12 -2.428288E-12 -2.195742E-12
         1   7 -3.755293E+02  7.289041E-12 -6.833476E-13 -1.528618E-12  1.988857E-12 -4.608179E-14
         1   8 -3.755293E+02 -1.423641E-13  9.111302E-13  4.857837E-12 -1.282999E-12 -8.130144E-13
         2   1 -3.755293E+02 -2.847282E-14 -1.850733E-12  8.844060E-12  8.680184E-12 -3.057856E-12
         2   2 -3.755293E+02 -3.248749E-11 -2.055737E-11  3.196110E-11  1.338921E-11  2.382264E-12
         2   3 -3.755293E+02  2.761863E-11  1.688438E-11  3.558147E-13 -5.038046E-12 -5.158966E-12
         2   4 -3.755293E+02  2.249353E-12  1.463503E-11  2.349033E-11 -1.866714E-11  8.569567E-12
         2   5 -3.755293E+02 -5.125107E-13  3.559102E-12 -9.932832E-12  6.330615E-12 -9.314007E-12
         2   6 -3.755293E+02  7.630715E-12  2.220880E-12 -1.220435E-11  1.087365E-11  2.705659E-12
         2   7 -3.755293E+02 -1.087662E-11 -1.577394E-11 -6.902853E-12 -1.000578E-12 -1.141292E-11
         2   8 -3.755293E+02  4.327868E-12 -6.264020E-13 -9.104476E-12 -1.445494E-11  8.894882E-12
         3   1 -3.755293E+02 -3.274374E-11 -1.981708E-11 -3.201807E-11 -1.048158E-11  1.737942E-12
         3   2 -3.755293E+02 -3.331320E-12 -7.573770E-12 -6.052897E-12 -3.177780E-12 -2.393784E-12
         3   3 -3.755293E+02  5.438308E-12  1.813718E-11 -2.363851E-11  1.879903E-11  6.651138E-12
         3   4 -3.755293E+02  2.944089E-11  1.776704E-11  2.326668E-12  3.352717E-12 -3.757311E-12
         3   5 -3.755293E+02  7.317514E-12  6.406384E-12  8.820982E-12 -1.031515E-11  1.571169E-12
         3   6 -3.755293E+02  5.865400E-12  5.381363E-12  2.181167E-12 -2.784205E-12 -7.566465E-12
         3   7 -3.755293E+02 -2.534081E-12 -3.644521E-12  8.479960E-12  1.335727E-11  6.479977E-12
         3   8 -3.755293E+02 -9.339084E-12 -1.722605E-11  1.770251E-12 -2.019148E-12 -8.936575E-12

 strains (elem, integ.pnt.,exx,eyy,ezz,exy,exz,eyz) forset EALL and time  0.7597813E+00

         1   1 -1.793378E-03  5.380134E-04  5.380134E-04  5.650553E-18 -3.980456E-18 -8.135890E-20
         1   2 -1.793378E-03  5.380134E-04  5.380134E-04  3.584550E-17 -3.100980E-17 -1.337337E-18
         1   3 -1.793378E-03  5.380134E-04  5.380134E-04 -9.233041E-18 -2.125031E-18  1.038682E-17
         1   4 -1.793378E-03  5.380134E-04  5.380134E-04  2.096190E-17 -2.243086E-17  7.207043E-18
         1   5 -1.793378E-03  5.380134E-04  5.380134E-04  8.020765E-18  1.209132E-17 -1.075293E-17
         1   6 -1.793378E-03  5.380134E-04  5.380134E-04  4.757722E-17 -1.493803E-17 -1.356829E-17
         1   7 -1.793378E-03  5.380134E-04  5.380134E-04 -9.579877E-18  1.241106E-17 -2.847561E-19
         1   8 -1.793378E-03  5.380134E-04  5.380134E-04  2.997658E-17 -7.854183E-18 -5.023912E-18
         2   1 -1.793378E-03  5.380134E-04  5.380134E-04  5.468832E-17  5.373844E-17 -1.889560E-17
         2   2 -1.793378E-03  5.380134E-04  5.380134E-04  1.978708E-16  8.290524E-17  1.472088E-17
         2   3 -1.793378E-03  5.380134E-04  5.380134E-04  1.867749E-18 -3.116028E-17 -3.187913E-17
         2   4 -1.793378E-03  5.380134E-04  5.380134E-04  1.451584E-16 -1.155762E-16  5.295447E-17
         2   5 -1.793378E-03  5.380134E-04  5.380134E-04 -6.148986E-17  3.911757E-17 -5.755464E-17
         2   6 -1.793378E-03  5.380134E-04  5.380134E-04 -7.555918E-17  6.725623E-17  1.671925E-17
         2   7 -1.793378E-03  5.380134E-04  5.380134E-04 -4.263493E-17 -6.031912E-18 -7.052461E-17
         2   8 -1.793378E-03  5.380134E-04  5.380134E-04 -5.627136E-17 -8.936563E-17  5.496472E-17
         3   1 -1.793378E-03  5.380134E-04  5.380134E-04 -1.982248E-16 -6.492281E-17  1.073937E-17
         3   2 -1.793378E-03  5.380134E-04  5.380134E-04 -3.740154E-17 -1.968451E-17 -1.479206E-17
         3   3 -1.793378E-03  5.380134E-04  5.380134E-04 -1.460805E-16  1.163828E-16  4.109980E-17
         3   4 -1.793378E-03  5.380134E-04  5.380134E-04  1.474273E-17  2.071132E-17 -2.321780E-17
         3   5 -1.793378E-03  5.380134E-04  5.380134E-04  5.463182E-17 -6.389733E-17  9.708829E-18
         3   6 -1.793378E-03  5.380134E-04  5.380134E-04  1.350609E-17 -1.725209E-17 -4.675594E-17
         3   7 -1.793378E-03  5.380134E-04  5.380134E-04  5.250971E-17  8.252794E-17  4.004214E-17
         3   8 -1.793378E-03  5.380134E-04  5.380134E-04  1.095108E-17 -1.271059E-17 -5.522235E-17

 displacements (vx,vy,vz) for set NALL and time  0.7687813E+00

         1  0.000000E+00  0.000000E+00  0.000000E+00
         2 -9.837537E-01  0.000000E+00  0.000000E+00
         3 -1.103984E+01  0.000000E+00  0.000000E+00
         4 -1.202360E+01  0.000000E+00  0.000000E+00
         5 -2.207968E+01  0.000000E+00  0.000000E+00
         6 -2.306344E+01  0.000000E+00  0.000000E+00
         7  0.000000E+00  2.947489E-01  0.000000E+00
         8 -9.837537E-01  2.947489E-01  0.000000E+00
         9 -1.103984E+01  2.947489E-01  0.000000E+00
        10 -1.202360E+01  2.947489E-01  0.000000E+00
        11 -2.207968E+01  2.947489E-01  0.000000E+00
        12 -2.306344E+01  2.947489E-01  0.000000E+00
        13  0.000000E+00  0.000000E+00  4.126485E-01
        14 -9.837537E-01  0.000000E+00  4.126485E-01
        15 -1.103984E+01  0.000000E+00  4.126485E-01
        16 -1.202360E+01  0.000000E+00  4.126485E-01
        17 -2.207968E+01  0.000000E+00  4.126485E-01
        18 -2.306344E+01  0.000000E+00  4.126485E-01
        19  0.000000E+00  2.947489E-01  4.126485E-01
        20 -9.837537E-01  2.947489E-01  4.126485E-01
        21 -1.103984E+01  2.947489E-01  4.126485E-01
        22 -1.202360E+01  2.947489E-01  4.126485E-01
        23 -2.207968E+01  2.947489E-01  4.126485E-01
        24 -2.306344E+01  2.947489E-01  4.126485E-01

 stresses (elem, integ.pnt.,sxx,syy,szz,sxy,sxz,syz) for set EALL and time  0.7687813E+00

         1   1 -4.114727E+02 -1.993442E-13 -1.167587E-12  7.923012E-13 -2.273178E-13 -9.218426E-14
         1   2 -4.114727E+02 -6.094236E-12 -2.050397E-12  4.916143E-12 -1.656523E-12 -5.734081E-13
         1   3 -4.114727E+02  4.955127E-12  2.506041E-12 -1.148368E-12  5.107532E-13  6.628487E-13
         1   4 -4.114727E+02 -1.537798E-12  2.278219E-13  2.975474E-12  1.685562E-12 -5.492646E-13
         1   5 -4.114727E+02  5.125993E-13 -2.562997E-12  1.749696E-12  5.878284E-13 -1.110601E-12
         1   6 -4.114727E+02 -8.970488E-12 -5.040560E-12  9.471117E-12 -8.413769E-13 -2.171817E-12
         1   7 -4.114727E+02  1.110632E-11  6.492925E-12 -1.199424E-12  7.503531E-13 -3.555679E-13
         1   8 -4.114727E+02  9.397654E-13  2.648430E-12  6.539466E-12  1.920795E-12 -2.147674E-12
         2   1 -4.114727E+02 -3.502762E-12 -6.920091E-12  5.785278E-12  4.474858E-12 -3.233034E-12
         2   2 -4.114727E+02 -2.483259E-11 -1.608992E-11  2.501895E-11  1.113065E-11  2.579788E-12
         2   3 -4.114727E+02  2.004833E-11  9.027443E-12 -2.703272E-13 -1.187900E-11 -6.775543E-12
         2   4 -4.114727E+02  6.122714E-12  1.722903E-11  1.905069E-11 -2.180155E-11  7.998631E-12
         2   5 -4.114727E+02 -5.496204E-12  9.682431E-13 -1.624914E-11  4.480847E-12 -8.507290E-12
         2   6 -4.114727E+02  1.705817E-11  1.067915E-11 -2.072128E-11  1.125019E-11  4.226758E-12
         2   7 -4.114727E+02 -1.862444E-11 -1.970660E-11 -9.578061E-12 -4.854340E-12 -1.205419E-11
         2   8 -4.114727E+02  1.133414E-11  7.290301E-12 -1.429477E-11 -1.488171E-11  9.640937E-12
         3   1 -4.114727E+02 -2.637039E-11 -1.782706E-11 -2.568573E-11 -1.215770E-11  1.974280E-12
         3   2 -4.114727E+02 -2.306697E-12 -5.951848E-12 -5.316549E-12 -3.161020E-12 -2.216538E-12
         3   3 -4.114727E+02  6.122714E-12  1.631774E-11 -1.911147E-11  1.714578E-11  6.185125E-12
         3   4 -4.114727E+02  2.463324E-11  1.537798E-11  1.746851E-12  3.869129E-12 -4.341440E-12
         3   5 -4.114727E+02  1.250173E-11  9.255265E-12  1.427994E-11 -1.139918E-11  3.155116E-12
         3   6 -4.114727E+02  5.496204E-12  7.802901E-12  3.099606E-12 -2.647074E-12 -6.165920E-12
         3   7 -4.114727E+02 -2.506041E-12 -4.157750E-12  1.205721E-11  1.338784E-11  7.365961E-12
         3   8 -4.114727E+02 -1.500777E-11 -1.845358E-11  8.069985E-13 -1.146595E-12 -8.286707E-12

 strains (elem, integ.pnt.,exx,eyy,ezz,exy,exz,eyz) forset EALL and time  0.7687813E+00

         1   1 -1.965572E-03  5.896716E-04  5.896716E-04  4.885082E-18 -1.398569E-18 -5.695417E-19
         1   2 -1.965572E-03  5.896716E-04  5.896716E-04  3.042867E-17 -1.025125E-17 -3.542685E-18
         1   3 -1.965572E-03  5.896716E-04  5.896716E-04 -7.197338E-18  3.166438E-18  4.095276E-18
         1   4 -1.965572E-03  5.896716E-04  5.896716E-04  1.834625E-17  1.044335E-17 -3.393519E-18
         1   5 -1.965572E-03  5.896716E-04  5.896716E-04  1.080350E-17  3.676454E-18 -6.861621E-18
         1   6 -1.965572E-03  5.896716E-04  5.896716E-04  5.863095E-17 -5.176223E-18 -1.341813E-17
         1   7 -1.965572E-03  5.896716E-04  5.896716E-04 -7.557437E-18  4.658025E-18 -2.196804E-18
         1   8 -1.965572E-03  5.896716E-04  5.896716E-04  4.037822E-17  1.190789E-17 -1.326897E-17
         2   1 -1.965572E-03  5.896716E-04  5.896716E-04  3.576432E-17  2.771792E-17 -1.997464E-17
         2   2 -1.965572E-03  5.896716E-04  5.896716E-04  1.549001E-16  6.894475E-17  1.593869E-17
         2   3 -1.965572E-03  5.896716E-04  5.896716E-04 -1.937301E-18 -7.350009E-17 -4.186131E-17
         2   4 -1.965572E-03  5.896716E-04  5.896716E-04  1.177395E-16 -1.349616E-16  4.941791E-17
         2   5 -1.965572E-03  5.896716E-04  5.896716E-04 -1.005749E-16  2.775521E-17 -5.256056E-17
         2   6 -1.965572E-03  5.896716E-04  5.896716E-04 -1.282759E-16  6.968538E-17  2.611416E-17
         2   7 -1.965572E-03  5.896716E-04  5.896716E-04 -5.905028E-17 -2.976964E-17 -7.447436E-17
         2   8 -1.965572E-03  5.896716E-04  5.896716E-04 -8.826614E-17 -9.188040E-17  5.956457E-17
         3   1 -1.965572E-03  5.896716E-04  5.896716E-04 -1.590242E-16 -7.529740E-17  1.219768E-17
         3   2 -1.965572E-03  5.896716E-04  5.896716E-04 -3.285494E-17 -1.957084E-17 -1.369443E-17
         3   3 -1.965572E-03  5.896716E-04  5.896716E-04 -1.180935E-16  1.061529E-16  3.821354E-17
         3   4 -1.965572E-03  5.896716E-04  5.896716E-04  1.110557E-17  2.391562E-17 -2.682270E-17
         3   5 -1.965572E-03  5.896716E-04  5.896716E-04  8.842591E-17 -7.057495E-17  1.949324E-17
         3   6 -1.965572E-03  5.896716E-04  5.896716E-04  1.917349E-17 -1.636329E-17 -3.809488E-17
         3   7 -1.965572E-03  5.896716E-04  5.896716E-04  7.458740E-17  8.273854E-17  4.550909E-17
         3   8 -1.965572E-03  5.896716E-04  5.896716E-04  4.902158E-18 -7.289602E-18 -5.119773E-17

 displacements (vx,vy,vz) for set NALL and time  0.7777813E+00

         1  0.000000E+00  0.000000E+00  0.000000E+00
         2 -1.070086E+00  0.000000E+00  0.000000E+00
         3 -1.113168E+01  0.000000E+00  0.000000E+00
         4 -1.220176E+01  0.000000E+00  0.000000E+00
         5 -2.226335E+01  0.000000E+00  0.000000E+00
         6 -2.333344E+01  0.000000E+00  0.000000E+00
         7  0.000000E+00  3.205796E-01  0.000000E+00
         8 -1.070086E+00  3.205796E-01  0.000000E+00
         9 -1.113168E+01  3.205796E-01  0.000000E+00
        10 -1.220176E+01  3.205796E-01  0.000000E+00
        11 -2.226335E+01  3.205796E-01  0.000000E+00
        12 -2.333344E+01  3.205796E-01  0.000000E+00
        13  0.000000E+00  0.000000E+00  4.488115E-01
        14 -1.070086E+00  0.000000E+00  4.488115E-01
        15 -1.113168E+01  0.000000E+00  4.488115E-01
        16 -1.220176E+01  0.000000E+00  4.488115E-01
        17 -2.226335E+01  0.000000E+00  4.488115E-01
        18 -2.333344E+01  0.000000E+00  4.488115E-01
        19  0.000000E+00  3.205796E-01  4.488115E-01
        20 -1.070086E+00  3.205796E-01  4.488115E-01
        21 -1.113168E+01  3.205796E-01  4.488115E-01
        22 -1.220176E+01  3.205796E-01  4.488115E-01
        23 -2.226335E+01  3.205796E-01  4.488115E-01
        24 -2.333344E+01  3.205796E-01  4.488115E-01

 stresses (elem, integ.pnt.,sxx,syy,szz,sxy,sxz,syz) for set EALL and time  0.7777813E+00

         1   1 -4.474206E+02  2.848267E-13 -4.272400E-13  4.659059E-13 -3.621792E-13  2.414892E-14
         1   2 -4.474206E+02 -3.731229E-12 -3.702747E-13  3.121731E-12 -2.191675E-12 -5.707927E-13
         1   3 -4.474206E+02  3.417920E-12  1.651995E-12 -9.410456E-13  5.522022E-13  8.408215E-13
         1   4 -4.474206E+02 -1.338685E-12 -1.139307E-13  1.714780E-12  1.918866E-12 -6.608023E-13
         1   5 -4.474206E+02  3.702747E-13 -2.677371E-12  1.637918E-12  4.923329E-13 -7.288584E-13
         1   6 -4.474206E+02 -8.174526E-12 -4.528744E-12  8.803080E-12 -1.337163E-12 -2.057049E-12
         1   7 -4.474206E+02  1.033921E-11  6.237704E-12 -1.029030E-12  6.850054E-13  8.781426E-14
         1   8 -4.474206E+02  1.053859E-12  2.534957E-12  6.136131E-12  2.051669E-12 -2.147059E-12
         2   1 -4.474206E+02 -3.019163E-12 -1.879856E-12  1.973029E-12  5.343366E-12 -2.159133E-12
         2   2 -4.474206E+02 -1.196272E-11 -1.028224E-11  1.285394E-11  9.054753E-12  1.726099E-12
         2   3 -4.474206E+02  9.598659E-12  5.867429E-12  1.097027E-13 -6.781259E-12 -4.658546E-12
         2   4 -4.474206E+02  5.753499E-12  9.342315E-12  1.072864E-11 -1.170649E-11  5.133292E-12
         2   5 -4.474206E+02 -6.892805E-12  1.253237E-12 -1.444922E-11  3.139051E-12 -5.553154E-12
         2   6 -4.474206E+02  1.307354E-11  5.269293E-12 -1.598617E-11  7.007627E-12  3.041941E-12
         2   7 -4.474206E+02 -1.304506E-11 -9.769555E-12 -8.114940E-12 -4.026449E-12 -8.052568E-12
         2   8 -4.474206E+02  1.204817E-11  6.095291E-12 -9.861476E-12 -9.196194E-12  6.440078E-12
         3   1 -4.474206E+02 -1.412740E-11 -1.102279E-11 -1.328894E-11 -8.330458E-12  1.190981E-12
         3   2 -4.474206E+02 -1.566547E-12 -3.332472E-12 -2.774801E-12 -1.536435E-12 -1.284832E-12
         3   3 -4.474206E+02  3.446403E-12  8.146043E-12 -1.009078E-11  9.337246E-12  3.330356E-12
         3   4 -4.474206E+02  1.267479E-11  8.032112E-12  3.534989E-13  2.630550E-12 -2.806763E-12
         3   5 -4.474206E+02  9.228384E-12  6.351635E-12  1.020933E-11 -6.961917E-12  2.298538E-12
         3   6 -4.474206E+02  3.788195E-12  6.294669E-12  1.895820E-12 -1.530192E-12 -3.261751E-12
         3   7 -4.474206E+02 -1.538064E-12 -2.819784E-12  8.329402E-12  7.369147E-12  4.439011E-12
         3   8 -4.474206E+02 -1.039617E-11 -1.073797E-11  5.049231E-13  5.227283E-13 -4.793561E-12

 strains (elem, integ.pnt.,exx,eyy,ezz,exy,exz,eyz) forset EALL and time  0.7777813E+00

         1   1 -2.137883E-03  6.413648E-04  6.413648E-04  2.868205E-18 -2.232772E-18  1.491734E-19
         1   2 -2.137883E-03  6.413648E-04  6.413648E-04  1.931957E-17 -1.356548E-17 -3.525916E-18
         1   3 -2.137883E-03  6.413648E-04  6.413648E-04 -5.895731E-18  3.422318E-18  5.193946E-18
         1   4 -2.137883E-03  6.413648E-04  6.413648E-04  1.055563E-17  1.188804E-17 -4.081926E-18
         1   5 -2.137883E-03  6.413648E-04  6.413648E-04  1.011219E-17  3.090006E-18 -4.502324E-18
         1   6 -2.137883E-03  6.413648E-04  6.413648E-04  5.449639E-17 -8.242706E-18 -1.270686E-17
         1   7 -2.137883E-03  6.413648E-04  6.413648E-04 -6.500297E-18  4.249552E-18  5.424487E-19
         1   8 -2.137883E-03  6.413648E-04  6.413648E-04  3.788390E-17  1.271528E-17 -1.326287E-17
         2   1 -2.137883E-03  6.413648E-04  6.413648E-04  1.219825E-17  3.307137E-17 -1.333746E-17
         2   2 -2.137883E-03  6.413648E-04  6.413648E-04  7.959948E-17  5.606136E-17  1.066251E-17
         2   3 -2.137883E-03  6.413648E-04  6.413648E-04  5.915412E-19 -4.197489E-17 -2.877690E-17
         2   4 -2.137883E-03  6.413648E-04  6.413648E-04  6.636995E-17 -7.248396E-17  3.170951E-17
         2   5 -2.137883E-03  6.413648E-04  6.413648E-04 -8.942474E-17  1.934064E-17 -3.430310E-17
         2   6 -2.137883E-03  6.413648E-04  6.413648E-04 -9.894530E-17  4.330432E-17  1.879076E-17
         2   7 -2.137883E-03  6.413648E-04  6.413648E-04 -4.996838E-17 -2.482478E-17 -4.974254E-17
         2   8 -2.137883E-03  6.413648E-04  6.413648E-04 -6.078720E-17 -5.684848E-17  3.978183E-17
         3   1 -2.137883E-03  6.413648E-04  6.413648E-04 -8.227710E-17 -5.158865E-17  7.356960E-18
         3   2 -2.137883E-03  6.413648E-04  6.413648E-04 -1.714781E-17 -9.503453E-18 -7.936702E-18
         3   3 -2.137883E-03  6.413648E-04  6.413648E-04 -6.235567E-17  5.781407E-17  2.057237E-17
         3   4 -2.137883E-03  6.413648E-04  6.413648E-04  2.340861E-18  1.626981E-17 -1.733802E-17
         3   5 -2.137883E-03  6.413648E-04  6.413648E-04  6.321730E-17 -4.307365E-17  1.419859E-17
         3   6 -2.137883E-03  6.413648E-04  6.413648E-04  1.171973E-17 -9.427122E-18 -2.014858E-17
         3   7 -2.137883E-03  6.413648E-04  6.413648E-04  5.150719E-17  4.555473E-17  2.742078E-17
         3   8 -2.137883E-03  6.413648E-04  6.413648E-04  3.038884E-18  3.144961E-18 -2.961092E-17

 displacements (vx,vy,vz) for set NALL and time  0.7867813E+00

         1  0.000000E+00  0.000000E+00  0.000000E+00
         2 -1.156515E+00  0.000000E+00  0.000000E+00
         3 -1.122346E+01  0.000000E+00  0.000000E+00
         4 -1.237998E+01  0.000000E+00  0.000000E+00
         5 -2.244692E+01  0.000000E+00  0.000000E+00
         6 -2.360344E+01  0.000000E+00  0.000000E+00
         7  0.000000E+00  3.464331E-01  0.000000E+00
         8 -1.156515E+00  3.464331E-01  0.000000E+00
         9 -1.122346E+01  3.464331E-01  0.000000E+00
        10 -1.237998E+01  3.464331E-01  0.000000E+00
        11 -2.244692E+01  3.464331E-01  0.000000E+00
        12 -2.360344E+01  3.464331E-01  0.000000E+00
        13  0.000000E+00  0.000000E+00  4.850064E-01
        14 -1.156515E+00  0.000000E+00  4.850064E-01
        15 -1.122346E+01  0.000000E+00  4.850064E-01
        16 -1.237998E+01  0.000000E+00  4.850064E-01
        17 -2.244692E+01  0.000000E+00  4.850064E-01
        18 -2.360344E+01  0.000000E+00  4.850064E-01
        19  0.000000E+00  3.464331E-01  4.850064E-01
        20 -1.156515E+00  3.464331E-01  4.850064E-01
        21 -1.122346E+01  3.464331E-01  4.850064E-01
        22 -1.237998E+01  3.464331E-01  4.850064E-01
        23 -2.244692E+01  3.464331E-01  4.850064E-01
        24 -2.360344E+01  3.464331E-01  4.850064E-01

 stresses (elem, integ.pnt.,sxx,syy,szz,sxy,sxz,syz) for set EALL and time  0.7867813E+00

         1   1 -4.833821E+02  1.994132E-13 -9.970661E-13  6.306635E-13 -2.813657E-13 -2.195850E-14
         1   2 -4.833821E+02 -6.039372E-12 -3.019686E-12  4.203708E-12 -1.378162E-12 -1.005425E-12
         1   3 -4.833821E+02  4.814405E-12  2.535397E-12 -1.233185E-12  1.231988E-12  6.521675E-13
         1   4 -4.833821E+02 -2.706322E-12 -2.478421E-12  2.339859E-12  5.427095E-12 -1.815968E-12
         1   5 -4.833821E+02  1.224967E-12 -1.823207E-12  2.583165E-12  3.689215E-14 -7.619601E-13
         1   6 -4.833821E+02 -1.227816E-11 -6.979463E-12  1.359696E-11 -1.059904E-12 -2.943263E-12
         1   7 -4.833821E+02  1.700710E-11  1.284791E-11 -1.341471E-12  3.658913E-13 -8.783401E-14
         1   8 -4.833821E+02  2.193545E-12  4.643479E-12  9.672324E-12  4.578460E-12 -3.753806E-12
         2   1 -4.833821E+02 -2.222033E-12 -7.264339E-12  8.982143E-12  6.213613E-12 -3.961314E-12
         2   2 -4.833821E+02 -3.088056E-11 -2.173604E-11  3.037239E-11  1.504910E-11  2.674546E-12
         2   3 -4.833821E+02  2.355925E-11  9.742760E-12  1.175850E-12 -1.410986E-11 -8.688980E-12
         2   4 -4.833821E+02  3.475487E-12  1.532633E-11  2.258356E-11 -2.095474E-11  8.085121E-12
         2   5 -4.833821E+02 -6.979463E-12  1.196479E-12 -1.866552E-11  5.164179E-12 -1.005480E-11
         2   6 -4.833821E+02  1.401590E-11  8.005016E-12 -1.884013E-11  1.429650E-11  4.563251E-12
         2   7 -4.833821E+02 -1.393044E-11 -1.452868E-11 -1.241026E-11 -7.100149E-12 -1.477368E-11
         2   8 -4.833821E+02  1.561121E-11  1.227816E-11 -1.279441E-11 -1.387518E-11  9.974650E-12
         3   1 -4.833821E+02 -3.250435E-11 -2.432841E-11 -3.000233E-11 -1.545018E-11  1.783030E-12
         3   2 -4.833821E+02 -2.962711E-12 -7.492239E-12 -6.045254E-12 -3.785945E-12 -2.610043E-12
         3   3 -4.833821E+02  5.042306E-12  1.467112E-11 -2.228091E-11  1.584548E-11  5.606006E-12
         3   4 -4.833821E+02  2.885794E-11  1.814660E-11  1.606325E-12  3.133567E-12 -5.416065E-12
         3   5 -4.833821E+02  1.113865E-11  8.546281E-12  1.203364E-11 -1.339265E-11  2.829353E-12
         3   6 -4.833821E+02  8.147454E-12  1.148050E-11  2.953695E-12 -1.431577E-12 -6.922693E-12
         3   7 -4.833821E+02 -1.937157E-12 -3.048173E-12  1.055714E-11  1.258565E-11  6.649035E-12
         3   8 -4.833821E+02 -1.062588E-11 -1.353161E-11  1.127968E-12  5.023474E-13 -9.738596E-12

 strains (elem, integ.pnt.,exx,eyy,ezz,exy,exz,eyz) forset EALL and time  0.7867813E+00

         1   1 -2.310354E-03  6.931063E-04  6.931063E-04  3.881349E-18 -1.738703E-18 -1.356192E-19
         1   2 -2.310354E-03  6.931063E-04  6.931063E-04  2.601552E-17 -8.533096E-18 -6.209663E-18
         1   3 -2.310354E-03  6.931063E-04  6.931063E-04 -7.734433E-18  7.619998E-18  4.027889E-18
         1   4 -2.310354E-03  6.931063E-04  6.931063E-04  1.439974E-17  3.360771E-17 -1.121571E-17
         1   5 -2.310354E-03  6.931063E-04  6.931063E-04  1.594837E-17  2.447274E-19 -4.705985E-18
         1   6 -2.310354E-03  6.931063E-04  6.931063E-04  8.417624E-17 -6.549665E-18 -1.817805E-17
         1   7 -2.310354E-03  6.931063E-04  6.931063E-04 -8.510551E-18  2.222355E-18 -5.424767E-19
         1   8 -2.310354E-03  6.931063E-04  6.931063E-04  5.971732E-17  2.831823E-17 -2.318410E-17
         2   1 -2.310354E-03  6.931063E-04  6.931063E-04  5.553547E-17  3.847742E-17 -2.446570E-17
         2   2 -2.310354E-03  6.931063E-04  6.931063E-04  1.880430E-16  9.321115E-17  1.651842E-17
         2   3 -2.310354E-03  6.931063E-04  6.931063E-04  6.885485E-18 -8.731329E-17 -5.366451E-17
         2   4 -2.310354E-03  6.931063E-04  6.931063E-04  1.395012E-16 -1.297157E-16  4.993498E-17
         2   5 -2.310354E-03  6.931063E-04  6.931063E-04 -1.155430E-16  3.193718E-17 -6.210002E-17
         2   6 -2.310354E-03  6.931063E-04  6.931063E-04 -1.166247E-16  8.850980E-17  2.818336E-17
         2   7 -2.310354E-03  6.931063E-04  6.931063E-04 -7.655924E-17 -4.363296E-17 -9.124458E-17
         2   8 -2.310354E-03  6.931063E-04  6.931063E-04 -7.893897E-17 -8.560270E-17  6.160501E-17
         3   1 -2.310354E-03  6.931063E-04  6.931063E-04 -1.857518E-16 -9.568203E-17  1.101228E-17
         3   2 -2.310354E-03  6.931063E-04  6.931063E-04 -3.734332E-17 -2.342485E-17 -1.612003E-17
         3   3 -2.310354E-03  6.931063E-04  6.931063E-04 -1.376307E-16  9.811432E-17  3.462357E-17
         3   4 -2.310354E-03  6.931063E-04  6.931063E-04  1.034508E-17  1.936697E-17 -3.345047E-17
         3   5 -2.310354E-03  6.931063E-04  6.931063E-04  7.452542E-17 -8.285924E-17  1.747453E-17
         3   6 -2.310354E-03  6.931063E-04  6.931063E-04  1.827731E-17 -8.763176E-18 -4.275564E-17
         3   7 -2.310354E-03  6.931063E-04  6.931063E-04  6.532366E-17  7.779857E-17  4.106549E-17
         3   8 -2.310354E-03  6.931063E-04  6.931063E-04  6.912163E-18  2.945314E-18 -6.014710E-17

 displacements (vx,vy,vz) for set NALL and time  0.7957813E+00

         1  0.000000E+00  0.000000E+00  0.000000E+00
         2 -1.243060E+00  0.000000E+00  0.000000E+00
         3 -1.131519E+01  0.000000E+00  0.000000E+00
         4 -1.255825E+01  0.000000E+00  0.000000E+00
         5 -2.263038E+01  0.000000E+00  0.000000E+00
         6 -2.387344E+01  0.000000E+00  0.000000E+00
         7  0.000000E+00  3.723158E-01  0.000000E+00
         8 -1.243060E+00  3.723158E-01  0.000000E+00
         9 -1.131519E+01  3.723158E-01  0.000000E+00
        10 -1.255825E+01  3.723158E-01  0.000000E+00
        11 -2.263038E+01  3.723158E-01  0.000000E+00
        12 -2.387344E+01  3.723158E-01  0.000000E+00
        13  0.000000E+00  0.000000E+00  5.212422E-01
        14 -1.243060E+00  0.000000E+00  5.212422E-01
        15 -1.131519E+01  0.000000E+00  5.212422E-01
        16 -1.255825E+01  0.000000E+00  5.212422E-01
        17 -2.263038E+01  0.000000E+00  5.212422E-01
        18 -2.387344E+01  0.000000E+00  5.212422E-01
        19  0.000000E+00  3.723158E-01  5.212422E-01
        20 -1.243060E+00  3.723158E-01  5.212422E-01
        21 -1.131519E+01  3.723158E-01  5.212422E-01
        22 -1.255825E+01  3.723158E-01  5.212422E-01
        23 -2.263038E+01  3.723158E-01  5.212422E-01
        24 -2.387344E+01  3.723158E-01  5.212422E-01

 stresses (elem, integ.pnt.,sxx,syy,szz,sxy,sxz,syz) for set EALL and time  0.7957813E+00

         1   1 -5.193661E+02  7.977913E-13 -9.687465E-13  1.011184E-12 -6.265914E-13  1.976710E-14
         1   2 -5.193661E+02 -8.519271E-12 -2.535837E-12  6.774339E-12 -3.488529E-12 -1.402092E-12
         1   3 -5.193661E+02  8.006405E-12  4.216897E-12 -1.994318E-12  1.556526E-12  1.447391E-12
         1   4 -5.193661E+02 -3.134180E-12 -1.595583E-12  3.768837E-12  6.352973E-12 -2.131553E-12
         1   5 -5.193661E+02  1.766538E-12 -4.017449E-12  3.825942E-12  5.501604E-13 -1.357341E-12
         1   6 -5.193661E+02 -1.812126E-11 -1.011485E-11  2.030582E-11 -2.311778E-12 -4.502233E-12
         1   7 -5.193661E+02  2.510193E-11  1.738045E-11 -2.168749E-12  1.023602E-12  7.028304E-14
         1   8 -5.193661E+02  3.362120E-12  6.952181E-12  1.431113E-11  5.824413E-12 -5.231694E-12
         2   1 -5.193661E+02 -7.066151E-12 -9.601988E-12  3.268068E-12  3.995250E-12 -4.336683E-12
         2   2 -5.193661E+02 -2.219569E-11 -1.265069E-11  2.481062E-11  9.948255E-12  3.289576E-12
         2   3 -5.193661E+02  1.763689E-11  4.843733E-12 -1.541170E-12 -2.063879E-11 -9.042352E-12
         2   4 -5.193661E+02  1.233727E-11  2.476002E-11  2.008866E-11 -2.996110E-11  1.023222E-11
         2   5 -5.193661E+02 -1.712402E-11 -6.553285E-12 -2.992903E-11  5.646726E-12 -1.148139E-11
         2   6 -5.193661E+02  2.476002E-11  1.484462E-11 -3.024327E-11  1.186159E-11  5.345904E-12
         2   7 -5.193661E+02 -2.487399E-11 -2.456057E-11 -1.859437E-11 -9.858791E-12 -1.618267E-11
         2   8 -5.193661E+02  2.678299E-11  1.977383E-11 -1.887369E-11 -1.928584E-11  1.228635E-11
         3   1 -5.193661E+02 -2.709641E-11 -1.723799E-11 -2.791640E-11 -1.271005E-11  2.307260E-12
         3   2 -5.193661E+02 -1.538597E-12 -5.499061E-12 -5.221663E-12 -3.178259E-12 -2.393741E-12
         3   3 -5.193661E+02  7.892435E-12  1.963136E-11 -2.081457E-11  2.043582E-11  7.298454E-12
         3   4 -5.193661E+02  2.738134E-11  1.723799E-11  1.670686E-12  4.444753E-12 -4.597499E-12
         3   5 -5.193661E+02  1.703854E-11  1.296411E-11  1.738452E-11 -1.233538E-11  3.618478E-12
         3   6 -5.193661E+02  7.322584E-12  9.573495E-12  3.907335E-12 -3.344773E-12 -6.727130E-12
         3   7 -5.193661E+02 -2.307896E-12 -4.558807E-12  1.450681E-11  1.521983E-11  8.609672E-12
         3   8 -5.193661E+02 -1.812126E-11 -2.208172E-11  6.804721E-13 -7.014070E-13 -8.921553E-12

 strains (elem, integ.pnt.,exx,eyy,ezz,exy,exz,eyz) forset EALL and time  0.7957813E+00

         1   1 -2.483030E-03  7.449089E-04  7.449089E-04  6.220199E-18 -3.864477E-18  1.220636E-19
         1   2 -2.483030E-03  7.449089E-04  7.449089E-04  4.192344E-17 -2.159443E-17 -8.658037E-18
         1   3 -2.483030E-03  7.449089E-04  7.449089E-04 -1.251995E-17  9.635032E-18  8.937766E-18
         1   4 -2.483030E-03  7.449089E-04  7.449089E-04  2.318329E-17  3.934943E-17 -1.316252E-17
         1   5 -2.483030E-03  7.449089E-04  7.449089E-04  2.361374E-17  3.472900E-18 -8.381698E-18
         1   6 -2.483030E-03  7.449089E-04  7.449089E-04  1.257080E-16 -1.425705E-17 -2.780167E-17
         1   7 -2.483030E-03  7.449089E-04  7.449089E-04 -1.376484E-17  6.312278E-18  4.340038E-19
         1   8 -2.483030E-03  7.449089E-04  7.449089E-04  8.832939E-17  3.605371E-17 -3.230616E-17
         2   1 -2.483030E-03  7.449089E-04  7.449089E-04  2.017523E-17  2.477537E-17 -2.677939E-17
         2   2 -2.483030E-03  7.449089E-04  7.449089E-04  1.536332E-16  6.165475E-17  2.031341E-17
         2   3 -2.483030E-03  7.449089E-04  7.449089E-04 -9.811715E-18 -1.277007E-16 -5.583730E-17
         2   4 -2.483030E-03  7.449089E-04  7.449089E-04  1.241870E-16 -1.854531E-16  6.318485E-17
         2   5 -2.483030E-03  7.449089E-04  7.449089E-04 -1.852462E-16  3.507279E-17 -7.089859E-17
         2   6 -2.483030E-03  7.449089E-04  7.449089E-04 -1.871929E-16  7.357443E-17  3.301141E-17
         2   7 -2.483030E-03  7.449089E-04  7.449089E-04 -1.145714E-16 -6.048434E-17 -9.992938E-17
         2   8 -2.483030E-03  7.449089E-04  7.449089E-04 -1.163018E-16 -1.188857E-16  7.586929E-17
         3   1 -2.483030E-03  7.449089E-04  7.449089E-04 -1.728400E-16 -7.873428E-17  1.424753E-17
         3   2 -2.483030E-03  7.449089E-04  7.449089E-04 -3.224417E-17 -1.968401E-17 -1.478156E-17
         3   3 -2.483030E-03  7.449089E-04  7.449089E-04 -1.285581E-16  1.265249E-16  4.506858E-17
         3   4 -2.483030E-03  7.449089E-04  7.449089E-04  1.073997E-17  2.745887E-17 -2.838995E-17
         3   5 -2.483030E-03  7.449089E-04  7.449089E-04  1.076564E-16 -7.639812E-17  2.234441E-17
         3   6 -2.483030E-03  7.449089E-04  7.449089E-04  2.416405E-17 -2.070052E-17 -4.154061E-17
         3   7 -2.483030E-03  7.449089E-04  7.449089E-04  8.971302E-17  9.400172E-17  5.316547E-17
         3   8 -2.483030E-03  7.449089E-04  7.449089E-04  4.057688E-18 -4.631692E-18 -5.509136E-17

 displacements (vx,vy,vz) for set NALL and time  0.8047813E+00

         1  0.000000E+00  0.000000E+00  0.000000E+00
         2 -1.329744E+00  0.000000E+00  0.000000E+00
         3 -1.140685E+01  0.000000E+00  0.000000E+00
         4 -1.273659E+01  0.000000E+00  0.000000E+00
         5 -2.281369E+01  0.000000E+00  0.000000E+00
         6 -2.414344E+01  0.000000E+00  0.000000E+00
         7  0.000000E+00  3.982340E-01  0.000000E+00
         8 -1.329744E+00  3.982340E-01  0.000000E+00
         9 -1.140685E+01  3.982340E-01  0.000000E+00
        10 -1.273659E+01  3.982340E-01  0.000000E+00
        11 -2.281369E+01  3.982340E-01  0.000000E+00
        12 -2.414344E+01  3.982340E-01  0.000000E+00
        13  0.000000E+00  0.000000E+00  5.575276E-01
        14 -1.329744E+00  0.000000E+00  5.575276E-01
        15 -1.140685E+01  0.000000E+00  5.575276E-01
        16 -1.273659E+01  0.000000E+00  5.575276E-01
        17 -2.281369E+01  0.000000E+00  5.575276E-01
        18 -2.414344E+01  0.000000E+00  5.575276E-01
        19  0.000000E+00  3.982340E-01  5.575276E-01
        20 -1.329744E+00  3.982340E-01  5.575276E-01
        21 -1.140685E+01  3.982340E-01  5.575276E-01
        22 -1.273659E+01  3.982340E-01  5.575276E-01
        23 -2.281369E+01  3.982340E-01  5.575276E-01
        24 -2.414344E+01  3.982340E-01  5.575276E-01

 stresses (elem, integ.pnt.,sxx,syy,szz,sxy,sxz,syz) for set EALL and time  0.8047813E+00

         1   1 -5.553813E+02  1.937830E-12  6.839400E-13  6.253863E-13 -4.103119E-13  3.185419E-14
         1   2 -5.553813E+02 -4.445610E-12 -9.119199E-13  4.305905E-12 -2.071672E-12 -1.115171E-12
         1   3 -5.553813E+02  6.554425E-12  4.132137E-12 -1.354187E-12  1.323162E-12  9.182793E-13
         1   4 -5.553813E+02 -1.253890E-12 -8.834224E-13  2.326332E-12  5.752001E-12 -1.962877E-12
         1   5 -5.553813E+02  2.735760E-12 -1.025910E-12  2.870132E-12  1.359460E-13 -7.809768E-13
         1   6 -5.553813E+02 -1.222543E-11 -6.297947E-12  1.511380E-11 -1.525414E-12 -3.307618E-12
         1   7 -5.553813E+02  2.031872E-11  1.536015E-11 -1.523846E-12  4.969504E-13  1.054483E-13
         1   8 -5.553813E+02  3.875660E-12  6.639917E-12  1.071982E-11  4.934517E-12 -4.155324E-12
         2   1 -5.553813E+02 -6.297947E-12 -7.038882E-12 -2.565853E-12 -1.776388E-12 -2.158396E-12
         2   2 -5.553813E+02 -1.595860E-12  2.821252E-12  5.358061E-12 -9.124367E-13  1.719302E-12
         2   3 -5.553813E+02  2.621770E-12 -3.305710E-12 -2.426707E-12 -1.604396E-11 -4.452996E-12
         2   4 -5.553813E+02  1.233942E-11  1.826690E-11  5.567021E-12 -1.960449E-11  5.378415E-12
         2   5 -5.553813E+02 -1.541715E-11 -9.774642E-12 -2.234681E-11  2.047961E-12 -5.759017E-12
         2   6 -5.553813E+02  1.835239E-11  1.262439E-11 -1.976368E-11  2.754830E-12  2.758957E-12
         2   7 -5.553813E+02 -1.527466E-11 -1.481870E-11 -1.369704E-11 -7.614742E-12 -8.049224E-12
         2   8 -5.553813E+02  2.348194E-11  1.915032E-11 -1.163752E-11 -1.114036E-11  6.420266E-12
         3   1 -5.553813E+02 -5.158047E-12 -7.409350E-13 -8.971182E-12 -2.773124E-12  1.155538E-12
         3   2 -5.553813E+02  1.880835E-12  7.979299E-13 -1.570875E-12 -8.881402E-13 -7.628529E-13
         3   3 -5.553813E+02  6.269450E-12  1.168397E-11 -6.788869E-12  1.035158E-11  3.572063E-12
         3   4 -5.553813E+02  1.082905E-11  7.494842E-12  5.416247E-13  2.253132E-12 -1.270323E-12
         3   5 -5.553813E+02  1.080055E-11  8.463757E-12  1.021268E-11 -4.032805E-12  1.891480E-12
         3   6 -5.553813E+02  3.562187E-12  3.875660E-12  2.253859E-12 -1.554400E-12 -2.334692E-12
         3   7 -5.553813E+02 -8.549249E-13 -2.194307E-12  8.360296E-12  7.632671E-12  4.305807E-12
         3   8 -5.553813E+02 -1.065806E-11 -1.256740E-11  5.240328E-14 -9.544786E-13 -2.851499E-12

 strains (elem, integ.pnt.,exx,eyy,ezz,exy,exz,eyz) forset EALL and time  0.8047813E+00

         1   1 -2.655951E-03  7.967852E-04  7.967852E-04  3.843336E-18 -2.533376E-18  1.966682E-19
         1   2 -2.655951E-03  7.967852E-04  7.967852E-04  2.664565E-17 -1.282618E-17 -6.885081E-18
         1   3 -2.655951E-03  7.967852E-04  7.967852E-04 -8.506068E-18  8.184432E-18  5.669468E-18
         1   4 -2.655951E-03  7.967852E-04  7.967852E-04  1.429624E-17  3.562290E-17 -1.211883E-17
         1   5 -2.655951E-03  7.967852E-04  7.967852E-04  1.771253E-17  8.744087E-19 -4.821761E-18
         1   6 -2.655951E-03  7.967852E-04  7.967852E-04  9.356704E-17 -9.418394E-18 -2.042128E-17
         1   7 -2.655951E-03  7.967852E-04  7.967852E-04 -9.698941E-18  3.030558E-18  6.510394E-19
         1   8 -2.655951E-03  7.967852E-04  7.967852E-04  6.615557E-17  3.052309E-17 -2.565502E-17
         2   1 -2.655951E-03  7.967852E-04  7.967852E-04 -1.589426E-17 -1.094522E-17 -1.332596E-17
         2   2 -2.655951E-03  7.967852E-04  7.967852E-04  3.319761E-17 -5.592695E-18  1.061499E-17
         2   3 -2.655951E-03  7.967852E-04  7.967852E-04 -1.502621E-17 -9.926618E-17 -2.749285E-17
         2   4 -2.655951E-03  7.967852E-04  7.967852E-04  3.449819E-17 -1.213251E-16  3.320640E-17
         2   5 -2.655951E-03  7.967852E-04  7.967852E-04 -1.383157E-16  1.291266E-17 -3.555625E-17
         2   6 -2.655951E-03  7.967852E-04  7.967852E-04 -1.223122E-16  1.729200E-17  1.703384E-17
         2   7 -2.655951E-03  7.967852E-04  7.967852E-04 -8.436683E-17 -4.668119E-17 -4.969601E-17
         2   8 -2.655951E-03  7.967852E-04  7.967852E-04 -7.160727E-17 -6.852382E-17  3.963881E-17
         3   1 -2.655951E-03  7.967852E-04  7.967852E-04 -5.554559E-17 -1.719181E-17  7.134307E-18
         3   2 -2.655951E-03  7.967852E-04  7.967852E-04 -9.697679E-18 -5.513564E-18 -4.709863E-18
         3   3 -2.655951E-03  7.967852E-04  7.967852E-04 -4.193141E-17  6.408503E-17  2.205396E-17
         3   4 -2.655951E-03  7.967852E-04  7.967852E-04  3.483978E-18  1.391184E-17 -7.842991E-18
         3   5 -2.655951E-03  7.967852E-04  7.967852E-04  6.324253E-17 -2.502620E-17  1.167802E-17
         3   6 -2.655951E-03  7.967852E-04  7.967852E-04  1.393440E-17 -9.671472E-18 -1.441442E-17
         3   7 -2.655951E-03  7.967852E-04  7.967852E-04  5.168658E-17  4.711132E-17  2.658411E-17
         3   8 -2.655951E-03  7.967852E-04  7.967852E-04  2.158115E-19 -6.089560E-18 -1.760519E-17

 displacements (vx,vy,vz) for set NALL and time  0.8137813E+00

         1  0.000000E+00  0.000000E+00  0.000000E+00
         2 -1.416587E+00  0.000000E+00  0.000000E+00
         3 -1.149843E+01  0.000000E+00  0.000000E+00
         4 -1.291501E+01  0.000000E+00  0.000000E+00
         5 -2.299685E+01  0.000000E+00  0.000000E+00
         6 -2.441344E+01  0.000000E+00  0.000000E+00
         7  0.000000E+00  4.241940E-01  0.000000E+00
         8 -1.416587E+00  4.241940E-01  0.000000E+00
         9 -1.149843E+01  4.241940E-01  0.000000E+00
        10 -1.291501E+01  4.241940E-01  0.000000E+00
        11 -2.299685E+01  4.241940E-01  0.000000E+00
        12 -2.441344E+01  4.241940E-01  0.000000E+00
        13  0.000000E+00  0.000000E+00  5.938716E-01
        14 -1.416587E+00  0.000000E+00  5.938716E-01
        15 -1.149843E+01  0.000000E+00  5.938716E-01
        16 -1.291501E+01  0.000000E+00  5.938716E-01
        17 -2.299685E+01  0.000000E+00  5.938716E-01
        18 -2.441344E+01  0.000000E+00  5.938716E-01
        19  0.000000E+00  4.241940E-01  5.938716E-01
        20 -1.416587E+00  4.241940E-01  5.938716E-01
        21 -1.149843E+01  4.241940E-01  5.938716E-01
        22 -1.291501E+01  4.241940E-01  5.938716E-01
        23 -2.299685E+01  4.241940E-01  5.938716E-01
        24 -2.441344E+01  4.241940E-01  5.938716E-01

 stresses (elem, integ.pnt.,sxx,syy,szz,sxy,sxz,syz) for set EALL and time  0.8137813E+00

         1   1 -5.914363E+02  2.907251E-12  6.840591E-13  1.636136E-12  1.393923E-13 -3.911260E-13
         1   2 -5.914363E+02 -8.978275E-12 -4.047350E-12  9.525541E-12  3.607842E-13 -9.703990E-13
         1   3 -5.914363E+02  1.311113E-11  8.721753E-12 -1.758368E-12  1.019351E-12  6.811745E-14
         1   4 -5.914363E+02  5.700492E-13  2.308699E-12  6.131037E-12  4.356589E-12 -1.387069E-12
         1   5 -5.914363E+02  5.643487E-12  2.166187E-12  2.774179E-12  2.969477E-13 -1.922670E-12
         1   6 -5.914363E+02 -1.046040E-11 -4.417882E-12  1.501072E-11  5.183396E-13 -3.211134E-12
         1   7 -5.914363E+02  2.240294E-11  1.670244E-11 -1.839478E-12  4.738675E-13 -1.467821E-12
         1   8 -5.914363E+02  5.500975E-12  8.351221E-12  1.039706E-11  3.798018E-12 -3.627804E-12
         2   1 -5.914363E+02 -1.359567E-11 -7.211123E-12 -1.408098E-11 -2.742635E-12 -1.392013E-12
         2   2 -5.914363E+02  1.191403E-11  7.553152E-12 -7.624623E-12 -1.163446E-12  9.951191E-13
         2   3 -5.914363E+02 -6.698079E-12 -3.591310E-12 -7.449526E-12 -1.113914E-11 -2.953221E-12
         2   4 -5.914363E+02  2.180438E-11  1.827008E-11 -9.059222E-13 -1.323310E-11  3.148235E-12
         2   5 -5.914363E+02 -1.732950E-11 -6.612571E-12 -2.514988E-11 -8.861982E-13 -3.646481E-12
         2   6 -5.914363E+02  2.633627E-11  1.590437E-11 -2.441699E-11  5.272202E-13  1.572744E-12
         2   7 -5.914363E+02 -1.844109E-11 -1.094495E-11 -1.339081E-11 -6.636831E-12 -5.212084E-12
         2   8 -5.914363E+02  2.821744E-11  1.861211E-11 -1.262303E-11 -8.695885E-12  3.722289E-12
         3   1 -5.914363E+02  4.674404E-12  4.446384E-12 -1.202616E-12 -1.821536E-12  1.099767E-12
         3   2 -5.914363E+02  4.075852E-12  4.503389E-12 -1.604209E-14 -4.953654E-13 -3.241072E-13
         3   3 -5.914363E+02  7.296630E-12  9.320305E-12 -1.436232E-12  8.317018E-12  2.509359E-12
         3   4 -5.914363E+02  4.731409E-12  4.731409E-12 -5.986509E-13  9.881817E-13 -9.228816E-13
         3   5 -5.914363E+02  1.425123E-11  1.006137E-11  1.174111E-11 -1.924702E-12  2.678554E-12
         3   6 -5.914363E+02  3.819330E-12  5.928512E-12  2.527718E-12  2.564992E-13 -6.094864E-13
         3   7 -5.914363E+02  2.223192E-12  2.565222E-13  8.722568E-12  6.072245E-12  4.087047E-12
         3   8 -5.914363E+02 -1.028939E-11 -8.579241E-12 -8.398185E-13 -2.794138E-13 -1.206338E-12

 strains (elem, integ.pnt.,exx,eyy,ezz,exy,exz,eyz) forset EALL and time  0.8137813E+00

         1   1 -2.829160E-03  8.487479E-04  8.487479E-04  1.007998E-17  8.661767E-19 -2.414396E-18
         1   2 -2.829160E-03  8.487479E-04  8.487479E-04  5.896059E-17  2.237861E-18 -5.990213E-18
         1   3 -2.829160E-03  8.487479E-04  8.487479E-04 -1.110703E-17  6.306559E-18  4.204848E-19
         1   4 -2.829160E-03  8.487479E-04  8.487479E-04  3.777358E-17  2.698318E-17 -8.562291E-18
         1   5 -2.829160E-03  8.487479E-04  8.487479E-04  1.711066E-17  1.849568E-18 -1.186852E-17
         1   6 -2.829160E-03  8.487479E-04  8.487479E-04  9.292494E-17  3.221253E-18 -1.982213E-17
         1   7 -2.829160E-03  8.487479E-04  8.487479E-04 -1.168576E-17  2.902088E-18 -9.060769E-18
         1   8 -2.829160E-03  8.487479E-04  8.487479E-04  6.412851E-17  2.349762E-17 -2.239421E-17
         2   1 -2.829160E-03  8.487479E-04  8.487479E-04 -8.713071E-17 -1.696157E-17 -8.592810E-18
         2   2 -2.829160E-03  8.487479E-04  8.487479E-04 -4.712888E-17 -7.177341E-18  6.142808E-18
         2   3 -2.829160E-03  8.487479E-04  8.487479E-04 -4.574008E-17 -6.893700E-17 -1.823005E-17
         2   4 -2.829160E-03  8.487479E-04  8.487479E-04 -5.197692E-18 -8.191057E-17  1.943386E-17
         2   5 -2.829160E-03  8.487479E-04  8.487479E-04 -1.556245E-16 -5.374504E-18 -2.250950E-17
         2   6 -2.829160E-03  8.487479E-04  8.487479E-04 -1.510837E-16  3.382653E-18  9.708451E-18
         2   7 -2.829160E-03  8.487479E-04  8.487479E-04 -8.222955E-17 -4.082915E-17 -3.217387E-17
         2   8 -2.829160E-03  8.487479E-04  8.487479E-04 -7.747257E-17 -5.358649E-17  2.297746E-17
         3   1 -2.829160E-03  8.487479E-04  8.487479E-04 -7.455014E-18 -1.128285E-17  6.788794E-18
         3   2 -2.829160E-03  8.487479E-04  8.487479E-04 -1.033268E-19 -3.066261E-18 -2.000694E-18
         3   3 -2.829160E-03  8.487479E-04  8.487479E-04 -8.913146E-18  5.150170E-17  1.549012E-17
         3   4 -2.829160E-03  8.487479E-04  8.487479E-04 -3.723720E-18  6.094217E-18 -5.696890E-18
         3   5 -2.829160E-03  8.487479E-04  8.487479E-04  7.269424E-17 -1.191397E-17  1.653455E-17
         3   6 -2.829160E-03  8.487479E-04  8.487479E-04  1.561055E-17  1.600156E-18 -3.762321E-18
         3   7 -2.829160E-03  8.487479E-04  8.487479E-04  5.385381E-17  3.751639E-17  2.522909E-17
         3   8 -2.829160E-03  8.487479E-04  8.487479E-04 -5.392139E-18 -1.836753E-18 -7.446650E-18

 displacements (vx,vy,vz) for set NALL and time  0.8227813E+00

         1  0.000000E+00  0.000000E+00  0.000000E+00
         2 -1.503611E+00  0.000000E+00  0.000000E+00
         3 -1.158991E+01  0.000000E+00  0.000000E+00
         4 -1.309352E+01  0.000000E+00  0.000000E+00
         5 -2.317983E+01  0.000000E+00  0.000000E+00
         6 -2.468344E+01  0.000000E+00  0.000000E+00
         7  0.000000E+00  4.502024E-01  0.000000E+00
         8 -1.503611E+00  4.502024E-01  0.000000E+00
         9 -1.158991E+01  4.502024E-01  0.000000E+00
        10 -1.309352E+01  4.502024E-01  0.000000E+00
        11 -2.317983E+01  4.502024E-01  0.000000E+00
        12 -2.468344E+01  4.502024E-01  0.000000E+00
        13  0.000000E+00  0.000000E+00  6.302833E-01
        14 -1.503611E+00  0.000000E+00  6.302833E-01
        15 -1.158991E+01  0.000000E+00  6.302833E-01
        16 -1.309352E+01  0.000000E+00  6.302833E-01
        17 -2.317983E+01  0.000000E+00  6.302833E-01
        18 -2.468344E+01  0.000000E+00  6.302833E-01
        19  0.000000E+00  4.502024E-01  6.302833E-01
        20 -1.503611E+00  4.502024E-01  6.302833E-01
        21 -1.158991E+01  4.502024E-01  6.302833E-01
        22 -1.309352E+01  4.502024E-01  6.302833E-01
        23 -2.317983E+01  4.502024E-01  6.302833E-01
        24 -2.468344E+01  4.502024E-01  6.302833E-01

 stresses (elem, integ.pnt.,sxx,syy,szz,sxy,sxz,syz) for set EALL and time  0.8227813E+00

         1   1 -6.275402E+02  5.216861E-12  1.881491E-12  3.161444E-12  3.183717E-13 -8.186935E-13
         1   2 -6.275402E+02 -1.465282E-11 -3.449400E-12  1.782888E-11 -3.434730E-13 -6.805047E-13
         1   3 -6.275402E+02  2.366117E-11  1.559357E-11 -2.902778E-12  1.044282E-13  2.373662E-13
         1   4 -6.275402E+02  3.991041E-12  1.074730E-11  1.176466E-11 -1.299947E-12  5.884703E-13
         1   5 -6.275402E+02  8.979843E-12  2.708207E-12  2.871536E-12  1.846510E-12 -4.128633E-12
         1   6 -6.275402E+02 -9.806559E-12 -2.166565E-12  1.650532E-11  1.184665E-12 -3.826156E-12
         1   7 -6.275402E+02  2.594177E-11  1.496640E-11 -2.891294E-12  1.805256E-12 -3.068178E-12
         1   8 -6.275402E+02  7.411934E-12  1.051924E-11  1.072504E-11  4.008803E-13 -2.557181E-12
         2   1 -6.275402E+02 -1.704745E-11 -8.153127E-12 -1.673021E-11 -5.346412E-13 -2.214319E-12
         2   2 -6.275402E+02  2.138058E-12  1.425372E-12  3.000832E-12  3.163838E-12  1.509088E-12
         2   3 -6.275402E+02  7.468949E-12  9.464469E-12 -1.153106E-11 -9.179292E-12 -3.468184E-12
         2   4 -6.275402E+02  3.150072E-11  3.021788E-11  8.287206E-12 -1.996071E-11  5.987452E-12
         2   5 -6.275402E+02 -1.442476E-11 -2.052536E-12 -2.799512E-11  1.034407E-13 -7.031973E-12
         2   6 -6.275402E+02  3.275505E-11  1.949909E-11 -2.911164E-11  3.950208E-12  1.154688E-12
         2   7 -6.275402E+02 -2.086744E-11 -1.536551E-11 -1.488159E-11 -4.135458E-12 -8.281442E-12
         2   8 -6.275402E+02  3.104460E-11  1.724700E-11 -1.592832E-11 -1.488198E-11  5.629754E-12
         3   1 -6.275402E+02 -6.100592E-12  4.561190E-13 -1.401927E-11 -5.541335E-12  1.820906E-12
         3   2 -6.275402E+02  5.387906E-12  4.019549E-12 -2.505132E-12 -1.476497E-12 -1.254414E-12
         3   3 -6.275402E+02  1.200163E-11  2.015476E-11 -1.056874E-11  1.602124E-11  5.670414E-12
         3   4 -6.275402E+02  1.961312E-11  1.459581E-11  9.105065E-13  3.111457E-12 -2.140691E-12
         3   5 -6.275402E+02  2.089595E-11  1.661984E-11  1.505569E-11 -5.910605E-12  2.964879E-12
         3   6 -6.275402E+02  9.179395E-12  1.026268E-11  3.332203E-12 -2.090005E-12 -3.792639E-12
         3   7 -6.275402E+02  3.705967E-12  1.026268E-12  1.251640E-11  1.229594E-11  6.817684E-12
         3   8 -6.275402E+02 -1.194462E-11 -1.448178E-11  1.648728E-13 -1.381457E-12 -4.667103E-12

 strains (elem, integ.pnt.,exx,eyy,ezz,exy,exz,eyz) forset EALL and time  0.8227813E+00

         1   1 -3.002700E-03  9.008101E-04  9.008101E-04  1.948061E-17  1.999867E-18 -5.052862E-18
         1   2 -3.002700E-03  9.008101E-04  9.008101E-04  1.103608E-16 -2.100956E-18 -4.199980E-18
         1   3 -3.002700E-03  9.008101E-04  9.008101E-04 -1.838872E-17  6.771699E-19  1.464991E-18
         1   4 -3.002700E-03  9.008101E-04  9.008101E-04  7.249146E-17 -8.024411E-18  3.631956E-18
         1   5 -3.002700E-03  9.008101E-04  9.008101E-04  1.768953E-17  1.154265E-17 -2.548135E-17
         1   6 -3.002700E-03  9.008101E-04  9.008101E-04  1.021651E-16  7.441832E-18 -2.361450E-17
         1   7 -3.002700E-03  9.008101E-04  9.008101E-04 -1.829769E-17  1.129835E-17 -1.893636E-17
         1   8 -3.002700E-03  9.008101E-04  9.008101E-04  6.606981E-17  2.596772E-18 -1.578256E-17
         2   1 -3.002700E-03  9.008101E-04  9.008101E-04 -1.035687E-16 -3.301326E-18 -1.366647E-17
         2   2 -3.002700E-03  9.008101E-04  9.008101E-04  1.868585E-17  1.961464E-17  9.313883E-18
         2   3 -3.002700E-03  9.008101E-04  9.008101E-04 -7.110148E-17 -5.678550E-17 -2.140514E-17
         2   4 -3.002700E-03  9.008101E-04  9.008101E-04  5.169351E-17 -1.235877E-16  3.695372E-17
         2   5 -3.002700E-03  9.008101E-04  9.008101E-04 -1.732254E-16  6.833131E-19 -4.340035E-17
         2   6 -3.002700E-03  9.008101E-04  9.008101E-04 -1.801435E-16  2.451808E-17  7.126570E-18
         2   7 -3.002700E-03  9.008101E-04  9.008101E-04 -9.133515E-17 -2.528819E-17 -5.111190E-17
         2   8 -3.002700E-03  9.008101E-04  9.008101E-04 -9.782080E-17 -9.187421E-17  3.474606E-17
         3   1 -3.002700E-03  9.008101E-04  9.008101E-04 -8.680261E-17 -3.434597E-17  1.123838E-17
         3   2 -3.002700E-03  9.008101E-04  9.008101E-04 -1.546045E-17 -9.160024E-18 -7.742070E-18
         3   3 -3.002700E-03  9.008101E-04  9.008101E-04 -6.525503E-17  9.919232E-17  3.499700E-17
         3   4 -3.002700E-03  9.008101E-04  9.008101E-04  5.870934E-18  1.920263E-17 -1.321205E-17
         3   5 -3.002700E-03  9.008101E-04  9.008101E-04  9.323060E-17 -3.666553E-17  1.829882E-17
         3   6 -3.002700E-03  9.008101E-04  9.008101E-04  2.059132E-17 -1.299291E-17 -2.340764E-17
         3   7 -3.002700E-03  9.008101E-04  9.008101E-04  7.734631E-17  7.590169E-17  4.207779E-17
         3   8 -3.002700E-03  9.008101E-04  9.008101E-04  8.156379E-19 -8.844144E-18 -2.880470E-17

 displacements (vx,vy,vz) for set NALL and time  0.8317813E+00

         1  0.000000E+00  0.000000E+00  0.000000E+00
         2 -1.590839E+00  0.000000E+00  0.000000E+00
         3 -1.168130E+01  0.000000E+00  0.000000E+00
         4 -1.327214E+01  0.000000E+00  0.000000E+00
         5 -2.336260E+01  0.000000E+00  0.000000E+00
         6 -2.495344E+01  0.000000E+00  0.000000E+00
         7  0.000000E+00  4.762657E-01  0.000000E+00
         8 -1.590839E+00  4.762657E-01  0.000000E+00
         9 -1.168130E+01  4.762657E-01  0.000000E+00
        10 -1.327214E+01  4.762657E-01  0.000000E+00
        11 -2.336260E+01  4.762657E-01  0.000000E+00
        12 -2.495344E+01  4.762657E-01  0.000000E+00
        13  0.000000E+00  0.000000E+00  6.667720E-01
        14 -1.590839E+00  0.000000E+00  6.667720E-01
        15 -1.168130E+01  0.000000E+00  6.667720E-01
        16 -1.327214E+01  0.000000E+00  6.667720E-01
        17 -2.336260E+01  0.000000E+00  6.667720E-01
        18 -2.495344E+01  0.000000E+00  6.667720E-01
        19  0.000000E+00  4.762657E-01  6.667720E-01
        20 -1.590839E+00  4.762657E-01  6.667720E-01
        21 -1.168130E+01  4.762657E-01  6.667720E-01
        22 -1.327214E+01  4.762657E-01  6.667720E-01
        23 -2.336260E+01  4.762657E-01  6.667720E-01
        24 -2.495344E+01  4.762657E-01  6.667720E-01

 stresses (elem, integ.pnt.,sxx,syy,szz,sxy,sxz,syz) for set EALL and time  0.8317813E+00

         1   1 -6.637021E+02  8.496703E-12  5.816535E-12  2.281395E-12  6.405631E-13 -7.012686E-13
         1   2 -6.637021E+02 -6.785958E-12 -1.539671E-12  1.271153E-11  2.825136E-12 -8.227265E-13
         1   3 -6.637021E+02  2.223969E-11  1.682233E-11 -1.901436E-12  8.250027E-13 -7.584253E-13
         1   4 -6.637021E+02  6.785958E-12  9.066952E-12  8.528699E-12  3.659278E-12 -1.049155E-12
         1   5 -6.637021E+02  1.294464E-11  1.043555E-11  2.516133E-12  1.922088E-13 -2.585241E-12
         1   6 -6.637021E+02 -3.250417E-12  2.623143E-12  1.380091E-11  2.376781E-12 -2.841347E-12
         1   7 -6.637021E+02  2.805623E-11  2.275292E-11 -1.910959E-12  2.387767E-13 -2.642398E-12
         1   8 -6.637021E+02  1.169009E-11  1.459836E-11  9.373819E-12  3.073053E-12 -3.067775E-12
         2   1 -6.637021E+02 -9.694225E-12 -2.280994E-13 -1.845691E-11 -2.174612E-12 -4.440635E-13
         2   2 -6.637021E+02  1.904630E-11  9.694225E-12 -1.240464E-11 -4.653252E-13 -6.171823E-13
         2   3 -6.637021E+02 -1.938845E-12  6.272734E-12 -9.989745E-12 -2.197664E-12 -7.738136E-13
         2   4 -6.637021E+02  2.663061E-11  1.568183E-11 -3.937476E-12  9.069582E-13 -1.147530E-12
         2   5 -6.637021E+02 -7.470256E-12  2.908268E-12 -1.821718E-11 -3.355206E-12 -1.332190E-12
         2   6 -6.637021E+02  2.024382E-11  1.237439E-11 -1.015912E-11 -1.523827E-12 -1.742180E-12
         2   7 -6.637021E+02  4.162814E-12  1.322977E-11 -1.004041E-11 -3.768023E-12 -1.661941E-12
         2   8 -6.637021E+02  3.153474E-11  2.212564E-11 -1.947466E-12 -4.889840E-13 -2.278573E-12
         3   1 -6.637021E+02  1.254547E-11  9.295051E-12  3.206116E-12 -6.108866E-13 -2.132384E-13
         3   2 -6.637021E+02  9.523151E-12  1.015042E-11  3.805611E-13 -4.015863E-13  1.140386E-13
         3   3 -6.637021E+02  9.979349E-12  7.299181E-12  2.064604E-12 -2.568190E-12 -1.147530E-12
         3   4 -6.637021E+02  7.356206E-12  8.952902E-12 -2.725836E-13 -2.658858E-13 -2.934776E-13
         3   5 -6.637021E+02  1.020745E-11  9.580175E-12  4.061498E-13 -2.411180E-13  1.395942E-13
         3   6 -6.637021E+02  9.865300E-12  1.151902E-11 -1.245093E-14  7.007337E-13  8.441603E-13
         3   7 -6.637021E+02  9.637200E-12  9.580175E-12 -6.379580E-15 -1.202500E-12 -7.957969E-13
         3   8 -6.637021E+02  9.694225E-12  1.237439E-11 -4.947471E-13  8.905032E-13  4.374685E-13

 strains (elem, integ.pnt.,exx,eyy,ezz,exy,exz,eyz) forset EALL and time  0.8317813E+00

         1   1 -3.176617E-03  9.529851E-04  9.529851E-04  1.405759E-17  3.960837E-18 -4.327374E-18
         1   2 -3.176617E-03  9.529851E-04  9.529851E-04  7.868660E-17  1.749726E-17 -5.076865E-18
         1   3 -3.176617E-03  9.529851E-04  9.529851E-04 -1.207622E-17  5.101065E-18 -4.680076E-18
         1   4 -3.176617E-03  9.529851E-04  9.529851E-04  5.255279E-17  2.266329E-17 -6.474105E-18
         1   5 -3.176617E-03  9.529851E-04  9.529851E-04  1.550759E-17  1.159574E-18 -1.595295E-17
         1   6 -3.176617E-03  9.529851E-04  9.529851E-04  8.543228E-17  1.469600E-17 -1.753333E-17
         1   7 -3.176617E-03  9.529851E-04  9.529851E-04 -1.215234E-17  1.438397E-18 -1.630565E-17
         1   8 -3.176617E-03  9.529851E-04  9.529851E-04  5.777235E-17  1.900063E-17 -1.893057E-17
         2   1 -3.176617E-03  9.529851E-04  9.529851E-04 -1.142062E-16 -1.349687E-17 -2.740218E-18
         2   2 -3.176617E-03  9.529851E-04  9.529851E-04 -7.670407E-17 -2.905498E-18 -3.808496E-18
         2   3 -3.176617E-03  9.529851E-04  9.529851E-04 -6.130438E-17 -1.364450E-17 -4.775034E-18
         2   4 -3.176617E-03  9.529851E-04  9.529851E-04 -2.380226E-17  5.592901E-18 -7.081158E-18
         2   5 -3.176617E-03  9.529851E-04  9.529851E-04 -1.127263E-16 -2.087308E-17 -8.220654E-18
         2   6 -3.176617E-03  9.529851E-04  9.529851E-04 -6.279557E-17 -9.525177E-18 -1.075061E-17
         2   7 -3.176617E-03  9.529851E-04  9.529851E-04 -6.163891E-17 -2.344872E-17 -1.025547E-17
         2   8 -3.176617E-03  9.529851E-04  9.529851E-04 -1.149199E-17 -3.130571E-18 -1.406057E-17
         3   1 -3.176617E-03  9.529851E-04  9.529851E-04  1.984457E-17 -3.766438E-18 -1.315847E-18
         3   2 -3.176617E-03  9.529851E-04  9.529851E-04  2.336376E-18 -2.469535E-18  7.037070E-19
         3   3 -3.176617E-03  9.529851E-04  9.529851E-04  1.271254E-17 -1.588763E-17 -7.081158E-18
         3   4 -3.176617E-03  9.529851E-04  9.529851E-04 -1.769545E-18 -1.621696E-18 -1.810986E-18
         3   5 -3.176617E-03  9.529851E-04  9.529851E-04  2.508828E-18 -1.423830E-18  8.614052E-19
         3   6 -3.176617E-03  9.529851E-04  9.529851E-04 -8.497847E-20  4.412234E-18  5.209128E-18
         3   7 -3.176617E-03  9.529851E-04  9.529851E-04 -6.860517E-20 -7.354970E-18 -4.910688E-18
         3   8 -3.176617E-03  9.529851E-04  9.529851E-04 -3.094712E-18  5.614061E-18  2.699522E-18

 displacements (vx,vy,vz) for set NALL and time  0.8407813E+00

         1  0.000000E+00  0.000000E+00  0.000000E+00
         2 -1.678295E+00  0.000000E+00  0.000000E+00
         3 -1.177257E+01  0.000000E+00  0.000000E+00
         4 -1.345087E+01  0.000000E+00  0.000000E+00
         5 -2.354514E+01  0.000000E+00  0.000000E+00
         6 -2.522344E+01  0.000000E+00  0.000000E+00
         7  0.000000E+00  5.023912E-01  0.000000E+00
         8 -1.678295E+00  5.023912E-01  0.000000E+00
         9 -1.177257E+01  5.023912E-01  0.000000E+00
        10 -1.345087E+01  5.023912E-01  0.000000E+00
        11 -2.354514E+01  5.023912E-01  0.000000E+00
        12 -2.522344E+01  5.023912E-01  0.000000E+00
        13  0.000000E+00  0.000000E+00  7.033477E-01
        14 -1.678295E+00  0.000000E+00  7.033477E-01
        15 -1.177257E+01  0.000000E+00  7.033477E-01
        16 -1.345087E+01  0.000000E+00  7.033477E-01
        17 -2.354514E+01  0.000000E+00  7.033477E-01
        18 -2.522344E+01  0.000000E+00  7.033477E-01
        19  0.000000E+00  5.023912E-01  7.033477E-01
        20 -1.678295E+00  5.023912E-01  7.033477E-01
        21 -1.177257E+01  5.023912E-01  7.033477E-01
        22 -1.345087E+01  5.023912E-01  7.033477E-01
        23 -2.354514E+01  5.023912E-01  7.033477E-01
        24 -2.522344E+01  5.023912E-01  7.033477E-01

 stresses (elem, integ.pnt.,sxx,syy,szz,sxy,sxz,syz) for set EALL and time  0.8407813E+00

         1   1 -6.999317E+02  1.448685E-11  1.203436E-11  2.018612E-12  4.328113E-13 -5.804924E-13
         1   2 -6.999317E+02  6.844183E-13  6.045695E-12  1.141101E-11  1.694867E-12 -8.267618E-13
         1   3 -6.999317E+02  2.686342E-11  2.190139E-11 -1.844920E-12  8.027432E-13 -3.869949E-13
         1   4 -6.999317E+02  1.271877E-11  1.505720E-11  7.547476E-12  3.383527E-12 -1.012563E-12
         1   5 -6.999317E+02  1.813709E-11  1.517127E-11  2.502793E-12  3.384068E-13 -2.357151E-12
         1   6 -6.999317E+02  2.452499E-12  8.327090E-12  1.374141E-11  1.600462E-12 -2.887070E-12
         1   7 -6.999317E+02  3.313725E-11  2.771894E-11 -1.865820E-12  4.251442E-13 -2.168051E-12
         1   8 -6.999317E+02  1.716749E-11  2.001924E-11  9.364076E-12  3.001568E-12 -3.072871E-12
         2   1 -6.999317E+02 -5.247207E-12  4.505754E-12 -1.856327E-11 -2.554589E-12 -1.081827E-12
         2   2 -6.999317E+02  2.914481E-11  1.916371E-11 -1.347146E-11 -8.680875E-15  7.965279E-13
         2   3 -6.999317E+02  1.140697E-12  8.840404E-12 -8.874873E-12 -8.118624E-12 -2.563841E-12
         2   4 -6.999317E+02  3.798522E-11  2.908778E-11 -3.765619E-12 -1.024603E-11  2.181244E-12
         2   5 -6.999317E+02 -6.159765E-12  7.699706E-12 -2.611523E-11 -2.582802E-12 -2.537455E-12
         2   6 -6.999317E+02  4.214876E-11  2.851743E-11 -2.778925E-11 -2.025521E-13  1.595255E-12
         2   7 -6.999317E+02 -1.032331E-11  1.368837E-12 -1.247975E-11 -5.767670E-12 -4.023867E-12
         2   8 -6.999317E+02  4.038068E-11  2.771894E-11 -1.408402E-11 -7.720695E-12  2.977222E-12
         3   1 -6.999317E+02  2.076069E-11  1.756674E-11  2.626380E-12 -2.988568E-12  1.134599E-12
         3   2 -6.999317E+02  1.608383E-11  1.716749E-11  5.687288E-13 -5.821621E-13 -1.418248E-13
         3   3 -6.999317E+02  1.859336E-11  1.853633E-11  1.040493E-12  5.583458E-12  2.020729E-12
         3   4 -6.999317E+02  1.220546E-11  1.420168E-11 -1.331038E-12  1.537906E-12 -1.182973E-12
         3   5 -6.999317E+02  2.988627E-11  2.418278E-11  1.490517E-11 -2.199694E-12  3.346626E-12
         3   6 -6.999317E+02  1.562755E-11  1.967703E-11  2.908011E-12 -3.164194E-13  5.233227E-13
         3   7 -6.999317E+02  1.380244E-11  1.117883E-11  1.066239E-11  5.392740E-12  4.234956E-12
         3   8 -6.999317E+02 -2.110290E-12  2.794708E-12 -1.753272E-12  5.799276E-13 -5.145273E-13

 strains (elem, integ.pnt.,exx,eyy,ezz,exy,exz,eyz) forset EALL and time  0.8407813E+00

         1   1 -3.350957E-03  1.005287E-03  1.005287E-03  1.243185E-17  2.680290E-18 -3.581462E-18
         1   2 -3.350957E-03  1.005287E-03  1.005287E-03  7.063367E-17  1.050086E-17 -5.100870E-18
         1   3 -3.350957E-03  1.005287E-03  1.005287E-03 -1.171928E-17  4.966807E-18 -2.387641E-18
         1   4 -3.350957E-03  1.005287E-03  1.005287E-03  4.648254E-17  2.095914E-17 -6.247210E-18
         1   5 -3.350957E-03  1.005287E-03  1.005287E-03  1.542188E-17  2.090162E-18 -1.454291E-17
         1   6 -3.350957E-03  1.005287E-03  1.005287E-03  8.506416E-17  9.910737E-18 -1.781235E-17
         1   7 -3.350957E-03  1.005287E-03  1.005287E-03 -1.188701E-17  2.606179E-18 -1.337622E-17
         1   8 -3.350957E-03  1.005287E-03  1.005287E-03  5.770125E-17  1.857150E-17 -1.895869E-17
         2   1 -3.350957E-03  1.005287E-03  1.005287E-03 -1.148381E-16 -1.583048E-17 -6.674543E-18
         2   2 -3.350957E-03  1.005287E-03  1.005287E-03 -8.328569E-17 -5.426458E-20  4.914336E-18
         2   3 -3.350957E-03  1.005287E-03  1.005287E-03 -5.427547E-17 -5.026465E-17 -1.581812E-17
         2   4 -3.350957E-03  1.005287E-03  1.005287E-03 -2.261497E-17 -6.344752E-17  1.345762E-17
         2   5 -3.350957E-03  1.005287E-03  1.005287E-03 -1.615567E-16 -1.600684E-17 -1.565533E-17
         2   6 -3.350957E-03  1.005287E-03  1.005287E-03 -1.719301E-16 -1.257159E-18  9.842238E-18
         2   7 -3.350957E-03  1.005287E-03  1.005287E-03 -7.632065E-17 -3.557630E-17 -2.482604E-17
         2   8 -3.350957E-03  1.005287E-03  1.005287E-03 -8.626183E-17 -4.767860E-17  1.836856E-17
         3   1 -3.350957E-03  1.005287E-03  1.005287E-03  1.624324E-17 -1.850350E-17  7.000131E-18
         3   2 -3.350957E-03  1.005287E-03  1.005287E-03  3.492597E-18 -3.591734E-18 -8.750163E-19
         3   3 -3.350957E-03  1.005287E-03  1.005287E-03  6.329780E-18  3.458401E-17  1.246729E-17
         3   4 -3.350957E-03  1.005287E-03  1.005287E-03 -8.365876E-18  9.514954E-18 -7.298586E-18
         3   5 -3.350957E-03  1.005287E-03  1.005287E-03  9.227822E-17 -1.357221E-17  2.064767E-17
         3   6 -3.350957E-03  1.005287E-03  1.005287E-03  1.793549E-17 -1.902130E-18  3.228742E-18
         3   7 -3.350957E-03  1.005287E-03  1.005287E-03  6.575640E-17  3.336150E-17  2.612839E-17
         3   8 -3.350957E-03  1.005287E-03  1.005287E-03 -1.117968E-17  3.537959E-18 -3.174478E-18

 displacements (vx,vy,vz) for set NALL and time  0.8497813E+00

         1  0.000000E+00  0.000000E+00  0.000000E+00
         2 -1.766004E+00  0.000000E+00  0.000000E+00
         3 -1.186372E+01  0.000000E+00  0.000000E+00
         4 -1.362972E+01  0.000000E+00  0.000000E+00
         5 -2.372743E+01  0.000000E+00  0.000000E+00
         6 -2.549344E+01  0.000000E+00  0.000000E+00
         7  0.000000E+00  5.285862E-01  0.000000E+00
         8 -1.766004E+00  5.285862E-01  0.000000E+00
         9 -1.186372E+01  5.285862E-01  0.000000E+00
        10 -1.362972E+01  5.285862E-01  0.000000E+00
        11 -2.372743E+01  5.285862E-01  0.000000E+00
        12 -2.549344E+01  5.285862E-01  0.000000E+00
        13  0.000000E+00  0.000000E+00  7.400207E-01
        14 -1.766004E+00  0.000000E+00  7.400207E-01
        15 -1.186372E+01  0.000000E+00  7.400207E-01
        16 -1.362972E+01  0.000000E+00  7.400207E-01
        17 -2.372743E+01  0.000000E+00  7.400207E-01
        18 -2.549344E+01  0.000000E+00  7.400207E-01
        19  0.000000E+00  5.285862E-01  7.400207E-01
        20 -1.766004E+00  5.285862E-01  7.400207E-01
        21 -1.186372E+01  5.285862E-01  7.400207E-01
        22 -1.362972E+01  5.285862E-01  7.400207E-01
        23 -2.372743E+01  5.285862E-01  7.400207E-01
        24 -2.549344E+01  5.285862E-01  7.400207E-01

 stresses (elem, integ.pnt.,sxx,syy,szz,sxy,sxz,syz) for set EALL and time  0.8497813E+00

         1   1 -7.362393E+02  2.441522E-11  2.378772E-11  3.309373E-13 -5.389755E-13  1.143655E-13
         1   2 -7.362393E+02  2.059321E-11  2.441522E-11  2.682314E-12 -3.065779E-12 -7.065370E-13
         1   3 -7.362393E+02  2.709633E-11  2.538498E-11 -1.098042E-12  7.320574E-13  1.174446E-12
         1   4 -7.362393E+02  2.224751E-11  2.355954E-11  1.253335E-12  2.649769E-12 -9.006285E-13
         1   5 -7.362393E+02  2.430113E-11  2.065025E-11  1.979706E-12  5.456384E-13 -6.246117E-13
         1   6 -7.362393E+02  1.420418E-11  1.859664E-11  1.055711E-11 -1.981165E-12 -2.469305E-12
         1   7 -7.362393E+02  3.645169E-11  3.165992E-11 -1.183028E-12  8.101496E-13  4.354687E-13
         1   8 -7.362393E+02  2.521385E-11  2.709633E-11  7.394375E-12  2.745295E-12 -2.663397E-12
         2   1 -7.362393E+02  1.106671E-11  2.355954E-11 -1.519809E-11  2.544665E-12 -6.114157E-13
         2   2 -7.362393E+02  4.940089E-11  3.548193E-11 -2.150910E-11  9.843445E-13  1.549983E-12
         2   3 -7.362393E+02  1.483167E-12  1.380487E-11 -3.754868E-12 -6.703874E-12 -2.146553E-12
         2   4 -7.362393E+02  4.249845E-11  3.217332E-11 -1.004845E-11 -8.551851E-12  3.329796E-12
         2   5 -7.362393E+02  5.704490E-13  1.728461E-11 -2.789048E-11  3.537446E-13 -7.213825E-13
         2   6 -7.362393E+02  5.499129E-11  3.610942E-11 -3.430609E-11 -1.363479E-12  4.013790E-12
         2   7 -7.362393E+02 -1.026808E-11  6.331984E-12 -1.187724E-11 -6.199974E-12 -2.256520E-12
         2   8 -7.362393E+02  4.689091E-11  3.154583E-11 -1.829285E-11 -8.152554E-12  5.788655E-12
         3   1 -7.362393E+02  4.289777E-11  3.542488E-11  1.341749E-11  1.464229E-13  1.436167E-12
         3   2 -7.362393E+02  2.606952E-11  2.909290E-11  2.364499E-12 -1.499508E-13  4.997993E-13
         3   3 -7.362393E+02  2.977744E-11  2.726746E-11  8.534019E-12  6.390866E-12  1.926619E-12
         3   4 -7.362393E+02  1.169420E-11  1.768392E-11 -3.007120E-12  1.439683E-12 -3.090068E-13
         3   5 -7.362393E+02  4.540774E-11  3.656578E-11  2.238527E-11  5.553223E-13  4.889126E-12
         3   6 -7.362393E+02  2.219047E-11  2.749564E-11  3.835767E-12  3.635511E-13  2.671644E-12
         3   7 -7.362393E+02  2.196229E-11  1.802619E-11  1.571490E-11  6.089732E-12  5.370781E-12
         3   8 -7.362393E+02 -2.567021E-12  5.818580E-12 -2.695139E-12  1.208283E-12  1.862838E-12

 strains (elem, integ.pnt.,exx,eyy,ezz,exy,exz,eyz) forset EALL and time  0.8497813E+00

         1   1 -3.525771E-03  1.057731E-03  1.057731E-03  2.020761E-18 -3.317703E-18  7.054764E-19
         1   2 -3.525771E-03  1.057731E-03  1.057731E-03  1.659229E-17 -1.897636E-17 -4.358352E-18
         1   3 -3.525771E-03  1.057731E-03  1.057731E-03 -6.916405E-18  4.538561E-18  7.244700E-18
         1   4 -3.525771E-03  1.057731E-03  1.057731E-03  7.655123E-18  1.642266E-17 -5.555627E-18
         1   5 -3.525771E-03  1.057731E-03  1.057731E-03  1.220201E-17  3.465724E-18 -3.852987E-18
         1   6 -3.525771E-03  1.057731E-03  1.057731E-03  6.535635E-17 -1.219293E-17 -1.523219E-17
         1   7 -3.525771E-03  1.057731E-03  1.057731E-03 -7.578464E-18  5.026967E-18  2.686237E-18
         1   8 -3.525771E-03  1.057731E-03  1.057731E-03  4.557588E-17  1.701911E-17 -1.642946E-17
         2   1 -3.525771E-03  1.057731E-03  1.057731E-03 -9.394325E-17  1.572342E-17 -3.771586E-18
         2   2 -3.525771E-03  1.057731E-03  1.057731E-03 -1.330527E-16  6.054085E-18  9.561241E-18
         2   3 -3.525771E-03  1.057731E-03  1.057731E-03 -2.237470E-17 -4.153660E-17 -1.324125E-17
         2   4 -3.525771E-03  1.057731E-03  1.057731E-03 -6.137615E-17 -5.298855E-17  2.054022E-17
         2   5 -3.525771E-03  1.057731E-03  1.057731E-03 -1.725025E-16  2.020898E-18 -4.449928E-18
         2   6 -3.525771E-03  1.057731E-03  1.057731E-03 -2.122602E-16 -8.620774E-18  2.475951E-17
         2   7 -3.525771E-03  1.057731E-03  1.057731E-03 -7.235201E-17 -3.839307E-17 -1.391959E-17
         2   8 -3.525771E-03  1.057731E-03  1.057731E-03 -1.121097E-16 -5.049325E-17  3.570796E-17
         3   1 -3.525771E-03  1.057731E-03  1.057731E-03  8.304638E-17  9.157627E-19  8.859156E-18
         3   2 -3.525771E-03  1.057731E-03  1.057731E-03  1.455074E-17 -9.208710E-19  3.083068E-18
         3   3 -3.525771E-03  1.057731E-03  1.057731E-03  5.250399E-17  3.958695E-17  1.188456E-17
         3   4 -3.525771E-03  1.057731E-03  1.057731E-03 -1.901668E-17  8.904368E-18 -1.906143E-18
         3   5 -3.525771E-03  1.057731E-03  1.057731E-03  1.385824E-16  3.473115E-18  3.015912E-17
         3   6 -3.525771E-03  1.057731E-03  1.057731E-03  2.363071E-17  2.284705E-18  1.648034E-17
         3   7 -3.525771E-03  1.057731E-03  1.057731E-03  9.686429E-17  3.767167E-17  3.313026E-17
         3   8 -3.525771E-03  1.057731E-03  1.057731E-03 -1.722307E-17  7.421236E-18  1.149113E-17

 displacements (vx,vy,vz) for set NALL and time  0.8587813E+00

         1  0.000000E+00  0.000000E+00  0.000000E+00
         2 -1.853993E+00  0.000000E+00  0.000000E+00
         3 -1.195472E+01  0.000000E+00  0.000000E+00
         4 -1.380872E+01  0.000000E+00  0.000000E+00
         5 -2.390944E+01  0.000000E+00  0.000000E+00
         6 -2.576344E+01  0.000000E+00  0.000000E+00
         7  0.000000E+00  5.548590E-01  0.000000E+00
         8 -1.853993E+00  5.548590E-01  0.000000E+00
         9 -1.195472E+01  5.548590E-01  0.000000E+00
        10 -1.380872E+01  5.548590E-01  0.000000E+00
        11 -2.390944E+01  5.548590E-01  0.000000E+00
        12 -2.576344E+01  5.548590E-01  0.000000E+00
        13  0.000000E+00  0.000000E+00  7.768026E-01
        14 -1.853993E+00  0.000000E+00  7.768026E-01
        15 -1.195472E+01  0.000000E+00  7.768026E-01
        16 -1.380872E+01  0.000000E+00  7.768026E-01
        17 -2.390944E+01  0.000000E+00  7.768026E-01
        18 -2.576344E+01  0.000000E+00  7.768026E-01
        19  0.000000E+00  5.548590E-01  7.768026E-01
        20 -1.853993E+00  5.548590E-01  7.768026E-01
        21 -1.195472E+01  5.548590E-01  7.768026E-01
        22 -1.380872E+01  5.548590E-01  7.768026E-01
        23 -2.390944E+01  5.548590E-01  7.768026E-01
        24 -2.576344E+01  5.548590E-01  7.768026E-01

 stresses (elem, integ.pnt.,sxx,syy,szz,sxy,sxz,syz) for set EALL and time  0.8587813E+00

         1   1 -7.726358E+02  3.748512E-11  3.737101E-11 -4.430422E-13 -3.959607E-13  2.683806E-13
         1   2 -7.726358E+02  3.765629E-11  3.680046E-11 -1.767703E-12 -1.180299E-12 -8.458388E-13
         1   3 -7.726358E+02  3.594464E-11  3.640108E-11 -3.210790E-13  1.310146E-12  5.763583E-13
         1   4 -7.726358E+02  3.468943E-11  3.246428E-11 -1.645740E-12  6.543429E-12 -2.239438E-12
         1   5 -7.726358E+02  3.737101E-11  3.640108E-11  1.764347E-12 -7.038499E-13  6.951497E-13
         1   6 -7.726358E+02  2.921215E-11  3.223606E-11  8.840826E-12 -1.488189E-12 -1.780771E-12
         1   7 -7.726358E+02  4.849673E-11  4.804029E-11 -4.559246E-13 -3.420483E-13  1.011927E-12
         1   8 -7.726358E+02  3.874033E-11  4.045198E-11  6.620554E-12  4.891235E-12 -3.174370E-12
         2   1 -7.726358E+02  2.869865E-11  4.010965E-11 -8.674735E-12  8.966311E-12 -1.722475E-12
         2   2 -7.726358E+02  5.437339E-11  3.474648E-11 -1.433940E-11  1.439568E-11  2.503969E-12
         2   3 -7.726358E+02  1.979808E-11  3.126613E-11  9.646917E-13 -6.225978E-12 -6.511529E-12
         2   4 -7.726358E+02  5.095010E-11  3.856917E-11 -4.612829E-12 -6.539713E-12  4.240193E-12
         2   5 -7.726358E+02  1.728766E-11  4.204952E-11 -2.943912E-11  1.067434E-12 -1.660880E-12
         2   6 -7.726358E+02  7.485613E-11  5.032249E-11 -4.317377E-11  6.644955E-12  7.602650E-12
         2   7 -7.726358E+02 -3.480354E-12  2.133856E-11 -1.082483E-11 -9.427633E-12 -6.441134E-12
         2   8 -7.726358E+02  5.945129E-11  4.222068E-11 -2.455948E-11 -9.148757E-12  9.336124E-12
         3   1 -7.726358E+02  4.832557E-11  3.525998E-11  8.983038E-12 -1.165730E-11  1.946859E-12
         3   2 -7.726358E+02  3.737101E-11  3.936793E-11  1.209369E-12 -2.158081E-12 -3.827723E-13
         3   3 -7.726358E+02  4.182130E-11  3.657224E-11  4.573934E-12  4.725199E-12  1.729075E-12
         3   4 -7.726358E+02  2.778577E-11  3.360538E-11 -3.408892E-12  1.239249E-12 -4.064206E-12
         3   5 -7.726358E+02  6.692549E-11  5.420223E-11  3.066428E-11 -7.031110E-12  7.479459E-12
         3   6 -7.726358E+02  3.896855E-11  5.129243E-11  5.286562E-12  2.224088E-12  2.243288E-12
         3   7 -7.726358E+02  3.520292E-11  3.052441E-11  2.148181E-11  6.195262E-12  7.268274E-12
         3   8 -7.726358E+02  4.165013E-12  2.019746E-11 -3.756471E-12  3.336782E-12 -1.412298E-12

 strains (elem, integ.pnt.,exx,eyy,ezz,exy,exz,eyz) forset EALL and time  0.8587813E+00

         1   1 -3.701112E-03  1.110334E-03  1.110334E-03 -2.742982E-18 -2.460940E-18  1.655243E-18
         1   2 -3.701112E-03  1.110334E-03  1.110334E-03 -1.095237E-17 -7.321759E-18 -5.216729E-18
         1   3 -3.701112E-03  1.110334E-03  1.110334E-03 -1.979807E-18  8.083214E-18  3.554702E-18
         1   4 -3.701112E-03  1.110334E-03  1.110334E-03 -1.018919E-17  4.051568E-17 -1.381178E-17
         1   5 -3.701112E-03  1.110334E-03  1.110334E-03  1.088529E-17 -4.387534E-18  4.287351E-18
         1   6 -3.701112E-03  1.110334E-03  1.110334E-03  5.474068E-17 -9.248353E-18 -1.098295E-17
         1   7 -3.701112E-03  1.110334E-03  1.110334E-03 -3.007900E-18 -2.255272E-18  6.241081E-18
         1   8 -3.701112E-03  1.110334E-03  1.110334E-03  4.084749E-17  3.017719E-17 -1.957800E-17
         2   1 -3.701112E-03  1.110334E-03  1.110334E-03 -5.354848E-17  5.539394E-17 -1.062340E-17
         2   2 -3.701112E-03  1.110334E-03  1.110334E-03 -8.865440E-17  8.904161E-17  1.544328E-17
         2   3 -3.701112E-03  1.110334E-03  1.110334E-03  6.769527E-18 -3.864863E-17 -4.016000E-17
         2   4 -3.701112E-03  1.110334E-03  1.110334E-03 -2.779630E-17 -4.059296E-17  2.615148E-17
         2   5 -3.701112E-03  1.110334E-03  1.110334E-03 -1.820350E-16  5.967297E-18 -1.024351E-17
         2   6 -3.701112E-03  1.110334E-03  1.110334E-03 -2.671533E-16  4.053312E-17  4.688951E-17
         2   7 -3.701112E-03  1.110334E-03  1.110334E-03 -6.555743E-17 -5.866600E-17 -3.972584E-17
         2   8 -3.701112E-03  1.110334E-03  1.110334E-03 -1.506758E-16 -5.693771E-17  5.758075E-17
         3   1 -3.701112E-03  1.110334E-03  1.110334E-03  5.557401E-17 -7.214880E-17  1.200730E-17
         3   2 -3.701112E-03  1.110334E-03  1.110334E-03  7.397894E-18 -1.327889E-17 -2.360757E-18
         3   3 -3.701112E-03  1.110334E-03  1.110334E-03  2.798436E-17  2.931626E-17  1.066411E-17
         3   4 -3.701112E-03  1.110334E-03  1.110334E-03 -2.148797E-17  7.712620E-18 -2.506608E-17
         3   5 -3.701112E-03  1.110334E-03  1.110334E-03  1.898354E-16 -4.321754E-17  4.612973E-17
         3   6 -3.701112E-03  1.110334E-03  1.110334E-03  3.256086E-17  1.414012E-17  1.383553E-17
         3   7 -3.701112E-03  1.110334E-03  1.110334E-03  1.323767E-16  3.851507E-17  4.482724E-17
         3   8 -3.701112E-03  1.110334E-03  1.110334E-03 -2.403363E-17  2.080008E-17 -8.710378E-18

 displacements (vx,vy,vz) for set NALL and time  0.8677813E+00

         1  0.000000E+00  0.000000E+00  0.000000E+00
         2 -1.942293E+00  0.000000E+00  0.000000E+00
         3 -1.204557E+01  0.000000E+00  0.000000E+00
         4 -1.398787E+01  0.000000E+00  0.000000E+00
         5 -2.409114E+01  0.000000E+00  0.000000E+00
         6 -2.603344E+01  0.000000E+00  0.000000E+00
         7  0.000000E+00  5.812182E-01  0.000000E+00
         8 -1.942293E+00  5.812182E-01  0.000000E+00
         9 -1.204557E+01  5.812182E-01  0.000000E+00
        10 -1.398787E+01  5.812182E-01  0.000000E+00
        11 -2.409114E+01  5.812182E-01  0.000000E+00
        12 -2.603344E+01  5.812182E-01  0.000000E+00
        13  0.000000E+00  0.000000E+00  8.137055E-01
        14 -1.942293E+00  0.000000E+00  8.137055E-01
        15 -1.204557E+01  0.000000E+00  8.137055E-01
        16 -1.398787E+01  0.000000E+00  8.137055E-01
        17 -2.409114E+01  0.000000E+00  8.137055E-01
        18 -2.603344E+01  0.000000E+00  8.137055E-01
        19  0.000000E+00  5.812182E-01  8.137055E-01
        20 -1.942293E+00  5.812182E-01  8.137055E-01
        21 -1.204557E+01  5.812182E-01  8.137055E-01
        22 -1.398787E+01  5.812182E-01  8.137055E-01
        23 -2.409114E+01  5.812182E-01  8.137055E-01
        24 -2.603344E+01  5.812182E-01  8.137055E-01

 stresses (elem, integ.pnt.,sxx,syy,szz,sxy,sxz,syz) for set EALL and time  0.8677813E+00

         1   1 -8.091335E+02  7.036126E-11  6.961941E-11  2.237522E-13  2.716728E-13 -9.021421E-14
         1   2 -8.091335E+02  6.688029E-11  6.511127E-11  1.365138E-12  2.462960E-12 -8.036766E-13
         1   3 -8.091335E+02  7.235854E-11  7.190202E-11 -3.337695E-13  1.337308E-12 -6.248985E-13
         1   4 -8.091335E+02  6.790746E-11  6.533953E-11  8.076167E-13  7.301269E-12 -2.414880E-12
         1   5 -8.091335E+02  7.230147E-11  7.304332E-11  1.591687E-12 -1.161955E-12  1.738274E-13
         1   6 -8.091335E+02  6.351345E-11  6.625257E-11  8.004361E-12  1.029333E-12 -1.407672E-12
         1   7 -8.091335E+02  8.228786E-11  8.342917E-11 -4.303450E-13 -9.642980E-13 -3.520555E-13
         1   8 -8.091335E+02  7.258680E-11  7.441288E-11  5.982329E-12  4.999663E-12 -3.018876E-12
         2   1 -8.091335E+02  5.877705E-11  7.019006E-11 -9.577362E-12  9.590306E-12 -2.134336E-12
         2   2 -8.091335E+02  8.040472E-11  5.792107E-11 -9.821322E-12  2.103031E-11  2.335668E-12
         2   3 -8.091335E+02  5.809226E-11  6.950528E-11 -3.254259E-13 -4.364462E-12 -7.960854E-12
         2   4 -8.091335E+02  8.554057E-11  7.076072E-11 -7.784952E-13 -3.353769E-12  3.376432E-12
         2   5 -8.091335E+02  5.409771E-11  8.183134E-11 -2.870222E-11 -7.864258E-13 -2.129936E-12
         2   6 -8.091335E+02  1.092226E-10  8.394275E-11 -4.285192E-11  1.049674E-11  7.695162E-12
         2   7 -8.091335E+02  3.201352E-11  5.969009E-11 -1.000113E-11 -9.305060E-12 -7.965255E-12
         2   8 -8.091335E+02  9.295904E-11  7.526886E-11 -2.442964E-11 -8.677734E-12  8.724375E-12
         3   1 -8.091335E+02  7.446995E-11  5.946183E-11  3.704185E-12 -1.752546E-11  1.865894E-12
         3   2 -8.091335E+02  6.859224E-11  6.973354E-11 -1.991818E-13 -3.027245E-12 -9.444988E-13
         3   3 -8.091335E+02  7.606777E-11  6.950528E-11  1.119891E-13  2.682804E-12  9.857553E-13
         3   4 -8.091335E+02  6.636670E-11  7.110311E-11 -2.885239E-12  1.567556E-12 -6.010247E-12
         3   5 -8.091335E+02  1.011193E-10  8.845089E-11  3.114627E-11 -1.133475E-11  7.859638E-12
         3   6 -8.091335E+02  7.452701E-11  8.993459E-11  5.774391E-12  3.546834E-12  1.539693E-12
         3   7 -8.091335E+02  6.830692E-11  6.408410E-11  2.179465E-11  5.156383E-12  6.979500E-12
         3   8 -8.091335E+02  3.800535E-11  5.689390E-11 -3.437832E-12  4.738166E-12 -3.527156E-12

 strains (elem, integ.pnt.,exx,eyy,ezz,exy,exz,eyz) forset EALL and time  0.8677813E+00

         1   1 -3.877040E-03  1.163112E-03  1.163112E-03  1.373950E-18  1.650648E-18 -5.562995E-19
         1   2 -3.877040E-03  1.163112E-03  1.163112E-03  8.447888E-18  1.523153E-17 -4.955815E-18
         1   3 -3.877040E-03  1.163112E-03  1.163112E-03 -2.116490E-18  8.235525E-18 -3.853392E-18
         1   4 -3.877040E-03  1.163112E-03  1.163112E-03  4.957448E-18  4.519820E-17 -1.489119E-17
         1   5 -3.877040E-03  1.163112E-03  1.163112E-03  9.817952E-18 -7.324770E-18  1.071894E-18
         1   6 -3.877040E-03  1.163112E-03  1.163112E-03  4.956160E-17  6.256111E-18 -8.680308E-18
         1   7 -3.877040E-03  1.163112E-03  1.163112E-03 -2.841254E-18 -6.173990E-18 -2.170925E-18
         1   8 -3.877040E-03  1.163112E-03  1.163112E-03  3.690240E-17  3.078869E-17 -1.861568E-17
         2   1 -3.877040E-03  1.163112E-03  1.163112E-03 -5.914407E-17  5.919878E-17 -1.316123E-17
         2   2 -3.877040E-03  1.163112E-03  1.163112E-03 -6.065606E-17  1.301002E-16  1.440273E-17
         2   3 -3.877040E-03  1.163112E-03  1.163112E-03 -1.221078E-18 -2.716631E-17 -4.909004E-17
         2   4 -3.877040E-03  1.163112E-03  1.163112E-03 -4.029053E-18 -2.090237E-17  2.082053E-17
         2   5 -3.877040E-03  1.163112E-03  1.163112E-03 -1.774559E-16 -5.766152E-18 -1.313410E-17
         2   6 -3.877040E-03  1.163112E-03  1.163112E-03 -2.651511E-16  6.416323E-17  4.745167E-17
         2   7 -3.877040E-03  1.163112E-03  1.163112E-03 -6.037516E-17 -5.810637E-17 -4.911718E-17
         2   8 -3.877040E-03  1.163112E-03  1.163112E-03 -1.497984E-16 -5.421840E-17  5.379823E-17
         3   1 -3.877040E-03  1.163112E-03  1.163112E-03  2.287456E-17 -1.084741E-16  1.150590E-17
         3   2 -3.877040E-03  1.163112E-03  1.163112E-03 -1.317223E-18 -1.861894E-17 -5.824185E-18
         3   3 -3.877040E-03  1.163112E-03  1.163112E-03  3.851379E-19  1.669073E-17  6.078590E-18
         3   4 -3.877040E-03  1.163112E-03  1.163112E-03 -1.819070E-17  9.778789E-18 -3.706176E-17
         3   5 -3.877040E-03  1.163112E-03  1.163112E-03  1.928187E-16 -6.971635E-17  4.846590E-17
         3   6 -3.877040E-03  1.163112E-03  1.163112E-03  3.557205E-17  2.251484E-17  9.494405E-18
         3   7 -3.877040E-03  1.163112E-03  1.163112E-03  1.342715E-16  3.219446E-17  4.303859E-17
         3   8 -3.877040E-03  1.163112E-03  1.163112E-03 -2.211109E-17  2.960248E-17 -2.174995E-17

 displacements (vx,vy,vz) for set NALL and time  0.8767813E+00

         1  0.000000E+00  0.000000E+00  0.000000E+00
         2 -2.030935E+00  0.000000E+00  0.000000E+00
         3 -1.213625E+01  0.000000E+00  0.000000E+00
         4 -1.416719E+01  0.000000E+00  0.000000E+00
         5 -2.427250E+01  0.000000E+00  0.000000E+00
         6 -2.630344E+01  0.000000E+00  0.000000E+00
         7  0.000000E+00  6.076738E-01  0.000000E+00
         8 -2.030935E+00  6.076738E-01  0.000000E+00
         9 -1.213625E+01  6.076738E-01  0.000000E+00
        10 -1.416719E+01  6.076738E-01  0.000000E+00
        11 -2.427250E+01  6.076738E-01  0.000000E+00
        12 -2.630344E+01  6.076738E-01  0.000000E+00
        13  0.000000E+00  0.000000E+00  8.507433E-01
        14 -2.030935E+00  0.000000E+00  8.507433E-01
        15 -1.213625E+01  0.000000E+00  8.507433E-01
        16 -1.416719E+01  0.000000E+00  8.507433E-01
        17 -2.427250E+01  0.000000E+00  8.507433E-01
        18 -2.630344E+01  0.000000E+00  8.507433E-01
        19  0.000000E+00  6.076738E-01  8.507433E-01
        20 -2.030935E+00  6.076738E-01  8.507433E-01
        21 -1.213625E+01  6.076738E-01  8.507433E-01
        22 -1.416719E+01  6.076738E-01  8.507433E-01
        23 -2.427250E+01  6.076738E-01  8.507433E-01
        24 -2.630344E+01  6.076738E-01  8.507433E-01

 stresses (elem, integ.pnt.,sxx,syy,szz,sxy,sxz,syz) for set EALL and time  0.8767813E+00

         1   1 -8.457456E+02 -9.702793E-13 -1.940559E-12  4.988398E-13  4.155868E-13 -2.090812E-13
         1   2 -8.457456E+02 -5.764600E-12 -7.134406E-12  2.739709E-12  3.078933E-12 -7.499412E-13
         1   3 -8.457456E+02  2.454236E-12  1.483957E-12 -4.136875E-13  1.206277E-12 -8.539316E-13
         1   4 -8.457456E+02 -3.082064E-12 -5.307998E-12  1.827181E-12  6.667987E-12 -2.206357E-12
         1   5 -8.457456E+02  1.483957E-12  2.283010E-12  1.506595E-12 -1.075867E-12 -1.298504E-13
         1   6 -8.457456E+02 -7.419783E-12 -4.737246E-12  7.717439E-12  1.587478E-12 -1.349674E-12
         1   7 -8.457456E+02  1.101552E-11  1.175750E-11 -5.426651E-13 -9.339651E-13 -7.747008E-13
         1   8 -8.457456E+02  1.312731E-12  3.139139E-12  5.668179E-12  4.545166E-12 -2.806090E-12
         2   1 -8.457456E+02 -1.078722E-11  9.702793E-13 -8.963703E-12  1.081504E-11 -1.613226E-12
         2   2 -8.457456E+02  5.593375E-12 -1.689427E-11 -8.406208E-12  2.068445E-11  1.155449E-12
         2   3 -8.457456E+02 -9.474492E-12  2.682537E-12 -7.087153E-13  1.541343E-12 -6.290043E-12
         2   4 -8.457456E+02  1.050185E-11 -6.791955E-12 -6.411160E-14  6.349738E-12  6.756624E-13
         2   5 -8.457456E+02 -1.221410E-11  1.267071E-11 -2.147991E-11 -1.241148E-12 -1.344722E-12
         2   6 -8.457456E+02  2.465651E-11  3.538666E-12 -2.823954E-11  8.750209E-12  4.787409E-12
         2   7 -8.457456E+02 -2.191690E-11  3.253289E-12 -7.436197E-12 -7.201589E-12 -6.039145E-12
         2   8 -8.457456E+02  1.854946E-11  2.625462E-12 -1.412614E-11 -2.079603E-12  4.309273E-12
         3   1 -8.457456E+02  2.853763E-13 -1.381221E-11  2.406448E-12 -1.606322E-11  8.715385E-13
         3   2 -8.457456E+02 -1.883483E-12 -1.483957E-12 -2.764967E-13 -2.665914E-12 -8.429273E-13
         3   3 -8.457456E+02  1.084430E-12 -6.563654E-12 -1.578345E-13 -4.333000E-12 -1.258889E-12
         3   4 -8.457456E+02 -3.424515E-12  5.707525E-14 -2.631719E-12 -8.210010E-14 -5.415203E-12
         3   5 -8.457456E+02  1.849238E-11  1.033062E-11  1.873766E-11 -1.003317E-11  5.416303E-12
         3   6 -8.457456E+02  4.394794E-12  1.752210E-11  3.267174E-12  3.747414E-12  1.430005E-12
         3   7 -8.457456E+02 -2.853763E-13 -2.054709E-12  1.337917E-11 -1.694929E-13  3.283675E-12
         3   8 -8.457456E+02 -1.683720E-11 -5.136773E-13 -3.066940E-12  4.429842E-12 -3.127414E-12

 strains (elem, integ.pnt.,exx,eyy,ezz,exy,exz,eyz) forset EALL and time  0.8767813E+00

         1   1 -4.053621E-03  1.216086E-03  1.216086E-03  3.069732E-18  2.539642E-18 -1.289055E-18
         1   2 -4.053621E-03  1.216086E-03  1.216086E-03  1.695864E-17  1.904706E-17 -4.623636E-18
         1   3 -4.053621E-03  1.216086E-03  1.216086E-03 -2.646209E-18  7.424575E-18 -5.264771E-18
         1   4 -4.053621E-03  1.216086E-03  1.216086E-03  1.124270E-17  4.127625E-17 -1.360292E-17
         1   5 -4.053621E-03  1.216086E-03  1.216086E-03  9.288514E-18 -6.802613E-18 -8.005709E-19
         1   6 -4.053621E-03  1.216086E-03  1.216086E-03  4.778332E-17  9.704803E-18 -8.321188E-18
         1   7 -4.053621E-03  1.216086E-03  1.216086E-03 -3.547758E-18 -5.981595E-18 -4.776287E-18
         1   8 -4.053621E-03  1.216086E-03  1.216086E-03  3.494705E-17  2.797806E-17 -1.730047E-17
         2   1 -4.053621E-03  1.216086E-03  1.216086E-03 -5.535798E-17  6.674111E-17 -9.946076E-18
         2   2 -4.053621E-03  1.216086E-03  1.216086E-03 -5.190262E-17  1.279117E-16  7.123724E-18
         2   3 -4.053621E-03  1.216086E-03  1.216086E-03 -3.649917E-18  9.342672E-18 -3.878020E-17
         2   4 -4.053621E-03  1.216086E-03  1.216086E-03  3.453363E-19  3.914510E-17  4.165682E-18
         2   5 -4.053621E-03  1.216086E-03  1.216086E-03 -1.327939E-16 -8.777154E-18 -8.290658E-18
         2   6 -4.053621E-03  1.216086E-03  1.216086E-03 -1.746901E-16  5.314928E-17  2.951596E-17
         2   7 -4.053621E-03  1.216086E-03  1.216086E-03 -4.482613E-17 -4.542180E-17 -3.723333E-17
         2   8 -4.053621E-03  1.216086E-03  1.216086E-03 -8.629038E-17 -1.367574E-17  2.656810E-17
         3   1 -4.053621E-03  1.216086E-03  1.216086E-03  1.485336E-17 -9.940610E-17  5.373323E-18
         3   2 -4.053621E-03  1.216086E-03  1.216086E-03 -1.775535E-18 -1.636962E-17 -5.196926E-18
         3   3 -4.053621E-03  1.216086E-03  1.216086E-03 -1.208943E-18 -2.675579E-17 -7.761467E-18
         3   4 -4.053621E-03  1.216086E-03  1.216086E-03 -1.654208E-17 -4.087075E-19 -3.338652E-17
         3   5 -4.053621E-03  1.216086E-03  1.216086E-03  1.159932E-16 -6.161178E-17  3.339330E-17
         3   6 -4.053621E-03  1.216086E-03  1.216086E-03  2.010714E-17  2.380026E-17  8.816457E-18
         3   7 -4.053621E-03  1.216086E-03  1.216086E-03  8.239165E-17 -6.761711E-19  2.024495E-17
         3   8 -4.053621E-03  1.216086E-03  1.216086E-03 -1.954131E-17  2.783050E-17 -1.928155E-17

 displacements (vx,vy,vz) for set NALL and time  0.8857813E+00

         1  0.000000E+00  0.000000E+00  0.000000E+00
         2 -2.119957E+00  0.000000E+00  0.000000E+00
         3 -1.222674E+01  0.000000E+00  0.000000E+00
         4 -1.434670E+01  0.000000E+00  0.000000E+00
         5 -2.445348E+01  0.000000E+00  0.000000E+00
         6 -2.657344E+01  0.000000E+00  0.000000E+00
         7  0.000000E+00  6.342366E-01  0.000000E+00
         8 -2.119957E+00  6.342366E-01  0.000000E+00
         9 -1.222674E+01  6.342366E-01  0.000000E+00
        10 -1.434670E+01  6.342366E-01  0.000000E+00
        11 -2.445348E+01  6.342366E-01  0.000000E+00
        12 -2.657344E+01  6.342366E-01  0.000000E+00
        13  0.000000E+00  0.000000E+00  8.879313E-01
        14 -2.119957E+00  0.000000E+00  8.879313E-01
        15 -1.222674E+01  0.000000E+00  8.879313E-01
        16 -1.434670E+01  0.000000E+00  8.879313E-01
        17 -2.445348E+01  0.000000E+00  8.879313E-01
        18 -2.657344E+01  0.000000E+00  8.879313E-01
        19  0.000000E+00  6.342366E-01  8.879313E-01
        20 -2.119957E+00  6.342366E-01  8.879313E-01
        21 -1.222674E+01  6.342366E-01  8.879313E-01
        22 -1.434670E+01  6.342366E-01  8.879313E-01
        23 -2.445348E+01  6.342366E-01  8.879313E-01
        24 -2.657344E+01  6.342366E-01  8.879313E-01

 stresses (elem, integ.pnt.,sxx,syy,szz,sxy,sxz,syz) for set EALL and time  0.8857813E+00

         1   1 -8.824871E+02 -1.655478E-12 -3.025529E-12  1.149469E-12  1.004662E-12 -5.547440E-13
         1   2 -8.824871E+02 -9.419100E-12 -1.061789E-11  5.863130E-12  5.844601E-12 -4.193600E-13
         1   3 -8.824871E+02  5.251862E-12  3.539298E-12 -4.040851E-13  7.703068E-13 -1.822730E-12
         1   4 -8.824871E+02 -2.340504E-12 -3.767640E-12  4.309575E-12  4.863462E-12 -1.473814E-12
         1   5 -8.824871E+02  2.397589E-12  4.509751E-12  8.625494E-13 -1.075044E-12 -7.836859E-13
         1   6 -8.824871E+02 -4.452666E-12 -2.797187E-12  4.520263E-12  3.764895E-12 -5.129180E-13
         1   7 -8.824871E+02  7.820708E-12  9.590357E-12 -4.084422E-13 -1.161033E-12 -2.051672E-12
         1   8 -8.824871E+02  1.141709E-12  2.568846E-12  3.249271E-12  2.923414E-12 -1.567372E-12
         2   1 -8.824871E+02 -1.221629E-11 -5.137691E-13 -9.890645E-12  1.149066E-11 -1.516740E-12
         2   2 -8.824871E+02 -2.454675E-12 -2.580263E-11 -3.968633E-12  2.525063E-11  5.354820E-13
         2   3 -8.824871E+02 -3.196786E-12  9.133673E-12 -2.833611E-12  7.543872E-12 -6.128600E-12
         2   4 -8.824871E+02  9.304929E-12 -9.875784E-12  3.105819E-12  1.231632E-11 -9.476876E-13
         2   5 -8.824871E+02 -5.594375E-12  1.895237E-11 -1.521338E-11 -2.692692E-12 -1.067662E-12
         2   6 -8.824871E+02  1.929488E-11  1.712564E-13 -2.162309E-11  1.118049E-11  3.462747E-12
         2   7 -8.824871E+02 -1.501348E-11  1.016121E-11 -3.874059E-12 -4.196019E-12 -5.670716E-12
         2   8 -8.824871E+02  1.261589E-11 -2.397589E-12 -1.056245E-11  5.764261E-13  1.983430E-12
         3   1 -8.824871E+02 -7.021511E-12 -2.106453E-11 -2.372460E-12 -1.966573E-11  5.811604E-13
         3   2 -8.824871E+02 -2.797187E-12 -3.482213E-12 -4.913498E-13 -4.076900E-12 -1.220657E-12
         3   3 -8.824871E+02 -5.137691E-13 -8.676989E-12 -3.522739E-12 -6.938831E-12 -1.963618E-12
         3   4 -8.824871E+02  1.370051E-12  3.425127E-12 -2.547349E-12 -2.504408E-13 -6.492926E-12
         3   5 -8.824871E+02  1.410011E-11  7.249853E-12  1.436647E-11 -1.181414E-11  4.739539E-12
         3   6 -8.824871E+02  4.909349E-12  1.895237E-11  2.940467E-12  4.662987E-12  7.137926E-13
         3   7 -8.824871E+02  5.708546E-13 -3.995982E-13  9.460050E-12 -1.538741E-12  2.201365E-12
         3   8 -8.824871E+02 -1.090332E-11  5.879802E-12 -2.383975E-12  5.010308E-12 -4.572235E-12

 strains (elem, integ.pnt.,exx,eyy,ezz,exy,exz,eyz) forset EALL and time  0.8857813E+00

         1   1 -4.230926E-03  1.269278E-03  1.269278E-03  7.085406E-18  6.174593E-18 -3.419569E-18
         1   2 -4.230926E-03  1.269278E-03  1.269278E-03  3.630222E-17  3.617412E-17 -2.585031E-18
         1   3 -4.230926E-03  1.269278E-03  1.269278E-03 -2.650866E-18  4.725777E-18 -1.123573E-17
         1   4 -4.230926E-03  1.269278E-03  1.269278E-03  2.656595E-17  3.009650E-17 -9.084926E-18
         1   5 -4.230926E-03  1.269278E-03  1.269278E-03  5.314650E-18 -6.859121E-18 -4.830820E-18
         1   6 -4.230926E-03  1.269278E-03  1.269278E-03  2.798636E-17  2.314041E-17 -3.161744E-18
         1   7 -4.230926E-03  1.269278E-03  1.269278E-03 -2.650775E-18 -7.378710E-18 -1.264698E-17
         1   8 -4.230926E-03  1.269278E-03  1.269278E-03  2.002094E-17  1.793803E-17 -9.661639E-18
         2   1 -4.230926E-03  1.269278E-03  1.269278E-03 -6.112802E-17  7.086564E-17 -9.349536E-18
         2   2 -4.230926E-03  1.269278E-03  1.269278E-03 -2.442145E-17  1.561545E-16  3.300834E-18
         2   3 -4.230926E-03  1.269278E-03  1.269278E-03 -1.690092E-17  4.646370E-17 -3.777810E-17
         2   4 -4.230926E-03  1.269278E-03  1.269278E-03  1.991362E-17  7.604488E-17 -5.841764E-18
         2   5 -4.230926E-03  1.269278E-03  1.269278E-03 -9.401181E-17 -1.802279E-17 -6.581313E-18
         2   6 -4.230926E-03  1.269278E-03  1.269278E-03 -1.337413E-16  6.796776E-17  2.134517E-17
         2   7 -4.230926E-03  1.269278E-03  1.269278E-03 -2.294720E-17 -2.711132E-17 -3.495559E-17
         2   8 -4.230926E-03  1.269278E-03  1.269278E-03 -6.440404E-17  2.469868E-18  1.222632E-17
         3   1 -4.230926E-03  1.269278E-03  1.269278E-03 -1.473428E-17 -1.217043E-16  3.582406E-18
         3   2 -4.230926E-03  1.269278E-03  1.269278E-03 -3.074545E-18 -2.507960E-17 -7.524409E-18
         3   3 -4.230926E-03  1.269278E-03  1.269278E-03 -2.194319E-17 -4.287307E-17 -1.210419E-17
         3   4 -4.230926E-03  1.269278E-03  1.269278E-03 -1.589740E-17 -1.416225E-18 -4.002388E-17
         3   5 -4.230926E-03  1.269278E-03  1.269278E-03  8.892450E-17 -7.251681E-17  2.921560E-17
         3   6 -4.230926E-03  1.269278E-03  1.269278E-03  1.810240E-17  2.961384E-17  4.399981E-18
         3   7 -4.230926E-03  1.269278E-03  1.269278E-03  5.817552E-17 -9.030189E-18  1.356972E-17
         3   8 -4.230926E-03  1.269278E-03  1.269278E-03 -1.523764E-17  3.156297E-17 -2.818430E-17

 displacements (vx,vy,vz) for set NALL and time  0.8947813E+00

         1  0.000000E+00  0.000000E+00  0.000000E+00
         2 -2.209401E+00  0.000000E+00  0.000000E+00
         3 -1.231702E+01  0.000000E+00  0.000000E+00
         4 -1.452642E+01  0.000000E+00  0.000000E+00
         5 -2.463404E+01  0.000000E+00  0.000000E+00
         6 -2.684344E+01  0.000000E+00  0.000000E+00
         7  0.000000E+00  6.609191E-01  0.000000E+00
         8 -2.209401E+00  6.609191E-01  0.000000E+00
         9 -1.231702E+01  6.609191E-01  0.000000E+00
        10 -1.452642E+01  6.609191E-01  0.000000E+00
        11 -2.463404E+01  6.609191E-01  0.000000E+00
        12 -2.684344E+01  6.609191E-01  0.000000E+00
        13  0.000000E+00  0.000000E+00  9.252868E-01
        14 -2.209401E+00  0.000000E+00  9.252868E-01
        15 -1.231702E+01  0.000000E+00  9.252868E-01
        16 -1.452642E+01  0.000000E+00  9.252868E-01
        17 -2.463404E+01  0.000000E+00  9.252868E-01
        18 -2.684344E+01  0.000000E+00  9.252868E-01
        19  0.000000E+00  6.609191E-01  9.252868E-01
        20 -2.209401E+00  6.609191E-01  9.252868E-01
        21 -1.231702E+01  6.609191E-01  9.252868E-01
        22 -1.452642E+01  6.609191E-01  9.252868E-01
        23 -2.463404E+01  6.609191E-01  9.252868E-01
        24 -2.684344E+01  6.609191E-01  9.252868E-01

 stresses (elem, integ.pnt.,sxx,syy,szz,sxy,sxz,syz) for set EALL and time  0.8947813E+00

         1   1 -9.193748E+02 -1.655776E-12 -3.825413E-12  1.861706E-12  9.379202E-13 -6.913897E-13
         1   2 -9.193748E+02 -1.421683E-11 -1.221848E-11  1.007658E-11  4.925641E-12 -7.299225E-13
         1   3 -9.193748E+02  9.420793E-12  5.595380E-12 -1.270467E-12  9.870146E-13 -1.462047E-12
         1   4 -9.193748E+02 -3.140264E-12 -2.797690E-12  6.944411E-12  5.201112E-12 -1.551223E-12
         1   5 -9.193748E+02  2.968977E-12  2.911881E-12  1.933109E-12 -4.980424E-13 -1.783521E-12
         1   6 -9.193748E+02 -9.991750E-12 -5.652476E-12  1.043096E-11  3.489678E-12 -1.904624E-12
         1   7 -9.193748E+02  1.461650E-11  1.296073E-11 -1.263450E-12 -5.279422E-13 -2.571793E-12
         1   8 -9.193748E+02  1.712871E-12  4.339274E-12  7.234399E-12  3.686155E-12 -2.725925E-12
         2   1 -9.193748E+02 -1.518746E-11 -1.199010E-12 -1.015380E-11  1.548882E-11 -2.065361E-12
         2   2 -9.193748E+02 -1.267525E-11 -3.591320E-11  2.854177E-12  3.002049E-11  1.155986E-13
         2   3 -9.193748E+02  3.425743E-12  1.581551E-11 -4.210843E-12  1.063162E-11 -6.614441E-12
         2   4 -9.193748E+02  8.621453E-12 -1.250396E-11  8.866790E-12  1.676121E-11 -1.033782E-12
         2   5 -9.193748E+02 -7.022773E-12  1.975512E-11 -1.715088E-11 -1.762212E-12 -3.148685E-12
         2   6 -9.193748E+02  1.199010E-11 -7.993400E-12 -1.561848E-11  1.316997E-11  1.599114E-12
         2   7 -9.193748E+02 -5.937954E-12  1.918416E-11 -6.274055E-12 -4.080777E-12 -7.697765E-12
         2   8 -9.193748E+02  1.575842E-11 -2.055446E-12 -4.950619E-12  2.083646E-12  4.447793E-13
         3   1 -9.193748E+02 -1.707162E-11 -2.820528E-11 -9.854921E-12 -2.156923E-11  5.064319E-14
         3   2 -9.193748E+02 -4.053796E-12 -6.280528E-12 -2.018789E-12 -4.521291E-12 -1.654161E-12
         3   3 -9.193748E+02 -2.968977E-12 -9.820463E-12 -8.618608E-12 -9.032438E-12 -2.743540E-12
         3   4 -9.193748E+02  7.879208E-12  6.680198E-12 -1.130748E-12 -7.435520E-13 -6.976650E-12
         3   5 -9.193748E+02  6.166337E-12  2.740594E-12  6.985392E-12 -1.375786E-11  2.990150E-12
         3   6 -9.193748E+02  6.794390E-12  1.941254E-11  1.134414E-12  3.673176E-12 -8.290070E-13
         3   7 -9.193748E+02  1.484489E-12  2.340924E-12  4.754077E-12 -3.249631E-12  2.025728E-13
         3   8 -9.193748E+02 -5.709571E-14  1.364588E-11 -9.575924E-13  4.899946E-12 -6.185075E-12

 strains (elem, integ.pnt.,exx,eyy,ezz,exy,exz,eyz) forset EALL and time  0.8947813E+00

         1   1 -4.409040E-03  1.322712E-03  1.322712E-03  1.145789E-17  5.776223E-18 -4.261119E-18
         1   2 -4.409040E-03  1.322712E-03  1.322712E-03  6.237912E-17  3.049474E-17 -4.498601E-18
         1   3 -4.409040E-03  1.322712E-03  1.322712E-03 -8.181932E-18  6.079068E-18 -9.010773E-18
         1   4 -4.409040E-03  1.322712E-03  1.322712E-03  4.273930E-17  3.220082E-17 -9.560376E-18
         1   5 -4.409040E-03  1.322712E-03  1.322712E-03  1.189905E-17 -3.227765E-18 -1.099206E-17
         1   6 -4.409040E-03  1.322712E-03  1.322712E-03  6.457432E-17  2.149075E-17 -1.173843E-17
         1   7 -4.409040E-03  1.322712E-03  1.322712E-03 -8.144489E-18 -3.420241E-18 -1.585028E-17
         1   8 -4.409040E-03  1.322712E-03  1.322712E-03  4.453078E-17  2.270151E-17 -1.680021E-17
         2   1 -4.409040E-03  1.322712E-03  1.322712E-03 -6.278403E-17  9.555732E-17 -1.272907E-17
         2   2 -4.409040E-03  1.322712E-03  1.322712E-03  1.784800E-17  1.856342E-16  7.124482E-19
         2   3 -4.409040E-03  1.322712E-03  1.322712E-03 -2.551959E-17  6.551544E-17 -4.076561E-17
         2   4 -4.409040E-03  1.322712E-03  1.322712E-03  5.554419E-17  1.035107E-16 -6.371322E-18
         2   5 -4.409040E-03  1.322712E-03  1.322712E-03 -1.060339E-16 -1.261267E-17 -1.940573E-17
         2   6 -4.409040E-03  1.322712E-03  1.322712E-03 -9.653512E-17  7.994685E-17  9.855533E-18
         2   7 -4.409040E-03  1.322712E-03  1.322712E-03 -3.785243E-17 -2.673642E-17 -4.744226E-17
         2   8 -4.409040E-03  1.322712E-03  1.322712E-03 -2.964891E-17  1.147474E-17  2.741229E-18
         3   1 -4.409040E-03  1.322712E-03  1.322712E-03 -6.105475E-17 -1.334939E-16  3.121202E-19
         3   2 -4.409040E-03  1.322712E-03  1.322712E-03 -1.248124E-17 -2.781951E-17 -1.019479E-17
         3   3 -4.409040E-03  1.322712E-03  1.322712E-03 -5.330263E-17 -5.583757E-17 -1.690877E-17
         3   4 -4.409040E-03  1.322712E-03  1.322712E-03 -6.887948E-18 -4.457594E-18 -4.299794E-17
         3   5 -4.409040E-03  1.322712E-03  1.322712E-03  4.324157E-17 -8.450888E-17  1.842866E-17
         3   6 -4.409040E-03  1.322712E-03  1.322712E-03  6.973350E-18  2.354019E-17 -5.109271E-18
         3   7 -4.409040E-03  1.322712E-03  1.322712E-03  2.925044E-17 -1.957735E-17  1.248481E-18
         3   8 -4.409040E-03  1.322712E-03  1.322712E-03 -6.154246E-18  3.093910E-17 -3.811937E-17

 displacements (vx,vy,vz) for set NALL and time  0.9037813E+00

         1  0.000000E+00  0.000000E+00  0.000000E+00
         2 -2.299316E+00  0.000000E+00  0.000000E+00
         3 -1.240706E+01  0.000000E+00  0.000000E+00
         4 -1.470638E+01  0.000000E+00  0.000000E+00
         5 -2.481412E+01  0.000000E+00  0.000000E+00
         6 -2.711344E+01  0.000000E+00  0.000000E+00
         7  0.000000E+00  6.877356E-01  0.000000E+00
         8 -2.299316E+00  6.877356E-01  0.000000E+00
         9 -1.240706E+01  6.877356E-01  0.000000E+00
        10 -1.470638E+01  6.877356E-01  0.000000E+00
        11 -2.481412E+01  6.877356E-01  0.000000E+00
        12 -2.711344E+01  6.877356E-01  0.000000E+00
        13  0.000000E+00  0.000000E+00  9.628299E-01
        14 -2.299316E+00  0.000000E+00  9.628299E-01
        15 -1.240706E+01  0.000000E+00  9.628299E-01
        16 -1.470638E+01  0.000000E+00  9.628299E-01
        17 -2.481412E+01  0.000000E+00  9.628299E-01
        18 -2.711344E+01  0.000000E+00  9.628299E-01
        19  0.000000E+00  6.877356E-01  9.628299E-01
        20 -2.299316E+00  6.877356E-01  9.628299E-01
        21 -1.240706E+01  6.877356E-01  9.628299E-01
        22 -1.470638E+01  6.877356E-01  9.628299E-01
        23 -2.481412E+01  6.877356E-01  9.628299E-01
        24 -2.711344E+01  6.877356E-01  9.628299E-01

 stresses (elem, integ.pnt.,sxx,syy,szz,sxy,sxz,syz) for set EALL and time  0.9037813E+00

         1   1 -9.564284E+02 -2.398453E-12 -4.739800E-12  2.331835E-12  1.462879E-12 -9.778628E-13
         1   2 -9.564284E+02 -1.718891E-11 -1.576126E-11  1.215517E-11  7.673736E-12 -4.949880E-13
         1   3 -9.564284E+02  1.124989E-11  7.024041E-12 -1.159587E-12  7.000172E-13 -2.427038E-12
         1   4 -9.564284E+02 -2.969513E-12 -2.512665E-12  8.663750E-12  4.234155E-12 -1.191495E-12
         1   5 -9.564284E+02  3.768998E-12  5.253755E-12  1.348099E-12 -7.306162E-13 -2.206798E-12
         1   6 -9.564284E+02 -7.423784E-12 -4.054528E-12  7.493670E-12  5.480240E-12 -1.157908E-12
         1   7 -9.564284E+02  1.164963E-11  1.142121E-11 -1.094165E-12 -9.527277E-13 -3.647164E-12
         1   8 -9.564284E+02  1.142121E-12  3.483468E-12  5.051405E-12  2.590115E-12 -1.854415E-12
         2   1 -9.564284E+02 -1.804550E-11 -6.510087E-12 -1.139702E-11  1.151277E-11 -2.396204E-12
         2   2 -9.564284E+02 -1.410519E-11 -3.529153E-11  4.828680E-12  2.958388E-11  6.722807E-13
         2   3 -9.564284E+02  5.253755E-12  1.490467E-11 -5.812691E-12  6.687731E-12 -7.620282E-12
         2   4 -9.564284E+02  1.324860E-11 -4.511376E-12  1.048265E-11  8.602781E-12  1.112209E-13
         2   5 -9.564284E+02 -5.710603E-12  2.044396E-11 -1.818011E-11 -3.183006E-12 -3.708831E-12
         2   6 -9.564284E+02  2.095791E-11  1.427651E-12 -2.354225E-11  1.473142E-11  3.094363E-12
         2   7 -9.564284E+02 -1.558995E-11  8.623010E-12 -6.208902E-12 -4.488246E-12 -8.915289E-12
         2   8 -9.564284E+02  1.501889E-11 -1.142121E-12 -1.184960E-11 -2.120547E-12  2.517336E-12
         3   1 -9.564284E+02 -1.958737E-11 -3.060883E-11 -1.356804E-11 -2.390052E-11  8.919694E-13
         3   2 -9.564284E+02 -4.397164E-12 -7.195360E-12 -3.157134E-12 -4.645560E-12 -2.078509E-12
         3   3 -9.564284E+02  3.997422E-13 -4.796906E-12 -1.182017E-11 -3.069725E-12 -7.576234E-13
         3   4 -9.564284E+02  1.170674E-11  9.479601E-12 -1.618175E-12  8.996520E-13 -8.190702E-12
         3   5 -9.564284E+02  1.427651E-11  7.823526E-12  1.510806E-11 -1.639684E-11  4.997231E-12
         3   6 -9.564284E+02  7.480890E-12  2.192871E-11  2.851742E-12  3.798239E-12 -1.633075E-12
         3   7 -9.564284E+02 -4.568482E-13 -1.085015E-12  1.071675E-11  1.198791E-12  3.347638E-12
         3   8 -9.564284E+02 -1.107857E-11  3.883210E-12 -1.818128E-12  5.237806E-12 -7.759033E-12

 strains (elem, integ.pnt.,exx,eyy,ezz,exy,exz,eyz) forset EALL and time  0.9037813E+00

         1   1 -4.588057E-03  1.376417E-03  1.376417E-03  1.435977E-17  9.008318E-18 -6.025599E-18
         1   2 -4.588057E-03  1.376417E-03  1.376417E-03  7.525455E-17  4.750936E-17 -3.050120E-18
         1   3 -4.588057E-03  1.376417E-03  1.376417E-03 -7.544096E-18  4.294195E-18 -1.495543E-17
         1   4 -4.588057E-03  1.376417E-03  1.376417E-03  5.335068E-17  2.620229E-17 -7.342002E-18
         1   5 -4.588057E-03  1.376417E-03  1.376417E-03  8.289856E-18 -4.752847E-18 -1.359831E-17
         1   6 -4.588057E-03  1.376417E-03  1.376417E-03  4.638619E-17  3.374820E-17 -7.135042E-18
         1   7 -4.588057E-03  1.376417E-03  1.376417E-03 -7.031993E-18 -6.073853E-18 -2.247385E-17
         1   8 -4.588057E-03  1.376417E-03  1.376417E-03  3.106434E-17  1.588820E-17 -1.142692E-17
         2   1 -4.588057E-03  1.376417E-03  1.376417E-03 -7.049753E-17  7.096642E-17 -1.476543E-17
         2   2 -4.588057E-03  1.376417E-03  1.376417E-03  3.008543E-17  1.829891E-16  4.142599E-18
         2   3 -4.588057E-03  1.376417E-03  1.376417E-03 -3.546356E-17  4.115593E-17 -4.695624E-17
         2   4 -4.588057E-03  1.376417E-03  1.376417E-03  6.555109E-17  5.302731E-17  6.853440E-19
         2   5 -4.588057E-03  1.376417E-03  1.376417E-03 -1.123712E-16 -2.122932E-17 -2.285385E-17
         2   6 -4.588057E-03  1.376417E-03  1.376417E-03 -1.456111E-16  8.982204E-17  1.906749E-17
         2   7 -4.588057E-03  1.376417E-03  1.376417E-03 -3.726840E-17 -2.894755E-17 -5.493609E-17
         2   8 -4.588057E-03  1.376417E-03  1.376417E-03 -7.223501E-17 -1.427021E-17  1.551185E-17
         3   1 -4.588057E-03  1.376417E-03  1.376417E-03 -8.406056E-17 -1.479367E-16  5.496323E-18
         3   2 -4.588057E-03  1.376417E-03  1.376417E-03 -1.952342E-17 -2.857539E-17 -1.280779E-17
         3   3 -4.588057E-03  1.376417E-03  1.376417E-03 -7.309505E-17 -1.890488E-17 -4.668482E-18
         3   4 -4.588057E-03  1.376417E-03  1.376417E-03 -9.852977E-18  5.701248E-18 -5.047117E-17
         3   5 -4.588057E-03  1.376417E-03  1.376417E-03  9.353496E-17 -1.008147E-16  3.079298E-17
         3   6 -4.588057E-03  1.376417E-03  1.376417E-03  1.755813E-17  2.437443E-17 -1.006302E-17
         3   7 -4.588057E-03  1.376417E-03  1.376417E-03  6.598549E-17  7.894965E-18  2.062818E-17
         3   8 -4.588057E-03  1.376417E-03  1.376417E-03 -1.171809E-17  3.293278E-17 -4.781123E-17

 displacements (vx,vy,vz) for set NALL and time  0.9127813E+00

         1  0.000000E+00  0.000000E+00  0.000000E+00
         2 -2.389756E+00  0.000000E+00  0.000000E+00
         3 -1.249684E+01  0.000000E+00  0.000000E+00
         4 -1.488660E+01  0.000000E+00  0.000000E+00
         5 -2.499368E+01  0.000000E+00  0.000000E+00
         6 -2.738344E+01  0.000000E+00  0.000000E+00
         7  0.000000E+00  7.147029E-01  0.000000E+00
         8 -2.389756E+00  7.147029E-01  0.000000E+00
         9 -1.249684E+01  7.147029E-01  0.000000E+00
        10 -1.488660E+01  7.147029E-01  0.000000E+00
        11 -2.499368E+01  7.147029E-01  0.000000E+00
        12 -2.738344E+01  7.147029E-01  0.000000E+00
        13  0.000000E+00  0.000000E+00  1.000584E+00
        14 -2.389756E+00  0.000000E+00  1.000584E+00
        15 -1.249684E+01  0.000000E+00  1.000584E+00
        16 -1.488660E+01  0.000000E+00  1.000584E+00
        17 -2.499368E+01  0.000000E+00  1.000584E+00
        18 -2.738344E+01  0.000000E+00  1.000584E+00
        19  0.000000E+00  7.147029E-01  1.000584E+00
        20 -2.389756E+00  7.147029E-01  1.000584E+00
        21 -1.249684E+01  7.147029E-01  1.000584E+00
        22 -1.488660E+01  7.147029E-01  1.000584E+00
        23 -2.499368E+01  7.147029E-01  1.000584E+00
        24 -2.738344E+01  7.147029E-01  1.000584E+00

 stresses (elem, integ.pnt.,sxx,syy,szz,sxy,sxz,syz) for set EALL and time  0.9127813E+00

         1   1 -9.936707E+02 -2.284656E-12 -4.797778E-12  2.365720E-12  1.362211E-12 -9.560641E-13
         1   2 -9.936707E+02 -1.742050E-11 -1.530720E-11  1.252180E-11  7.132117E-12 -5.788153E-13
         1   3 -9.936707E+02  1.159463E-11  7.082435E-12 -1.293789E-12  7.607521E-13 -2.224942E-12
         1   4 -9.936707E+02 -3.084286E-12 -2.341773E-12  8.862290E-12  4.433301E-12 -1.261167E-12
         1   5 -9.936707E+02  3.655450E-12  4.626429E-12  1.599127E-12 -6.486269E-13 -2.299841E-12
         1   6 -9.936707E+02 -8.738810E-12 -4.854895E-12  8.839793E-12  5.121279E-12 -1.483111E-12
         1   7 -9.936707E+02  1.313677E-11  1.216579E-11 -1.246317E-12 -8.046746E-13 -3.577530E-12
         1   8 -9.936707E+02  1.313677E-12  3.883916E-12  5.994349E-12  2.867875E-12 -2.165463E-12
         2   1 -9.936707E+02 -1.702069E-11 -5.483175E-12 -1.178509E-11  1.051910E-11 -1.819606E-12
         2   2 -9.936707E+02 -1.239426E-11 -3.181384E-11  2.731056E-12  2.526152E-11 -1.448415E-13
         2   3 -9.936707E+02  3.998149E-12  1.410775E-11 -6.323391E-12  8.372729E-12 -5.754008E-12
         2   4 -9.936707E+02  1.068077E-11 -7.482249E-12  8.279779E-12  1.321144E-11 -1.463835E-12
         2   5 -9.936707E+02 -5.997223E-12  1.650664E-11 -1.520908E-11 -3.160001E-12 -2.850569E-12
         2   6 -9.936707E+02  1.130905E-11 -4.397963E-12 -1.332929E-11  1.142576E-11  7.726716E-13
         2   7 -9.936707E+02 -4.854895E-12  1.622106E-11 -6.160309E-12 -3.241701E-12 -6.784971E-12
         2   8 -9.936707E+02  1.456468E-11  1.713492E-13 -4.280521E-12  1.457770E-12 -5.264961E-13
         3   1 -9.936707E+02 -1.730627E-11 -2.678760E-11 -1.075440E-11 -1.981494E-11  5.507281E-14
         3   2 -9.936707E+02 -4.455080E-12 -6.511270E-12 -2.295351E-12 -3.767115E-12 -1.598764E-12
         3   3 -9.936707E+02 -1.884841E-12 -7.824948E-12 -9.317622E-12 -7.352213E-12 -2.317464E-12
         3   4 -9.936707E+02  8.795927E-12  7.253784E-12 -1.067440E-12 -3.900344E-13 -6.366417E-12
         3   5 -9.936707E+02  5.882990E-12  2.970053E-12  5.724114E-12 -1.241852E-11  2.586219E-12
         3   6 -9.936707E+02  7.025318E-12  1.816302E-11  1.129076E-12  3.664118E-12 -1.197283E-12
         3   7 -9.936707E+02  7.425133E-13  1.427910E-12  3.871116E-12 -2.061766E-12  2.114796E-13
         3   8 -9.936707E+02 -4.569313E-13  1.125193E-11 -1.141653E-12  3.856086E-12 -5.952270E-12

 strains (elem, integ.pnt.,exx,eyy,ezz,exy,exz,eyz) forset EALL and time  0.9127813E+00

         1   1 -4.768091E-03  1.430427E-03  1.430427E-03  1.456177E-17  8.387748E-18 -5.890204E-18
         1   2 -4.768091E-03  1.430427E-03  1.430427E-03  7.752260E-17  4.415727E-17 -3.566017E-18
         1   3 -4.768091E-03  1.430427E-03  1.430427E-03 -8.408672E-18  4.671187E-18 -1.370762E-17
         1   4 -4.768091E-03  1.430427E-03  1.430427E-03  5.455216E-17  2.743851E-17 -7.769912E-18
         1   5 -4.768091E-03  1.430427E-03  1.430427E-03  9.832308E-18 -4.234118E-18 -1.416906E-17
         1   6 -4.768091E-03  1.430427E-03  1.430427E-03  5.471955E-17  3.153540E-17 -9.137281E-18
         1   7 -4.768091E-03  1.430427E-03  1.430427E-03 -8.028311E-18 -5.154868E-18 -2.204076E-17
         1   8 -4.768091E-03  1.430427E-03  1.430427E-03  3.685893E-17  1.761246E-17 -1.334118E-17
         2   1 -4.768091E-03  1.430427E-03  1.430427E-03 -7.290439E-17  6.482287E-17 -1.121039E-17
         2   2 -4.768091E-03  1.430427E-03  1.430427E-03  1.708589E-17  1.562159E-16 -8.923524E-19
         2   3 -4.768091E-03  1.430427E-03  1.430427E-03 -3.862178E-17  5.157174E-17 -3.544980E-17
         2   4 -4.768091E-03  1.430427E-03  1.430427E-03  5.190802E-17  8.156850E-17 -9.018527E-18
         2   5 -4.768091E-03  1.430427E-03  1.430427E-03 -9.402917E-17 -2.103975E-17 -1.756204E-17
         2   6 -4.768091E-03  1.430427E-03  1.430427E-03 -8.237575E-17  6.938214E-17  4.760344E-18
         2   7 -4.768091E-03  1.430427E-03  1.430427E-03 -3.723077E-17 -2.134189E-17 -4.180145E-17
         2   8 -4.768091E-03  1.430427E-03  1.430427E-03 -2.557736E-17  7.791654E-18 -3.243684E-18
         3   1 -4.768091E-03  1.430427E-03  1.430427E-03 -6.662932E-17 -1.226372E-16  3.392975E-19
         3   2 -4.768091E-03  1.430427E-03  1.430427E-03 -1.418894E-17 -2.315157E-17 -9.849806E-18
         3   3 -4.768091E-03  1.430427E-03  1.430427E-03 -5.761080E-17 -4.543615E-17 -1.427764E-17
         3   4 -4.768091E-03  1.430427E-03  1.430427E-03 -6.465239E-18 -2.275344E-18 -3.922279E-17
         3   5 -4.768091E-03  1.430427E-03  1.430427E-03  3.543280E-17 -7.623211E-17  1.593341E-17
         3   6 -4.768091E-03  1.430427E-03  1.430427E-03  6.946662E-18  2.346936E-17 -7.376327E-18
         3   7 -4.768091E-03  1.430427E-03  1.430427E-03  2.380168E-17 -1.225006E-17  1.302902E-18
         3   8 -4.768091E-03  1.430427E-03  1.430427E-03 -7.274104E-18  2.443663E-17 -3.667127E-17

 displacements (vx,vy,vz) for set NALL and time  0.9217813E+00

         1  0.000000E+00  0.000000E+00  0.000000E+00
         2 -2.480792E+00  0.000000E+00  0.000000E+00
         3 -1.258632E+01  0.000000E+00  0.000000E+00
         4 -1.506711E+01  0.000000E+00  0.000000E+00
         5 -2.517265E+01  0.000000E+00  0.000000E+00
         6 -2.765344E+01  0.000000E+00  0.000000E+00
         7  0.000000E+00  7.418409E-01  0.000000E+00
         8 -2.480792E+00  7.418409E-01  0.000000E+00
         9 -1.258632E+01  7.418409E-01  0.000000E+00
        10 -1.506711E+01  7.418409E-01  0.000000E+00
        11 -2.517265E+01  7.418409E-01  0.000000E+00
        12 -2.765344E+01  7.418409E-01  0.000000E+00
        13  0.000000E+00  0.000000E+00  1.038577E+00
        14 -2.480792E+00  0.000000E+00  1.038577E+00
        15 -1.258632E+01  0.000000E+00  1.038577E+00
        16 -1.506711E+01  0.000000E+00  1.038577E+00
        17 -2.517265E+01  0.000000E+00  1.038577E+00
        18 -2.765344E+01  0.000000E+00  1.038577E+00
        19  0.000000E+00  7.418409E-01  1.038577E+00
        20 -2.480792E+00  7.418409E-01  1.038577E+00
        21 -1.258632E+01  7.418409E-01  1.038577E+00
        22 -1.506711E+01  7.418409E-01  1.038577E+00
        23 -2.517265E+01  7.418409E-01  1.038577E+00
        24 -2.765344E+01  7.418409E-01  1.038577E+00

 stresses (elem, integ.pnt.,sxx,syy,szz,sxy,sxz,syz) for set EALL and time  0.9217813E+00

         1   1 -1.031129E+03 -1.713806E-12 -3.484738E-12  1.268768E-12  8.376098E-13 -5.244175E-13
         1   2 -1.031129E+03 -1.136824E-11 -1.148250E-11  6.832840E-12  5.053079E-12 -7.734057E-13
         1   3 -1.031129E+03  6.226828E-12  3.770373E-12 -8.383687E-13  1.258103E-12 -1.511556E-12
         1   4 -1.031129E+03 -3.770373E-12 -5.027164E-12  4.725703E-12  6.852627E-12 -2.135129E-12
         1   5 -1.031129E+03  2.399328E-12  3.370485E-12  1.789851E-12 -1.066378E-12 -9.606977E-13
         1   6 -1.031129E+03 -9.140297E-12 -5.484178E-12  9.342023E-12  3.149092E-12 -1.518167E-12
         1   7 -1.031129E+03  1.331056E-11  1.365332E-11 -8.467721E-13 -9.549877E-13 -1.939023E-12
         1   8 -1.031129E+03  1.428171E-12  3.941753E-12  6.705401E-12  4.683040E-12 -2.879890E-12
         2   1 -1.031129E+03 -1.182526E-11 -1.942313E-12 -7.889826E-12  1.079096E-11 -1.789189E-12
         2   2 -1.031129E+03 -6.969477E-12 -2.667824E-11 -2.332451E-13  2.282397E-11  2.115298E-13
         2   3 -1.031129E+03 -8.569029E-13  8.112014E-12 -2.639272E-12  4.788501E-12 -6.156398E-12
         2   4 -1.031129E+03  6.455335E-12 -1.051134E-11  5.086913E-12  1.213186E-11 -1.038920E-12
         2   5 -1.031129E+03 -7.769253E-12  1.428171E-11 -1.572726E-11 -2.026916E-12 -2.322421E-12
         2   6 -1.031129E+03  1.233940E-11 -3.827500E-12 -1.489199E-11  9.840784E-12  2.031016E-12
         2   7 -1.031129E+03 -6.569589E-12  1.456735E-11 -6.218126E-12 -5.579879E-12 -6.698443E-12
         2   8 -1.031129E+03  1.593839E-11  2.456455E-12 -5.313257E-12  1.937492E-12  7.888298E-13
         3   1 -1.031129E+03 -1.102548E-11 -2.165108E-11 -5.975063E-12 -1.801382E-11  9.034084E-14
         3   2 -1.031129E+03 -2.513582E-12 -4.513022E-12 -1.450720E-12 -3.100891E-12 -1.231169E-12
         3   3 -1.031129E+03 -2.399328E-12 -8.911790E-12 -5.572006E-12 -8.207781E-12 -2.538357E-12
         3   4 -1.031129E+03  4.570149E-12  4.341641E-12 -8.388470E-13 -8.296210E-13 -5.911816E-12
         3   5 -1.031129E+03  7.026604E-12  3.827500E-12  6.922680E-12 -1.151628E-11  2.981248E-12
         3   6 -1.031129E+03  5.655559E-12  1.673817E-11  9.366261E-13  3.153037E-12  9.309513E-14
         3   7 -1.031129E+03  7.426492E-13  1.599552E-12  4.519463E-12 -3.524164E-12  3.525496E-13
         3   8 -1.031129E+03 -2.285074E-12  1.062560E-11 -1.327380E-12  3.366759E-12 -4.576535E-12

 strains (elem, integ.pnt.,exx,eyy,ezz,exy,exz,eyz) forset EALL and time  0.9217813E+00

         1   1 -4.949275E-03  1.484782E-03  1.484782E-03  7.803767E-18  5.136650E-18 -3.230287E-18
         1   2 -4.949275E-03  1.484782E-03  1.484782E-03  4.229913E-17  3.127113E-17 -4.763995E-18
         1   3 -4.949275E-03  1.484782E-03  1.484782E-03 -5.429552E-18  7.735030E-18 -9.310827E-18
         1   4 -4.949275E-03  1.484782E-03  1.484782E-03  2.906581E-17  4.241918E-17 -1.315188E-17
         1   5 -4.949275E-03  1.484782E-03  1.484782E-03  1.101915E-17 -6.820841E-18 -5.917669E-18
         1   6 -4.949275E-03  1.484782E-03  1.484782E-03  5.784006E-17  1.931364E-17 -9.351545E-18
         1   7 -4.949275E-03  1.484782E-03  1.484782E-03 -5.539464E-18 -6.162998E-18 -1.194392E-17
         1   8 -4.949275E-03  1.484782E-03  1.484782E-03  4.128145E-17  2.879086E-17 -1.773943E-17
         2   1 -4.949275E-03  1.484782E-03  1.484782E-03 -4.875918E-17  6.652189E-17 -1.102098E-17
         2   2 -4.949275E-03  1.484782E-03  1.484782E-03 -1.290972E-18  1.411225E-16  1.302973E-18
         2   3 -4.949275E-03  1.484782E-03  1.484782E-03 -1.578446E-17  2.937747E-17 -3.792194E-17
         2   4 -4.949275E-03  1.484782E-03  1.484782E-03  3.211527E-17  7.490379E-17 -6.399497E-18
         2   5 -4.949275E-03  1.484782E-03  1.484782E-03 -9.722295E-17 -1.397740E-17 -1.430556E-17
         2   6 -4.949275E-03  1.484782E-03  1.484782E-03 -9.204460E-17  5.959831E-17  1.251058E-17
         2   7 -4.949275E-03  1.484782E-03  1.484782E-03 -3.750336E-17 -3.574963E-17 -4.126081E-17
         2   8 -4.949275E-03  1.484782E-03  1.484782E-03 -3.189348E-17  1.085552E-17  4.859003E-18
         3   1 -4.949275E-03  1.484782E-03  1.484782E-03 -3.703126E-17 -1.114878E-16  5.564780E-19
         3   2 -4.949275E-03  1.484782E-03  1.484782E-03 -8.981872E-18 -1.903266E-17 -7.583710E-18
         3   3 -4.949275E-03  1.484782E-03  1.484782E-03 -3.449997E-17 -5.073918E-17 -1.563568E-17
         3   4 -4.949275E-03  1.484782E-03  1.484782E-03 -5.155988E-18 -4.997094E-18 -3.641538E-17
         3   5 -4.949275E-03  1.484782E-03  1.484782E-03  4.284792E-17 -7.068165E-17  1.836377E-17
         3   6 -4.949275E-03  1.484782E-03  1.484782E-03  5.736413E-18  2.026311E-17  5.734438E-19
         3   7 -4.949275E-03  1.484782E-03  1.484782E-03  2.775515E-17 -2.130253E-17  2.171622E-18
         3   8 -4.949275E-03  1.484782E-03  1.484782E-03 -8.493299E-18  2.141886E-17 -2.819036E-17

 displacements (vx,vy,vz) for set NALL and time  0.9307813E+00

         1  0.000000E+00  0.000000E+00  0.000000E+00
         2 -2.572503E+00  0.000000E+00  0.000000E+00
         3 -1.267547E+01  0.000000E+00  0.000000E+00
         4 -1.524797E+01  0.000000E+00  0.000000E+00
         5 -2.535093E+01  0.000000E+00  0.000000E+00
         6 -2.792344E+01  0.000000E+00  0.000000E+00
         7  0.000000E+00  7.691741E-01  0.000000E+00
         8 -2.572503E+00  7.691741E-01  0.000000E+00
         9 -1.267547E+01  7.691741E-01  0.000000E+00
        10 -1.524797E+01  7.691741E-01  0.000000E+00
        11 -2.535093E+01  7.691741E-01  0.000000E+00
        12 -2.792344E+01  7.691741E-01  0.000000E+00
        13  0.000000E+00  0.000000E+00  1.076844E+00
        14 -2.572503E+00  0.000000E+00  1.076844E+00
        15 -1.267547E+01  0.000000E+00  1.076844E+00
        16 -1.524797E+01  0.000000E+00  1.076844E+00
        17 -2.535093E+01  0.000000E+00  1.076844E+00
        18 -2.792344E+01  0.000000E+00  1.076844E+00
        19  0.000000E+00  7.691741E-01  1.076844E+00
        20 -2.572503E+00  7.691741E-01  1.076844E+00
        21 -1.267547E+01  7.691741E-01  1.076844E+00
        22 -1.524797E+01  7.691741E-01  1.076844E+00
        23 -2.535093E+01  7.691741E-01  1.076844E+00
        24 -2.792344E+01  7.691741E-01  1.076844E+00

 stresses (elem, integ.pnt.,sxx,syy,szz,sxy,sxz,syz) for set EALL and time  0.9307813E+00

         1   1 -1.068836E+03 -9.141983E-13 -1.942671E-12  5.653021E-13  2.096885E-13 -1.652971E-13
         1   2 -1.068836E+03 -6.285113E-12 -5.885151E-12  3.418437E-12  1.614509E-12 -7.686316E-13
         1   3 -1.068836E+03  3.085419E-12  1.714122E-12 -7.102569E-13  1.143287E-12 -3.746735E-13
         1   4 -1.068836E+03 -3.085419E-12 -4.113892E-12  2.142878E-12  5.770932E-12 -1.896509E-12
         1   5 -1.068836E+03  1.085610E-12  5.713739E-13  1.759004E-12 -5.971215E-13 -3.812854E-13
         1   6 -1.068836E+03 -8.970570E-12 -5.428052E-12  9.126702E-12  8.076994E-13 -1.735069E-12
         1   7 -1.068836E+03  1.194171E-11  1.108465E-11 -7.683523E-13 -3.947861E-13 -5.906617E-13
         1   8 -1.068836E+03  1.199885E-12  3.371106E-12  6.599346E-12  4.241558E-12 -2.862946E-12
         2   1 -1.068836E+03 -9.599082E-12  1.542710E-12 -6.759094E-12  1.240578E-11 -1.899815E-12
         2   2 -1.068836E+03 -2.228358E-12 -2.159793E-11 -2.427201E-12  2.273100E-11  1.108042E-12
         2   3 -1.068836E+03 -3.828205E-12  6.170838E-12 -9.018917E-13  2.675299E-12 -6.378265E-12
         2   4 -1.068836E+03  7.427861E-12 -7.827823E-12  3.499590E-12  6.746235E-12  1.230913E-12
         2   5 -1.068836E+03 -1.051328E-11  1.302733E-11 -2.031936E-11 -1.845597E-13 -2.627122E-12
         2   6 -1.068836E+03  1.914103E-11 -5.142365E-13 -2.400756E-11  9.984082E-12  3.999088E-12
         2   7 -1.068836E+03 -1.702694E-11  5.428052E-12 -8.149170E-12 -6.371341E-12 -7.114388E-12
         2   8 -1.068836E+03  1.651271E-11  1.085610E-12 -1.176778E-11 -2.265611E-12  4.117000E-12
         3   1 -1.068836E+03 -5.885151E-12 -1.674126E-11 -2.960828E-12 -1.593616E-11  7.625707E-13
         3   2 -1.068836E+03 -2.399770E-12 -3.028282E-12 -1.255906E-12 -2.453355E-12 -1.109695E-12
         3   3 -1.068836E+03  1.257023E-12 -4.342442E-12 -3.819481E-12 -3.170554E-12 -8.507292E-13
         3   4 -1.068836E+03  2.114083E-12  3.256831E-12 -1.731822E-12 -4.565968E-13 -5.397502E-12
         3   5 -1.068836E+03  1.497000E-11  8.627746E-12  1.504661E-11 -1.068365E-11  4.471838E-12
         3   6 -1.068836E+03  5.313777E-12  1.668412E-11  2.381479E-12  3.181889E-12  1.509714E-13
         3   7 -1.068836E+03  6.856487E-13 -4.570991E-13  1.050601E-11  3.331827E-13  2.865150E-12
         3   8 -1.068836E+03 -1.165603E-11  1.542710E-12 -1.880767E-12  3.464672E-12 -4.132428E-12

 strains (elem, integ.pnt.,exx,eyy,ezz,exy,exz,eyz) forset EALL and time  0.9307813E+00

         1   1 -5.131771E-03  1.539531E-03  1.539531E-03  3.465603E-18  1.275063E-18 -1.018003E-18
         1   2 -5.131771E-03  1.539531E-03  1.539531E-03  2.115504E-17  9.984951E-18 -4.733715E-18
         1   3 -5.131771E-03  1.539531E-03  1.539531E-03 -4.549475E-18  7.041437E-18 -2.307474E-18
         1   4 -5.131771E-03  1.539531E-03  1.539531E-03  1.313996E-17  3.573283E-17 -1.167989E-17
         1   5 -5.131771E-03  1.539531E-03  1.539531E-03  1.082819E-17 -3.794593E-18 -2.348194E-18
         1   6 -5.131771E-03  1.539531E-03  1.539531E-03  5.650791E-17  4.915295E-18 -1.068564E-17
         1   7 -5.131771E-03  1.539531E-03  1.539531E-03 -5.052661E-18 -2.622444E-18 -3.637665E-18
         1   8 -5.131771E-03  1.539531E-03  1.539531E-03  4.062706E-17  2.612288E-17 -1.763181E-17
         2   1 -5.131771E-03  1.539531E-03  1.539531E-03 -4.172682E-17  7.653062E-17 -1.170025E-17
         2   2 -5.131771E-03  1.539531E-03  1.539531E-03 -1.486909E-17  1.405470E-16  6.824015E-18
         2   3 -5.131771E-03  1.539531E-03  1.539531E-03 -4.922616E-18  1.631025E-17 -3.928135E-17
         2   4 -5.131771E-03  1.539531E-03  1.539531E-03  2.236657E-17  4.155005E-17  7.580730E-18
         2   5 -5.131771E-03  1.539531E-03  1.539531E-03 -1.256077E-16 -2.581795E-18 -1.617946E-17
         2   6 -5.131771E-03  1.539531E-03  1.539531E-03 -1.484746E-16  6.046377E-17  2.462889E-17
         2   7 -5.131771E-03  1.539531E-03  1.539531E-03 -4.913535E-17 -4.053505E-17 -4.381486E-17
         2   8 -5.131771E-03  1.539531E-03  1.539531E-03 -7.157073E-17 -1.507952E-17  2.535507E-17
         3   1 -5.131771E-03  1.539531E-03  1.539531E-03 -1.838358E-17 -9.862387E-17  4.696388E-18
         3   2 -5.131771E-03  1.539531E-03  1.539531E-03 -7.813069E-18 -1.503052E-17 -6.834195E-18
         3   3 -5.131771E-03  1.539531E-03  1.539531E-03 -2.377900E-17 -1.955019E-17 -5.239323E-18
         3   4 -5.131771E-03  1.539531E-03  1.539531E-03 -1.083551E-17 -2.723654E-18 -3.324120E-17
         3   5 -5.131771E-03  1.539531E-03  1.539531E-03  9.315069E-17 -6.556698E-17  2.754038E-17
         3   6 -5.131771E-03  1.539531E-03  1.539531E-03  1.462687E-17  2.039935E-17  9.297762E-19
         3   7 -5.131771E-03  1.539531E-03  1.539531E-03  6.461946E-17  2.465827E-18  1.764539E-17
         3   8 -5.131771E-03  1.539531E-03  1.539531E-03 -1.217857E-17  2.188106E-17 -2.545008E-17

 displacements (vx,vy,vz) for set NALL and time  0.9397813E+00

         1  0.000000E+00  0.000000E+00  0.000000E+00
         2 -2.664994E+00  0.000000E+00  0.000000E+00
         3 -1.276422E+01  0.000000E+00  0.000000E+00
         4 -1.542922E+01  0.000000E+00  0.000000E+00
         5 -2.552844E+01  0.000000E+00  0.000000E+00
         6 -2.819344E+01  0.000000E+00  0.000000E+00
         7  0.000000E+00  7.967329E-01  0.000000E+00
         8 -2.664994E+00  7.967329E-01  0.000000E+00
         9 -1.276422E+01  7.967329E-01  0.000000E+00
        10 -1.542922E+01  7.967329E-01  0.000000E+00
        11 -2.552844E+01  7.967329E-01  0.000000E+00
        12 -2.819344E+01  7.967329E-01  0.000000E+00
        13  0.000000E+00  0.000000E+00  1.115426E+00
        14 -2.664994E+00  0.000000E+00  1.115426E+00
        15 -1.276422E+01  0.000000E+00  1.115426E+00
        16 -1.542922E+01  0.000000E+00  1.115426E+00
        17 -2.552844E+01  0.000000E+00  1.115426E+00
        18 -2.819344E+01  0.000000E+00  1.115426E+00
        19  0.000000E+00  7.967329E-01  1.115426E+00
        20 -2.664994E+00  7.967329E-01  1.115426E+00
        21 -1.276422E+01  7.967329E-01  1.115426E+00
        22 -1.542922E+01  7.967329E-01  1.115426E+00
        23 -2.552844E+01  7.967329E-01  1.115426E+00
        24 -2.819344E+01  7.967329E-01  1.115426E+00

 stresses (elem, integ.pnt.,sxx,syy,szz,sxy,sxz,syz) for set EALL and time  0.9397813E+00

         1   1 -1.106835E+03 -4.000361E-13 -1.371552E-12  4.385338E-13  2.803339E-13 -1.366786E-13
         1   2 -1.106835E+03 -5.486210E-12 -6.171986E-12  2.640919E-12  2.280525E-12 -8.950241E-13
         1   3 -1.106835E+03  2.914549E-12  1.943033E-12 -5.881148E-13  1.418619E-12 -5.290783E-13
         1   4 -1.106835E+03 -3.028845E-12 -4.971877E-12  1.614270E-12  7.393104E-12 -2.445885E-12
         1   5 -1.106835E+03  1.885885E-12  2.000181E-12  1.898128E-12 -9.492695E-13 -1.102246E-13
         1   6 -1.106835E+03 -8.915091E-12 -5.257618E-12  9.690179E-12  1.050922E-12 -1.775719E-12
         1   7 -1.106835E+03  1.371552E-11  1.382982E-11 -7.230106E-13 -7.188827E-13 -5.026244E-13
         1   8 -1.106835E+03  2.057329E-12  4.400397E-12  7.069040E-12  5.255603E-12 -3.326580E-12
         2   1 -1.106835E+03 -4.286101E-12  3.657473E-12  7.937121E-13  1.723341E-11 -2.707117E-12
         2   2 -1.106835E+03 -1.668722E-11 -3.400307E-11  1.086424E-11  3.005202E-11  1.118229E-12
         2   3 -1.106835E+03  8.857943E-12  1.417271E-11  2.018997E-12  4.202206E-12 -8.394709E-12
         2   4 -1.106835E+03  1.371552E-12 -1.171534E-11  1.182863E-11  1.028975E-11  1.330411E-12
         2   5 -1.106835E+03 -4.343249E-12  1.937318E-11 -1.691226E-11  1.790494E-12 -4.444258E-12
         2   6 -1.106835E+03  1.194394E-11 -5.829098E-12 -1.663397E-11  1.473086E-11  3.982967E-12
         2   7 -1.106835E+03 -6.286282E-12  1.491563E-11 -7.636796E-12 -6.487698E-12 -1.013185E-11
         2   8 -1.106835E+03  1.491563E-11  1.142960E-12 -7.288937E-12 -3.653726E-13  4.190741E-12
         3   1 -1.106835E+03 -1.851596E-11 -2.754534E-11 -1.193339E-11 -2.113310E-11  3.835817E-13
         3   2 -1.106835E+03 -3.428881E-12 -6.343430E-12 -2.749900E-12 -3.479235E-12 -1.816502E-12
         3   3 -1.106835E+03  5.714802E-14 -4.743285E-12 -9.932989E-12 -5.611838E-12 -1.587235E-12
         3   4 -1.106835E+03  1.228682E-11  9.772311E-12  1.897196E-13 -1.089666E-12 -7.095160E-12
         3   5 -1.106835E+03  9.543719E-12  5.886246E-12  8.533366E-12 -1.405128E-11  3.405941E-12
         3   6 -1.106835E+03  8.172166E-12  2.005895E-11  1.437034E-12  3.080800E-12 -1.502362E-12
         3   7 -1.106835E+03  8.000722E-13  1.428700E-12  5.989955E-12 -9.117283E-13  1.437329E-12
         3   8 -1.106835E+03 -3.314585E-12  8.972239E-12 -2.715147E-13  3.749588E-12 -6.774406E-12

 strains (elem, integ.pnt.,exx,eyy,ezz,exy,exz,eyz) forset EALL and time  0.9397813E+00

         1   1 -5.315785E-03  1.594735E-03  1.594735E-03  2.686425E-18  1.699174E-18 -8.415956E-19
         1   2 -5.315785E-03  1.594735E-03  1.594735E-03  1.634196E-17  1.410104E-17 -5.511094E-18
         1   3 -5.315785E-03  1.594735E-03  1.594735E-03 -3.768070E-18  8.728223E-18 -3.257789E-18
         1   4 -5.315785E-03  1.594735E-03  1.594735E-03  9.887466E-18  4.577207E-17 -1.506049E-17
         1   5 -5.315785E-03  1.594735E-03  1.594735E-03  1.168638E-17 -6.031289E-18 -6.787061E-19
         1   6 -5.315785E-03  1.594735E-03  1.594735E-03  5.999975E-17  6.370580E-18 -1.093396E-17
         1   7 -5.315785E-03  1.594735E-03  1.594735E-03 -4.792604E-18 -4.710158E-18 -3.094900E-18
         1   8 -5.315785E-03  1.594735E-03  1.594735E-03  4.352076E-17  3.233369E-17 -2.048335E-17
         2   1 -5.315785E-03  1.594735E-03  1.594735E-03  4.959903E-18  1.063631E-16 -1.666902E-17
         2   2 -5.315785E-03  1.594735E-03  1.594735E-03  6.740062E-17  1.858429E-16  6.885474E-18
         2   3 -5.315785E-03  1.594735E-03  1.594735E-03  1.266322E-17  2.570801E-17 -5.169026E-17
         2   4 -5.315785E-03  1.594735E-03  1.594735E-03  7.348630E-17  6.345283E-17  8.191983E-18
         2   5 -5.315785E-03  1.594735E-03  1.594735E-03 -1.045670E-16  9.274191E-18 -2.736543E-17
         2   6 -5.315785E-03  1.594735E-03  1.594735E-03 -1.028416E-16  8.950889E-17  2.452505E-17
         2   7 -5.315785E-03  1.594735E-03  1.594735E-03 -4.625260E-17 -4.152305E-17 -6.238667E-17
         2   8 -5.315785E-03  1.594735E-03  1.594735E-03 -4.409576E-17 -3.562550E-18  2.580441E-17
         3   1 -5.315785E-03  1.594735E-03  1.594735E-03 -7.392796E-17 -1.308080E-16  2.361897E-18
         3   2 -5.315785E-03  1.594735E-03  1.594735E-03 -1.698720E-17 -2.134803E-17 -1.118508E-17
         3   3 -5.315785E-03  1.594735E-03  1.594735E-03 -6.135153E-17 -3.465467E-17 -9.773368E-18
         3   4 -5.315785E-03  1.594735E-03  1.594735E-03  1.412710E-18 -6.615665E-18 -4.368831E-17
         3   5 -5.315785E-03  1.594735E-03  1.594735E-03  5.282936E-17 -8.628488E-17  2.097202E-17
         3   6 -5.315785E-03  1.594735E-03  1.594735E-03  8.829685E-18  1.993982E-17 -9.250765E-18
         3   7 -5.315785E-03  1.594735E-03  1.594735E-03  3.683904E-17 -5.129392E-18  8.850328E-18
         3   8 -5.315785E-03  1.594735E-03  1.594735E-03 -1.984199E-18  2.377235E-17 -4.171328E-17

 displacements (vx,vy,vz) for set NALL and time  0.9487813E+00

         1  0.000000E+00  0.000000E+00  0.000000E+00
         2 -2.758398E+00  0.000000E+00  0.000000E+00
         3 -1.285252E+01  0.000000E+00  0.000000E+00
         4 -1.561092E+01  0.000000E+00  0.000000E+00
         5 -2.570504E+01  0.000000E+00  0.000000E+00
         6 -2.846344E+01  0.000000E+00  0.000000E+00
         7  0.000000E+00  8.245568E-01  0.000000E+00
         8 -2.758398E+00  8.245568E-01  0.000000E+00
         9 -1.285252E+01  8.245568E-01  0.000000E+00
        10 -1.561092E+01  8.245568E-01  0.000000E+00
        11 -2.570504E+01  8.245568E-01  0.000000E+00
        12 -2.846344E+01  8.245568E-01  0.000000E+00
        13  0.000000E+00  0.000000E+00  1.154380E+00
        14 -2.758398E+00  0.000000E+00  1.154380E+00
        15 -1.285252E+01  0.000000E+00  1.154380E+00
        16 -1.561092E+01  0.000000E+00  1.154380E+00
        17 -2.570504E+01  0.000000E+00  1.154380E+00
        18 -2.846344E+01  0.000000E+00  1.154380E+00
        19  0.000000E+00  8.245568E-01  1.154380E+00
        20 -2.758398E+00  8.245568E-01  1.154380E+00
        21 -1.285252E+01  8.245568E-01  1.154380E+00
        22 -1.561092E+01  8.245568E-01  1.154380E+00
        23 -2.570504E+01  8.245568E-01  1.154380E+00
        24 -2.846344E+01  8.245568E-01  1.154380E+00

 stresses (elem, integ.pnt.,sxx,syy,szz,sxy,sxz,syz) for set EALL and time  0.9487813E+00

         1   1 -1.145178E+03  3.658160E-12  2.686461E-12  5.851973E-13  4.730724E-13 -2.469633E-13
         1   2 -1.145178E+03 -1.371810E-12 -2.286350E-12  3.176119E-12  3.111813E-12 -6.471761E-13
         1   3 -1.145178E+03  7.659273E-12  6.630415E-12 -4.333985E-13  1.039482E-12 -9.128822E-13
         1   4 -1.145178E+03  2.172033E-12  4.572700E-13  2.157523E-12  5.690969E-12 -1.894120E-12
         1   5 -1.145178E+03  6.173145E-12  7.030526E-12  1.322017E-12 -8.908102E-13 -2.778337E-13
         1   6 -1.145178E+03 -1.886239E-12  7.430638E-13  6.773387E-12  1.747931E-12 -1.147718E-12
         1   7 -1.145178E+03  1.434685E-11  1.508991E-11 -5.123184E-13 -7.991081E-13 -9.437526E-13
         1   8 -1.145178E+03  5.715875E-12  7.544955E-12  4.939051E-12  3.843685E-12 -2.394662E-12
         2   1 -1.145178E+03 -1.829080E-12  6.115986E-12 -1.732976E-12  1.423010E-11 -2.213850E-12
         2   2 -1.145178E+03 -8.688130E-12 -2.572144E-11  7.309168E-12  2.697604E-11  9.817893E-13
         2   3 -1.145178E+03  1.074585E-11  1.703331E-11  5.728922E-13  5.212782E-12 -7.131065E-12
         2   4 -1.145178E+03  8.116543E-12 -5.087129E-12  9.632425E-12  8.933972E-12  9.591878E-13
         2   5 -1.145178E+03  1.486128E-12  2.309214E-11 -1.479543E-11  3.538893E-13 -3.347235E-12
         2   6 -1.145178E+03  1.846228E-11  1.600445E-12 -1.729941E-11  1.294334E-11  3.689565E-12
         2   7 -1.145178E+03 -4.972811E-12  1.508991E-11 -5.809344E-12 -4.873907E-12 -8.264450E-12
         2   8 -1.145178E+03  1.606161E-11  2.972255E-12 -8.243767E-12 -1.117940E-12  3.662554E-12
         3   1 -1.145178E+03 -1.034573E-11 -1.966261E-11 -1.040817E-11 -1.990308E-11  5.270020E-13
         3   2 -1.145178E+03  1.600445E-12 -4.001113E-13 -2.513687E-12 -3.679384E-12 -1.681335E-12
         3   3 -1.145178E+03  4.458383E-12 -2.857938E-13 -9.210460E-12 -3.831656E-12 -1.300967E-12
         3   4 -1.145178E+03  1.326083E-11  1.177470E-11 -1.107309E-12 -2.843534E-13 -6.638241E-12
         3   5 -1.145178E+03  1.537570E-11  1.086016E-11  1.055442E-11 -1.335217E-11  3.794856E-12
         3   6 -1.145178E+03  1.171754E-11  2.354941E-11  1.929604E-12  2.906298E-12 -1.299314E-12
         3   7 -1.145178E+03  5.773034E-12  6.001669E-12  8.011909E-12 -4.216141E-13  1.975706E-12
         3   8 -1.145178E+03 -9.145400E-13  1.148891E-11 -1.447564E-12  3.543018E-12 -6.282129E-12

 strains (elem, integ.pnt.,exx,eyy,ezz,exy,exz,eyz) forset EALL and time  0.9487813E+00

         1   1 -5.501578E-03  1.650473E-03  1.650473E-03  3.595336E-18  2.888860E-18 -1.520386E-18
         1   2 -5.501578E-03  1.650473E-03  1.650473E-03  1.966083E-17  1.925086E-17 -3.984226E-18
         1   3 -5.501578E-03  1.650473E-03  1.650473E-03 -2.812006E-18  6.385114E-18 -5.619999E-18
         1   4 -5.501578E-03  1.650473E-03  1.650473E-03  1.325348E-17  3.522752E-17 -1.166082E-17
         1   5 -5.501578E-03  1.650473E-03  1.650473E-03  8.137417E-18 -5.690463E-18 -1.710434E-18
         1   6 -5.501578E-03  1.650473E-03  1.650473E-03  4.193964E-17  1.067154E-17 -7.065723E-18
         1   7 -5.501578E-03  1.650473E-03  1.650473E-03 -3.401228E-18 -5.181070E-18 -5.810047E-18
         1   8 -5.501578E-03  1.650473E-03  1.650473E-03  3.040100E-17  2.360743E-17 -1.474232E-17
         2   1 -5.501578E-03  1.650473E-03  1.650473E-03 -1.067025E-17  8.778155E-17 -1.362918E-17
         2   2 -5.501578E-03  1.650473E-03  1.650473E-03  4.539723E-17  1.668151E-16  6.044214E-18
         2   3 -5.501578E-03  1.650473E-03  1.650473E-03  3.834502E-18  3.199187E-17 -4.390115E-17
         2   4 -5.501578E-03  1.650473E-03  1.650473E-03  6.000981E-17  5.506579E-17  5.905071E-18
         2   5 -5.501578E-03  1.650473E-03  1.650473E-03 -9.144686E-17  4.950960E-19 -2.060666E-17
         2   6 -5.501578E-03  1.650473E-03  1.650473E-03 -1.069732E-16  7.855829E-17  2.271416E-17
         2   7 -5.501578E-03  1.650473E-03  1.650473E-03 -3.492107E-17 -3.145711E-17 -5.087864E-17
         2   8 -5.501578E-03  1.650473E-03  1.650473E-03 -5.001616E-17 -8.167536E-18  2.254787E-17
         3   1 -5.501578E-03  1.650473E-03  1.650473E-03 -6.449813E-17 -1.231891E-16  3.244396E-18
         3   2 -5.501578E-03  1.650473E-03  1.650473E-03 -1.554690E-17 -2.259107E-17 -1.035084E-17
         3   3 -5.501578E-03  1.650473E-03  1.650473E-03 -5.696407E-17 -2.362845E-17 -8.009177E-18
         3   4 -5.501578E-03  1.650473E-03  1.650473E-03 -6.718983E-18 -1.632742E-18 -4.086717E-17
         3   5 -5.501578E-03  1.650473E-03  1.650473E-03  6.534321E-17 -8.195653E-17  2.336236E-17
         3   6 -5.501578E-03  1.650473E-03  1.650473E-03  1.186345E-17  1.885712E-17 -7.998996E-18
         3   7 -5.501578E-03  1.650473E-03  1.650473E-03  4.929999E-17 -2.128130E-18  1.216309E-17
         3   8 -5.501578E-03  1.650473E-03  1.650473E-03 -9.355225E-18  2.245531E-17 -3.867482E-17

 displacements (vx,vy,vz) for set NALL and time  0.9577813E+00

         1  0.000000E+00  0.000000E+00  0.000000E+00
         2 -2.852892E+00  0.000000E+00  0.000000E+00
         3 -1.294027E+01  0.000000E+00  0.000000E+00
         4 -1.579316E+01  0.000000E+00  0.000000E+00
         5 -2.588055E+01  0.000000E+00  0.000000E+00
         6 -2.873344E+01  0.000000E+00  0.000000E+00
         7  0.000000E+00  8.526989E-01  0.000000E+00
         8 -2.852892E+00  8.526989E-01  0.000000E+00
         9 -1.294027E+01  8.526989E-01  0.000000E+00
        10 -1.579316E+01  8.526989E-01  0.000000E+00
        11 -2.588055E+01  8.526989E-01  0.000000E+00
        12 -2.873344E+01  8.526989E-01  0.000000E+00
        13  0.000000E+00  0.000000E+00  1.193778E+00
        14 -2.852892E+00  0.000000E+00  1.193778E+00
        15 -1.294027E+01  0.000000E+00  1.193778E+00
        16 -1.579316E+01  0.000000E+00  1.193778E+00
        17 -2.588055E+01  0.000000E+00  1.193778E+00
        18 -2.873344E+01  0.000000E+00  1.193778E+00
        19  0.000000E+00  8.526989E-01  1.193778E+00
        20 -2.852892E+00  8.526989E-01  1.193778E+00
        21 -1.294027E+01  8.526989E-01  1.193778E+00
        22 -1.579316E+01  8.526989E-01  1.193778E+00
        23 -2.588055E+01  8.526989E-01  1.193778E+00
        24 -2.873344E+01  8.526989E-01  1.193778E+00

 stresses (elem, integ.pnt.,sxx,syy,szz,sxy,sxz,syz) for set EALL and time  0.9577813E+00

         1   1 -1.183938E+03  4.573569E-11  4.499249E-11  5.202745E-13  2.172227E-13 -1.455678E-13
         1   2 -1.183938E+03  4.104778E-11  4.139080E-11  3.106212E-12  1.579729E-12 -7.410723E-13
         1   3 -1.183938E+03  4.945172E-11  4.830833E-11 -6.056689E-13  1.120971E-12 -3.396582E-13
         1   4 -1.183938E+03  4.402060E-11  4.310589E-11  1.980269E-12  5.614853E-12 -1.841653E-12
         1   5 -1.183938E+03  4.790814E-11  4.762229E-11  1.679717E-12 -5.549760E-13 -3.352470E-13
         1   6 -1.183938E+03  3.864666E-11  4.207684E-11  8.694345E-12  8.075308E-13 -1.680646E-12
         1   7 -1.183938E+03  5.825584E-11  5.751263E-11 -6.972744E-13 -3.846653E-13 -5.205151E-13
         1   8 -1.183938E+03  4.802248E-11  5.013775E-11  6.317354E-12  4.117909E-12 -2.781227E-12
         2   1 -1.183938E+03  4.407777E-11  4.945172E-11  3.792028E-12  1.624716E-11 -2.688593E-12
         2   2 -1.183938E+03  2.349671E-11  1.194845E-11  1.655222E-11  2.824244E-11  1.029451E-12
         2   3 -1.183938E+03  6.099998E-11  6.265790E-11  2.185078E-12  4.675616E-12 -7.569525E-12
         2   4 -1.183938E+03  4.516400E-11  3.658855E-11  1.496265E-11  8.117738E-12  1.863709E-12
         2   5 -1.183938E+03  4.487815E-11  6.380129E-11 -1.276397E-11  2.607502E-12 -5.167656E-12
         2   6 -1.183938E+03  5.202435E-11  3.847515E-11 -1.053876E-11  1.444632E-11  3.026045E-12
         2   7 -1.183938E+03  4.504966E-11  6.025678E-11 -6.303915E-12 -4.425809E-12 -1.003977E-11
         2   8 -1.183938E+03  5.699811E-11  4.613588E-11 -4.287318E-12 -1.087993E-12  3.853135E-12
         3   1 -1.183938E+03  2.189596E-11  1.697938E-11 -1.771172E-11 -2.012096E-11  3.242192E-13
         3   2 -1.183938E+03  4.201967E-11  3.847515E-11 -4.082309E-12 -3.883877E-12 -2.053939E-12
         3   3 -1.183938E+03  4.579286E-11  4.367759E-11 -1.405780E-11 -3.798815E-12 -8.028284E-13
         3   4 -1.183938E+03  6.260073E-11  5.768414E-11 -4.592773E-14  3.734546E-13 -6.717071E-12
         3   5 -1.183938E+03  5.219586E-11  5.036643E-11  5.127316E-12 -1.406627E-11  2.357757E-12
         3   6 -1.183938E+03  5.471132E-11  6.431582E-11  9.550466E-13  2.083892E-12 -3.011709E-12
         3   7 -1.183938E+03  4.762229E-11  4.859417E-11  3.940977E-12 -2.247988E-13  1.217476E-12
         3   8 -1.183938E+03  4.699342E-11  5.522585E-11  4.685920E-14  2.904403E-12 -7.677598E-12

 strains (elem, integ.pnt.,exx,eyy,ezz,exy,exz,eyz) forset EALL and time  0.9577813E+00

         1   1 -5.689507E-03  1.706852E-03  1.706852E-03  3.187813E-18  1.320988E-18 -8.959922E-19
         1   2 -5.689507E-03  1.706852E-03  1.706852E-03  1.922330E-17  9.769937E-18 -4.561415E-18
         1   3 -5.689507E-03  1.706852E-03  1.706852E-03 -3.898671E-18  6.901142E-18 -2.090648E-18
         1   4 -5.689507E-03  1.706852E-03  1.706852E-03  1.213682E-17  3.476785E-17 -1.133566E-17
         1   5 -5.689507E-03  1.706852E-03  1.706852E-03  1.033553E-17 -3.539091E-18 -2.063497E-18
         1   6 -5.689507E-03  1.706852E-03  1.706852E-03  5.383347E-17  4.909859E-18 -1.034464E-17
         1   7 -5.689507E-03  1.706852E-03  1.706852E-03 -4.624828E-18 -2.574252E-18 -3.203851E-18
         1   8 -5.689507E-03  1.706852E-03  1.706852E-03  3.887312E-17  2.534636E-17 -1.711888E-17
         2   1 -5.689507E-03  1.706852E-03  1.706852E-03  2.345985E-17  1.002856E-16 -1.654870E-17
         2   2 -5.689507E-03  1.706852E-03  1.706852E-03  1.025862E-16  1.746687E-16  6.336430E-18
         2   3 -5.689507E-03  1.706852E-03  1.706852E-03  1.334600E-17  2.867903E-17 -4.659160E-17
         2   4 -5.689507E-03  1.706852E-03  1.706852E-03  9.258017E-17  5.002375E-17  1.147142E-17
         2   5 -5.689507E-03  1.706852E-03  1.706852E-03 -7.894046E-17  1.444002E-17 -3.180772E-17
         2   6 -5.689507E-03  1.706852E-03  1.706852E-03 -6.514185E-17  8.785291E-17  1.862578E-17
         2   7 -5.689507E-03  1.706852E-03  1.706852E-03 -3.830785E-17 -2.861659E-17 -6.179631E-17
         2   8 -5.689507E-03  1.706852E-03  1.706852E-03 -2.580287E-17 -7.918687E-18  2.371664E-17
         3   1 -5.689507E-03  1.706852E-03  1.706852E-03 -1.097065E-16 -1.245601E-16  1.995619E-18
         3   2 -5.689507E-03  1.706852E-03  1.706852E-03 -2.519005E-17 -2.387340E-17 -1.264231E-17
         3   3 -5.689507E-03  1.706852E-03  1.706852E-03 -8.670937E-17 -2.344450E-17 -4.941533E-18
         3   4 -5.689507E-03  1.706852E-03  1.706852E-03  1.787188E-19  2.427882E-18 -4.134461E-17
         3   5 -5.689507E-03  1.706852E-03  1.706852E-03  3.175423E-17 -8.644006E-17  1.451236E-17
         3   6 -5.689507E-03  1.706852E-03  1.706852E-03  5.881848E-18  1.370762E-17 -1.853754E-17
         3   7 -5.689507E-03  1.706852E-03  1.706852E-03  2.428763E-17 -9.760983E-19  7.493753E-18
         3   8 -5.689507E-03  1.706852E-03  1.706852E-03  1.400721E-19  1.842819E-17 -4.725680E-17

 displacements (vx,vy,vz) for set NALL and time  0.9667813E+00

         1  0.000000E+00  0.000000E+00  0.000000E+00
         2 -2.948732E+00  0.000000E+00  0.000000E+00
         3 -1.302735E+01  0.000000E+00  0.000000E+00
         4 -1.597608E+01  0.000000E+00  0.000000E+00
         5 -2.605471E+01  0.000000E+00  0.000000E+00
         6 -2.900344E+01  0.000000E+00  0.000000E+00
         7  0.000000E+00  8.812345E-01  0.000000E+00
         8 -2.948732E+00  8.812345E-01  0.000000E+00
         9 -1.302735E+01  8.812345E-01  0.000000E+00
        10 -1.597608E+01  8.812345E-01  0.000000E+00
        11 -2.605471E+01  8.812345E-01  0.000000E+00
        12 -2.900344E+01  8.812345E-01  0.000000E+00
        13  0.000000E+00  0.000000E+00  1.233728E+00
        14 -2.948732E+00  0.000000E+00  1.233728E+00
        15 -1.302735E+01  0.000000E+00  1.233728E+00
        16 -1.597608E+01  0.000000E+00  1.233728E+00
        17 -2.605471E+01  0.000000E+00  1.233728E+00
        18 -2.900344E+01  0.000000E+00  1.233728E+00
        19  0.000000E+00  8.812345E-01  1.233728E+00
        20 -2.948732E+00  8.812345E-01  1.233728E+00
        21 -1.302735E+01  8.812345E-01  1.233728E+00
        22 -1.597608E+01  8.812345E-01  1.233728E+00
        23 -2.605471E+01  8.812345E-01  1.233728E+00
        24 -2.900344E+01  8.812345E-01  1.233728E+00

 stresses (elem, integ.pnt.,sxx,syy,szz,sxy,sxz,syz) for set EALL and time  0.9667813E+00

         1   1 -1.223218E+03 -2.859032E-13 -1.143613E-12  8.383173E-13 -2.992050E-14 -1.632531E-13
         1   2 -1.223218E+03 -6.289870E-12 -2.630309E-12  5.013890E-12 -6.947099E-13 -4.511522E-13
         1   3 -1.223218E+03  4.745993E-12  2.344406E-12 -9.931217E-13  3.729415E-13  3.353308E-13
         1   4 -1.223218E+03 -1.429516E-12  3.430838E-13  3.182451E-12  1.137667E-12 -3.849685E-13
         1   5 -1.223218E+03  8.577096E-13 -1.486697E-12  1.375495E-12  5.500172E-13 -1.142772E-12
         1   6 -1.223218E+03 -7.204761E-12 -3.831103E-12  7.528056E-12 -1.147722E-13 -1.751662E-12
         1   7 -1.223218E+03  9.091722E-12  5.203438E-12 -1.034804E-12  6.230262E-13 -6.441880E-13
         1   8 -1.223218E+03  6.861677E-13  2.230045E-12  5.117757E-12  1.387751E-12 -1.685478E-12
         2   1 -1.223218E+03 -3.545200E-12  6.289870E-13  4.003628E-13  9.112023E-12 -1.438392E-12
         2   2 -1.223218E+03 -1.629648E-11 -1.972732E-11  1.161054E-11  1.365692E-11  2.785231E-13
         2   3 -1.223218E+03  1.063560E-11  1.132177E-11 -9.761808E-13  4.263724E-12 -2.987091E-12
         2   4 -1.223218E+03  1.143613E-13 -3.716742E-12  1.004281E-11  4.333245E-12  1.354560E-12
         2   5 -1.223218E+03 -1.143613E-12  7.376303E-12 -6.701902E-12  1.999702E-12 -3.816594E-12
         2   6 -1.223218E+03 -1.086432E-12 -7.490664E-12 -1.209786E-12  6.666262E-12 -3.033420E-14
         2   7 -1.223218E+03  3.602380E-12  8.634277E-12 -4.507194E-12 -9.373751E-13 -5.365292E-12
         2   8 -1.223218E+03  6.003967E-12 -9.148902E-13  7.068409E-13 -9.721354E-13  1.039084E-12
         3   1 -1.223218E+03 -1.749728E-11 -1.606776E-11 -1.333917E-11 -8.561707E-12  8.824494E-15
         3   2 -1.223218E+03 -2.630309E-12 -5.031896E-12 -2.702541E-12 -2.304866E-12 -1.167591E-12
         3   3 -1.223218E+03 -9.148902E-13  4.574451E-13 -9.890806E-12  2.630201E-13 -8.824494E-15
         3   4 -1.223218E+03  1.229384E-11  7.719386E-12  6.763040E-13  1.934996E-13 -2.849208E-12
         3   5 -1.223218E+03 -2.115684E-12 -8.005290E-13 -2.345326E-12 -6.180528E-12  4.412247E-14
         3   6 -1.223218E+03  4.402909E-12  6.804496E-12 -6.768351E-13 -2.886691E-13 -2.677131E-12
         3   7 -1.223218E+03  1.715419E-13  1.601058E-12 -1.194074E-12 -1.292359E-13  4.412247E-14
         3   8 -1.223218E+03  5.260619E-12  5.260619E-12  7.524986E-13  7.745301E-13 -4.379155E-12

 strains (elem, integ.pnt.,exx,eyy,ezz,exy,exz,eyz) forset EALL and time  0.9667813E+00

         1   1 -5.880074E-03  1.764022E-03  1.764022E-03  5.134509E-18 -1.646589E-19 -1.004655E-18
         1   2 -5.880074E-03  1.764022E-03  1.764022E-03  3.102885E-17 -4.287275E-18 -2.776376E-18
         1   3 -5.880074E-03  1.764022E-03  1.764022E-03 -6.398654E-18  2.321855E-18  2.063615E-18
         1   4 -5.880074E-03  1.764022E-03  1.764022E-03  1.949569E-17  7.064211E-18 -2.369084E-18
         1   5 -5.880074E-03  1.764022E-03  1.764022E-03  8.445176E-18  3.487396E-18 -7.032582E-18
         1   6 -5.880074E-03  1.764022E-03  1.764022E-03  4.659958E-17 -6.352198E-19 -1.077967E-17
         1   7 -5.880074E-03  1.764022E-03  1.764022E-03 -6.733253E-18  3.896719E-18 -3.964313E-18
         1   8 -5.880074E-03  1.764022E-03  1.764022E-03  3.142115E-17  8.639075E-18 -1.037238E-17
         2   1 -5.880074E-03  1.764022E-03  1.764022E-03  2.434510E-18  5.625754E-17 -8.851821E-18
         2   2 -5.880074E-03  1.764022E-03  1.764022E-03  7.195313E-17  8.444222E-17  1.714022E-18
         2   3 -5.880074E-03  1.764022E-03  1.764022E-03 -6.234030E-18  2.626313E-17 -1.838246E-17
         2   4 -5.880074E-03  1.764022E-03  1.764022E-03  6.209901E-17  2.669425E-17  8.335918E-18
         2   5 -5.880074E-03  1.764022E-03  1.764022E-03 -4.148373E-17  1.146895E-17 -2.348719E-17
         2   6 -5.880074E-03  1.764022E-03  1.764022E-03 -7.424996E-18  4.040810E-17 -1.866757E-19
         2   7 -5.880074E-03  1.764022E-03  1.764022E-03 -2.766294E-17 -6.476533E-18 -3.301784E-17
         2   8 -5.880074E-03  1.764022E-03  1.764022E-03  4.671300E-18 -6.692095E-18  6.394491E-18
         3   1 -5.880074E-03  1.764022E-03  1.764022E-03 -8.260047E-17 -5.301545E-17  5.430565E-20
         3   2 -5.880074E-03  1.764022E-03  1.764022E-03 -1.663861E-17 -1.421436E-17 -7.185317E-18
         3   3 -5.880074E-03  1.764022E-03  1.764022E-03 -6.088500E-17  1.656322E-18 -5.430565E-20
         3   4 -5.880074E-03  1.764022E-03  1.764022E-03  4.645738E-18  1.225199E-18 -1.753394E-17
         3   5 -5.880074E-03  1.764022E-03  1.764022E-03 -1.450249E-17 -3.803373E-17  2.715283E-19
         3   6 -5.880074E-03  1.764022E-03  1.764022E-03 -4.155537E-18 -1.496038E-18 -1.647498E-17
         3   7 -5.880074E-03  1.764022E-03  1.764022E-03 -7.252690E-18 -7.071277E-19  2.715283E-19
         3   8 -5.880074E-03  1.764022E-03  1.764022E-03  4.818761E-18  4.897475E-18 -2.694918E-17

 displacements (vx,vy,vz) for set NALL and time  0.9757813E+00

         1  0.000000E+00  0.000000E+00  0.000000E+00
         2 -3.046307E+00  0.000000E+00  0.000000E+00
         3 -1.311357E+01  0.000000E+00  0.000000E+00
         4 -1.615987E+01  0.000000E+00  0.000000E+00
         5 -2.622713E+01  0.000000E+00  0.000000E+00
         6 -2.927344E+01  0.000000E+00  0.000000E+00
         7  0.000000E+00  9.102795E-01  0.000000E+00
         8 -3.046307E+00  9.102795E-01  0.000000E+00
         9 -1.311357E+01  9.102795E-01  0.000000E+00
        10 -1.615987E+01  9.102795E-01  0.000000E+00
        11 -2.622713E+01  9.102795E-01  0.000000E+00
        12 -2.927344E+01  9.102795E-01  0.000000E+00
        13  0.000000E+00  0.000000E+00  1.274391E+00
        14 -3.046307E+00  0.000000E+00  1.274391E+00
        15 -1.311357E+01  0.000000E+00  1.274391E+00
        16 -1.615987E+01  0.000000E+00  1.274391E+00
        17 -2.622713E+01  0.000000E+00  1.274391E+00
        18 -2.927344E+01  0.000000E+00  1.274391E+00
        19  0.000000E+00  9.102795E-01  1.274391E+00
        20 -3.046307E+00  9.102795E-01  1.274391E+00
        21 -1.311357E+01  9.102795E-01  1.274391E+00
        22 -1.615987E+01  9.102795E-01  1.274391E+00
        23 -2.622713E+01  9.102795E-01  1.274391E+00
        24 -2.927344E+01  9.102795E-01  1.274391E+00

 stresses (elem, integ.pnt.,sxx,syy,szz,sxy,sxz,syz) for set EALL and time  0.9757813E+00

         1   1 -1.263176E+03 -2.287675E-13 -1.486989E-12  8.977579E-13 -1.407383E-13 -1.456412E-13
         1   2 -1.263176E+03 -7.206175E-12 -2.973977E-12  5.411095E-12 -1.102917E-12 -6.984157E-13
         1   3 -1.263176E+03  5.490419E-12  2.630826E-12 -1.227958E-12  6.865458E-13  4.898840E-13
         1   4 -1.263176E+03 -2.058907E-12 -5.719187E-13  3.285379E-12  2.649999E-12 -8.804671E-13
         1   5 -1.263176E+03  6.863024E-13 -2.287675E-12  1.955548E-12  4.475237E-13 -1.173956E-12
         1   6 -1.263176E+03 -1.018015E-11 -5.719187E-12  1.062602E-11 -5.146554E-13 -2.401976E-12
         1   7 -1.263176E+03  1.281098E-11  8.235629E-12 -1.285280E-12  6.348991E-13 -5.472578E-13
         1   8 -1.263176E+03  1.029454E-12  3.088361E-12  7.385192E-12  2.589665E-12 -2.584028E-12
         2   1 -1.263176E+03 -2.973977E-12  2.630826E-12  1.277443E-13  1.049590E-11 -1.390211E-12
         2   2 -1.263176E+03 -1.521304E-11 -1.990277E-11  9.979764E-12  1.370172E-11 -1.831548E-13
         2   3 -1.263176E+03  9.379466E-12  1.132399E-11 -8.408411E-13  5.193137E-12 -2.784836E-12
         2   4 -1.263176E+03 -1.258221E-12 -7.091791E-12  9.098057E-12  9.120044E-12  2.405286E-13
         2   5 -1.263176E+03 -3.202745E-12  6.176722E-12 -7.241300E-12  2.343192E-12 -3.760190E-12
         2   6 -1.263176E+03 -6.863024E-12 -1.246783E-11  3.670636E-12  5.661950E-12 -1.061415E-12
         2   7 -1.263176E+03  1.075207E-11  1.658564E-11 -5.767413E-12 -1.091293E-12 -5.154815E-12
         2   8 -1.263176E+03  8.578780E-12  1.601372E-12  5.144524E-12  2.175337E-12 -6.487653E-13
         3   1 -1.263176E+03 -1.670003E-11 -1.624249E-11 -1.231348E-11 -7.502663E-12 -6.355251E-13
         3   2 -1.263176E+03 -2.402058E-12 -4.918501E-12 -2.339831E-12 -1.977192E-12 -9.234975E-13
         3   3 -1.263176E+03 -2.402058E-12 -3.088361E-12 -9.113593E-12 -4.788802E-12 -1.597640E-12
         3   4 -1.263176E+03  1.143837E-11  7.206175E-12  6.515478E-13 -8.966462E-13 -2.310399E-12
         3   5 -1.263176E+03 -8.006861E-12 -4.918501E-12 -9.047357E-12 -5.309112E-12 -1.414485E-12
         3   6 -1.263176E+03  4.117814E-12  5.604803E-12 -1.958073E-12  8.071330E-13 -2.059388E-12
         3   7 -1.263176E+03  2.287675E-12  4.346582E-12 -6.422803E-12 -2.942174E-12 -2.383219E-12
         3   8 -1.263176E+03  1.418358E-11  1.384043E-11  8.054860E-13  5.329648E-13 -3.449048E-12

 strains (elem, integ.pnt.,exx,eyy,ezz,exy,exz,eyz) forset EALL and time  0.9757813E+00

         1   1 -6.074054E-03  1.822216E-03  1.822216E-03  5.490863E-18 -8.512456E-19 -8.960952E-19
         1   2 -6.074054E-03  1.822216E-03  1.822216E-03  3.348143E-17 -6.818437E-18 -4.297184E-18
         1   3 -6.074054E-03  1.822216E-03  1.822216E-03 -7.903045E-18  4.255219E-18  3.014138E-18
         1   4 -6.074054E-03  1.822216E-03  1.822216E-03  2.008753E-17  1.643206E-17 -5.417303E-18
         1   5 -6.074054E-03  1.822216E-03  1.822216E-03  1.200988E-17  2.855330E-18 -7.223071E-18
         1   6 -6.074054E-03  1.822216E-03  1.822216E-03  6.578195E-17 -3.111861E-18 -1.477878E-17
         1   7 -6.074054E-03  1.822216E-03  1.822216E-03 -8.410226E-18  3.928938E-18 -3.367146E-18
         1   8 -6.074054E-03  1.822216E-03  1.822216E-03  4.536184E-17  1.605190E-17 -1.589890E-17
         2   1 -6.074054E-03  1.822216E-03  1.822216E-03  7.566665E-19  6.479670E-17 -8.553636E-18
         2   2 -6.074054E-03  1.822216E-03  1.822216E-03  6.185639E-17  8.467836E-17 -1.126908E-18
         2   3 -6.074054E-03  1.822216E-03  1.822216E-03 -5.346285E-18  3.196339E-17 -1.713443E-17
         2   4 -6.074054E-03  1.822216E-03  1.822216E-03  5.629224E-17  5.631708E-17  1.479915E-18
         2   5 -6.074054E-03  1.822216E-03  1.822216E-03 -4.485487E-17  1.342737E-17 -2.313555E-17
         2   6 -6.074054E-03  1.822216E-03  1.822216E-03  2.281819E-17  3.400946E-17 -6.530633E-18
         2   7 -6.074054E-03  1.822216E-03  1.822216E-03 -3.556807E-17 -7.675467E-18 -3.171634E-17
         2   8 -6.074054E-03  1.822216E-03  1.822216E-03  3.210500E-17  1.258335E-17 -3.991697E-18
         3   1 -6.074054E-03  1.822216E-03  1.822216E-03 -7.624907E-17 -4.643967E-17 -3.910234E-18
         3   2 -6.074054E-03  1.822216E-03  1.822216E-03 -1.439503E-17 -1.217210E-17 -5.682058E-18
         3   3 -6.074054E-03  1.822216E-03  1.822216E-03 -5.608693E-17 -2.962245E-17 -9.829893E-18
         3   4 -6.074054E-03  1.822216E-03  1.822216E-03  4.473996E-18 -5.484289E-18 -1.421533E-17
         3   5 -6.074054E-03  1.822216E-03  1.822216E-03 -5.601413E-17 -3.259078E-17 -8.702985E-18
         3   6 -6.074054E-03  1.822216E-03  1.822216E-03 -1.204819E-17  5.340621E-18 -1.267092E-17
         3   7 -6.074054E-03  1.822216E-03  1.822216E-03 -3.947710E-17 -1.795949E-17 -1.466338E-17
         3   8 -6.074054E-03  1.822216E-03  1.822216E-03  5.350917E-18  3.592444E-18 -2.122116E-17

 displacements (vx,vy,vz) for set NALL and time  0.9847813E+00

         1  0.000000E+00  0.000000E+00  0.000000E+00
         2 -3.146298E+00  0.000000E+00  0.000000E+00
         3 -1.319857E+01  0.000000E+00  0.000000E+00
         4 -1.634487E+01  0.000000E+00  0.000000E+00
         5 -2.639714E+01  0.000000E+00  0.000000E+00
         6 -2.954344E+01  0.000000E+00  0.000000E+00
         7  0.000000E+00  9.400361E-01  0.000000E+00
         8 -3.146298E+00  9.400361E-01  0.000000E+00
         9 -1.319857E+01  9.400361E-01  0.000000E+00
        10 -1.634487E+01  9.400361E-01  0.000000E+00
        11 -2.639714E+01  9.400361E-01  0.000000E+00
        12 -2.954344E+01  9.400361E-01  0.000000E+00
        13  0.000000E+00  0.000000E+00  1.316051E+00
        14 -3.146298E+00  0.000000E+00  1.316051E+00
        15 -1.319857E+01  0.000000E+00  1.316051E+00
        16 -1.634487E+01  0.000000E+00  1.316051E+00
        17 -2.639714E+01  0.000000E+00  1.316051E+00
        18 -2.954344E+01  0.000000E+00  1.316051E+00
        19  0.000000E+00  9.400361E-01  1.316051E+00
        20 -3.146298E+00  9.400361E-01  1.316051E+00
        21 -1.319857E+01  9.400361E-01  1.316051E+00
        22 -1.634487E+01  9.400361E-01  1.316051E+00
        23 -2.639714E+01  9.400361E-01  1.316051E+00
        24 -2.954344E+01  9.400361E-01  1.316051E+00

 stresses (elem, integ.pnt.,sxx,syy,szz,sxy,sxz,syz) for set EALL and time  0.9847813E+00

         1   1 -1.304090E+03 -4.576270E-13 -1.144068E-12  4.665281E-13 -1.667937E-13 -2.207260E-14
         1   2 -1.304090E+03 -4.919490E-12 -2.745762E-12  3.124317E-12 -8.030127E-13 -7.118413E-13
         1   3 -1.304090E+03  3.088982E-12  1.487288E-12 -8.795238E-13  8.920082E-13  4.149648E-13
         1   4 -1.304090E+03 -2.288135E-12 -1.944915E-12  1.778265E-12  3.923277E-12 -1.321045E-12
         1   5 -1.304090E+03  4.576270E-13 -1.601695E-12  1.814962E-12  3.026827E-14 -5.429859E-13
         1   6 -1.304090E+03 -9.266947E-12 -5.377117E-12  9.545131E-12 -6.059507E-13 -2.039508E-12
         1   7 -1.304090E+03  1.155508E-11  8.809320E-12 -9.762115E-13  3.105137E-13 -9.711943E-14
         1   8 -1.304090E+03  9.152540E-13  2.860169E-12  6.753958E-12  3.341782E-12 -2.648712E-12
         2   1 -1.304090E+03 -2.173728E-12  3.432203E-13  2.520038E-12  8.658211E-12 -1.812160E-12
         2   2 -1.304090E+03 -1.533050E-11 -1.807627E-11  1.169201E-11  1.327894E-11  6.566598E-13
         2   3 -1.304090E+03  8.466100E-12  7.207625E-12  6.764855E-13 -3.464023E-13 -4.335058E-12
         2   4 -1.304090E+03 -1.601695E-12 -3.775423E-12  9.796348E-12  1.390714E-12  2.001985E-12
         2   5 -1.304090E+03 -4.805084E-12  4.690677E-12 -9.864103E-12  2.608515E-12 -4.257804E-12
         2   6 -1.304090E+03  9.152540E-13 -5.491524E-12 -4.374815E-12  7.350844E-12  1.081557E-12
         2   7 -1.304090E+03  9.152540E-13  6.864405E-12 -6.431133E-12 -3.872095E-12 -6.789531E-12
         2   8 -1.304090E+03  9.838981E-12  3.889830E-12 -8.723591E-13 -1.822297E-12  2.463302E-12
         3   1 -1.304090E+03 -1.613135E-11 -1.590254E-11 -1.225452E-11 -9.953935E-12  1.655445E-13
         3   2 -1.304090E+03 -2.402542E-12 -4.690677E-12 -2.526670E-12 -1.997940E-12 -1.171503E-12
         3   3 -1.304090E+03 -8.008473E-13  1.258696E-30 -9.292132E-12  6.665062E-14  1.545082E-13
         3   4 -1.304090E+03  1.109746E-11  7.093219E-12  8.829811E-14  1.361353E-13 -3.122169E-12
         3   5 -1.304090E+03 -4.576270E-13 -3.432203E-13 -4.395785E-13 -7.073270E-12  6.290690E-13
         3   6 -1.304090E+03  3.661016E-12  6.978812E-12 -1.616398E-13  4.310744E-13 -2.392670E-12
         3   7 -1.304090E+03  1.372881E-12  2.059322E-12 -1.251407E-13  1.804552E-13  6.268618E-13
         3   8 -1.304090E+03  3.546609E-12  4.805084E-12  4.307366E-13  9.447865E-13 -4.330644E-12

 strains (elem, integ.pnt.,exx,eyy,ezz,exy,exz,eyz) forset EALL and time  0.9847813E+00

         1   1 -6.272798E-03  1.881840E-03  1.881840E-03  2.843381E-18 -1.025980E-18 -1.357801E-19
         1   2 -6.272798E-03  1.881840E-03  1.881840E-03  1.932729E-17 -4.971883E-18 -4.378907E-18
         1   3 -6.272798E-03  1.881840E-03  1.881840E-03 -5.642873E-18  5.510717E-18  2.552665E-18
         1   4 -6.272798E-03  1.881840E-03  1.881840E-03  1.084104E-17  2.431099E-17 -8.126437E-18
         1   5 -6.272798E-03  1.881840E-03  1.881840E-03  1.115247E-17  2.164075E-19 -3.340190E-18
         1   6 -6.272798E-03  1.881840E-03  1.881840E-03  5.909587E-17 -3.729496E-18 -1.254608E-17
         1   7 -6.272798E-03  1.881840E-03  1.881840E-03 -6.444627E-18  1.844655E-18 -5.974323E-19
         1   8 -6.272798E-03  1.881840E-03  1.881840E-03  4.149877E-17  2.064493E-17 -1.629361E-17
         2   1 -6.272798E-03  1.881840E-03  1.881840E-03  1.556029E-17  5.347220E-17 -1.114754E-17
         2   2 -6.272798E-03  1.881840E-03  1.881840E-03  7.244594E-17  8.213050E-17  4.039457E-18
         2   3 -6.272798E-03  1.881840E-03  1.881840E-03  3.937519E-18 -2.269325E-18 -2.666721E-17
         2   4 -6.272798E-03  1.881840E-03  1.881840E-03  6.049995E-17  8.504472E-18  1.231525E-17
         2   5 -6.272798E-03  1.881840E-03  1.881840E-03 -6.104990E-17  1.533158E-17 -2.619198E-17
         2   6 -6.272798E-03  1.881840E-03  1.881840E-03 -2.700470E-17  4.474405E-17  6.653223E-18
         2   7 -6.272798E-03  1.881840E-03  1.881840E-03 -3.940656E-17 -2.446877E-17 -4.176595E-17
         2   8 -6.272798E-03  1.881840E-03  1.881840E-03 -4.930408E-18 -1.175569E-17  1.515306E-17
         3   1 -6.272798E-03  1.881840E-03  1.881840E-03 -7.589266E-17 -6.163760E-17  1.018351E-18
         3   2 -6.272798E-03  1.881840E-03  1.881840E-03 -1.555939E-17 -1.229361E-17 -7.206527E-18
         3   3 -6.272798E-03  1.881840E-03  1.881840E-03 -5.721611E-17  4.486735E-19  9.504605E-19
         3   4 -6.272798E-03  1.881840E-03  1.881840E-03  9.623952E-19  8.796254E-19 -1.920609E-17
         3   5 -6.272798E-03  1.881840E-03  1.881840E-03 -2.714403E-18 -4.350477E-17  3.869732E-18
         3   6 -6.272798E-03  1.881840E-03  1.881840E-03 -9.905952E-19  3.038032E-18 -1.471856E-17
         3   7 -6.272798E-03  1.881840E-03  1.881840E-03 -7.320137E-19  1.251574E-18  3.856154E-18
         3   8 -6.272798E-03  1.881840E-03  1.881840E-03  2.715601E-18  5.992045E-18 -2.664005E-17

 displacements (vx,vy,vz) for set NALL and time  0.9937813E+00

         1  0.000000E+00  0.000000E+00  0.000000E+00
         2 -3.250189E+00  0.000000E+00  0.000000E+00
         3 -1.328162E+01  0.000000E+00  0.000000E+00
         4 -1.653181E+01  0.000000E+00  0.000000E+00
         5 -2.656325E+01  0.000000E+00  0.000000E+00
         6 -2.981344E+01  0.000000E+00  0.000000E+00
         7  0.000000E+00  9.709447E-01  0.000000E+00
         8 -3.250189E+00  9.709447E-01  0.000000E+00
         9 -1.328162E+01  9.709447E-01  0.000000E+00
        10 -1.653181E+01  9.709447E-01  0.000000E+00
        11 -2.656325E+01  9.709447E-01  0.000000E+00
        12 -2.981344E+01  9.709447E-01  0.000000E+00
        13  0.000000E+00  0.000000E+00  1.359323E+00
        14 -3.250189E+00  0.000000E+00  1.359323E+00
        15 -1.328162E+01  0.000000E+00  1.359323E+00
        16 -1.653181E+01  0.000000E+00  1.359323E+00
        17 -2.656325E+01  0.000000E+00  1.359323E+00
        18 -2.981344E+01  0.000000E+00  1.359323E+00
        19  0.000000E+00  9.709447E-01  1.359323E+00
        20 -3.250189E+00  9.709447E-01  1.359323E+00
        21 -1.328162E+01  9.709447E-01  1.359323E+00
        22 -1.653181E+01  9.709447E-01  1.359323E+00
        23 -2.656325E+01  9.709447E-01  1.359323E+00
        24 -2.981344E+01  9.709447E-01  1.359323E+00

 stresses (elem, integ.pnt.,sxx,syy,szz,sxy,sxz,syz) for set EALL and time  0.9937813E+00

         1   1 -1.346563E+03 -1.144307E-13 -1.144307E-13 -3.089498E-13 -1.924886E-13  1.589657E-13
         1   2 -1.346563E+03  4.577227E-13 -3.432920E-13 -1.307521E-12 -4.833768E-13 -4.680658E-13
         1   3 -1.346563E+03 -1.258737E-12 -9.154454E-13 -1.023082E-13  7.541359E-13  2.781901E-13
         1   4 -1.346563E+03 -1.602030E-12 -2.975198E-12 -1.100880E-12  3.741168E-12 -1.313675E-12
         1   5 -1.346563E+03 -2.288614E-13 -4.577227E-13  9.064217E-13 -4.400280E-13  4.813130E-13
         1   6 -1.346563E+03 -4.348366E-12 -2.860767E-12  4.466547E-12 -7.309163E-13 -9.162609E-13
         1   7 -1.346563E+03  5.721534E-12  5.835965E-12 -1.612267E-13 -2.490834E-13  5.917058E-13
         1   8 -1.346563E+03  6.865841E-13  1.487599E-12  3.468364E-12  2.755315E-12 -1.761870E-12
         2   1 -1.346563E+03  3.890643E-12  3.661782E-12  3.998771E-12  4.651049E-12 -4.835208E-13
         2   2 -1.346563E+03 -6.293687E-12 -8.010148E-12  4.346100E-12  5.067844E-12 -3.631926E-13
         2   3 -1.346563E+03  3.432920E-12  2.746336E-12  2.213258E-12  1.382633E-12 -1.364456E-12
         2   4 -1.346563E+03 -6.751410E-12 -8.696732E-12  2.577954E-12  7.738758E-12 -9.979516E-13
         2   5 -1.346563E+03  2.288614E-13  2.403044E-12 -5.381292E-13  1.134913E-12 -9.206766E-13
         2   6 -1.346563E+03 -8.925593E-12 -8.811162E-12  7.867239E-12  1.916404E-12 -7.120341E-13
         2   7 -1.346563E+03  1.212965E-11  1.373168E-11 -1.997536E-12 -1.905243E-12 -1.801612E-12
         2   8 -1.346563E+03  3.089628E-12  2.631906E-12  6.477298E-12  4.034088E-12 -1.346793E-12
         3   1 -1.346563E+03 -5.835965E-12 -6.980271E-12 -2.975967E-12 -2.482757E-12 -7.727502E-13
         3   2 -1.346563E+03 -1.029876E-12 -2.174183E-12 -7.530596E-13 -7.808440E-13 -2.042268E-13
         3   3 -1.346563E+03 -2.059752E-12 -4.119504E-12 -2.012716E-12 -6.292220E-12 -2.269678E-12
         3   4 -1.346563E+03  3.318490E-12  2.059752E-12  5.922539E-13 -1.776940E-12 -7.396323E-13
         3   5 -1.346563E+03 -8.582301E-12 -5.378242E-12 -8.603570E-12 -1.633287E-12 -1.417445E-12
         3   6 -1.346563E+03  1.144307E-12  1.258737E-12 -2.212711E-12  1.301645E-12 -2.218897E-13
         3   7 -1.346563E+03  1.258737E-12  3.547351E-12 -6.296071E-12 -4.223463E-12 -2.914372E-12
         3   8 -1.346563E+03  1.155750E-11  1.178636E-11  3.726506E-13  9.170104E-13 -7.462559E-13

 strains (elem, integ.pnt.,exx,eyy,ezz,exy,exz,eyz) forset EALL and time  0.9937813E+00

         1   1 -6.479250E-03  1.943775E-03  1.943775E-03 -1.907601E-18 -1.202796E-18  9.776768E-19
         1   2 -6.479250E-03  1.943775E-03  1.943775E-03 -8.101239E-18 -3.007030E-18 -2.878715E-18
         1   3 -6.479250E-03  1.943775E-03  1.943775E-03 -6.040323E-19  4.639700E-18  1.710934E-18
         1   4 -6.479250E-03  1.943775E-03  1.943775E-03 -6.797670E-18  2.316676E-17 -8.079413E-18
         1   5 -6.479250E-03  1.943775E-03  1.943775E-03  5.580151E-18 -2.764364E-18  2.960188E-18
         1   6 -6.479250E-03  1.943775E-03  1.943775E-03  2.766182E-17 -4.568597E-18 -5.635221E-18
         1   7 -6.479250E-03  1.943775E-03  1.943775E-03 -1.154956E-18 -1.687126E-18  3.639130E-18
         1   8 -6.479250E-03  1.943775E-03  1.943775E-03  2.135757E-17  1.694765E-17 -1.083592E-17
         2   1 -6.479250E-03  1.943775E-03  1.943775E-03  2.473298E-17  2.871174E-17 -2.973767E-18
         2   2 -6.479250E-03  1.943775E-03  1.943775E-03  2.688729E-17  3.129691E-17 -2.233720E-18
         2   3 -6.479250E-03  1.943775E-03  1.943775E-03  1.346933E-17  8.442702E-18 -8.391726E-18
         2   4 -6.479250E-03  1.943775E-03  1.943775E-03  1.573135E-17  4.786656E-17 -6.137638E-18
         2   5 -6.479250E-03  1.943775E-03  1.943775E-03 -3.394711E-18  6.530701E-18 -5.662378E-18
         2   6 -6.479250E-03  1.943775E-03  1.943775E-03  4.873956E-17  1.137790E-17 -4.379177E-18
         2   7 -6.479250E-03  1.943775E-03  1.943775E-03 -1.260117E-17 -1.231309E-17 -1.108034E-17
         2   8 -6.479250E-03  1.943775E-03  1.943775E-03  3.996397E-17  2.452559E-17 -8.283095E-18
         3   1 -6.479250E-03  1.943775E-03  1.943775E-03 -1.842049E-17 -1.535327E-17 -4.752596E-18
         3   2 -6.479250E-03  1.943775E-03  1.943775E-03 -4.632911E-18 -4.797155E-18 -1.256043E-18
         3   3 -6.479250E-03  1.943775E-03  1.943775E-03 -1.234395E-17 -3.895821E-17 -1.395905E-17
         3   4 -6.479250E-03  1.943775E-03  1.943775E-03  3.813362E-18 -1.095219E-17 -4.548913E-18
         3   5 -6.479250E-03  1.943775E-03  1.943775E-03 -5.327429E-17 -9.957739E-18 -8.717618E-18
         3   6 -6.479250E-03  1.943775E-03  1.943775E-03 -1.363501E-17  8.246171E-18 -1.364674E-18
         3   7 -6.479250E-03  1.943775E-03  1.943775E-03 -3.871777E-17 -2.593716E-17 -1.792407E-17
         3   8 -6.479250E-03  1.943775E-03  1.943775E-03  2.644957E-18  5.946608E-18 -4.589649E-18

 displacements (vx,vy,vz) for set NALL and time  0.1000000E+01

         1  0.000000E+00  0.000000E+00  0.000000E+00
         2 -3.326582E+00  0.000000E+00  0.000000E+00
         3 -1.333671E+01  0.000000E+00  0.000000E+00
         4 -1.666329E+01  0.000000E+00  0.000000E+00
         5 -2.667342E+01  0.000000E+00  0.000000E+00
         6 -3.000000E+01  0.000000E+00  0.000000E+00
         7  0.000000E+00  9.936675E-01  0.000000E+00
         8 -3.326582E+00  9.936675E-01  0.000000E+00
         9 -1.333671E+01  9.936675E-01  0.000000E+00
        10 -1.666329E+01  9.936675E-01  0.000000E+00
        11 -2.667342E+01  9.936675E-01  0.000000E+00
        12 -3.000000E+01  9.936675E-01  0.000000E+00
        13  0.000000E+00  0.000000E+00  1.391135E+00
        14 -3.326582E+00  0.000000E+00  1.391135E+00
        15 -1.333671E+01  0.000000E+00  1.391135E+00
        16 -1.666329E+01  0.000000E+00  1.391135E+00
        17 -2.667342E+01  0.000000E+00  1.391135E+00
        18 -3.000000E+01  0.000000E+00  1.391135E+00
        19  0.000000E+00  9.936675E-01  1.391135E+00
        20 -3.326582E+00  9.936675E-01  1.391135E+00
        21 -1.333671E+01  9.936675E-01  1.391135E+00
        22 -1.666329E+01  9.936675E-01  1.391135E+00
        23 -2.667342E+01  9.936675E-01  1.391135E+00
        24 -3.000000E+01  9.936675E-01  1.391135E+00

 stresses (elem, integ.pnt.,sxx,syy,szz,sxy,sxz,syz) for set EALL and time  0.1000000E+01

         1   1 -1.377771E+03  1.487828E-12  1.144483E-12  4.152536E-13 -7.070599E-14 -7.287381E-14
         1   2 -1.377771E+03 -1.258931E-12  6.866897E-13  2.446725E-12 -6.632185E-13 -1.943302E-13
         1   3 -1.377771E+03  4.120138E-12  2.632310E-12 -4.841401E-13  9.474789E-14  2.429127E-13
         1   4 -1.377771E+03  1.258931E-12  2.174517E-12  1.547331E-12  5.134038E-14 -4.637424E-14
         1   5 -1.377771E+03  2.060069E-12  6.866897E-13  6.069953E-13  3.187444E-13 -5.719490E-13
         1   6 -1.377771E+03 -1.716724E-12 -2.288966E-13  3.402439E-12 -2.737681E-13 -8.899438E-13
         1   7 -1.377771E+03  5.607966E-12  3.433448E-12 -5.247777E-13  3.183708E-13 -2.384961E-13
         1   8 -1.377771E+03  1.716724E-12  2.288966E-12  2.270666E-12  3.270523E-13 -7.419879E-13
         2   1 -1.377771E+03  2.060069E-12  1.487828E-12  1.574937E-12  1.403747E-12 -3.643691E-13
         2   2 -1.377771E+03 -6.180207E-12 -2.975655E-12  6.071955E-12  6.050489E-13 -2.914952E-13
         2   3 -1.377771E+03  8.125828E-12  5.607966E-12 -5.691918E-13  8.088022E-13 -9.716508E-14
         2   4 -1.377771E+03 -2.896250E-28  1.487828E-12  3.945190E-12  6.698981E-13  1.236647E-13
         2   5 -1.377771E+03  2.403414E-12  9.155862E-13  1.233765E-13  8.916521E-13 -1.636348E-12
         2   6 -1.377771E+03 -5.150173E-12 -3.204552E-12  6.165702E-12  4.575770E-13 -1.467414E-12
         2   7 -1.377771E+03  9.499207E-12  6.294655E-12 -1.817421E-12  6.476717E-13 -1.369144E-12
         2   8 -1.377771E+03  1.945621E-12  2.174517E-12  4.294357E-12  5.434936E-13 -1.055566E-12
         3   1 -1.377771E+03 -5.264621E-12 -2.174517E-12 -5.794774E-12 -4.247199E-13 -3.179948E-13
         3   2 -1.377771E+03  1.716724E-12  5.722414E-13 -8.636805E-13  3.045264E-13 -2.981201E-13
         3   3 -1.377771E+03  3.433448E-13  1.945621E-12 -3.782972E-12 -6.804124E-13 -1.766638E-13
         3   4 -1.377771E+03  7.210242E-12  4.349035E-12  1.113395E-12 -5.415084E-13 -4.416595E-15
         3   5 -1.377771E+03 -4.234586E-12 -1.487828E-12 -6.409683E-12 -5.618272E-13 -1.322770E-12
         3   6 -1.377771E+03  3.433448E-12  1.373379E-12 -1.548041E-12 -1.238984E-12 -1.450851E-12
         3   7 -1.377771E+03  2.060069E-12  3.204552E-12 -4.193473E-12 -1.020375E-12 -1.174814E-12
         3   8 -1.377771E+03  9.613656E-12  5.836862E-12  9.459763E-13 -4.647585E-13 -1.181439E-12

 strains (elem, integ.pnt.,exx,eyy,ezz,exy,exz,eyz) forset EALL and time  0.1000000E+01

         1   1 -6.631033E-03  1.989310E-03  1.989310E-03  2.539815E-18 -4.229498E-19 -4.481222E-19
         1   2 -6.631033E-03  1.989310E-03  1.989310E-03  1.514058E-17 -4.098174E-18 -1.194993E-18
         1   3 -6.631033E-03  1.989310E-03  1.989310E-03 -3.136400E-18  5.970279E-19  1.493741E-18
         1   4 -6.631033E-03  1.989310E-03  1.989310E-03  9.464369E-18  3.277807E-19 -2.851687E-19
         1   5 -6.631033E-03  1.989310E-03  1.989310E-03  3.719819E-18  2.034933E-18 -3.517080E-18
         1   6 -6.631033E-03  1.989310E-03  1.989310E-03  2.105934E-17 -1.640292E-18 -5.472523E-18
         1   7 -6.631033E-03  1.989310E-03  1.989310E-03 -3.422978E-18  2.010229E-18 -1.466582E-18
         1   8 -6.631033E-03  1.989310E-03  1.989310E-03  1.391654E-17  2.064078E-18 -4.562699E-18
         2   1 -6.631033E-03  1.989310E-03  1.989310E-03  9.683755E-18  8.686145E-18 -2.240611E-18
         2   2 -6.631033E-03  1.989310E-03  1.989310E-03  3.757776E-17  3.731997E-18 -1.792489E-18
         2   3 -6.631033E-03  1.989310E-03  1.989310E-03 -3.848178E-18  4.999098E-18 -5.974963E-19
         2   4 -6.631033E-03  1.989310E-03  1.989310E-03  2.415353E-17  4.137507E-18  7.604498E-19
         2   5 -6.631033E-03  1.989310E-03  1.989310E-03  6.883242E-19  5.454234E-18 -1.006238E-17
         2   6 -6.631033E-03  1.989310E-03  1.989310E-03  3.816753E-17  2.761762E-18 -9.023552E-18
         2   7 -6.631033E-03  1.989310E-03  1.989310E-03 -1.156035E-17  3.952070E-18 -8.419266E-18
         2   8 -6.631033E-03  1.989310E-03  1.989310E-03  2.634966E-17  3.305877E-18 -6.490982E-18
         3   1 -6.631033E-03  1.989310E-03  1.989310E-03 -3.586418E-17 -2.642838E-18 -1.955442E-18
         3   2 -6.631033E-03  1.989310E-03  1.989310E-03 -5.277701E-18  1.880515E-18 -1.833227E-18
         3   3 -6.631033E-03  1.989310E-03  1.989310E-03 -2.316739E-17 -4.233973E-18 -1.086357E-18
         3   4 -6.631033E-03  1.989310E-03  1.989310E-03  7.203697E-18 -3.372382E-18 -2.715892E-20
         3   5 -6.631033E-03  1.989310E-03  1.989310E-03 -3.966970E-17 -3.515671E-18 -8.134097E-18
         3   6 -6.631033E-03  1.989310E-03  1.989310E-03 -9.514012E-18 -7.715927E-18 -8.921706E-18
         3   7 -6.631033E-03  1.989310E-03  1.989310E-03 -2.568285E-17 -6.379528E-18 -7.224273E-18
         3   8 -6.631033E-03  1.989310E-03  1.989310E-03  6.196015E-18 -2.933163E-18 -7.265011E-18
