    1C
    1UUSER                                                              
    1UDATE              12.august.2016                                  
    1UTIME              10:55:35                                        
    1UHOST                                                              
    1UPGM               CalculiX                                        
    1UVERSION           Version 2.10                             
    1UCOMPILETIME       Sa 5. MÃ¤r 12:23:33 CET 2016                    
    1UDIR                                                               
    1UDBN                                                               
    1UMAT    1SI1                                                       
    1UMAT    2EL                                                        
    1UMAT    3SPRING                                                    
    2C                            72                                     1
 -1         1 0.00000E+00 0.00000E+00 0.00000E+00
 -1         2 5.00000E+02 0.00000E+00 0.00000E+00
 -1         3 5.10000E+02 0.00000E+00 0.00000E+00
 -1         4 1.01000E+03 0.00000E+00 0.00000E+00
 -1         5 1.02000E+03 0.00000E+00 0.00000E+00
 -1         6 1.52000E+03 0.00000E+00 0.00000E+00
 -1         7 0.00000E+00 5.00000E+02 0.00000E+00
 -1         8 5.00000E+02 5.00000E+02 0.00000E+00
 -1         9 5.10000E+02 5.00000E+02 0.00000E+00
 -1        10 1.01000E+03 5.00000E+02 0.00000E+00
 -1        11 1.02000E+03 5.00000E+02 0.00000E+00
 -1        12 1.52000E+03 5.00000E+02 0.00000E+00
 -1        13 0.00000E+00 5.10000E+02 0.00000E+00
 -1        14 5.00000E+02 5.10000E+02 0.00000E+00
 -1        15 5.10000E+02 5.10000E+02 0.00000E+00
 -1        16 1.01000E+03 5.10000E+02 0.00000E+00
 -1        17 1.02000E+03 5.10000E+02 0.00000E+00
 -1        18 1.52000E+03 5.10000E+02 0.00000E+00
 -1        19 0.00000E+00 1.01000E+03 0.00000E+00
 -1        20 5.00000E+02 1.01000E+03 0.00000E+00
 -1        21 5.10000E+02 1.01000E+03 0.00000E+00
 -1        22 1.01000E+03 1.01000E+03 0.00000E+00
 -1        23 1.02000E+03 1.01000E+03 0.00000E+00
 -1        24 1.52000E+03 1.01000E+03 0.00000E+00
 -1        25 0.00000E+00 1.02000E+03 0.00000E+00
 -1        26 5.00000E+02 1.02000E+03 0.00000E+00
 -1        27 5.10000E+02 1.02000E+03 0.00000E+00
 -1        28 1.01000E+03 1.02000E+03 0.00000E+00
 -1        29 1.02000E+03 1.02000E+03 0.00000E+00
 -1        30 1.52000E+03 1.02000E+03 0.00000E+00
 -1        31 0.00000E+00 1.52000E+03 0.00000E+00
 -1        32 5.00000E+02 1.52000E+03 0.00000E+00
 -1        33 5.10000E+02 1.52000E+03 0.00000E+00
 -1        34 1.01000E+03 1.52000E+03 0.00000E+00
 -1        35 1.02000E+03 1.52000E+03 0.00000E+00
 -1        36 1.52000E+03 1.52000E+03 0.00000E+00
 -1        37 0.00000E+00 0.00000E+00 7.00000E+02
 -1        38 5.00000E+02 0.00000E+00 7.00000E+02
 -1        39 5.10000E+02 0.00000E+00 7.00000E+02
 -1        40 1.01000E+03 0.00000E+00 7.00000E+02
 -1        41 1.02000E+03 0.00000E+00 7.00000E+02
 -1        42 1.52000E+03 0.00000E+00 7.00000E+02
 -1        43 0.00000E+00 5.00000E+02 7.00000E+02
 -1        44 5.00000E+02 5.00000E+02 7.00000E+02
 -1        45 5.10000E+02 5.00000E+02 7.00000E+02
 -1        46 1.01000E+03 5.00000E+02 7.00000E+02
 -1        47 1.02000E+03 5.00000E+02 7.00000E+02
 -1        48 1.52000E+03 5.00000E+02 7.00000E+02
 -1        49 0.00000E+00 5.10000E+02 7.00000E+02
 -1        50 5.00000E+02 5.10000E+02 7.00000E+02
 -1        51 5.10000E+02 5.10000E+02 7.00000E+02
 -1        52 1.01000E+03 5.10000E+02 7.00000E+02
 -1        53 1.02000E+03 5.10000E+02 7.00000E+02
 -1        54 1.52000E+03 5.10000E+02 7.00000E+02
 -1        55 0.00000E+00 1.01000E+03 7.00000E+02
 -1        56 5.00000E+02 1.01000E+03 7.00000E+02
 -1        57 5.10000E+02 1.01000E+03 7.00000E+02
 -1        58 1.01000E+03 1.01000E+03 7.00000E+02
 -1        59 1.02000E+03 1.01000E+03 7.00000E+02
 -1        60 1.52000E+03 1.01000E+03 7.00000E+02
 -1        61 0.00000E+00 1.02000E+03 7.00000E+02
 -1        62 5.00000E+02 1.02000E+03 7.00000E+02
 -1        63 5.10000E+02 1.02000E+03 7.00000E+02
 -1        64 1.01000E+03 1.02000E+03 7.00000E+02
 -1        65 1.02000E+03 1.02000E+03 7.00000E+02
 -1        66 1.52000E+03 1.02000E+03 7.00000E+02
 -1        67 0.00000E+00 1.52000E+03 7.00000E+02
 -1        68 5.00000E+02 1.52000E+03 7.00000E+02
 -1        69 5.10000E+02 1.52000E+03 7.00000E+02
 -1        70 1.01000E+03 1.52000E+03 7.00000E+02
 -1        71 1.02000E+03 1.52000E+03 7.00000E+02
 -1        72 1.52000E+03 1.52000E+03 7.00000E+02
 -3
    3C                            57                                     1
 -1         1    1    0    2
 -2         1         2         8         7        37        38        44        43
 -1         2    1    0    2
 -2         3         4        10         9        39        40        46        45
 -1         3    1    0    2
 -2         5         6        12        11        41        42        48        47
 -1         4    1    0    2
 -2        13        14        20        19        49        50        56        55
 -1         5    1    0    2
 -2        15        16        22        21        51        52        58        57
 -1         6    1    0    2
 -2        17        18        24        23        53        54        60        59
 -1         7    1    0    2
 -2        25        26        32        31        61        62        68        67
 -1         8    1    0    2
 -2        27        28        34        33        63        64        70        69
 -1         9    1    0    2
 -2        29        30        36        35        65        66        72        71
 -1        10   11    0    3
 -2         2         3
 -1        11   11    0    3
 -2         8         9
 -1        12   11    0    3
 -2        38        39
 -1        13   11    0    3
 -2        44        45
 -1        14   11    0    3
 -2         4         5
 -1        15   11    0    3
 -2        10        11
 -1        16   11    0    3
 -2        40        41
 -1        17   11    0    3
 -2        46        47
 -1        18   11    0    3
 -2        14        15
 -1        19   11    0    3
 -2        20        21
 -1        20   11    0    3
 -2        50        51
 -1        21   11    0    3
 -2        56        57
 -1        22   11    0    3
 -2        16        17
 -1        23   11    0    3
 -2        22        23
 -1        24   11    0    3
 -2        52        53
 -1        25   11    0    3
 -2        58        59
 -1        26   11    0    3
 -2        26        27
 -1        27   11    0    3
 -2        32        33
 -1        28   11    0    3
 -2        62        63
 -1        29   11    0    3
 -2        68        69
 -1        30   11    0    3
 -2        28        29
 -1        31   11    0    3
 -2        34        35
 -1        32   11    0    3
 -2        64        65
 -1        33   11    0    3
 -2        70        71
 -1        34   11    0    3
 -2         7        13
 -1        35   11    0    3
 -2         8        14
 -1        36   11    0    3
 -2        44        50
 -1        37   11    0    3
 -2        43        49
 -1        38   11    0    3
 -2         9        15
 -1        39   11    0    3
 -2        10        16
 -1        40   11    0    3
 -2        46        52
 -1        41   11    0    3
 -2        45        51
 -1        42   11    0    3
 -2        11        17
 -1        43   11    0    3
 -2        12        18
 -1        44   11    0    3
 -2        48        54
 -1        45   11    0    3
 -2        47        53
 -1        46   11    0    3
 -2        19        25
 -1        47   11    0    3
 -2        20        26
 -1        48   11    0    3
 -2        56        62
 -1        49   11    0    3
 -2        55        61
 -1        50   11    0    3
 -2        21        27
 -1        51   11    0    3
 -2        22        28
 -1        52   11    0    3
 -2        58        64
 -1        53   11    0    3
 -2        57        63
 -1        54   11    0    3
 -2        23        29
 -1        55   11    0    3
 -2        24        30
 -1        56   11    0    3
 -2        60        66
 -1        57   11    0    3
 -2        59        65
 -3
    1PSTEP                         1           1           1          
  100CL  101 1.00000E-03          72                     0    1           1
 -4  DISP        4    1
 -5  D1          1    2    1    0
 -5  D2          1    2    2    0
 -5  D3          1    2    3    0
 -5  ALL         1    2    0    0    1ALL
 -1         1 0.00000E+00 0.00000E+00 0.00000E+00
 -1         2-1.83321E-15 0.00000E+00 0.00000E+00
 -1         3-9.62438E-08 0.00000E+00 0.00000E+00
 -1         4-9.62441E-08 0.00000E+00 0.00000E+00
 -1         5-1.92692E-07 0.00000E+00 0.00000E+00
 -1         6-1.92570E-07 0.00000E+00 0.00000E+00
 -1         7 0.00000E+00-1.83321E-15 0.00000E+00
 -1         8-1.83321E-15-1.83321E-15 0.00000E+00
 -1         9-9.62438E-08 1.22989E-12 0.00000E+00
 -1        10-9.62441E-08 1.22988E-12 0.00000E+00
 -1        11-1.92692E-07-4.06766E-10 0.00000E+00
 -1        12-1.92569E-07-4.08322E-10 0.00000E+00
 -1        13 0.00000E+00-9.62437E-08 0.00000E+00
 -1        14 1.22989E-12-9.62437E-08 0.00000E+00
 -1        15 4.51691E-05 4.51691E-05 0.00000E+00
 -1        16 4.51691E-05 4.51691E-05 0.00000E+00
 -1        17 6.41073E-05-1.49622E-02 0.00000E+00
 -1        18 6.41074E-05-1.49923E-02 0.00000E+00
 -1        19 0.00000E+00-9.62441E-08 0.00000E+00
 -1        20 1.22988E-12-9.62441E-08 0.00000E+00
 -1        21 4.51691E-05 4.51691E-05 0.00000E+00
 -1        22 4.51691E-05 4.51691E-05 0.00000E+00
 -1        23 9.41835E-05-1.49622E-02 0.00000E+00
 -1        24 9.41836E-05-1.49923E-02 0.00000E+00
 -1        25 0.00000E+00-1.92693E-07 0.00000E+00
 -1        26-4.06766E-10-1.92692E-07 0.00000E+00
 -1        27-1.49622E-02 6.41073E-05 0.00000E+00
 -1        28-1.49622E-02 9.41835E-05 0.00000E+00
 -1        29-3.00000E-02-3.00000E-02 0.00000E+00
 -1        30-3.00000E-02-3.00000E-02 0.00000E+00
 -1        31 0.00000E+00-1.92570E-07 0.00000E+00
 -1        32-4.08322E-10-1.92569E-07 0.00000E+00
 -1        33-1.49923E-02 6.41074E-05 0.00000E+00
 -1        34-1.49923E-02 9.41836E-05 0.00000E+00
 -1        35-3.00000E-02-3.00000E-02 0.00000E+00
 -1        36-3.00000E-02-3.00000E-02 0.00000E+00
 -1        37 0.00000E+00 0.00000E+00 2.19986E-15
 -1        38-1.83321E-15 0.00000E+00 2.19986E-15
 -1        39-9.62438E-08 0.00000E+00-5.15120E-13
 -1        40-9.62441E-08 0.00000E+00-5.15116E-13
 -1        41-1.92693E-07 0.00000E+00 1.70870E-10
 -1        42-1.92571E-07 0.00000E+00 1.71469E-10
 -1        43 0.00000E+00-1.83321E-15 2.19986E-15
 -1        44-1.83321E-15-1.83321E-15 2.19986E-15
 -1        45-9.62438E-08 1.22989E-12-5.15120E-13
 -1        46-9.62441E-08 1.22988E-12-5.15116E-13
 -1        47-1.92692E-07-4.06766E-10 1.70870E-10
 -1        48-1.92570E-07-4.08322E-10 1.71469E-10
 -1        49 0.00000E+00-9.62437E-08-5.15120E-13
 -1        50 1.22989E-12-9.62437E-08-5.15120E-13
 -1        51 4.51691E-05 4.51691E-05-7.33111E-13
 -1        52 4.51691E-05 4.51691E-05-1.03296E-12
 -1        53 6.41073E-05-1.49622E-02 1.71060E-10
 -1        54 6.41074E-05-1.49923E-02 1.71061E-10
 -1        55 0.00000E+00-9.62441E-08-5.15116E-13
 -1        56 1.22988E-12-9.62441E-08-5.15116E-13
 -1        57 4.51691E-05 4.51691E-05-1.03296E-12
 -1        58 4.51691E-05 4.51691E-05-1.33281E-12
 -1        59 9.41835E-05-1.49622E-02 1.70761E-10
 -1        60 9.41836E-05-1.49923E-02 1.70761E-10
 -1        61 0.00000E+00-1.92693E-07 1.70870E-10
 -1        62-4.06766E-10-1.92692E-07 1.70870E-10
 -1        63-1.49622E-02 6.41073E-05 1.71060E-10
 -1        64-1.49622E-02 9.41835E-05 1.70761E-10
 -1        65-3.00000E-02-3.00000E-02 4.59523E-19
 -1        66-3.00000E-02-3.00000E-02-1.20133E-18
 -1        67 0.00000E+00-1.92571E-07 1.71469E-10
 -1        68-4.08322E-10-1.92570E-07 1.71469E-10
 -1        69-1.49923E-02 6.41074E-05 1.71061E-10
 -1        70-1.49923E-02 9.41836E-05 1.70761E-10
 -1        71-3.00000E-02-3.00000E-02-1.06549E-18
 -1        72-3.00000E-02-3.00000E-02 1.13144E-18
 -3
    1PSTEP                         2           1           1          
  100CL  101 1.00000E-03          72                     0    1           1
 -4  STRESS      6    1
 -5  SXX         1    4    1    1
 -5  SYY         1    4    2    2
 -5  SZZ         1    4    3    3
 -5  SXY         1    4    1    2
 -5  SYZ         1    4    2    3
 -5  SZX         1    4    3    1
 -1         1-1.09988E-12-1.09988E-12-3.47269E-23-1.36706E-27 2.21382E-28 1.97456E-28
 -1         2-5.49942E-13-5.49942E-13 9.74693E-24 2.03270E-23 9.29878E-29-4.62790E-24
 -1         3-5.50061E-13 2.58101E-10 2.28832E-16 1.01443E-15-1.90868E-24-1.66816E-16
 -1         4-5.50994E-13 2.58098E-10-2.29160E-16 1.01614E-15-2.80002E-24-1.67864E-16
 -1         5 6.81113E-11-8.53868E-08 3.38481E-11 6.25850E-11-1.00814E-21-2.41770E-11
 -1         6-1.37323E-10-1.71550E-07-6.76953E-11 1.25169E-10-2.01917E-21-4.83541E-11
 -1         7-5.49942E-13-5.49942E-13 9.71984E-24 2.03190E-23-4.59658E-24 8.90745E-29
 -1         8-3.66628E-13-3.66628E-13 2.45595E-23 2.70978E-23-3.07384E-24-3.08325E-24
 -1         9-3.66704E-13 1.72067E-10 1.52893E-16 1.03000E-16 7.23546E-19-1.11152E-16
 -1        10-3.67326E-13 1.72065E-10-1.52382E-16 1.04141E-16 5.38121E-19-1.11852E-16
 -1        11 4.54067E-11-5.69245E-08 2.25651E-11-4.20905E-11-1.68785E-17-1.61180E-11
 -1        12-6.86630E-11-8.57750E-08-3.38480E-11-6.31361E-11-2.55952E-17-2.41770E-11
 -1        13 2.58101E-10-5.50061E-13 2.29238E-16 1.01445E-15-1.66438E-16-3.39330E-24
 -1        14 1.72067E-10-3.66704E-13 1.53346E-16 1.02874E-16-1.11081E-16 4.54064E-19
 -1        15 8.45055E-11 8.45055E-11-2.26038E-11-1.34647E-11 8.07279E-12 8.07279E-12
 -1        16 1.30174E-10 2.14131E-10 6.07159E-20 2.85138E-11 8.07279E-12 8.07279E-12
 -1        17 2.13971E-11-5.70767E-08-1.12674E-11 3.62272E-11 8.06039E-12-1.21639E-14
 -1        18 3.19914E-11-8.56154E-08-1.69533E-11 1.17213E-10 1.20905E-11-1.82075E-14
 -1        19 2.58098E-10-5.50995E-13-2.30065E-16 1.01633E-15-1.67176E-16-1.43119E-24
 -1        20 1.72065E-10-3.67326E-13-1.52679E-16 1.04128E-16-1.11853E-16 7.55634E-19
 -1        21 2.14131E-10 1.30174E-10 3.65902E-19 2.85138E-11 8.07279E-12 8.07279E-12
 -1        22 2.59800E-10 2.59800E-10 2.26038E-11 7.04924E-11 8.07279E-12 8.07279E-12
 -1        23 1.50825E-10-5.70311E-08 1.13017E-11 3.61636E-11 8.06055E-12-1.22408E-14
 -1        24 2.26134E-10-8.55470E-08 1.69016E-11 1.17117E-10 1.20907E-11-1.83630E-14
 -1        25-8.53868E-08 6.81113E-11 3.38481E-11 6.25850E-11-2.41770E-11-1.00645E-21
 -1        26-5.69245E-08 4.54067E-11 2.25651E-11-4.20905E-11-1.61180E-11-1.69952E-17
 -1        27-5.70767E-08 2.13975E-11-1.12672E-11 3.62275E-11-1.22243E-14 8.06056E-12
 -1        28-5.70311E-08 1.50826E-10 1.13022E-11 3.61636E-11-1.21957E-14 8.06029E-12
 -1        29-7.65580E-17-2.13983E-16-4.12104E-17-6.87125E-17-2.43618E-16-2.43618E-16
 -1        30 4.73028E-16 1.24235E-15 3.34415E-16 3.84659E-16 6.94649E-16 6.94648E-16
 -1        31-1.71550E-07-1.37323E-10-6.76953E-11 1.25169E-10-4.83541E-11-2.02020E-21
 -1        32-8.57750E-08-6.86630E-11-3.38480E-11-6.31361E-11-2.41770E-11-2.56656E-17
 -1        33-8.56154E-08 3.19915E-11-1.69531E-11 1.17213E-10-1.83355E-14 1.20903E-11
 -1        34-8.55470E-08 2.26134E-10 1.69009E-11 1.17117E-10-1.83148E-14 1.20911E-11
 -1        35-6.58778E-17-3.07759E-17-1.88817E-16 1.75510E-17-3.45875E-16-3.45873E-16
 -1        36-6.95689E-19-2.62722E-16 2.60403E-16-1.31013E-16-9.44606E-16-9.44605E-16
 -1        37-1.09988E-12-1.09988E-12-7.34707E-23-1.36999E-27-2.72611E-24-2.69503E-24
 -1        38-5.49942E-13-5.49942E-13-9.65471E-24 2.03312E-23-1.35960E-24-5.97552E-24
 -1        39-5.50064E-13 2.58101E-10 2.28904E-16 1.01455E-15-8.22555E-19 1.65943E-16
 -1        40-5.50998E-13 2.58098E-10-2.29672E-16 1.01626E-15-7.91229E-19 1.64894E-16
 -1        41 6.81113E-11-8.53868E-08 3.38480E-11 6.25850E-11 8.50686E-17 2.41770E-11
 -1        42-1.37323E-10-1.71550E-07-6.76954E-11 1.25169E-10 1.70217E-16 4.83541E-11
 -1        43-5.49942E-13-5.49942E-13-9.64546E-24 2.02991E-23-5.95972E-24-1.34410E-24
 -1        44-3.66628E-13-3.66628E-13 1.16291E-23 2.70873E-23-3.98030E-24-3.97938E-24
 -1        45-3.66706E-13 1.72067E-10 1.52943E-16 1.02823E-16 1.75177E-19 1.10710E-16
 -1        46-3.67328E-13 1.72065E-10-1.52722E-16 1.03962E-16 1.06371E-20 1.10008E-16
 -1        47 4.54067E-11-5.69245E-08 2.25651E-11-4.20905E-11 3.98345E-17 1.61180E-11
 -1        48-6.86630E-11-8.57750E-08-3.38481E-11-6.31361E-11 5.95145E-17 2.41770E-11
 -1        49 2.58101E-10-5.50063E-13 2.29110E-16 1.01418E-15 1.65930E-16-8.17459E-19
 -1        50 1.72067E-10-3.66706E-13 1.52680E-16 1.03120E-16 1.10561E-16-9.09063E-20
 -1        51 8.45055E-11 8.45055E-11-2.26038E-11-1.34647E-11-8.07279E-12-8.07279E-12
 -1        52 1.30174E-10 2.14131E-10-2.78688E-19 2.85138E-11-8.07279E-12-8.07279E-12
 -1        53 2.13973E-11-5.70767E-08-1.12673E-11 3.62272E-11-8.06064E-12 1.21724E-14
 -1        54 3.19921E-11-8.56154E-08-1.69526E-11 1.17212E-10-1.20907E-11 1.82929E-14
 -1        55 2.58098E-10-5.50996E-13-2.29231E-16 1.01548E-15 1.65188E-16-7.12211E-19
 -1        56 1.72065E-10-3.67328E-13-1.52714E-16 1.03986E-16 1.09792E-16 2.80828E-19
 -1        57 2.14131E-10 1.30174E-10 1.26713E-19 2.85138E-11-8.07279E-12-8.07279E-12
 -1        58 2.59800E-10 2.59800E-10 2.26038E-11 7.04924E-11-8.07279E-12-8.07279E-12
 -1        59 1.50825E-10-5.70311E-08 1.13020E-11 3.61635E-11-8.06033E-12 1.22099E-14
 -1        60 2.26134E-10-8.55470E-08 1.69012E-11 1.17117E-10-1.20904E-11 1.83141E-14
 -1        61-8.53868E-08 6.81113E-11 3.38480E-11 6.25850E-11 2.41770E-11 8.52408E-17
 -1        62-5.69245E-08 4.54067E-11 2.25651E-11-4.20905E-11 1.61180E-11 3.98326E-17
 -1        63-5.70767E-08 2.13968E-11-1.12679E-11 3.62269E-11 1.22025E-14-8.06058E-12
 -1        64-5.70311E-08 1.50825E-10 1.13014E-11 3.61637E-11 1.22335E-14-8.06034E-12
 -1        65 1.09119E-16 2.19265E-16 1.44467E-16 5.50725E-17 1.75744E-16 1.68429E-16
 -1        66-5.66423E-16-1.18304E-15-7.05036E-16-3.08309E-16 3.46154E-16 2.35948E-17
 -1        67-1.71550E-07-1.37323E-10-6.76954E-11 1.25169E-10 4.83541E-11 1.70223E-16
 -1        68-8.57750E-08-6.86630E-11-3.38481E-11-6.31361E-11 2.41770E-11 5.94469E-17
 -1        69-8.56154E-08 3.19921E-11-1.69525E-11 1.17212E-10 1.83063E-14-1.20905E-11
 -1        70-8.55470E-08 2.26134E-10 1.69014E-11 1.17117E-10 1.83245E-14-1.20908E-11
 -1        71-1.81750E-16-3.01143E-16-3.04689E-16-5.96969E-17-2.87617E-16 1.29990E-17
 -1        72 8.64197E-16 1.75536E-15 1.12530E-15 4.45582E-16-2.94786E-16-3.16730E-16
 -3
    1PSTEP                         3           1           1          
  100CL  101 1.00000E-03          72                     0    1           1
 -4  TOSTRAIN    6    1
 -5  EXX         1    4    1    1
 -5  EYY         1    4    2    2
 -5  EZZ         1    4    3    3
 -5  EXY         1    4    1    2
 -5  EYZ         1    4    2    3
 -5  EZX         1    4    3    1
 -1         1-3.66628E-18-3.66628E-18 3.14253E-18-8.46277E-33 1.37046E-33 1.22235E-33
 -1         2-1.83314E-18-1.83314E-18 1.57126E-18 1.25834E-28 5.75639E-34-2.86489E-29
 -1         3-3.71335E-16 1.22984E-15-3.67928E-16 6.27978E-21-1.18156E-29-1.03267E-21
 -1         4-3.71335E-16 1.22983E-15-3.67925E-16 6.29037E-21-1.73335E-29-1.03916E-21
 -1         5 1.22257E-13-4.06749E-13 1.22045E-13 3.87431E-16-6.24089E-27-1.49667E-16
 -1         6 2.44514E-13-8.16612E-13 2.44945E-13 7.74857E-16-1.24996E-26-2.99335E-16
 -1         7-1.83314E-18-1.83314E-18 1.57126E-18 1.25784E-28-2.84550E-29 5.51413E-34
 -1         8-1.22209E-18-1.22209E-18 1.04751E-18 1.67748E-28-1.90285E-29-1.90868E-29
 -1         9-2.47557E-16 8.19891E-16-2.45286E-16 6.37618E-22 4.47909E-24-6.88086E-22
 -1        10-2.47557E-16 8.19884E-16-2.45284E-16 6.44685E-22 3.33123E-24-6.92420E-22
 -1        11 8.15047E-14-2.71166E-13 8.13633E-14-2.60560E-16-1.04486E-22-9.97783E-17
 -1        12 1.22257E-13-4.08306E-13 1.22473E-13-3.90842E-16-1.58447E-22-1.49667E-16
 -1        13 1.22984E-15-3.71335E-16-3.67928E-16 6.27992E-21-1.03033E-21-2.10061E-29
 -1        14 8.19891E-16-2.47557E-16-2.45286E-16 6.36842E-22-6.87642E-22 2.81087E-24
 -1        15 3.13976E-16 3.13976E-16-3.49082E-16-8.33527E-17 4.99744E-17 4.99744E-17
 -1        16 3.13976E-16 8.33710E-16-4.91866E-16 1.76514E-16 4.99744E-17 4.99744E-17
 -1        17 8.16562E-14-2.71808E-13 8.14539E-14 2.24285E-16 4.98976E-17-7.53032E-20
 -1        18 1.22484E-13-4.07714E-13 1.22181E-13 7.25633E-16 7.48460E-17-1.12718E-19
 -1        19 1.22983E-15-3.71335E-16-3.67925E-16 6.29157E-21-1.03490E-21-8.85978E-30
 -1        20 8.19884E-16-2.47557E-16-2.45284E-16 6.44605E-22-6.92424E-22 4.67773E-24
 -1        21 8.33710E-16 3.13976E-16-4.91866E-16 1.76514E-16 4.99744E-17 4.99744E-17
 -1        22 8.33710E-16 8.33710E-16-6.34650E-16 4.36381E-16 4.99744E-17 4.99744E-17
 -1        23 8.21751E-14-2.71808E-13 8.13114E-14 2.23891E-16 4.98986E-17-7.57795E-20
 -1        24 1.23263E-13-4.07714E-13 1.21967E-13 7.25042E-16 7.48470E-17-1.13680E-19
 -1        25-4.06749E-13 1.22257E-13 1.22045E-13 3.87431E-16-1.49667E-16-6.23040E-27
 -1        26-2.71166E-13 8.15047E-14 8.13633E-14-2.60560E-16-9.97783E-17-1.05209E-22
 -1        27-2.71808E-13 8.16562E-14 8.14539E-14 2.24287E-16-7.56771E-20 4.98987E-17
 -1        28-2.71808E-13 8.21751E-14 8.13114E-14 2.23891E-16-7.55003E-20 4.98970E-17
 -1        29-3.08286E-44-8.50726E-22 2.18819E-22-4.25363E-22-1.50811E-21-1.50811E-21
 -1        30-4.62428E-44 4.76244E-21-8.58081E-22 2.38122E-21 4.30021E-21 4.30020E-21
 -1        31-8.16612E-13 2.44514E-13 2.44945E-13 7.74857E-16-2.99335E-16-1.25060E-26
 -1        32-4.08306E-13 1.22257E-13 1.22473E-13-3.90842E-16-1.49667E-16-1.58883E-22
 -1        33-4.07714E-13 1.22484E-13 1.22181E-13 7.25635E-16-1.13510E-19 7.48445E-17
 -1        34-4.07714E-13 1.23263E-13 1.21967E-13 7.25043E-16-1.13382E-19 7.48499E-17
 -1        35-3.90962E-43 2.17298E-22-7.61051E-22 1.08649E-22-2.14113E-21-2.14112E-21
 -1        36-7.81925E-43-1.62207E-21 1.61633E-21-8.11034E-22-5.84756E-21-5.84756E-21
 -1        37-3.66628E-18-3.66628E-18 3.14253E-18-8.48088E-33-1.68759E-29-1.66835E-29
 -1        38-1.83314E-18-1.83314E-18 1.57126E-18 1.25860E-28-8.41656E-30-3.69913E-29
 -1        39-3.71335E-16 1.22984E-15-3.67928E-16 6.28054E-21-5.09201E-24 1.02726E-21
 -1        40-3.71335E-16 1.22983E-15-3.67925E-16 6.29114E-21-4.89808E-24 1.02077E-21
 -1        41 1.22257E-13-4.06749E-13 1.22045E-13 3.87431E-16 5.26615E-22 1.49667E-16
 -1        42 2.44514E-13-8.16612E-13 2.44945E-13 7.74857E-16 1.05373E-21 2.99335E-16
 -1        43-1.83314E-18-1.83314E-18 1.57126E-18 1.25661E-28-3.68935E-29-8.32059E-30
 -1        44-1.22209E-18-1.22209E-18 1.04751E-18 1.67684E-28-2.46400E-29-2.46342E-29
 -1        45-2.47557E-16 8.19891E-16-2.45286E-16 6.36522E-22 1.08443E-24 6.85347E-22
 -1        46-2.47557E-16 8.19884E-16-2.45284E-16 6.43572E-22 6.58488E-26 6.80999E-22
 -1        47 8.15047E-14-2.71166E-13 8.13633E-14-2.60560E-16 2.46595E-22 9.97783E-17
 -1        48 1.22257E-13-4.08306E-13 1.22473E-13-3.90842E-16 3.68423E-22 1.49667E-16
 -1        49 1.22984E-15-3.71335E-16-3.67928E-16 6.27829E-21 1.02718E-21-5.06046E-24
 -1        50 8.19891E-16-2.47557E-16-2.45286E-16 6.38365E-22 6.84423E-22-5.62753E-25
 -1        51 3.13976E-16 3.13976E-16-3.49082E-16-8.33527E-17-4.99744E-17-4.99744E-17
 -1        52 3.13976E-16 8.33710E-16-4.91866E-16 1.76514E-16-4.99744E-17-4.99744E-17
 -1        53 8.16562E-14-2.71808E-13 8.14539E-14 2.24285E-16-4.98992E-17 7.53562E-20
 -1        54 1.22484E-13-4.07714E-13 1.22181E-13 7.25632E-16-7.48473E-17 1.13246E-19
 -1        55 1.22983E-15-3.71335E-16-3.67925E-16 6.28632E-21 1.02259E-21-4.40892E-24
 -1        56 8.19884E-16-2.47557E-16-2.45284E-16 6.43721E-22 6.79667E-22 1.73846E-24
 -1        57 8.33710E-16 3.13976E-16-4.91866E-16 1.76514E-16-4.99744E-17-4.99744E-17
 -1        58 8.33710E-16 8.33710E-16-6.34650E-16 4.36381E-16-4.99744E-17-4.99744E-17
 -1        59 8.21751E-14-2.71808E-13 8.13114E-14 2.23891E-16-4.98973E-17 7.55878E-20
 -1        60 1.23263E-13-4.07714E-13 1.21967E-13 7.25041E-16-7.48455E-17 1.13378E-19
 -1        61-4.06749E-13 1.22257E-13 1.22045E-13 3.87431E-16 1.49667E-16 5.27681E-22
 -1        62-2.71166E-13 8.15047E-14 8.13633E-14-2.60560E-16 9.97783E-17 2.46583E-22
 -1        63-2.71808E-13 8.16562E-14 8.14539E-14 2.24283E-16 7.55420E-20-4.98989E-17
 -1        64-2.71808E-13 8.21751E-14 8.13114E-14 2.23892E-16 7.57341E-20-4.98973E-17
 -1        65 1.54143E-43 6.81850E-22 2.18819E-22 3.40925E-22 1.08794E-21 1.04266E-21
 -1        66 2.31214E-43-3.81715E-21-8.58081E-22-1.90858E-21 2.14286E-21 1.46063E-22
 -1        67-8.16612E-13 2.44514E-13 2.44945E-13 7.74857E-16 2.99335E-16 1.05376E-21
 -1        68-4.08306E-13 1.22257E-13 1.22473E-13-3.90842E-16 1.49667E-16 3.68005E-22
 -1        69-4.07714E-13 1.22484E-13 1.22181E-13 7.25630E-16 1.13329E-19-7.48462E-17
 -1        70-4.07714E-13 1.23263E-13 1.21967E-13 7.25043E-16 1.13442E-19-7.48481E-17
 -1        71 1.95481E-42-7.39104E-22-7.61051E-22-3.69552E-22-1.78048E-21 8.04701E-23
 -1        72 3.90962E-42 5.51673E-21 1.61633E-21 2.75836E-21-1.82487E-21-1.96071E-21
 -3
    1PSTEP                         4           2           1          
  100CL  102 2.00000E-03          72                     0    2           1
 -4  DISP        4    1
 -5  D1          1    2    1    0
 -5  D2          1    2    2    0
 -5  D3          1    2    3    0
 -5  ALL         1    2    0    0    1ALL
 -1         1 0.00000E+00 0.00000E+00 0.00000E+00
 -1         2-1.47603E-14 0.00000E+00 0.00000E+00
 -1         3-7.74914E-07 0.00000E+00 0.00000E+00
 -1         4-7.74915E-07 0.00000E+00 0.00000E+00
 -1         5-1.55313E-06 0.00000E+00 0.00000E+00
 -1         6-1.55289E-06 0.00000E+00 0.00000E+00
 -1         7 0.00000E+00-1.47603E-14 0.00000E+00
 -1         8-1.47603E-14-1.47603E-14 0.00000E+00
 -1         9-7.74914E-07 4.94132E-12 0.00000E+00
 -1        10-7.74915E-07 4.94114E-12 0.00000E+00
 -1        11-1.55313E-06-8.10710E-10 0.00000E+00
 -1        12-1.55289E-06-8.16932E-10 0.00000E+00
 -1        13 0.00000E+00-7.74914E-07 0.00000E+00
 -1        14 4.94132E-12-7.74914E-07 0.00000E+00
 -1        15 1.81356E-04 1.81356E-04 0.00000E+00
 -1        16 1.81356E-04 1.81356E-04 0.00000E+00
 -1        17 2.57872E-04-2.98477E-02 0.00000E+00
 -1        18 2.57872E-04-2.99683E-02 0.00000E+00
 -1        19 0.00000E+00-7.74915E-07 0.00000E+00
 -1        20 4.94114E-12-7.74915E-07 0.00000E+00
 -1        21 1.81356E-04 1.81356E-04 0.00000E+00
 -1        22 1.81356E-04 1.81356E-04 0.00000E+00
 -1        23 3.78481E-04-2.98477E-02 0.00000E+00
 -1        24 3.78481E-04-2.99683E-02 0.00000E+00
 -1        25 0.00000E+00-1.55313E-06 0.00000E+00
 -1        26-8.10710E-10-1.55313E-06 0.00000E+00
 -1        27-2.98477E-02 2.57872E-04 0.00000E+00
 -1        28-2.98477E-02 3.78481E-04 0.00000E+00
 -1        29-6.00000E-02-6.00000E-02 0.00000E+00
 -1        30-6.00000E-02-6.00000E-02 0.00000E+00
 -1        31 0.00000E+00-1.55289E-06 0.00000E+00
 -1        32-8.16932E-10-1.55289E-06 0.00000E+00
 -1        33-2.99683E-02 2.57872E-04 0.00000E+00
 -1        34-2.99683E-02 3.78481E-04 0.00000E+00
 -1        35-6.00000E-02-6.00000E-02 0.00000E+00
 -1        36-6.00000E-02-6.00000E-02 0.00000E+00
 -1        37 0.00000E+00 0.00000E+00 1.77123E-14
 -1        38-1.47603E-14 0.00000E+00 1.77123E-14
 -1        39-7.74914E-07 0.00000E+00-2.06381E-12
 -1        40-7.74915E-07 0.00000E+00-2.06375E-12
 -1        41-1.55313E-06 0.00000E+00 3.40614E-10
 -1        42-1.55289E-06 0.00000E+00 3.43007E-10
 -1        43 0.00000E+00-1.47603E-14 1.77123E-14
 -1        44-1.47603E-14-1.47603E-14 1.77123E-14
 -1        45-7.74914E-07 4.94132E-12-2.06381E-12
 -1        46-7.74915E-07 4.94114E-12-2.06375E-12
 -1        47-1.55313E-06-8.10710E-10 3.40614E-10
 -1        48-1.55289E-06-8.16932E-10 3.43007E-10
 -1        49 0.00000E+00-7.74914E-07-2.06381E-12
 -1        50 4.94132E-12-7.74914E-07-2.06381E-12
 -1        51 1.81356E-04 1.81356E-04-2.94891E-12
 -1        52 1.81356E-04 1.81356E-04-4.14952E-12
 -1        53 2.57872E-04-2.98477E-02 3.41367E-10
 -1        54 2.57872E-04-2.99683E-02 3.41371E-10
 -1        55 0.00000E+00-7.74915E-07-2.06375E-12
 -1        56 4.94114E-12-7.74915E-07-2.06375E-12
 -1        57 1.81356E-04 1.81356E-04-4.14952E-12
 -1        58 1.81356E-04 1.81356E-04-5.35013E-12
 -1        59 3.78481E-04-2.98477E-02 3.40171E-10
 -1        60 3.78481E-04-2.99683E-02 3.40174E-10
 -1        61 0.00000E+00-1.55313E-06 3.40614E-10
 -1        62-8.10710E-10-1.55313E-06 3.40614E-10
 -1        63-2.98477E-02 2.57872E-04 3.41367E-10
 -1        64-2.98477E-02 3.78481E-04 3.40171E-10
 -1        65-6.00000E-02-6.00000E-02 8.80115E-19
 -1        66-6.00000E-02-6.00000E-02-2.42270E-18
 -1        67 0.00000E+00-1.55289E-06 3.43007E-10
 -1        68-8.16932E-10-1.55289E-06 3.43007E-10
 -1        69-2.99683E-02 2.57872E-04 3.41371E-10
 -1        70-2.99683E-02 3.78481E-04 3.40174E-10
 -1        71-6.00000E-02-6.00000E-02-2.15101E-18
 -1        72-6.00000E-02-6.00000E-02 2.26134E-18
 -3
    1PSTEP                         5           2           1          
  100CL  102 2.00000E-03          72                     0    2           1
 -4  STRESS      6    1
 -5  SXX         1    4    1    1
 -5  SYY         1    4    2    2
 -5  SZZ         1    4    3    3
 -5  SXY         1    4    1    2
 -5  SYZ         1    4    2    3
 -5  SZX         1    4    3    1
 -1         1-8.85580E-12-8.85580E-12-1.41904E-22-5.86437E-27 6.96999E-28 8.36126E-28
 -1         2-4.42790E-12-4.42790E-12 4.15237E-23 8.33763E-23 4.62053E-28-1.91622E-23
 -1         3-4.42981E-12 1.03631E-09 3.72223E-15 1.63688E-14-1.06164E-23-2.67074E-15
 -1         4-4.44488E-12 1.03626E-09-3.72368E-15 1.63754E-14-9.78520E-24-2.67479E-15
 -1         5 2.71128E-10-1.70120E-07 1.35295E-10 2.49037E-10-1.63383E-20-9.66373E-11
 -1         6-5.51126E-10-3.43344E-07-2.70578E-10 4.98060E-10-3.26774E-20-1.93274E-10
 -1         7-4.42790E-12-4.42790E-12 4.15605E-23 8.33637E-23-1.91876E-23 3.18361E-28
 -1         8-2.95194E-12-2.95194E-12 1.02698E-22 1.11162E-22-1.27885E-23-1.27879E-23
 -1         9-2.95319E-12 6.90871E-10 2.48281E-15 1.67124E-15 2.43464E-18-1.78055E-15
 -1        10-2.96324E-12 6.90843E-10-2.48119E-15 1.67564E-15 2.61997E-18-1.78324E-15
 -1        11 1.80738E-10-1.13414E-07 9.01929E-11-1.68985E-10-2.83172E-16-6.44249E-11
 -1        12-2.75583E-10-1.71672E-07-1.35295E-10-2.53483E-10-4.24735E-16-9.66371E-11
 -1        13 1.03631E-09-4.42981E-12 3.72209E-15 1.63687E-14-2.67077E-15-1.08330E-23
 -1        14 6.90871E-10-2.95319E-12 2.48258E-15 1.67139E-15-1.78050E-15 2.58510E-18
 -1        15 3.40613E-10 3.40613E-10-9.05071E-11-5.42585E-11 3.23240E-11 3.23240E-11
 -1        16 5.23474E-10 8.59643E-10 1.99591E-18 1.13826E-10 3.23240E-11 3.23240E-11
 -1        17 8.73510E-11-1.14022E-07-4.49741E-11 1.45126E-10 3.22239E-11-9.85239E-14
 -1        18 1.30188E-10-1.71035E-07-6.78775E-11 4.69032E-10 4.83346E-11-1.47721E-13
 -1        19 1.03626E-09-4.44488E-12-3.72350E-15 1.63753E-14-2.67479E-15-1.08192E-23
 -1        20 6.90843E-10-2.96324E-12-2.48113E-15 1.67578E-15-1.78321E-15 2.58172E-18
 -1        21 8.59643E-10 5.23474E-10-7.56590E-19 1.13826E-10 3.23240E-11 3.23240E-11
 -1        22 1.04250E-09 1.04250E-09 9.05071E-11 2.81911E-10 3.23240E-11 3.23240E-11
 -1        23 6.04769E-10-1.13840E-07 4.52514E-11 1.44612E-10 3.22234E-11-9.85305E-14
 -1        24 9.06316E-10-1.70762E-07 6.74624E-11 4.68262E-10 4.83357E-11-1.47875E-13
 -1        25-1.70120E-07 2.71128E-10 1.35295E-10 2.49037E-10-9.66373E-11-1.63438E-20
 -1        26-1.13414E-07 1.80738E-10 9.01929E-11-1.68985E-10-6.44249E-11-2.83057E-16
 -1        27-1.14022E-07 8.73508E-11-4.49746E-11 1.45126E-10-9.86019E-14 3.22235E-11
 -1        28-1.13840E-07 6.04769E-10 4.52517E-11 1.44613E-10-9.84671E-14 3.22234E-11
 -1        29-1.55362E-16-4.30212E-16-8.76614E-17-1.37425E-16-4.87236E-16-4.87236E-16
 -1        30 9.44323E-16 2.48296E-15 6.64786E-16 7.69318E-16 1.38930E-15 1.38930E-15
 -1        31-3.43344E-07-5.51126E-10-2.70578E-10 4.98060E-10-1.93274E-10-3.26757E-20
 -1        32-1.71672E-07-2.75583E-10-1.35295E-10-2.53483E-10-9.66371E-11-4.24574E-16
 -1        33-1.71035E-07 1.30188E-10-6.78773E-11 4.69032E-10-1.47887E-13 4.83346E-11
 -1        34-1.70762E-07 9.06315E-10 6.74617E-11 4.68263E-10-1.47681E-13 4.83357E-11
 -1        35-1.33489E-16-6.32852E-17-3.81678E-16 3.51020E-17-6.91749E-16-6.91747E-16
 -1        36-1.65697E-18-5.25710E-16 5.20187E-16-2.62026E-16-1.88921E-15-1.88921E-15
 -1        37-8.85580E-12-8.85580E-12-3.02975E-22-5.56326E-27-1.00429E-23-1.00587E-23
 -1        38-4.42790E-12-4.42790E-12-3.90046E-23 8.33485E-23-5.01789E-24-2.41919E-23
 -1        39-4.42982E-12 1.03631E-09 3.72143E-15 1.63687E-14-3.17243E-18 2.66806E-15
 -1        40-4.44489E-12 1.03626E-09-3.72390E-15 1.63753E-14-3.20465E-18 2.66405E-15
 -1        41 2.71128E-10-1.70120E-07 1.35295E-10 2.49037E-10 1.39072E-15 9.66371E-11
 -1        42-5.51126E-10-3.43344E-07-2.70579E-10 4.98060E-10 2.78151E-15 1.93275E-10
 -1        43-4.42790E-12-4.42790E-12-3.90162E-23 8.33705E-23-2.42094E-23-5.02522E-24
 -1        44-2.95194E-12-2.95194E-12 4.89860E-23 1.11148E-22-1.61340E-23-1.61384E-23
 -1        45-2.95320E-12 6.90871E-10 2.48230E-15 1.67141E-15 3.19693E-19 1.77861E-15
 -1        46-2.96325E-12 6.90843E-10-2.48131E-15 1.67583E-15 4.83541E-19 1.77594E-15
 -1        47 1.80738E-10-1.13414E-07 9.01926E-11-1.68985E-10 6.43982E-16 6.44248E-11
 -1        48-2.75584E-10-1.71672E-07-1.35295E-10-2.53483E-10 9.66035E-16 9.66373E-11
 -1        49 1.03631E-09-4.42982E-12 3.72169E-15 1.63687E-14 2.66801E-15-3.24076E-18
 -1        50 6.90871E-10-2.95320E-12 2.48235E-15 1.67136E-15 1.77865E-15 4.24597E-19
 -1        51 3.40613E-10 3.40613E-10-9.05071E-11-5.42585E-11-3.23240E-11-3.23240E-11
 -1        52 5.23474E-10 8.59643E-10 2.87407E-18 1.13826E-10-3.23240E-11-3.23240E-11
 -1        53 8.73499E-11-1.14022E-07-4.49753E-11 1.45125E-10-3.22235E-11 9.84644E-14
 -1        54 1.30191E-10-1.71035E-07-6.78751E-11 4.69031E-10-4.83351E-11 1.47763E-13
 -1        55 1.03626E-09-4.44489E-12-3.72391E-15 1.63753E-14 2.66390E-15-3.23076E-18
 -1        56 6.90843E-10-2.96325E-12-2.48137E-15 1.67578E-15 1.77596E-15 4.27893E-19
 -1        57 8.59643E-10 5.23474E-10-3.48616E-18 1.13826E-10-3.23240E-11-3.23240E-11
 -1        58 1.04250E-09 1.04250E-09 9.05071E-11 2.81911E-10-3.23240E-11-3.23240E-11
 -1        59 6.04767E-10-1.13840E-07 4.52501E-11 1.44613E-10-3.22239E-11 9.86167E-14
 -1        60 9.06317E-10-1.70762E-07 6.74637E-11 4.68264E-10-4.83347E-11 1.47821E-13
 -1        61-1.70120E-07 2.71128E-10 1.35295E-10 2.49037E-10 9.66371E-11 1.39062E-15
 -1        62-1.13414E-07 1.80738E-10 9.01926E-11-1.68985E-10 6.44248E-11 6.44034E-16
 -1        63-1.14022E-07 8.73509E-11-4.49745E-11 1.45125E-10 9.85089E-14-3.22236E-11
 -1        64-1.13840E-07 6.04769E-10 4.52517E-11 1.44613E-10 9.85360E-14-3.22236E-11
 -1        65 2.15993E-16 4.36283E-16 2.83694E-16 1.10145E-16 3.52505E-16 3.37876E-16
 -1        66-1.13458E-15-2.36781E-15-1.41412E-15-6.16617E-16 6.93801E-16 4.87160E-17
 -1        67-3.43344E-07-5.51126E-10-2.70579E-10 4.98060E-10 1.93275E-10 2.78134E-15
 -1        68-1.71672E-07-2.75584E-10-1.35295E-10-2.53483E-10 9.66373E-11 9.66113E-16
 -1        69-1.71035E-07 1.30190E-10-6.78757E-11 4.69032E-10 1.47784E-13-4.83348E-11
 -1        70-1.70762E-07 9.06317E-10 6.74633E-11 4.68263E-10 1.47823E-13-4.83358E-11
 -1        71-3.65233E-16-6.04020E-16-6.13422E-16-1.19394E-16-5.73707E-16 2.74919E-17
 -1        72 1.72813E-15 3.51045E-15 2.24997E-15 8.91163E-16-5.86585E-16-6.30472E-16
 -3
    1PSTEP                         6           2           1          
  100CL  102 2.00000E-03          72                     0    2           1
 -4  TOSTRAIN    6    1
 -5  EXX         1    4    1    1
 -5  EYY         1    4    2    2
 -5  EZZ         1    4    3    3
 -5  EXY         1    4    1    2
 -5  EYZ         1    4    2    3
 -5  EZX         1    4    3    1
 -1         1-2.95193E-17-2.95193E-17 2.53023E-17-3.63032E-32 4.31476E-33 5.17602E-33
 -1         2-1.47597E-17-1.47597E-17 1.26512E-17 5.16139E-28 2.86033E-33-1.18623E-28
 -1         3-1.50154E-15 4.94112E-15-1.47409E-15 1.01331E-19-6.57206E-29-1.65332E-20
 -1         4-1.50154E-15 4.94095E-15-1.47405E-15 1.01372E-19-6.05750E-29-1.65583E-20
 -1         5 2.44127E-13-8.10678E-13 2.43286E-13 1.54165E-15-1.01142E-25-5.98231E-16
 -1         6 4.88254E-13-1.63380E-12 4.89990E-13 3.08323E-15-2.02288E-25-1.19646E-15
 -1         7-1.47597E-17-1.47597E-17 1.26512E-17 5.16061E-28-1.18781E-28 1.97081E-33
 -1         8-9.83978E-18-9.83978E-18 8.43410E-18 6.88145E-28-7.91667E-29-7.91631E-29
 -1         9-1.00103E-15 3.29408E-15-9.82728E-16 1.03457E-20 1.50716E-23-1.10224E-20
 -1        10-1.00103E-15 3.29396E-15-9.82697E-16 1.03730E-20 1.62189E-23-1.10391E-20
 -1        11 1.62751E-13-5.40452E-13 1.62191E-13-1.04610E-15-1.75297E-21-3.98821E-16
 -1        12 2.44127E-13-8.16899E-13 2.44995E-13-1.56918E-15-2.62931E-21-5.98230E-16
 -1        13 4.94112E-15-1.50154E-15-1.47409E-15 1.01330E-19-1.65334E-20-6.70613E-29
 -1        14 3.29408E-15-1.00103E-15-9.82728E-16 1.03467E-20-1.10221E-20 1.60030E-23
 -1        15 1.26467E-15 1.26467E-15-1.40417E-15-3.35886E-16 2.00101E-16 2.00101E-16
 -1        16 1.26467E-15 3.34572E-15-1.97588E-15 7.04638E-16 2.00101E-16 2.00101E-16
 -1        17 1.63369E-13-5.43022E-13 1.62549E-13 8.98568E-16 1.99481E-16-6.09958E-19
 -1        18 2.45053E-13-8.14542E-13 2.43827E-13 2.90379E-15 2.99214E-16-9.14535E-19
 -1        19 4.94095E-15-1.50154E-15-1.47405E-15 1.01371E-19-1.65582E-20-6.69761E-29
 -1        20 3.29396E-15-1.00103E-15-9.82697E-16 1.03739E-20-1.10389E-20 1.59821E-23
 -1        21 3.34572E-15 1.26467E-15-1.97588E-15 7.04638E-16 2.00101E-16 2.00101E-16
 -1        22 3.34572E-15 3.34572E-15-2.54760E-15 1.74516E-15 2.00101E-16 2.00101E-16
 -1        23 1.65443E-13-5.43022E-13 1.61979E-13 8.95390E-16 1.99478E-16-6.09999E-19
 -1        24 2.48165E-13-8.14542E-13 2.42972E-13 2.89902E-15 2.99221E-16-9.15488E-19
 -1        25-8.10678E-13 2.44127E-13 2.43286E-13 1.54165E-15-5.98231E-16-1.01176E-25
 -1        26-5.40452E-13 1.62751E-13 1.62191E-13-1.04610E-15-3.98821E-16-1.75226E-21
 -1        27-5.43022E-13 1.63369E-13 1.62549E-13 8.98569E-16-6.10441E-19 1.99479E-16
 -1        28-5.43022E-13 1.65443E-13 1.61979E-13 8.95391E-16-6.09607E-19 1.99478E-16
 -1        29-1.09301E-43-1.70145E-21 4.19099E-22-8.50726E-22-3.01623E-21-3.01622E-21
 -1        30-1.65353E-43 9.52489E-21-1.73047E-21 4.76244E-21 8.60042E-21 8.60041E-21
 -1        31-1.63380E-12 4.88254E-13 4.89990E-13 3.08323E-15-1.19646E-15-2.02278E-25
 -1        32-8.16899E-13 2.44127E-13 2.44995E-13-1.56918E-15-5.98230E-16-2.62832E-21
 -1        33-8.14542E-13 2.45053E-13 2.43827E-13 2.90379E-15-9.15562E-19 2.99214E-16
 -1        34-8.14542E-13 2.48165E-13 2.42972E-13 2.89902E-15-9.14288E-19 2.99221E-16
 -1        35-1.59188E-42 4.34596E-22-1.53641E-21 2.17298E-22-4.28226E-21-4.28224E-21
 -1        36-3.18235E-42-3.24414E-21 3.23046E-21-1.62207E-21-1.16951E-20-1.16951E-20
 -1        37-2.95193E-17-2.95193E-17 2.53023E-17-3.44393E-32-6.21705E-29-6.22680E-29
 -1        38-1.47597E-17-1.47597E-17 1.26512E-17 5.15967E-28-3.10631E-29-1.49759E-28
 -1        39-1.50154E-15 4.94112E-15-1.47409E-15 1.01330E-19-1.96388E-23 1.65166E-20
 -1        40-1.50154E-15 4.94095E-15-1.47405E-15 1.01371E-19-1.98383E-23 1.64917E-20
 -1        41 2.44127E-13-8.10678E-13 2.43286E-13 1.54165E-15 8.60919E-21 5.98230E-16
 -1        42 4.88254E-13-1.63380E-12 4.89990E-13 3.08323E-15 1.72189E-20 1.19646E-15
 -1        43-1.47597E-17-1.47597E-17 1.26512E-17 5.16103E-28-1.49868E-28-3.11085E-29
 -1        44-9.83978E-18-9.83978E-18 8.43410E-18 6.88058E-28-9.98774E-29-9.99045E-29
 -1        45-1.00103E-15 3.29408E-15-9.82728E-16 1.03468E-20 1.97905E-24 1.10104E-20
 -1        46-1.00103E-15 3.29396E-15-9.82697E-16 1.03742E-20 2.99335E-24 1.09939E-20
 -1        47 1.62751E-13-5.40452E-13 1.62191E-13-1.04610E-15 3.98656E-21 3.98820E-16
 -1        48 2.44127E-13-8.16899E-13 2.44995E-13-1.56918E-15 5.98022E-21 5.98231E-16
 -1        49 4.94112E-15-1.50154E-15-1.47409E-15 1.01330E-19 1.65162E-20-2.00618E-23
 -1        50 3.29408E-15-1.00103E-15-9.82728E-16 1.03465E-20 1.10107E-20 2.62845E-24
 -1        51 1.26467E-15 1.26467E-15-1.40417E-15-3.35886E-16-2.00101E-16-2.00101E-16
 -1        52 1.26467E-15 3.34572E-15-1.97588E-15 7.04638E-16-2.00101E-16-2.00101E-16
 -1        53 1.63369E-13-5.43022E-13 1.62549E-13 8.98563E-16-1.99479E-16 6.09590E-19
 -1        54 2.45053E-13-8.14542E-13 2.43827E-13 2.90378E-15-2.99217E-16 9.14796E-19
 -1        55 4.94095E-15-1.50154E-15-1.47405E-15 1.01371E-19 1.64908E-20-1.99999E-23
 -1        56 3.29396E-15-1.00103E-15-9.82697E-16 1.03739E-20 1.09940E-20 2.64886E-24
 -1        57 3.34572E-15 1.26467E-15-1.97588E-15 7.04638E-16-2.00101E-16-2.00101E-16
 -1        58 3.34572E-15 3.34572E-15-2.54760E-15 1.74516E-15-2.00101E-16-2.00101E-16
 -1        59 1.65443E-13-5.43022E-13 1.61979E-13 8.95397E-16-1.99481E-16 6.10533E-19
 -1        60 2.48165E-13-8.14542E-13 2.42972E-13 2.89903E-15-2.99215E-16 9.15156E-19
 -1        61-8.10678E-13 2.44127E-13 2.43286E-13 1.54165E-15 5.98230E-16 8.60859E-21
 -1        62-5.40452E-13 1.62751E-13 1.62191E-13-1.04610E-15 3.98820E-16 3.98687E-21
 -1        63-5.43022E-13 1.63369E-13 1.62549E-13 8.98564E-16 6.09865E-19-1.99480E-16
 -1        64-5.43022E-13 1.65443E-13 1.61979E-13 8.95394E-16 6.10033E-19-1.99479E-16
 -1        65 5.49309E-43 1.36370E-21 4.19099E-22 6.81850E-22 2.18218E-21 2.09162E-21
 -1        66 8.22562E-43-7.63431E-21-1.73047E-21-3.81715E-21 4.29496E-21 3.01575E-22
 -1        67-1.63380E-12 4.88254E-13 4.89990E-13 3.08323E-15 1.19646E-15 1.72178E-20
 -1        68-8.16899E-13 2.44127E-13 2.44995E-13-1.56918E-15 5.98231E-16 5.98070E-21
 -1        69-8.14542E-13 2.45053E-13 2.43827E-13 2.90379E-15 9.14924E-19-2.99216E-16
 -1        70-8.14542E-13 2.48165E-13 2.42972E-13 2.89903E-15 9.15165E-19-2.99222E-16
 -1        71 7.95657E-42-1.47821E-21-1.53641E-21-7.39104E-22-3.55152E-21 1.70188E-22
 -1        72 1.59131E-41 1.10335E-20 3.23046E-21 5.51673E-21-3.63124E-21-3.90292E-21
 -3
    1PSTEP                         7           3           1          
  100CL  103 3.50000E-03          72                     0    3           1
 -4  DISP        4    1
 -5  D1          1    2    1    0
 -5  D2          1    2    2    0
 -5  D3          1    2    3    0
 -5  ALL         1    2    0    0    1ALL
 -1         1 0.00000E+00 0.00000E+00 0.00000E+00
 -1         2-7.98681E-14 0.00000E+00 0.00000E+00
 -1         3-4.19307E-06 0.00000E+00 0.00000E+00
 -1         4-4.19308E-06 0.00000E+00 0.00000E+00
 -1         5-8.41759E-06 0.00000E+00 0.00000E+00
 -1         6-8.41716E-06 0.00000E+00 0.00000E+00
 -1         7 0.00000E+00-7.98681E-14 0.00000E+00
 -1         8-7.98681E-14-7.98681E-14 0.00000E+00
 -1         9-4.19307E-06 1.52339E-11 0.00000E+00
 -1        10-4.19308E-06 1.52322E-11 0.00000E+00
 -1        11-8.41758E-06-1.41125E-09 0.00000E+00
 -1        12-8.41715E-06-1.43028E-09 0.00000E+00
 -1        13 0.00000E+00-4.19307E-06 0.00000E+00
 -1        14 1.52339E-11-4.19307E-06 0.00000E+00
 -1        15 5.58536E-04 5.58536E-04 0.00000E+00
 -1        16 5.58536E-04 5.58536E-04 0.00000E+00
 -1        17 7.96437E-04-5.20284E-02 0.00000E+00
 -1        18 7.96437E-04-5.23992E-02 0.00000E+00
 -1        19 0.00000E+00-4.19308E-06 0.00000E+00
 -1        20 1.52322E-11-4.19308E-06 0.00000E+00
 -1        21 5.58536E-04 5.58536E-04 0.00000E+00
 -1        22 5.58536E-04 5.58536E-04 0.00000E+00
 -1        23 1.16720E-03-5.20284E-02 0.00000E+00
 -1        24 1.16720E-03-5.23992E-02 0.00000E+00
 -1        25 0.00000E+00-8.41759E-06 0.00000E+00
 -1        26-1.41125E-09-8.41758E-06 0.00000E+00
 -1        27-5.20284E-02 7.96437E-04 0.00000E+00
 -1        28-5.20284E-02 1.16720E-03 0.00000E+00
 -1        29-1.05000E-01-1.05000E-01 0.00000E+00
 -1        30-1.05000E-01-1.05000E-01 0.00000E+00
 -1        31 0.00000E+00-8.41716E-06 0.00000E+00
 -1        32-1.43028E-09-8.41715E-06 0.00000E+00
 -1        33-5.23992E-02 7.96437E-04 0.00000E+00
 -1        34-5.23992E-02 1.16720E-03 0.00000E+00
 -1        35-1.05000E-01-1.05000E-01 0.00000E+00
 -1        36-1.05000E-01-1.05000E-01 0.00000E+00
 -1        37 0.00000E+00 0.00000E+00 9.58417E-14
 -1        38-7.98681E-14 0.00000E+00 9.58417E-14
 -1        39-4.19307E-06 0.00000E+00-6.33567E-12
 -1        40-4.19308E-06 0.00000E+00-6.33504E-12
 -1        41-8.41759E-06 0.00000E+00 5.93093E-10
 -1        42-8.41717E-06 0.00000E+00 6.00412E-10
 -1        43 0.00000E+00-7.98681E-14 9.58417E-14
 -1        44-7.98681E-14-7.98681E-14 9.58417E-14
 -1        45-4.19307E-06 1.52339E-11-6.33567E-12
 -1        46-4.19308E-06 1.52322E-11-6.33504E-12
 -1        47-8.41758E-06-1.41125E-09 5.93093E-10
 -1        48-8.41716E-06-1.43028E-09 6.00413E-10
 -1        49 0.00000E+00-4.19307E-06-6.33567E-12
 -1        50 1.52339E-11-4.19307E-06-6.33567E-12
 -1        51 5.58536E-04 5.58536E-04-9.10751E-12
 -1        52 5.58536E-04 5.58536E-04-1.27899E-11
 -1        53 7.96437E-04-5.20284E-02 5.95363E-10
 -1        54 7.96437E-04-5.23992E-02 5.95383E-10
 -1        55 0.00000E+00-4.19308E-06-6.33504E-12
 -1        56 1.52322E-11-4.19308E-06-6.33504E-12
 -1        57 5.58536E-04 5.58536E-04-1.27899E-11
 -1        58 5.58536E-04 5.58536E-04-1.64722E-11
 -1        59 1.16720E-03-5.20284E-02 5.91701E-10
 -1        60 1.16720E-03-5.23992E-02 5.91721E-10
 -1        61 0.00000E+00-8.41759E-06 5.93093E-10
 -1        62-1.41125E-09-8.41758E-06 5.93093E-10
 -1        63-5.20284E-02 7.96437E-04 5.95363E-10
 -1        64-5.20284E-02 1.16720E-03 5.91701E-10
 -1        65-1.05000E-01-1.05000E-01-3.93157E-18
 -1        66-1.05000E-01-1.05000E-01 1.36572E-18
 -1        67 0.00000E+00-8.41717E-06 6.00412E-10
 -1        68-1.43028E-09-8.41716E-06 6.00413E-10
 -1        69-5.23992E-02 7.96437E-04 5.95383E-10
 -1        70-5.23992E-02 1.16720E-03 5.91721E-10
 -1        71-1.05000E-01-1.05000E-01 6.12022E-18
 -1        72-1.05000E-01-1.05000E-01-2.01376E-18
 -3
    1PSTEP                         8           3           1          
  100CL  103 3.50000E-03          72                     0    3           1
 -4  STRESS      6    1
 -5  SXX         1    4    1    1
 -5  SYY         1    4    2    2
 -5  SZZ         1    4    3    3
 -5  SXY         1    4    1    2
 -5  SYZ         1    4    2    3
 -5  SZX         1    4    3    1
 -1         1-4.79189E-11-4.79189E-11-4.91206E-22-2.01510E-26 2.07225E-27 3.15168E-27
 -1         2-2.39595E-11-2.39595E-11 1.72309E-22 2.93657E-22 1.47358E-27-7.15268E-23
 -1         3-2.39776E-11 3.19180E-09 3.54635E-14 1.55715E-13-3.32337E-23-2.53676E-14
 -1         4-2.41210E-11 3.19140E-09-3.54682E-14 1.55735E-13-3.32728E-23-2.53798E-14
 -1         5 8.24093E-10-2.95979E-07 4.13862E-10 7.56503E-10-1.56465E-19-2.95594E-10
 -1         6-1.69624E-09-6.01451E-07-8.27598E-10 1.51289E-09-3.12921E-19-5.91185E-10
 -1         7-2.39595E-11-2.39595E-11 1.72150E-22 2.94172E-22-7.17937E-23 6.31598E-28
 -1         8-1.59730E-11-1.59730E-11 3.93398E-22 3.91892E-22-4.78787E-23-4.76869E-23
 -1         9-1.59850E-11 2.12787E-09 2.36461E-14 1.59216E-14 7.86195E-18-1.69117E-14
 -1        10-1.60806E-11 2.12760E-09-2.36418E-14 1.59349E-14 7.88044E-18-1.69199E-14
 -1        11 5.49264E-10-1.97319E-07 2.75870E-10-5.20388E-10-2.72864E-15-1.97063E-10
 -1        12-8.48317E-10-3.00726E-07-4.13857E-10-7.80642E-10-4.09286E-15-2.95592E-10
 -1        13 3.19180E-09-2.39776E-11 3.54637E-14 1.55715E-13-2.53675E-14-3.28576E-23
 -1        14 2.12787E-09-1.59850E-11 2.36462E-14 1.59214E-14-1.69118E-14 7.71567E-18
 -1        15 1.05518E-09 1.05518E-09-2.77592E-10-1.68009E-10 9.91399E-11 9.91399E-11
 -1        16 1.61603E-09 2.64709E-09 1.81365E-18 3.47519E-10 9.91399E-11 9.91399E-11
 -1        17 2.75796E-10-1.99180E-07-1.37272E-10 4.45440E-10 9.85858E-11-5.35224E-13
 -1        18 4.09152E-10-2.98783E-07-2.08156E-10 1.43714E-09 1.47880E-10-8.02896E-13
 -1        19 3.19140E-09-2.41210E-11-3.54683E-14 1.55735E-13-2.53798E-14-3.20827E-23
 -1        20 2.12760E-09-1.60806E-11-2.36418E-14 1.59348E-14-1.69198E-14 7.91659E-18
 -1        21 2.64709E-09 1.61603E-09 1.82851E-18 3.47519E-10 9.91399E-11 9.91399E-11
 -1        22 3.20794E-09 3.20794E-09 2.77592E-10 8.63046E-10 9.91399E-11 9.91399E-11
 -1        23 1.85881E-09-1.98622E-07 1.38770E-10 4.42656E-10 9.85864E-11-5.35433E-13
 -1        24 2.78368E-09-2.97946E-07 2.05907E-10 1.43296E-09 1.47881E-10-8.03018E-13
 -1        25-2.95979E-07 8.24093E-10 4.13862E-10 7.56503E-10-2.95594E-10-1.56465E-19
 -1        26-1.97319E-07 5.49264E-10 2.75870E-10-5.20388E-10-1.97063E-10-2.72848E-15
 -1        27-1.99180E-07 2.75796E-10-1.37272E-10 4.45441E-10-5.35360E-13 9.85861E-11
 -1        28-1.98622E-07 1.85882E-09 1.38771E-10 4.42657E-10-5.35255E-13 9.85877E-11
 -1        29-5.51218E-16-9.83749E-16-8.53644E-16-2.16265E-16 1.08642E-15 1.08642E-15
 -1        30-1.76013E-15-4.26455E-15-1.60255E-15-1.25221E-15 4.56316E-16 4.56327E-16
 -1        31-6.01451E-07-1.69624E-09-8.27598E-10 1.51289E-09-5.91185E-10-3.12925E-19
 -1        32-3.00726E-07-8.48317E-10-4.13857E-10-7.80642E-10-2.95592E-10-4.09293E-15
 -1        33-2.98783E-07 4.09149E-10-2.08159E-10 1.43714E-09-8.02973E-13 1.47879E-10
 -1        34-2.97946E-07 2.78368E-09 2.05905E-10 1.43296E-09-8.02902E-13 1.47880E-10
 -1        35 4.75733E-18-6.95071E-16 7.10928E-16-3.49914E-16-7.83633E-16-7.83630E-16
 -1        36 6.03205E-15 1.45395E-14 5.56734E-15 4.25372E-15 2.34532E-15 2.34534E-15
 -1        37-4.79189E-11-4.79189E-11-1.09314E-21-1.98069E-26-1.82048E-23-1.86790E-23
 -1        38-2.39595E-11-2.39595E-11-1.28710E-22 2.93650E-22-9.09148E-24-8.08672E-23
 -1        39-2.39776E-11 3.19180E-09 3.54626E-14 1.55715E-13-9.82053E-18 2.53594E-14
 -1        40-2.41210E-11 3.19140E-09-3.54690E-14 1.55735E-13-9.86376E-18 2.53471E-14
 -1        41 8.24092E-10-2.95979E-07 4.13857E-10 7.56503E-10 1.33434E-14 2.95592E-10
 -1        42-1.69624E-09-6.01451E-07-8.27609E-10 1.51289E-09 2.66872E-14 5.91188E-10
 -1        43-2.39595E-11-2.39595E-11-1.28860E-22 2.94140E-22-8.08991E-23-9.32837E-24
 -1        44-1.59730E-11-1.59730E-11 1.92702E-22 3.91866E-22-5.39403E-23-5.39079E-23
 -1        45-1.59850E-11 2.12787E-09 2.36455E-14 1.59215E-14 1.31495E-18 1.69062E-14
 -1        46-1.60806E-11 2.12760E-09-2.36423E-14 1.59350E-14 1.30462E-18 1.68981E-14
 -1        47 5.49263E-10-1.97319E-07 2.75866E-10-5.20388E-10 6.16704E-15 1.97062E-10
 -1        48-8.48319E-10-3.00726E-07-4.13862E-10-7.80642E-10 9.25089E-15 2.95594E-10
 -1        49 3.19180E-09-2.39776E-11 3.54625E-14 1.55715E-13 2.53593E-14-9.76254E-18
 -1        50 2.12787E-09-1.59850E-11 2.36453E-14 1.59217E-14 1.69063E-14 1.20734E-18
 -1        51 1.05518E-09 1.05518E-09-2.77592E-10-1.68009E-10-9.91399E-11-9.91399E-11
 -1        52 1.61603E-09 2.64709E-09-9.89213E-19 3.47519E-10-9.91399E-11-9.91399E-11
 -1        53 2.75796E-10-1.99180E-07-1.37272E-10 4.45441E-10-9.85859E-11 5.35328E-13
 -1        54 4.09152E-10-2.98783E-07-2.08156E-10 1.43714E-09-1.47880E-10 8.02930E-13
 -1        55 3.19140E-09-2.41210E-11-3.54688E-14 1.55735E-13 2.53472E-14-9.84039E-18
 -1        56 2.12760E-09-1.60806E-11-2.36423E-14 1.59350E-14 1.68980E-14 1.35635E-18
 -1        57 2.64709E-09 1.61603E-09-2.82328E-17 3.47519E-10-9.91399E-11-9.91399E-11
 -1        58 3.20794E-09 3.20794E-09 2.77592E-10 8.63046E-10-9.91399E-11-9.91399E-11
 -1        59 1.85882E-09-1.98622E-07 1.38771E-10 4.42656E-10-9.85874E-11 5.35317E-13
 -1        60 2.78368E-09-2.97946E-07 2.05910E-10 1.43296E-09-1.47879E-10 8.03050E-13
 -1        61-2.95979E-07 8.24092E-10 4.13857E-10 7.56503E-10 2.95592E-10 1.33433E-14
 -1        62-1.97319E-07 5.49263E-10 2.75866E-10-5.20388E-10 1.97062E-10 6.16715E-15
 -1        63-1.99180E-07 2.75796E-10-1.37272E-10 4.45441E-10 5.35319E-13-9.85869E-11
 -1        64-1.98622E-07 1.85881E-09 1.38770E-10 4.42656E-10 5.35253E-13-9.85862E-11
 -1        65-2.32865E-16-2.40925E-16-5.35291E-16-4.03005E-18-1.83685E-15-2.09285E-15
 -1        66 4.74786E-15 1.09208E-14 4.90544E-15 3.08645E-15 1.19480E-15 1.89561E-15
 -1        67-6.01451E-07-1.69624E-09-8.27609E-10 1.51289E-09 5.91188E-10 2.66871E-14
 -1        68-3.00726E-07-8.48319E-10-4.13862E-10-7.80642E-10 2.95594E-10 9.25079E-15
 -1        69-2.98783E-07 4.09154E-10-2.08154E-10 1.43714E-09 8.02999E-13-1.47880E-10
 -1        70-2.97946E-07 2.78368E-09 2.05909E-10 1.43296E-09 8.02929E-13-1.47879E-10
 -1        71-2.41519E-15-6.34161E-15-1.70902E-15-1.96321E-15 1.86063E-15 3.91797E-16
 -1        72-5.94300E-15-1.34023E-14-6.40771E-15-3.72965E-15-2.02643E-15-2.79445E-15
 -3
    1PSTEP                         9           3           1          
  100CL  103 3.50000E-03          72                     0    3           1
 -4  TOSTRAIN    6    1
 -5  EXX         1    4    1    1
 -5  EYY         1    4    2    2
 -5  EZZ         1    4    3    3
 -5  EXY         1    4    1    2
 -5  EYZ         1    4    2    3
 -5  EZX         1    4    3    1
 -1         1-1.59730E-16-1.59730E-16 1.36911E-16-1.24744E-31 1.28282E-32 1.95104E-32
 -1         2-7.98649E-17-7.98649E-17 6.84556E-17 1.81788E-27 9.12218E-33-4.42785E-28
 -1         3-4.67395E-15 1.52333E-14-4.52530E-15 9.63950E-19-2.05733E-28-1.57037E-19
 -1         4-4.67395E-15 1.52316E-14-4.52485E-15 9.64074E-19-2.05974E-28-1.57113E-19
 -1         5 4.26160E-13-1.41119E-12 4.23621E-13 4.68311E-15-9.68593E-25-1.82987E-15
 -1         6 8.52320E-13-2.86045E-12 8.57698E-13 9.36548E-15-1.93713E-24-3.65972E-15
 -1         7-7.98649E-17-7.98649E-17 6.84556E-17 1.82106E-27-4.44437E-28 3.90989E-33
 -1         8-5.32433E-17-5.32433E-17 4.56371E-17 2.42600E-27-2.96392E-28-2.95205E-28
 -1         9-3.11596E-15 1.01555E-14-3.01686E-15 9.85620E-20 4.86692E-23-1.04691E-19
 -1        10-3.11596E-15 1.01544E-14-3.01656E-15 9.86448E-20 4.87837E-23-1.04742E-19
 -1        11 2.84106E-13-9.40795E-13 2.82414E-13-3.22145E-15-1.68916E-20-1.21991E-15
 -1        12 4.26160E-13-1.43022E-12 4.28849E-13-4.83255E-15-2.53368E-20-1.82986E-15
 -1        13 1.52333E-14-4.67395E-15-4.52530E-15 9.63950E-19-1.57037E-19-2.03404E-28
 -1        14 1.01555E-14-3.11596E-15-3.01686E-15 9.85610E-20-1.04692E-19 4.77637E-23
 -1        15 3.91384E-15 3.91384E-15-4.33668E-15-1.04005E-15 6.13723E-16 6.13723E-16
 -1        16 3.91384E-15 1.02966E-14-6.09017E-15 2.15131E-15 6.13723E-16 6.13723E-16
 -1        17 2.86052E-13-9.48673E-13 2.83495E-13 2.75840E-15 6.10293E-16-3.31375E-18
 -1        18 4.29078E-13-1.42306E-12 4.25257E-13 8.89793E-15 9.15446E-16-4.97099E-18
 -1        19 1.52316E-14-4.67395E-15-4.52485E-15 9.64075E-19-1.57113E-19-1.98607E-28
 -1        20 1.01544E-14-3.11596E-15-3.01656E-15 9.86442E-20-1.04742E-19 4.90075E-23
 -1        21 1.02966E-14 3.91384E-15-6.09017E-15 2.15131E-15 6.13723E-16 6.13723E-16
 -1        22 1.02966E-14 1.02966E-14-7.84367E-15 5.34267E-15 6.13723E-16 6.13723E-16
 -1        23 2.92399E-13-9.48673E-13 2.81751E-13 2.74117E-15 6.10297E-16-3.31504E-18
 -1        24 4.38599E-13-1.42306E-12 4.22641E-13 8.87208E-15 9.15453E-16-4.97175E-18
 -1        25-1.41119E-12 4.26160E-13 4.23621E-13 4.68311E-15-1.82987E-15-9.68594E-25
 -1        26-9.40795E-13 2.84106E-13 2.82414E-13-3.22145E-15-1.21991E-15-1.68906E-20
 -1        27-9.48673E-13 2.86052E-13 2.83495E-13 2.75841E-15-3.31459E-18 6.10295E-16
 -1        28-9.48673E-13 2.92399E-13 2.81751E-13 2.74118E-15-3.31393E-18 6.10305E-16
 -1        29 2.22806E-43-2.67757E-21-1.87216E-21-1.33879E-21 6.72543E-21 6.72546E-21
 -1        30 3.33509E-43-1.55035E-20 9.75482E-22-7.75177E-21 2.82481E-21 2.82488E-21
 -1        31-2.86045E-12 8.52320E-13 8.57698E-13 9.36548E-15-3.65972E-15-1.93716E-24
 -1        32-1.43022E-12 4.26160E-13 4.28849E-13-4.83255E-15-1.82986E-15-2.53372E-20
 -1        33-1.42306E-12 4.29078E-13 4.25257E-13 8.89793E-15-4.97146E-18 9.15444E-16
 -1        34-1.42306E-12 4.38599E-13 4.22641E-13 8.87209E-15-4.97102E-18 9.15447E-16
 -1        35-6.01577E-42-4.33227E-21 4.37154E-21-2.16613E-21-4.85106E-21-4.85104E-21
 -1        36-1.20315E-41 5.26651E-20-2.87677E-21 2.63326E-20 1.45187E-20 1.45188E-20
 -1        37-1.59730E-16-1.59730E-16 1.36911E-16-1.22614E-31-1.12696E-28-1.15632E-28
 -1        38-7.98649E-17-7.98649E-17 6.84556E-17 1.81783E-27-5.62806E-29-5.00606E-28
 -1        39-4.67395E-15 1.52333E-14-4.52530E-15 9.63949E-19-6.07937E-23 1.56987E-19
 -1        40-4.67395E-15 1.52316E-14-4.52485E-15 9.64074E-19-6.10614E-23 1.56911E-19
 -1        41 4.26160E-13-1.41119E-12 4.23621E-13 4.68311E-15 8.26018E-20 1.82986E-15
 -1        42 8.52321E-13-2.86045E-12 8.57698E-13 9.36548E-15 1.65206E-19 3.65974E-15
 -1        43-7.98649E-17-7.98649E-17 6.84556E-17 1.82086E-27-5.00804E-28-5.77470E-29
 -1        44-5.32433E-17-5.32433E-17 4.56371E-17 2.42584E-27-3.33916E-28-3.33716E-28
 -1        45-3.11596E-15 1.01555E-14-3.01686E-15 9.85620E-20 8.14019E-24 1.04657E-19
 -1        46-3.11596E-15 1.01544E-14-3.01656E-15 9.86452E-20 8.07621E-24 1.04607E-19
 -1        47 2.84106E-13-9.40795E-13 2.82414E-13-3.22145E-15 3.81769E-20 1.21991E-15
 -1        48 4.26160E-13-1.43022E-12 4.28849E-13-4.83255E-15 5.72674E-20 1.82987E-15
 -1        49 1.52333E-14-4.67395E-15-4.52530E-15 9.63950E-19 1.56986E-19-6.04348E-23
 -1        50 1.01555E-14-3.11596E-15-3.01686E-15 9.85629E-20 1.04658E-19 7.47398E-24
 -1        51 3.91384E-15 3.91384E-15-4.33668E-15-1.04005E-15-6.13723E-16-6.13723E-16
 -1        52 3.91384E-15 1.02966E-14-6.09017E-15 2.15131E-15-6.13723E-16-6.13723E-16
 -1        53 2.86052E-13-9.48673E-13 2.83495E-13 2.75841E-15-6.10294E-16 3.31439E-18
 -1        54 4.29078E-13-1.42306E-12 4.25257E-13 8.89794E-15-9.15450E-16 4.97120E-18
 -1        55 1.52316E-14-4.67395E-15-4.52485E-15 9.64073E-19 1.56911E-19-6.09167E-23
 -1        56 1.01544E-14-3.11596E-15-3.01656E-15 9.86452E-20 1.04606E-19 8.39646E-24
 -1        57 1.02966E-14 3.91384E-15-6.09017E-15 2.15131E-15-6.13723E-16-6.13723E-16
 -1        58 1.02966E-14 1.02966E-14-7.84367E-15 5.34267E-15-6.13723E-16-6.13723E-16
 -1        59 2.92399E-13-9.48673E-13 2.81751E-13 2.74117E-15-6.10303E-16 3.31432E-18
 -1        60 4.38599E-13-1.42306E-12 4.22641E-13 8.87209E-15-9.15441E-16 4.97194E-18
 -1        61-1.41119E-12 4.26160E-13 4.23621E-13 4.68311E-15 1.82986E-15 8.26013E-20
 -1        62-9.40795E-13 2.84106E-13 2.82414E-13-3.22145E-15 1.21991E-15 3.81776E-20
 -1        63-9.48673E-13 2.86052E-13 2.83495E-13 2.75841E-15 3.31433E-18-6.10300E-16
 -1        64-9.48673E-13 2.92399E-13 2.81751E-13 2.74117E-15 3.31392E-18-6.10295E-16
 -1        65-1.11403E-42-4.98958E-23-1.87216E-21-2.49479E-23-1.13710E-20-1.29558E-20
 -1        66-1.67175E-42 3.82132E-20 9.75482E-22 1.91066E-20 7.39638E-21 1.17348E-20
 -1        67-2.86045E-12 8.52321E-13 8.57698E-13 9.36548E-15 3.65974E-15 1.65206E-19
 -1        68-1.43022E-12 4.26160E-13 4.28849E-13-4.83255E-15 1.82987E-15 5.72668E-20
 -1        69-1.42306E-12 4.29078E-13 4.25257E-13 8.89793E-15 4.97163E-18-9.15448E-16
 -1        70-1.42306E-12 4.38599E-13 4.22641E-13 8.87208E-15 4.97119E-18-9.15441E-16
 -1        71 3.00789E-41-2.43064E-20 4.37154E-21-1.21532E-20 1.15182E-20 2.42541E-21
 -1        72 6.01577E-41-4.61766E-20-2.87677E-21-2.30883E-20-1.25446E-20-1.72990E-20
 -3
    1PSTEP                        10           4           1          
  100CL  104 5.75000E-03          72                     0    4           1
 -4  DISP        4    1
 -5  D1          1    2    1    0
 -5  D2          1    2    2    0
 -5  D3          1    2    3    0
 -5  ALL         1    2    0    0    1ALL
 -1         1 0.00000E+00 0.00000E+00 0.00000E+00
 -1         2-3.59224E-13 0.00000E+00 0.00000E+00
 -1         3-1.88593E-05 0.00000E+00 0.00000E+00
 -1         4-1.88593E-05 0.00000E+00 0.00000E+00
 -1         5-3.79525E-05 0.00000E+00 0.00000E+00
 -1         6-3.79518E-05 0.00000E+00 0.00000E+00
 -1         7 0.00000E+00-3.59224E-13 0.00000E+00
 -1         8-3.59224E-13-3.59224E-13 0.00000E+00
 -1         9-1.88593E-05 4.15317E-11 0.00000E+00
 -1        10-1.88593E-05 4.15196E-11 0.00000E+00
 -1        11-3.79525E-05-2.29969E-09 0.00000E+00
 -1        12-3.79518E-05-2.35094E-09 0.00000E+00
 -1        13 0.00000E+00-1.88593E-05 0.00000E+00
 -1        14 4.15317E-11-1.88593E-05 0.00000E+00
 -1        15 1.52026E-03 1.52026E-03 0.00000E+00
 -1        16 1.52026E-03 1.52026E-03 0.00000E+00
 -1        17 2.17717E-03-8.49553E-02 0.00000E+00
 -1        18 2.17717E-03-8.59616E-02 0.00000E+00
 -1        19 0.00000E+00-1.88593E-05 0.00000E+00
 -1        20 4.15196E-11-1.88593E-05 0.00000E+00
 -1        21 1.52026E-03 1.52026E-03 0.00000E+00
 -1        22 1.52026E-03 1.52026E-03 0.00000E+00
 -1        23 3.18350E-03-8.49553E-02 0.00000E+00
 -1        24 3.18350E-03-8.59616E-02 0.00000E+00
 -1        25 0.00000E+00-3.79525E-05 0.00000E+00
 -1        26-2.29969E-09-3.79525E-05 0.00000E+00
 -1        27-8.49553E-02 2.17717E-03 0.00000E+00
 -1        28-8.49553E-02 3.18350E-03 0.00000E+00
 -1        29-1.72500E-01-1.72500E-01 0.00000E+00
 -1        30-1.72500E-01-1.72500E-01 0.00000E+00
 -1        31 0.00000E+00-3.79518E-05 0.00000E+00
 -1        32-2.35094E-09-3.79518E-05 0.00000E+00
 -1        33-8.59616E-02 2.17717E-03 0.00000E+00
 -1        34-8.59616E-02 3.18350E-03 0.00000E+00
 -1        35-1.72500E-01-1.72500E-01 0.00000E+00
 -1        36-1.72500E-01-1.72500E-01 0.00000E+00
 -1        37 0.00000E+00 0.00000E+00 4.31069E-13
 -1        38-3.59224E-13 0.00000E+00 4.31069E-13
 -1        39-1.88593E-05 0.00000E+00-1.71612E-11
 -1        40-1.88593E-05 0.00000E+00-1.71565E-11
 -1        41-3.79525E-05 0.00000E+00 9.66917E-10
 -1        42-3.79518E-05 0.00000E+00 9.86631E-10
 -1        43 0.00000E+00-3.59224E-13 4.31069E-13
 -1        44-3.59224E-13-3.59224E-13 4.31069E-13
 -1        45-1.88593E-05 4.15317E-11-1.71612E-11
 -1        46-1.88593E-05 4.15196E-11-1.71565E-11
 -1        47-3.79525E-05-2.29969E-09 9.66918E-10
 -1        48-3.79518E-05-2.35094E-09 9.86633E-10
 -1        49 0.00000E+00-1.88593E-05-1.71612E-11
 -1        50 4.15317E-11-1.88593E-05-1.71612E-11
 -1        51 1.52026E-03 1.52026E-03-2.48958E-11
 -1        52 1.52026E-03 1.52026E-03-3.48560E-11
 -1        53 2.17717E-03-8.49553E-02 9.72889E-10
 -1        54 2.17717E-03-8.59616E-02 9.72979E-10
 -1        55 0.00000E+00-1.88593E-05-1.71565E-11
 -1        56 4.15196E-11-1.88593E-05-1.71565E-11
 -1        57 1.52026E-03 1.52026E-03-3.48560E-11
 -1        58 1.52026E-03 1.52026E-03-4.48161E-11
 -1        59 3.18350E-03-8.49553E-02 9.63024E-10
 -1        60 3.18350E-03-8.59616E-02 9.63114E-10
 -1        61 0.00000E+00-3.79525E-05 9.66917E-10
 -1        62-2.29969E-09-3.79525E-05 9.66918E-10
 -1        63-8.49553E-02 2.17717E-03 9.72889E-10
 -1        64-8.49553E-02 3.18350E-03 9.63024E-10
 -1        65-1.72500E-01-1.72500E-01-2.60095E-18
 -1        66-1.72500E-01-1.72500E-01 7.09094E-18
 -1        67 0.00000E+00-3.79518E-05 9.86631E-10
 -1        68-2.35094E-09-3.79518E-05 9.86633E-10
 -1        69-8.59616E-02 2.17717E-03 9.72979E-10
 -1        70-8.59616E-02 3.18350E-03 9.63114E-10
 -1        71-1.72500E-01-1.72500E-01 5.73251E-18
 -1        72-1.72500E-01-1.72500E-01 3.70810E-18
 -3
    1PSTEP                        11           4           1          
  100CL  104 5.75000E-03          72                     0    4           1
 -4  STRESS      6    1
 -5  SXX         1    4    1    1
 -5  SYY         1    4    2    2
 -5  SZZ         1    4    3    3
 -5  SXY         1    4    1    2
 -5  SYZ         1    4    2    3
 -5  SZX         1    4    3    1
 -1         1-2.15526E-10-2.15526E-10-2.38085E-21-1.03531E-25 8.72328E-27 1.02358E-26
 -1         2-1.07763E-10-1.07763E-10 1.09897E-21 1.47435E-21 8.96694E-27-3.96692E-22
 -1         3-1.07898E-10 8.68902E-09 2.64099E-13 1.15908E-12-8.93684E-23-1.88740E-13
 -1         4-1.08965E-10 8.68599E-09-2.64110E-13 1.15913E-12-8.76005E-23-1.88772E-13
 -1         5 2.19784E-09-4.81921E-07 1.11484E-09 2.01566E-09-1.17645E-18-7.96154E-10
 -1         6-4.61218E-09-9.89409E-07-2.22874E-09 4.03042E-09-2.35295E-18-1.59228E-09
 -1         7-1.07763E-10-1.07763E-10 1.09908E-21 1.47443E-21-3.96805E-22 5.66891E-27
 -1         8-7.18419E-11-7.18419E-11 2.25913E-21 1.96588E-21-2.64548E-22-2.64503E-22
 -1         9-7.19317E-11 5.79268E-09 1.76076E-13 1.18562E-13 2.08601E-17-1.25826E-13
 -1        10-7.26433E-11 5.79066E-09-1.76064E-13 1.18598E-13 2.12317E-17-1.25849E-13
 -1        11 1.46423E-09-3.21281E-07 7.42941E-10-1.41621E-09-2.05569E-14-5.30769E-10
 -1        12-2.30758E-09-4.94705E-07-1.11480E-09-2.12476E-09-3.08352E-14-7.96142E-10
 -1        13 8.68902E-09-1.07898E-10 2.64098E-13 1.15908E-12-1.88740E-13-8.82252E-23
 -1        14 5.79268E-09-7.19317E-11 1.76076E-13 1.18563E-13-1.25826E-13 2.09656E-17
 -1        15 2.89768E-09 2.89768E-09-7.50839E-10-4.60937E-10 2.68157E-10 2.68157E-10
 -1        16 4.41468E-09 7.20351E-09 2.12040E-17 9.33478E-10 2.68157E-10 2.68157E-10
 -1        17 7.79097E-10-3.26291E-07-3.68449E-10 1.20625E-09 2.65599E-10-2.42295E-12
 -1        18 1.14809E-09-4.89495E-07-5.62847E-10 3.88106E-09 3.98400E-10-3.63443E-12
 -1        19 8.68599E-09-1.08965E-10-2.64111E-13 1.15913E-12-1.88772E-13-8.77331E-23
 -1        20 5.79066E-09-7.26433E-11-1.76063E-13 1.18599E-13-1.25849E-13 2.09649E-17
 -1        21 7.20351E-09 4.41468E-09-6.75459E-17 9.33478E-10 2.68157E-10 2.68157E-10
 -1        22 8.72051E-09 8.72051E-09 7.50839E-10 2.32789E-09 2.68157E-10 2.68157E-10
 -1        23 5.04388E-09-3.24788E-07 3.75232E-10 1.19365E-09 2.65601E-10-2.42318E-12
 -1        24 7.54526E-09-4.87241E-07 5.52672E-10 3.86215E-09 3.98401E-10-3.63476E-12
 -1        25-4.81921E-07 2.19784E-09 1.11484E-09 2.01566E-09-7.96154E-10-1.17648E-18
 -1        26-3.21281E-07 1.46423E-09 7.42941E-10-1.41621E-09-5.30769E-10-2.05568E-14
 -1        27-3.26291E-07 7.79099E-10-3.68447E-10 1.20625E-09-2.42322E-12 2.65598E-10
 -1        28-3.24788E-07 5.04388E-09 3.75234E-10 1.19365E-09-2.42279E-12 2.65601E-10
 -1        29-2.45270E-16-3.72218E-16-4.45349E-16-6.34738E-17-2.24323E-16-2.24324E-16
 -1        30 6.64413E-15 1.46848E-14 7.46229E-15 4.02034E-15 1.85680E-15 1.85680E-15
 -1        31-9.89409E-07-4.61218E-09-2.22874E-09 4.03042E-09-1.59228E-09-2.35292E-18
 -1        32-4.94705E-07-2.30758E-09-1.11480E-09-2.12476E-09-7.96142E-10-3.08353E-14
 -1        33-4.89495E-07 1.14809E-09-5.62847E-10 3.88106E-09-3.63458E-12 3.98404E-10
 -1        34-4.87241E-07 7.54526E-09 5.52674E-10 3.86215E-09-3.63468E-12 3.98401E-10
 -1        35 2.79740E-15 5.86583E-15 3.45882E-15 1.53422E-15 1.05057E-15 1.05056E-15
 -1        36-5.54083E-15-1.37843E-14-4.68515E-15-4.12173E-15-3.35582E-15-3.35582E-15
 -1        37-2.15526E-10-2.15526E-10-5.71365E-21-9.68583E-26 6.23905E-23 6.22434E-23
 -1        38-1.07763E-10-1.07763E-10-5.67365E-22 1.47424E-21 3.12200E-23-3.65573E-22
 -1        39-1.07898E-10 8.68902E-09 2.64095E-13 1.15908E-12-2.62916E-17 1.88718E-13
 -1        40-1.08965E-10 8.68599E-09-2.64113E-13 1.15913E-12-2.63858E-17 1.88685E-13
 -1        41 2.19783E-09-4.81921E-07 1.11480E-09 2.01566E-09 1.00391E-13 7.96142E-10
 -1        42-4.61219E-09-9.89409E-07-2.22882E-09 4.03042E-09 2.00784E-13 1.59231E-09
 -1        43-1.07763E-10-1.07763E-10-5.67450E-22 1.47440E-21-3.65615E-22 3.11513E-23
 -1        44-7.18419E-11-7.18419E-11 1.14806E-21 1.96579E-21-2.43740E-22-2.43744E-22
 -1        45-7.19317E-11 5.79268E-09 1.76073E-13 1.18563E-13 3.33242E-18 1.25811E-13
 -1        46-7.26433E-11 5.79066E-09-1.76065E-13 1.18599E-13 3.64123E-18 1.25789E-13
 -1        47 1.46423E-09-3.21281E-07 7.42914E-10-1.41621E-09 4.63712E-14 5.30762E-10
 -1        48-2.30758E-09-4.94705E-07-1.11484E-09-2.12476E-09 6.95578E-14 7.96154E-10
 -1        49 8.68902E-09-1.07898E-10 2.64096E-13 1.15908E-12 1.88718E-13-2.63014E-17
 -1        50 5.79268E-09-7.19317E-11 1.76073E-13 1.18562E-13 1.25812E-13 3.43142E-18
 -1        51 2.89768E-09 2.89768E-09-7.50839E-10-4.60937E-10-2.68157E-10-2.68157E-10
 -1        52 4.41468E-09 7.20351E-09-2.97737E-17 9.33478E-10-2.68157E-10-2.68157E-10
 -1        53 7.79100E-10-3.26291E-07-3.68447E-10 1.20625E-09-2.65600E-10 2.42307E-12
 -1        54 1.14809E-09-4.89495E-07-5.62852E-10 3.88106E-09-3.98400E-10 3.63448E-12
 -1        55 8.68599E-09-1.08965E-10-2.64113E-13 1.15913E-12 1.88684E-13-2.61925E-17
 -1        56 5.79066E-09-7.26433E-11-1.76065E-13 1.18598E-13 1.25790E-13 3.50324E-18
 -1        57 7.20351E-09 4.41468E-09 4.82338E-17 9.33478E-10-2.68157E-10-2.68157E-10
 -1        58 8.72051E-09 8.72051E-09 7.50839E-10 2.32789E-09-2.68157E-10-2.68157E-10
 -1        59 5.04388E-09-3.24788E-07 3.75233E-10 1.19365E-09-2.65601E-10 2.42304E-12
 -1        60 7.54526E-09-4.87241E-07 5.52675E-10 3.86215E-09-3.98399E-10 3.63479E-12
 -1        61-4.81921E-07 2.19783E-09 1.11480E-09 2.01566E-09 7.96142E-10 1.00391E-13
 -1        62-3.21281E-07 1.46423E-09 7.42914E-10-1.41621E-09 5.30762E-10 4.63711E-14
 -1        63-3.26291E-07 7.79102E-10-3.68445E-10 1.20625E-09 2.42305E-12-2.65600E-10
 -1        64-3.24788E-07 5.04388E-09 3.75235E-10 1.19365E-09 2.42319E-12-2.65599E-10
 -1        65-5.52045E-16-1.08803E-15-7.52124E-16-2.67990E-16 1.99060E-16 2.72204E-16
 -1        66-8.46058E-15-2.05595E-14-7.64241E-15-6.04947E-15-1.11856E-15-6.25311E-17
 -1        67-9.89409E-07-4.61219E-09-2.22882E-09 4.03042E-09 1.59231E-09 2.00784E-13
 -1        68-4.94705E-07-2.30758E-09-1.11484E-09-2.12476E-09 7.96154E-10 6.95580E-14
 -1        69-4.89495E-07 1.14809E-09-5.62850E-10 3.88106E-09 3.63468E-12-3.98400E-10
 -1        70-4.87241E-07 7.54526E-09 5.52670E-10 3.86215E-09 3.63437E-12-3.98402E-10
 -1        71-3.07152E-15-7.82830E-15-2.41009E-15-2.37839E-15-2.20992E-15-3.04651E-15
 -1        72 4.62180E-15 9.92851E-15 5.47748E-15 2.65335E-15 4.23131E-15 4.45075E-15
 -3
    1PSTEP                        12           4           1          
  100CL  104 5.75000E-03          72                     0    4           1
 -4  TOSTRAIN    6    1
 -5  EXX         1    4    1    1
 -5  EYY         1    4    2    2
 -5  EZZ         1    4    3    3
 -5  EXY         1    4    1    2
 -5  EYZ         1    4    2    3
 -5  EZX         1    4    3    1
 -1         1-7.18419E-16-7.18419E-16 6.15788E-16-6.40908E-31 5.40013E-32 6.33642E-32
 -1         2-3.59210E-16-3.59210E-16 3.07894E-16 9.12691E-27 5.55096E-32-2.45571E-27
 -1         3-1.29271E-14 4.15301E-14-1.22575E-14 7.17524E-18-5.53233E-28-1.16839E-18
 -1         4-1.29271E-14 4.15179E-14-1.22542E-14 7.17558E-18-5.42289E-28-1.16859E-18
 -1         5 6.97331E-13-2.29959E-12 6.90627E-13 1.24779E-14-7.28279E-24-4.92857E-15
 -1         6 1.39466E-12-4.70170E-12 1.40942E-12 2.49502E-14-1.45659E-23-9.85700E-15
 -1         7-3.59210E-16-3.59210E-16 3.07894E-16 9.12741E-27-2.45641E-27 3.50932E-32
 -1         8-2.39473E-16-2.39473E-16 2.05263E-16 1.21698E-26-1.63768E-27-1.63740E-27
 -1         9-8.61804E-15 2.76867E-14-8.17166E-15 7.33958E-19 1.29134E-22-7.78925E-19
 -1        10-8.61804E-15 2.76786E-14-8.16944E-15 7.34181E-19 1.31434E-22-7.79064E-19
 -1        11 4.64884E-13-1.53306E-12 4.60419E-13-8.76698E-15-1.27257E-19-3.28571E-15
 -1        12 6.97326E-13-2.35085E-12 7.04710E-13-1.31533E-14-1.90885E-19-4.92850E-15
 -1        13 4.15301E-14-1.29271E-14-1.22575E-14 7.17524E-18-1.16839E-18-5.46156E-28
 -1        14 2.76867E-14-8.61804E-15-8.17166E-15 7.33959E-19-7.78923E-19 1.29787E-22
 -1        15 1.07316E-14 1.07316E-14-1.18545E-14-2.85342E-15 1.66002E-15 1.66002E-15
 -1        16 1.07316E-14 2.79957E-14-1.65974E-14 5.77867E-15 1.66002E-15 1.66002E-15
 -1        17 4.70366E-13-1.55435E-12 4.63262E-13 7.47136E-15 1.64419E-15-1.50025E-17
 -1        18 7.05549E-13-2.33176E-12 6.94958E-13 2.40317E-14 2.46628E-15-2.25038E-17
 -1        19 4.15179E-14-1.29271E-14-1.22542E-14 7.17558E-18-1.16859E-18-5.43110E-28
 -1        20 2.76786E-14-8.61804E-15-8.16944E-15 7.34181E-19-7.79063E-19 1.29783E-22
 -1        21 2.79957E-14 1.07316E-14-1.65974E-14 5.77867E-15 1.66002E-15 1.66002E-15
 -1        22 2.79957E-14 2.79957E-14-2.13403E-14 1.44108E-14 1.66002E-15 1.66002E-15
 -1        23 4.87466E-13-1.55435E-12 4.58565E-13 7.39335E-15 1.64419E-15-1.50040E-17
 -1        24 7.31198E-13-2.33176E-12 6.87911E-13 2.39147E-14 2.46629E-15-2.25059E-17
 -1        25-2.29959E-12 6.97331E-13 6.90627E-13 1.24779E-14-4.92857E-15-7.28295E-24
 -1        26-1.53306E-12 4.64884E-13 4.60419E-13-8.76698E-15-3.28571E-15-1.27256E-19
 -1        27-1.55435E-12 4.70366E-13 4.63262E-13 7.47136E-15-1.50042E-17 1.64418E-15
 -1        28-1.55435E-12 4.87466E-13 4.58565E-13 7.39334E-15-1.50015E-17 1.64419E-15
 -1        29-7.89492E-42-7.85866E-22-1.23858E-21-3.92933E-22-1.38867E-21-1.38867E-21
 -1        30-1.18424E-41 4.97756E-20 5.06483E-21 2.48878E-20 1.14945E-20 1.14945E-20
 -1        31-4.70170E-12 1.39466E-12 1.40942E-12 2.49502E-14-9.85700E-15-1.45657E-23
 -1        32-2.35085E-12 6.97326E-13 7.04710E-13-1.31533E-14-4.92850E-15-1.90885E-19
 -1        33-2.33176E-12 7.05549E-13 6.94958E-13 2.40317E-14-2.25048E-17 2.46631E-15
 -1        34-2.33176E-12 7.31198E-13 6.87911E-13 2.39147E-14-2.25054E-17 2.46629E-15
 -1        35 3.12910E-42 1.89951E-20 4.09453E-21 9.49754E-21 6.50353E-21 6.50349E-21
 -1        36 6.25960E-42-5.10310E-20 5.29711E-21-2.55155E-20-2.07741E-20-2.07741E-20
 -1        37-7.18419E-16-7.18419E-16 6.15788E-16-5.99599E-31 3.86227E-28 3.85316E-28
 -1        38-3.59210E-16-3.59210E-16 3.07894E-16 9.12624E-27 1.93267E-28-2.26307E-27
 -1        39-1.29271E-14 4.15301E-14-1.22575E-14 7.17524E-18-1.62758E-22 1.16825E-18
 -1        40-1.29271E-14 4.15179E-14-1.22542E-14 7.17558E-18-1.63341E-22 1.16805E-18
 -1        41 6.97332E-13-2.29959E-12 6.90627E-13 1.24779E-14 6.21468E-19 4.92850E-15
 -1        42 1.39466E-12-4.70170E-12 1.40942E-12 2.49502E-14 1.24295E-18 9.85715E-15
 -1        43-3.59210E-16-3.59210E-16 3.07894E-16 9.12721E-27-2.26333E-27 1.92841E-28
 -1        44-2.39473E-16-2.39473E-16 2.05263E-16 1.21692E-26-1.50887E-27-1.50889E-27
 -1        45-8.61804E-15 2.76867E-14-8.17166E-15 7.33961E-19 2.06293E-23 7.78833E-19
 -1        46-8.61804E-15 2.76786E-14-8.16944E-15 7.34182E-19 2.25410E-23 7.78695E-19
 -1        47 4.64884E-13-1.53306E-12 4.60419E-13-8.76698E-15 2.87060E-19 3.28567E-15
 -1        48 6.97326E-13-2.35085E-12 7.04710E-13-1.31533E-14 4.30596E-19 4.92857E-15
 -1        49 4.15301E-14-1.29271E-14-1.22575E-14 7.17524E-18 1.16825E-18-1.62818E-22
 -1        50 2.76867E-14-8.61804E-15-8.17166E-15 7.33958E-19 7.78834E-19 2.12421E-23
 -1        51 1.07316E-14 1.07316E-14-1.18545E-14-2.85342E-15-1.66002E-15-1.66002E-15
 -1        52 1.07316E-14 2.79957E-14-1.65974E-14 5.77867E-15-1.66002E-15-1.66002E-15
 -1        53 4.70366E-13-1.55435E-12 4.63262E-13 7.47136E-15-1.64419E-15 1.50032E-17
 -1        54 7.05549E-13-2.33176E-12 6.94958E-13 2.40317E-14-2.46629E-15 2.25041E-17
 -1        55 4.15179E-14-1.29271E-14-1.22542E-14 7.17557E-18 1.16804E-18-1.62144E-22
 -1        56 2.76786E-14-8.61804E-15-8.16944E-15 7.34179E-19 7.78698E-19 2.16867E-23
 -1        57 2.79957E-14 1.07316E-14-1.65974E-14 5.77867E-15-1.66002E-15-1.66002E-15
 -1        58 2.79957E-14 2.79957E-14-2.13403E-14 1.44108E-14-1.66002E-15-1.66002E-15
 -1        59 4.87466E-13-1.55435E-12 4.58565E-13 7.39335E-15-1.64420E-15 1.50031E-17
 -1        60 7.31198E-13-2.33176E-12 6.87911E-13 2.39147E-14-2.46628E-15 2.25061E-17
 -1        61-2.29959E-12 6.97332E-13 6.90627E-13 1.24779E-14 4.92850E-15 6.21466E-19
 -1        62-1.53306E-12 4.64884E-13 4.60419E-13-8.76698E-15 3.28567E-15 2.87059E-19
 -1        63-1.55435E-12 4.70366E-13 4.63262E-13 7.47136E-15 1.50031E-17-1.64419E-15
 -1        64-1.55435E-12 4.87466E-13 4.58565E-13 7.39335E-15 1.50040E-17-1.64418E-15
 -1        65 3.94746E-41-3.31797E-21-1.23858E-21-1.65899E-21 1.23227E-21 1.68507E-21
 -1        66 5.92105E-41-7.48982E-20 5.06483E-21-3.74491E-20-6.92439E-21-3.87098E-22
 -1        67-4.70170E-12 1.39466E-12 1.40942E-12 2.49502E-14 9.85715E-15 1.24295E-18
 -1        68-2.35085E-12 6.97326E-13 7.04710E-13-1.31533E-14 4.92857E-15 4.30597E-19
 -1        69-2.33176E-12 7.05549E-13 6.94958E-13 2.40317E-14 2.25054E-17-2.46628E-15
 -1        70-2.33176E-12 7.31198E-13 6.87911E-13 2.39147E-14 2.25034E-17-2.46630E-15
 -1        71-1.56497E-41-2.94467E-20 4.09453E-21-1.47234E-20-1.36805E-20-1.88594E-20
 -1        72-3.13008E-41 3.28511E-20 5.29711E-21 1.64255E-20 2.61939E-20 2.75522E-20
 -3
    1PSTEP                        13           5           1          
  100CL  105 9.12500E-03          72                     0    5           1
 -4  DISP        4    1
 -5  D1          1    2    1    0
 -5  D2          1    2    2    0
 -5  D3          1    2    3    0
 -5  ALL         1    2    0    0    1ALL
 -1         1 0.00000E+00 0.00000E+00 0.00000E+00
 -1         2-1.46623E-12 0.00000E+00 0.00000E+00
 -1         3-7.69769E-05 0.00000E+00 0.00000E+00
 -1         4-7.69770E-05 0.00000E+00 0.00000E+00
 -1         5-1.55487E-04 0.00000E+00 0.00000E+00
 -1         6-1.55486E-04 0.00000E+00 0.00000E+00
 -1         7 0.00000E+00-1.46623E-12 0.00000E+00
 -1         8-1.46623E-12-1.46623E-12 0.00000E+00
 -1         9-7.69769E-05 1.06202E-10 0.00000E+00
 -1        10-7.69770E-05 1.06122E-10 0.00000E+00
 -1        11-1.55487E-04-3.60354E-09 0.00000E+00
 -1        12-1.55486E-04-3.73215E-09 0.00000E+00
 -1        13 0.00000E+00-7.69769E-05 0.00000E+00
 -1        14 1.06202E-10-7.69769E-05 0.00000E+00
 -1        15 3.87736E-03 3.87736E-03 0.00000E+00
 -1        16 3.87736E-03 3.87736E-03 0.00000E+00
 -1        17 5.58994E-03-1.33529E-01 0.00000E+00
 -1        18 5.58994E-03-1.36085E-01 0.00000E+00
 -1        19 0.00000E+00-7.69770E-05 0.00000E+00
 -1        20 1.06122E-10-7.69770E-05 0.00000E+00
 -1        21 3.87736E-03 3.87736E-03 0.00000E+00
 -1        22 3.87736E-03 3.87736E-03 0.00000E+00
 -1        23 8.14553E-03-1.33529E-01 0.00000E+00
 -1        24 8.14552E-03-1.36085E-01 0.00000E+00
 -1        25 0.00000E+00-1.55487E-04 0.00000E+00
 -1        26-3.60354E-09-1.55487E-04 0.00000E+00
 -1        27-1.33529E-01 5.58994E-03 0.00000E+00
 -1        28-1.33529E-01 8.14553E-03 0.00000E+00
 -1        29-2.73750E-01-2.73750E-01 0.00000E+00
 -1        30-2.73750E-01-2.73750E-01 0.00000E+00
 -1        31 0.00000E+00-1.55486E-04 0.00000E+00
 -1        32-3.73215E-09-1.55486E-04 0.00000E+00
 -1        33-1.36085E-01 5.58994E-03 0.00000E+00
 -1        34-1.36085E-01 8.14552E-03 0.00000E+00
 -1        35-2.73750E-01-2.73750E-01 0.00000E+00
 -1        36-2.73750E-01-2.73750E-01 0.00000E+00
 -1        37 0.00000E+00 0.00000E+00 1.75947E-12
 -1        38-1.46623E-12 0.00000E+00 1.75947E-12
 -1        39-7.69769E-05 0.00000E+00-4.34484E-11
 -1        40-7.69770E-05 0.00000E+00-4.34178E-11
 -1        41-1.55487E-04 0.00000E+00 1.51635E-09
 -1        42-1.55486E-04 0.00000E+00 1.56581E-09
 -1        43 0.00000E+00-1.46623E-12 1.75947E-12
 -1        44-1.46623E-12-1.46623E-12 1.75947E-12
 -1        45-7.69769E-05 1.06202E-10-4.34484E-11
 -1        46-7.69770E-05 1.06122E-10-4.34178E-11
 -1        47-1.55487E-04-3.60355E-09 1.51636E-09
 -1        48-1.55486E-04-3.73216E-09 1.56582E-09
 -1        49 0.00000E+00-7.69769E-05-4.34484E-11
 -1        50 1.06202E-10-7.69769E-05-4.34484E-11
 -1        51 3.87736E-03 3.87736E-03-6.39163E-11
 -1        52 3.87736E-03 3.87736E-03-8.90778E-11
 -1        53 5.58994E-03-1.33529E-01 1.53076E-09
 -1        54 5.58994E-03-1.36085E-01 1.53113E-09
 -1        55 0.00000E+00-7.69770E-05-4.34178E-11
 -1        56 1.06122E-10-7.69770E-05-4.34178E-11
 -1        57 3.87736E-03 3.87736E-03-8.90778E-11
 -1        58 3.87736E-03 3.87736E-03-1.14239E-10
 -1        59 8.14553E-03-1.33529E-01 1.50601E-09
 -1        60 8.14552E-03-1.36085E-01 1.50638E-09
 -1        61 0.00000E+00-1.55487E-04 1.51635E-09
 -1        62-3.60355E-09-1.55487E-04 1.51636E-09
 -1        63-1.33529E-01 5.58994E-03 1.53076E-09
 -1        64-1.33529E-01 8.14553E-03 1.50601E-09
 -1        65-2.73750E-01-2.73750E-01 3.00156E-18
 -1        66-2.73750E-01-2.73750E-01-6.73905E-18
 -1        67 0.00000E+00-1.55486E-04 1.56581E-09
 -1        68-3.73216E-09-1.55486E-04 1.56582E-09
 -1        69-1.36085E-01 5.58994E-03 1.53113E-09
 -1        70-1.36085E-01 8.14552E-03 1.50638E-09
 -1        71-2.73750E-01-2.73750E-01 1.41153E-18
 -1        72-2.73750E-01-2.73750E-01 7.70134E-18
 -3
    1PSTEP                        14           5           1          
  100CL  105 9.12500E-03          72                     0    5           1
 -4  STRESS      6    1
 -5  SXX         1    4    1    1
 -5  SYY         1    4    2    2
 -5  SZZ         1    4    3    3
 -5  SXY         1    4    1    2
 -5  SYZ         1    4    2    3
 -5  SZX         1    4    3    1
 -1         1-8.79701E-10-8.79701E-10-9.73924E-20-9.26742E-24 9.92680E-25 1.01645E-24
 -1         2-4.39851E-10-4.39851E-10 2.67128E-19 1.38195E-20 8.61885E-26-2.08848E-19
 -1         3-4.40733E-10 2.21698E-08 1.73060E-12 7.59405E-12-2.30767E-22-1.23639E-12
 -1         4-4.47727E-10 2.21500E-08-1.73063E-12 7.59418E-12-2.30452E-22-1.23647E-12
 -1         5 5.42895E-09-7.54245E-07 2.79825E-09 4.97104E-09-7.82637E-18-1.99767E-09
 -1         6-1.17438E-08-1.57264E-06-5.59021E-09 9.93602E-09-1.56527E-17-3.99518E-09
 -1         7-4.39851E-10-4.39851E-10-8.82352E-20 1.08731E-19 6.91706E-20 1.20471E-24
 -1         8-2.93234E-10-2.93234E-10 5.97694E-20 8.17037E-20-3.09634E-22 2.71733E-20
 -1         9-2.93822E-10 1.47799E-08 1.15376E-12 7.76911E-13 5.30379E-17-8.24259E-13
 -1        10-2.98484E-10 1.47667E-08-1.15373E-12 7.77001E-13 5.29414E-17-8.24312E-13
 -1        11 3.61270E-09-5.02833E-07 1.86358E-09-3.61108E-09-1.36847E-13-1.33178E-09
 -1        12-5.88181E-09-7.86325E-07-2.79798E-09-5.41965E-09-2.05269E-13-1.99759E-09
 -1        13 2.21698E-08-4.40733E-10 1.73060E-12 7.59405E-12-1.23639E-12-2.30827E-22
 -1        14 1.47799E-08-2.93822E-10 1.15375E-12 7.76912E-13-8.24259E-13 5.31690E-17
 -1        15 7.49085E-09 7.49085E-09-1.89678E-09-1.18925E-09 6.77420E-10 6.77420E-10
 -1        16 1.13231E-08 1.83683E-08-5.53888E-18 2.33334E-09 6.77420E-10 6.77420E-10
 -1        17 2.10030E-09-5.15398E-07-9.19150E-10 3.05299E-09 6.66554E-10-9.99281E-12
 -1        18 3.06567E-09-7.73338E-07-1.42071E-09 9.77862E-09 9.99831E-10-1.49894E-11
 -1        19 2.21500E-08-4.47727E-10-1.73062E-12 7.59418E-12-1.23647E-12-2.31863E-22
 -1        20 1.47667E-08-2.98484E-10-1.15373E-12 7.77000E-13-8.24312E-13 5.28578E-17
 -1        21 1.83683E-08 1.13231E-08 1.02480E-16 2.33334E-09 6.77420E-10 6.77420E-10
 -1        22 2.22005E-08 2.22005E-08 1.89678E-09 5.85592E-09 6.77420E-10 6.77420E-10
 -1        23 1.28033E-08-5.11627E-07 9.47205E-10 3.00098E-09 6.66556E-10-9.99281E-12
 -1        24 1.91201E-08-7.67682E-07 1.37882E-09 9.70059E-09 9.99832E-10-1.49887E-11
 -1        25-7.54245E-07 5.42895E-09 2.79825E-09 4.97104E-09-1.99767E-09-7.82638E-18
 -1        26-5.02833E-07 3.61270E-09 1.86358E-09-3.61108E-09-1.33178E-09-1.36846E-13
 -1        27-5.15398E-07 2.10030E-09-9.19146E-10 3.05299E-09-9.99355E-12 6.66555E-10
 -1        28-5.11627E-07 1.28033E-08 9.47210E-10 3.00098E-09-9.99180E-12 6.66557E-10
 -1        29 2.38472E-16 3.25554E-16 4.69354E-16 4.35406E-17 4.79954E-16 4.79961E-16
 -1        30 4.73909E-15 1.18355E-14 3.96151E-15 3.54818E-15 1.89188E-15 1.89188E-15
 -1        31-1.57264E-06-1.17438E-08-5.59021E-09 9.93602E-09-3.99518E-09-1.56527E-17
 -1        32-7.86325E-07-5.88181E-09-2.79798E-09-5.41965E-09-1.99759E-09-2.05269E-13
 -1        33-7.73338E-07 3.06567E-09-1.42070E-09 9.77862E-09-1.49901E-11 9.99836E-10
 -1        34-7.67682E-07 1.91201E-08 1.37882E-09 9.70060E-09-1.49885E-11 9.99831E-10
 -1        35 7.27820E-16 1.53538E-15 8.90686E-16 4.03781E-16-4.88956E-15-4.88954E-15
 -1        36 8.18786E-15 1.73278E-14 9.96506E-15 4.56997E-15 1.12914E-14 1.12914E-14
 -1        37-8.79701E-10-8.79701E-10-6.84041E-19-7.56150E-24-4.82191E-20 1.22177E-19
 -1        38-4.39851E-10-4.39851E-10-1.72428E-19 3.63270E-19-7.92840E-20-1.47760E-19
 -1        39-4.40734E-10 2.21698E-08 1.73059E-12 7.59405E-12-6.59768E-17 1.23633E-12
 -1        40-4.47727E-10 2.21500E-08-1.73063E-12 7.59418E-12-6.57384E-17 1.23625E-12
 -1        41 5.42889E-09-7.54246E-07 2.79798E-09 4.97104E-09 6.67986E-13 1.99759E-09
 -1        42-1.17439E-08-1.57264E-06-5.59075E-09 9.93602E-09 1.33598E-12 3.99533E-09
 -1        43-4.39851E-10-4.39851E-10 1.42615E-19 1.12440E-20 4.50605E-20 5.91522E-21
 -1        44-2.93234E-10-2.93234E-10 1.16181E-19 2.49679E-19-5.31657E-20 3.11160E-20
 -1        45-2.93822E-10 1.47799E-08 1.15375E-12 7.76911E-13 9.05357E-18 8.24221E-13
 -1        46-2.98485E-10 1.47667E-08-1.15373E-12 7.77001E-13 9.11597E-18 8.24166E-13
 -1        47 3.61266E-09-5.02833E-07 1.86340E-09-3.61108E-09 3.08482E-13 1.33173E-09
 -1        48-5.88187E-09-7.86326E-07-2.79825E-09-5.41965E-09 4.62730E-13 1.99767E-09
 -1        49 2.21698E-08-4.40734E-10 1.73059E-12 7.59405E-12 1.23633E-12-6.59282E-17
 -1        50 1.47799E-08-2.93822E-10 1.15375E-12 7.76911E-13 8.24221E-13 9.21704E-18
 -1        51 7.49085E-09 7.49085E-09-1.89678E-09-1.18925E-09-6.77420E-10-6.77420E-10
 -1        52 1.13231E-08 1.83683E-08 2.98341E-17 2.33334E-09-6.77420E-10-6.77420E-10
 -1        53 2.10030E-09-5.15398E-07-9.19147E-10 3.05299E-09-6.66557E-10 9.99294E-12
 -1        54 3.06567E-09-7.73338E-07-1.42071E-09 9.77862E-09-9.99832E-10 1.49894E-11
 -1        55 2.21500E-08-4.47727E-10-1.73064E-12 7.59419E-12 1.23625E-12-6.57575E-17
 -1        56 1.47667E-08-2.98485E-10-1.15373E-12 7.77001E-13 8.24166E-13 9.01958E-18
 -1        57 1.83683E-08 1.13231E-08-3.24924E-18 2.33334E-09-6.77420E-10-6.77420E-10
 -1        58 2.22005E-08 2.22005E-08 1.89678E-09 5.85592E-09-6.77420E-10-6.77420E-10
 -1        59 1.28033E-08-5.11627E-07 9.47208E-10 3.00098E-09-6.66555E-10 9.99254E-12
 -1        60 1.91201E-08-7.67682E-07 1.37882E-09 9.70059E-09-9.99833E-10 1.49891E-11
 -1        61-7.54246E-07 5.42889E-09 2.79798E-09 4.97104E-09 1.99759E-09 6.67984E-13
 -1        62-5.02833E-07 3.61266E-09 1.86340E-09-3.61108E-09 1.33173E-09 3.08482E-13
 -1        63-5.15398E-07 2.10030E-09-9.19151E-10 3.05299E-09 9.99298E-12-6.66554E-10
 -1        64-5.11627E-07 1.28033E-08 9.47205E-10 3.00098E-09 9.99278E-12-6.66553E-10
 -1        65-3.82214E-15-9.14921E-15-3.59126E-15-2.66353E-15-1.61458E-15-2.05345E-15
 -1        66 5.55706E-16 2.07423E-15-2.21873E-16 7.59261E-16 1.60900E-15-3.44048E-16
 -1        67-1.57264E-06-1.17439E-08-5.59075E-09 9.93602E-09 3.99533E-09 1.33598E-12
 -1        68-7.86326E-07-5.88187E-09-2.79825E-09-5.41965E-09 1.99767E-09 4.62731E-13
 -1        69-7.73338E-07 3.06568E-09-1.42070E-09 9.77862E-09 1.49896E-11-9.99834E-10
 -1        70-7.67682E-07 1.91201E-08 1.37882E-09 9.70060E-09 1.49888E-11-9.99833E-10
 -1        71-4.68700E-15-1.10992E-14-4.52414E-15-3.20610E-15 5.43674E-15 6.07319E-15
 -1        72-5.22542E-15-1.39698E-14-3.44821E-15-4.37221E-15-1.21058E-14-1.34224E-14
 -3
    1PSTEP                        15           5           1          
  100CL  105 9.12500E-03          72                     0    5           1
 -4  TOSTRAIN    6    1
 -5  EXX         1    4    1    1
 -5  EYY         1    4    2    2
 -5  EZZ         1    4    3    3
 -5  EXY         1    4    1    2
 -5  EYZ         1    4    2    3
 -5  EZX         1    4    3    1
 -1         1-2.93234E-15-2.93234E-15 2.51343E-15-5.73698E-29 6.14516E-30 6.29233E-30
 -1         2-1.46617E-15-1.46617E-15 1.25672E-15 8.55492E-26 5.33548E-31-1.29287E-24
 -1         3-3.37724E-14 1.06198E-13-3.10333E-14 4.70108E-17-1.42856E-27-7.65383E-18
 -1         4-3.37724E-14 1.06118E-13-3.10115E-14 4.70116E-17-1.42661E-27-7.65434E-18
 -1         5 1.09935E-12-3.60340E-12 1.08306E-12 3.07731E-14-4.84489E-23-1.23665E-14
 -1         6 2.19870E-12-7.46401E-12 2.23679E-12 6.15087E-14-9.68977E-23-2.47321E-14
 -1         7-1.46617E-15-1.46617E-15 1.25672E-15 6.73100E-25 4.28199E-25 7.45773E-30
 -1         8-9.77446E-16-9.77446E-16 8.37811E-16 5.05785E-25-1.91679E-27 1.68216E-25
 -1         9-2.25149E-14 7.07985E-14-2.06889E-14 4.80945E-18 3.28330E-22-5.10256E-18
 -1        10-2.25149E-14 7.07455E-14-2.06743E-14 4.81001E-18 3.27733E-22-5.10288E-18
 -1        11 7.32873E-13-2.40226E-12 7.22046E-13-2.23543E-14-8.47147E-19-8.24434E-15
 -1        12 1.09931E-12-3.73201E-12 1.11840E-12-3.35502E-14-1.27071E-18-1.23660E-14
 -1        13 1.06198E-13-3.37724E-14-3.10333E-14 4.70108E-17-7.65382E-18-1.42893E-27
 -1        14 7.07985E-14-2.25149E-14-2.06889E-14 4.80946E-18-5.10256E-18 3.29142E-22
 -1        15 2.76792E-14 2.76792E-14-3.04347E-14-7.36201E-15 4.19355E-15 4.19355E-15
 -1        16 2.76792E-14 7.12921E-14-4.24163E-14 1.44445E-14 4.19355E-15 4.19355E-15
 -1        17 7.47598E-13-2.45596E-12 7.28906E-13 1.89159E-14 4.12629E-15-6.18813E-17
 -1        18 1.12140E-12-3.68491E-12 1.09362E-12 6.05589E-14 6.18943E-15-9.28229E-17
 -1        19 1.06118E-13-3.37724E-14-3.10115E-14 4.70116E-17-7.65435E-18-1.43534E-27
 -1        20 7.07455E-14-2.25149E-14-2.06743E-14 4.81000E-18-5.10288E-18 3.27215E-22
 -1        21 7.12921E-14 2.76792E-14-4.24163E-14 1.44445E-14 4.19355E-15 4.19355E-15
 -1        22 7.12921E-14 7.12921E-14-5.43979E-14 3.62509E-14 4.19355E-15 4.19355E-15
 -1        23 7.90511E-13-2.45596E-12 7.17117E-13 1.85941E-14 4.12630E-15-6.18813E-17
 -1        24 1.18577E-12-3.68491E-12 1.07594E-12 6.00762E-14 6.18944E-15-9.28186E-17
 -1        25-3.60340E-12 1.09935E-12 1.08306E-12 3.07731E-14-1.23665E-14-4.84490E-23
 -1        26-2.40226E-12 7.32873E-13 7.22046E-13-2.23543E-14-8.24434E-15-8.47143E-19
 -1        27-2.45596E-12 7.47598E-13 7.28906E-13 1.89159E-14-6.18859E-17 4.12629E-15
 -1        28-2.45596E-12 7.90511E-13 7.17117E-13 1.85941E-14-6.18751E-17 4.12631E-15
 -1        29-5.78316E-42 5.39074E-22 1.42927E-21 2.69537E-22 2.97114E-21 2.97119E-21
 -1        30-8.67544E-42 4.39299E-20-4.81359E-21 2.19650E-20 1.17116E-20 1.17117E-20
 -1        31-7.46401E-12 2.19870E-12 2.23679E-12 6.15087E-14-2.47321E-14-9.68976E-23
 -1        32-3.73201E-12 1.09931E-12 1.11840E-12-3.35502E-14-1.23660E-14-1.27071E-18
 -1        33-3.68491E-12 1.12140E-12 1.09362E-12 6.05589E-14-9.28275E-17 6.18946E-15
 -1        34-3.68491E-12 1.18577E-12 1.07594E-12 6.00762E-14-9.28173E-17 6.18943E-15
 -1        35 5.43704E-43 4.99919E-21 1.00822E-21 2.49959E-21-3.02687E-20-3.02686E-20
 -1        36 1.08881E-42 5.65806E-20 1.10017E-20 2.82903E-20 6.98990E-20 6.98992E-20
 -1        37-2.93234E-15-2.93234E-15 2.51343E-15-4.68093E-29-2.98499E-25 7.56335E-25
 -1        38-1.46617E-15-1.46617E-15 1.25672E-15 2.24881E-24-4.90806E-25-9.14702E-25
 -1        39-3.37724E-14 1.06198E-13-3.10333E-14 4.70108E-17-4.08428E-22 7.65348E-18
 -1        40-3.37724E-14 1.06118E-13-3.10115E-14 4.70116E-17-4.06952E-22 7.65296E-18
 -1        41 1.09935E-12-3.60340E-12 1.08306E-12 3.07731E-14 4.13515E-18 1.23660E-14
 -1        42 2.19870E-12-7.46402E-12 2.23679E-12 6.15087E-14 8.27036E-18 2.47330E-14
 -1        43-1.46617E-15-1.46617E-15 1.25672E-15 6.96058E-26 2.78946E-25 3.66180E-26
 -1        44-9.77446E-16-9.77446E-16 8.37811E-16 1.54563E-24-3.29121E-25 1.92623E-25
 -1        45-2.25149E-14 7.07985E-14-2.06889E-14 4.80945E-18 5.60459E-23 5.10232E-18
 -1        46-2.25149E-14 7.07455E-14-2.06743E-14 4.81000E-18 5.64322E-23 5.10198E-18
 -1        47 7.32874E-13-2.40227E-12 7.22046E-13-2.23543E-14 1.90965E-18 8.24402E-15
 -1        48 1.09931E-12-3.73201E-12 1.11840E-12-3.35502E-14 2.86452E-18 1.23665E-14
 -1        49 1.06198E-13-3.37724E-14-3.10333E-14 4.70108E-17 7.65348E-18-4.08127E-22
 -1        50 7.07985E-14-2.25149E-14-2.06889E-14 4.80945E-18 5.10232E-18 5.70578E-23
 -1        51 2.76792E-14 2.76792E-14-3.04347E-14-7.36201E-15-4.19355E-15-4.19355E-15
 -1        52 2.76792E-14 7.12921E-14-4.24163E-14 1.44445E-14-4.19355E-15-4.19355E-15
 -1        53 7.47598E-13-2.45596E-12 7.28906E-13 1.89159E-14-4.12630E-15 6.18822E-17
 -1        54 1.12140E-12-3.68491E-12 1.09362E-12 6.05589E-14-6.18944E-15 9.28231E-17
 -1        55 1.06118E-13-3.37724E-14-3.10115E-14 4.70116E-17 7.65297E-18-4.07071E-22
 -1        56 7.07455E-14-2.25149E-14-2.06743E-14 4.81001E-18 5.10198E-18 5.58355E-23
 -1        57 7.12921E-14 2.76792E-14-4.24163E-14 1.44445E-14-4.19355E-15-4.19355E-15
 -1        58 7.12921E-14 7.12921E-14-5.43979E-14 3.62509E-14-4.19355E-15-4.19355E-15
 -1        59 7.90511E-13-2.45596E-12 7.17117E-13 1.85941E-14-4.12629E-15 6.18797E-17
 -1        60 1.18577E-12-3.68491E-12 1.07594E-12 6.00762E-14-6.18944E-15 9.28211E-17
 -1        61-3.60340E-12 1.09935E-12 1.08306E-12 3.07731E-14 1.23660E-14 4.13514E-18
 -1        62-2.40227E-12 7.32874E-13 7.22046E-13-2.23543E-14 8.24402E-15 1.90965E-18
 -1        63-2.45596E-12 7.47598E-13 7.28906E-13 1.89159E-14 6.18824E-17-4.12629E-15
 -1        64-2.45596E-12 7.90511E-13 7.17117E-13 1.85941E-14 6.18812E-17-4.12628E-15
 -1        65 2.89158E-41-3.29771E-20 1.42927E-21-1.64885E-20-9.99505E-21-1.27118E-20
 -1        66 4.33744E-41 9.40037E-21-4.81359E-21 4.70019E-21 9.96050E-21-2.12982E-21
 -1        67-7.46402E-12 2.19870E-12 2.23679E-12 6.15087E-14 2.47330E-14 8.27038E-18
 -1        68-3.73201E-12 1.09931E-12 1.11840E-12-3.35502E-14 1.23665E-14 2.86452E-18
 -1        69-3.68491E-12 1.12140E-12 1.09362E-12 6.05589E-14 9.28241E-17-6.18945E-15
 -1        70-3.68491E-12 1.18577E-12 1.07594E-12 6.00762E-14 9.28196E-17-6.18944E-15
 -1        71-2.72272E-42-3.96946E-20 1.00822E-21-1.98473E-20 3.36560E-20 3.75959E-20
 -1        72-5.44545E-42-5.41322E-20 1.10017E-20-2.70661E-20-7.49405E-20-8.30908E-20
 -3
    1PSTEP                        16           6           1          
  100CL  106 1.41875E-02          72                     0    6           1
 -4  DISP        4    1
 -5  D1          1    2    1    0
 -5  D2          1    2    2    0
 -5  D3          1    2    3    0
 -5  ALL         1    2    0    0    1ALL
 -1         1 0.00000E+00 0.00000E+00 0.00000E+00
 -1         2-5.68201E-12 0.00000E+00 0.00000E+00
 -1         3-2.98306E-04 0.00000E+00 0.00000E+00
 -1         4-2.98306E-04 0.00000E+00 0.00000E+00
 -1         5-6.06015E-04 0.00000E+00 0.00000E+00
 -1         6-6.06013E-04 0.00000E+00 0.00000E+00
 -1         7 0.00000E+00-5.68201E-12 0.00000E+00
 -1         8-5.68201E-12-5.68201E-12 0.00000E+00
 -1         9-2.98306E-04 2.62751E-10 0.00000E+00
 -1        10-2.98306E-04 2.62262E-10 0.00000E+00
 -1        11-6.06015E-04-5.49110E-09 0.00000E+00
 -1        12-6.06013E-04-5.79984E-09 0.00000E+00
 -1        13 0.00000E+00-2.98306E-04 0.00000E+00
 -1        14 2.62751E-10-2.98306E-04 0.00000E+00
 -1        15 9.55137E-03 9.55137E-03 0.00000E+00
 -1        16 9.55137E-03 9.55137E-03 0.00000E+00
 -1        17 1.39143E-02-2.04402E-01 0.00000E+00
 -1        18 1.39142E-02-2.10656E-01 0.00000E+00
 -1        19 0.00000E+00-2.98306E-04 0.00000E+00
 -1        20 2.62262E-10-2.98306E-04 0.00000E+00
 -1        21 9.55137E-03 9.55137E-03 0.00000E+00
 -1        22 9.55137E-03 9.55137E-03 0.00000E+00
 -1        23 2.01684E-02-2.04402E-01 0.00000E+00
 -1        24 2.01684E-02-2.10656E-01 0.00000E+00
 -1        25 0.00000E+00-6.06015E-04 0.00000E+00
 -1        26-5.49110E-09-6.06015E-04 0.00000E+00
 -1        27-2.04402E-01 1.39143E-02 0.00000E+00
 -1        28-2.04402E-01 2.01684E-02 0.00000E+00
 -1        29-4.25625E-01-4.25625E-01 0.00000E+00
 -1        30-4.25625E-01-4.25625E-01 0.00000E+00
 -1        31 0.00000E+00-6.06013E-04 0.00000E+00
 -1        32-5.79984E-09-6.06013E-04 0.00000E+00
 -1        33-2.10656E-01 1.39142E-02 0.00000E+00
 -1        34-2.10656E-01 2.01684E-02 0.00000E+00
 -1        35-4.25625E-01-4.25625E-01 0.00000E+00
 -1        36-4.25625E-01-4.25625E-01 0.00000E+00
 -1        37 0.00000E+00 0.00000E+00 6.81841E-12
 -1        38-5.68201E-12 0.00000E+00 6.81841E-12
 -1        39-2.98306E-04 0.00000E+00-1.05845E-10
 -1        40-2.98306E-04 0.00000E+00-1.05657E-10
 -1        41-6.06015E-04 0.00000E+00 2.31402E-09
 -1        42-6.06013E-04 0.00000E+00 2.43277E-09
 -1        43 0.00000E+00-5.68201E-12 6.81841E-12
 -1        44-5.68201E-12-5.68201E-12 6.81841E-12
 -1        45-2.98306E-04 2.62751E-10-1.05845E-10
 -1        46-2.98306E-04 2.62262E-10-1.05657E-10
 -1        47-6.06015E-04-5.49112E-09 2.31408E-09
 -1        48-6.06013E-04-5.79986E-09 2.43282E-09
 -1        49 0.00000E+00-2.98306E-04-1.05845E-10
 -1        50 2.62751E-10-2.98306E-04-1.05845E-10
 -1        51 9.55137E-03 9.55137E-03-1.59076E-10
 -1        52 9.55137E-03 9.55137E-03-2.20160E-10
 -1        53 1.39143E-02-2.04402E-01 2.34638E-09
 -1        54 1.39142E-02-2.10656E-01 2.34784E-09
 -1        55 0.00000E+00-2.98306E-04-1.05657E-10
 -1        56 2.62262E-10-2.98306E-04-1.05657E-10
 -1        57 9.55137E-03 9.55137E-03-2.20160E-10
 -1        58 9.55137E-03 9.55137E-03-2.81244E-10
 -1        59 2.01684E-02-2.04402E-01 2.28695E-09
 -1        60 2.01684E-02-2.10656E-01 2.28842E-09
 -1        61 0.00000E+00-6.06015E-04 2.31402E-09
 -1        62-5.49112E-09-6.06015E-04 2.31408E-09
 -1        63-2.04402E-01 1.39143E-02 2.34638E-09
 -1        64-2.04402E-01 2.01684E-02 2.28695E-09
 -1        65-4.25625E-01-4.25625E-01-1.45768E-17
 -1        66-4.25625E-01-4.25625E-01 7.45511E-18
 -1        67 0.00000E+00-6.06013E-04 2.43277E-09
 -1        68-5.79986E-09-6.06013E-04 2.43282E-09
 -1        69-2.10656E-01 1.39142E-02 2.34784E-09
 -1        70-2.10656E-01 2.01684E-02 2.28842E-09
 -1        71-4.25625E-01-4.25625E-01 1.72358E-17
 -1        72-4.25625E-01-4.25625E-01 1.16637E-17
 -3
    1PSTEP                        17           6           1          
  100CL  106 1.41875E-02          72                     0    6           1
 -4  STRESS      6    1
 -5  SXX         1    4    1    1
 -5  SYY         1    4    2    2
 -5  SZZ         1    4    3    3
 -5  SXY         1    4    1    2
 -5  SYZ         1    4    2    3
 -5  SZX         1    4    3    1
 -1         1-3.40907E-09-3.40907E-09-1.61541E-18-5.98244E-23 1.02121E-23 7.97932E-24
 -1         2-1.70453E-09-1.70453E-09 6.23758E-19 7.84736E-19 4.43961E-24-2.01250E-19
 -1         3-1.70995E-09 5.46656E-08 1.06165E-11 4.65836E-11-5.81384E-22-7.58383E-12
 -1         4-1.75285E-09 5.45438E-08-1.06166E-11 4.65839E-11-5.87042E-22-7.58401E-12
 -1         5 1.27029E-08-1.14726E-06 6.72354E-09 1.15986E-08-4.91241E-17-4.79571E-09
 -1         6-2.88515E-08-2.44851E-06-1.34076E-08 2.31592E-08-9.82479E-17-9.59046E-09
 -1         7-1.70453E-09-1.70453E-09 3.08713E-19 1.13676E-18-1.60029E-19 4.41473E-24
 -1         8-1.13636E-09-1.13636E-09 1.25208E-18 1.28102E-18-2.73090E-19-8.77438E-20
 -1         9-1.13997E-09 3.64437E-08 7.07773E-12 4.76601E-12 1.28207E-16-5.05587E-12
 -1        10-1.16857E-09 3.63626E-08-7.07768E-12 4.76622E-12 1.27334E-16-5.05601E-12
 -1        11 8.42719E-09-7.64853E-07 4.47032E-09-8.89190E-09-8.59171E-13-3.19714E-09
 -1        12-1.44879E-08-1.22428E-06-6.72185E-09-1.33569E-08-1.28875E-12-4.79523E-09
 -1        13 5.46656E-08-1.70995E-09 1.06165E-11 4.65836E-11-7.58383E-12-5.83921E-22
 -1        14 3.64437E-08-1.13997E-09 7.07774E-12 4.76602E-12-5.05588E-12 1.27800E-16
 -1        15 1.88367E-08 1.88367E-08-4.60475E-09-2.97838E-09 1.64455E-09 1.64455E-09
 -1        16 2.81402E-08 4.52436E-08 2.07698E-17 5.57330E-09 1.64455E-09 1.64455E-09
 -1        17 5.62507E-09-7.94986E-07-2.17982E-09 7.43478E-09 1.59981E-09-3.94062E-11
 -1        18 8.10336E-09-1.19343E-06-3.43531E-09 2.36307E-08 2.39972E-09-5.91093E-11
 -1        19 5.45438E-08-1.75285E-09-1.06166E-11 4.65839E-11-7.58401E-12-5.84736E-22
 -1        20 3.63626E-08-1.16857E-09-7.07768E-12 4.76622E-12-5.05601E-12 1.27952E-16
 -1        21 4.52436E-08 2.81402E-08 1.01537E-16 5.57330E-09 1.64455E-09 1.64455E-09
 -1        22 5.45470E-08 5.45470E-08 4.60475E-09 1.41250E-08 1.64455E-09 1.64455E-09
 -1        23 3.13135E-08-7.85935E-07 2.29967E-09 7.22956E-09 1.59982E-09-3.94071E-11
 -1        24 4.66361E-08-1.17985E-06 3.28393E-09 2.33229E-08 2.39972E-09-5.91105E-11
 -1        25-1.14726E-06 1.27029E-08 6.72354E-09 1.15986E-08-4.79571E-09-4.91240E-17
 -1        26-7.64853E-07 8.42719E-09 4.47032E-09-8.89190E-09-3.19714E-09-8.59172E-13
 -1        27-7.94986E-07 5.62508E-09-2.17981E-09 7.43478E-09-3.94069E-11 1.59982E-09
 -1        28-7.85935E-07 3.13136E-08 2.29968E-09 7.22955E-09-3.94065E-11 1.59982E-09
 -1        29-2.25925E-15-4.15028E-15-3.38054E-15-9.45517E-16 2.89930E-15 2.89931E-15
 -1        30 4.42145E-15 9.45653E-15 5.28162E-15 2.51754E-15 8.72023E-15 8.72025E-15
 -1        31-2.44851E-06-2.88515E-08-1.34076E-08 2.31592E-08-9.59046E-09-9.82479E-17
 -1        32-1.22428E-06-1.44879E-08-6.72185E-09-1.33569E-08-4.79523E-09-1.28875E-12
 -1        33-1.19343E-06 8.10336E-09-3.43531E-09 2.36307E-08-5.91106E-11 2.39972E-09
 -1        34-1.17985E-06 4.66361E-08 3.28392E-09 2.33229E-08-5.91095E-11 2.39972E-09
 -1        35 7.48913E-15 1.54859E-14 9.47784E-15 3.99840E-15-2.29921E-15-2.29920E-15
 -1        36-1.16694E-14-2.99201E-14-8.97780E-15-9.12536E-15-5.82536E-15-5.82533E-15
 -1        37-3.40907E-09-3.40907E-09-3.13282E-18-6.16610E-23-4.85712E-20-2.18973E-19
 -1        38-1.70453E-09-1.70453E-09-6.59120E-19 8.82223E-19 3.08876E-20-3.10741E-19
 -1        39-1.70995E-09 5.46656E-08 1.06165E-11 4.65836E-11-1.57473E-16 7.58368E-12
 -1        40-1.75285E-09 5.45438E-08-1.06166E-11 4.65839E-11-1.56697E-16 7.58349E-12
 -1        41 1.27026E-08-1.14726E-06 6.72185E-09 1.15986E-08 4.19312E-12 4.79523E-09
 -1        42-2.88522E-08-2.44853E-06-1.34109E-08 2.31592E-08 8.38628E-12 9.59143E-09
 -1        43-1.70453E-09-1.70453E-09-3.03759E-19 7.87315E-19-1.84319E-19-5.43121E-20
 -1        44-1.13636E-09-1.13636E-09 4.94312E-19 1.11305E-18-2.52502E-19-1.23955E-19
 -1        45-1.13997E-09 3.64437E-08 7.07773E-12 4.76602E-12 2.32252E-17 5.05579E-12
 -1        46-1.16857E-09 3.63626E-08-7.07768E-12 4.76622E-12 2.28694E-17 5.05566E-12
 -1        47 8.42696E-09-7.64857E-07 4.46919E-09-8.89190E-09 1.93627E-12 3.19682E-09
 -1        48-1.44882E-08-1.22429E-06-6.72354E-09-1.33569E-08 2.90444E-12 4.79571E-09
 -1        49 5.46656E-08-1.70995E-09 1.06165E-11 4.65836E-11 7.58369E-12-1.56537E-16
 -1        50 3.64437E-08-1.13997E-09 7.07772E-12 4.76602E-12 5.05580E-12 2.34427E-17
 -1        51 1.88367E-08 1.88367E-08-4.60475E-09-2.97838E-09-1.64455E-09-1.64455E-09
 -1        52 2.81402E-08 4.52436E-08-3.02730E-17 5.57330E-09-1.64455E-09-1.64455E-09
 -1        53 5.62509E-09-7.94986E-07-2.17980E-09 7.43478E-09-1.59982E-09 3.94069E-11
 -1        54 8.10336E-09-1.19343E-06-3.43531E-09 2.36307E-08-2.39973E-09 5.91100E-11
 -1        55 5.45438E-08-1.75285E-09-1.06166E-11 4.65839E-11 7.58349E-12-1.58057E-16
 -1        56 3.63626E-08-1.16857E-09-7.07769E-12 4.76622E-12 5.05566E-12 2.25807E-17
 -1        57 4.52436E-08 2.81402E-08 2.04424E-16 5.57330E-09-1.64455E-09-1.64455E-09
 -1        58 5.45470E-08 5.45470E-08 4.60475E-09 1.41250E-08-1.64455E-09-1.64455E-09
 -1        59 3.13136E-08-7.85935E-07 2.29969E-09 7.22955E-09-1.59982E-09 3.94068E-11
 -1        60 4.66361E-08-1.17985E-06 3.28391E-09 2.33229E-08-2.39972E-09 5.91105E-11
 -1        61-1.14726E-06 1.27026E-08 6.72185E-09 1.15986E-08 4.79523E-09 4.19312E-12
 -1        62-7.64857E-07 8.42696E-09 4.46919E-09-8.89190E-09 3.19682E-09 1.93627E-12
 -1        63-7.94986E-07 5.62508E-09-2.17981E-09 7.43478E-09 3.94068E-11-1.59982E-09
 -1        64-7.85935E-07 3.13136E-08 2.29968E-09 7.22956E-09 3.94067E-11-1.59982E-09
 -1        65 1.94302E-15 5.65500E-15 8.21724E-16 1.85599E-15-5.28462E-15-5.81126E-15
 -1        66 5.99565E-16 5.38814E-16 1.45974E-15-3.03758E-17-3.38129E-15-1.94171E-15
 -1        67-2.44853E-06-2.88522E-08-1.34109E-08 2.31592E-08 9.59143E-09 8.38628E-12
 -1        68-1.22429E-06-1.44882E-08-6.72354E-09-1.33569E-08 4.79571E-09 2.90443E-12
 -1        69-1.19343E-06 8.10338E-09-3.43529E-09 2.36307E-08 5.91105E-11-2.39973E-09
 -1        70-1.17985E-06 4.66361E-08 3.28393E-09 2.33229E-08 5.91101E-11-2.39972E-09
 -1        71-1.35729E-14-3.36588E-14-1.15842E-14-1.00430E-14 1.08157E-14 7.79617E-15
 -1        72-1.52545E-15-6.25096E-15 1.16611E-15-2.36275E-15-1.99779E-15-3.57771E-15
 -3
    1PSTEP                        18           6           1          
  100CL  106 1.41875E-02          72                     0    6           1
 -4  TOSTRAIN    6    1
 -5  EXX         1    4    1    1
 -5  EYY         1    4    2    2
 -5  EZZ         1    4    3    3
 -5  EXY         1    4    1    2
 -5  EYZ         1    4    2    3
 -5  EZX         1    4    3    1
 -1         1-1.13636E-14-1.13636E-14 9.74020E-15-3.70341E-28 6.32179E-29 4.93958E-29
 -1         2-5.68178E-15-5.68178E-15 4.87010E-15 4.85789E-24 2.74833E-29-1.24584E-24
 -1         3-8.62515E-14 2.62740E-13-7.56004E-14 2.88375E-16-3.59904E-27-4.69475E-17
 -1         4-8.62515E-14 2.62252E-13-7.54662E-14 2.88377E-16-3.63407E-27-4.69486E-17
 -1         5 1.68982E-12-5.49087E-12 1.65281E-12 7.18009E-14-3.04101E-22-2.96877E-14
 -1         6 3.37964E-12-1.15992E-11 3.47525E-12 1.43366E-13-6.08201E-22-5.93695E-14
 -1         7-5.68178E-15-5.68178E-15 4.87010E-15 7.03712E-24-9.90653E-25 2.73293E-29
 -1         8-3.78786E-15-3.78786E-15 3.24673E-15 7.93013E-24-1.69056E-24-5.43176E-25
 -1         9-5.75010E-14 1.75160E-13-5.04002E-14 2.95039E-17 7.93662E-22-3.12983E-17
 -1        10-5.75010E-14 1.74835E-13-5.03108E-14 2.95052E-17 7.88257E-22-3.12991E-17
 -1        11 1.12639E-12-3.66058E-12 1.10190E-12-5.50451E-14-5.31868E-18-1.97918E-14
 -1        12 1.68959E-12-5.79961E-12 1.73766E-12-8.26854E-14-7.97799E-18-2.96848E-14
 -1        13 2.62740E-13-8.62515E-14-7.56004E-14 2.88375E-16-4.69475E-17-3.61475E-27
 -1        14 1.75160E-13-5.75010E-14-5.04002E-14 2.95039E-17-3.12983E-17 7.91143E-22
 -1        15 6.93674E-14 6.93674E-14-7.57466E-14-1.84376E-14 1.01806E-14 1.01806E-14
 -1        16 6.93674E-14 1.75245E-13-1.04834E-13 3.45014E-14 1.01806E-14 1.01806E-14
 -1        17 1.16559E-12-3.79057E-12 1.11728E-12 4.60868E-14 9.90360E-15-2.44067E-16
 -1        18 1.74839E-12-5.68966E-12 1.67696E-12 1.46378E-13 1.48554E-14-3.66100E-16
 -1        19 2.62252E-13-8.62515E-14-7.54662E-14 2.88377E-16-4.69486E-17-3.61979E-27
 -1        20 1.74835E-13-5.75010E-14-5.03108E-14 2.95052E-17-3.12991E-17 7.92082E-22
 -1        21 1.75245E-13 6.93674E-14-1.04834E-13 3.45013E-14 1.01806E-14 1.01806E-14
 -1        22 1.75245E-13 1.75245E-13-1.33921E-13 8.74403E-14 1.01806E-14 1.01806E-14
 -1        23 1.26859E-12-3.79057E-12 1.08898E-12 4.48177E-14 9.90366E-15-2.44072E-16
 -1        24 1.90289E-12-5.68966E-12 1.63452E-12 1.44475E-13 1.48554E-14-3.66108E-16
 -1        25-5.49087E-12 1.68982E-12 1.65281E-12 7.18009E-14-2.96877E-14-3.04101E-22
 -1        26-3.66058E-12 1.12639E-12 1.10190E-12-5.50451E-14-1.97918E-14-5.31868E-18
 -1        27-3.79057E-12 1.16559E-12 1.11728E-12 4.60868E-14-2.44072E-16 9.90362E-15
 -1        28-3.79057E-12 1.26859E-12 1.08898E-12 4.48176E-14-2.44069E-16 9.90363E-15
 -1        29-3.98235E-41-1.17064E-20-6.94134E-21-5.85320E-21 1.79481E-20 1.79481E-20
 -1        30-5.97346E-41 3.11696E-20 5.32488E-21 1.55848E-20 5.39824E-20 5.39825E-20
 -1        31-1.15992E-11 3.37964E-12 3.47525E-12 1.43366E-13-5.93695E-14-6.08202E-22
 -1        32-5.79961E-12 1.68959E-12 1.73766E-12-8.26854E-14-2.96848E-14-7.97799E-18
 -1        33-5.68966E-12 1.74839E-12 1.67696E-12 1.46378E-13-3.66109E-16 1.48554E-14
 -1        34-5.68966E-12 1.90289E-12 1.63452E-12 1.44475E-13-3.66102E-16 1.48554E-14
 -1        35 1.59888E-41 4.95040E-20 1.23110E-20 2.47520E-20-1.42332E-20-1.42332E-20
 -1        36 3.19776E-41-1.12981E-19 1.66621E-20-5.64903E-20-3.60617E-20-3.60616E-20
 -1        37-1.13636E-14-1.13636E-14 9.74020E-15-3.81711E-28-3.00679E-25-1.35555E-24
 -1        38-5.68178E-15-5.68178E-15 4.87010E-15 5.46138E-24 1.91209E-25-1.92363E-24
 -1        39-8.62515E-14 2.62740E-13-7.56004E-14 2.88375E-16-9.74833E-22 4.69466E-17
 -1        40-8.62515E-14 2.62252E-13-7.54662E-14 2.88377E-16-9.70030E-22 4.69454E-17
 -1        41 1.68983E-12-5.49090E-12 1.65281E-12 7.18009E-14 2.59574E-17 2.96848E-14
 -1        42 3.37966E-12-1.15993E-11 3.47525E-12 1.43366E-13 5.19150E-17 5.93755E-14
 -1        43-5.68178E-15-5.68178E-15 4.87010E-15 4.87385E-24-1.14102E-24-3.36218E-25
 -1        44-3.78786E-15-3.78786E-15 3.24673E-15 6.89028E-24-1.56311E-24-7.67339E-25
 -1        45-5.75010E-14 1.75160E-13-5.04002E-14 2.95039E-17 1.43775E-22 3.12978E-17
 -1        46-5.75010E-14 1.74835E-13-5.03108E-14 2.95052E-17 1.41573E-22 3.12969E-17
 -1        47 1.12640E-12-3.66060E-12 1.10190E-12-5.50451E-14 1.19865E-17 1.97898E-14
 -1        48 1.68959E-12-5.79963E-12 1.73766E-12-8.26854E-14 1.79798E-17 2.96877E-14
 -1        49 2.62740E-13-8.62515E-14-7.56004E-14 2.88375E-16 4.69466E-17-9.69036E-22
 -1        50 1.75160E-13-5.75010E-14-5.04002E-14 2.95039E-17 3.12978E-17 1.45121E-22
 -1        51 6.93674E-14 6.93674E-14-7.57466E-14-1.84376E-14-1.01806E-14-1.01806E-14
 -1        52 6.93674E-14 1.75245E-13-1.04834E-13 3.45013E-14-1.01806E-14-1.01806E-14
 -1        53 1.16559E-12-3.79057E-12 1.11728E-12 4.60868E-14-9.90364E-15 2.44071E-16
 -1        54 1.74839E-12-5.68966E-12 1.67696E-12 1.46379E-13-1.48555E-14 3.66105E-16
 -1        55 2.62252E-13-8.62515E-14-7.54662E-14 2.88377E-16 4.69454E-17-9.78449E-22
 -1        56 1.74835E-13-5.75010E-14-5.03108E-14 2.95052E-17 3.12969E-17 1.39785E-22
 -1        57 1.75245E-13 6.93674E-14-1.04834E-13 3.45014E-14-1.01806E-14-1.01806E-14
 -1        58 1.75245E-13 1.75245E-13-1.33921E-13 8.74403E-14-1.01806E-14-1.01806E-14
 -1        59 1.26859E-12-3.79057E-12 1.08898E-12 4.48176E-14-9.90362E-15 2.44071E-16
 -1        60 1.90289E-12-5.68966E-12 1.63452E-12 1.44475E-13-1.48554E-14 3.66108E-16
 -1        61-5.49090E-12 1.68983E-12 1.65281E-12 7.18009E-14 2.96848E-14 2.59574E-17
 -1        62-3.66060E-12 1.12640E-12 1.10190E-12-5.50451E-14 1.97898E-14 1.19865E-17
 -1        63-3.79057E-12 1.16559E-12 1.11728E-12 4.60868E-14 2.44071E-16-9.90365E-15
 -1        64-3.79057E-12 1.26859E-12 1.08898E-12 4.48177E-14 2.44070E-16-9.90362E-15
 -1        65 1.99112E-40 2.29789E-20-6.94134E-21 1.14895E-20-3.27143E-20-3.59745E-20
 -1        66 2.98669E-40-3.76082E-22 5.32488E-21-1.88041E-22-2.09318E-20-1.20201E-20
 -1        67-1.15993E-11 3.37966E-12 3.47525E-12 1.43366E-13 5.93755E-14 5.19150E-17
 -1        68-5.79963E-12 1.68959E-12 1.73766E-12-8.26854E-14 2.96877E-14 1.79798E-17
 -1        69-5.68966E-12 1.74839E-12 1.67696E-12 1.46378E-13 3.66108E-16-1.48554E-14
 -1        70-5.68966E-12 1.90289E-12 1.63452E-12 1.44475E-13 3.66106E-16-1.48554E-14
 -1        71-7.99567E-41-1.24341E-19 1.23110E-20-6.21707E-20 6.69541E-20 4.82620E-20
 -1        72-1.59913E-40-2.92531E-20 1.66621E-20-1.46266E-20-1.23673E-20-2.21478E-20
 -3
    1PSTEP                        19           7           1          
  100CL  107 2.17813E-02          72                     0    7           1
 -4  DISP        4    1
 -5  D1          1    2    1    0
 -5  D2          1    2    2    0
 -5  D3          1    2    3    0
 -5  ALL         1    2    0    0    1ALL
 -1         1 0.00000E+00 0.00000E+00 0.00000E+00
 -1         2-2.14580E-11 0.00000E+00 0.00000E+00
 -1         3-1.12655E-03 0.00000E+00 0.00000E+00
 -1         4-1.12655E-03 0.00000E+00 0.00000E+00
 -1         5-2.30921E-03 0.00000E+00 0.00000E+00
 -1         6-2.30921E-03 0.00000E+00 0.00000E+00
 -1         7 0.00000E+00-2.14580E-11 0.00000E+00
 -1         8-2.14580E-11-2.14580E-11 0.00000E+00
 -1         9-1.12655E-03 6.41472E-10 0.00000E+00
 -1        10-1.12655E-03 6.38559E-10 0.00000E+00
 -1        11-2.30921E-03-8.15617E-09 0.00000E+00
 -1        12-2.30921E-03-8.87384E-09 0.00000E+00
 -1        13 0.00000E+00-1.12655E-03 0.00000E+00
 -1        14 6.41472E-10-1.12655E-03 0.00000E+00
 -1        15 2.31449E-02 2.31449E-02 0.00000E+00
 -1        16 2.31449E-02 2.31449E-02 0.00000E+00
 -1        17 3.42787E-02-3.05679E-01 0.00000E+00
 -1        18 3.42785E-02-3.20685E-01 0.00000E+00
 -1        19 0.00000E+00-1.12655E-03 0.00000E+00
 -1        20 6.38559E-10-1.12655E-03 0.00000E+00
 -1        21 2.31449E-02 2.31449E-02 0.00000E+00
 -1        22 2.31449E-02 2.31449E-02 0.00000E+00
 -1        23 4.92842E-02-3.05680E-01 0.00000E+00
 -1        24 4.92840E-02-3.20685E-01 0.00000E+00
 -1        25 0.00000E+00-2.30921E-03 0.00000E+00
 -1        26-8.15617E-09-2.30921E-03 0.00000E+00
 -1        27-3.05679E-01 3.42787E-02 0.00000E+00
 -1        28-3.05680E-01 4.92842E-02 0.00000E+00
 -1        29-6.53437E-01-6.53437E-01 0.00000E+00
 -1        30-6.53437E-01-6.53437E-01 0.00000E+00
 -1        31 0.00000E+00-2.30921E-03 0.00000E+00
 -1        32-8.87384E-09-2.30921E-03 0.00000E+00
 -1        33-3.20685E-01 3.42785E-02 0.00000E+00
 -1        34-3.20685E-01 4.92840E-02 0.00000E+00
 -1        35-6.53437E-01-6.53437E-01 0.00000E+00
 -1        36-6.53437E-01-6.53437E-01 0.00000E+00
 -1        37 0.00000E+00 0.00000E+00 2.57496E-11
 -1        38-2.14580E-11 0.00000E+00 2.57496E-11
 -1        39-1.12655E-03 0.00000E+00-2.52213E-10
 -1        40-1.12655E-03 0.00000E+00-2.51092E-10
 -1        41-2.30921E-03 0.00000E+00 3.44716E-09
 -1        42-2.30921E-03 0.00000E+00 3.72319E-09
 -1        43 0.00000E+00-2.14580E-11 2.57496E-11
 -1        44-2.14580E-11-2.14580E-11 2.57496E-11
 -1        45-1.12655E-03 6.41472E-10-2.52213E-10
 -1        46-1.12655E-03 6.38559E-10-2.51092E-10
 -1        47-2.30921E-03-8.15630E-09 3.44748E-09
 -1        48-2.30921E-03-8.87398E-09 3.72351E-09
 -1        49 0.00000E+00-1.12655E-03-2.52213E-10
 -1        50 6.41472E-10-1.12655E-03-2.52213E-10
 -1        51 2.31449E-02 2.31449E-02-3.91776E-10
 -1        52 2.31449E-02 2.31449E-02-5.36540E-10
 -1        53 3.42787E-02-3.05679E-01 3.51339E-09
 -1        54 3.42785E-02-3.20685E-01 3.51909E-09
 -1        55 0.00000E+00-1.12655E-03-2.51092E-10
 -1        56 6.38559E-10-1.12655E-03-2.51092E-10
 -1        57 2.31449E-02 2.31449E-02-5.36540E-10
 -1        58 2.31449E-02 2.31449E-02-6.81303E-10
 -1        59 4.92842E-02-3.05680E-01 3.37550E-09
 -1        60 4.92840E-02-3.20685E-01 3.38121E-09
 -1        61 0.00000E+00-2.30921E-03 3.44716E-09
 -1        62-8.15630E-09-2.30921E-03 3.44748E-09
 -1        63-3.05679E-01 3.42787E-02 3.51339E-09
 -1        64-3.05680E-01 4.92842E-02 3.37550E-09
 -1        65-6.53437E-01-6.53437E-01 9.91492E-18
 -1        66-6.53437E-01-6.53437E-01 2.90258E-17
 -1        67 0.00000E+00-2.30921E-03 3.72319E-09
 -1        68-8.87398E-09-2.30921E-03 3.72351E-09
 -1        69-3.20685E-01 3.42785E-02 3.51909E-09
 -1        70-3.20685E-01 4.92840E-02 3.38121E-09
 -1        71-6.53437E-01-6.53437E-01 3.28294E-17
 -1        72-6.53437E-01-6.53437E-01-1.39512E-17
 -3
    1PSTEP                        20           7           1          
  100CL  107 2.17813E-02          72                     0    7           1
 -4  STRESS      6    1
 -5  SXX         1    4    1    1
 -5  SYY         1    4    2    2
 -5  SZZ         1    4    3    3
 -5  SXY         1    4    1    2
 -5  SYZ         1    4    2    3
 -5  SZX         1    4    3    1
 -1         1-1.28743E-08-1.28743E-08-9.16247E-18-3.70223E-22 5.28826E-23 5.30059E-23
 -1         2-6.43715E-09-6.43715E-09 3.05265E-18 5.46946E-18 2.64646E-23-1.33436E-18
 -1         3-6.46947E-09 1.32782E-07 6.33569E-11 2.77993E-10-1.46747E-21-4.52563E-11
 -1         4-6.72549E-09 1.32055E-07-6.33570E-11 2.77994E-10-1.48585E-21-4.52567E-11
 -1         5 2.82612E-08-1.69955E-06 1.56672E-08 2.56627E-08-3.03482E-16-1.11487E-08
 -1         6-6.96004E-08-3.75708E-06-3.10901E-08 5.10902E-08-6.06963E-16-2.22915E-08
 -1         7-6.43715E-09-6.43715E-09 3.05264E-18 5.46947E-18-1.33436E-18 2.61804E-23
 -1         8-4.29143E-09-4.29143E-09 7.12435E-18 7.29274E-18-8.89575E-19-8.89573E-19
 -1         9-4.31298E-09 8.85213E-08 4.22380E-11 2.84424E-11 3.01113E-16-3.01708E-11
 -1        10-4.48366E-09 8.80368E-08-4.22379E-11 2.84428E-11 2.98869E-16-3.01712E-11
 -1        11 1.85849E-08-1.13313E-06 1.03704E-08-2.15353E-08-5.30839E-12-7.43247E-09
 -1        12-3.51840E-08-1.87869E-06-1.56567E-08-3.24205E-08-7.96257E-12-1.11457E-08
 -1        13 1.32782E-07-6.46947E-09 6.33569E-11 2.77993E-10-4.52563E-11-1.47306E-21
 -1        14 8.85213E-08-4.31298E-09 4.22380E-11 2.84424E-11-3.01708E-11 3.03233E-16
 -1        15 4.71044E-08 4.71044E-08-1.09129E-08-7.38597E-09 3.89746E-09 3.89746E-09
 -1        16 6.91529E-08 1.09686E-07 1.39342E-16 1.28808E-08 3.89746E-09 3.89746E-09
 -1        17 1.53662E-08-1.20306E-06-4.98201E-09 1.77142E-08 3.71229E-09-1.53579E-10
 -1        18 2.17469E-08-1.80829E-06-8.11854E-09 5.55270E-08 5.56842E-09-2.30367E-10
 -1        19 1.32055E-07-6.72549E-09-6.33570E-11 2.77994E-10-4.52567E-11-1.46136E-21
 -1        20 8.80368E-08-4.48366E-09-4.22379E-11 2.84428E-11-3.01711E-11 2.96011E-16
 -1        21 1.09686E-07 6.91529E-08 6.05997E-16 1.28808E-08 3.89746E-09 3.89746E-09
 -1        22 1.31735E-07 1.31735E-07 1.09129E-08 3.31476E-08 3.89746E-09 3.89746E-09
 -1        23 7.49748E-08-1.18205E-06 5.41238E-09 1.69138E-08 3.71228E-09-1.53579E-10
 -1        24 1.11160E-07-1.77678E-06 7.47308E-09 5.43265E-08 5.56843E-09-2.30369E-10
 -1        25-1.69955E-06 2.82612E-08 1.56672E-08 2.56627E-08-1.11487E-08-3.03482E-16
 -1        26-1.13313E-06 1.85849E-08 1.03704E-08-2.15353E-08-7.43247E-09-5.30839E-12
 -1        27-1.20306E-06 1.53662E-08-4.98201E-09 1.77142E-08-1.53578E-10 3.71229E-09
 -1        28-1.18205E-06 7.49748E-08 5.41238E-09 1.69139E-08-1.53579E-10 3.71229E-09
 -1        29-5.92690E-15-1.45921E-14-5.16425E-15-4.33259E-15 4.40592E-15 4.40592E-15
 -1        30-2.79881E-15-9.87960E-15 5.50234E-16-3.54040E-15 4.33199E-15 4.33202E-15
 -1        31-3.75708E-06-6.96004E-08-3.10901E-08 5.10902E-08-2.22915E-08-6.06963E-16
 -1        32-1.87869E-06-3.51840E-08-1.56567E-08-3.24205E-08-1.11457E-08-7.96257E-12
 -1        33-1.80829E-06 2.17469E-08-8.11853E-09 5.55271E-08-2.30370E-10 5.56843E-09
 -1        34-1.77679E-06 1.11160E-07 7.47306E-09 5.43265E-08-2.30370E-10 5.56843E-09
 -1        35-1.41939E-14-3.69069E-14-1.04059E-14-1.13565E-14 6.32090E-15 6.32089E-15
 -1        36 4.13518E-14 9.97071E-14 3.81322E-14 2.91776E-14 9.05402E-15 9.05403E-15
 -1        37-1.28743E-08-1.28743E-08-2.03713E-17-3.69820E-22-4.56424E-19-4.56425E-19
 -1        38-6.43715E-09-6.43715E-09-2.55179E-18 5.46947E-18-2.28214E-19-1.56260E-18
 -1        39-6.46947E-09 1.32782E-07 6.33569E-11 2.77993E-10-3.62463E-16 4.52559E-11
 -1        40-6.72549E-09 1.32055E-07-6.33570E-11 2.77994E-10-3.63080E-16 4.52555E-11
 -1        41 2.82591E-08-1.69958E-06 1.56567E-08 2.56627E-08 2.59055E-11 1.11457E-08
 -1        42-6.96047E-08-3.75714E-06-3.11111E-08 5.10902E-08 5.18111E-11 2.22974E-08
 -1        43-6.43715E-09-6.43715E-09-2.55178E-18 5.46946E-18-1.56260E-18-2.28214E-19
 -1        44-4.29143E-09-4.29143E-09 3.38806E-18 7.29275E-18-1.04173E-18-1.04173E-18
 -1        45-4.31298E-09 8.85213E-08 4.22380E-11 2.84424E-11 5.94722E-17 3.01706E-11
 -1        46-4.48366E-09 8.80368E-08-4.22379E-11 2.84428E-11 5.68165E-17 3.01703E-11
 -1        47 1.85835E-08-1.13315E-06 1.03634E-08-2.15353E-08 1.19621E-11 7.43049E-09
 -1        48-3.51862E-08-1.87872E-06-1.56672E-08-3.24205E-08 1.79433E-11 1.11487E-08
 -1        49 1.32782E-07-6.46947E-09 6.33569E-11 2.77993E-10 4.52559E-11-3.68622E-16
 -1        50 8.85213E-08-4.31298E-09 4.22380E-11 2.84424E-11 3.01706E-11 5.74861E-17
 -1        51 4.71044E-08 4.71044E-08-1.09129E-08-7.38597E-09-3.89746E-09-3.89746E-09
 -1        52 6.91529E-08 1.09686E-07-4.65032E-16 1.28808E-08-3.89746E-09-3.89746E-09
 -1        53 1.53662E-08-1.20306E-06-4.98202E-09 1.77142E-08-3.71229E-09 1.53580E-10
 -1        54 2.17469E-08-1.80829E-06-8.11853E-09 5.55270E-08-5.56842E-09 2.30368E-10
 -1        55 1.32055E-07-6.72549E-09-6.33570E-11 2.77994E-10 4.52555E-11-3.56816E-16
 -1        56 8.80368E-08-4.48366E-09-4.22379E-11 2.84428E-11 3.01703E-11 5.81348E-17
 -1        57 1.09686E-07 6.91529E-08-1.52307E-16 1.28808E-08-3.89746E-09-3.89746E-09
 -1        58 1.31735E-07 1.31735E-07 1.09129E-08 3.31476E-08-3.89746E-09-3.89746E-09
 -1        59 7.49748E-08-1.18205E-06 5.41238E-09 1.69138E-08-3.71229E-09 1.53579E-10
 -1        60 1.11160E-07-1.77679E-06 7.47305E-09 5.43265E-08-5.56844E-09 2.30372E-10
 -1        61-1.69958E-06 2.82591E-08 1.56567E-08 2.56627E-08 1.11457E-08 2.59055E-11
 -1        62-1.13315E-06 1.85835E-08 1.03634E-08-2.15353E-08 7.43049E-09 1.19621E-11
 -1        63-1.20306E-06 1.53662E-08-4.98202E-09 1.77142E-08 1.53580E-10-3.71229E-09
 -1        64-1.18205E-06 7.49748E-08 5.41238E-09 1.69138E-08 1.53579E-10-3.71229E-09
 -1        65-1.42865E-15-4.09617E-15-6.65996E-16-1.33376E-15-7.43969E-15-7.64450E-15
 -1        66-1.45230E-14-3.72361E-14-1.11740E-14-1.13565E-14 1.42765E-15 6.44240E-15
 -1        67-3.75714E-06-6.96047E-08-3.11111E-08 5.10902E-08 2.22974E-08 5.18111E-11
 -1        68-1.87872E-06-3.51862E-08-1.56672E-08-3.24205E-08 1.11487E-08 1.79433E-11
 -1        69-1.80829E-06 2.17469E-08-8.11853E-09 5.55270E-08 2.30369E-10-5.56843E-09
 -1        70-1.77679E-06 1.11160E-07 7.47307E-09 5.43265E-08 2.30369E-10-5.56843E-09
 -1        71-7.44649E-15-2.11631E-14-3.65857E-15-6.85829E-15 3.81275E-15-1.81642E-15
 -1        72 1.79033E-14 4.49941E-14 1.46838E-14 1.35454E-14-1.74237E-14-1.80381E-14
 -3
    1PSTEP                        21           7           1          
  100CL  107 2.17813E-02          72                     0    7           1
 -4  TOSTRAIN    6    1
 -5  EXX         1    4    1    1
 -5  EYY         1    4    2    2
 -5  EZZ         1    4    3    3
 -5  EXY         1    4    1    2
 -5  EYZ         1    4    2    3
 -5  EZX         1    4    3    1
 -1         1-4.29143E-14-4.29143E-14 3.67837E-14-2.29186E-27 3.27369E-28 3.28132E-28
 -1         2-2.14572E-14-2.14572E-14 1.83919E-14 3.38586E-23 1.63828E-28-8.26034E-24
 -1         3-2.20586E-13 6.41447E-13-1.80145E-13 1.72091E-15-9.08433E-27-2.80158E-16
 -1         4-2.20586E-13 6.38533E-13-1.79344E-13 1.72091E-15-9.19810E-27-2.80161E-16
 -1         5 2.54012E-12-8.15583E-12 2.46215E-12 1.58864E-13-1.87870E-21-6.90158E-14
 -1         6 5.08023E-12-1.77470E-11 5.31863E-12 3.16272E-13-3.75739E-21-1.37995E-13
 -1         7-2.14572E-14-2.14572E-14 1.83919E-14 3.38586E-23-8.26032E-24 1.62069E-28
 -1         8-1.43048E-14-1.43048E-14 1.22612E-14 4.51456E-23-5.50689E-24-5.50688E-24
 -1         9-1.47057E-13 4.27631E-13-1.20096E-13 1.76072E-16 1.86403E-21-1.86772E-16
 -1        10-1.47057E-13 4.25689E-13-1.19563E-13 1.76075E-16 1.85014E-21-1.86774E-16
 -1        11 1.69244E-12-5.43722E-12 1.64159E-12-1.33313E-13-3.28615E-17-4.60106E-14
 -1        12 2.53866E-12-8.87350E-12 2.65955E-12-2.00698E-13-4.92921E-17-6.89974E-14
 -1        13 6.41447E-13-2.20586E-13-1.80145E-13 1.72091E-15-2.80158E-16-9.11893E-27
 -1        14 4.27631E-13-1.47057E-13-1.20096E-13 1.76072E-16-1.86772E-16 1.87716E-21
 -1        15 1.72605E-13 1.72605E-13-1.86550E-13-4.57226E-14 2.41271E-14 2.41271E-14
 -1        16 1.72605E-13 4.23527E-13-2.55485E-13 7.97384E-14 2.41271E-14 2.41271E-14
 -1        17 1.79893E-12-5.74366E-12 1.67297E-12 1.09886E-13 2.29808E-14-9.51418E-16
 -1        18 2.69840E-12-8.63034E-12 2.51354E-12 3.44079E-13 3.44711E-14-1.42712E-15
 -1        19 6.38533E-13-2.20586E-13-1.79344E-13 1.72091E-15-2.80160E-16-9.04652E-27
 -1        20 4.25689E-13-1.47057E-13-1.19563E-13 1.76075E-16-1.86774E-16 1.83245E-21
 -1        21 4.23527E-13 1.72605E-13-2.55485E-13 7.97384E-14 2.41271E-14 2.41271E-14
 -1        22 4.23527E-13 4.23527E-13-3.24419E-13 2.05199E-13 2.41271E-14 2.41271E-14
 -1        23 2.03793E-12-5.74366E-12 1.60732E-12 1.04938E-13 2.29808E-14-9.51415E-16
 -1        24 3.05690E-12-8.63034E-12 2.41505E-12 3.36658E-13 3.44712E-14-1.42713E-15
 -1        25-8.15583E-12 2.54012E-12 2.46215E-12 1.58864E-13-6.90158E-14-1.87870E-21
 -1        26-5.43722E-12 1.69244E-12 1.64159E-12-1.33313E-13-4.60106E-14-3.28615E-17
 -1        27-5.74366E-12 1.79893E-12 1.67297E-12 1.09886E-13-9.51411E-16 2.29808E-14
 -1        28-5.74366E-12 2.03793E-12 1.60732E-12 1.04938E-13-9.51419E-16 2.29808E-14
 -1        29 3.98151E-41-5.36416E-20 4.72118E-21-2.68208E-20 2.72747E-20 2.72748E-20
 -1        30 5.97219E-41-4.38335E-20 2.07322E-20-2.19167E-20 2.68171E-20 2.68172E-20
 -1        31-1.77470E-11 5.08023E-12 5.31863E-12 3.16272E-13-1.37995E-13-3.75739E-21
 -1        32-8.87350E-12 2.53866E-12 2.65955E-12-2.00698E-13-6.89974E-14-4.92921E-17
 -1        33-8.63034E-12 2.69840E-12 2.51354E-12 3.44079E-13-1.42713E-15 3.44712E-14
 -1        34-8.63034E-12 3.05690E-12 2.41505E-12 3.36658E-13-1.42713E-15 3.44712E-14
 -1        35-2.44137E-40-1.40605E-19 2.34490E-20-7.03024E-20 3.91294E-20 3.91293E-20
 -1        36-4.88274E-40 3.61247E-19-1.99307E-20 1.80623E-19 5.60487E-20 5.60488E-20
 -1        37-4.29143E-14-4.29143E-14 3.67837E-14-2.28936E-27-2.82548E-24-2.82549E-24
 -1        38-2.14572E-14-2.14572E-14 1.83919E-14 3.38586E-23-1.41275E-24-9.67325E-24
 -1        39-2.20586E-13 6.41447E-13-1.80145E-13 1.72091E-15-2.24382E-21 2.80156E-16
 -1        40-2.20586E-13 6.38533E-13-1.79344E-13 1.72091E-15-2.24764E-21 2.80153E-16
 -1        41 2.54017E-12-8.15597E-12 2.46215E-12 1.58864E-13 1.60367E-16 6.89974E-14
 -1        42 5.08034E-12-1.77473E-11 5.31863E-12 3.16272E-13 3.20735E-16 1.38032E-13
 -1        43-2.14572E-14-2.14572E-14 1.83919E-14 3.38586E-23-9.67323E-24-1.41275E-24
 -1        44-1.43048E-14-1.43048E-14 1.22612E-14 4.51456E-23-6.44884E-24-6.44882E-24
 -1        45-1.47057E-13 4.27631E-13-1.20096E-13 1.76072E-16 3.68161E-22 1.86771E-16
 -1        46-1.47057E-13 4.25689E-13-1.19563E-13 1.76075E-16 3.51721E-22 1.86769E-16
 -1        47 1.69248E-12-5.43731E-12 1.64159E-12-1.33313E-13 7.40513E-17 4.59983E-14
 -1        48 2.53871E-12-8.87363E-12 2.65955E-12-2.00698E-13 1.11077E-16 6.90158E-14
 -1        49 6.41447E-13-2.20586E-13-1.80145E-13 1.72091E-15 2.80156E-16-2.28195E-21
 -1        50 4.27631E-13-1.47057E-13-1.20096E-13 1.76072E-16 1.86771E-16 3.55866E-22
 -1        51 1.72605E-13 1.72605E-13-1.86550E-13-4.57226E-14-2.41271E-14-2.41271E-14
 -1        52 1.72605E-13 4.23527E-13-2.55485E-13 7.97384E-14-2.41271E-14-2.41271E-14
 -1        53 1.79893E-12-5.74366E-12 1.67297E-12 1.09886E-13-2.29808E-14 9.51426E-16
 -1        54 2.69840E-12-8.63034E-12 2.51354E-12 3.44079E-13-3.44712E-14 1.42712E-15
 -1        55 6.38533E-13-2.20586E-13-1.79344E-13 1.72091E-15 2.80153E-16-2.20886E-21
 -1        56 4.25689E-13-1.47057E-13-1.19563E-13 1.76075E-16 1.86769E-16 3.59882E-22
 -1        57 4.23527E-13 1.72605E-13-2.55485E-13 7.97384E-14-2.41271E-14-2.41271E-14
 -1        58 4.23527E-13 4.23527E-13-3.24419E-13 2.05199E-13-2.41271E-14-2.41271E-14
 -1        59 2.03793E-12-5.74366E-12 1.60732E-12 1.04938E-13-2.29808E-14 9.51415E-16
 -1        60 3.05690E-12-8.63034E-12 2.41505E-12 3.36658E-13-3.44713E-14 1.42715E-15
 -1        61-8.15597E-12 2.54017E-12 2.46215E-12 1.58864E-13 6.89974E-14 1.60367E-16
 -1        62-5.43731E-12 1.69248E-12 1.64159E-12-1.33313E-13 4.59983E-14 7.40513E-17
 -1        63-5.74366E-12 1.79893E-12 1.67297E-12 1.09886E-13 9.51424E-16-2.29808E-14
 -1        64-5.74366E-12 2.03793E-12 1.60732E-12 1.04938E-13 9.51418E-16-2.29808E-14
 -1        65-1.99106E-40-1.65132E-20 4.72118E-21-8.25661E-21-4.60553E-20-4.73231E-20
 -1        66-2.98659E-40-1.40605E-19 2.07322E-20-7.03024E-20 8.83783E-21 3.98815E-20
 -1        67-1.77473E-11 5.08034E-12 5.31863E-12 3.16272E-13 1.38032E-13 3.20735E-16
 -1        68-8.87363E-12 2.53871E-12 2.65955E-12-2.00698E-13 6.90158E-14 1.11077E-16
 -1        69-8.63034E-12 2.69840E-12 2.51354E-12 3.44079E-13 1.42713E-15-3.44712E-14
 -1        70-8.63034E-12 3.05690E-12 2.41505E-12 3.36658E-13 1.42713E-15-3.44712E-14
 -1        71 1.22066E-39-8.49121E-20 2.34490E-20-4.24561E-20 2.36027E-20-1.12445E-20
 -1        72 2.44132E-39 1.67704E-19-1.99307E-20 8.38522E-20-1.07861E-19-1.11664E-19
 -3
    1PSTEP                        22           8           1          
  100CL  108 3.07813E-02          72                     0    8           1
 -4  DISP        4    1
 -5  D1          1    2    1    0
 -5  D2          1    2    2    0
 -5  D3          1    2    3    0
 -5  ALL         1    2    0    0    1ALL
 -1         1 0.00000E+00 0.00000E+00 0.00000E+00
 -1         2-6.32381E-11 0.00000E+00 0.00000E+00
 -1         3-3.32000E-03 0.00000E+00 0.00000E+00
 -1         4-3.32000E-03 0.00000E+00 0.00000E+00
 -1         5-6.88271E-03 0.00000E+00 0.00000E+00
 -1         6-6.88271E-03 0.00000E+00 0.00000E+00
 -1         7 0.00000E+00-6.32381E-11 0.00000E+00
 -1         8-6.32381E-11-6.32381E-11 0.00000E+00
 -1         9-3.32000E-03 1.33544E-09 0.00000E+00
 -1        10-3.32000E-03 1.32284E-09 0.00000E+00
 -1        11-6.88271E-03-1.10256E-08 0.00000E+00
 -1        12-6.88271E-03-1.24277E-08 0.00000E+00
 -1        13 0.00000E+00-3.32000E-03 0.00000E+00
 -1        14 1.33544E-09-3.32000E-03 0.00000E+00
 -1        15 4.76846E-02 4.76846E-02 0.00000E+00
 -1        16 4.76846E-02 4.76846E-02 0.00000E+00
 -1        17 7.21095E-02-4.16576E-01 0.00000E+00
 -1        18 7.21086E-02-4.47146E-01 0.00000E+00
 -1        19 0.00000E+00-3.32000E-03 0.00000E+00
 -1        20 1.32284E-09-3.32000E-03 0.00000E+00
 -1        21 4.76846E-02 4.76846E-02 0.00000E+00
 -1        22 4.76846E-02 4.76846E-02 0.00000E+00
 -1        23 1.02680E-01-4.16577E-01 0.00000E+00
 -1        24 1.02679E-01-4.47147E-01 0.00000E+00
 -1        25 0.00000E+00-6.88271E-03 0.00000E+00
 -1        26-1.10256E-08-6.88271E-03 0.00000E+00
 -1        27-4.16576E-01 7.21095E-02 0.00000E+00
 -1        28-4.16577E-01 1.02680E-01 0.00000E+00
 -1        29-9.23437E-01-9.23437E-01 0.00000E+00
 -1        30-9.23437E-01-9.23437E-01 0.00000E+00
 -1        31 0.00000E+00-6.88271E-03 0.00000E+00
 -1        32-1.24277E-08-6.88271E-03 0.00000E+00
 -1        33-4.47146E-01 7.21086E-02 0.00000E+00
 -1        34-4.47147E-01 1.02679E-01 0.00000E+00
 -1        35-9.23437E-01-9.23437E-01 0.00000E+00
 -1        36-9.23437E-01-9.23437E-01 0.00000E+00
 -1        37 0.00000E+00 0.00000E+00 7.58857E-11
 -1        38-6.32381E-11 0.00000E+00 7.58857E-11
 -1        39-3.32000E-03 0.00000E+00-5.09533E-10
 -1        40-3.32000E-03 0.00000E+00-5.04686E-10
 -1        41-6.88271E-03 0.00000E+00 4.68241E-09
 -1        42-6.88271E-03 0.00000E+00 5.22169E-09
 -1        43 0.00000E+00-6.32381E-11 7.58857E-11
 -1        44-6.32381E-11-6.32381E-11 7.58857E-11
 -1        45-3.32000E-03 1.33544E-09-5.09533E-10
 -1        46-3.32000E-03 1.32284E-09-5.04686E-10
 -1        47-6.88271E-03-1.10262E-08 4.68385E-09
 -1        48-6.88271E-03-1.24283E-08 5.22313E-09
 -1        49 0.00000E+00-3.32000E-03-5.09533E-10
 -1        50 1.33544E-09-3.32000E-03-5.09533E-10
 -1        51 4.76846E-02 4.76846E-02-8.23672E-10
 -1        52 4.76846E-02 4.76846E-02-1.11425E-09
 -1        53 7.21095E-02-4.16576E-01 4.78716E-09
 -1        54 7.21086E-02-4.47146E-01 4.80481E-09
 -1        55 0.00000E+00-3.32000E-03-5.04686E-10
 -1        56 1.32284E-09-3.32000E-03-5.04686E-10
 -1        57 4.76846E-02 4.76846E-02-1.11425E-09
 -1        58 4.76846E-02 4.76846E-02-1.40482E-09
 -1        59 1.02680E-01-4.16577E-01 4.51925E-09
 -1        60 1.02679E-01-4.47147E-01 4.53690E-09
 -1        61 0.00000E+00-6.88271E-03 4.68241E-09
 -1        62-1.10262E-08-6.88271E-03 4.68385E-09
 -1        63-4.16576E-01 7.21095E-02 4.78716E-09
 -1        64-4.16577E-01 1.02680E-01 4.51925E-09
 -1        65-9.23437E-01-9.23437E-01-5.95296E-17
 -1        66-9.23437E-01-9.23437E-01 3.93544E-19
 -1        67 0.00000E+00-6.88271E-03 5.22169E-09
 -1        68-1.24283E-08-6.88271E-03 5.22313E-09
 -1        69-4.47146E-01 7.21086E-02 4.80481E-09
 -1        70-4.47147E-01 1.02679E-01 4.53690E-09
 -1        71-9.23437E-01-9.23437E-01-1.26474E-17
 -1        72-9.23437E-01-9.23437E-01 4.92061E-17
 -3
    1PSTEP                        23           8           1          
  100CL  108 3.07813E-02          72                     0    8           1
 -4  STRESS      6    1
 -5  SXX         1    4    1    1
 -5  SYY         1    4    2    2
 -5  SZZ         1    4    3    3
 -5  SXY         1    4    1    2
 -5  SYZ         1    4    2    3
 -5  SZX         1    4    3    1
 -1         1-3.79413E-08-3.79413E-08-3.95524E-17-1.59974E-21 2.22180E-22 2.21663E-22
 -1         2-1.89707E-08-1.89707E-08 1.36379E-17 2.36392E-17 1.11230E-22-5.75343E-18
 -1         3-1.91105E-08 2.74780E-07 2.74027E-10 1.20235E-09-3.13593E-21-1.95736E-10
 -1         4-2.02178E-08 2.71637E-07-2.74027E-10 1.20235E-09-3.18087E-21-1.95737E-10
 -1         5 5.19169E-08-2.29047E-06 3.07653E-08 4.67107E-08-1.36800E-15-2.17853E-08
 -1         6-1.42576E-07-5.28035E-06-6.04298E-08 9.23613E-08-2.73599E-15-4.35438E-08
 -1         7-1.89707E-08-1.89707E-08 1.36379E-17 2.36392E-17-5.75343E-18 1.11224E-22
 -1         8-1.26471E-08-1.26471E-08 3.13681E-17 3.15195E-17-3.83563E-18-3.83562E-18
 -1         9-1.27403E-08 1.83187E-07 1.82685E-10 1.23017E-10 5.95104E-16-1.30491E-10
 -1        10-1.34785E-08 1.81091E-07-1.82685E-10 1.23018E-10 5.91009E-16-1.30492E-10
 -1        11 3.34578E-08-1.52743E-06 2.01747E-08-4.43588E-08-2.39294E-11-1.45236E-08
 -1        12-7.30182E-08-2.64084E-06-3.07181E-08-6.70683E-08-3.58940E-11-2.17719E-08
 -1        13 2.74780E-07-1.91105E-08 2.74027E-10 1.20235E-09-1.95736E-10-3.12224E-21
 -1        14 1.83187E-07-1.27403E-08 1.82685E-10 1.23017E-10-1.30491E-10 5.98984E-16
 -1        15 1.00764E-07 1.00764E-07-2.19047E-08-1.56017E-08 7.82310E-09 7.82310E-09
 -1        16 1.45020E-07 2.26380E-07 1.96432E-15 2.50784E-08 7.82310E-09 7.82310E-09
 -1        17 3.64104E-08-1.66350E-06-9.43083E-09 3.58227E-08 7.21293E-09-4.74781E-10
 -1        18 5.05899E-08-2.50671E-06-1.61422E-08 1.09994E-07 1.08194E-08-7.12173E-10
 -1        19 2.71637E-07-2.02178E-08-2.74027E-10 1.20235E-09-1.95737E-10-3.21022E-21
 -1        20 1.81091E-07-1.34785E-08-1.82685E-10 1.23018E-10-1.30492E-10 5.94626E-16
 -1        21 2.26380E-07 1.45020E-07-5.84738E-16 2.50784E-08 7.82310E-09 7.82310E-09
 -1        22 2.70637E-07 2.70637E-07 2.19047E-08 6.57586E-08 7.82310E-09 7.82310E-09
 -1        23 1.52229E-07-1.62270E-06 1.07653E-08 3.33470E-08 7.21293E-09-4.74785E-10
 -1        24 2.24317E-07-2.44550E-06 1.41520E-08 1.06281E-07 1.08194E-08-7.12179E-10
 -1        25-2.29047E-06 5.19169E-08 3.07653E-08 4.67107E-08-2.17853E-08-1.36800E-15
 -1        26-1.52743E-06 3.34578E-08 2.01747E-08-4.43588E-08-1.45236E-08-2.39294E-11
 -1        27-1.66350E-06 3.64105E-08-9.43082E-09 3.58227E-08-4.74782E-10 7.21292E-09
 -1        28-1.62270E-06 1.52229E-07 1.07653E-08 3.33470E-08-4.74785E-10 7.21294E-09
 -1        29-3.42717E-15-3.41756E-15-8.00632E-15 4.80177E-18-1.22458E-14-1.22458E-14
 -1        30-6.15426E-18-5.97910E-17 3.92768E-17-2.68183E-17 7.27610E-15 7.27608E-15
 -1        31-5.28035E-06-1.42576E-07-6.04298E-08 9.23613E-08-4.35438E-08-2.73599E-15
 -1        32-2.64084E-06-7.30182E-08-3.07181E-08-6.70683E-08-2.17719E-08-3.58940E-11
 -1        33-2.50671E-06 5.05899E-08-1.61422E-08 1.09994E-07-7.12179E-10 1.08194E-08
 -1        34-2.44550E-06 2.24317E-07 1.41520E-08 1.06281E-07-7.12177E-10 1.08194E-08
 -1        35-7.38024E-15-1.57613E-14-8.83952E-15-4.19052E-15-9.97326E-15-9.97327E-15
 -1        36 5.54349E-14 1.17993E-13 6.67901E-14 3.12790E-14-1.70345E-14-1.70345E-14
 -1        37-3.79413E-08-3.79413E-08-8.78822E-17-1.59932E-21-1.63642E-18-1.63643E-18
 -1        38-1.89707E-08-1.89707E-08-1.05270E-17 2.36392E-17-8.18210E-19-6.57176E-18
 -1        39-1.91105E-08 2.74780E-07 2.74027E-10 1.20235E-09-7.02088E-16 1.95736E-10
 -1        40-2.02178E-08 2.71637E-07-2.74028E-10 1.20235E-09-7.04314E-16 1.95735E-10
 -1        41 5.19073E-08-2.29062E-06 3.07181E-08 4.67107E-08 1.16775E-10 2.17719E-08
 -1        42-1.42595E-07-5.28064E-06-6.05242E-08 9.23613E-08 2.33551E-10 4.35707E-08
 -1        43-1.89707E-08-1.89707E-08-1.05269E-17 2.36392E-17-6.57176E-18-8.18214E-19
 -1        44-1.26471E-08-1.26471E-08 1.52582E-17 3.15195E-17-4.38117E-18-4.38117E-18
 -1        45-1.27403E-08 1.83187E-07 1.82685E-10 1.23017E-10 1.27047E-16 1.30491E-10
 -1        46-1.34785E-08 1.81091E-07-1.82685E-10 1.23018E-10 1.21469E-16 1.30490E-10
 -1        47 3.34514E-08-1.52753E-06 2.01433E-08-4.43588E-08 5.39216E-11 1.45146E-08
 -1        48-7.30278E-08-2.64099E-06-3.07653E-08-6.70683E-08 8.08826E-11 2.17854E-08
 -1        49 2.74780E-07-1.91105E-08 2.74027E-10 1.20235E-09 1.95736E-10-7.00819E-16
 -1        50 1.83187E-07-1.27403E-08 1.82685E-10 1.23017E-10 1.30491E-10 1.31773E-16
 -1        51 1.00764E-07 1.00764E-07-2.19047E-08-1.56017E-08-7.82310E-09-7.82310E-09
 -1        52 1.45020E-07 2.26380E-07-1.08168E-16 2.50784E-08-7.82310E-09-7.82310E-09
 -1        53 3.64105E-08-1.66350E-06-9.43082E-09 3.58227E-08-7.21293E-09 4.74784E-10
 -1        54 5.05899E-08-2.50671E-06-1.61422E-08 1.09994E-07-1.08194E-08 7.12178E-10
 -1        55 2.71637E-07-2.02178E-08-2.74028E-10 1.20235E-09 1.95735E-10-7.16026E-16
 -1        56 1.81091E-07-1.34785E-08-1.82685E-10 1.23018E-10 1.30490E-10 1.17277E-16
 -1        57 2.26380E-07 1.45020E-07 4.21368E-16 2.50784E-08-7.82310E-09-7.82310E-09
 -1        58 2.70637E-07 2.70637E-07 2.19047E-08 6.57586E-08-7.82310E-09-7.82310E-09
 -1        59 1.52229E-07-1.62270E-06 1.07653E-08 3.33470E-08-7.21294E-09 4.74784E-10
 -1        60 2.24317E-07-2.44550E-06 1.41520E-08 1.06281E-07-1.08194E-08 7.12176E-10
 -1        61-2.29062E-06 5.19073E-08 3.07181E-08 4.67107E-08 2.17719E-08 1.16775E-10
 -1        62-1.52753E-06 3.34514E-08 2.01433E-08-4.43588E-08 1.45146E-08 5.39216E-11
 -1        63-1.66350E-06 3.64105E-08-9.43083E-09 3.58227E-08 4.74784E-10-7.21293E-09
 -1        64-1.62270E-06 1.52229E-07 1.07653E-08 3.33470E-08 4.74785E-10-7.21294E-09
 -1        65 3.55538E-16 5.40875E-15-4.22362E-15 2.52660E-15 1.27010E-15 1.97229E-15
 -1        66-2.11823E-14-4.94707E-14-2.11368E-14-1.41442E-14 1.00848E-14 1.09821E-14
 -1        67-5.28064E-06-1.42595E-07-6.05242E-08 9.23613E-08 4.35707E-08 2.33551E-10
 -1        68-2.64099E-06-7.30278E-08-3.07653E-08-6.70683E-08 2.17854E-08 8.08827E-11
 -1        69-2.50671E-06 5.05899E-08-1.61422E-08 1.09994E-07 7.12179E-10-1.08194E-08
 -1        70-2.44550E-06 2.24317E-07 1.41520E-08 1.06281E-07 7.12174E-10-1.08194E-08
 -1        71 9.98192E-16 3.78840E-15-4.61089E-16 1.39510E-15 2.53102E-15 3.74020E-15
 -1        72-7.10337E-15-2.79297E-14 4.25185E-15-1.04132E-14-1.55809E-14-1.34743E-14
 -3
    1PSTEP                        24           8           1          
  100CL  108 3.07813E-02          72                     0    8           1
 -4  TOSTRAIN    6    1
 -5  EXX         1    4    1    1
 -5  EYY         1    4    2    2
 -5  EZZ         1    4    3    3
 -5  EXY         1    4    1    2
 -5  EYZ         1    4    2    3
 -5  EZX         1    4    3    1
 -1         1-1.26471E-13-1.26471E-13 1.08404E-13-9.90318E-27 1.37540E-27 1.37220E-27
 -1         2-6.32355E-14-6.32355E-14 5.42019E-14 1.46338E-22 6.88567E-28-3.56165E-23
 -1         3-4.83936E-13 1.33539E-12-3.63937E-13 7.44311E-15-1.94129E-26-1.21170E-15
 -1         4-4.83936E-13 1.32278E-12-3.60475E-13 7.44312E-15-1.96911E-26-1.21171E-15
 -1         5 3.47537E-12-1.10251E-11 3.34443E-12 2.89162E-13-8.46854E-21-1.34862E-13
 -1         6 6.95075E-12-2.48545E-11 7.45927E-12 5.71760E-13-1.69371E-20-2.69557E-13
 -1         7-6.32355E-14-6.32355E-14 5.42019E-14 1.46338E-22-3.56165E-23 6.88530E-28
 -1         8-4.21570E-14-4.21570E-14 3.61346E-14 1.95120E-22-2.37444E-23-2.37443E-23
 -1         9-3.22624E-13 8.90257E-13-2.42625E-13 7.61535E-16 3.68398E-21-8.07801E-16
 -1        10-3.22624E-13 8.81856E-13-2.40317E-13 7.61540E-16 3.65863E-21-8.07805E-16
 -1        11 2.31254E-12-7.35008E-12 2.23031E-12-2.74602E-13-1.48134E-16-8.99078E-14
 -1        12 3.46881E-12-1.24272E-11 3.73067E-12-4.15185E-13-2.22201E-16-1.34779E-13
 -1        13 1.33539E-12-4.83936E-13-3.63937E-13 7.44311E-15-1.21170E-15-1.93281E-26
 -1        14 8.90257E-13-3.22624E-13-2.42625E-13 7.61535E-16-8.07801E-16 3.70799E-21
 -1        15 3.67172E-13 3.67172E-13-3.92205E-13-9.65820E-14 4.84287E-14 4.84287E-14
 -1        16 3.67172E-13 8.70831E-13-5.30572E-13 1.55247E-13 4.84287E-14 4.84287E-14
 -1        17 2.56326E-12-7.95996E-12 2.27951E-12 2.22403E-13 4.46513E-14-2.94185E-15
 -1        18 3.84489E-12-1.19858E-11 3.43187E-12 6.81885E-13 6.69770E-14-4.41278E-15
 -1        19 1.32278E-12-4.83936E-13-3.60475E-13 7.44312E-15-1.21171E-15-1.98728E-26
 -1        20 8.81856E-13-3.22624E-13-2.40317E-13 7.61540E-16-8.07805E-16 3.68102E-21
 -1        21 8.70831E-13 3.67172E-13-5.30572E-13 1.55247E-13 4.84287E-14 4.84287E-14
 -1        22 8.70831E-13 8.70831E-13-6.68940E-13 4.07077E-13 4.84287E-14 4.84287E-14
 -1        23 3.02764E-12-7.95996E-12 2.15194E-12 2.07105E-13 4.46513E-14-2.94188E-15
 -1        24 4.54145E-12-1.19858E-11 3.24051E-12 6.58939E-13 6.69770E-14-4.41282E-15
 -1        25-1.10251E-11 3.47537E-12 3.34443E-12 2.89162E-13-1.34862E-13-8.46854E-21
 -1        26-7.35008E-12 2.31254E-12 2.23031E-12-2.74602E-13-8.99078E-14-1.48134E-16
 -1        27-7.95996E-12 2.56326E-12 2.27951E-12 2.22403E-13-2.94186E-15 4.46513E-14
 -1        28-7.95996E-12 3.02764E-12 2.15194E-12 2.07105E-13-2.94187E-15 4.46513E-14
 -1        29-3.98933E-40 5.94504E-23-2.83472E-20 2.97252E-23-7.58075E-20-7.58076E-20
 -1        30-5.98399E-40-3.32037E-22 2.81240E-22-1.66018E-22 4.50425E-20 4.50424E-20
 -1        31-2.48545E-11 6.95075E-12 7.45927E-12 5.71760E-13-2.69557E-13-1.69371E-20
 -1        32-1.24272E-11 3.46881E-12 3.73067E-12-4.15185E-13-1.34779E-13-2.22201E-16
 -1        33-1.19858E-11 3.84489E-12 3.43187E-12 6.81885E-13-4.41282E-15 6.69771E-14
 -1        34-1.19858E-11 4.54145E-12 3.24051E-12 6.58938E-13-4.41281E-15 6.69769E-14
 -1        35-6.37575E-40-5.18826E-20-9.03365E-21-2.59413E-20-6.17392E-20-6.17393E-20
 -1        36-1.27515E-39 3.87263E-19 7.02942E-20 1.93632E-19-1.05451E-19-1.05452E-19
 -1        37-1.26471E-13-1.26471E-13 1.08404E-13-9.90058E-27-1.01302E-23-1.01303E-23
 -1        38-6.32355E-14-6.32355E-14 5.42019E-14 1.46338E-22-5.06511E-24-4.06823E-23
 -1        39-4.83936E-13 1.33539E-12-3.63937E-13 7.44311E-15-4.34626E-21 1.21170E-15
 -1        40-4.83936E-13 1.32278E-12-3.60475E-13 7.44312E-15-4.36004E-21 1.21169E-15
 -1        41 3.47561E-12-1.10257E-11 3.34443E-12 2.89162E-13 7.22894E-16 1.34779E-13
 -1        42 6.95121E-12-2.48557E-11 7.45927E-12 5.71760E-13 1.44579E-15 2.69723E-13
 -1        43-6.32355E-14-6.32355E-14 5.42019E-14 1.46338E-22-4.06823E-23-5.06513E-24
 -1        44-4.21570E-14-4.21570E-14 3.61346E-14 1.95120E-22-2.71216E-23-2.71215E-23
 -1        45-3.22624E-13 8.90257E-13-2.42625E-13 7.61534E-16 7.86483E-22 8.07798E-16
 -1        46-3.22624E-13 8.81856E-13-2.40317E-13 7.61540E-16 7.51950E-22 8.07795E-16
 -1        47 2.31270E-12-7.35049E-12 2.23031E-12-2.74602E-13 3.33801E-16 8.98524E-14
 -1        48 3.46904E-12-1.24279E-11 3.73067E-12-4.15185E-13 5.00702E-16 1.34862E-13
 -1        49 1.33539E-12-4.83936E-13-3.63937E-13 7.44311E-15 1.21170E-15-4.33841E-21
 -1        50 8.90257E-13-3.22624E-13-2.42625E-13 7.61535E-16 8.07799E-16 8.15737E-22
 -1        51 3.67172E-13 3.67172E-13-3.92205E-13-9.65820E-14-4.84287E-14-4.84287E-14
 -1        52 3.67172E-13 8.70831E-13-5.30572E-13 1.55247E-13-4.84287E-14-4.84287E-14
 -1        53 2.56326E-12-7.95996E-12 2.27951E-12 2.22403E-13-4.46513E-14 2.94187E-15
 -1        54 3.84489E-12-1.19858E-11 3.43187E-12 6.81885E-13-6.69770E-14 4.41282E-15
 -1        55 1.32278E-12-4.83936E-13-3.60475E-13 7.44312E-15 1.21169E-15-4.43254E-21
 -1        56 8.81856E-13-3.22624E-13-2.40317E-13 7.61540E-16 8.07795E-16 7.26001E-22
 -1        57 8.70831E-13 3.67172E-13-5.30572E-13 1.55247E-13-4.84287E-14-4.84287E-14
 -1        58 8.70831E-13 8.70831E-13-6.68940E-13 4.07077E-13-4.84287E-14-4.84287E-14
 -1        59 3.02764E-12-7.95996E-12 2.15194E-12 2.07105E-13-4.46514E-14 2.94187E-15
 -1        60 4.54145E-12-1.19858E-11 3.24051E-12 6.58939E-13-6.69769E-14 4.41280E-15
 -1        61-1.10257E-11 3.47561E-12 3.34443E-12 2.89162E-13 1.34779E-13 7.22894E-16
 -1        62-7.35049E-12 2.31270E-12 2.23031E-12-2.74602E-13 8.98524E-14 3.33801E-16
 -1        63-7.95996E-12 2.56326E-12 2.27951E-12 2.22403E-13 2.94187E-15-4.46513E-14
 -1        64-7.95996E-12 3.02764E-12 2.15194E-12 2.07105E-13 2.94187E-15-4.46513E-14
 -1        65 1.99449E-39 3.12818E-20-2.83472E-20 1.56409E-20 7.86253E-21 1.22094E-20
 -1        66 2.99174E-39-1.75119E-19 2.81240E-22-8.75595E-20 6.24295E-20 6.79847E-20
 -1        67-2.48557E-11 6.95121E-12 7.45927E-12 5.71760E-13 2.69723E-13 1.44579E-15
 -1        68-1.24279E-11 3.46904E-12 3.73067E-12-4.15185E-13 1.34862E-13 5.00702E-16
 -1        69-1.19858E-11 3.84489E-12 3.43187E-12 6.81885E-13 4.41282E-15-6.69770E-14
 -1        70-1.19858E-11 4.54145E-12 3.24051E-12 6.58939E-13 4.41279E-15-6.69770E-14
 -1        71 3.18763E-39 1.72727E-20-9.03365E-21 8.63635E-21 1.56682E-20 2.31536E-20
 -1        72 6.37526E-39-1.28925E-19 7.02942E-20-6.44626E-20-9.64532E-20-8.34126E-20
 -3
    1PSTEP                        25           9           1          
  100CL  109 3.97813E-02          72                     0    9           1
 -4  DISP        4    1
 -5  D1          1    2    1    0
 -5  D2          1    2    2    0
 -5  D3          1    2    3    0
 -5  ALL         1    2    0    0    1ALL
 -1         1 0.00000E+00 0.00000E+00 0.00000E+00
 -1         2-1.40790E-10 0.00000E+00 0.00000E+00
 -1         3-7.39145E-03 0.00000E+00 0.00000E+00
 -1         4-7.39145E-03 0.00000E+00 0.00000E+00
 -1         5-1.55114E-02 0.00000E+00 0.00000E+00
 -1         6-1.55114E-02 0.00000E+00 0.00000E+00
 -1         7 0.00000E+00-1.40790E-10 0.00000E+00
 -1         8-1.40790E-10-1.40790E-10 0.00000E+00
 -1         9-7.39145E-03 2.32090E-09 0.00000E+00
 -1        10-7.39145E-03 2.28308E-09 0.00000E+00
 -1        11-1.55114E-02-1.35339E-08 0.00000E+00
 -1        12-1.55114E-02-1.58117E-08 0.00000E+00
 -1        13 0.00000E+00-7.39145E-03 0.00000E+00
 -1        14 2.32090E-09-7.39145E-03 0.00000E+00
 -1        15 8.18793E-02 8.18793E-02 0.00000E+00
 -1        16 8.18793E-02 8.18793E-02 0.00000E+00
 -1        17 1.26552E-01-5.15668E-01 0.00000E+00
 -1        18 1.26549E-01-5.67671E-01 0.00000E+00
 -1        19 0.00000E+00-7.39145E-03 0.00000E+00
 -1        20 2.28308E-09-7.39145E-03 0.00000E+00
 -1        21 8.18793E-02 8.18793E-02 0.00000E+00
 -1        22 8.18793E-02 8.18793E-02 0.00000E+00
 -1        23 1.78554E-01-5.15671E-01 0.00000E+00
 -1        24 1.78551E-01-5.67673E-01 0.00000E+00
 -1        25 0.00000E+00-1.55114E-02 0.00000E+00
 -1        26-1.35339E-08-1.55114E-02 0.00000E+00
 -1        27-5.15668E-01 1.26552E-01 0.00000E+00
 -1        28-5.15671E-01 1.78554E-01 0.00000E+00
 -1        29-1.19344E+00-1.19344E+00 0.00000E+00
 -1        30-1.19344E+00-1.19344E+00 0.00000E+00
 -1        31 0.00000E+00-1.55114E-02 0.00000E+00
 -1        32-1.58117E-08-1.55114E-02 0.00000E+00
 -1        33-5.67671E-01 1.26549E-01 0.00000E+00
 -1        34-5.67673E-01 1.78551E-01 0.00000E+00
 -1        35-1.19344E+00-1.19344E+00 0.00000E+00
 -1        36-1.19344E+00-1.19344E+00 0.00000E+00
 -1        37 0.00000E+00 0.00000E+00 1.68947E-10
 -1        38-1.40790E-10 0.00000E+00 1.68947E-10
 -1        39-7.39145E-03 0.00000E+00-8.58881E-10
 -1        40-7.39145E-03 0.00000E+00-8.44333E-10
 -1        41-1.55114E-02 0.00000E+00 5.78609E-09
 -1        42-1.55114E-02 0.00000E+00 6.66214E-09
 -1        43 0.00000E+00-1.40790E-10 1.68947E-10
 -1        44-1.40790E-10-1.40790E-10 1.68947E-10
 -1        45-7.39145E-03 2.32090E-09-8.58881E-10
 -1        46-7.39145E-03 2.28308E-09-8.44333E-10
 -1        47-1.55114E-02-1.35359E-08 5.79061E-09
 -1        48-1.55114E-02-1.58136E-08 6.66667E-09
 -1        49 0.00000E+00-7.39145E-03-8.58881E-10
 -1        50 2.32090E-09-7.39145E-03-8.58881E-10
 -1        51 8.18793E-02 8.18793E-02-1.44419E-09
 -1        52 8.18793E-02 8.18793E-02-1.93118E-09
 -1        53 1.26552E-01-5.15668E-01 5.90905E-09
 -1        54 1.26549E-01-5.67671E-01 5.95090E-09
 -1        55 0.00000E+00-7.39145E-03-8.44333E-10
 -1        56 2.28308E-09-7.39145E-03-8.44333E-10
 -1        57 8.18793E-02 8.18793E-02-1.93118E-09
 -1        58 8.18793E-02 8.18793E-02-2.41817E-09
 -1        59 1.78554E-01-5.15671E-01 5.47882E-09
 -1        60 1.78551E-01-5.67673E-01 5.52067E-09
 -1        61 0.00000E+00-1.55114E-02 5.78609E-09
 -1        62-1.35359E-08-1.55114E-02 5.79061E-09
 -1        63-5.15668E-01 1.26552E-01 5.90905E-09
 -1        64-5.15671E-01 1.78554E-01 5.47882E-09
 -1        65-1.19344E+00-1.19344E+00 4.72204E-17
 -1        66-1.19344E+00-1.19344E+00-3.40216E-17
 -1        67 0.00000E+00-1.55114E-02 6.66214E-09
 -1        68-1.58136E-08-1.55114E-02 6.66667E-09
 -1        69-5.67671E-01 1.26549E-01 5.95090E-09
 -1        70-5.67673E-01 1.78551E-01 5.52067E-09
 -1        71-1.19344E+00-1.19344E+00-1.77205E-17
 -1        72-1.19344E+00-1.19344E+00 6.34144E-17
 -3
    1PSTEP                        26           9           1          
  100CL  109 3.97813E-02          72                     0    9           1
 -4  STRESS      6    1
 -5  SXX         1    4    1    1
 -5  SYY         1    4    2    2
 -5  SZZ         1    4    3    3
 -5  SXY         1    4    1    2
 -5  SYZ         1    4    2    3
 -5  SZX         1    4    3    1
 -1         1-8.44703E-08-8.44703E-08-1.16893E-16-4.74714E-21 6.46047E-22 6.45081E-22
 -1         2-4.22352E-08-4.22352E-08 4.26178E-17 7.00582E-17 3.22375E-22-1.73147E-17
 -1         3-4.26547E-08 4.74820E-07 8.22467E-10 3.60873E-09-5.63473E-21-5.87480E-10
 -1         4-4.59782E-08 4.65386E-07-8.22467E-10 3.60873E-09-5.86401E-21-5.87482E-10
 -1         5 7.84165E-08-2.80336E-06 5.03917E-08 6.96158E-08-4.28165E-15-3.53999E-08
 -1         6-2.43454E-07-6.74290E-06-9.73382E-08 1.35913E-07-8.56330E-15-7.07157E-08
 -1         7-4.22352E-08-4.22352E-08 4.23027E-17 7.04102E-17-1.72734E-17 3.22437E-22
 -1         8-2.81568E-08-2.81568E-08 9.56700E-17 9.36472E-17-1.16820E-17-1.14967E-17
 -1         9-2.84365E-08 3.16546E-07 5.48311E-10 3.69224E-10 9.89705E-16-3.91654E-10
 -1        10-3.06521E-08 3.10258E-07-5.48311E-10 3.69225E-10 9.82249E-16-3.91655E-10
 -1        11 4.86674E-08-1.87031E-06 3.25445E-08-7.62362E-08-7.48972E-11-2.35999E-08
 -1        12-1.27142E-07-3.37354E-06-5.02441E-08-1.16014E-07-1.12346E-10-3.53579E-08
 -1        13 4.74820E-07-4.26547E-08 8.22467E-10 3.60873E-09-5.87480E-10-5.67555E-21
 -1        14 3.16546E-07-2.84365E-08 5.48312E-10 3.69224E-10-3.91654E-10 9.99439E-16
 -1        15 1.79501E-07 1.79501E-07-3.67112E-08-2.74025E-08 1.31112E-08 1.31112E-08
 -1        16 2.53673E-07 3.90029E-07 1.53464E-15 4.07755E-08 1.31112E-08 1.31112E-08
 -1        17 7.15254E-08-2.08988E-06-1.46254E-08 6.05727E-08 1.15832E-08-1.12567E-09
 -1        18 9.77446E-08-3.16198E-06-2.66710E-08 1.81205E-07 1.73747E-08-1.68849E-09
 -1        19 4.65386E-07-4.59782E-08-8.22467E-10 3.60873E-09-5.87482E-10-5.84409E-21
 -1        20 3.10258E-07-3.06521E-08-5.48311E-10 3.69225E-10-3.91655E-10 9.82494E-16
 -1        21 3.90029E-07 2.53673E-07-1.21597E-15 4.07755E-08 1.31112E-08 1.31112E-08
 -1        22 4.64200E-07 4.64200E-07 3.67112E-08 1.08954E-07 1.31112E-08 1.31112E-08
 -1        23 2.57515E-07-2.02435E-06 1.78071E-08 5.47004E-08 1.15832E-08-1.12567E-09
 -1        24 3.76729E-07-3.06369E-06 2.19778E-08 1.72397E-07 1.73748E-08-1.68850E-09
 -1        25-2.80336E-06 7.84165E-08 5.03917E-08 6.96158E-08-3.53999E-08-4.28165E-15
 -1        26-1.87031E-06 4.86674E-08 3.25445E-08-7.62362E-08-2.35999E-08-7.48972E-11
 -1        27-2.08988E-06 7.15254E-08-1.46254E-08 6.05727E-08-1.12566E-09 1.15832E-08
 -1        28-2.02435E-06 2.57515E-07 1.78071E-08 5.47004E-08-1.12566E-09 1.15832E-08
 -1        29 1.11970E-14 2.24940E-14 1.48292E-14 5.64851E-15 1.06554E-14 1.06554E-14
 -1        30-2.76237E-14-6.05296E-14-3.15492E-14-1.64530E-14 2.18386E-14 2.18385E-14
 -1        31-6.74290E-06-2.43454E-07-9.73382E-08 1.35913E-07-7.07157E-08-8.56330E-15
 -1        32-3.37354E-06-1.27142E-07-5.02441E-08-1.16014E-07-3.53579E-08-1.12346E-10
 -1        33-3.16198E-06 9.77446E-08-2.66710E-08 1.81205E-07-1.68850E-09 1.73748E-08
 -1        34-3.06369E-06 3.76729E-07 2.19778E-08 1.72397E-07-1.68849E-09 1.73748E-08
 -1        35 3.75984E-15 1.08177E-14 1.71516E-15 3.52890E-15 9.02529E-15 9.02536E-15
 -1        36 1.69695E-14 2.49617E-14 3.16033E-14 3.99609E-15-5.95258E-15-5.95254E-15
 -1        37-8.44703E-08-8.44703E-08-2.62166E-16-4.74982E-21-3.47262E-18-3.64302E-18
 -1        38-4.22352E-08-4.22352E-08-3.05428E-17 7.01557E-17-1.68114E-18-1.91365E-17
 -1        39-4.26547E-08 4.74820E-07 8.22467E-10 3.60873E-09-1.11663E-15 5.87480E-10
 -1        40-4.59782E-08 4.65386E-07-8.22467E-10 3.60873E-09-1.16835E-15 5.87478E-10
 -1        41 7.83864E-08-2.80383E-06 5.02441E-08 6.96158E-08 3.65494E-10 3.53579E-08
 -1        42-2.43514E-07-6.74382E-06-9.76336E-08 1.35913E-07 7.30989E-10 7.07998E-08
 -1        43-4.22352E-08-4.22352E-08-3.01874E-17 7.00608E-17-1.90101E-17-1.76634E-18
 -1        44-2.81568E-08-2.81568E-08 4.69938E-17 9.34792E-17-1.28030E-17-1.26745E-17
 -1        45-2.84365E-08 3.16546E-07 5.48311E-10 3.69224E-10 2.45290E-16 3.91653E-10
 -1        46-3.06521E-08 3.10258E-07-5.48311E-10 3.69225E-10 2.03351E-16 3.91652E-10
 -1        47 4.86474E-08-1.87062E-06 3.24461E-08-7.62362E-08 1.68769E-10 2.35719E-08
 -1        48-1.27172E-07-3.37401E-06-5.03917E-08-1.16014E-07 2.53153E-10 3.53999E-08
 -1        49 4.74820E-07-4.26547E-08 8.22467E-10 3.60873E-09 5.87479E-10-1.13773E-15
 -1        50 3.16546E-07-2.84365E-08 5.48312E-10 3.69224E-10 3.91653E-10 2.40958E-16
 -1        51 1.79501E-07 1.79501E-07-3.67112E-08-2.74025E-08-1.31112E-08-1.31112E-08
 -1        52 2.53673E-07 3.90029E-07-6.63090E-16 4.07755E-08-1.31112E-08-1.31112E-08
 -1        53 7.15254E-08-2.08988E-06-1.46254E-08 6.05727E-08-1.15832E-08 1.12567E-09
 -1        54 9.77446E-08-3.16198E-06-2.66710E-08 1.81205E-07-1.73748E-08 1.68850E-09
 -1        55 4.65386E-07-4.59782E-08-8.22467E-10 3.60873E-09 5.87478E-10-1.16032E-15
 -1        56 3.10258E-07-3.06521E-08-5.48311E-10 3.69225E-10 3.91652E-10 2.08950E-16
 -1        57 3.90029E-07 2.53673E-07 2.64088E-15 4.07755E-08-1.31112E-08-1.31112E-08
 -1        58 4.64200E-07 4.64200E-07 3.67112E-08 1.08954E-07-1.31112E-08-1.31112E-08
 -1        59 2.57515E-07-2.02435E-06 1.78071E-08 5.47004E-08-1.15832E-08 1.12567E-09
 -1        60 3.76729E-07-3.06369E-06 2.19778E-08 1.72397E-07-1.73747E-08 1.68850E-09
 -1        61-2.80383E-06 7.83864E-08 5.02441E-08 6.96158E-08 3.53579E-08 3.65494E-10
 -1        62-1.87062E-06 4.86474E-08 3.24461E-08-7.62362E-08 2.35719E-08 1.68769E-10
 -1        63-2.08988E-06 7.15254E-08-1.46255E-08 6.05727E-08 1.12567E-09-1.15832E-08
 -1        64-2.02435E-06 2.57515E-07 1.78071E-08 5.47004E-08 1.12567E-09-1.15832E-08
 -1        65-1.89767E-14-4.79112E-14-1.53444E-14-1.44672E-14-9.90474E-15-1.07825E-14
 -1        66 3.36317E-14 8.23995E-14 2.97061E-14 2.43839E-14 2.67538E-15-1.17562E-14
 -1        67-6.74382E-06-2.43514E-07-9.76336E-08 1.35913E-07 7.07998E-08 7.30989E-10
 -1        68-3.37401E-06-1.27172E-07-5.03917E-08-1.16014E-07 3.53999E-08 2.53153E-10
 -1        69-3.16198E-06 9.77446E-08-2.66710E-08 1.81205E-07 1.68850E-09-1.73748E-08
 -1        70-3.06369E-06 3.76729E-07 2.19778E-08 1.72397E-07 1.68850E-09-1.73748E-08
 -1        71-1.62598E-14-3.58948E-14-1.83045E-14-9.81751E-15 1.94371E-14 3.12354E-14
 -1        72-4.89226E-14-1.28787E-13-3.42888E-14-3.99320E-14-4.14031E-14-4.40363E-14
 -3
    1PSTEP                        27           9           1          
  100CL  109 3.97813E-02          72                     0    9           1
 -4  TOSTRAIN    6    1
 -5  EXX         1    4    1    1
 -5  EYY         1    4    2    2
 -5  EZZ         1    4    3    3
 -5  EXY         1    4    1    2
 -5  EYZ         1    4    2    3
 -5  EZX         1    4    3    1
 -1         1-2.81568E-13-2.81568E-13 2.41344E-13-2.93870E-26 3.99934E-27 3.99336E-27
 -1         2-1.40784E-13-1.40784E-13 1.20672E-13 4.33694E-22 1.99566E-27-1.07186E-22
 -1         3-8.82606E-13 2.32081E-12-6.13462E-13 2.23397E-14-3.48816E-26-3.63678E-15
 -1         4-8.82606E-13 2.28298E-12-6.03071E-13 2.23397E-14-3.63010E-26-3.63679E-15
 -1         5 4.30623E-12-1.35334E-11 4.13274E-12 4.30955E-13-2.65055E-20-2.19142E-13
 -1         6 8.61246E-12-3.16222E-11 9.51698E-12 8.41368E-13-5.30109E-20-4.37764E-13
 -1         7-1.40784E-13-1.40784E-13 1.20672E-13 4.35873E-22-1.06931E-22 1.99604E-27
 -1         8-9.38559E-14-9.38559E-14 8.04479E-14 5.79721E-22-7.23173E-23-7.11699E-23
 -1         9-5.88404E-13 1.54720E-12-4.08975E-13 2.28567E-15 6.12674E-21-2.42452E-15
 -1        10-5.88404E-13 1.52199E-12-4.02047E-13 2.28568E-15 6.08059E-21-2.42453E-15
 -1        11 2.85712E-12-9.02224E-12 2.75732E-12-4.71939E-13-4.63649E-16-1.46095E-13
 -1        12 4.28569E-12-1.58111E-11 4.76172E-12-7.18179E-13-6.95473E-16-2.18882E-13
 -1        13 2.32081E-12-8.82606E-13-6.13462E-13 2.23397E-14-3.63678E-15-3.51343E-26
 -1        14 1.54720E-12-5.88404E-13-4.08975E-13 2.28567E-15-2.42452E-15 6.18700E-21
 -1        15 6.50782E-13 6.50782E-13-6.87676E-13-1.69634E-13 8.11643E-14 8.11643E-14
 -1        16 6.50782E-13 1.49489E-12-9.19574E-13 2.52420E-13 8.11643E-14 8.11643E-14
 -1        17 3.34696E-12-1.00330E-11 2.81372E-12 3.76365E-13 7.17046E-14-6.97586E-15
 -1        18 5.02044E-12-1.51584E-11 4.25048E-12 1.12384E-12 1.07557E-13-1.04638E-14
 -1        19 2.28298E-12-8.82606E-13-6.03071E-13 2.23397E-14-3.63679E-15-3.61777E-26
 -1        20 1.52199E-12-5.88404E-13-4.02047E-13 2.28568E-15-2.42453E-15 6.08211E-21
 -1        21 1.49489E-12 6.50782E-13-9.19574E-13 2.52420E-13 8.11643E-14 8.11643E-14
 -1        22 1.49489E-12 1.49489E-12-1.15147E-12 6.74474E-13 8.11643E-14 8.11643E-14
 -1        23 4.09269E-12-1.00330E-11 2.60885E-12 3.40091E-13 7.17047E-14-6.97588E-15
 -1        24 6.13903E-12-1.51584E-11 3.94318E-12 1.06943E-12 1.07557E-13-1.04638E-14
 -1        25-1.35334E-11 4.30623E-12 4.13274E-12 4.30955E-13-2.19142E-13-2.65055E-20
 -1        26-9.02224E-12 2.85712E-12 2.75732E-12-4.71939E-13-1.46095E-13-4.63649E-16
 -1        27-1.00330E-11 3.34696E-12 2.81372E-12 3.76365E-13-6.97586E-15 7.17045E-14
 -1        28-1.00330E-11 4.09269E-12 2.60885E-12 3.40091E-13-6.97585E-15 7.17046E-14
 -1        29-2.45115E-40 6.99339E-20 2.24854E-20 3.49670E-20 6.59618E-20 6.59619E-20
 -1        30-3.67671E-40-2.03704E-19-2.43012E-20-1.01852E-19 1.35191E-19 1.35191E-19
 -1        31-3.16222E-11 8.61246E-12 9.51698E-12 8.41368E-13-4.37764E-13-5.30109E-20
 -1        32-1.58111E-11 4.28569E-12 4.76172E-12-7.18179E-13-2.18882E-13-6.95473E-16
 -1        33-1.51584E-11 5.02044E-12 4.25048E-12 1.12384E-12-1.04638E-14 1.07557E-13
 -1        34-1.51584E-11 6.13903E-12 3.94318E-12 1.06943E-12-1.04638E-14 1.07557E-13
 -1        35-3.64771E-40 4.36912E-20-1.26575E-20 2.18456E-20 5.58708E-20 5.58712E-20
 -1        36-7.29540E-40 4.94754E-20 9.05903E-20 2.47377E-20-3.68493E-20-3.68490E-20
 -1        37-2.81568E-13-2.81568E-13 2.41344E-13-2.94036E-26-2.14972E-23-2.25520E-23
 -1        38-1.40784E-13-1.40784E-13 1.20672E-13 4.34297E-22-1.04070E-23-1.18464E-22
 -1        39-8.82606E-13 2.32081E-12-6.13462E-13 2.23397E-14-6.91245E-21 3.63678E-15
 -1        40-8.82606E-13 2.28298E-12-6.03071E-13 2.23397E-14-7.23266E-21 3.63677E-15
 -1        41 4.30696E-12-1.35353E-11 4.13274E-12 4.30955E-13 2.26258E-15 2.18882E-13
 -1        42 8.61392E-12-3.16261E-11 9.51698E-12 8.41368E-13 4.52517E-15 4.38284E-13
 -1        43-1.40784E-13-1.40784E-13 1.20672E-13 4.33710E-22-1.17681E-22-1.09345E-23
 -1        44-9.38559E-14-9.38559E-14 8.04479E-14 5.78681E-22-7.92567E-23-7.84609E-23
 -1        45-5.88404E-13 1.54720E-12-4.08975E-13 2.28567E-15 1.51846E-21 2.42452E-15
 -1        46-5.88404E-13 1.52199E-12-4.02047E-13 2.28568E-15 1.25884E-21 2.42451E-15
 -1        47 2.85761E-12-9.02354E-12 2.75732E-12-4.71939E-13 1.04476E-15 1.45921E-13
 -1        48 4.28642E-12-1.58130E-11 4.76172E-12-7.18179E-13 1.56714E-15 2.19142E-13
 -1        49 2.32081E-12-8.82606E-13-6.13462E-13 2.23397E-14 3.63678E-15-7.04307E-21
 -1        50 1.54720E-12-5.88404E-13-4.08975E-13 2.28567E-15 2.42452E-15 1.49164E-21
 -1        51 6.50782E-13 6.50782E-13-6.87676E-13-1.69634E-13-8.11643E-14-8.11643E-14
 -1        52 6.50782E-13 1.49489E-12-9.19574E-13 2.52420E-13-8.11643E-14-8.11643E-14
 -1        53 3.34696E-12-1.00330E-11 2.81372E-12 3.76365E-13-7.17047E-14 6.97586E-15
 -1        54 5.02044E-12-1.51584E-11 4.25048E-12 1.12384E-12-1.07557E-13 1.04638E-14
 -1        55 2.28298E-12-8.82606E-13-6.03071E-13 2.23397E-14 3.63677E-15-7.18295E-21
 -1        56 1.52199E-12-5.88404E-13-4.02047E-13 2.28568E-15 2.42451E-15 1.29350E-21
 -1        57 1.49489E-12 6.50782E-13-9.19574E-13 2.52420E-13-8.11643E-14-8.11643E-14
 -1        58 1.49489E-12 1.49489E-12-1.15147E-12 6.74474E-13-8.11643E-14-8.11643E-14
 -1        59 4.09269E-12-1.00330E-11 2.60885E-12 3.40091E-13-7.17046E-14 6.97588E-15
 -1        60 6.13903E-12-1.51584E-11 3.94318E-12 1.06943E-12-1.07557E-13 1.04638E-14
 -1        61-1.35353E-11 4.30696E-12 4.13274E-12 4.30955E-13 2.18882E-13 2.26258E-15
 -1        62-9.02354E-12 2.85761E-12 2.75732E-12-4.71939E-13 1.45921E-13 1.04476E-15
 -1        63-1.00330E-11 3.34696E-12 2.81372E-12 3.76365E-13 6.97590E-15-7.17046E-14
 -1        64-1.00330E-11 4.09269E-12 2.60885E-12 3.40091E-13 6.97587E-15-7.17046E-14
 -1        65 1.22547E-39-1.79118E-19 2.24854E-20-8.95592E-20-6.13151E-20-6.67487E-20
 -1        66 1.83821E-39 3.01896E-19-2.43012E-20 1.50948E-19 1.65619E-20-7.27762E-20
 -1        67-3.16261E-11 8.61392E-12 9.51698E-12 8.41368E-13 4.38284E-13 4.52517E-15
 -1        68-1.58130E-11 4.28642E-12 4.76172E-12-7.18179E-13 2.19142E-13 1.56714E-15
 -1        69-1.51584E-11 5.02044E-12 4.25048E-12 1.12384E-12 1.04638E-14-1.07557E-13
 -1        70-1.51584E-11 6.13903E-12 3.94318E-12 1.06943E-12 1.04638E-14-1.07557E-13
 -1        71 1.82370E-39-1.21550E-19-1.26575E-20-6.07751E-20 1.20325E-19 1.93362E-19
 -1        72 3.64740E-39-4.94396E-19 9.05903E-20-2.47198E-19-2.56305E-19-2.72606E-19
 -3
    1PSTEP                        28          10           1          
  100CL  110 4.87813E-02          72                     0   10           1
 -4  DISP        4    1
 -5  D1          1    2    1    0
 -5  D2          1    2    2    0
 -5  D3          1    2    3    0
 -5  ALL         1    2    0    0    1ALL
 -1         1 0.00000E+00 0.00000E+00 0.00000E+00
 -1         2-2.62887E-10 0.00000E+00 0.00000E+00
 -1         3-1.38016E-02 0.00000E+00 0.00000E+00
 -1         4-1.38016E-02 0.00000E+00 0.00000E+00
 -1         5-2.93516E-02 0.00000E+00 0.00000E+00
 -1         6-2.93516E-02 0.00000E+00 0.00000E+00
 -1         7 0.00000E+00-2.62887E-10 0.00000E+00
 -1         8-2.62887E-10-2.62887E-10 0.00000E+00
 -1         9-1.38016E-02 3.61523E-09 0.00000E+00
 -1        10-1.38016E-02 3.52445E-09 0.00000E+00
 -1        11-2.93516E-02-1.56205E-08 0.00000E+00
 -1        12-2.93516E-02-1.89366E-08 0.00000E+00
 -1        13 0.00000E+00-1.38016E-02 0.00000E+00
 -1        14 3.61523E-09-1.38016E-02 0.00000E+00
 -1        15 1.25838E-01 1.25838E-01 0.00000E+00
 -1        16 1.25838E-01 1.25838E-01 0.00000E+00
 -1        17 1.98863E-01-6.00799E-01 0.00000E+00
 -1        18 1.98857E-01-6.80269E-01 0.00000E+00
 -1        19 0.00000E+00-1.38016E-02 0.00000E+00
 -1        20 3.52445E-09-1.38016E-02 0.00000E+00
 -1        21 1.25838E-01 1.25838E-01 0.00000E+00
 -1        22 1.25838E-01 1.25838E-01 0.00000E+00
 -1        23 2.78332E-01-6.00806E-01 0.00000E+00
 -1        24 2.78326E-01-6.80275E-01 0.00000E+00
 -1        25 0.00000E+00-2.93516E-02 0.00000E+00
 -1        26-1.56205E-08-2.93516E-02 0.00000E+00
 -1        27-6.00799E-01 1.98863E-01 0.00000E+00
 -1        28-6.00806E-01 2.78332E-01 0.00000E+00
 -1        29-1.46344E+00-1.46344E+00 0.00000E+00
 -1        30-1.46344E+00-1.46344E+00 0.00000E+00
 -1        31 0.00000E+00-2.93516E-02 0.00000E+00
 -1        32-1.89366E-08-2.93516E-02 0.00000E+00
 -1        33-6.80269E-01 1.98857E-01 0.00000E+00
 -1        34-6.80275E-01 2.78326E-01 0.00000E+00
 -1        35-1.46344E+00-1.46344E+00 0.00000E+00
 -1        36-1.46344E+00-1.46344E+00 0.00000E+00
 -1        37 0.00000E+00 0.00000E+00 3.15465E-10
 -1        38-2.62887E-10 0.00000E+00 3.15465E-10
 -1        39-1.38016E-02 0.00000E+00-1.29875E-09
 -1        40-1.38016E-02 0.00000E+00-1.26383E-09
 -1        41-2.93516E-02 0.00000E+00 6.73782E-09
 -1        42-2.93516E-02 0.00000E+00 8.01324E-09
 -1        43 0.00000E+00-2.62887E-10 3.15465E-10
 -1        44-2.62887E-10-2.62887E-10 3.15465E-10
 -1        45-1.38016E-02 3.61523E-09-1.29875E-09
 -1        46-1.38016E-02 3.52445E-09-1.26383E-09
 -1        47-2.93516E-02-1.56253E-08 6.74916E-09
 -1        48-2.93516E-02-1.89414E-08 8.02457E-09
 -1        49 0.00000E+00-1.38016E-02-1.29875E-09
 -1        50 3.61523E-09-1.38016E-02-1.29875E-09
 -1        51 1.25838E-01 1.25838E-01-2.26607E-09
 -1        52 1.25838E-01 1.25838E-01-2.99958E-09
 -1        53 1.98863E-01-6.00799E-01 6.83870E-09
 -1        54 1.98857E-01-6.80269E-01 6.92359E-09
 -1        55 0.00000E+00-1.38016E-02-1.26383E-09
 -1        56 3.52445E-09-1.38016E-02-1.26383E-09
 -1        57 1.25838E-01 1.25838E-01-2.99958E-09
 -1        58 1.25838E-01 1.25838E-01-3.73309E-09
 -1        59 2.78332E-01-6.00806E-01 6.22550E-09
 -1        60 2.78326E-01-6.80275E-01 6.31039E-09
 -1        61 0.00000E+00-2.93516E-02 6.73782E-09
 -1        62-1.56253E-08-2.93516E-02 6.74916E-09
 -1        63-6.00799E-01 1.98863E-01 6.83870E-09
 -1        64-6.00806E-01 2.78332E-01 6.22550E-09
 -1        65-1.46344E+00-1.46344E+00 3.35060E-18
 -1        66-1.46344E+00-1.46344E+00 3.09974E-17
 -1        67 0.00000E+00-2.93516E-02 8.01324E-09
 -1        68-1.89414E-08-2.93516E-02 8.02457E-09
 -1        69-6.80269E-01 1.98857E-01 6.92359E-09
 -1        70-6.80275E-01 2.78326E-01 6.31039E-09
 -1        71-1.46344E+00-1.46344E+00 4.62118E-17
 -1        72-1.46344E+00-1.46344E+00-6.93188E-17
 -3
    1PSTEP                        29          10           1          
  100CL  110 4.87813E-02          72                     0   10           1
 -4  STRESS      6    1
 -5  SXX         1    4    1    1
 -5  SYY         1    4    2    2
 -5  SZZ         1    4    3    3
 -5  SXY         1    4    1    2
 -5  SYZ         1    4    2    3
 -5  SZX         1    4    3    1
 -1         1-1.57726E-07-1.57726E-07-2.75388E-16-1.12717E-20 1.50055E-21 1.50326E-21
 -1         2-7.88630E-08-7.88630E-08 1.05879E-16 1.66687E-16 7.52522E-22-4.19798E-17
 -1         3-7.98700E-08 7.35799E-07 1.97406E-09 8.66156E-09-9.00494E-21-1.41005E-09
 -1         4-8.78468E-08 7.13157E-07-1.97406E-09 8.66156E-09-9.66847E-21-1.41005E-09
 -1         5 1.05132E-07-3.22634E-06 7.42679E-08 9.15698E-08-1.07283E-14-5.15596E-08
 -1         6-3.72500E-07-8.10678E-06-1.39903E-07 1.74825E-07-2.14565E-14-1.02909E-07
 -1         7-7.88630E-08-7.88630E-08 1.06091E-16 1.66458E-16-4.19598E-17 7.53359E-22
 -1         8-5.25753E-08-5.25753E-08 2.33110E-16 2.22100E-16-2.79732E-17-2.79865E-17
 -1         9-5.32467E-08 4.90533E-07 1.31604E-09 8.86202E-10 1.47995E-15-9.40034E-10
 -1        10-5.85646E-08 4.75438E-07-1.31604E-09 8.86204E-10 1.44319E-15-9.40036E-10
 -1        11 6.10420E-08-2.15439E-06 4.68811E-08-1.17511E-07-1.87667E-10-3.43731E-08
 -1        12-1.99819E-07-4.05864E-06-7.38979E-08-1.80424E-07-2.81500E-10-5.14543E-08
 -1        13 7.35799E-07-7.98700E-08 1.97406E-09 8.66156E-09-1.41005E-09-8.71105E-21
 -1        14 4.90533E-07-5.32467E-08 1.31604E-09 8.86202E-10-9.40034E-10 1.48522E-15
 -1        15 2.85501E-07 2.85501E-07-5.52951E-08-4.29923E-08 1.97482E-08 1.97482E-08
 -1        16 3.97219E-07 6.02601E-07 4.94960E-15 5.96986E-08 1.97482E-08 1.97482E-08
 -1        17 1.24852E-07-2.47062E-06-1.98875E-08 9.22134E-08 1.65095E-08-2.28301E-09
 -1        18 1.67923E-07-3.76102E-06-3.94309E-08 2.67086E-07 2.47642E-08-3.42452E-09
 -1        19 7.13157E-07-8.78468E-08-1.97406E-09 8.66156E-09-1.41005E-09-9.60248E-21
 -1        20 4.75438E-07-5.85646E-08-1.31604E-09 8.86204E-10-9.40035E-10 1.46698E-15
 -1        21 6.02601E-07 3.97219E-07-1.58548E-15 5.96986E-08 1.97482E-08 1.97482E-08
 -1        22 7.14320E-07 7.14320E-07 5.52951E-08 1.62389E-07 1.97482E-08 1.97482E-08
 -1        23 3.89937E-07-2.37722E-06 2.63381E-08 8.03008E-08 1.65095E-08-2.28302E-09
 -1        24 5.65551E-07-3.62093E-06 2.99075E-08 2.49217E-07 2.47642E-08-3.42453E-09
 -1        25-3.22634E-06 1.05132E-07 7.42679E-08 9.15698E-08-5.15596E-08-1.07283E-14
 -1        26-2.15439E-06 6.10420E-08 4.68811E-08-1.17511E-07-3.43731E-08-1.87667E-10
 -1        27-2.47062E-06 1.24851E-07-1.98875E-08 9.22134E-08-2.28302E-09 1.65095E-08
 -1        28-2.37722E-06 3.89937E-07 2.63381E-08 8.03008E-08-2.28302E-09 1.65095E-08
 -1        29 5.22658E-15 1.19376E-14 5.48433E-15 3.35551E-15-8.55561E-15-8.55560E-15
 -1        30 1.84850E-14 3.95551E-14 2.20615E-14 1.05350E-14 3.41154E-14 3.41154E-14
 -1        31-8.10678E-06-3.72500E-07-1.39903E-07 1.74825E-07-1.02909E-07-2.14565E-14
 -1        32-4.05864E-06-1.99819E-07-7.38979E-08-1.80424E-07-5.14543E-08-2.81500E-10
 -1        33-3.76102E-06 1.67923E-07-3.94309E-08 2.67086E-07-3.42454E-09 2.47642E-08
 -1        34-3.62093E-06 5.65551E-07 2.99074E-08 2.49217E-07-3.42452E-09 2.47642E-08
 -1        35 2.21623E-14 4.63800E-14 2.74944E-14 1.21089E-14 1.87802E-15 1.87800E-15
 -1        36-5.96126E-14-1.23100E-13-7.56091E-14-3.17435E-14-4.50975E-14-4.50975E-14
 -1        37-1.57726E-07-1.57726E-07-6.27941E-16-1.12702E-20-5.00129E-18-4.89570E-18
 -1        38-7.88630E-08-7.88630E-08-7.03970E-17 1.66687E-16-2.50066E-18-4.44284E-17
 -1        39-7.98700E-08 7.35799E-07 1.97406E-09 8.66156E-09-1.59125E-15 1.41005E-09
 -1        40-8.78468E-08 7.13157E-07-1.97406E-09 8.66156E-09-1.72595E-15 1.41005E-09
 -1        41 1.05057E-07-3.22749E-06 7.38979E-08 9.15698E-08 9.15801E-10 5.14543E-08
 -1        42-3.72651E-07-8.10910E-06-1.40643E-07 1.74825E-07 1.83160E-09 1.03119E-07
 -1        43-7.88630E-08-7.88630E-08-7.01852E-17 1.66458E-16-4.44612E-17-2.44787E-18
 -1        44-5.25753E-08-5.25753E-08 1.15592E-16 2.22100E-16-2.96408E-17-2.96189E-17
 -1        45-5.32467E-08 4.90533E-07 1.31604E-09 8.86202E-10 4.19124E-16 9.40034E-10
 -1        46-5.85646E-08 4.75438E-07-1.31604E-09 8.86204E-10 2.92565E-16 9.40032E-10
 -1        47 6.09919E-08-2.15517E-06 4.66344E-08-1.17511E-07 4.22875E-10 3.43029E-08
 -1        48-1.99894E-07-4.05980E-06-7.42679E-08-1.80424E-07 6.34312E-10 5.15596E-08
 -1        49 7.35799E-07-7.98700E-08 1.97406E-09 8.66156E-09 1.41005E-09-1.58550E-15
 -1        50 4.90533E-07-5.32467E-08 1.31604E-09 8.86202E-10 9.40033E-10 4.28227E-16
 -1        51 2.85501E-07 2.85501E-07-5.52951E-08-4.29923E-08-1.97482E-08-1.97482E-08
 -1        52 3.97219E-07 6.02601E-07 4.23146E-15 5.96986E-08-1.97482E-08-1.97482E-08
 -1        53 1.24851E-07-2.47062E-06-1.98875E-08 9.22134E-08-1.65095E-08 2.28302E-09
 -1        54 1.67923E-07-3.76102E-06-3.94309E-08 2.67086E-07-2.47642E-08 3.42452E-09
 -1        55 7.13157E-07-8.78468E-08-1.97406E-09 8.66156E-09 1.41005E-09-1.79583E-15
 -1        56 4.75438E-07-5.85646E-08-1.31604E-09 8.86204E-10 9.40032E-10 2.69767E-16
 -1        57 6.02601E-07 3.97219E-07-8.66936E-16 5.96986E-08-1.97482E-08-1.97482E-08
 -1        58 7.14320E-07 7.14320E-07 5.52951E-08 1.62389E-07-1.97482E-08-1.97482E-08
 -1        59 3.89937E-07-2.37722E-06 2.63381E-08 8.03008E-08-1.65095E-08 2.28302E-09
 -1        60 5.65551E-07-3.62093E-06 2.99074E-08 2.49217E-07-2.47642E-08 3.42453E-09
 -1        61-3.22749E-06 1.05057E-07 7.38979E-08 9.15698E-08 5.14543E-08 9.15801E-10
 -1        62-2.15517E-06 6.09919E-08 4.66344E-08-1.17511E-07 3.43029E-08 4.22874E-10
 -1        63-2.47062E-06 1.24851E-07-1.98875E-08 9.22134E-08 2.28302E-09-1.65095E-08
 -1        64-2.37722E-06 3.89937E-07 2.63381E-08 8.03008E-08 2.28302E-09-1.65095E-08
 -1        65-1.56786E-14-3.68411E-14-1.54208E-14-1.05812E-14 4.02252E-15 3.20330E-15
 -1        66 9.38546E-16-1.38662E-15 4.51510E-15-1.16258E-15-3.32410E-14-2.29056E-14
 -1        67-8.10910E-06-3.72651E-07-1.40643E-07 1.74825E-07 1.03119E-07 1.83160E-09
 -1        68-4.05980E-06-1.99894E-07-7.42679E-08-1.80424E-07 5.15596E-08 6.34312E-10
 -1        69-3.76102E-06 1.67923E-07-3.94309E-08 2.67086E-07 3.42453E-09-2.47642E-08
 -1        70-3.62093E-06 5.65551E-07 2.99075E-08 2.49217E-07 3.42453E-09-2.47642E-08
 -1        71-2.00129E-14-5.20288E-14-1.46808E-14-1.60080E-14 1.34045E-14 6.11449E-16
 -1        72-1.39614E-14-1.65801E-14-2.99579E-14-1.30935E-15 6.14560E-14 5.89983E-14
 -3
    1PSTEP                        30          10           1          
  100CL  110 4.87813E-02          72                     0   10           1
 -4  TOSTRAIN    6    1
 -5  EXX         1    4    1    1
 -5  EYY         1    4    2    2
 -5  EZZ         1    4    3    3
 -5  EXY         1    4    1    2
 -5  EYZ         1    4    2    3
 -5  EZX         1    4    3    1
 -1         1-5.25753E-13-5.25753E-13 4.50646E-13-6.97770E-26 9.28915E-27 9.30589E-27
 -1         2-2.62877E-13-2.62877E-13 2.25323E-13 1.03187E-21 4.65847E-27-2.59875E-22
 -1         3-1.43429E-12 3.61508E-12-9.27641E-13 5.36192E-14-5.57448E-26-8.72889E-15
 -1         4-1.43429E-12 3.52430E-12-9.02701E-13 5.36192E-14-5.98524E-26-8.72890E-15
 -1         5 5.00358E-12-1.56198E-11 4.81252E-12 5.66860E-13-6.64131E-20-3.19178E-13
 -1         6 1.00072E-11-3.78717E-11 1.14471E-11 1.08225E-12-1.32826E-19-6.37053E-13
 -1         7-2.62877E-13-2.62877E-13 2.25323E-13 1.03045E-21-2.59751E-22 4.66365E-27
 -1         8-1.75251E-13-1.75251E-13 1.50215E-13 1.37491E-21-1.73168E-22-1.73250E-22
 -1         9-9.56196E-13 2.41006E-12-6.18427E-13 5.48601E-15 9.16161E-21-5.81926E-15
 -1        10-9.56196E-13 2.34954E-12-6.01801E-13 5.48602E-15 8.93405E-21-5.81927E-15
 -1        11 3.30141E-12-1.04132E-11 3.21375E-12-7.27449E-13-1.16175E-15-2.12786E-13
 -1        12 4.95211E-12-1.89359E-11 5.73163E-12-1.11691E-12-1.74262E-15-3.18527E-13
 -1        13 3.61508E-12-1.43429E-12-9.27641E-13 5.36192E-14-8.72889E-15-5.39256E-26
 -1        14 2.41006E-12-9.56196E-13-6.18427E-13 5.48601E-15-5.81926E-15 9.19422E-21
 -1        15 1.03066E-12 1.03066E-12-1.07903E-12-2.66143E-13 1.22251E-13 1.22251E-13
 -1        16 1.03066E-12 2.30207E-12-1.42832E-12 3.69563E-13 1.22251E-13 1.22251E-13
 -1        17 4.15222E-12-1.19146E-11 3.25640E-12 5.73399E-13 1.02199E-13-1.41492E-14
 -1        18 6.22833E-12-1.80927E-11 4.94523E-12 1.65725E-12 1.53299E-13-2.12238E-14
 -1        19 3.52430E-12-1.43429E-12-9.02701E-13 5.36192E-14-8.72890E-15-5.94439E-26
 -1        20 2.34954E-12-9.56196E-13-6.01801E-13 5.48602E-15-5.81927E-15 9.08131E-21
 -1        21 2.30207E-12 1.03066E-12-1.42832E-12 3.69563E-13 1.22251E-13 1.22251E-13
 -1        22 2.30207E-12 2.30207E-12-1.77760E-12 1.00527E-12 1.22251E-13 1.22251E-13
 -1        23 5.21509E-12-1.19146E-11 2.96440E-12 4.99823E-13 1.02199E-13-1.41492E-14
 -1        24 7.82264E-12-1.80927E-11 4.50724E-12 1.54689E-12 1.53299E-13-2.12238E-14
 -1        25-1.56198E-11 5.00358E-12 4.81252E-12 5.66860E-13-3.19178E-13-6.64131E-20
 -1        26-1.04132E-11 3.30141E-12 3.21375E-12-7.27449E-13-2.12786E-13-1.16175E-15
 -1        27-1.19146E-11 4.15222E-12 3.25640E-12 5.73399E-13-1.41492E-14 1.02199E-13
 -1        28-1.19146E-11 5.21509E-12 2.96440E-12 4.99823E-13-1.41492E-14 1.02199E-13
 -1        29 2.94654E-40 4.15445E-20 1.59559E-21 2.07722E-20-5.29633E-20-5.29632E-20
 -1        30 4.41981E-40 1.30434E-19 2.21406E-20 6.52169E-20 2.11190E-19 2.11191E-19
 -1        31-3.78717E-11 1.00072E-11 1.14471E-11 1.08225E-12-6.37053E-13-1.32826E-19
 -1        32-1.89359E-11 4.95211E-12 5.73163E-12-1.11691E-12-3.18527E-13-1.74262E-15
 -1        33-1.80927E-11 6.22833E-12 4.94523E-12 1.65725E-12-2.12239E-14 1.53299E-13
 -1        34-1.80927E-11 7.82264E-12 4.50724E-12 1.54689E-12-2.12238E-14 1.53299E-13
 -1        35-1.65512E-39 1.49919E-19 3.30080E-20 7.49596E-20 1.16259E-20 1.16257E-20
 -1        36-3.31025E-39-3.93015E-19-9.90261E-20-1.96507E-19-2.79175E-19-2.79175E-19
 -1        37-5.25753E-13-5.25753E-13 4.50646E-13-6.97679E-26-3.09604E-23-3.03067E-23
 -1        38-2.62877E-13-2.62877E-13 2.25323E-13 1.03187E-21-1.54803E-23-2.75033E-22
 -1        39-1.43429E-12 3.61508E-12-9.27641E-13 5.36192E-14-9.85060E-21 8.72888E-15
 -1        40-1.43429E-12 3.52430E-12-9.02701E-13 5.36192E-14-1.06845E-20 8.72887E-15
 -1        41 5.00541E-12-1.56247E-11 4.81252E-12 5.66860E-13 5.66925E-15 3.18527E-13
 -1        42 1.00108E-11-3.78815E-11 1.14471E-11 1.08225E-12 1.13385E-14 6.38357E-13
 -1        43-2.62877E-13-2.62877E-13 2.25323E-13 1.03045E-21-2.75236E-22-1.51535E-23
 -1        44-1.75251E-13-1.75251E-13 1.50215E-13 1.37491E-21-1.83491E-22-1.83355E-22
 -1        45-9.56196E-13 2.41006E-12-6.18427E-13 5.48601E-15 2.59458E-21 5.81926E-15
 -1        46-9.56196E-13 2.34954E-12-6.01801E-13 5.48602E-15 1.81112E-21 5.81925E-15
 -1        47 3.30262E-12-1.04164E-11 3.21375E-12-7.27449E-13 2.61779E-15 2.12351E-13
 -1        48 4.95394E-12-1.89407E-11 5.73163E-12-1.11691E-12 3.92670E-15 3.19178E-13
 -1        49 3.61508E-12-1.43429E-12-9.27641E-13 5.36192E-14 8.72888E-15-9.81499E-21
 -1        50 2.41006E-12-9.56196E-13-6.18427E-13 5.48601E-15 5.81925E-15 2.65093E-21
 -1        51 1.03066E-12 1.03066E-12-1.07903E-12-2.66143E-13-1.22251E-13-1.22251E-13
 -1        52 1.03066E-12 2.30207E-12-1.42832E-12 3.69563E-13-1.22251E-13-1.22251E-13
 -1        53 4.15222E-12-1.19146E-11 3.25640E-12 5.73399E-13-1.02199E-13 1.41492E-14
 -1        54 6.22833E-12-1.80927E-11 4.94523E-12 1.65725E-12-1.53299E-13 2.12238E-14
 -1        55 3.52430E-12-1.43429E-12-9.02701E-13 5.36192E-14 8.72887E-15-1.11170E-20
 -1        56 2.34954E-12-9.56196E-13-6.01801E-13 5.48603E-15 5.81925E-15 1.66998E-21
 -1        57 2.30207E-12 1.03066E-12-1.42832E-12 3.69563E-13-1.22251E-13-1.22251E-13
 -1        58 2.30207E-12 2.30207E-12-1.77760E-12 1.00527E-12-1.22251E-13-1.22251E-13
 -1        59 5.21509E-12-1.19146E-11 2.96440E-12 4.99823E-13-1.02199E-13 1.41492E-14
 -1        60 7.82264E-12-1.80927E-11 4.50724E-12 1.54689E-12-1.53299E-13 2.12238E-14
 -1        61-1.56247E-11 5.00541E-12 4.81252E-12 5.66860E-13 3.18527E-13 5.66924E-15
 -1        62-1.04164E-11 3.30262E-12 3.21375E-12-7.27449E-13 2.12351E-13 2.61779E-15
 -1        63-1.19146E-11 4.15222E-12 3.25640E-12 5.73398E-13 1.41492E-14-1.02199E-13
 -1        64-1.19146E-11 5.21509E-12 2.96440E-12 4.99823E-13 1.41492E-14-1.02199E-13
 -1        65-1.47349E-39-1.31006E-19 1.59559E-21-6.55030E-20 2.49013E-20 1.98299E-20
 -1        66-2.21024E-39-1.43939E-20 2.21406E-20-7.19693E-21-2.05778E-19-1.41797E-19
 -1        67-3.78815E-11 1.00108E-11 1.14471E-11 1.08225E-12 6.38357E-13 1.13385E-14
 -1        68-1.89407E-11 4.95394E-12 5.73163E-12-1.11691E-12 3.19178E-13 3.92670E-15
 -1        69-1.80927E-11 6.22833E-12 4.94523E-12 1.65725E-12 2.12238E-14-1.53299E-13
 -1        70-1.80927E-11 7.82264E-12 4.50724E-12 1.54689E-12 2.12238E-14-1.53299E-13
 -1        71 8.27547E-39-1.98194E-19 3.30080E-20-9.90969E-20 8.29802E-20 3.78516E-21
 -1        72 1.65509E-38-1.62110E-20-9.90261E-20-8.10549E-21 3.80442E-19 3.65228E-19
 -3
    1PSTEP                        31          11           1          
  100CL  111 5.77813E-02          72                     0   11           1
 -4  DISP        4    1
 -5  D1          1    2    1    0
 -5  D2          1    2    2    0
 -5  D3          1    2    3    0
 -5  ALL         1    2    0    0    1ALL
 -1         1 0.00000E+00 0.00000E+00 0.00000E+00
 -1         2-4.31390E-10 0.00000E+00 0.00000E+00
 -1         3-2.26480E-02 0.00000E+00 0.00000E+00
 -1         4-2.26480E-02 0.00000E+00 0.00000E+00
 -1         5-4.88766E-02 0.00000E+00 0.00000E+00
 -1         6-4.88766E-02 0.00000E+00 0.00000E+00
 -1         7 0.00000E+00-4.31390E-10 0.00000E+00
 -1         8-4.31390E-10-4.31390E-10 0.00000E+00
 -1         9-2.26480E-02 5.21341E-09 0.00000E+00
 -1        10-2.26480E-02 5.02751E-09 0.00000E+00
 -1        11-4.88766E-02-1.72146E-08 0.00000E+00
 -1        12-4.88766E-02-2.17122E-08 0.00000E+00
 -1        13 0.00000E+00-2.26480E-02 0.00000E+00
 -1        14 5.21341E-09-2.26480E-02 0.00000E+00
 -1        15 1.78886E-01 1.78886E-01 0.00000E+00
 -1        16 1.78886E-01 1.78886E-01 0.00000E+00
 -1        17 2.88905E-01-6.69857E-01 0.00000E+00
 -1        18 2.88892E-01-7.82874E-01 0.00000E+00
 -1        19 0.00000E+00-2.26480E-02 0.00000E+00
 -1        20 5.02751E-09-2.26480E-02 0.00000E+00
 -1        21 1.78886E-01 1.78886E-01 0.00000E+00
 -1        22 1.78886E-01 1.78886E-01 0.00000E+00
 -1        23 4.01921E-01-6.69870E-01 0.00000E+00
 -1        24 4.01908E-01-7.82887E-01 0.00000E+00
 -1        25 0.00000E+00-4.88766E-02 0.00000E+00
 -1        26-1.72146E-08-4.88766E-02 0.00000E+00
 -1        27-6.69857E-01 2.88905E-01 0.00000E+00
 -1        28-6.69870E-01 4.01921E-01 0.00000E+00
 -1        29-1.73344E+00-1.73344E+00 0.00000E+00
 -1        30-1.73344E+00-1.73344E+00 0.00000E+00
 -1        31 0.00000E+00-4.88766E-02 0.00000E+00
 -1        32-2.17122E-08-4.88766E-02 0.00000E+00
 -1        33-7.82874E-01 2.88892E-01 0.00000E+00
 -1        34-7.82887E-01 4.01908E-01 0.00000E+00
 -1        35-1.73344E+00-1.73344E+00 0.00000E+00
 -1        36-1.73344E+00-1.73344E+00 0.00000E+00
 -1        37 0.00000E+00 0.00000E+00 5.17668E-10
 -1        38-4.31390E-10 0.00000E+00 5.17668E-10
 -1        39-2.26480E-02 0.00000E+00-1.82326E-09
 -1        40-2.26480E-02 0.00000E+00-1.75176E-09
 -1        41-4.88766E-02 0.00000E+00 7.51103E-09
 -1        42-4.88766E-02 0.00000E+00 9.24091E-09
 -1        43 0.00000E+00-4.31390E-10 5.17668E-10
 -1        44-4.31390E-10-4.31390E-10 5.17668E-10
 -1        45-2.26480E-02 5.21341E-09-1.82326E-09
 -1        46-2.26480E-02 5.02751E-09-1.75176E-09
 -1        47-4.88766E-02-1.72250E-08 7.53531E-09
 -1        48-4.88766E-02-2.17227E-08 9.26520E-09
 -1        49 0.00000E+00-2.26480E-02-1.82326E-09
 -1        50 5.21341E-09-2.26480E-02-1.82326E-09
 -1        51 1.78886E-01 1.78886E-01-3.28464E-09
 -1        52 1.78886E-01 1.78886E-01-4.31372E-09
 -1        53 2.88905E-01-6.69857E-01 7.53487E-09
 -1        54 2.88892E-01-7.82874E-01 7.68999E-09
 -1        55 0.00000E+00-2.26480E-02-1.75176E-09
 -1        56 5.02751E-09-2.26480E-02-1.75176E-09
 -1        57 1.78886E-01 1.78886E-01-4.31372E-09
 -1        58 1.78886E-01 1.78886E-01-5.34279E-09
 -1        59 4.01921E-01-6.69870E-01 6.73271E-09
 -1        60 4.01908E-01-7.82887E-01 6.88782E-09
 -1        61 0.00000E+00-4.88766E-02 7.51103E-09
 -1        62-1.72250E-08-4.88766E-02 7.53531E-09
 -1        63-6.69857E-01 2.88905E-01 7.53487E-09
 -1        64-6.69870E-01 4.01921E-01 6.73271E-09
 -1        65-1.73344E+00-1.73344E+00 6.35682E-17
 -1        66-1.73344E+00-1.73344E+00-1.97467E-17
 -1        67 0.00000E+00-4.88766E-02 9.24091E-09
 -1        68-2.17227E-08-4.88766E-02 9.26520E-09
 -1        69-7.82874E-01 2.88892E-01 7.68999E-09
 -1        70-7.82887E-01 4.01908E-01 6.88782E-09
 -1        71-1.73344E+00-1.73344E+00 1.28556E-17
 -1        72-1.73344E+00-1.73344E+00-1.49275E-17
 -3
    1PSTEP                        32          11           1          
  100CL  111 5.77813E-02          72                     0   11           1
 -4  STRESS      6    1
 -5  SXX         1    4    1    1
 -5  SYY         1    4    2    2
 -5  SZZ         1    4    3    3
 -5  SXY         1    4    1    2
 -5  SYZ         1    4    2    3
 -5  SZX         1    4    3    1
 -1         1-2.58824E-07-2.58824E-07-5.55366E-16-2.28513E-20 2.99949E-21 2.99628E-21
 -1         2-1.29412E-07-1.29412E-07 2.24368E-16 3.37940E-16 1.49652E-21-8.65404E-17
 -1         3-1.31474E-07 1.05654E-06 4.04258E-09 1.77375E-08-1.33776E-20-2.88756E-09
 -1         4-1.47809E-07 1.01018E-06-4.04258E-09 1.77375E-08-1.47199E-20-2.88757E-09
 -1         5 1.30953E-07-3.54488E-06 1.02426E-07 1.11153E-07-2.29767E-14-6.99730E-08
 -1         6-5.28513E-07-9.33327E-06-1.86364E-07 2.04498E-07-4.59535E-14-1.39495E-07
 -1         7-1.29412E-07-1.29412E-07 2.24368E-16 3.37940E-16-8.65404E-17 1.49698E-21
 -1         8-8.62746E-08-8.62746E-08 4.84464E-16 4.50594E-16-5.78136E-17-5.78136E-17
 -1         9-8.76493E-08 7.04363E-07 2.69505E-09 1.81481E-09 2.03285E-15-1.92504E-09
 -1        10-9.85396E-08 6.73452E-07-2.69505E-09 1.81481E-09 2.06164E-15-1.92505E-09
 -1        11 6.79279E-08-2.37076E-06 6.26498E-08-1.68080E-07-4.01929E-10-4.66487E-08
 -1        12-2.93318E-07-4.67789E-06-1.01634E-07-2.61024E-07-6.02893E-10-6.97475E-08
 -1        13 1.05654E-06-1.31474E-07 4.04258E-09 1.77375E-08-2.88756E-09-1.40967E-20
 -1        14 7.04363E-07-8.76493E-08 2.69505E-09 1.81481E-09-1.92504E-09 2.08185E-15
 -1        15 4.18119E-07 4.18119E-07-7.75760E-08-6.22927E-08 2.77057E-08 2.77057E-08
 -1        16 5.74855E-07 8.62994E-07 4.21649E-15 8.17770E-08 2.77057E-08 2.77057E-08
 -1        17 1.99749E-07-2.79248E-06-2.43608E-08 1.31058E-07 2.15976E-08-4.17131E-09
 -1        18 2.64262E-07-4.28938E-06-5.40812E-08 3.65026E-07 3.23964E-08-6.25697E-09
 -1        19 1.01018E-06-1.47809E-07-4.04258E-09 1.77375E-08-2.88757E-09-1.47522E-20
 -1        20 6.73452E-07-9.85396E-08-2.69505E-09 1.81481E-09-1.92505E-09 2.03208E-15
 -1        21 8.62994E-07 5.74855E-07 2.62104E-15 8.17770E-08 2.77057E-08 2.77057E-08
 -1        22 1.01973E-06 1.01973E-06 7.75760E-08 2.25847E-07 2.77057E-08 2.77057E-08
 -1        23 5.46520E-07-2.67029E-06 3.61100E-08 1.09291E-07 2.15976E-08-4.17132E-09
 -1        24 7.84418E-07-4.10610E-06 3.66249E-08 3.32375E-07 3.23964E-08-6.25698E-09
 -1        25-3.54488E-06 1.30953E-07 1.02426E-07 1.11153E-07-6.99730E-08-2.29767E-14
 -1        26-2.37076E-06 6.79279E-08 6.26498E-08-1.68080E-07-4.66487E-08-4.01928E-10
 -1        27-2.79248E-06 1.99749E-07-2.43608E-08 1.31058E-07-4.17132E-09 2.15976E-08
 -1        28-2.67029E-06 5.46520E-07 3.61100E-08 1.09291E-07-4.17131E-09 2.15976E-08
 -1        29 1.54043E-14 3.10535E-14 2.02941E-14 7.82463E-15-1.10822E-14-1.10821E-14
 -1        30-2.19102E-14-4.88454E-14-2.41887E-14-1.34676E-14 7.09392E-15 7.09395E-15
 -1        31-9.33327E-06-5.28513E-07-1.86364E-07 2.04498E-07-1.39495E-07-4.59535E-14
 -1        32-4.67789E-06-2.93318E-07-1.01634E-07-2.61024E-07-6.97475E-08-6.02893E-10
 -1        33-4.28938E-06 2.64262E-07-5.40812E-08 3.65026E-07-6.25698E-09 3.23964E-08
 -1        34-4.10610E-06 7.84418E-07 3.66249E-08 3.32375E-07-6.25697E-09 3.23964E-08
 -1        35 1.45072E-15 1.90170E-15 2.93402E-15 2.25493E-16 4.28129E-15 4.28135E-15
 -1        36 8.58993E-14 2.03877E-13 8.24544E-14 5.89887E-14-6.91331E-14-6.91330E-14
 -1        37-2.58824E-07-2.58824E-07-1.28232E-15-2.28589E-20-3.89712E-18-3.89709E-18
 -1        38-1.29412E-07-1.29412E-07-1.39486E-16 3.37688E-16-1.83822E-18-8.84905E-17
 -1        39-1.31474E-07 1.05654E-06 4.04258E-09 1.77375E-08-2.11278E-15 2.88756E-09
 -1        40-1.47809E-07 1.01018E-06-4.04258E-09 1.77375E-08-2.51642E-15 2.88756E-09
 -1        41 1.30792E-07-3.54736E-06 1.01634E-07 1.11153E-07 1.96138E-09 6.97475E-08
 -1        42-5.28836E-07-9.33824E-06-1.87949E-07 2.04498E-07 3.92276E-09 1.39946E-07
 -1        43-1.29412E-07-1.29412E-07-1.39486E-16 3.37688E-16-8.84905E-17-1.83821E-18
 -1        44-8.62746E-08-8.62746E-08 2.41642E-16 4.50258E-16-5.90401E-17-5.90401E-17
 -1        45-8.76494E-08 7.04363E-07 2.69505E-09 1.81481E-09 6.24334E-16 1.92504E-09
 -1        46-9.85396E-08 6.73452E-07-2.69505E-09 1.81481E-09 3.84039E-16 1.92504E-09
 -1        47 6.78205E-08-2.37241E-06 6.21215E-08-1.68080E-07 9.05674E-10 4.64983E-08
 -1        48-2.93479E-07-4.68037E-06-1.02426E-07-2.61024E-07 1.35851E-09 6.99730E-08
 -1        49 1.05654E-06-1.31474E-07 4.04258E-09 1.77375E-08 2.88756E-09-2.24246E-15
 -1        50 7.04363E-07-8.76494E-08 2.69505E-09 1.81481E-09 1.92504E-09 5.86879E-16
 -1        51 4.18119E-07 4.18119E-07-7.75760E-08-6.22927E-08-2.77057E-08-2.77057E-08
 -1        52 5.74855E-07 8.62994E-07-4.80429E-16 8.17770E-08-2.77057E-08-2.77057E-08
 -1        53 1.99749E-07-2.79248E-06-2.43608E-08 1.31058E-07-2.15976E-08 4.17131E-09
 -1        54 2.64262E-07-4.28938E-06-5.40812E-08 3.65026E-07-3.23964E-08 6.25698E-09
 -1        55 1.01018E-06-1.47809E-07-4.04258E-09 1.77375E-08 2.88756E-09-2.37138E-15
 -1        56 6.73452E-07-9.85396E-08-2.69505E-09 1.81481E-09 1.92504E-09 4.51165E-16
 -1        57 8.62994E-07 5.74855E-07 6.13371E-15 8.17770E-08-2.77057E-08-2.77057E-08
 -1        58 1.01973E-06 1.01973E-06 7.75760E-08 2.25847E-07-2.77057E-08-2.77057E-08
 -1        59 5.46520E-07-2.67029E-06 3.61099E-08 1.09291E-07-2.15976E-08 4.17132E-09
 -1        60 7.84418E-07-4.10610E-06 3.66249E-08 3.32375E-07-3.23964E-08 6.25698E-09
 -1        61-3.54736E-06 1.30792E-07 1.01634E-07 1.11153E-07 6.97475E-08 1.96138E-09
 -1        62-2.37241E-06 6.78205E-08 6.21215E-08-1.68080E-07 4.64983E-08 9.05674E-10
 -1        63-2.79248E-06 1.99749E-07-2.43608E-08 1.31058E-07 4.17132E-09-2.15976E-08
 -1        64-2.67029E-06 5.46520E-07 3.61100E-08 1.09291E-07 4.17132E-09-2.15976E-08
 -1        65-3.12998E-14-7.79227E-14-2.64100E-14-2.33114E-14 1.59353E-14 1.41798E-14
 -1        66 2.42240E-14 5.88010E-14 2.19455E-14 1.72885E-14 3.87979E-14 3.16795E-14
 -1        67-9.33824E-06-5.28836E-07-1.87949E-07 2.04498E-07 1.39946E-07 3.92276E-09
 -1        68-4.68037E-06-2.93479E-07-1.02426E-07-2.61024E-07 6.99730E-08 1.35851E-09
 -1        69-4.28938E-06 2.64262E-07-5.40812E-08 3.65026E-07 6.25697E-09-3.23964E-08
 -1        70-4.10610E-06 7.84418E-07 3.66249E-08 3.32375E-07 6.25698E-09-3.23964E-08
 -1        71-3.61529E-14-8.58402E-14-3.46696E-14-2.48436E-14-5.38797E-14-5.20277E-14
 -1        72-6.40645E-14-1.46039E-13-6.75094E-14-4.09872E-14 4.71604E-14 4.18940E-14
 -3
    1PSTEP                        33          11           1          
  100CL  111 5.77813E-02          72                     0   11           1
 -4  TOSTRAIN    6    1
 -5  EXX         1    4    1    1
 -5  EYY         1    4    2    2
 -5  EZZ         1    4    3    3
 -5  EXY         1    4    1    2
 -5  EYZ         1    4    2    3
 -5  EZX         1    4    3    1
 -1         1-8.62746E-13-8.62746E-13 7.39496E-13-1.41460E-25 1.85683E-26 1.85484E-26
 -1         2-4.31373E-13-4.31373E-13 3.69748E-13 2.09201E-21 9.26416E-27-5.35726E-22
 -1         3-2.14119E-12 5.21321E-12-1.30228E-12 1.09804E-13-8.28138E-26-1.78754E-14
 -1         4-2.14119E-12 5.02730E-12-1.25121E-12 1.09804E-13-9.11229E-26-1.78754E-14
 -1         5 5.54138E-12-1.72138E-11 5.36479E-12 6.88088E-13-1.42237E-19-4.33166E-13
 -1         6 1.10828E-11-4.34229E-11 1.32008E-11 1.26594E-12-2.84474E-19-8.63540E-13
 -1         7-4.31373E-13-4.31373E-13 3.69748E-13 2.09201E-21-5.35726E-22 9.26702E-27
 -1         8-2.87582E-13-2.87582E-13 2.46499E-13 2.78939E-21-3.57894E-22-3.57894E-22
 -1         9-1.42746E-12 3.47547E-12-8.68186E-13 1.12345E-14 1.25843E-20-1.19169E-14
 -1        10-1.42746E-12 3.35154E-12-8.34137E-13 1.12345E-14 1.27626E-20-1.19170E-14
 -1        11 3.62076E-12-1.14759E-11 3.58809E-12-1.04050E-12-2.48813E-15-2.88777E-13
 -1        12 5.43114E-12-2.17115E-11 6.61775E-12-1.61586E-12-3.73219E-15-4.31770E-13
 -1        13 5.21321E-12-2.14119E-12-1.30228E-12 1.09804E-13-1.78754E-14-8.72651E-26
 -1        14 3.47547E-12-1.42746E-12-8.68186E-13 1.12345E-14-1.19169E-14 1.28876E-20
 -1        15 1.50455E-12 1.50455E-12-1.56404E-12-3.85621E-13 1.71511E-13 1.71512E-13
 -1        16 1.50455E-12 3.28827E-12-2.05407E-12 5.06238E-13 1.71512E-13 1.71511E-13
 -1        17 4.97488E-12-1.35477E-11 3.58790E-12 8.15495E-13 1.33694E-13-2.58526E-14
 -1        18 7.46231E-12-2.07249E-11 5.49264E-12 2.26605E-12 2.00541E-13-3.87789E-14
 -1        19 5.02730E-12-2.14119E-12-1.25121E-12 1.09804E-13-1.78754E-14-9.13230E-26
 -1        20 3.35154E-12-1.42746E-12-8.34137E-13 1.12345E-14-1.19169E-14 1.25795E-20
 -1        21 3.28827E-12 1.50455E-12-2.05407E-12 5.06238E-13 1.71512E-13 1.71511E-13
 -1        22 3.28827E-12 3.28827E-12-2.54410E-12 1.39810E-12 1.71511E-13 1.71512E-13
 -1        23 6.36529E-12-1.35477E-11 3.20592E-12 6.81061E-13 1.33694E-13-2.58527E-14
 -1        24 9.54794E-12-2.07249E-11 4.91967E-12 2.06440E-12 2.00541E-13-3.87790E-14
 -1        25-1.72138E-11 5.54138E-12 5.36479E-12 6.88088E-13-4.33166E-13-1.42237E-19
 -1        26-1.14759E-11 3.62076E-12 3.58809E-12-1.04050E-12-2.88777E-13-2.48813E-15
 -1        27-1.35477E-11 4.97488E-12 3.58790E-12 8.15495E-13-2.58527E-14 1.33694E-13
 -1        28-1.35477E-11 6.36529E-12 3.20592E-12 6.81061E-13-2.58526E-14 1.33694E-13
 -1        29-7.14169E-40 9.68764E-20 3.02702E-20 4.84382E-20-6.86039E-20-6.86037E-20
 -1        30-1.07125E-39-1.66742E-19-1.41049E-20-8.33708E-20 4.39148E-20 4.39149E-20
 -1        31-4.34229E-11 1.10828E-11 1.32008E-11 1.26594E-12-8.63540E-13-2.84474E-19
 -1        32-2.17115E-11 5.43114E-12 6.61775E-12-1.61586E-12-4.31770E-13-3.73219E-15
 -1        33-2.07249E-11 7.46231E-12 5.49264E-12 2.26605E-12-3.87790E-14 2.00541E-13
 -1        34-2.07249E-11 9.54794E-12 4.91967E-12 2.06440E-12-3.87790E-14 2.00541E-13
 -1        35-4.30381E-41 2.79182E-21 9.18235E-21 1.39591E-21 2.65032E-20 2.65036E-20
 -1        36-8.60776E-41 7.30336E-19-2.13255E-20 3.65168E-19-4.27967E-19-4.27966E-19
 -1        37-8.62746E-13-8.62746E-13 7.39496E-13-1.41508E-25-2.41251E-23-2.41249E-23
 -1        38-4.31373E-13-4.31373E-13 3.69748E-13 2.09045E-21-1.13794E-23-5.47798E-22
 -1        39-2.14119E-12 5.21321E-12-1.30228E-12 1.09804E-13-1.30791E-20 1.78754E-14
 -1        40-2.14119E-12 5.02730E-12-1.25121E-12 1.09804E-13-1.55778E-20 1.78754E-14
 -1        41 5.54529E-12-1.72242E-11 5.36479E-12 6.88088E-13 1.21419E-14 4.31770E-13
 -1        42 1.10906E-11-4.34438E-11 1.32008E-11 1.26594E-12 2.42838E-14 8.66332E-13
 -1        43-4.31373E-13-4.31373E-13 3.69748E-13 2.09045E-21-5.47798E-22-1.13794E-23
 -1        44-2.87582E-13-2.87582E-13 2.46499E-13 2.78731E-21-3.65486E-22-3.65486E-22
 -1        45-1.42746E-12 3.47547E-12-8.68186E-13 1.12345E-14 3.86493E-21 1.19169E-14
 -1        46-1.42746E-12 3.35154E-12-8.34137E-13 1.12345E-14 2.37739E-21 1.19169E-14
 -1        47 3.62337E-12-1.14828E-11 3.58809E-12-1.04050E-12 5.60655E-15 2.87847E-13
 -1        48 5.43505E-12-2.17219E-11 6.61775E-12-1.61586E-12 8.40984E-15 4.33166E-13
 -1        49 5.21321E-12-2.14119E-12-1.30228E-12 1.09804E-13 1.78754E-14-1.38819E-20
 -1        50 3.47547E-12-1.42746E-12-8.68186E-13 1.12345E-14 1.19169E-14 3.63307E-21
 -1        51 1.50455E-12 1.50455E-12-1.56404E-12-3.85621E-13-1.71512E-13-1.71512E-13
 -1        52 1.50455E-12 3.28827E-12-2.05407E-12 5.06238E-13-1.71512E-13-1.71512E-13
 -1        53 4.97488E-12-1.35477E-11 3.58790E-12 8.15495E-13-1.33694E-13 2.58526E-14
 -1        54 7.46231E-12-2.07249E-11 5.49264E-12 2.26605E-12-2.00541E-13 3.87790E-14
 -1        55 5.02730E-12-2.14119E-12-1.25121E-12 1.09804E-13 1.78754E-14-1.46800E-20
 -1        56 3.35154E-12-1.42746E-12-8.34137E-13 1.12345E-14 1.19169E-14 2.79293E-21
 -1        57 3.28827E-12 1.50455E-12-2.05407E-12 5.06238E-13-1.71512E-13-1.71512E-13
 -1        58 3.28827E-12 3.28827E-12-2.54410E-12 1.39810E-12-1.71512E-13-1.71512E-13
 -1        59 6.36529E-12-1.35477E-11 3.20592E-12 6.81061E-13-1.33694E-13 2.58527E-14
 -1        60 9.54794E-12-2.07249E-11 4.91967E-12 2.06440E-12-2.00541E-13 3.87790E-14
 -1        61-1.72242E-11 5.54529E-12 5.36479E-12 6.88088E-13 4.31770E-13 1.21419E-14
 -1        62-1.14828E-11 3.62337E-12 3.58809E-12-1.04050E-12 2.87847E-13 5.60655E-15
 -1        63-1.35477E-11 4.97488E-12 3.58790E-12 8.15495E-13 2.58527E-14-1.33694E-13
 -1        64-1.35477E-11 6.36529E-12 3.20592E-12 6.81061E-13 2.58527E-14-1.33694E-13
 -1        65 3.57072E-39-2.88618E-19 3.02702E-20-1.44309E-19 9.86471E-20 8.77799E-20
 -1        66 5.35609E-39 2.14049E-19-1.41049E-20 1.07024E-19 2.40177E-19 1.96111E-19
 -1        67-4.34438E-11 1.10906E-11 1.32008E-11 1.26594E-12 8.66332E-13 2.42838E-14
 -1        68-2.17219E-11 5.43505E-12 6.61775E-12-1.61586E-12 4.33166E-13 8.40984E-15
 -1        69-2.07249E-11 7.46231E-12 5.49264E-12 2.26605E-12 3.87790E-14-2.00541E-13
 -1        70-2.07249E-11 9.54794E-12 4.91967E-12 2.06440E-12 3.87790E-14-2.00541E-13
 -1        71 2.14923E-40-3.07588E-19 9.18235E-21-1.53794E-19-3.33541E-19-3.22076E-19
 -1        72 4.29846E-40-5.07461E-19-2.13255E-20-2.53730E-19 2.91945E-19 2.59344E-19
 -3
    1PSTEP                        34          12           1          
  100CL  112 6.67813E-02          72                     0   12           1
 -4  DISP        4    1
 -5  D1          1    2    1    0
 -5  D2          1    2    2    0
 -5  D3          1    2    3    0
 -5  ALL         1    2    0    0    1ALL
 -1         1 0.00000E+00 0.00000E+00 0.00000E+00
 -1         2-6.36781E-10 0.00000E+00 0.00000E+00
 -1         3-3.34310E-02 0.00000E+00 0.00000E+00
 -1         4-3.34310E-02 0.00000E+00 0.00000E+00
 -1         5-7.33296E-02 0.00000E+00 0.00000E+00
 -1         6-7.33296E-02 0.00000E+00 0.00000E+00
 -1         7 0.00000E+00-6.36781E-10 0.00000E+00
 -1         8-6.36781E-10-6.36781E-10 0.00000E+00
 -1         9-3.34310E-02 7.07480E-09 0.00000E+00
 -1        10-3.34310E-02 6.73901E-09 0.00000E+00
 -1        11-7.33296E-02-1.82442E-08 0.00000E+00
 -1        12-7.33296E-02-2.40691E-08 0.00000E+00
 -1        13 0.00000E+00-3.34310E-02 0.00000E+00
 -1        14 7.07480E-09-3.34310E-02 0.00000E+00
 -1        15 2.39284E-01 2.39284E-01 0.00000E+00
 -1        16 2.39284E-01 2.39284E-01 0.00000E+00
 -1        17 3.94318E-01-7.21116E-01 0.00000E+00
 -1        18 3.94295E-01-8.73629E-01 0.00000E+00
 -1        19 0.00000E+00-3.34310E-02 0.00000E+00
 -1        20 6.73901E-09-3.34310E-02 0.00000E+00
 -1        21 2.39284E-01 2.39284E-01 0.00000E+00
 -1        22 2.39284E-01 2.39284E-01 0.00000E+00
 -1        23 5.46830E-01-7.21140E-01 0.00000E+00
 -1        24 5.46807E-01-8.73652E-01 0.00000E+00
 -1        25 0.00000E+00-7.33296E-02 0.00000E+00
 -1        26-1.82442E-08-7.33296E-02 0.00000E+00
 -1        27-7.21116E-01 3.94318E-01 0.00000E+00
 -1        28-7.21140E-01 5.46830E-01 0.00000E+00
 -1        29-2.00344E+00-2.00344E+00 0.00000E+00
 -1        30-2.00344E+00-2.00344E+00 0.00000E+00
 -1        31 0.00000E+00-7.33296E-02 0.00000E+00
 -1        32-2.40691E-08-7.33296E-02 0.00000E+00
 -1        33-8.73629E-01 3.94295E-01 0.00000E+00
 -1        34-8.73652E-01 5.46807E-01 0.00000E+00
 -1        35-2.00344E+00-2.00344E+00 0.00000E+00
 -1        36-2.00344E+00-2.00344E+00 0.00000E+00
 -1        37 0.00000E+00 0.00000E+00 7.64138E-10
 -1        38-6.36781E-10 0.00000E+00 7.64138E-10
 -1        39-3.34310E-02 0.00000E+00-2.42074E-09
 -1        40-3.34310E-02 0.00000E+00-2.29159E-09
 -1        41-7.33296E-02 0.00000E+00 8.07433E-09
 -1        42-7.33296E-02 0.00000E+00 1.03147E-08
 -1        43 0.00000E+00-6.36781E-10 7.64138E-10
 -1        44-6.36781E-10-6.36781E-10 7.64138E-10
 -1        45-3.34310E-02 7.07480E-09-2.42074E-09
 -1        46-3.34310E-02 6.73901E-09-2.29159E-09
 -1        47-7.33296E-02-1.82640E-08 8.12032E-09
 -1        48-7.33296E-02-2.40889E-08 1.03606E-08
 -1        49 0.00000E+00-3.34310E-02-2.42074E-09
 -1        50 7.07480E-09-3.34310E-02-2.42074E-09
 -1        51 2.39284E-01 2.39284E-01-4.46793E-09
 -1        52 2.39284E-01 2.39284E-01-5.83988E-09
 -1        53 3.94318E-01-7.21116E-01 7.96427E-09
 -1        54 3.94295E-01-8.73629E-01 8.22673E-09
 -1        55 0.00000E+00-3.34310E-02-2.29159E-09
 -1        56 6.73901E-09-3.34310E-02-2.29159E-09
 -1        57 2.39284E-01 2.39284E-01-5.83988E-09
 -1        58 2.39284E-01 2.39284E-01-7.21184E-09
 -1        59 5.46830E-01-7.21140E-01 6.98300E-09
 -1        60 5.46807E-01-8.73652E-01 7.24545E-09
 -1        61 0.00000E+00-7.33296E-02 8.07433E-09
 -1        62-1.82640E-08-7.33296E-02 8.12032E-09
 -1        63-7.21116E-01 3.94318E-01 7.96427E-09
 -1        64-7.21140E-01 5.46830E-01 6.98300E-09
 -1        65-2.00344E+00-2.00344E+00-9.28448E-18
 -1        66-2.00344E+00-2.00344E+00 3.84280E-18
 -1        67 0.00000E+00-7.33296E-02 1.03147E-08
 -1        68-2.40889E-08-7.33296E-02 1.03606E-08
 -1        69-8.73629E-01 3.94295E-01 8.22673E-09
 -1        70-8.73652E-01 5.46807E-01 7.24545E-09
 -1        71-2.00344E+00-2.00344E+00 8.86088E-17
 -1        72-2.00344E+00-2.00344E+00-7.71740E-17
 -3
    1PSTEP                        35          12           1          
  100CL  112 6.67813E-02          72                     0   12           1
 -4  STRESS      6    1
 -5  SXX         1    4    1    1
 -5  SYY         1    4    2    2
 -5  SZZ         1    4    3    3
 -5  SXY         1    4    1    2
 -5  SYZ         1    4    2    3
 -5  SZX         1    4    3    1
 -1         1-3.82053E-07-3.82053E-07-9.89575E-16-4.09494E-20 5.28575E-21 5.28128E-21
 -1         2-1.91027E-07-1.91027E-07 4.16549E-16 6.05037E-16 2.64520E-21-1.57657E-16
 -1         3-1.94752E-07 1.42942E-06 7.30204E-09 3.20390E-08-2.04518E-20-5.21575E-09
 -1         4-2.24258E-07 1.34567E-06-7.30204E-09 3.20390E-08-2.24425E-20-5.21576E-09
 -1         5 1.57608E-07-3.74320E-06 1.35417E-07 1.29672E-07-4.35111E-14-9.06877E-08
 -1         6-7.08434E-07-1.03919E-05-2.35822E-07 2.25622E-07-8.70222E-14-1.80521E-07
 -1         7-1.91027E-07-1.91027E-07 4.15878E-16 6.05484E-16-1.57338E-16 2.64637E-21
 -1         8-1.27351E-07-1.27351E-07 8.84810E-16 8.07028E-16-1.05105E-16-1.04892E-16
 -1         9-1.29834E-07 9.52944E-07 4.86803E-09 3.27805E-09 2.69308E-15-3.47717E-09
 -1        10-1.49505E-07 8.97110E-07-4.86803E-09 3.27806E-09 2.71270E-15-3.47717E-09
 -1        11 6.83837E-08-2.50968E-06 7.96077E-08-2.27196E-07-7.61136E-10-6.04585E-08
 -1        12-4.09250E-07-5.21727E-06-1.33916E-07-3.57655E-07-1.14170E-09-9.02607E-08
 -1        13 1.42942E-06-1.94752E-07 7.30204E-09 3.20390E-08-5.21575E-09-2.09876E-20
 -1        14 9.52944E-07-1.29834E-07 4.86803E-09 3.27805E-09-3.47717E-09 2.79030E-15
 -1        15 5.72244E-07 5.72244E-07-1.03424E-07-8.48246E-08 3.69370E-08 3.69370E-08
 -1        16 7.81202E-07 1.16535E-06-6.40115E-15 1.07248E-07 3.69370E-08 3.69370E-08
 -1        17 2.97419E-07-3.04232E-06-2.70740E-08 1.77501E-07 2.64210E-08-7.05809E-09
 -1        18 3.86293E-07-4.73380E-06-7.02889E-08 4.72285E-07 3.96315E-08-1.05872E-08
 -1        19 1.34567E-06-2.24258E-07-7.30204E-09 3.20390E-08-5.21576E-09-2.21710E-20
 -1        20 8.97110E-07-1.49505E-07-4.86803E-09 3.27806E-09-3.47717E-09 2.68879E-15
 -1        21 1.16535E-06 7.81202E-07 7.00701E-15 1.07248E-07 3.69370E-08 3.69370E-08
 -1        22 1.37431E-06 1.37431E-06 1.03424E-07 2.99321E-07 3.69370E-08 3.69370E-08
 -1        23 7.21608E-07-2.89284E-06 4.68987E-08 1.40673E-07 2.64210E-08-7.05810E-09
 -1        24 1.02258E-06-4.50958E-06 4.06703E-08 4.17043E-07 3.96315E-08-1.05871E-08
 -1        25-3.74320E-06 1.57608E-07 1.35417E-07 1.29672E-07-9.06877E-08-4.35111E-14
 -1        26-2.50968E-06 6.83837E-08 7.96077E-08-2.27196E-07-6.04585E-08-7.61136E-10
 -1        27-3.04232E-06 2.97419E-07-2.70740E-08 1.77501E-07-7.05810E-09 2.64210E-08
 -1        28-2.89284E-06 7.21608E-07 4.68988E-08 1.40673E-07-7.05809E-09 2.64210E-08
 -1        29-2.01636E-14-4.63341E-14-2.08777E-14-1.30853E-14-3.18346E-14-3.18345E-14
 -1        30 3.44492E-14 7.99382E-14 3.48926E-14 2.27445E-14 3.29063E-14 3.29065E-14
 -1        31-1.03919E-05-7.08434E-07-2.35822E-07 2.25622E-07-1.80521E-07-8.70222E-14
 -1        32-5.21727E-06-4.09250E-07-1.33916E-07-3.57655E-07-9.02607E-08-1.14170E-09
 -1        33-4.73380E-06 3.86293E-07-7.02889E-08 4.72285E-07-1.05872E-08 3.96315E-08
 -1        34-4.50958E-06 1.02258E-06 4.06703E-08 4.17043E-07-1.05871E-08 3.96315E-08
 -1        35 2.81974E-14 5.55700E-14 3.84214E-14 1.36863E-14 1.92630E-14 1.92630E-14
 -1        36-2.87148E-15 1.11091E-14-2.06807E-14 6.99029E-15 3.91702E-14 3.91705E-14
 -1        37-3.82053E-07-3.82053E-07-2.31258E-15-4.09537E-20 2.46854E-18 2.46850E-18
 -1        38-1.91027E-07-1.91027E-07-2.45623E-16 6.05484E-16 1.23431E-18-1.56426E-16
 -1        39-1.94752E-07 1.42942E-06 7.30204E-09 3.20390E-08-2.74631E-15 5.21575E-09
 -1        40-2.24258E-07 1.34567E-06-7.30204E-09 3.20390E-08-3.31564E-15 5.21575E-09
 -1        41 1.57303E-07-3.74790E-06 1.33916E-07 1.29672E-07 3.71428E-09 9.02607E-08
 -1        42-7.09044E-07-1.04013E-05-2.38823E-07 2.25622E-07 7.42856E-09 1.81375E-07
 -1        43-1.91027E-07-1.91027E-07-2.44953E-16 6.05037E-16-1.56106E-16 1.23428E-18
 -1        44-1.27351E-07-1.27351E-07 4.43809E-16 8.07028E-16-1.04284E-16-1.04071E-16
 -1        45-1.29834E-07 9.52944E-07 4.86803E-09 3.27805E-09 8.62206E-16 3.47717E-09
 -1        46-1.49505E-07 8.97110E-07-4.86803E-09 3.27806E-09 5.02281E-16 3.47717E-09
 -1        47 6.81803E-08-2.51281E-06 7.86073E-08-2.27196E-07 1.71508E-09 6.01738E-08
 -1        48-4.09555E-07-5.22197E-06-1.35417E-07-3.57655E-07 2.57262E-09 9.06877E-08
 -1        49 1.42942E-06-1.94752E-07 7.30204E-09 3.20390E-08 5.21575E-09-2.98038E-15
 -1        50 9.52944E-07-1.29834E-07 4.86803E-09 3.27805E-09 3.47717E-09 8.03378E-16
 -1        51 5.72244E-07 5.72244E-07-1.03424E-07-8.48246E-08-3.69370E-08-3.69370E-08
 -1        52 7.81202E-07 1.16535E-06 3.87631E-15 1.07248E-07-3.69370E-08-3.69370E-08
 -1        53 2.97419E-07-3.04232E-06-2.70741E-08 1.77501E-07-2.64210E-08 7.05810E-09
 -1        54 3.86293E-07-4.73380E-06-7.02890E-08 4.72285E-07-3.96315E-08 1.05872E-08
 -1        55 1.34567E-06-2.24258E-07-7.30204E-09 3.20390E-08 5.21575E-09-3.17624E-15
 -1        56 8.97110E-07-1.49505E-07-4.86803E-09 3.27806E-09 3.47717E-09 5.71295E-16
 -1        57 1.16535E-06 7.81202E-07-6.11287E-15 1.07248E-07-3.69370E-08-3.69370E-08
 -1        58 1.37431E-06 1.37431E-06 1.03424E-07 2.99321E-07-3.69370E-08-3.69370E-08
 -1        59 7.21608E-07-2.89284E-06 4.68988E-08 1.40673E-07-2.64210E-08 7.05809E-09
 -1        60 1.02258E-06-4.50959E-06 4.06702E-08 4.17043E-07-3.96315E-08 1.05872E-08
 -1        61-3.74790E-06 1.57303E-07 1.33916E-07 1.29672E-07 9.02607E-08 3.71428E-09
 -1        62-2.51281E-06 6.81803E-08 7.86073E-08-2.27196E-07 6.01738E-08 1.71508E-09
 -1        63-3.04232E-06 2.97419E-07-2.70740E-08 1.77501E-07 7.05811E-09-2.64210E-08
 -1        64-2.89284E-06 7.21608E-07 4.68988E-08 1.40673E-07 7.05810E-09-2.64210E-08
 -1        65 3.04497E-14 7.17635E-14 2.97356E-14 2.06569E-14 3.16033E-15-1.40389E-15
 -1        66-3.74368E-14-8.77959E-14-3.69934E-14-2.51795E-14 7.03160E-15 1.46356E-14
 -1        67-1.04013E-05-7.09044E-07-2.38823E-07 2.25622E-07 1.81375E-07 7.42856E-09
 -1        68-5.22197E-06-4.09555E-07-1.35417E-07-3.57655E-07 9.06877E-08 2.57262E-09
 -1        69-4.73380E-06 3.86293E-07-7.02889E-08 4.72285E-07 1.05871E-08-3.96315E-08
 -1        70-4.50959E-06 1.02258E-06 4.06702E-08 4.17043E-07 1.05871E-08-3.96315E-08
 -1        71-1.27426E-13-3.07552E-13-1.17202E-13-9.00629E-14 2.75415E-14 6.24491E-15
 -1        72 8.98593E-14 2.27481E-13 7.20501E-14 6.88108E-14-5.55050E-14-6.91976E-14
 -3
    1PSTEP                        36          12           1          
  100CL  112 6.67813E-02          72                     0   12           1
 -4  TOSTRAIN    6    1
 -5  EXX         1    4    1    1
 -5  EYY         1    4    2    2
 -5  EZZ         1    4    3    3
 -5  EXY         1    4    1    2
 -5  EYZ         1    4    2    3
 -5  EZX         1    4    3    1
 -1         1-1.27351E-12-1.27351E-12 1.09158E-12-2.53496E-25 3.27213E-26 3.26937E-26
 -1         2-6.36756E-13-6.36756E-13 5.45791E-13 3.74547E-21 1.63751E-26-9.75974E-22
 -1         3-2.97984E-12 7.07453E-12-1.72903E-12 1.98337E-13-1.26606E-25-3.22880E-14
 -1         4-2.97984E-12 6.73873E-12-1.63678E-12 1.98337E-13-1.38930E-25-3.22880E-14
 -1         5 5.90450E-12-1.82434E-11 5.76712E-12 8.02730E-13-2.69355E-19-5.61400E-13
 -1         6 1.18090E-11-4.81364E-11 1.47347E-11 1.39671E-12-5.38709E-19-1.11751E-12
 -1         7-6.36756E-13-6.36756E-13 5.45791E-13 3.74824E-21-9.73997E-22 1.63823E-26
 -1         8-4.24504E-13-4.24504E-13 3.63860E-13 4.99589E-21-6.50649E-22-6.49332E-22
 -1         9-1.98656E-12 4.71635E-12-1.15269E-12 2.02927E-14 1.66714E-20-2.15253E-14
 -1        10-1.98656E-12 4.49249E-12-1.09119E-12 2.02927E-14 1.67929E-20-2.15254E-14
 -1        11 3.79716E-12-1.21623E-11 3.86664E-12-1.40645E-12-4.71179E-15-3.74267E-13
 -1        12 5.69574E-12-2.40682E-11 7.40019E-12-2.21405E-12-7.06769E-15-5.58756E-13
 -1        13 7.07453E-12-2.97984E-12-1.72903E-12 1.98337E-13-3.22880E-14-1.29923E-25
 -1        14 4.71635E-12-1.98656E-12-1.15269E-12 2.02927E-14-2.15253E-14 1.72732E-20
 -1        15 2.05523E-12 2.05523E-12-2.12748E-12-5.25104E-13 2.28658E-13 2.28658E-13
 -1        16 2.05523E-12 4.43327E-12-2.78078E-12 6.63916E-13 2.28658E-13 2.28658E-13
 -1        17 5.80046E-12-1.48728E-11 3.79236E-12 1.10512E-12 1.63545E-13-4.37428E-14
 -1        18 8.70069E-12-2.29916E-11 5.87602E-12 2.93334E-12 2.45318E-13-6.56143E-14
 -1        19 6.73873E-12-2.97984E-12-1.63678E-12 1.98337E-13-3.22880E-14-1.37249E-25
 -1        20 4.49249E-12-1.98656E-12-1.09119E-12 2.02927E-14-2.15253E-14 1.66449E-20
 -1        21 4.43327E-12 2.05523E-12-2.78078E-12 6.63916E-13 2.28658E-13 2.28658E-13
 -1        22 4.43327E-12 4.43327E-12-3.43409E-12 1.85294E-12 2.28658E-13 2.28658E-13
 -1        23 7.50133E-12-1.48728E-11 3.32509E-12 8.77659E-13 1.63545E-13-4.37429E-14
 -1        24 1.12520E-11-2.29916E-11 5.17511E-12 2.59214E-12 2.45318E-13-6.56142E-14
 -1        25-1.82434E-11 5.90450E-12 5.76712E-12 8.02730E-13-5.61400E-13-2.69355E-19
 -1        26-1.21623E-11 3.79716E-12 3.86664E-12-1.40645E-12-3.74267E-13-4.71179E-15
 -1        27-1.48728E-11 5.80046E-12 3.79236E-12 1.10512E-12-4.37429E-14 1.63545E-13
 -1        28-1.48728E-11 7.50133E-12 3.32509E-12 8.77659E-13-4.37428E-14 1.63545E-13
 -1        29 5.73509E-40-1.62008E-19-4.42103E-21-8.10042E-20-1.97071E-19-1.97071E-19
 -1        30 8.60264E-40 2.81598E-19 2.74458E-21 1.40799E-19 2.03706E-19 2.03707E-19
 -1        31-4.81364E-11 1.18090E-11 1.47347E-11 1.39671E-12-1.11751E-12-5.38709E-19
 -1        32-2.40682E-11 5.69574E-12 7.40019E-12-2.21405E-12-5.58756E-13-7.06769E-15
 -1        33-2.29916E-11 8.70069E-12 5.87602E-12 2.93334E-12-6.56144E-14 2.45318E-13
 -1        34-2.29916E-11 1.12520E-11 5.17511E-12 2.59214E-12-6.56143E-14 2.45318E-13
 -1        35-3.69155E-39 1.69449E-19 6.32913E-20 8.47247E-20 1.19247E-19 1.19247E-19
 -1        36-7.38310E-39 8.65464E-20-1.10248E-19 4.32732E-20 2.42482E-19 2.42484E-19
 -1        37-1.27351E-12-1.27351E-12 1.09158E-12-2.53523E-25 1.52814E-23 1.52812E-23
 -1        38-6.36756E-13-6.36756E-13 5.45791E-13 3.74824E-21 7.64096E-24-9.68350E-22
 -1        39-2.97984E-12 7.07453E-12-1.72903E-12 1.98337E-13-1.70010E-20 3.22880E-14
 -1        40-2.97984E-12 6.73873E-12-1.63678E-12 1.98337E-13-2.05255E-20 3.22880E-14
 -1        41 5.91190E-12-1.82632E-11 5.76712E-12 8.02730E-13 2.29932E-14 5.58756E-13
 -1        42 1.18238E-11-4.81760E-11 1.47347E-11 1.39671E-12 4.59864E-14 1.12280E-12
 -1        43-6.36756E-13-6.36756E-13 5.45791E-13 3.74547E-21-9.66373E-22 7.64081E-24
 -1        44-4.24504E-13-4.24504E-13 3.63860E-13 4.99589E-21-6.45566E-22-6.44249E-22
 -1        45-1.98656E-12 4.71635E-12-1.15269E-12 2.02927E-14 5.33748E-21 2.15253E-14
 -1        46-1.98656E-12 4.49249E-12-1.09119E-12 2.02927E-14 3.10937E-21 2.15253E-14
 -1        47 3.80210E-12-1.21754E-11 3.86664E-12-1.40645E-12 1.06172E-14 3.72504E-13
 -1        48 5.70315E-12-2.40880E-11 7.40019E-12-2.21405E-12 1.59258E-14 5.61400E-13
 -1        49 7.07453E-12-2.97984E-12-1.72903E-12 1.98337E-13 3.22880E-14-1.84500E-20
 -1        50 4.71635E-12-1.98656E-12-1.15269E-12 2.02927E-14 2.15253E-14 4.97330E-21
 -1        51 2.05523E-12 2.05523E-12-2.12748E-12-5.25104E-13-2.28658E-13-2.28658E-13
 -1        52 2.05523E-12 4.43327E-12-2.78078E-12 6.63916E-13-2.28658E-13-2.28658E-13
 -1        53 5.80046E-12-1.48728E-11 3.79236E-12 1.10512E-12-1.63545E-13 4.37429E-14
 -1        54 8.70069E-12-2.29916E-11 5.87602E-12 2.93334E-12-2.45318E-13 6.56143E-14
 -1        55 6.73873E-12-2.97984E-12-1.63678E-12 1.98337E-13 3.22880E-14-1.96625E-20
 -1        56 4.49249E-12-1.98656E-12-1.09119E-12 2.02927E-14 2.15253E-14 3.53660E-21
 -1        57 4.43327E-12 2.05523E-12-2.78078E-12 6.63916E-13-2.28658E-13-2.28658E-13
 -1        58 4.43327E-12 4.43327E-12-3.43409E-12 1.85294E-12-2.28658E-13-2.28658E-13
 -1        59 7.50133E-12-1.48728E-11 3.32509E-12 8.77660E-13-1.63545E-13 4.37429E-14
 -1        60 1.12520E-11-2.29916E-11 5.17511E-12 2.59214E-12-2.45318E-13 6.56144E-14
 -1        61-1.82632E-11 5.91190E-12 5.76712E-12 8.02730E-13 5.58756E-13 2.29932E-14
 -1        62-1.21754E-11 3.80210E-12 3.86664E-12-1.40645E-12 3.72504E-13 1.06172E-14
 -1        63-1.48728E-11 5.80046E-12 3.79236E-12 1.10512E-12 4.37429E-14-1.63545E-13
 -1        64-1.48728E-11 7.50133E-12 3.32509E-12 8.77660E-13 4.37429E-14-1.63545E-13
 -1        65-2.86806E-39 2.55752E-19-4.42103E-21 1.27876E-19 1.95639E-20-8.69075E-21
 -1        66-4.30209E-39-3.11747E-19 2.74458E-21-1.55873E-19 4.35290E-20 9.06011E-20
 -1        67-4.81760E-11 1.18238E-11 1.47347E-11 1.39671E-12 1.12280E-12 4.59864E-14
 -1        68-2.40880E-11 5.70315E-12 7.40019E-12-2.21405E-12 5.61400E-13 1.59258E-14
 -1        69-2.29916E-11 8.70069E-12 5.87602E-12 2.93334E-12 6.56143E-14-2.45318E-13
 -1        70-2.29916E-11 1.12520E-11 5.17511E-12 2.59214E-12 6.56142E-14-2.45318E-13
 -1        71 1.84574E-38-1.11507E-18 6.32913E-20-5.57533E-19 1.70495E-19 3.86590E-20
 -1        72 3.69147E-38 8.51943E-19-1.10248E-19 4.25972E-19-3.43602E-19-4.28366E-19
 -3
    1PSTEP                        37          13           1          
  100CL  113 7.57812E-02          72                     0   13           1
 -4  DISP        4    1
 -5  D1          1    2    1    0
 -5  D2          1    2    2    0
 -5  D3          1    2    3    0
 -5  ALL         1    2    0    0    1ALL
 -1         1 0.00000E+00 0.00000E+00 0.00000E+00
 -1         2-8.57067E-10 0.00000E+00 0.00000E+00
 -1         3-4.49960E-02 0.00000E+00 0.00000E+00
 -1         4-4.49960E-02 0.00000E+00 0.00000E+00
 -1         5-1.00500E-01 0.00000E+00 0.00000E+00
 -1         6-1.00500E-01 0.00000E+00 0.00000E+00
 -1         7 0.00000E+00-8.57067E-10 0.00000E+00
 -1         8-8.57067E-10-8.57067E-10 0.00000E+00
 -1         9-4.49960E-02 9.11879E-09 0.00000E+00
 -1        10-4.49960E-02 8.57320E-09 0.00000E+00
 -1        11-1.00500E-01-1.86530E-08 0.00000E+00
 -1        12-1.00500E-01-2.59805E-08 0.00000E+00
 -1        13 0.00000E+00-4.49960E-02 0.00000E+00
 -1        14 9.11879E-09-4.49960E-02 0.00000E+00
 -1        15 3.04276E-01 3.04276E-01 0.00000E+00
 -1        16 3.04276E-01 3.04275E-01 0.00000E+00
 -1        17 5.10274E-01-7.53590E-01 0.00000E+00
 -1        18 5.10235E-01-9.51179E-01 0.00000E+00
 -1        19 0.00000E+00-4.49960E-02 0.00000E+00
 -1        20 8.57320E-09-4.49960E-02 0.00000E+00
 -1        21 3.04275E-01 3.04276E-01 0.00000E+00
 -1        22 3.04276E-01 3.04276E-01 0.00000E+00
 -1        23 7.07863E-01-7.53629E-01 0.00000E+00
 -1        24 7.07824E-01-9.51218E-01 0.00000E+00
 -1        25 0.00000E+00-1.00500E-01 0.00000E+00
 -1        26-1.86530E-08-1.00500E-01 0.00000E+00
 -1        27-7.53590E-01 5.10274E-01 0.00000E+00
 -1        28-7.53629E-01 7.07863E-01 0.00000E+00
 -1        29-2.27344E+00-2.27344E+00 0.00000E+00
 -1        30-2.27344E+00-2.27344E+00 0.00000E+00
 -1        31 0.00000E+00-1.00500E-01 0.00000E+00
 -1        32-2.59805E-08-1.00500E-01 0.00000E+00
 -1        33-9.51179E-01 5.10235E-01 0.00000E+00
 -1        34-9.51218E-01 7.07824E-01 0.00000E+00
 -1        35-2.27344E+00-2.27344E+00 0.00000E+00
 -1        36-2.27344E+00-2.27344E+00 0.00000E+00
 -1        37 0.00000E+00 0.00000E+00 1.02848E-09
 -1        38-8.57067E-10 0.00000E+00 1.02848E-09
 -1        39-4.49960E-02 0.00000E+00-3.07366E-09
 -1        40-4.49960E-02 0.00000E+00-2.86382E-09
 -1        41-1.00500E-01 0.00000E+00 8.39726E-09
 -1        42-1.00500E-01 0.00000E+00 1.12155E-08
 -1        43 0.00000E+00-8.57067E-10 1.02848E-09
 -1        44-8.57067E-10-8.57067E-10 1.02848E-09
 -1        45-4.49960E-02 9.11879E-09-3.07366E-09
 -1        46-4.49960E-02 8.57320E-09-2.86382E-09
 -1        47-1.00500E-01-1.86868E-08 8.47579E-09
 -1        48-1.00500E-01-2.60143E-08 1.12941E-08
 -1        49 0.00000E+00-4.49960E-02-3.07366E-09
 -1        50 9.11879E-09-4.49960E-02-3.07366E-09
 -1        51 3.04276E-01 3.04276E-01-5.75379E-09
 -1        52 3.04276E-01 3.04276E-01-7.51330E-09
 -1        53 5.10274E-01-7.53590E-01 8.11186E-09
 -1        54 5.10235E-01-9.51179E-01 8.52963E-09
 -1        55 0.00000E+00-4.49960E-02-2.86382E-09
 -1        56 8.57320E-09-4.49960E-02-2.86382E-09
 -1        57 3.04276E-01 3.04276E-01-7.51330E-09
 -1        58 3.04276E-01 3.04276E-01-9.27282E-09
 -1        59 7.07863E-01-7.53629E-01 6.97527E-09
 -1        60 7.07824E-01-9.51218E-01 7.39305E-09
 -1        61 0.00000E+00-1.00500E-01 8.39726E-09
 -1        62-1.86868E-08-1.00500E-01 8.47579E-09
 -1        63-7.53590E-01 5.10274E-01 8.11186E-09
 -1        64-7.53629E-01 7.07863E-01 6.97527E-09
 -1        65-2.27344E+00-2.27344E+00 6.99503E-17
 -1        66-2.27344E+00-2.27344E+00-8.35191E-17
 -1        67 0.00000E+00-1.00500E-01 1.12155E-08
 -1        68-2.60143E-08-1.00500E-01 1.12941E-08
 -1        69-9.51179E-01 5.10235E-01 8.52963E-09
 -1        70-9.51218E-01 7.07824E-01 7.39305E-09
 -1        71-2.27344E+00-2.27344E+00-1.83145E-17
 -1        72-2.27344E+00-2.27344E+00-6.66506E-17
 -3
    1PSTEP                        38          13           1          
  100CL  113 7.57812E-02          72                     0   13           1
 -4  STRESS      6    1
 -5  SXX         1    4    1    1
 -5  SYY         1    4    2    2
 -5  SZZ         1    4    3    3
 -5  SXY         1    4    1    2
 -5  SYZ         1    4    2    3
 -5  SZX         1    4    3    1
 -1         1-5.14220E-07-5.14220E-07-1.59324E-15-6.61760E-20 8.43885E-21 8.44453E-21
 -1         2-2.57110E-07-2.57110E-07 6.88110E-16 9.77781E-16 4.22813E-21-2.56975E-16
 -1         3-2.63162E-07 1.83948E-06 1.18640E-08 5.20555E-08-3.14089E-20-8.47431E-09
 -1         4-3.11102E-07 1.70341E-06-1.18640E-08 5.20555E-08-3.52097E-20-8.47432E-09
 -1         5 1.90143E-07-3.80762E-06 1.74287E-07 1.51736E-07-7.43060E-14-1.14179E-07
 -1         6-9.07437E-07-1.12703E-05-2.88783E-07 2.45884E-07-1.48612E-13-2.26899E-07
 -1         7-2.57110E-07-2.57110E-07 6.87898E-16 9.78010E-16-2.56995E-16 4.23201E-21
 -1         8-1.71407E-07-1.71407E-07 1.44842E-15 1.30388E-15-1.71330E-16-1.71317E-16
 -1         9-1.75441E-07 1.22632E-06 7.90935E-09 5.32603E-09 3.47259E-15-5.64954E-09
 -1        10-2.07402E-07 1.13561E-06-7.90935E-09 5.32603E-09 3.58761E-15-5.64955E-09
 -1        11 6.41074E-08-2.56268E-06 9.79697E-08-2.93398E-07-1.29983E-09-7.61191E-08
 -1        12-5.47701E-07-5.67154E-06-1.71725E-07-4.68890E-07-1.94974E-09-1.13449E-07
 -1        13 1.83948E-06-2.63162E-07 1.18640E-08 5.20555E-08-8.47431E-09-3.17835E-20
 -1        14 1.22632E-06-1.75441E-07 7.90935E-09 5.32603E-09-5.64954E-09 3.70244E-15
 -1        15 7.37852E-07 7.37852E-07-1.32639E-07-1.09681E-07 4.73712E-08 4.73712E-08
 -1        16 1.00584E-06 1.49850E-06 7.42516E-15 1.36649E-07 4.73712E-08 4.73712E-08
 -1        17 4.15764E-07-3.20989E-06-2.70842E-08 2.31946E-07 3.06047E-08-1.12356E-08
 -1        18 5.28389E-07-5.08594E-06-8.78666E-08 5.86532E-07 4.59071E-08-1.68534E-08
 -1        19 1.70341E-06-3.11102E-07-1.18640E-08 5.20555E-08-8.47432E-09-3.49060E-20
 -1        20 1.13561E-06-2.07402E-07-7.90935E-09 5.32603E-09-5.64955E-09 3.34236E-15
 -1        21 1.49850E-06 1.00584E-06-5.40942E-15 1.36649E-07 4.73712E-08 4.73712E-08
 -1        22 1.76648E-06 1.76648E-06 1.32639E-07 3.82979E-07 4.73712E-08 4.73712E-08
 -1        23 9.07071E-07-3.03674E-06 5.85966E-08 1.73333E-07 3.06048E-08-1.12356E-08
 -1        24 1.26535E-06-4.82620E-06 4.06546E-08 4.98612E-07 4.59071E-08-1.68534E-08
 -1        25-3.80762E-06 1.90143E-07 1.74287E-07 1.51736E-07-1.14179E-07-7.43060E-14
 -1        26-2.56268E-06 6.41074E-08 9.79697E-08-2.93398E-07-7.61191E-08-1.29983E-09
 -1        27-3.20989E-06 4.15764E-07-2.70842E-08 2.31946E-07-1.12356E-08 3.06047E-08
 -1        28-3.03674E-06 9.07071E-07 5.85966E-08 1.73333E-07-1.12356E-08 3.06047E-08
 -1        29 1.27138E-14 2.42848E-14 1.80946E-14 5.78547E-15-2.52336E-14-2.52335E-14
 -1        30-1.03067E-14-1.44124E-14-1.99434E-14-2.05282E-15 1.77774E-15 1.77780E-15
 -1        31-1.12703E-05-9.07437E-07-2.88783E-07 2.45884E-07-2.26899E-07-1.48612E-13
 -1        32-5.67154E-06-5.47701E-07-1.71725E-07-4.68890E-07-1.13449E-07-1.94974E-09
 -1        33-5.08594E-06 5.28389E-07-8.78666E-08 5.86532E-07-1.68534E-08 4.59071E-08
 -1        34-4.82620E-06 1.26535E-06 4.06547E-08 4.98612E-07-1.68534E-08 4.59071E-08
 -1        35-2.99084E-15-4.86554E-15-5.10391E-15-9.37351E-16 3.30182E-15 3.30194E-15
 -1        36 8.99648E-14 2.25299E-13 7.45841E-14 6.76669E-14 5.01013E-14 5.01015E-14
 -1        37-5.14220E-07-5.14220E-07-3.75196E-15-6.61425E-20 1.42483E-17 1.41426E-17
 -1        38-2.57110E-07-2.57110E-07-3.91246E-16 9.77781E-16 7.12413E-18-2.49908E-16
 -1        39-2.63162E-07 1.83948E-06 1.18640E-08 5.20555E-08-3.35638E-15 8.47431E-09
 -1        40-3.11102E-07 1.70341E-06-1.18640E-08 5.20555E-08-4.58721E-15 8.47431E-09
 -1        41 1.89622E-07-3.81564E-06 1.71725E-07 1.51736E-07 6.34306E-09 1.13449E-07
 -1        42-9.08479E-07-1.12863E-05-2.93909E-07 2.45884E-07 1.26861E-08 2.28357E-07
 -1        43-2.57110E-07-2.57110E-07-3.91458E-16 9.78010E-16-2.49875E-16 7.07129E-18
 -1        44-1.71407E-07-1.71407E-07 7.28850E-16 1.30388E-15-1.66584E-16-1.66606E-16
 -1        45-1.75441E-07 1.22632E-06 7.90935E-09 5.32603E-09 1.23500E-15 5.64954E-09
 -1        46-2.07402E-07 1.13561E-06-7.90935E-09 5.32603E-09 5.29470E-16 5.64954E-09
 -1        47 6.37601E-08-2.56803E-06 9.62611E-08-2.93398E-07 2.92893E-09 7.56329E-08
 -1        48-5.48222E-07-5.67957E-06-1.74287E-07-4.68890E-07 4.39339E-09 1.14179E-07
 -1        49 1.83948E-06-2.63162E-07 1.18640E-08 5.20555E-08 8.47431E-09-3.79125E-15
 -1        50 1.22632E-06-1.75441E-07 7.90935E-09 5.32603E-09 5.64954E-09 1.17494E-15
 -1        51 7.37852E-07 7.37852E-07-1.32639E-07-1.09681E-07-4.73712E-08-4.73712E-08
 -1        52 1.00584E-06 1.49850E-06 4.58699E-15 1.36649E-07-4.73712E-08-4.73712E-08
 -1        53 4.15764E-07-3.20989E-06-2.70842E-08 2.31946E-07-3.06048E-08 1.12356E-08
 -1        54 5.28389E-07-5.08594E-06-8.78666E-08 5.86532E-07-4.59071E-08 1.68534E-08
 -1        55 1.70341E-06-3.11102E-07-1.18640E-08 5.20555E-08 8.47431E-09-4.12842E-15
 -1        56 1.13561E-06-2.07402E-07-7.90935E-09 5.32603E-09 5.64954E-09 5.90085E-16
 -1        57 1.49850E-06 1.00584E-06 4.06680E-15 1.36649E-07-4.73712E-08-4.73712E-08
 -1        58 1.76648E-06 1.76648E-06 1.32639E-07 3.82979E-07-4.73712E-08-4.73712E-08
 -1        59 9.07071E-07-3.03674E-06 5.85966E-08 1.73333E-07-3.06047E-08 1.12356E-08
 -1        60 1.26535E-06-4.82620E-06 4.06547E-08 4.98612E-07-4.59071E-08 1.68534E-08
 -1        61-3.81564E-06 1.89622E-07 1.71725E-07 1.51736E-07 1.13449E-07 6.34306E-09
 -1        62-2.56803E-06 6.37601E-08 9.62611E-08-2.93398E-07 7.56329E-08 2.92893E-09
 -1        63-3.20989E-06 4.15764E-07-2.70842E-08 2.31946E-07 1.12356E-08-3.06047E-08
 -1        64-3.03674E-06 9.07071E-07 5.85966E-08 1.73333E-07 1.12356E-08-3.06047E-08
 -1        65-3.41763E-14-8.51254E-14-2.87954E-14-2.54746E-14 4.86021E-14 4.50911E-14
 -1        66 3.68685E-14 9.56631E-14 2.72318E-14 2.93973E-14-4.46294E-14-5.83872E-14
 -1        67-1.12863E-05-9.08479E-07-2.93909E-07 2.45884E-07 2.28357E-07 1.26861E-08
 -1        68-5.67957E-06-5.48222E-07-1.74287E-07-4.68890E-07 1.14179E-07 4.39339E-09
 -1        69-5.08594E-06 5.28389E-07-8.78666E-08 5.86532E-07 1.68534E-08-4.59071E-08
 -1        70-4.82620E-06 1.26535E-06 4.06546E-08 4.98612E-07 1.68534E-08-4.59071E-08
 -1        71-4.44793E-14-1.01672E-13-4.65923E-14-2.85963E-14-3.18937E-14-2.86686E-14
 -1        72-3.10024E-14-5.69582E-14-4.63830E-14-1.29779E-14 5.21546E-14 4.16218E-14
 -3
    1PSTEP                        39          13           1          
  100CL  113 7.57812E-02          72                     0   13           1
 -4  TOSTRAIN    6    1
 -5  EXX         1    4    1    1
 -5  EYY         1    4    2    2
 -5  EZZ         1    4    3    3
 -5  EXY         1    4    1    2
 -5  EYZ         1    4    2    3
 -5  EZX         1    4    3    1
 -1         1-1.71407E-12-1.71407E-12 1.46920E-12-4.09661E-25 5.22405E-26 5.22757E-26
 -1         2-8.57033E-13-8.57033E-13 7.34600E-13 6.05293E-21 2.61741E-26-1.59080E-21
 -1         3-3.89793E-12 9.11843E-12-2.19539E-12 3.22248E-13-1.94435E-25-5.24600E-14
 -1         4-3.89793E-12 8.57285E-12-2.04550E-12 3.22248E-13-2.17964E-25-5.24601E-14
 -1         5 6.09592E-12-1.86521E-11 5.99777E-12 9.39318E-13-4.59989E-19-7.06820E-13
 -1         6 1.21918E-11-5.19592E-11 1.60216E-11 1.52214E-12-9.19978E-19-1.40461E-12
 -1         7-8.57033E-13-8.57033E-13 7.34600E-13 6.05435E-21-1.59092E-21 2.61981E-26
 -1         8-5.71355E-13-5.71355E-13 4.89733E-13 8.07165E-21-1.06062E-21-1.06053E-21
 -1         9-2.59862E-12 6.07895E-12-1.46359E-12 3.29707E-14 2.14969E-20-3.49734E-14
 -1        10-2.59862E-12 5.71523E-12-1.36367E-12 3.29707E-14 2.22090E-20-3.49734E-14
 -1        11 3.82628E-12-1.24348E-11 4.03591E-12-1.81627E-12-8.04656E-15-4.71213E-13
 -1        12 5.73943E-12-2.59796E-11 8.06690E-12-2.90266E-12-1.20698E-14-7.02305E-13
 -1        13 9.11843E-12-3.89793E-12-2.19539E-12 3.22248E-13-5.24600E-14-1.96754E-25
 -1        14 6.07895E-12-2.59862E-12-1.46359E-12 3.29707E-14-3.49734E-14 2.29198E-20
 -1        15 2.64899E-12 2.64899E-12-2.73976E-12-6.78978E-13 2.93250E-13 2.93250E-13
 -1        16 2.64899E-12 5.69879E-12-3.57762E-12 8.45922E-13 2.93250E-13 2.93250E-13
 -1        17 6.60294E-12-1.58393E-11 3.86264E-12 1.44473E-12 1.89430E-13-6.96284E-14
 -1        18 9.90441E-12-2.48452E-11 6.09237E-12 3.64465E-12 2.84145E-13-1.04443E-13
 -1        19 8.57285E-12-3.89793E-12-2.04550E-12 3.22248E-13-5.24601E-14-2.16084E-25
 -1        20 5.71523E-12-2.59862E-12-1.36367E-12 3.29707E-14-3.49734E-14 2.06908E-20
 -1        21 5.69879E-12 2.64899E-12-3.57762E-12 8.45922E-13 2.93250E-13 2.93250E-13
 -1        22 5.69879E-12 5.69879E-12-4.41548E-12 2.37082E-12 2.93250E-13 2.93250E-13
 -1        23 8.57302E-12-1.58393E-11 3.32141E-12 1.08266E-12 1.89431E-13-6.96286E-14
 -1        24 1.28595E-11-2.48452E-11 5.28053E-12 3.10154E-12 2.84146E-13-1.04443E-13
 -1        25-1.86521E-11 6.09592E-12 5.99777E-12 9.39318E-13-7.06820E-13-4.59989E-19
 -1        26-1.24348E-11 3.82628E-12 4.03591E-12-1.81627E-12-4.71213E-13-8.04656E-15
 -1        27-1.58393E-11 6.60294E-12 3.86264E-12 1.44473E-12-6.96285E-14 1.89430E-13
 -1        28-1.58393E-11 8.57302E-12 3.32141E-12 1.08266E-12-6.96285E-14 1.89430E-13
 -1        29-2.41234E-39 7.16296E-20 3.33098E-20 3.58148E-20-1.56208E-19-1.56207E-19
 -1        30-3.61851E-39-2.54159E-20-5.96554E-20-1.27079E-20 1.10050E-20 1.10054E-20
 -1        31-5.19592E-11 1.21918E-11 1.60216E-11 1.52214E-12-1.40461E-12-9.19978E-19
 -1        32-2.59796E-11 5.73943E-12 8.06690E-12-2.90266E-12-7.02305E-13-1.20698E-14
 -1        33-2.48452E-11 9.90441E-12 6.09237E-12 3.64465E-12-1.04443E-13 2.84146E-13
 -1        34-2.48452E-11 1.28595E-11 5.28053E-12 3.10154E-12-1.04443E-13 2.84146E-13
 -1        35-8.25309E-41-1.16053E-20-1.30810E-20-5.80265E-21 2.04399E-20 2.04406E-20
 -1        36-1.65063E-40 8.37780E-19-9.52137E-20 4.18890E-19 3.10151E-19 3.10152E-19
 -1        37-1.71407E-12-1.71407E-12 1.46920E-12-4.09454E-25 8.82036E-23 8.75497E-23
 -1        38-8.57033E-13-8.57033E-13 7.34600E-13 6.05293E-21 4.41018E-23-1.54705E-21
 -1        39-3.89793E-12 9.11843E-12-2.19539E-12 3.22248E-13-2.07777E-20 5.24600E-14
 -1        40-3.89793E-12 8.57285E-12-2.04550E-12 3.22248E-13-2.83971E-20 5.24600E-14
 -1        41 6.10856E-12-1.86859E-11 5.99777E-12 9.39318E-13 3.92665E-14 7.02305E-13
 -1        42 1.22171E-11-5.20268E-11 1.60216E-11 1.52214E-12 7.85331E-14 1.41364E-12
 -1        43-8.57033E-13-8.57033E-13 7.34600E-13 6.05435E-21-1.54685E-21 4.37746E-23
 -1        44-5.71355E-13-5.71355E-13 4.89733E-13 8.07165E-21-1.03123E-21-1.03137E-21
 -1        45-2.59862E-12 6.07895E-12-1.46359E-12 3.29707E-14 7.64526E-21 3.49733E-14
 -1        46-2.59862E-12 5.71523E-12-1.36367E-12 3.29707E-14 3.27770E-21 3.49733E-14
 -1        47 3.83471E-12-1.24573E-11 4.03591E-12-1.81627E-12 1.81314E-14 4.68204E-13
 -1        48 5.75207E-12-2.60134E-11 8.06690E-12-2.90266E-12 2.71972E-14 7.06820E-13
 -1        49 9.11843E-12-3.89793E-12-2.19539E-12 3.22248E-13 5.24600E-14-2.34698E-20
 -1        50 6.07895E-12-2.59862E-12-1.46359E-12 3.29707E-14 3.49734E-14 7.27345E-21
 -1        51 2.64899E-12 2.64899E-12-2.73976E-12-6.78978E-13-2.93250E-13-2.93250E-13
 -1        52 2.64899E-12 5.69879E-12-3.57762E-12 8.45922E-13-2.93250E-13-2.93250E-13
 -1        53 6.60294E-12-1.58393E-11 3.86264E-12 1.44473E-12-1.89430E-13 6.96285E-14
 -1        54 9.90441E-12-2.48452E-11 6.09237E-12 3.64465E-12-2.84146E-13 1.04443E-13
 -1        55 8.57285E-12-3.89793E-12-2.04550E-12 3.22248E-13 5.24600E-14-2.55570E-20
 -1        56 5.71523E-12-2.59862E-12-1.36367E-12 3.29707E-14 3.49733E-14 3.65293E-21
 -1        57 5.69879E-12 2.64899E-12-3.57762E-12 8.45922E-13-2.93250E-13-2.93250E-13
 -1        58 5.69879E-12 5.69879E-12-4.41548E-12 2.37082E-12-2.93250E-13-2.93250E-13
 -1        59 8.57302E-12-1.58393E-11 3.32141E-12 1.08266E-12-1.89430E-13 6.96285E-14
 -1        60 1.28595E-11-2.48452E-11 5.28053E-12 3.10155E-12-2.84146E-13 1.04443E-13
 -1        61-1.86859E-11 6.10856E-12 5.99777E-12 9.39318E-13 7.02305E-13 3.92665E-14
 -1        62-1.24573E-11 3.83471E-12 4.03591E-12-1.81627E-12 4.68204E-13 1.81314E-14
 -1        63-1.58393E-11 6.60294E-12 3.86264E-12 1.44473E-12 6.96286E-14-1.89430E-13
 -1        64-1.58393E-11 8.57302E-12 3.32141E-12 1.08266E-12 6.96285E-14-1.89430E-13
 -1        65 1.20613E-38-3.15399E-19 3.33098E-20-1.57700E-19 3.00870E-19 2.79135E-19
 -1        66 1.80920E-38 3.63967E-19-5.96554E-20 1.81983E-19-2.76277E-19-3.61445E-19
 -1        67-5.20268E-11 1.22171E-11 1.60216E-11 1.52214E-12 1.41364E-12 7.85331E-14
 -1        68-2.60134E-11 5.75207E-12 8.06690E-12-2.90266E-12 7.06820E-13 2.71972E-14
 -1        69-2.48452E-11 9.90441E-12 6.09237E-12 3.64465E-12 1.04443E-13-2.84146E-13
 -1        70-2.48452E-11 1.28595E-11 5.28053E-12 3.10154E-12 1.04443E-13-2.84146E-13
 -1        71 4.11756E-40-3.54049E-19-1.30810E-20-1.77025E-19-1.97437E-19-1.77473E-19
 -1        72 8.23512E-40-1.60679E-19-9.52137E-20-8.03394E-20 3.22862E-19 2.57659E-19
 -3
    1PSTEP                        40          14           1          
  100CL  114 8.47812E-02          72                     0   14           1
 -4  DISP        4    1
 -5  D1          1    2    1    0
 -5  D2          1    2    2    0
 -5  D3          1    2    3    0
 -5  ALL         1    2    0    0    1ALL
 -1         1 0.00000E+00 0.00000E+00 0.00000E+00
 -1         2-1.06275E-09 0.00000E+00 0.00000E+00
 -1         3-5.57941E-02 0.00000E+00 0.00000E+00
 -1         4-5.57941E-02 0.00000E+00 0.00000E+00
 -1         5-1.27172E-01 0.00000E+00 0.00000E+00
 -1         6-1.27172E-01 0.00000E+00 0.00000E+00
 -1         7 0.00000E+00-1.06275E-09 0.00000E+00
 -1         8-1.06275E-09-1.06275E-09 0.00000E+00
 -1         9-5.57941E-02 1.12373E-08 0.00000E+00
 -1        10-5.57941E-02 1.04282E-08 0.00000E+00
 -1        11-1.27172E-01-1.84192E-08 0.00000E+00
 -1        12-1.27172E-01-2.74720E-08 0.00000E+00
 -1        13 0.00000E+00-5.57941E-02 0.00000E+00
 -1        14 1.12373E-08-5.57941E-02 0.00000E+00
 -1        15 3.70587E-01 3.70587E-01 0.00000E+00
 -1        16 3.70587E-01 3.70587E-01 0.00000E+00
 -1        17 6.30264E-01-7.67218E-01 0.00000E+00
 -1        18 6.30203E-01-1.01481E+00 0.00000E+00
 -1        19 0.00000E+00-5.57941E-02 0.00000E+00
 -1        20 1.04282E-08-5.57941E-02 0.00000E+00
 -1        21 3.70587E-01 3.70587E-01 0.00000E+00
 -1        22 3.70587E-01 3.70587E-01 0.00000E+00
 -1        23 8.77857E-01-7.67279E-01 0.00000E+00
 -1        24 8.77796E-01-1.01487E+00 0.00000E+00
 -1        25 0.00000E+00-1.27172E-01 0.00000E+00
 -1        26-1.84192E-08-1.27172E-01 0.00000E+00
 -1        27-7.67218E-01 6.30264E-01 0.00000E+00
 -1        28-7.67279E-01 8.77857E-01 0.00000E+00
 -1        29-2.54344E+00-2.54344E+00 0.00000E+00
 -1        30-2.54344E+00-2.54344E+00 0.00000E+00
 -1        31 0.00000E+00-1.27172E-01 0.00000E+00
 -1        32-2.74720E-08-1.27172E-01 0.00000E+00
 -1        33-1.01481E+00 6.30203E-01 0.00000E+00
 -1        34-1.01487E+00 8.77796E-01 0.00000E+00
 -1        35-2.54344E+00-2.54344E+00 0.00000E+00
 -1        36-2.54344E+00-2.54344E+00 0.00000E+00
 -1        37 0.00000E+00 0.00000E+00 1.27529E-09
 -1        38-1.06275E-09 0.00000E+00 1.27529E-09
 -1        39-5.57941E-02 0.00000E+00-3.76065E-09
 -1        40-5.57941E-02 0.00000E+00-3.44946E-09
 -1        41-1.27172E-01 0.00000E+00 8.45931E-09
 -1        42-1.27172E-01 0.00000E+00 1.19412E-08
 -1        43 0.00000E+00-1.06275E-09 1.27529E-09
 -1        44-1.06275E-09-1.06275E-09 1.27529E-09
 -1        45-5.57941E-02 1.12373E-08-3.76065E-09
 -1        46-5.57941E-02 1.04282E-08-3.44946E-09
 -1        47-1.27172E-01-1.84720E-08 8.58194E-09
 -1        48-1.27172E-01-2.75248E-08 1.20638E-08
 -1        49 0.00000E+00-5.57941E-02-3.76065E-09
 -1        50 1.12373E-08-5.57941E-02-3.76065E-09
 -1        51 3.70587E-01 3.70587E-01-7.06018E-09
 -1        52 3.70587E-01 3.70587E-01-9.24795E-09
 -1        53 6.30264E-01-7.67218E-01 7.98667E-09
 -1        54 6.30203E-01-1.01481E+00 8.61831E-09
 -1        55 0.00000E+00-5.57941E-02-3.44946E-09
 -1        56 1.04282E-08-5.57941E-02-3.44946E-09
 -1        57 3.70587E-01 3.70587E-01-9.24795E-09
 -1        58 3.70587E-01 3.70587E-01-1.14357E-08
 -1        59 8.77857E-01-7.67279E-01 6.72724E-09
 -1        60 8.77796E-01-1.01487E+00 7.35888E-09
 -1        61 0.00000E+00-1.27172E-01 8.45931E-09
 -1        62-1.84720E-08-1.27172E-01 8.58194E-09
 -1        63-7.67218E-01 6.30264E-01 7.98667E-09
 -1        64-7.67279E-01 8.77857E-01 6.72724E-09
 -1        65-2.54344E+00-2.54344E+00-3.66158E-17
 -1        66-2.54344E+00-2.54344E+00 3.16618E-17
 -1        67 0.00000E+00-1.27172E-01 1.19412E-08
 -1        68-2.75248E-08-1.27172E-01 1.20638E-08
 -1        69-1.01481E+00 6.30203E-01 8.61831E-09
 -1        70-1.01487E+00 8.77796E-01 7.35888E-09
 -1        71-2.54344E+00-2.54344E+00 5.55701E-17
 -1        72-2.54344E+00-2.54344E+00 9.71887E-17
 -3
    1PSTEP                        41          14           1          
  100CL  114 8.47812E-02          72                     0   14           1
 -4  STRESS      6    1
 -5  SXX         1    4    1    1
 -5  SYY         1    4    2    2
 -5  SZZ         1    4    3    3
 -5  SXY         1    4    1    2
 -5  SYZ         1    4    2    3
 -5  SZX         1    4    3    1
 -1         1-6.37622E-07-6.37622E-07-2.35257E-15-9.78484E-20 1.24435E-20 1.24324E-20
 -1         2-3.18811E-07-3.18811E-07 1.02834E-15 1.44611E-15 6.23212E-21-3.82044E-16
 -1         3-3.27786E-07 2.26668E-06 1.75942E-08 7.71975E-08-4.75681E-20-1.25673E-08
 -1         4-3.98881E-07 2.06489E-06-1.75942E-08 7.71975E-08-5.25326E-20-1.25673E-08
 -1         5 2.35637E-07-3.73110E-06 2.20199E-07 1.84146E-07-1.16031E-13-1.41182E-07
 -1         6-1.11965E-06-1.19779E-05-3.47032E-07 2.78366E-07-2.32062E-13-2.80086E-07
 -1         7-3.18811E-07-3.18811E-07 1.02767E-15 1.44655E-15-3.81725E-16 6.22763E-21
 -1         8-2.12540E-07-2.12540E-07 2.15486E-15 1.92847E-15-2.54696E-16-2.54483E-16
 -1         9-2.18524E-07 1.51112E-06 1.17294E-08 7.89842E-09 4.41745E-15-8.37819E-09
 -1        10-2.65920E-07 1.37659E-06-1.17295E-08 7.89843E-09 4.36403E-15-8.37819E-09
 -1        11 5.92540E-08-2.52528E-06 1.18345E-07-3.64693E-07-2.02972E-09-9.41212E-08
 -1        12-7.06583E-07-6.04576E-06-2.16197E-07-5.92001E-07-3.04458E-09-1.40043E-07
 -1        13 2.26668E-06-3.27786E-07 1.75942E-08 7.71975E-08-1.25673E-08-4.83385E-20
 -1        14 1.51112E-06-2.18524E-07 1.17294E-08 7.89842E-09-8.37819E-09 4.48268E-15
 -1        15 9.01765E-07 9.01765E-07-1.64923E-07-1.35656E-07 5.89011E-08 5.89011E-08
 -1        16 1.23498E-06 1.84755E-06 3.45656E-15 1.70630E-07 5.89011E-08 5.89011E-08
 -1        17 5.49362E-07-3.29035E-06-2.36597E-08 2.94561E-07 3.39160E-08-1.69889E-08
 -1        18 6.80000E-07-5.34538E-06-1.06913E-07 7.06190E-07 5.08740E-08-2.54833E-08
 -1        19 2.06489E-06-3.98881E-07-1.75942E-08 7.71975E-08-1.25673E-08-5.34359E-20
 -1        20 1.37659E-06-2.65920E-07-1.17295E-08 7.89843E-09-8.37819E-09 4.37960E-15
 -1        21 1.84755E-06 1.23498E-06 5.52085E-15 1.70630E-07 5.89011E-08 5.89011E-08
 -1        22 2.18076E-06 2.18076E-06 1.64923E-07 4.76916E-07 5.89011E-08 5.89011E-08
 -1        23 1.09373E-06-3.09844E-06 7.12817E-08 2.05957E-07 3.39160E-08-1.69889E-08
 -1        24 1.49656E-06-5.05752E-06 3.54987E-08 5.73284E-07 5.08740E-08-2.54833E-08
 -1        25-3.73110E-06 2.35637E-07 2.20199E-07 1.84146E-07-1.41182E-07-1.16031E-13
 -1        26-2.52528E-06 5.92540E-08 1.18345E-07-3.64693E-07-9.41212E-08-2.02972E-09
 -1        27-3.29035E-06 5.49362E-07-2.36597E-08 2.94561E-07-1.69889E-08 3.39160E-08
 -1        28-3.09844E-06 1.09373E-06 7.12816E-08 2.05957E-07-1.69889E-08 3.39160E-08
 -1        29-1.72212E-15-1.20160E-15-4.53879E-15 2.60259E-16-2.19639E-14-2.19639E-14
 -1        30 3.60454E-15 4.75749E-15 7.25765E-15 5.76475E-16 1.73278E-14 1.73279E-14
 -1        31-1.19779E-05-1.11965E-06-3.47032E-07 2.78366E-07-2.80086E-07-2.32062E-13
 -1        32-6.04576E-06-7.06583E-07-2.16197E-07-5.92001E-07-1.40043E-07-3.04458E-09
 -1        33-5.34538E-06 6.80000E-07-1.06913E-07 7.06190E-07-2.54833E-08 5.08740E-08
 -1        34-5.05752E-06 1.49656E-06 3.54986E-08 5.73284E-07-2.54833E-08 5.08740E-08
 -1        35 2.34643E-15-9.36755E-16 8.75817E-15-1.64159E-15-9.87282E-16-9.87257E-16
 -1        36 4.13010E-14 7.39412E-14 6.37287E-14 1.63201E-14 6.39745E-14 6.39746E-14
 -1        37-6.37622E-07-6.37622E-07-5.56045E-15-9.78545E-20 2.77897E-17 2.77897E-17
 -1        38-3.18811E-07-3.18811E-07-5.76271E-16 1.44655E-15 1.38948E-17-3.68155E-16
 -1        39-3.27786E-07 2.26668E-06 1.75942E-08 7.71975E-08-4.38130E-15 1.25673E-08
 -1        40-3.98881E-07 2.06489E-06-1.75942E-08 7.71975E-08-5.71272E-15 1.25673E-08
 -1        41 2.34824E-07-3.74362E-06 2.16197E-07 1.84146E-07 9.90487E-09 1.40043E-07
 -1        42-1.12128E-06-1.20029E-05-3.55036E-07 2.78366E-07 1.98098E-08 2.82364E-07
 -1        43-3.18811E-07-3.18811E-07-5.75600E-16 1.44611E-15-3.67836E-16 1.38948E-17
 -1        44-2.12541E-07-2.12541E-07 1.08557E-15 1.92847E-15-2.45437E-16-2.45224E-16
 -1        45-2.18524E-07 1.51112E-06 1.17294E-08 7.89842E-09 1.49656E-15 8.37819E-09
 -1        46-2.65921E-07 1.37659E-06-1.17295E-08 7.89843E-09 5.55532E-16 8.37818E-09
 -1        47 5.87117E-08-2.53364E-06 1.15677E-07-3.64693E-07 4.57360E-09 9.33620E-08
 -1        48-7.07397E-07-6.05829E-06-2.20199E-07-5.92001E-07 6.86041E-09 1.41182E-07
 -1        49 2.26668E-06-3.27786E-07 1.75942E-08 7.71975E-08 1.25673E-08-4.41300E-15
 -1        50 1.51112E-06-2.18524E-07 1.17294E-08 7.89842E-09 8.37818E-09 1.54065E-15
 -1        51 9.01765E-07 9.01765E-07-1.64923E-07-1.35656E-07-5.89011E-08-5.89011E-08
 -1        52 1.23498E-06 1.84755E-06-3.62933E-16 1.70630E-07-5.89011E-08-5.89011E-08
 -1        53 5.49362E-07-3.29035E-06-2.36597E-08 2.94562E-07-3.39160E-08 1.69889E-08
 -1        54 6.80000E-07-5.34538E-06-1.06913E-07 7.06190E-07-5.08741E-08 2.54833E-08
 -1        55 2.06489E-06-3.98881E-07-1.75942E-08 7.71975E-08 1.25673E-08-5.70476E-15
 -1        56 1.37659E-06-2.65921E-07-1.17295E-08 7.89843E-09 8.37818E-09 5.76402E-16
 -1        57 1.84755E-06 1.23498E-06 7.44807E-15 1.70630E-07-5.89011E-08-5.89011E-08
 -1        58 2.18076E-06 2.18076E-06 1.64923E-07 4.76916E-07-5.89011E-08-5.89011E-08
 -1        59 1.09373E-06-3.09844E-06 7.12816E-08 2.05957E-07-3.39160E-08 1.69889E-08
 -1        60 1.49656E-06-5.05752E-06 3.54986E-08 5.73284E-07-5.08740E-08 2.54833E-08
 -1        61-3.74362E-06 2.34824E-07 2.16197E-07 1.84146E-07 1.40043E-07 9.90487E-09
 -1        62-2.53364E-06 5.87117E-08 1.15677E-07-3.64693E-07 9.33620E-08 4.57360E-09
 -1        63-3.29035E-06 5.49362E-07-2.36597E-08 2.94562E-07 1.69889E-08-3.39160E-08
 -1        64-3.09844E-06 1.09373E-06 7.12816E-08 2.05957E-07 1.69889E-08-3.39160E-08
 -1        65-2.99751E-14-6.71252E-14-3.27918E-14-1.85751E-14 4.80139E-15 3.51405E-15
 -1        66 2.77183E-16-3.00635E-15 3.93029E-15-1.64176E-15-1.38261E-15-1.16043E-15
 -1        67-1.20029E-05-1.12128E-06-3.55036E-07 2.78366E-07 2.82364E-07 1.98098E-08
 -1        68-6.05829E-06-7.07397E-07-2.20199E-07-5.92001E-07 1.41182E-07 6.86041E-09
 -1        69-5.34538E-06 6.80000E-07-1.06913E-07 7.06190E-07 2.54833E-08-5.08740E-08
 -1        70-5.05752E-06 1.49656E-06 3.54986E-08 5.73284E-07 2.54833E-08-5.08741E-08
 -1        71-2.56097E-14-6.61678E-14-1.91980E-14-2.02790E-14 1.52938E-14 1.12096E-14
 -1        72-7.30125E-14-1.92790E-13-5.05848E-14-5.98889E-14-4.39309E-14-4.77929E-14
 -3
    1PSTEP                        42          14           1          
  100CL  114 8.47812E-02          72                     0   14           1
 -4  TOSTRAIN    6    1
 -5  EXX         1    4    1    1
 -5  EYY         1    4    2    2
 -5  EZZ         1    4    3    3
 -5  EXY         1    4    1    2
 -5  EYZ         1    4    2    3
 -5  EZX         1    4    3    1
 -1         1-2.12541E-12-2.12541E-12 1.82178E-12-6.05728E-25 7.70310E-26 7.69628E-26
 -1         2-1.06270E-12-1.06270E-12 9.10888E-13 8.95209E-21 3.85798E-26-2.36503E-21
 -1         3-4.82414E-12 1.12369E-11-2.68607E-12 4.77889E-13-2.94467E-25-7.77974E-14
 -1         4-4.82414E-12 1.04278E-11-2.46379E-12 4.77889E-13-3.25200E-25-7.77975E-14
 -1         5 6.13765E-12-1.84183E-11 6.04208E-12 1.13995E-12-7.18287E-19-8.73982E-13
 -1         6 1.22753E-11-5.49421E-11 1.70582E-11 1.72322E-12-1.43657E-18-1.73387E-12
 -1         7-1.06270E-12-1.06270E-12 9.10888E-13 8.95486E-21-2.36306E-21 3.85520E-26
 -1         8-7.08468E-13-7.08468E-13 6.07259E-13 1.19382E-20-1.57669E-21-1.57537E-21
 -1         9-3.21609E-12 7.49124E-12-1.79072E-12 4.88950E-14 2.73460E-20-5.18650E-14
 -1        10-3.21609E-12 6.95185E-12-1.64253E-12 4.88950E-14 2.70153E-20-5.18650E-14
 -1        11 3.72065E-12-1.22789E-11 4.08645E-12-2.25762E-12-1.25650E-14-5.82655E-13
 -1        12 5.58097E-12-2.74711E-11 8.61670E-12-3.66477E-12-1.88474E-14-8.66933E-13
 -1        13 1.12369E-11-4.82414E-12-2.68607E-12 4.77889E-13-7.77974E-14-2.99237E-25
 -1        14 7.49124E-12-3.21609E-12-1.79072E-12 4.88950E-14-5.18650E-14 2.77498E-20
 -1        15 3.24149E-12 3.24149E-12-3.36182E-12-8.39774E-13 3.64626E-13 3.64626E-13
 -1        16 3.24149E-12 7.03360E-12-4.40361E-12 1.05628E-12 3.64626E-13 3.64626E-13
 -1        17 7.34850E-12-1.64175E-11 3.80303E-12 1.83525E-12 2.09904E-13-1.05273E-13
 -1        18 1.10227E-11-2.62685E-11 6.15571E-12 4.39012E-12 3.14856E-13-1.57910E-13
 -1        19 1.04278E-11-4.82414E-12-2.46379E-12 4.77889E-13-7.77975E-14-3.30792E-25
 -1        20 6.95185E-12-3.21609E-12-1.64253E-12 4.88950E-14-5.18650E-14 2.71117E-20
 -1        21 7.03360E-12 3.24149E-12-4.40361E-12 1.05628E-12 3.64626E-13 3.64626E-13
 -1        22 7.03360E-12 7.03360E-12-5.44540E-12 2.95234E-12 3.64626E-13 3.64626E-13
 -1        23 9.53150E-12-1.64175E-11 3.20330E-12 1.28782E-12 2.09904E-13-1.05273E-13
 -1        24 1.42973E-11-2.62685E-11 5.25612E-12 3.56899E-12 3.14856E-13-1.57910E-13
 -1        25-1.84183E-11 6.13765E-12 6.04208E-12 1.13995E-12-8.73982E-13-7.18287E-19
 -1        26-1.22789E-11 3.72065E-12 4.08645E-12-2.25762E-12-5.82655E-13-1.25649E-14
 -1        27-1.64175E-11 7.34850E-12 3.80303E-12 1.83525E-12-1.05273E-13 2.09904E-13
 -1        28-1.64175E-11 9.53150E-12 3.20330E-12 1.28782E-12-1.05273E-13 2.09904E-13
 -1        29-5.04836E-40 3.22225E-21-1.74365E-20 1.61113E-21-1.35967E-19-1.35967E-19
 -1        30-7.57253E-40 7.13731E-21 2.26145E-20 3.56865E-21 1.07268E-19 1.07268E-19
 -1        31-5.49421E-11 1.22753E-11 1.70582E-11 1.72322E-12-1.73387E-12-1.43657E-18
 -1        32-2.74711E-11 5.58097E-12 8.61670E-12-3.66477E-12-8.66933E-13-1.88474E-14
 -1        33-2.62685E-11 1.10227E-11 6.15571E-12 4.39012E-12-1.57910E-13 3.14856E-13
 -1        34-2.62685E-11 1.42973E-11 5.25612E-12 3.56899E-12-1.57910E-13 3.14856E-13
 -1        35-2.68981E-40-2.03244E-20 3.96918E-20-1.01622E-20-6.11175E-21-6.11159E-21
 -1        36-5.37961E-40 2.02058E-19 1.38838E-19 1.01029E-19 3.96033E-19 3.96033E-19
 -1        37-2.12541E-12-2.12541E-12 1.82178E-12-6.05766E-25 1.72032E-22 1.72032E-22
 -1        38-1.06270E-12-1.06270E-12 9.10888E-13 8.95486E-21 8.60153E-23-2.27906E-21
 -1        39-4.82414E-12 1.12369E-11-2.68607E-12 4.77889E-13-2.71226E-20 7.77974E-14
 -1        40-4.82414E-12 1.04278E-11-2.46379E-12 4.77889E-13-3.53647E-20 7.77974E-14
 -1        41 6.15739E-12-1.84711E-11 6.04208E-12 1.13995E-12 6.13159E-14 8.66933E-13
 -1        42 1.23148E-11-5.50477E-11 1.70582E-11 1.72322E-12 1.22632E-13 1.74796E-12
 -1        43-1.06270E-12-1.06270E-12 9.10888E-13 8.95209E-21-2.27708E-21 8.60154E-23
 -1        44-7.08468E-13-7.08468E-13 6.07259E-13 1.19382E-20-1.51937E-21-1.51805E-21
 -1        45-3.21609E-12 7.49124E-12-1.79072E-12 4.88950E-14 9.26449E-21 5.18650E-14
 -1        46-3.21609E-12 6.95185E-12-1.64253E-12 4.88950E-14 3.43906E-21 5.18649E-14
 -1        47 3.73381E-12-1.23141E-11 4.08645E-12-2.25762E-12 2.83128E-14 5.77955E-13
 -1        48 5.60071E-12-2.75238E-11 8.61670E-12-3.66477E-12 4.24692E-14 8.73982E-13
 -1        49 1.12369E-11-4.82414E-12-2.68607E-12 4.77889E-13 7.77974E-14-2.73189E-20
 -1        50 7.49124E-12-3.21609E-12-1.79072E-12 4.88950E-14 5.18650E-14 9.53743E-21
 -1        51 3.24149E-12 3.24149E-12-3.36182E-12-8.39774E-13-3.64626E-13-3.64626E-13
 -1        52 3.24149E-12 7.03360E-12-4.40361E-12 1.05628E-12-3.64626E-13-3.64626E-13
 -1        53 7.34850E-12-1.64175E-11 3.80303E-12 1.83525E-12-2.09904E-13 1.05273E-13
 -1        54 1.10227E-11-2.62685E-11 6.15571E-12 4.39012E-12-3.14857E-13 1.57910E-13
 -1        55 1.04278E-11-4.82414E-12-2.46379E-12 4.77889E-13 7.77974E-14-3.53155E-20
 -1        56 6.95185E-12-3.21609E-12-1.64253E-12 4.88950E-14 5.18649E-14 3.56825E-21
 -1        57 7.03360E-12 3.24149E-12-4.40361E-12 1.05628E-12-3.64626E-13-3.64626E-13
 -1        58 7.03360E-12 7.03360E-12-5.44540E-12 2.95234E-12-3.64626E-13-3.64626E-13
 -1        59 9.53150E-12-1.64175E-11 3.20330E-12 1.28782E-12-2.09904E-13 1.05273E-13
 -1        60 1.42973E-11-2.62685E-11 5.25612E-12 3.56899E-12-3.14856E-13 1.57910E-13
 -1        61-1.84711E-11 6.15739E-12 6.04208E-12 1.13995E-12 8.66933E-13 6.13159E-14
 -1        62-1.23141E-11 3.73381E-12 4.08645E-12-2.25762E-12 5.77955E-13 2.83128E-14
 -1        63-1.64175E-11 7.34850E-12 3.80303E-12 1.83525E-12 1.05273E-13-2.09904E-13
 -1        64-1.64175E-11 9.53150E-12 3.20330E-12 1.28782E-12 1.05273E-13-2.09904E-13
 -1        65 2.52405E-39-2.29977E-19-1.74365E-20-1.14988E-19 2.97229E-20 2.17536E-20
 -1        66 3.78608E-39-2.03266E-20 2.26145E-20-1.01633E-20-8.55904E-21-7.18360E-21
 -1        67-5.50477E-11 1.23148E-11 1.70582E-11 1.72322E-12 1.74796E-12 1.22632E-13
 -1        68-2.75238E-11 5.60071E-12 8.61670E-12-3.66477E-12 8.73982E-13 4.24692E-14
 -1        69-2.62685E-11 1.10227E-11 6.15571E-12 4.39012E-12 1.57910E-13-3.14856E-13
 -1        70-2.62685E-11 1.42973E-11 5.25612E-12 3.56899E-12 1.57910E-13-3.14856E-13
 -1        71 1.34467E-39-2.51074E-19 3.96918E-20-1.25537E-19 9.46761E-20 6.93929E-20
 -1        72 2.68935E-39-7.41481E-19 1.38838E-19-3.70741E-19-2.71953E-19-2.95861E-19
 -3
    1PSTEP                        43          15           1          
  100CL  115 9.37812E-02          72                     0   15           1
 -4  DISP        4    1
 -5  D1          1    2    1    0
 -5  D2          1    2    2    0
 -5  D3          1    2    3    0
 -5  ALL         1    2    0    0    1ALL
 -1         1 0.00000E+00 0.00000E+00 0.00000E+00
 -1         2-1.22581E-09 0.00000E+00 0.00000E+00
 -1         3-6.43552E-02 0.00000E+00 0.00000E+00
 -1         4-6.43552E-02 0.00000E+00 0.00000E+00
 -1         5-1.50087E-01 0.00000E+00 0.00000E+00
 -1         6-1.50087E-01 0.00000E+00 0.00000E+00
 -1         7 0.00000E+00-1.22581E-09 0.00000E+00
 -1         8-1.22581E-09-1.22581E-09 0.00000E+00
 -1         9-6.43552E-02 1.33193E-08 0.00000E+00
 -1        10-6.43552E-02 1.22095E-08 0.00000E+00
 -1        11-1.50087E-01-1.75657E-08 0.00000E+00
 -1        12-1.50087E-01-2.86070E-08 0.00000E+00
 -1        13 0.00000E+00-6.43552E-02 0.00000E+00
 -1        14 1.33193E-08-6.43552E-02 0.00000E+00
 -1        15 4.35142E-01 4.35142E-01 0.00000E+00
 -1        16 4.35142E-01 4.35142E-01 0.00000E+00
 -1        17 7.47605E-01-7.62804E-01 0.00000E+00
 -1        18 7.47515E-01-1.06438E+00 0.00000E+00
 -1        19 0.00000E+00-6.43552E-02 0.00000E+00
 -1        20 1.22095E-08-6.43552E-02 0.00000E+00
 -1        21 4.35142E-01 4.35142E-01 0.00000E+00
 -1        22 4.35142E-01 4.35142E-01 0.00000E+00
 -1        23 1.04918E+00-7.62895E-01 0.00000E+00
 -1        24 1.04909E+00-1.06447E+00 0.00000E+00
 -1        25 0.00000E+00-1.50087E-01 0.00000E+00
 -1        26-1.75657E-08-1.50087E-01 0.00000E+00
 -1        27-7.62804E-01 7.47605E-01 0.00000E+00
 -1        28-7.62895E-01 1.04918E+00 0.00000E+00
 -1        29-2.81344E+00-2.81344E+00 0.00000E+00
 -1        30-2.81344E+00-2.81344E+00 0.00000E+00
 -1        31 0.00000E+00-1.50087E-01 0.00000E+00
 -1        32-2.86070E-08-1.50087E-01 0.00000E+00
 -1        33-1.06438E+00 7.47515E-01 0.00000E+00
 -1        34-1.06447E+00 1.04909E+00 0.00000E+00
 -1        35-2.81344E+00-2.81344E+00 0.00000E+00
 -1        36-2.81344E+00-2.81344E+00 0.00000E+00
 -1        37 0.00000E+00 0.00000E+00 1.47098E-09
 -1        38-1.22581E-09 0.00000E+00 1.47098E-09
 -1        39-6.43552E-02 0.00000E+00-4.45955E-09
 -1        40-6.43552E-02 0.00000E+00-4.03268E-09
 -1        41-1.50087E-01 0.00000E+00 8.25727E-09
 -1        42-1.50087E-01 0.00000E+00 1.25039E-08
 -1        43 0.00000E+00-1.22581E-09 1.47098E-09
 -1        44-1.22581E-09-1.22581E-09 1.47098E-09
 -1        45-6.43552E-02 1.33193E-08-4.45955E-09
 -1        46-6.43552E-02 1.22095E-08-4.03268E-09
 -1        47-1.50087E-01-1.76420E-08 8.43444E-09
 -1        48-1.50087E-01-2.86833E-08 1.26811E-08
 -1        49 0.00000E+00-6.43552E-02-4.45955E-09
 -1        50 1.33193E-08-6.43552E-02-4.45955E-09
 -1        51 4.35142E-01 4.35142E-01-8.30435E-09
 -1        52 4.35142E-01 4.35142E-01-1.09553E-08
 -1        53 7.47605E-01-7.62804E-01 7.61892E-09
 -1        54 7.47515E-01-1.06438E+00 8.53182E-09
 -1        55 0.00000E+00-6.43552E-02-4.03268E-09
 -1        56 1.22095E-08-6.43552E-02-4.03268E-09
 -1        57 4.35142E-01 4.35142E-01-1.09553E-08
 -1        58 4.35142E-01 4.35142E-01-1.36063E-08
 -1        59 1.04918E+00-7.62895E-01 6.27051E-09
 -1        60 1.04909E+00-1.06447E+00 7.18341E-09
 -1        61 0.00000E+00-1.50087E-01 8.25727E-09
 -1        62-1.76420E-08-1.50087E-01 8.43444E-09
 -1        63-7.62804E-01 7.47605E-01 7.61892E-09
 -1        64-7.62895E-01 1.04918E+00 6.27051E-09
 -1        65-2.81344E+00-2.81344E+00-1.45046E-16
 -1        66-2.81344E+00-2.81344E+00 5.91566E-17
 -1        67 0.00000E+00-1.50087E-01 1.25039E-08
 -1        68-2.86833E-08-1.50087E-01 1.26811E-08
 -1        69-1.06438E+00 7.47515E-01 8.53182E-09
 -1        70-1.06447E+00 1.04909E+00 7.18341E-09
 -1        71-2.81344E+00-2.81344E+00 5.48097E-17
 -1        72-2.81344E+00-2.81344E+00 2.40235E-17
 -3
    1PSTEP                        44          15           1          
  100CL  115 9.37812E-02          72                     0   15           1
 -4  STRESS      6    1
 -5  SXX         1    4    1    1
 -5  SYY         1    4    2    2
 -5  SZZ         1    4    3    3
 -5  SXY         1    4    1    2
 -5  SYZ         1    4    2    3
 -5  SZX         1    4    3    1
 -1         1-7.35459E-07-7.35459E-07-3.22991E-15-1.34283E-19 1.70938E-20 1.70928E-20
 -1         2-3.67729E-07-3.67729E-07 1.40642E-15 1.98487E-15 8.56132E-21-5.23355E-16
 -1         3-3.80041E-07 2.69018E-06 2.41344E-08 1.05894E-07-7.10488E-20-1.72389E-08
 -1         4-4.77563E-07 2.41337E-06-2.41344E-08 1.05894E-07-7.77516E-20-1.72389E-08
 -1         5 3.00594E-07-3.51629E-06 2.73820E-07 2.33437E-07-1.67634E-13-1.72321E-07
 -1         6-1.33919E-06-1.25401E-05-4.12750E-07 3.36956E-07-3.35267E-13-3.41351E-07
 -1         7-3.67729E-07-3.67729E-07 1.40677E-15 1.98478E-15-5.23633E-16 8.54600E-21
 -1         8-2.45153E-07-2.45153E-07 2.95200E-15 2.64648E-15-3.48923E-16-3.48950E-16
 -1         9-2.53360E-07 1.79345E-06 1.60896E-08 1.08345E-08 5.52783E-15-1.14926E-08
 -1        10-3.18376E-07 1.60891E-06-1.60896E-08 1.08345E-08 5.23668E-15-1.14926E-08
 -1        11 5.90474E-08-2.39893E-06 1.41438E-07-4.38902E-07-2.93241E-09-1.14880E-07
 -1        12-8.81618E-07-6.35217E-06-2.68038E-07-7.23312E-07-4.39861E-09-1.70675E-07
 -1        13 2.69018E-06-3.80041E-07 2.41344E-08 1.05894E-07-1.72389E-08-7.25860E-20
 -1        14 1.79345E-06-2.53360E-07 1.60896E-08 1.08345E-08-1.14926E-08 5.65289E-15
 -1        15 1.05092E-06 1.05092E-06-1.99840E-07-1.61480E-07 7.13716E-08 7.13716E-08
 -1        16 1.45468E-06 2.19694E-06 7.26928E-15 2.09652E-07 7.13716E-08 7.13716E-08
 -1        17 6.90741E-07-3.28500E-06-1.64144E-08 3.64942E-07 3.63179E-08-2.45561E-08
 -1        18 8.27891E-07-5.51981E-06-1.27849E-07 8.30346E-07 5.44768E-08-3.68342E-08
 -1        19 2.41337E-06-4.77563E-07-2.41344E-08 1.05894E-07-1.72389E-08-7.75440E-20
 -1        20 1.60891E-06-3.18376E-07-1.60896E-08 1.08345E-08-1.14926E-08 5.22641E-15
 -1        21 2.19694E-06 1.45468E-06 7.90183E-15 2.09652E-07 7.13716E-08 7.13716E-08
 -1        22 2.60070E-06 2.60070E-06 1.99840E-07 5.80784E-07 7.13716E-08 7.13716E-08
 -1        23 1.27351E-06-3.07947E-06 8.52341E-08 2.36909E-07 3.63179E-08-2.45561E-08
 -1        24 1.70204E-06-5.21153E-06 2.46234E-08 6.38296E-07 5.44768E-08-3.68342E-08
 -1        25-3.51629E-06 3.00594E-07 2.73820E-07 2.33437E-07-1.72321E-07-1.67634E-13
 -1        26-2.39893E-06 5.90474E-08 1.41438E-07-4.38902E-07-1.14880E-07-2.93241E-09
 -1        27-3.28500E-06 6.90741E-07-1.64145E-08 3.64942E-07-2.45561E-08 3.63179E-08
 -1        28-3.07947E-06 1.27351E-06 8.52341E-08 2.36909E-07-2.45561E-08 3.63178E-08
 -1        29-7.00098E-15-5.17835E-15-1.81582E-14 9.11314E-16 9.42910E-15 9.42909E-15
 -1        30-2.53218E-15-1.27341E-14 4.29350E-15-5.10096E-15-6.11125E-14-6.11124E-14
 -1        31-1.25401E-05-1.33919E-06-4.12750E-07 3.36956E-07-3.41351E-07-3.35267E-13
 -1        32-6.35217E-06-8.81618E-07-2.68038E-07-7.23312E-07-1.70675E-07-4.39861E-09
 -1        33-5.51981E-06 8.27891E-07-1.27849E-07 8.30346E-07-3.68342E-08 5.44768E-08
 -1        34-5.21153E-06 1.70204E-06 2.46234E-08 6.38296E-07-3.68342E-08 5.44768E-08
 -1        35 4.86130E-15 5.01893E-15 1.11854E-14 7.88134E-17-2.68861E-14-2.68862E-14
 -1        36 3.27788E-15 2.10444E-15 8.82183E-15-5.86719E-16-5.02244E-15-5.02245E-15
 -1        37-7.35459E-07-7.35459E-07-7.62733E-15-1.34297E-19 3.54694E-17 3.52990E-17
 -1        38-3.67729E-07-3.67729E-07-7.91773E-16 1.98477E-15 1.76795E-17-5.05714E-16
 -1        39-3.80041E-07 2.69018E-06 2.41344E-08 1.05894E-07-5.62217E-15 1.72389E-08
 -1        40-4.77563E-07 2.41337E-06-2.41344E-08 1.05894E-07-7.07822E-15 1.72388E-08
 -1        41 2.99419E-07-3.53439E-06 2.68038E-07 2.33437E-07 1.43099E-08 1.70675E-07
 -1        42-1.34154E-06-1.25763E-05-4.24314E-07 3.36957E-07 2.86198E-08 3.44641E-07
 -1        43-3.67729E-07-3.67729E-07-7.92088E-16 1.98513E-15-5.05907E-16 1.75944E-17
 -1        44-2.45153E-07-2.45153E-07 1.48644E-15 2.64664E-15-3.37142E-16-3.37226E-16
 -1        45-2.53360E-07 1.79345E-06 1.60896E-08 1.08345E-08 1.77966E-15 1.14926E-08
 -1        46-3.18376E-07 1.60891E-06-1.60896E-08 1.08345E-08 5.17816E-16 1.14926E-08
 -1        47 5.82640E-08-2.41100E-06 1.37583E-07-4.38902E-07 6.60763E-09 1.13784E-07
 -1        48-8.82793E-07-6.37027E-06-2.73820E-07-7.23312E-07 9.91145E-09 1.72321E-07
 -1        49 2.69018E-06-3.80041E-07 2.41344E-08 1.05894E-07 1.72389E-08-6.03740E-15
 -1        50 1.79345E-06-2.53360E-07 1.60896E-08 1.08345E-08 1.14926E-08 1.62790E-15
 -1        51 1.05092E-06 1.05092E-06-1.99840E-07-1.61480E-07-7.13716E-08-7.13716E-08
 -1        52 1.45468E-06 2.19694E-06 5.48600E-15 2.09652E-07-7.13716E-08-7.13716E-08
 -1        53 6.90741E-07-3.28500E-06-1.64145E-08 3.64942E-07-3.63179E-08 2.45561E-08
 -1        54 8.27891E-07-5.51981E-06-1.27849E-07 8.30346E-07-5.44768E-08 3.68342E-08
 -1        55 2.41337E-06-4.77563E-07-2.41344E-08 1.05894E-07 1.72388E-08-6.75255E-15
 -1        56 1.60891E-06-3.18376E-07-1.60896E-08 1.08345E-08 1.14926E-08 7.24663E-16
 -1        57 2.19694E-06 1.45468E-06 4.47663E-15 2.09652E-07-7.13716E-08-7.13716E-08
 -1        58 2.60070E-06 2.60070E-06 1.99840E-07 5.80784E-07-7.13716E-08-7.13716E-08
 -1        59 1.27351E-06-3.07947E-06 8.52341E-08 2.36909E-07-3.63179E-08 2.45561E-08
 -1        60 1.70204E-06-5.21153E-06 2.46234E-08 6.38296E-07-5.44768E-08 3.68342E-08
 -1        61-3.53439E-06 2.99419E-07 2.68038E-07 2.33437E-07 1.70675E-07 1.43099E-08
 -1        62-2.41100E-06 5.82640E-08 1.37583E-07-4.38902E-07 1.13784E-07 6.60763E-09
 -1        63-3.28500E-06 6.90741E-07-1.64145E-08 3.64942E-07 2.45561E-08-3.63179E-08
 -1        64-3.07947E-06 1.27351E-06 8.52341E-08 2.36909E-07 2.45561E-08-3.63178E-08
 -1        65-1.24528E-14-1.78993E-14-2.36101E-14-2.72326E-15 2.04627E-14 2.06968E-14
 -1        66 2.79882E-14 5.84802E-14 3.48139E-14 1.52460E-14-1.64520E-14 2.87875E-15
 -1        67-1.25763E-05-1.34154E-06-4.24314E-07 3.36956E-07 3.44641E-07 2.86198E-08
 -1        68-6.37027E-06-8.82793E-07-2.73820E-07-7.23312E-07 1.72321E-07 9.91145E-09
 -1        69-5.51981E-06 8.27891E-07-1.27849E-07 8.30346E-07 3.68342E-08-5.44768E-08
 -1        70-5.21153E-06 1.70204E-06 2.46234E-08 6.38296E-07 3.68342E-08-5.44768E-08
 -1        71 2.55302E-14 5.32463E-14 3.18543E-14 1.38581E-14-3.54905E-14-5.41191E-14
 -1        72-1.50999E-13-3.57875E-13-1.45455E-13-1.03438E-13 1.47743E-13 1.48446E-13
 -3
    1PSTEP                        45          15           1          
  100CL  115 9.37812E-02          72                     0   15           1
 -4  TOSTRAIN    6    1
 -5  EXX         1    4    1    1
 -5  EYY         1    4    2    2
 -5  EZZ         1    4    3    3
 -5  EXY         1    4    1    2
 -5  EYZ         1    4    2    3
 -5  EZX         1    4    3    1
 -1         1-2.45153E-12-2.45153E-12 2.10131E-12-8.31276E-25 1.05819E-25 1.05813E-25
 -1         2-1.22576E-12-1.22576E-12 1.05066E-12 1.22873E-20 5.29986E-26-3.23982E-21
 -1         3-5.68731E-12 1.33188E-11-3.18527E-12 6.55532E-13-4.39822E-25-1.06717E-13
 -1         4-5.68731E-12 1.22090E-11-2.88037E-12 6.55533E-13-4.81315E-25-1.06717E-13
 -1         5 6.06351E-12-1.75649E-11 5.89776E-12 1.44509E-12-1.03773E-18-1.06675E-12
 -1         6 1.21270E-11-5.72121E-11 1.78621E-11 2.08592E-12-2.07546E-18-2.11312E-12
 -1         7-1.22576E-12-1.22576E-12 1.05066E-12 1.22867E-20-3.24154E-21 5.29038E-26
 -1         8-8.17176E-13-8.17176E-13 7.00437E-13 1.63830E-20-2.16000E-21-2.16017E-21
 -1         9-3.79154E-12 8.87921E-12-2.12351E-12 6.70705E-14 3.42197E-20-7.11445E-14
 -1        10-3.79154E-12 8.13931E-12-1.92024E-12 6.70705E-14 3.24174E-20-7.11445E-14
 -1        11 3.50617E-12-1.17099E-11 4.01621E-12-2.71701E-12-1.81530E-14-7.11165E-13
 -1        12 5.25926E-12-2.86061E-11 9.05761E-12-4.47764E-12-2.72295E-14-1.05656E-12
 -1        13 1.33188E-11-5.68731E-12-3.18527E-12 6.55532E-13-1.06717E-13-4.49338E-25
 -1        14 8.87921E-12-3.79154E-12-2.12351E-12 6.70705E-14-7.11445E-14 3.49939E-20
 -1        15 3.78856E-12 3.78856E-12-3.95425E-12-9.99640E-13 4.41824E-13 4.41824E-13
 -1        16 3.78856E-12 8.38353E-12-5.21661E-12 1.29785E-12 4.41824E-13 4.41824E-13
 -1        17 8.00281E-12-1.66034E-11 3.62791E-12 2.27401E-12 2.24733E-13-1.52150E-13
 -1        18 1.20042E-11-2.72787E-11 6.09394E-12 5.16393E-12 3.37099E-13-2.28225E-13
 -1        19 1.22090E-11-5.68731E-12-2.88037E-12 6.55533E-13-1.06717E-13-4.80031E-25
 -1        20 8.13931E-12-3.79154E-12-1.92024E-12 6.70705E-14-7.11445E-14 3.23538E-20
 -1        21 8.38353E-12 3.78856E-12-5.21661E-12 1.29785E-12 4.41824E-13 4.41824E-13
 -1        22 8.38353E-12 8.38353E-12-6.47896E-12 3.59533E-12 4.41824E-13 4.41824E-13
 -1        23 1.03400E-11-1.66034E-11 2.98582E-12 1.48283E-12 2.24733E-13-1.52150E-13
 -1        24 1.55100E-11-2.72787E-11 5.13080E-12 3.97717E-12 3.37100E-13-2.28225E-13
 -1        25-1.75649E-11 6.06351E-12 5.89776E-12 1.44509E-12-1.06675E-12-1.03773E-18
 -1        26-1.17099E-11 3.50617E-12 4.01621E-12-2.71701E-12-7.11165E-13-1.81530E-14
 -1        27-1.66034E-11 8.00281E-12 3.62791E-12 2.27401E-12-1.52150E-13 2.24733E-13
 -1        28-1.66034E-11 1.03400E-11 2.98582E-12 1.48283E-12-1.52150E-13 2.24733E-13
 -1        29-3.61062E-39 1.12829E-20-6.90688E-20 5.64147E-21 5.83706E-20 5.83706E-20
 -1        30-5.41592E-39-6.31548E-20 4.22542E-20-3.15774E-20-3.78315E-19-3.78315E-19
 -1        31-5.72121E-11 1.21270E-11 1.78621E-11 2.08592E-12-2.11312E-12-2.07546E-18
 -1        32-2.86061E-11 5.25926E-12 9.05761E-12-4.47764E-12-1.05656E-12-2.72295E-14
 -1        33-2.72787E-11 1.20042E-11 6.09394E-12 5.16393E-12-2.28225E-13 3.37100E-13
 -1        34-2.72787E-11 1.55100E-11 5.13080E-12 3.97717E-12-2.28224E-13 3.37100E-13
 -1        35 1.37570E-39 9.75785E-22 3.91493E-20 4.87892E-22-1.66438E-19-1.66438E-19
 -1        36 2.75139E-39-7.26414E-21 3.43197E-20-3.63207E-21-3.10913E-20-3.10914E-20
 -1        37-2.45153E-12-2.45153E-12 2.10131E-12-8.31365E-25 2.19573E-22 2.18517E-22
 -1        38-1.22576E-12-1.22576E-12 1.05066E-12 1.22867E-20 1.09445E-22-3.13061E-21
 -1        39-5.68731E-12 1.33188E-11-3.18527E-12 6.55532E-13-3.48045E-20 1.06717E-13
 -1        40-5.68731E-12 1.22090E-11-2.88037E-12 6.55533E-13-4.38181E-20 1.06717E-13
 -1        41 6.09203E-12-1.76411E-11 5.89776E-12 1.44509E-12 8.85850E-14 1.05656E-12
 -1        42 1.21841E-11-5.73646E-11 1.78621E-11 2.08592E-12 1.77170E-13 2.13349E-12
 -1        43-1.22576E-12-1.22576E-12 1.05066E-12 1.22889E-20-3.13181E-21 1.08917E-22
 -1        44-8.17176E-13-8.17176E-13 7.00437E-13 1.63840E-20-2.08707E-21-2.08759E-21
 -1        45-3.79154E-12 8.87921E-12-2.12351E-12 6.70705E-14 1.10170E-20 7.11445E-14
 -1        46-3.79154E-12 8.13931E-12-1.92024E-12 6.70705E-14 3.20563E-21 7.11444E-14
 -1        47 3.52518E-12-1.17607E-11 4.01621E-12-2.71701E-12 4.09044E-14 7.04375E-13
 -1        48 5.28778E-12-2.86823E-11 9.05761E-12-4.47764E-12 6.13566E-14 1.06675E-12
 -1        49 1.33188E-11-5.68731E-12-3.18527E-12 6.55532E-13 1.06717E-13-3.73749E-20
 -1        50 8.87921E-12-3.79154E-12-2.12351E-12 6.70705E-14 7.11445E-14 1.00776E-20
 -1        51 3.78856E-12 3.78856E-12-3.95425E-12-9.99640E-13-4.41824E-13-4.41824E-13
 -1        52 3.78856E-12 8.38353E-12-5.21661E-12 1.29784E-12-4.41824E-13-4.41824E-13
 -1        53 8.00281E-12-1.66034E-11 3.62791E-12 2.27401E-12-2.24733E-13 1.52150E-13
 -1        54 1.20042E-11-2.72787E-11 6.09394E-12 5.16393E-12-3.37100E-13 2.28224E-13
 -1        55 1.22090E-11-5.68731E-12-2.88037E-12 6.55533E-13 1.06717E-13-4.18021E-20
 -1        56 8.13931E-12-3.79154E-12-1.92024E-12 6.70705E-14 7.11444E-14 4.48611E-21
 -1        57 8.38353E-12 3.78856E-12-5.21661E-12 1.29785E-12-4.41824E-13-4.41824E-13
 -1        58 8.38353E-12 8.38353E-12-6.47896E-12 3.59533E-12-4.41824E-13-4.41824E-13
 -1        59 1.03400E-11-1.66034E-11 2.98582E-12 1.48283E-12-2.24733E-13 1.52150E-13
 -1        60 1.55100E-11-2.72787E-11 5.13080E-12 3.97717E-12-3.37099E-13 2.28225E-13
 -1        61-1.76411E-11 6.09203E-12 5.89776E-12 1.44509E-12 1.05656E-12 8.85850E-14
 -1        62-1.17607E-11 3.52518E-12 4.01621E-12-2.71701E-12 7.04375E-13 4.09044E-14
 -1        63-1.66034E-11 8.00281E-12 3.62791E-12 2.27401E-12 1.52150E-13-2.24733E-13
 -1        64-1.66034E-11 1.03400E-11 2.98582E-12 1.48283E-12 1.52150E-13-2.24733E-13
 -1        65 1.80527E-38-3.37165E-20-6.90688E-20-1.68583E-20 1.26674E-19 1.28123E-19
 -1        66 2.70791E-38 1.88760E-19 4.22542E-20 9.43798E-20-1.01846E-19 1.78208E-20
 -1        67-5.73646E-11 1.21841E-11 1.78621E-11 2.08592E-12 2.13349E-12 1.77170E-13
 -1        68-2.86823E-11 5.28778E-12 9.05761E-12-4.47764E-12 1.06675E-12 6.13566E-14
 -1        69-2.72787E-11 1.20042E-11 6.09394E-12 5.16393E-12 2.28224E-13-3.37099E-13
 -1        70-2.72787E-11 1.55100E-11 5.13080E-12 3.97717E-12 2.28225E-13-3.37100E-13
 -1        71-6.87959E-39 1.71576E-19 3.91493E-20 8.57880E-20-2.19703E-19-3.35023E-19
 -1        72-1.37592E-38-1.28066E-18 3.43197E-20-6.40330E-19 9.14602E-19 9.18949E-19
 -3
    1PSTEP                        46          16           1          
  100CL  116 1.02781E-01          72                     0   16           1
 -4  DISP        4    1
 -5  D1          1    2    1    0
 -5  D2          1    2    2    0
 -5  D3          1    2    3    0
 -5  ALL         1    2    0    0    1ALL
 -1         1 0.00000E+00 0.00000E+00 0.00000E+00
 -1         2-1.32729E-09 0.00000E+00 0.00000E+00
 -1         3-6.96830E-02 0.00000E+00 0.00000E+00
 -1         4-6.96830E-02 0.00000E+00 0.00000E+00
 -1         5-1.66834E-01 0.00000E+00 0.00000E+00
 -1         6-1.66834E-01 0.00000E+00 0.00000E+00
 -1         7 0.00000E+00-1.32729E-09 0.00000E+00
 -1         8-1.32729E-09-1.32729E-09 0.00000E+00
 -1         9-6.96830E-02 1.52723E-08 0.00000E+00
 -1        10-6.96830E-02 1.38462E-08 0.00000E+00
 -1        11-1.66834E-01-1.61564E-08 0.00000E+00
 -1        12-1.66834E-01-2.94605E-08 0.00000E+00
 -1        13 0.00000E+00-6.96830E-02 0.00000E+00
 -1        14 1.52723E-08-6.96830E-02 0.00000E+00
 -1        15 4.95558E-01 4.95558E-01 0.00000E+00
 -1        16 4.95558E-01 4.95558E-01 0.00000E+00
 -1        17 8.56756E-01-7.41818E-01 0.00000E+00
 -1        18 8.56628E-01-1.10012E+00 0.00000E+00
 -1        19 0.00000E+00-6.96830E-02 0.00000E+00
 -1        20 1.38462E-08-6.96830E-02 0.00000E+00
 -1        21 4.95558E-01 4.95558E-01 0.00000E+00
 -1        22 4.95558E-01 4.95558E-01 0.00000E+00
 -1        23 1.21506E+00-7.41946E-01 0.00000E+00
 -1        24 1.21493E+00-1.10025E+00 0.00000E+00
 -1        25 0.00000E+00-1.66834E-01 0.00000E+00
 -1        26-1.61564E-08-1.66834E-01 0.00000E+00
 -1        27-7.41818E-01 8.56756E-01 0.00000E+00
 -1        28-7.41946E-01 1.21506E+00 0.00000E+00
 -1        29-3.08344E+00-3.08344E+00 0.00000E+00
 -1        30-3.08344E+00-3.08344E+00 0.00000E+00
 -1        31 0.00000E+00-1.66834E-01 0.00000E+00
 -1        32-2.94605E-08-1.66834E-01 0.00000E+00
 -1        33-1.10012E+00 8.56628E-01 0.00000E+00
 -1        34-1.10025E+00 1.21493E+00 0.00000E+00
 -1        35-3.08344E+00-3.08344E+00 0.00000E+00
 -1        36-3.08344E+00-3.08344E+00 0.00000E+00
 -1        37 0.00000E+00 0.00000E+00 1.59275E-09
 -1        38-1.32729E-09 0.00000E+00 1.59275E-09
 -1        39-6.96830E-02 0.00000E+00-5.14982E-09
 -1        40-6.96830E-02 0.00000E+00-4.60131E-09
 -1        41-1.66834E-01 0.00000E+00 7.80687E-09
 -1        42-1.66834E-01 0.00000E+00 1.29238E-08
 -1        43 0.00000E+00-1.32729E-09 1.59275E-09
 -1        44-1.32729E-09-1.32729E-09 1.59275E-09
 -1        45-6.96830E-02 1.52723E-08-5.14982E-09
 -1        46-6.96830E-02 1.38462E-08-4.60131E-09
 -1        47-1.66834E-01-1.62594E-08 8.04625E-09
 -1        48-1.66834E-01-2.95635E-08 1.31632E-08
 -1        49 0.00000E+00-6.96830E-02-5.14982E-09
 -1        50 1.52723E-08-6.96830E-02-5.14982E-09
 -1        51 4.95558E-01 4.95558E-01-9.41975E-09
 -1        52 4.95558E-01 4.95558E-01-1.25610E-08
 -1        53 8.56756E-01-7.41818E-01 7.05121E-09
 -1        54 8.56628E-01-1.10012E+00 8.31830E-09
 -1        55 0.00000E+00-6.96830E-02-4.60131E-09
 -1        56 1.38462E-08-6.96830E-02-4.60131E-09
 -1        57 4.95558E-01 4.95558E-01-1.25610E-08
 -1        58 4.95558E-01 4.95558E-01-1.57022E-08
 -1        59 1.21506E+00-7.41946E-01 5.64193E-09
 -1        60 1.21493E+00-1.10025E+00 6.90902E-09
 -1        61 0.00000E+00-1.66834E-01 7.80687E-09
 -1        62-1.62594E-08-1.66834E-01 8.04625E-09
 -1        63-7.41818E-01 8.56756E-01 7.05121E-09
 -1        64-7.41946E-01 1.21506E+00 5.64193E-09
 -1        65-3.08344E+00-3.08344E+00 1.99918E-17
 -1        66-3.08344E+00-3.08344E+00 4.77356E-17
 -1        67 0.00000E+00-1.66834E-01 1.29238E-08
 -1        68-2.95635E-08-1.66834E-01 1.31632E-08
 -1        69-1.10012E+00 8.56628E-01 8.31830E-09
 -1        70-1.10025E+00 1.21493E+00 6.90902E-09
 -1        71-3.08344E+00-3.08344E+00 1.08593E-16
 -1        72-3.08344E+00-3.08344E+00-3.41472E-16
 -3
    1PSTEP                        47          16           1          
  100CL  116 1.02781E-01          72                     0   16           1
 -4  STRESS      6    1
 -5  SXX         1    4    1    1
 -5  SYY         1    4    2    2
 -5  SZZ         1    4    3    3
 -5  SXY         1    4    1    2
 -5  SYZ         1    4    2    3
 -5  SZX         1    4    3    1
 -1         1-7.96345E-07-7.96345E-07-4.17326E-15-1.73103E-19 2.22189E-20 2.21933E-20
 -1         2-3.98172E-07-3.98172E-07 1.78712E-15 2.55893E-15 1.10956E-20-6.70707E-16
 -1         3-4.13992E-07 3.09218E-06 3.10117E-08 1.36069E-07-1.03608E-19-2.21513E-08
 -1         4-5.39305E-07 2.73649E-06-3.10117E-08 1.36069E-07-1.11508E-19-2.21513E-08
 -1         5 3.88609E-07-3.17561E-06 3.34868E-07 3.03601E-07-2.26497E-13-2.07757E-07
 -1         6-1.56083E-06-1.29875E-05-4.87481E-07 4.31665E-07-4.52992E-13-4.11069E-07
 -1         7-3.98172E-07-3.98172E-07 1.78712E-15 2.55893E-15-6.70707E-16 1.11066E-20
 -1         8-2.65448E-07-2.65448E-07 3.77410E-15 3.41196E-15-4.47258E-16-4.47258E-16
 -1         9-2.75995E-07 2.06145E-06 2.06745E-08 1.39219E-08 6.81621E-15-1.47675E-08
 -1        10-3.59537E-07 1.82433E-06-2.06745E-08 1.39219E-08 6.22903E-15-1.47675E-08
 -1        11 6.80908E-08-2.19103E-06 1.67702E-07-5.13972E-07-3.96209E-09-1.38505E-07
 -1        12-1.06689E-06-6.60469E-06-3.27056E-07-8.58726E-07-5.94313E-09-2.05534E-07
 -1        13 3.09218E-06-4.13992E-07 3.10117E-08 1.36069E-07-2.21513E-08-1.02807E-19
 -1        14 2.06145E-06-2.75995E-07 2.06745E-08 1.39219E-08-1.47675E-08 6.77555E-15
 -1        15 1.17521E-06 1.17521E-06-2.36800E-07-1.86049E-07 8.45712E-08 8.45712E-08
 -1        16 1.65364E-06 2.53319E-06-3.16005E-16 2.53722E-07 8.45712E-08 8.45712E-08
 -1        17 8.32034E-07-3.20021E-06-5.35920E-09 4.41844E-07 3.79663E-08-3.40866E-08
 -1        18 9.58996E-07-5.62239E-06-1.51317E-07 9.58331E-07 5.69494E-08-5.11299E-08
 -1        19 2.73649E-06-5.39305E-07-3.10117E-08 1.36069E-07-2.21513E-08-1.11017E-19
 -1        20 1.82433E-06-3.59537E-07-2.06745E-08 1.39219E-08-1.47675E-08 6.27527E-15
 -1        21 2.53319E-06 1.65364E-06 8.14829E-15 2.53722E-07 8.45712E-08 8.45712E-08
 -1        22 3.01162E-06 3.01162E-06 2.36800E-07 6.93492E-07 8.45712E-08 8.45712E-08
 -1        23 1.44102E-06-2.98531E-06 1.00878E-07 2.64170E-07 3.79663E-08-3.40866E-08
 -1        24 1.87247E-06-5.30005E-06 8.03898E-09 6.91819E-07 5.69494E-08-5.11299E-08
 -1        25-3.17561E-06 3.88609E-07 3.34868E-07 3.03601E-07-2.07757E-07-2.26497E-13
 -1        26-2.19103E-06 6.80908E-08 1.67702E-07-5.13972E-07-1.38505E-07-3.96209E-09
 -1        27-3.20021E-06 8.32035E-07-5.35920E-09 4.41844E-07-3.40866E-08 3.79663E-08
 -1        28-2.98531E-06 1.44102E-06 1.00878E-07 2.64170E-07-3.40866E-08 3.79663E-08
 -1        29-1.18820E-14-2.92627E-14-1.03440E-14-8.69035E-15 1.40459E-14 1.40459E-14
 -1        30 1.22608E-13 2.80577E-13 1.28116E-13 7.89846E-14-6.34631E-14-6.34628E-14
 -1        31-1.29875E-05-1.56083E-06-4.87481E-07 4.31665E-07-4.11069E-07-4.52992E-13
 -1        32-6.60469E-06-1.06689E-06-3.27056E-07-8.58726E-07-2.05534E-07-5.94313E-09
 -1        33-5.62239E-06 9.58996E-07-1.51317E-07 9.58331E-07-5.11299E-08 5.69494E-08
 -1        34-5.30005E-06 1.87247E-06 8.03895E-09 6.91819E-07-5.11299E-08 5.69494E-08
 -1        35 1.90991E-14 3.20346E-14 3.16291E-14 6.46776E-15 3.56468E-14 3.56467E-14
 -1        36-4.05112E-14-1.57261E-14-1.19311E-13 1.23926E-14 1.28921E-14 1.28923E-14
 -1        37-7.96345E-07-7.96345E-07-9.80729E-15-1.73128E-19 2.82036E-17 2.82036E-17
 -1        38-3.98172E-07-3.98172E-07-1.03027E-15 2.55868E-15 1.42122E-17-6.56616E-16
 -1        39-4.13992E-07 3.09218E-06 3.10117E-08 1.36069E-07-7.17567E-15 2.21513E-08
 -1        40-5.39305E-07 2.73649E-06-3.10117E-08 1.36069E-07-8.50192E-15 2.21512E-08
 -1        41 3.87021E-07-3.20007E-06 3.27056E-07 3.03601E-07 1.93347E-08 2.05534E-07
 -1        42-1.56401E-06-1.30364E-05-5.03105E-07 4.31665E-07 3.86693E-08 4.15515E-07
 -1        43-3.98172E-07-3.98172E-07-1.03027E-15 2.55868E-15-6.56616E-16 1.42121E-17
 -1        44-2.65448E-07-2.65448E-07 1.89558E-15 3.41163E-15-4.37791E-16-4.37791E-16
 -1        45-2.75995E-07 2.06145E-06 2.06745E-08 1.39219E-08 2.03233E-15 1.47675E-08
 -1        46-3.59537E-07 1.82433E-06-2.06745E-08 1.39219E-08 5.60988E-16 1.47675E-08
 -1        47 6.70323E-08-2.20734E-06 1.62494E-07-5.13972E-07 8.92783E-09 1.37023E-07
 -1        48-1.06848E-06-6.62914E-06-3.34868E-07-8.58726E-07 1.33917E-08 2.07757E-07
 -1        49 3.09218E-06-4.13992E-07 3.10117E-08 1.36069E-07 2.21513E-08-7.09974E-15
 -1        50 2.06145E-06-2.75995E-07 2.06745E-08 1.39219E-08 1.47675E-08 2.04229E-15
 -1        51 1.17521E-06 1.17521E-06-2.36800E-07-1.86049E-07-8.45713E-08-8.45712E-08
 -1        52 1.65364E-06 2.53319E-06-8.77128E-17 2.53722E-07-8.45712E-08-8.45713E-08
 -1        53 8.32034E-07-3.20021E-06-5.35922E-09 4.41844E-07-3.79663E-08 3.40866E-08
 -1        54 9.58996E-07-5.62239E-06-1.51317E-07 9.58331E-07-5.69494E-08 5.11299E-08
 -1        55 2.73649E-06-5.39305E-07-3.10117E-08 1.36069E-07 2.21513E-08-8.66780E-15
 -1        56 1.82433E-06-3.59537E-07-2.06745E-08 1.39219E-08 1.47675E-08 4.96642E-16
 -1        57 2.53319E-06 1.65364E-06 1.74071E-14 2.53722E-07-8.45713E-08-8.45713E-08
 -1        58 3.01162E-06 3.01162E-06 2.36800E-07 6.93492E-07-8.45712E-08-8.45712E-08
 -1        59 1.44102E-06-2.98531E-06 1.00878E-07 2.64170E-07-3.79663E-08 3.40866E-08
 -1        60 1.87247E-06-5.30005E-06 8.03893E-09 6.91819E-07-5.69494E-08 5.11299E-08
 -1        61-3.20007E-06 3.87021E-07 3.27056E-07 3.03601E-07 2.05534E-07 1.93347E-08
 -1        62-2.20734E-06 6.70323E-08 1.62494E-07-5.13972E-07 1.37023E-07 8.92783E-09
 -1        63-3.20021E-06 8.32034E-07-5.35922E-09 4.41844E-07 3.40866E-08-3.79663E-08
 -1        64-2.98531E-06 1.44102E-06 1.00878E-07 2.64170E-07 3.40866E-08-3.79663E-08
 -1        65-1.16106E-14-2.86293E-14-1.00726E-14-8.50937E-15 1.98115E-14 1.65346E-14
 -1        66-9.42344E-14-2.25388E-13-8.87264E-14-6.55769E-14-4.79268E-14-1.42502E-14
 -1        67-1.30364E-05-1.56401E-06-5.03105E-07 4.31665E-07 4.15515E-07 3.86693E-08
 -1        68-6.62914E-06-1.06848E-06-3.34868E-07-8.58726E-07 2.07757E-07 1.33917E-08
 -1        69-5.62239E-06 9.58996E-07-1.51317E-07 9.58331E-07 5.11299E-08-5.69494E-08
 -1        70-5.30005E-06 1.87247E-06 8.03893E-09 6.91819E-07 5.11299E-08-5.69494E-08
 -1        71-5.98220E-14-1.52115E-13-4.72920E-14-4.61463E-14-3.82949E-14-8.18020E-14
 -1        72 1.17927E-13 3.53964E-13 3.91273E-14 1.18018E-13 1.63171E-13 1.53340E-13
 -3
    1PSTEP                        48          16           1          
  100CL  116 1.02781E-01          72                     0   16           1
 -4  TOSTRAIN    6    1
 -5  EXX         1    4    1    1
 -5  EYY         1    4    2    2
 -5  EZZ         1    4    3    3
 -5  EXY         1    4    1    2
 -5  EYZ         1    4    2    3
 -5  EZX         1    4    3    1
 -1         1-2.65448E-12-2.65448E-12 2.27527E-12-1.07159E-24 1.37546E-25 1.37387E-25
 -1         2-1.32724E-12-1.32724E-12 1.13764E-12 1.58410E-20 6.86870E-26-4.15199E-21
 -1         3-6.43309E-12 1.52718E-11-3.67830E-12 8.42334E-13-6.41379E-25-1.37127E-13
 -1         4-6.43309E-12 1.38456E-11-3.28651E-12 8.42334E-13-6.90282E-25-1.37127E-13
 -1         5 5.90873E-12-1.61555E-11 5.57604E-12 1.87943E-12-1.40212E-18-1.28612E-12
 -1         6 1.18175E-11-5.89191E-11 1.84620E-11 2.67221E-12-2.80424E-18-2.54471E-12
 -1         7-1.32724E-12-1.32724E-12 1.13764E-12 1.58410E-20-4.15200E-21 6.87550E-26
 -1         8-8.84828E-13-8.84828E-13 7.58424E-13 2.11217E-20-2.76874E-21-2.76874E-21
 -1         9-4.28872E-12 1.01812E-11-2.45220E-12 8.61830E-14 4.21953E-20-9.14179E-14
 -1        10-4.28872E-12 9.23043E-12-2.19101E-12 8.61831E-14 3.85604E-20-9.14179E-14
 -1        11 3.21472E-12-1.07703E-11 3.83136E-12-3.18173E-12-2.45272E-14-8.57411E-13
 -1        12 4.82207E-12-2.94596E-11 9.40199E-12-5.31592E-12-3.67908E-14-1.27236E-12
 -1        13 1.52718E-11-6.43309E-12-3.67830E-12 8.42334E-13-1.37127E-13-6.36417E-25
 -1        14 1.01812E-11-4.28872E-12-2.45220E-12 8.61830E-14-9.14179E-14 4.19436E-20
 -1        15 4.25566E-12 4.25566E-12-4.48537E-12-1.15173E-12 5.23536E-13 5.23536E-13
 -1        16 4.25566E-12 9.70044E-12-5.98119E-12 1.57066E-12 5.23536E-13 5.23536E-13
 -1        17 8.53752E-12-1.64161E-11 3.35759E-12 2.75311E-12 2.34878E-13-2.11181E-13
 -1        18 1.28063E-11-2.79186E-11 5.94144E-12 5.96171E-12 3.52317E-13-3.16771E-13
 -1        19 1.38456E-11-6.43309E-12-3.28651E-12 8.42334E-13-1.37127E-13-6.87244E-25
 -1        20 9.23043E-12-4.28872E-12-2.19101E-12 8.61831E-14-9.14179E-14 3.88467E-20
 -1        21 9.70044E-12 4.25566E-12-5.98119E-12 1.57066E-12 5.23536E-13 5.23536E-13
 -1        22 9.70044E-12 9.70044E-12-7.47700E-12 4.29305E-12 5.23536E-13 5.23536E-13
 -1        23 1.09802E-11-1.64161E-11 2.68651E-12 1.65497E-12 2.34878E-13-2.11180E-13
 -1        24 1.64704E-11-2.79186E-11 4.93482E-12 4.31451E-12 3.52317E-13-3.16771E-13
 -1        25-1.61555E-11 5.90873E-12 5.57604E-12 1.87943E-12-1.28612E-12-1.40212E-18
 -1        26-1.07703E-11 3.21472E-12 3.83136E-12-3.18173E-12-8.57411E-13-2.45272E-14
 -1        27-1.64161E-11 8.53752E-12 3.35759E-12 2.75311E-12-2.11181E-13 2.34878E-13
 -1        28-1.64161E-11 1.09802E-11 2.68651E-12 1.65497E-12-2.11180E-13 2.34878E-13
 -1        29 4.14153E-39-1.07595E-19 9.52093E-21-5.37974E-20 8.69507E-20 8.69511E-20
 -1        30 6.21230E-39 9.77905E-19 3.40970E-20 4.88952E-19-3.92867E-19-3.92865E-19
 -1        31-5.89191E-11 1.18175E-11 1.84620E-11 2.67221E-12-2.54471E-12-2.80424E-18
 -1        32-2.94596E-11 4.82207E-12 9.40199E-12-5.31592E-12-1.27236E-12-3.67908E-14
 -1        33-2.79186E-11 1.28063E-11 5.94144E-12 5.96171E-12-3.16771E-13 3.52317E-13
 -1        34-2.79186E-11 1.64704E-11 4.93482E-12 4.31451E-12-3.16771E-13 3.52317E-13
 -1        35-2.74182E-38 8.00770E-20 7.75665E-20 4.00385E-20 2.20670E-19 2.20670E-19
 -1        36-5.48364E-38 1.53432E-19-4.87810E-19 7.67160E-20 7.98082E-20 7.98092E-20
 -1        37-2.65448E-12-2.65448E-12 2.27527E-12-1.07174E-24 1.74594E-22 1.74594E-22
 -1        38-1.32724E-12-1.32724E-12 1.13764E-12 1.58394E-20 8.79802E-23-4.06477E-21
 -1        39-6.43309E-12 1.52718E-11-3.67830E-12 8.42334E-13-4.44217E-20 1.37127E-13
 -1        40-6.43309E-12 1.38456E-11-3.28651E-12 8.42334E-13-5.26319E-20 1.37127E-13
 -1        41 5.94726E-12-1.62585E-11 5.57604E-12 1.87943E-12 1.19691E-13 1.27236E-12
 -1        42 1.18945E-11-5.91251E-11 1.84620E-11 2.67221E-12 2.39381E-13 2.57223E-12
 -1        43-1.32724E-12-1.32724E-12 1.13764E-12 1.58394E-20-4.06477E-21 8.79799E-23
 -1        44-8.84828E-13-8.84828E-13 7.58424E-13 2.11196E-20-2.71013E-21-2.71013E-21
 -1        45-4.28872E-12 1.01812E-11-2.45220E-12 8.61830E-14 1.25812E-20 9.14179E-14
 -1        46-4.28872E-12 9.23043E-12-2.19101E-12 8.61831E-14 3.47295E-21 9.14179E-14
 -1        47 3.24040E-12-1.08390E-11 3.83136E-12-3.18173E-12 5.52675E-14 8.48237E-13
 -1        48 4.86060E-12-2.95626E-11 9.40199E-12-5.31592E-12 8.29013E-14 1.28612E-12
 -1        49 1.52718E-11-6.43309E-12-3.67830E-12 8.42334E-13 1.37127E-13-4.39517E-20
 -1        50 1.01812E-11-4.28872E-12-2.45220E-12 8.61830E-14 9.14179E-14 1.26429E-20
 -1        51 4.25566E-12 4.25566E-12-4.48537E-12-1.15173E-12-5.23536E-13-5.23536E-13
 -1        52 4.25566E-12 9.70044E-12-5.98119E-12 1.57066E-12-5.23536E-13-5.23536E-13
 -1        53 8.53752E-12-1.64161E-11 3.35759E-12 2.75311E-12-2.34878E-13 2.11181E-13
 -1        54 1.28063E-11-2.79186E-11 5.94144E-12 5.96171E-12-3.52317E-13 3.16771E-13
 -1        55 1.38456E-11-6.43309E-12-3.28651E-12 8.42334E-13 1.37127E-13-5.36587E-20
 -1        56 9.23043E-12-4.28872E-12-2.19101E-12 8.61831E-14 9.14179E-14 3.07462E-21
 -1        57 9.70044E-12 4.25566E-12-5.98119E-12 1.57066E-12-5.23536E-13-5.23536E-13
 -1        58 9.70044E-12 9.70044E-12-7.47700E-12 4.29305E-12-5.23536E-13-5.23536E-13
 -1        59 1.09802E-11-1.64161E-11 2.68651E-12 1.65497E-12-2.34878E-13 2.11181E-13
 -1        60 1.64704E-11-2.79186E-11 4.93482E-12 4.31451E-12-3.52317E-13 3.16771E-13
 -1        61-1.62585E-11 5.94726E-12 5.57604E-12 1.87943E-12 1.27236E-12 1.19691E-13
 -1        62-1.08390E-11 3.24040E-12 3.83136E-12-3.18173E-12 8.48237E-13 5.52675E-14
 -1        63-1.64161E-11 8.53752E-12 3.35759E-12 2.75311E-12 2.11181E-13-2.34878E-13
 -1        64-1.64161E-11 1.09802E-11 2.68651E-12 1.65497E-12 2.11181E-13-2.34878E-13
 -1        65-2.07115E-38-1.05354E-19 9.52093E-21-5.26770E-20 1.22642E-19 1.02357E-19
 -1        66-3.10672E-38-8.11905E-19 3.40970E-20-4.05952E-19-2.96689E-19-8.82156E-20
 -1        67-5.91251E-11 1.18945E-11 1.84620E-11 2.67221E-12 2.57223E-12 2.39381E-13
 -1        68-2.95626E-11 4.86060E-12 9.40199E-12-5.31592E-12 1.28612E-12 8.29013E-14
 -1        69-2.79186E-11 1.28063E-11 5.94144E-12 5.96171E-12 3.16771E-13-3.52317E-13
 -1        70-2.79186E-11 1.64704E-11 4.93482E-12 4.31451E-12 3.16771E-13-3.52317E-13
 -1        71 1.37088E-37-5.71336E-19 7.75665E-20-2.85668E-19-2.37064E-19-5.06394E-19
 -1        72 2.74176E-37 1.46118E-18-4.87810E-19 7.30590E-19 1.01011E-18 9.49250E-19
 -3
    1PSTEP                        49          17           1          
  100CL  117 1.11781E-01          72                     0   17           1
 -4  DISP        4    1
 -5  D1          1    2    1    0
 -5  D2          1    2    2    0
 -5  D3          1    2    3    0
 -5  ALL         1    2    0    0    1ALL
 -1         1 0.00000E+00 0.00000E+00 0.00000E+00
 -1         2-1.35986E-09 0.00000E+00 0.00000E+00
 -1         3-7.13927E-02 0.00000E+00 0.00000E+00
 -1         4-7.13927E-02 0.00000E+00 0.00000E+00
 -1         5-1.76227E-01 0.00000E+00 0.00000E+00
 -1         6-1.76227E-01 0.00000E+00 0.00000E+00
 -1         7 0.00000E+00-1.35986E-09 0.00000E+00
 -1         8-1.35986E-09-1.35986E-09 0.00000E+00
 -1         9-7.13927E-02 1.70313E-08 0.00000E+00
 -1        10-7.13927E-02 1.52950E-08 0.00000E+00
 -1        11-1.76227E-01-1.42830E-08 0.00000E+00
 -1        12-1.76227E-01-3.00968E-08 0.00000E+00
 -1        13 0.00000E+00-7.13927E-02 0.00000E+00
 -1        14 1.70313E-08-7.13927E-02 0.00000E+00
 -1        15 5.50248E-01 5.50248E-01 0.00000E+00
 -1        16 5.50248E-01 5.50248E-01 0.00000E+00
 -1        17 9.53854E-01-7.06208E-01 0.00000E+00
 -1        18 9.53681E-01-1.12253E+00 0.00000E+00
 -1        19 0.00000E+00-7.13927E-02 0.00000E+00
 -1        20 1.52950E-08-7.13927E-02 0.00000E+00
 -1        21 5.50248E-01 5.50248E-01 0.00000E+00
 -1        22 5.50248E-01 5.50248E-01 0.00000E+00
 -1        23 1.37018E+00-7.06381E-01 0.00000E+00
 -1        24 1.37001E+00-1.12271E+00 0.00000E+00
 -1        25 0.00000E+00-1.76227E-01 0.00000E+00
 -1        26-1.42830E-08-1.76227E-01 0.00000E+00
 -1        27-7.06208E-01 9.53854E-01 0.00000E+00
 -1        28-7.06381E-01 1.37018E+00 0.00000E+00
 -1        29-3.35344E+00-3.35344E+00 0.00000E+00
 -1        30-3.35344E+00-3.35344E+00 0.00000E+00
 -1        31 0.00000E+00-1.76227E-01 0.00000E+00
 -1        32-3.00968E-08-1.76227E-01 0.00000E+00
 -1        33-1.12253E+00 9.53681E-01 0.00000E+00
 -1        34-1.12271E+00 1.37001E+00 0.00000E+00
 -1        35-3.35344E+00-3.35344E+00 0.00000E+00
 -1        36-3.35344E+00-3.35344E+00 0.00000E+00
 -1        37 0.00000E+00 0.00000E+00 1.63183E-09
 -1        38-1.35986E-09 0.00000E+00 1.63183E-09
 -1        39-7.13927E-02 0.00000E+00-5.81332E-09
 -1        40-7.13927E-02 0.00000E+00-5.14551E-09
 -1        41-1.76227E-01 0.00000E+00 7.13921E-09
 -1        42-1.76227E-01 0.00000E+00 1.32215E-08
 -1        43 0.00000E+00-1.35986E-09 1.63183E-09
 -1        44-1.35986E-09-1.35986E-09 1.63183E-09
 -1        45-7.13927E-02 1.70313E-08-5.81332E-09
 -1        46-7.13927E-02 1.52950E-08-5.14551E-09
 -1        47-1.76227E-01-1.44144E-08 7.44464E-09
 -1        48-1.76227E-01-3.02283E-08 1.35269E-08
 -1        49 0.00000E+00-7.13927E-02-5.81332E-09
 -1        50 1.70313E-08-7.13927E-02-5.81332E-09
 -1        51 5.50248E-01 5.50248E-01-1.03630E-08
 -1        52 5.50248E-01 5.50248E-01-1.40117E-08
 -1        53 9.53854E-01-7.06208E-01 6.32996E-09
 -1        54 9.53681E-01-1.12253E+00 8.02496E-09
 -1        55 0.00000E+00-7.13927E-02-5.14551E-09
 -1        56 1.52950E-08-7.13927E-02-5.14551E-09
 -1        57 5.50248E-01 5.50248E-01-1.40117E-08
 -1        58 5.50248E-01 5.50248E-01-1.76604E-08
 -1        59 1.37018E+00-7.06381E-01 4.87669E-09
 -1        60 1.37001E+00-1.12271E+00 6.57170E-09
 -1        61 0.00000E+00-1.76227E-01 7.13921E-09
 -1        62-1.44144E-08-1.76227E-01 7.44464E-09
 -1        63-7.06208E-01 9.53854E-01 6.32996E-09
 -1        64-7.06381E-01 1.37018E+00 4.87669E-09
 -1        65-3.35344E+00-3.35344E+00-1.71874E-16
 -1        66-3.35344E+00-3.35344E+00-1.81564E-17
 -1        67 0.00000E+00-1.76227E-01 1.32215E-08
 -1        68-3.02283E-08-1.76227E-01 1.35269E-08
 -1        69-1.12253E+00 9.53681E-01 8.02496E-09
 -1        70-1.12271E+00 1.37001E+00 6.57170E-09
 -1        71-3.35344E+00-3.35344E+00 1.66194E-17
 -1        72-3.35344E+00-3.35344E+00-8.06674E-17
 -3
    1PSTEP                        50          17           1          
  100CL  117 1.11781E-01          72                     0   17           1
 -4  STRESS      6    1
 -5  SXX         1    4    1    1
 -5  SYY         1    4    2    2
 -5  SZZ         1    4    3    3
 -5  SXY         1    4    1    2
 -5  SYZ         1    4    2    3
 -5  SZX         1    4    3    1
 -1         1-8.15884E-07-8.15884E-07-5.12754E-15-2.11935E-19 2.75159E-20 2.75034E-20
 -1         2-4.07942E-07-4.07942E-07 2.13558E-15 3.13276E-15 1.37479E-20-8.12995E-16
 -1         3-4.27202E-07 3.45960E-06 3.77567E-08 1.65664E-07-1.40451E-19-2.69691E-08
 -1         4-5.79770E-07 3.02656E-06-3.77567E-08 1.65664E-07-1.51150E-19-2.69691E-08
 -1         5 4.99448E-07-2.72881E-06 4.02013E-07 3.95108E-07-2.88984E-13-2.47046E-07
 -1         6-1.78021E-06-1.33458E-05-5.71490E-07 5.66252E-07-5.77967E-13-4.88419E-07
 -1         7-4.07942E-07-4.07942E-07 2.13558E-15 3.13276E-15-8.12995E-16 1.37577E-20
 -1         8-2.71961E-07-2.71961E-07 4.55662E-15 4.17709E-15-5.41996E-16-5.41996E-16
 -1         9-2.84801E-07 2.30640E-06 2.51711E-08 1.69498E-08 7.89052E-15-1.79794E-08
 -1        10-3.86513E-07 2.01771E-06-2.51711E-08 1.69498E-08 7.49718E-15-1.79794E-08
 -1        11 8.92943E-08-1.91357E-06 1.97142E-07-5.88104E-07-5.05518E-09-1.64697E-07
 -1        12-1.25561E-06-6.81444E-06-3.92046E-07-9.94139E-07-7.58276E-09-2.44210E-07
 -1        13 3.45960E-06-4.27202E-07 3.77567E-08 1.65664E-07-2.69691E-08-1.40804E-19
 -1        14 2.30640E-06-2.84801E-07 2.51711E-08 1.69498E-08-1.79794E-08 8.10545E-15
 -1        15 1.26866E-06 1.26866E-06-2.75052E-07-2.08538E-07 9.82327E-08 9.82327E-08
 -1        16 1.82438E-06 2.84600E-06-7.66227E-15 3.02273E-07 9.82327E-08 9.82328E-08
 -1        17 9.66135E-07-3.04566E-06 9.11178E-09 5.23124E-07 3.91641E-08-4.56019E-08
 -1        18 1.06247E-06-5.66814E-06-1.77997E-07 1.08928E-06 5.87461E-08-6.84029E-08
 -1        19 3.02656E-06-5.79770E-07-3.77567E-08 1.65664E-07-2.69691E-08-1.50427E-19
 -1        20 2.01771E-06-3.86513E-07-2.51711E-08 1.69498E-08-1.79794E-08 7.31088E-15
 -1        21 2.84600E-06 1.82438E-06 1.34907E-14 3.02273E-07 9.82327E-08 9.82327E-08
 -1        22 3.40171E-06 3.40171E-06 2.75052E-07 8.13083E-07 9.82327E-08 9.82328E-08
 -1        23 1.59399E-06-2.82392E-06 1.18665E-07 2.85486E-07 3.91641E-08-4.56019E-08
 -1        24 2.00426E-06-5.33553E-06-1.36676E-08 7.32819E-07 5.87461E-08-6.84029E-08
 -1        25-2.72881E-06 4.99448E-07 4.02013E-07 3.95108E-07-2.47046E-07-2.88984E-13
 -1        26-1.91357E-06 8.92943E-08 1.97142E-07-5.88104E-07-1.64697E-07-5.05518E-09
 -1        27-3.04566E-06 9.66135E-07 9.11176E-09 5.23124E-07-4.56019E-08 3.91641E-08
 -1        28-2.82392E-06 1.59399E-06 1.18665E-07 2.85486E-07-4.56019E-08 3.91641E-08
 -1        29 3.31831E-14 9.06480E-14 1.99623E-14 2.87325E-14 5.29278E-14 5.29278E-14
 -1        30 6.34847E-14 1.50226E-13 6.13900E-14 4.33705E-14-7.46811E-14-7.46809E-14
 -1        31-1.33458E-05-1.78021E-06-5.71490E-07 5.66252E-07-4.88419E-07-5.77967E-13
 -1        32-6.81444E-06-1.25561E-06-3.92046E-07-9.94139E-07-2.44210E-07-7.58276E-09
 -1        33-5.66814E-06 1.06247E-06-1.77997E-07 1.08928E-06-6.84029E-08 5.87461E-08
 -1        34-5.33553E-06 2.00426E-06-1.36677E-08 7.32819E-07-6.84029E-08 5.87462E-08
 -1        35 1.22555E-13 2.84044E-13 1.24473E-13 8.07444E-14 1.40691E-14 1.40691E-14
 -1        36 9.90612E-15 4.17291E-14-8.70872E-15 1.59115E-14 6.33162E-14 6.33163E-14
 -1        37-8.15884E-07-8.15884E-07-1.19568E-14-2.11953E-19 6.83293E-20 6.83562E-20
 -1        38-4.07942E-07-4.07942E-07-1.27906E-15 3.13276E-15 3.41544E-20-8.12974E-16
 -1        39-4.27202E-07 3.45960E-06 3.77567E-08 1.65664E-07-8.27917E-15 2.69691E-08
 -1        40-5.79770E-07 3.02656E-06-3.77567E-08 1.65664E-07-1.06387E-14 2.69691E-08
 -1        41 4.97422E-07-2.76001E-06 3.92046E-07 3.95108E-07 2.46688E-08 2.44210E-07
 -1        42-1.78426E-06-1.34082E-05-5.91425E-07 5.66252E-07 4.93376E-08 4.94092E-07
 -1        43-4.07942E-07-4.07942E-07-1.27906E-15 3.13276E-15-8.12974E-16 3.41571E-20
 -1        44-2.71961E-07-2.71961E-07 2.28020E-15 4.17709E-15-5.41983E-16-5.41983E-16
 -1        45-2.84801E-07 2.30640E-06 2.51711E-08 1.69498E-08 2.37092E-15 1.79794E-08
 -1        46-3.86513E-07 2.01771E-06-2.51711E-08 1.69498E-08 4.04545E-16 1.79794E-08
 -1        47 8.79437E-08-1.93437E-06 1.90497E-07-5.88104E-07 1.13909E-08 1.62806E-07
 -1        48-1.25764E-06-6.84564E-06-4.02013E-07-9.94139E-07 1.70863E-08 2.47046E-07
 -1        49 3.45960E-06-4.27202E-07 3.77567E-08 1.65664E-07 2.69691E-08-8.72431E-15
 -1        50 2.30640E-06-2.84801E-07 2.51711E-08 1.69498E-08 1.79794E-08 2.28909E-15
 -1        51 1.26866E-06 1.26866E-06-2.75052E-07-2.08538E-07-9.82328E-08-9.82328E-08
 -1        52 1.82438E-06 2.84600E-06 1.72177E-14 3.02273E-07-9.82328E-08-9.82328E-08
 -1        53 9.66135E-07-3.04566E-06 9.11177E-09 5.23124E-07-3.91641E-08 4.56019E-08
 -1        54 1.06247E-06-5.66814E-06-1.77998E-07 1.08928E-06-5.87461E-08 6.84029E-08
 -1        55 3.02656E-06-5.79770E-07-3.77567E-08 1.65664E-07 2.69691E-08-1.02641E-14
 -1        56 2.01771E-06-3.86513E-07-2.51711E-08 1.69498E-08 1.79794E-08 4.68021E-16
 -1        57 2.84600E-06 1.82438E-06 1.37419E-14 3.02273E-07-9.82328E-08-9.82328E-08
 -1        58 3.40171E-06 3.40171E-06 2.75052E-07 8.13083E-07-9.82327E-08-9.82328E-08
 -1        59 1.59399E-06-2.82392E-06 1.18665E-07 2.85486E-07-3.91641E-08 4.56019E-08
 -1        60 2.00426E-06-5.33553E-06-1.36677E-08 7.32819E-07-5.87462E-08 6.84029E-08
 -1        61-2.76001E-06 4.97422E-07 3.92046E-07 3.95108E-07 2.44210E-07 2.46688E-08
 -1        62-1.93437E-06 8.79437E-08 1.90497E-07-5.88104E-07 1.62806E-07 1.13909E-08
 -1        63-3.04566E-06 9.66135E-07 9.11177E-09 5.23124E-07 4.56020E-08-3.91641E-08
 -1        64-2.82392E-06 1.59399E-06 1.18665E-07 2.85486E-07 4.56019E-08-3.91641E-08
 -1        65 1.83140E-15 1.74941E-14-1.13894E-14 7.83134E-15-2.37266E-14-2.55991E-14
 -1        66-3.40245E-14-7.72957E-14-3.61193E-14-2.16356E-14 1.75511E-14 3.50156E-14
 -1        67-1.34082E-05-1.78426E-06-5.91425E-07 5.66252E-07 4.94092E-07 4.93376E-08
 -1        68-6.84564E-06-1.25764E-06-4.02013E-07-9.94139E-07 2.47046E-07 1.70863E-08
 -1        69-5.66814E-06 1.06247E-06-1.77997E-07 1.08928E-06 6.84029E-08-5.87462E-08
 -1        70-5.33553E-06 2.00426E-06-1.36677E-08 7.32819E-07 6.84029E-08-5.87462E-08
 -1        71-1.32578E-13-3.11267E-13-1.30661E-13-8.93445E-14 1.16402E-14-1.14418E-14
 -1        72-1.23555E-13-2.69680E-13-1.42170E-13-7.30626E-14 2.92430E-14 2.36255E-14
 -3
    1PSTEP                        51          17           1          
  100CL  117 1.11781E-01          72                     0   17           1
 -4  TOSTRAIN    6    1
 -5  EXX         1    4    1    1
 -5  EYY         1    4    2    2
 -5  EZZ         1    4    3    3
 -5  EXY         1    4    1    2
 -5  EYZ         1    4    2    3
 -5  EZX         1    4    3    1
 -1         1-2.71961E-12-2.71961E-12 2.33110E-12-1.31198E-24 1.70336E-25 1.70259E-25
 -1         2-1.35981E-12-1.35981E-12 1.16555E-12 1.93933E-20 8.51063E-26-5.03282E-21
 -1         3-7.03053E-12 1.70307E-11-4.15221E-12 1.02554E-12-8.69452E-25-1.66951E-13
 -1         4-7.03053E-12 1.52944E-11-3.67521E-12 1.02554E-12-9.35682E-25-1.66951E-13
 -1         5 5.70233E-12-1.42822E-11 5.09916E-12 2.44591E-12-1.78895E-18-1.52933E-12
 -1         6 1.14047E-11-6.01918E-11 1.88872E-11 3.50537E-12-3.57789E-18-3.02355E-12
 -1         7-1.35981E-12-1.35981E-12 1.16555E-12 1.93933E-20-5.03282E-21 8.51668E-26
 -1         8-9.06537E-13-9.06537E-13 7.77032E-13 2.58581E-20-3.35522E-21-3.35522E-21
 -1         9-4.68702E-12 1.13538E-11-2.76814E-12 1.04927E-13 4.88457E-20-1.11301E-13
 -1        10-4.68702E-12 1.01962E-11-2.45014E-12 1.04928E-13 4.64107E-20-1.11301E-13
 -1        11 2.87725E-12-9.52144E-12 3.54488E-12-3.64065E-12-3.12939E-14-1.01955E-12
 -1        12 4.31588E-12-3.00959E-11 9.66175E-12-6.15419E-12-4.69409E-14-1.51177E-12
 -1        13 1.70307E-11-7.03053E-12-4.15221E-12 1.02554E-12-1.66951E-13-8.71635E-25
 -1        14 1.13538E-11-4.68702E-12-2.76814E-12 1.04927E-13-1.11301E-13 5.01762E-20
 -1        15 4.62180E-12 4.62180E-12-4.93451E-12-1.29095E-12 6.08107E-13 6.08107E-13
 -1        16 4.62180E-12 1.09461E-11-6.67196E-12 1.87121E-12 6.08107E-13 6.08108E-13
 -1        17 8.93316E-12-1.58909E-11 3.01414E-12 3.25906E-12 2.42209E-13-2.82499E-13
 -1        18 1.33997E-11-2.82434E-11 5.73192E-12 6.77782E-12 3.63314E-13-4.23749E-13
 -1        19 1.52944E-11-7.03053E-12-3.67521E-12 1.02554E-12-1.66951E-13-9.31203E-25
 -1        20 1.01962E-11-4.68702E-12-2.45014E-12 1.04928E-13-1.11301E-13 4.52575E-20
 -1        21 1.09461E-11 4.62180E-12-6.67196E-12 1.87121E-12 6.08107E-13 6.08107E-13
 -1        22 1.09461E-11 1.09461E-11-8.40941E-12 5.03337E-12 6.08107E-13 6.08108E-13
 -1        23 1.14521E-11-1.58909E-11 2.32212E-12 1.79006E-12 2.42209E-13-2.82499E-13
 -1        24 1.71782E-11-2.82434E-11 4.69389E-12 4.57433E-12 3.63314E-13-4.23749E-13
 -1        25-1.42822E-11 5.70233E-12 5.09916E-12 2.44591E-12-1.52933E-12-1.78895E-18
 -1        26-9.52144E-12 2.87725E-12 3.54488E-12-3.64065E-12-1.01955E-12-3.12939E-14
 -1        27-1.58909E-11 8.93316E-12 3.01414E-12 3.25906E-12-2.82499E-13 2.42209E-13
 -1        28-1.58909E-11 1.14521E-11 2.32212E-12 1.79006E-12-2.82499E-13 2.42209E-13
 -1        29-1.45875E-39 3.55735E-19-8.18431E-20 1.77868E-19 3.27648E-19 3.27648E-19
 -1        30-2.18813E-39 5.36968E-19-1.29676E-20 2.68484E-19-4.62311E-19-4.62311E-19
 -1        31-6.01918E-11 1.14047E-11 1.88872E-11 3.50537E-12-3.02355E-12-3.57789E-18
 -1        32-3.00959E-11 4.31588E-12 9.66175E-12-6.15419E-12-1.51177E-12-4.69409E-14
 -1        33-2.82434E-11 1.33997E-11 5.73192E-12 6.77782E-12-4.23749E-13 3.63314E-13
 -1        34-2.82434E-11 1.71782E-11 4.69389E-12 4.57433E-12-4.23749E-13 3.63314E-13
 -1        35 1.72545E-40 9.99693E-19 1.18721E-20 4.99846E-19 8.70947E-20 8.70946E-20
 -1        36 3.45089E-40 1.97000E-19-1.15235E-19 9.84998E-20 3.91958E-19 3.91958E-19
 -1        37-2.71961E-12-2.71961E-12 2.33110E-12-1.31209E-24 4.22991E-25 4.23157E-25
 -1        38-1.35981E-12-1.35981E-12 1.16555E-12 1.93933E-20 2.11432E-25-5.03270E-21
 -1        39-7.03053E-12 1.70307E-11-4.15221E-12 1.02554E-12-5.12534E-20 1.66951E-13
 -1        40-7.03053E-12 1.52944E-11-3.67521E-12 1.02554E-12-6.58602E-20 1.66951E-13
 -1        41 5.75149E-12-1.44136E-11 5.09916E-12 2.44591E-12 1.52712E-13 1.51177E-12
 -1        42 1.15030E-11-6.04547E-11 1.88872E-11 3.50537E-12 3.05423E-13 3.05866E-12
 -1        43-1.35981E-12-1.35981E-12 1.16555E-12 1.93933E-20-5.03270E-21 2.11449E-25
 -1        44-9.06537E-13-9.06537E-13 7.77032E-13 2.58581E-20-3.35513E-21-3.35513E-21
 -1        45-4.68702E-12 1.13538E-11-2.76814E-12 1.04927E-13 1.46774E-20 1.11301E-13
 -1        46-4.68702E-12 1.01962E-11-2.45014E-12 1.04928E-13 2.50457E-21 1.11301E-13
 -1        47 2.91003E-12-9.60906E-12 3.54488E-12-3.64065E-12 7.05151E-14 1.00785E-12
 -1        48 4.36504E-12-3.02273E-11 9.66175E-12-6.15419E-12 1.05773E-13 1.52933E-12
 -1        49 1.70307E-11-7.03053E-12-4.15221E-12 1.02554E-12 1.66951E-13-5.40090E-20
 -1        50 1.13538E-11-4.68702E-12-2.76814E-12 1.04927E-13 1.11301E-13 1.41708E-20
 -1        51 4.62180E-12 4.62180E-12-4.93451E-12-1.29095E-12-6.08108E-13-6.08108E-13
 -1        52 4.62180E-12 1.09461E-11-6.67196E-12 1.87121E-12-6.08108E-13-6.08108E-13
 -1        53 8.93316E-12-1.58909E-11 3.01414E-12 3.25906E-12-2.42209E-13 2.82500E-13
 -1        54 1.33997E-11-2.82434E-11 5.73192E-12 6.77782E-12-3.63314E-13 4.23749E-13
 -1        55 1.52944E-11-7.03053E-12-3.67521E-12 1.02554E-12 1.66951E-13-6.35408E-20
 -1        56 1.01962E-11-4.68702E-12-2.45014E-12 1.04928E-13 1.11301E-13 2.89752E-21
 -1        57 1.09461E-11 4.62180E-12-6.67196E-12 1.87121E-12-6.08108E-13-6.08108E-13
 -1        58 1.09461E-11 1.09461E-11-8.40941E-12 5.03337E-12-6.08107E-13-6.08108E-13
 -1        59 1.14521E-11-1.58909E-11 2.32212E-12 1.79006E-12-2.42209E-13 2.82499E-13
 -1        60 1.71782E-11-2.82434E-11 4.69389E-12 4.57433E-12-3.63314E-13 4.23749E-13
 -1        61-1.44136E-11 5.75149E-12 5.09916E-12 2.44591E-12 1.51177E-12 1.52712E-13
 -1        62-9.60906E-12 2.91003E-12 3.54488E-12-3.64065E-12 1.00785E-12 7.05151E-14
 -1        63-1.58909E-11 8.93316E-12 3.01414E-12 3.25906E-12 2.82500E-13-2.42209E-13
 -1        64-1.58909E-11 1.14521E-11 2.32212E-12 1.79006E-12 2.82499E-13-2.42209E-13
 -1        65 7.29357E-39 9.69595E-20-8.18431E-20 4.84797E-20-1.46879E-19-1.58471E-19
 -1        66 1.09404E-38-2.67869E-19-1.29676E-20-1.33935E-19 1.08650E-19 2.16763E-19
 -1        67-6.04547E-11 1.15030E-11 1.88872E-11 3.50537E-12 3.05866E-12 3.05423E-13
 -1        68-3.02273E-11 4.36504E-12 9.66175E-12-6.15419E-12 1.52933E-12 1.05773E-13
 -1        69-2.82434E-11 1.33997E-11 5.73192E-12 6.77782E-12 4.23749E-13-3.63314E-13
 -1        70-2.82434E-11 1.71782E-11 4.69389E-12 4.57433E-12 4.23749E-13-3.63314E-13
 -1        71-8.63232E-40-1.10617E-18 1.18721E-20-5.53085E-19 7.20581E-20-7.08305E-20
 -1        72-1.72647E-39-9.04585E-19-1.15235E-19-4.52292E-19 1.81028E-19 1.46253E-19
 -3
    1PSTEP                        52          18           1          
  100CL  118 1.20781E-01          72                     0   18           1
 -4  DISP        4    1
 -5  D1          1    2    1    0
 -5  D2          1    2    2    0
 -5  D3          1    2    3    0
 -5  ALL         1    2    0    0    1ALL
 -1         1 0.00000E+00 0.00000E+00 0.00000E+00
 -1         2-1.32634E-09 0.00000E+00 0.00000E+00
 -1         3-6.96329E-02 0.00000E+00 0.00000E+00
 -1         4-6.96329E-02 0.00000E+00 0.00000E+00
 -1         5-1.78217E-01 0.00000E+00 0.00000E+00
 -1         6-1.78217E-01 0.00000E+00 0.00000E+00
 -1         7 0.00000E+00-1.32634E-09 0.00000E+00
 -1         8-1.32634E-09-1.32634E-09 0.00000E+00
 -1         9-6.96329E-02 1.85569E-08 0.00000E+00
 -1        10-6.96329E-02 1.65346E-08 0.00000E+00
 -1        11-1.78217E-01-1.20521E-08 0.00000E+00
 -1        12-1.78217E-01-3.05595E-08 0.00000E+00
 -1        13 0.00000E+00-6.96329E-02 0.00000E+00
 -1        14 1.85569E-08-6.96329E-02 0.00000E+00
 -1        15 5.98274E-01 5.98274E-01 0.00000E+00
 -1        16 5.98274E-01 5.98274E-01 0.00000E+00
 -1        17 1.03662E+00-6.58265E-01 0.00000E+00
 -1        18 1.03640E+00-1.13231E+00 0.00000E+00
 -1        19 0.00000E+00-6.96329E-02 0.00000E+00
 -1        20 1.65346E-08-6.96329E-02 0.00000E+00
 -1        21 5.98274E-01 5.98274E-01 0.00000E+00
 -1        22 5.98274E-01 5.98274E-01 0.00000E+00
 -1        23 1.51067E+00-6.58489E-01 0.00000E+00
 -1        24 1.51045E+00-1.13254E+00 0.00000E+00
 -1        25 0.00000E+00-1.78217E-01 0.00000E+00
 -1        26-1.20521E-08-1.78217E-01 0.00000E+00
 -1        27-6.58265E-01 1.03662E+00 0.00000E+00
 -1        28-6.58489E-01 1.51067E+00 0.00000E+00
 -1        29-3.62344E+00-3.62344E+00 0.00000E+00
 -1        30-3.62344E+00-3.62344E+00 0.00000E+00
 -1        31 0.00000E+00-1.78217E-01 0.00000E+00
 -1        32-3.05595E-08-1.78217E-01 0.00000E+00
 -1        33-1.13231E+00 1.03640E+00 0.00000E+00
 -1        34-1.13254E+00 1.51045E+00 0.00000E+00
 -1        35-3.62344E+00-3.62344E+00 0.00000E+00
 -1        36-3.62344E+00-3.62344E+00 0.00000E+00
 -1        37 0.00000E+00 0.00000E+00 1.59161E-09
 -1        38-1.32634E-09 0.00000E+00 1.59161E-09
 -1        39-6.96329E-02 0.00000E+00-6.43422E-09
 -1        40-6.96329E-02 0.00000E+00-5.65640E-09
 -1        41-1.78217E-01 0.00000E+00 6.29533E-09
 -1        42-1.78217E-01 0.00000E+00 1.34136E-08
 -1        43 0.00000E+00-1.32634E-09 1.59161E-09
 -1        44-1.32634E-09-1.32634E-09 1.59161E-09
 -1        45-6.96329E-02 1.85569E-08-6.43422E-09
 -1        46-6.96329E-02 1.65346E-08-5.65640E-09
 -1        47-1.78217E-01-1.22118E-08 6.66639E-09
 -1        48-1.78217E-01-3.07192E-08 1.37846E-08
 -1        49 0.00000E+00-6.96329E-02-6.43422E-09
 -1        50 1.85569E-08-6.96329E-02-6.43422E-09
 -1        51 5.98274E-01 5.98274E-01-1.11127E-08
 -1        52 5.98274E-01 5.98274E-01-1.52742E-08
 -1        53 1.03662E+00-6.58265E-01 5.50019E-09
 -1        54 1.03640E+00-1.13231E+00 7.69184E-09
 -1        55 0.00000E+00-6.96329E-02-5.65640E-09
 -1        56 1.65346E-08-6.96329E-02-5.65640E-09
 -1        57 5.98274E-01 5.98274E-01-1.52742E-08
 -1        58 5.98274E-01 5.98274E-01-1.94357E-08
 -1        59 1.51067E+00-6.58489E-01 4.00560E-09
 -1        60 1.51045E+00-1.13254E+00 6.19724E-09
 -1        61 0.00000E+00-1.78217E-01 6.29533E-09
 -1        62-1.22118E-08-1.78217E-01 6.66639E-09
 -1        63-6.58265E-01 1.03662E+00 5.50019E-09
 -1        64-6.58489E-01 1.51067E+00 4.00560E-09
 -1        65-3.62344E+00-3.62344E+00-1.79957E-17
 -1        66-3.62344E+00-3.62344E+00-1.39644E-16
 -1        67 0.00000E+00-1.78217E-01 1.34136E-08
 -1        68-3.07192E-08-1.78217E-01 1.37846E-08
 -1        69-1.13231E+00 1.03640E+00 7.69184E-09
 -1        70-1.13254E+00 1.51045E+00 6.19724E-09
 -1        71-3.62344E+00-3.62344E+00-2.66228E-17
 -1        72-3.62344E+00-3.62344E+00-1.96164E-16
 -3
    1PSTEP                        53          18           1          
  100CL  118 1.20781E-01          72                     0   18           1
 -4  STRESS      6    1
 -5  SXX         1    4    1    1
 -5  SYY         1    4    2    2
 -5  SZZ         1    4    3    3
 -5  SXY         1    4    1    2
 -5  SYZ         1    4    2    3
 -5  SZX         1    4    3    1
 -1         1-7.95772E-07-7.95772E-07-6.04348E-15-2.48627E-19 3.27235E-20 3.27350E-20
 -1         2-3.97886E-07-3.97886E-07 2.42724E-15 3.67521E-15 1.63527E-20-9.41392E-16
 -1         3-4.20320E-07 3.78390E-06 4.39769E-08 1.92956E-07-1.80103E-19-3.14121E-08
 -1         4-5.98022E-07 3.27951E-06-4.39769E-08 1.92956E-07-1.94046E-19-3.14121E-08
 -1         5 6.29463E-07-2.20002E-06 4.73077E-07 5.05204E-07-3.51085E-13-2.89188E-07
 -1         6-1.99353E-06-1.36318E-05-6.63649E-07 7.38315E-07-7.02168E-13-5.71484E-07
 -1         7-3.97886E-07-3.97886E-07 2.42667E-15 3.67554E-15-9.41134E-16 1.63448E-20
 -1         8-2.65257E-07-2.65257E-07 5.25052E-15 4.90058E-15-6.27589E-16-6.27548E-16
 -1         9-2.80213E-07 2.52260E-06 2.93179E-08 1.97422E-08 9.20484E-15-2.09414E-08
 -1        10-3.98681E-07 2.18634E-06-2.93179E-08 1.97422E-08 8.57772E-15-2.09414E-08
 -1        11 1.23608E-07-1.58132E-06 2.29289E-07-6.59742E-07-6.14149E-09-1.92792E-07
 -1        12-1.44082E-06-6.98784E-06-4.60968E-07-1.12566E-06-9.21223E-09-2.85742E-07
 -1        13 3.78390E-06-4.20320E-07 4.39769E-08 1.92956E-07-3.14121E-08-1.81229E-19
 -1        14 2.52260E-06-2.80213E-07 2.93179E-08 1.97422E-08-2.09414E-08 9.25717E-15
 -1        15 1.32916E-06 1.32916E-06-3.13713E-07-2.28429E-07 1.12040E-07 1.12040E-07
 -1        16 1.96299E-06 3.12821E-06 1.26946E-14 3.54180E-07 1.12040E-07 1.12040E-07
 -1        17 1.08716E-06-2.83290E-06 2.62734E-08 6.05901E-07 4.02947E-08-5.89673E-08
 -1        18 1.13063E-06-5.67114E-06-2.08413E-07 1.22184E-06 6.04420E-08-8.84509E-08
 -1        19 3.27951E-06-5.98022E-07-4.39769E-08 1.92956E-07-3.14121E-08-1.94837E-19
 -1        20 2.18634E-06-3.98681E-07-2.93179E-08 1.97422E-08-2.09414E-08 8.62231E-15
 -1        21 3.12821E-06 1.96299E-06 1.19606E-14 3.54180E-07 1.12040E-07 1.12040E-07
 -1        22 3.76203E-06 3.76203E-06 3.13713E-07 9.36790E-07 1.12040E-07 1.12040E-07
 -1        23 1.73270E-06-2.60468E-06 1.38942E-07 2.98676E-07 4.02947E-08-5.89673E-08
 -1        24 2.09894E-06-5.32881E-06-3.94101E-08 7.61004E-07 6.04420E-08-8.84510E-08
 -1        25-2.20002E-06 6.29463E-07 4.73077E-07 5.05204E-07-2.89188E-07-3.51085E-13
 -1        26-1.58132E-06 1.23608E-07 2.29289E-07-6.59742E-07-1.92792E-07-6.14149E-09
 -1        27-2.83290E-06 1.08716E-06 2.62734E-08 6.05901E-07-5.89673E-08 4.02947E-08
 -1        28-2.60468E-06 1.73270E-06 1.38942E-07 2.98676E-07-5.89673E-08 4.02947E-08
 -1        29-4.59246E-14-1.05773E-13-4.73087E-14-2.99244E-14 5.42705E-14 5.42706E-14
 -1        30 2.39195E-13 5.74234E-13 2.23083E-13 1.67520E-13 9.75067E-15 9.75084E-15
 -1        31-1.36318E-05-1.99353E-06-6.63649E-07 7.38315E-07-5.71484E-07-7.02168E-13
 -1        32-6.98784E-06-1.44082E-06-4.60968E-07-1.12566E-06-2.85742E-07-9.21223E-09
 -1        33-5.67114E-06 1.13063E-06-2.08413E-07 1.22184E-06-8.84510E-08 6.04421E-08
 -1        34-5.32881E-06 2.09894E-06-3.94102E-08 7.61004E-07-8.84510E-08 6.04420E-08
 -1        35 7.55841E-15 2.07078E-14 4.48692E-15 6.57468E-15-2.71649E-14-2.71647E-14
 -1        36-1.07569E-13-2.05726E-13-1.52836E-13-4.90787E-14-1.19127E-13-1.19127E-13
 -1        37-7.95772E-07-7.95772E-07-1.39502E-14-2.48662E-19-5.16414E-17-5.15766E-17
 -1        38-3.97886E-07-3.97886E-07-1.52666E-15 3.67531E-15-2.57656E-17-9.67197E-16
 -1        39-4.20320E-07 3.78390E-06 4.39769E-08 1.92956E-07-9.64338E-15 3.14121E-08
 -1        40-5.98022E-07 3.27951E-06-4.39769E-08 1.92956E-07-1.26539E-14 3.14120E-08
 -1        41 6.27002E-07-2.23792E-06 4.60968E-07 5.05204E-07 2.99699E-08 2.85742E-07
 -1        42-1.99845E-06-1.37076E-05-6.87867E-07 7.38315E-07 5.99398E-08 5.78375E-07
 -1        43-3.97886E-07-3.97886E-07-1.52656E-15 3.67519E-15-9.66971E-16-2.57331E-17
 -1        44-2.65257E-07-2.65257E-07 2.61469E-15 4.90041E-15-6.44777E-16-6.44714E-16
 -1        45-2.80213E-07 2.52260E-06 2.93179E-08 1.97422E-08 2.77570E-15 2.09414E-08
 -1        46-3.98681E-07 2.18634E-06-2.93179E-08 1.97422E-08 1.41579E-16 2.09414E-08
 -1        47 1.21968E-07-1.60658E-06 2.21216E-07-6.59742E-07 1.38387E-08 1.90495E-07
 -1        48-1.44328E-06-7.02574E-06-4.73077E-07-1.12566E-06 2.07580E-08 2.89188E-07
 -1        49 3.78390E-06-4.20320E-07 4.39769E-08 1.92956E-07 3.14121E-08-9.73731E-15
 -1        50 2.52260E-06-2.80213E-07 2.93179E-08 1.97422E-08 2.09414E-08 2.76542E-15
 -1        51 1.32916E-06 1.32916E-06-3.13713E-07-2.28429E-07-1.12040E-07-1.12040E-07
 -1        52 1.96299E-06 3.12821E-06 7.30933E-15 3.54180E-07-1.12040E-07-1.12040E-07
 -1        53 1.08716E-06-2.83290E-06 2.62734E-08 6.05901E-07-4.02947E-08 5.89673E-08
 -1        54 1.13063E-06-5.67114E-06-2.08413E-07 1.22184E-06-6.04420E-08 8.84510E-08
 -1        55 3.27951E-06-5.98022E-07-4.39769E-08 1.92956E-07 3.14120E-08-1.25967E-14
 -1        56 2.18634E-06-3.98681E-07-2.93179E-08 1.97422E-08 2.09414E-08 2.24283E-16
 -1        57 3.12821E-06 1.96299E-06-4.91808E-15 3.54180E-07-1.12040E-07-1.12040E-07
 -1        58 3.76203E-06 3.76203E-06 3.13713E-07 9.36790E-07-1.12040E-07-1.12040E-07
 -1        59 1.73270E-06-2.60468E-06 1.38942E-07 2.98676E-07-4.02947E-08 5.89673E-08
 -1        60 2.09894E-06-5.32881E-06-3.94101E-08 7.61004E-07-6.04420E-08 8.84510E-08
 -1        61-2.23792E-06 6.27002E-07 4.60968E-07 5.05204E-07 2.85742E-07 2.99699E-08
 -1        62-1.60658E-06 1.21968E-07 2.21216E-07-6.59742E-07 1.90495E-07 1.38387E-08
 -1        63-2.83290E-06 1.08716E-06 2.62734E-08 6.05901E-07 5.89673E-08-4.02947E-08
 -1        64-2.60468E-06 1.73270E-06 1.38942E-07 2.98676E-07 5.89673E-08-4.02947E-08
 -1        65 1.80278E-14 4.34488E-14 1.66437E-14 1.27105E-14-3.70135E-14-4.30992E-14
 -1        66-1.18820E-13-2.61135E-13-1.34933E-13-7.11573E-14-3.26783E-14-3.79385E-14
 -1        67-1.37076E-05-1.99845E-06-6.87867E-07 7.38315E-07 5.78375E-07 5.99398E-08
 -1        68-7.02574E-06-1.44328E-06-4.73077E-07-1.12566E-06 2.89188E-07 2.07580E-08
 -1        69-5.67114E-06 1.13063E-06-2.08413E-07 1.22184E-06 8.84510E-08-6.04420E-08
 -1        70-5.32881E-06 2.09894E-06-3.94101E-08 7.61004E-07 8.84510E-08-6.04420E-08
 -1        71-1.55055E-14-3.31080E-14-1.85770E-14-8.80124E-15 8.20471E-14 6.90504E-14
 -1        72 6.45854E-14 1.95967E-13 1.93178E-14 6.56908E-14 7.21567E-14 5.38999E-14
 -3
    1PSTEP                        54          18           1          
  100CL  118 1.20781E-01          72                     0   18           1
 -4  TOSTRAIN    6    1
 -5  EXX         1    4    1    1
 -5  EYY         1    4    2    2
 -5  EZZ         1    4    3    3
 -5  EXY         1    4    1    2
 -5  EYZ         1    4    2    3
 -5  EZX         1    4    3    1
 -1         1-2.65257E-12-2.65257E-12 2.27363E-12-1.53912E-24 2.02574E-25 2.02645E-25
 -1         2-1.32629E-12-1.32629E-12 1.13682E-12 2.27513E-20 1.01231E-25-5.82766E-21
 -1         3-7.46991E-12 1.85562E-11-4.59570E-12 1.19449E-12-1.11491E-24-1.94456E-13
 -1         4-7.46991E-12 1.65339E-11-4.04011E-12 1.19449E-12-1.20123E-24-1.94456E-13
 -1         5 5.46450E-12-1.20513E-11 4.49640E-12 3.12745E-12-2.17338E-18-1.79021E-12
 -1         6 1.09290E-11-6.11172E-11 1.91616E-11 4.57052E-12-4.34676E-18-3.53776E-12
 -1         7-1.32629E-12-1.32629E-12 1.13682E-12 2.27533E-20-5.82607E-21 1.01182E-25
 -1         8-8.84191E-13-8.84191E-13 7.57878E-13 3.03369E-20-3.88507E-21-3.88482E-21
 -1         9-4.97994E-12 1.23708E-11-3.06380E-12 1.22214E-13 5.69818E-20-1.29637E-13
 -1        10-4.97994E-12 1.10226E-11-2.69341E-12 1.22214E-13 5.30997E-20-1.29637E-13
 -1        11 2.52008E-12-8.03422E-12 3.17429E-12-4.08412E-12-3.80187E-14-1.19347E-12
 -1        12 3.78012E-12-3.05586E-11 9.84585E-12-6.96837E-12-5.70281E-14-1.76888E-12
 -1        13 1.85562E-11-7.46991E-12-4.59570E-12 1.19449E-12-1.94456E-13-1.12188E-24
 -1        14 1.23708E-11-4.97994E-12-3.06380E-12 1.22214E-13-1.29637E-13 5.73058E-20
 -1        15 4.87870E-12 4.87870E-12-5.29147E-12-1.41408E-12 6.93582E-13 6.93582E-13
 -1        16 4.87870E-12 1.20920E-11-7.27314E-12 2.19255E-12 6.93582E-13 6.93582E-13
 -1        17 9.17928E-12-1.50735E-11 2.61903E-12 3.77382E-12 2.49097E-13-3.65272E-13
 -1        18 1.37689E-11-2.83085E-11 5.49399E-12 7.60368E-12 3.73646E-13-5.47908E-13
 -1        19 1.65339E-11-7.46991E-12-4.04011E-12 1.19449E-12-1.94456E-13-1.20612E-24
 -1        20 1.10226E-11-4.97994E-12-2.69341E-12 1.22214E-13-1.29637E-13 5.33757E-20
 -1        21 1.20920E-11 4.87870E-12-7.27314E-12 2.19255E-12 6.93582E-13 6.93582E-13
 -1        22 1.20920E-11 1.20920E-11-9.25480E-12 5.79917E-12 6.93582E-13 6.93582E-13
 -1        23 1.17699E-11-1.50735E-11 1.90732E-12 1.87440E-12 2.49097E-13-3.65272E-13
 -1        24 1.76548E-11-2.83085E-11 4.42643E-12 4.75456E-12 3.73646E-13-5.47908E-13
 -1        25-1.20513E-11 5.46450E-12 4.49640E-12 3.12745E-12-1.79021E-12-2.17338E-18
 -1        26-8.03422E-12 2.52008E-12 3.17429E-12-4.08412E-12-1.19347E-12-3.80187E-14
 -1        27-1.50735E-11 9.17928E-12 2.61903E-12 3.77382E-12-3.65272E-13 2.49097E-13
 -1        28-1.50735E-11 1.17699E-11 1.90732E-12 1.87440E-12-3.65272E-13 2.49097E-13
 -1        29-1.60195E-39-3.70493E-19-8.56774E-21-1.85246E-19 3.35960E-19 3.35961E-19
 -1        30-2.40293E-39 2.07405E-18-9.97430E-20 1.03703E-18 6.03613E-20 6.03623E-20
 -1        31-6.11172E-11 1.09290E-11 1.91616E-11 4.57052E-12-3.53776E-12-4.34676E-18
 -1        32-3.05586E-11 3.78012E-12 9.84585E-12-6.96837E-12-1.76888E-12-5.70281E-14
 -1        33-2.83085E-11 1.37689E-11 5.49399E-12 7.60368E-12-5.47908E-13 3.73646E-13
 -1        34-2.83085E-11 1.76548E-11 4.42643E-12 4.75456E-12-5.47908E-13 3.73646E-13
 -1        35-4.72719E-39 8.14008E-20-1.90140E-20 4.07004E-20-1.68164E-19-1.68163E-19
 -1        36-9.45439E-39-6.07641E-19-2.80228E-19-3.03821E-19-7.37456E-19-7.37454E-19
 -1        37-2.65257E-12-2.65257E-12 2.27363E-12-1.53934E-24-3.19685E-22-3.19284E-22
 -1        38-1.32629E-12-1.32629E-12 1.13682E-12 2.27519E-20-1.59501E-22-5.98741E-21
 -1        39-7.46992E-12 1.85562E-11-4.59570E-12 1.19449E-12-5.96989E-20 1.94456E-13
 -1        40-7.46992E-12 1.65339E-11-4.04011E-12 1.19449E-12-7.83355E-20 1.94456E-13
 -1        41 5.52423E-12-1.22110E-11 4.49640E-12 3.12745E-12 1.85528E-13 1.76888E-12
 -1        42 1.10485E-11-6.14365E-11 1.91616E-11 4.57052E-12 3.71056E-13 3.58042E-12
 -1        43-1.32629E-12-1.32629E-12 1.13682E-12 2.27512E-20-5.98601E-21-1.59300E-22
 -1        44-8.84191E-13-8.84191E-13 7.57878E-13 3.03359E-20-3.99148E-21-3.99109E-21
 -1        45-4.97994E-12 1.23708E-11-3.06380E-12 1.22214E-13 1.71832E-20 1.29637E-13
 -1        46-4.97994E-12 1.10226E-11-2.69341E-12 1.22214E-13 8.76773E-22 1.29637E-13
 -1        47 2.55990E-12-8.14067E-12 3.17429E-12-4.08412E-12 8.56681E-14 1.17925E-12
 -1        48 3.83984E-12-3.07183E-11 9.84585E-12-6.96837E-12 1.28502E-13 1.79021E-12
 -1        49 1.85562E-11-7.46992E-12-4.59570E-12 1.19449E-12 1.94456E-13-6.02804E-20
 -1        50 1.23708E-11-4.97994E-12-3.06380E-12 1.22214E-13 1.29637E-13 1.71196E-20
 -1        51 4.87870E-12 4.87870E-12-5.29147E-12-1.41408E-12-6.93582E-13-6.93582E-13
 -1        52 4.87870E-12 1.20920E-11-7.27314E-12 2.19255E-12-6.93582E-13-6.93582E-13
 -1        53 9.17928E-12-1.50735E-11 2.61903E-12 3.77382E-12-2.49097E-13 3.65272E-13
 -1        54 1.37689E-11-2.83085E-11 5.49399E-12 7.60368E-12-3.73646E-13 5.47908E-13
 -1        55 1.65339E-11-7.46992E-12-4.04011E-12 1.19449E-12 1.94456E-13-7.79816E-20
 -1        56 1.10226E-11-4.97994E-12-2.69341E-12 1.22214E-13 1.29637E-13 1.38876E-21
 -1        57 1.20920E-11 4.87870E-12-7.27314E-12 2.19255E-12-6.93583E-13-6.93582E-13
 -1        58 1.20920E-11 1.20920E-11-9.25480E-12 5.79917E-12-6.93582E-13-6.93582E-13
 -1        59 1.17699E-11-1.50735E-11 1.90732E-12 1.87440E-12-2.49097E-13 3.65272E-13
 -1        60 1.76548E-11-2.83085E-11 4.42643E-12 4.75456E-12-3.73646E-13 5.47908E-13
 -1        61-1.22110E-11 5.52422E-12 4.49640E-12 3.12745E-12 1.76888E-12 1.85528E-13
 -1        62-8.14067E-12 2.55990E-12 3.17429E-12-4.08412E-12 1.17925E-12 8.56681E-14
 -1        63-1.50735E-11 9.17929E-12 2.61903E-12 3.77382E-12 3.65272E-13-2.49097E-13
 -1        64-1.50735E-11 1.17699E-11 1.90732E-12 1.87440E-12 3.65272E-13-2.49097E-13
 -1        65 8.00873E-39 1.57368E-19-8.56774E-21 7.86842E-20-2.29131E-19-2.66804E-19
 -1        66 1.20131E-38-8.80996E-19-9.97430E-20-4.40498E-19-2.02294E-19-2.34857E-19
 -1        67-6.14365E-11 1.10484E-11 1.91616E-11 4.57052E-12 3.58042E-12 3.71056E-13
 -1        68-3.07183E-11 3.83984E-12 9.84585E-12-6.96837E-12 1.79021E-12 1.28502E-13
 -1        69-2.83085E-11 1.37689E-11 5.49399E-12 7.60368E-12 5.47908E-13-3.73646E-13
 -1        70-2.83085E-11 1.76548E-11 4.42643E-12 4.75456E-12 5.47908E-13-3.73646E-13
 -1        71 2.36346E-38-1.08968E-19-1.90140E-20-5.44839E-20 5.07910E-19 4.27455E-19
 -1        72 4.72692E-38 8.13314E-19-2.80228E-19 4.06657E-19 4.46685E-19 3.33666E-19
 -3
    1PSTEP                        55          19           1          
  100CL  119 1.29781E-01          72                     0   19           1
 -4  DISP        4    1
 -5  D1          1    2    1    0
 -5  D2          1    2    2    0
 -5  D3          1    2    3    0
 -5  ALL         1    2    0    0    1ALL
 -1         1 0.00000E+00 0.00000E+00 0.00000E+00
 -1         2-1.23649E-09 0.00000E+00 0.00000E+00
 -1         3-6.49155E-02 0.00000E+00 0.00000E+00
 -1         4-6.49155E-02 0.00000E+00 0.00000E+00
 -1         5-1.73571E-01 0.00000E+00 0.00000E+00
 -1         6-1.73571E-01 0.00000E+00 0.00000E+00
 -1         7 0.00000E+00-1.23649E-09 0.00000E+00
 -1         8-1.23649E-09-1.23649E-09 0.00000E+00
 -1         9-6.49155E-02 1.98295E-08 0.00000E+00
 -1        10-6.49155E-02 1.75585E-08 0.00000E+00
 -1        11-1.73571E-01-9.57461E-09 0.00000E+00
 -1        12-1.73571E-01-3.08709E-08 0.00000E+00
 -1        13 0.00000E+00-6.49155E-02 0.00000E+00
 -1        14 1.98295E-08-6.49155E-02 0.00000E+00
 -1        15 6.39143E-01 6.39143E-01 0.00000E+00
 -1        16 6.39143E-01 6.39143E-01 0.00000E+00
 -1        17 1.10401E+00-6.00512E-01 0.00000E+00
 -1        18 1.10373E+00-1.13034E+00 0.00000E+00
 -1        19 0.00000E+00-6.49155E-02 0.00000E+00
 -1        20 1.75585E-08-6.49155E-02 0.00000E+00
 -1        21 6.39143E-01 6.39143E-01 0.00000E+00
 -1        22 6.39143E-01 6.39143E-01 0.00000E+00
 -1        23 1.63384E+00-6.00793E-01 0.00000E+00
 -1        24 1.63356E+00-1.13062E+00 0.00000E+00
 -1        25 0.00000E+00-1.73571E-01 0.00000E+00
 -1        26-9.57461E-09-1.73571E-01 0.00000E+00
 -1        27-6.00512E-01 1.10401E+00 0.00000E+00
 -1        28-6.00793E-01 1.63384E+00 0.00000E+00
 -1        29-3.89344E+00-3.89344E+00 0.00000E+00
 -1        30-3.89344E+00-3.89344E+00 0.00000E+00
 -1        31 0.00000E+00-1.73571E-01 0.00000E+00
 -1        32-3.08709E-08-1.73571E-01 0.00000E+00
 -1        33-1.13034E+00 1.10373E+00 0.00000E+00
 -1        34-1.13062E+00 1.63356E+00 0.00000E+00
 -1        35-3.89344E+00-3.89344E+00 0.00000E+00
 -1        36-3.89344E+00-3.89344E+00 0.00000E+00
 -1        37 0.00000E+00 0.00000E+00 1.48378E-09
 -1        38-1.23649E-09 0.00000E+00 1.48378E-09
 -1        39-6.49155E-02 0.00000E+00-6.99881E-09
 -1        40-6.49155E-02 0.00000E+00-6.12535E-09
 -1        41-1.73571E-01 0.00000E+00 5.32104E-09
 -1        42-1.73571E-01 0.00000E+00 1.35119E-08
 -1        43 0.00000E+00-1.23649E-09 1.48378E-09
 -1        44-1.23649E-09-1.23649E-09 1.48378E-09
 -1        45-6.49155E-02 1.98295E-08-6.99881E-09
 -1        46-6.49155E-02 1.75585E-08-6.12535E-09
 -1        47-1.73571E-01-9.76061E-09 5.75327E-09
 -1        48-1.73571E-01-3.10569E-08 1.39442E-08
 -1        49 0.00000E+00-6.49155E-02-6.99881E-09
 -1        50 1.98295E-08-6.49155E-02-6.99881E-09
 -1        51 6.39143E-01 6.39143E-01-1.16643E-08
 -1        52 6.39143E-01 6.39143E-01-1.63311E-08
 -1        53 1.10401E+00-6.00512E-01 4.60345E-09
 -1        54 1.10373E+00-1.13034E+00 7.34922E-09
 -1        55 0.00000E+00-6.49155E-02-6.12535E-09
 -1        56 1.75585E-08-6.49155E-02-6.12535E-09
 -1        57 6.39143E-01 6.39143E-01-1.63311E-08
 -1        58 6.39143E-01 6.39143E-01-2.09978E-08
 -1        59 1.63384E+00-6.00793E-01 3.05555E-09
 -1        60 1.63356E+00-1.13062E+00 5.80132E-09
 -1        61 0.00000E+00-1.73571E-01 5.32104E-09
 -1        62-9.76061E-09-1.73571E-01 5.75327E-09
 -1        63-6.00512E-01 1.10401E+00 4.60345E-09
 -1        64-6.00793E-01 1.63384E+00 3.05555E-09
 -1        65-3.89344E+00-3.89344E+00 7.74944E-17
 -1        66-3.89344E+00-3.89344E+00-9.76281E-17
 -1        67 0.00000E+00-1.73571E-01 1.35119E-08
 -1        68-3.10569E-08-1.73571E-01 1.39442E-08
 -1        69-1.13034E+00 1.10373E+00 7.34922E-09
 -1        70-1.13062E+00 1.63356E+00 5.80132E-09
 -1        71-3.89344E+00-3.89344E+00-1.06886E-17
 -1        72-3.89344E+00-3.89344E+00 8.74877E-17
 -3
    1PSTEP                        56          19           1          
  100CL  119 1.29781E-01          72                     0   19           1
 -4  STRESS      6    1
 -5  SXX         1    4    1    1
 -5  SYY         1    4    2    2
 -5  SZZ         1    4    3    3
 -5  SXY         1    4    1    2
 -5  SYZ         1    4    2    3
 -5  SZX         1    4    3    1
 -1         1-7.41861E-07-7.41861E-07-6.87820E-15-2.81537E-19 3.76130E-20 3.76053E-20
 -1         2-3.70931E-07-3.70931E-07 2.64836E-15 4.16125E-15 1.87938E-20-1.04999E-15
 -1         3-3.96122E-07 4.06001E-06 4.93839E-08 2.16680E-07-2.19470E-19-3.52742E-08
 -1         4-5.95674E-07 3.49360E-06-4.93839E-08 2.16680E-07-2.36021E-19-3.52743E-08
 -1         5 7.72657E-07-1.61510E-06 5.45367E-07 6.28843E-07-4.08965E-13-3.32791E-07
 -1         6-2.19727E-06-1.38531E-05-7.61656E-07 9.40737E-07-8.17926E-13-6.57554E-07
 -1         7-3.70931E-07-3.70931E-07 2.64779E-15 4.16157E-15-1.04974E-15 1.88019E-20
 -1         8-2.47287E-07-2.47287E-07 5.82340E-15 5.54864E-15-6.99870E-16-6.99829E-16
 -1         9-2.64082E-07 2.70667E-06 3.29226E-08 2.21695E-08 1.05429E-14-2.35162E-08
 -1        10-3.97116E-07 2.32907E-06-3.29226E-08 2.21696E-08 9.71788E-15-2.35162E-08
 -1        11 1.70268E-07-1.21027E-06 2.63289E-07-7.27489E-07-7.15395E-09-2.21861E-07
 -1        12-1.61589E-06-7.12686E-06-5.31262E-07-1.24971E-06-1.07309E-08-3.28777E-07
 -1        13 4.06001E-06-3.96122E-07 4.93839E-08 2.16680E-07-3.52742E-08-2.19741E-19
 -1        14 2.70667E-06-2.64082E-07 3.29226E-08 2.21695E-08-2.35162E-08 1.05848E-14
 -1        15 1.35761E-06 1.35761E-06-3.51801E-07-2.45465E-07 1.25643E-07 1.25643E-07
 -1        16 2.06839E-06 3.37508E-06 1.54749E-14 4.07880E-07 1.25643E-07 1.25643E-07
 -1        17 1.19053E-06-2.57445E-06 4.51502E-08 6.86862E-07 4.17523E-08-7.38799E-08
 -1        18 1.15919E-06-5.64287E-06-2.42756E-07 1.35413E-06 6.26284E-08-1.10820E-07
 -1        19 3.49360E-06-5.95674E-07-4.93839E-08 2.16680E-07-3.52743E-08-2.35041E-19
 -1        20 2.32907E-06-3.97116E-07-3.29226E-08 2.21696E-08-2.35162E-08 9.73044E-15
 -1        21 3.37508E-06 2.06839E-06 1.62452E-14 4.07880E-07 1.25643E-07 1.25643E-07
 -1        22 4.08586E-06 4.08586E-06 3.51801E-07 1.06122E-06 1.25643E-07 1.25643E-07
 -1        23 1.85888E-06-2.33788E-06 1.61837E-07 3.01998E-07 4.17523E-08-7.38800E-08
 -1        24 2.16171E-06-5.28802E-06-6.77253E-08 7.76831E-07 6.26284E-08-1.10820E-07
 -1        25-1.61510E-06 7.72657E-07 5.45367E-07 6.28843E-07-3.32791E-07-4.08965E-13
 -1        26-1.21027E-06 1.70268E-07 2.63289E-07-7.27489E-07-2.21861E-07-7.15395E-09
 -1        27-2.57445E-06 1.19053E-06 4.51502E-08 6.86862E-07-7.38799E-08 4.17523E-08
 -1        28-2.33788E-06 1.85888E-06 1.61837E-07 3.01998E-07-7.38799E-08 4.17523E-08
 -1        29 1.07952E-14 1.92277E-14 1.67561E-14 4.21627E-15 1.21293E-14 1.21294E-14
 -1        30 4.71530E-14 1.21288E-13 3.58883E-14 3.70677E-14-1.81365E-14-1.81365E-14
 -1        31-1.38531E-05-2.19727E-06-7.61656E-07 9.40737E-07-6.57554E-07-8.17926E-13
 -1        32-7.12686E-06-1.61589E-06-5.31262E-07-1.24971E-06-3.28777E-07-1.07309E-08
 -1        33-5.64287E-06 1.15919E-06-2.42756E-07 1.35413E-06-1.10820E-07 6.26285E-08
 -1        34-5.28802E-06 2.16171E-06-6.77253E-08 7.76831E-07-1.10820E-07 6.26284E-08
 -1        35 1.75014E-14 4.20699E-14 1.62681E-14 1.22843E-14-4.13591E-14-4.13589E-14
 -1        36 5.96164E-14 1.18916E-13 7.98055E-14 2.96497E-14 2.05116E-13 2.05116E-13
 -1        37-7.41861E-07-7.41861E-07-1.56972E-14-2.81548E-19-1.24117E-16-1.24053E-16
 -1        38-3.70931E-07-3.70931E-07-1.76130E-15 4.16160E-15-6.21140E-17-1.11204E-15
 -1        39-3.96122E-07 4.06001E-06 4.93839E-08 2.16680E-07-1.12357E-14 3.52742E-08
 -1        40-5.95674E-07 3.49360E-06-4.93839E-08 2.16680E-07-1.46045E-14 3.52742E-08
 -1        41 7.69790E-07-1.65926E-06 5.31262E-07 6.28843E-07 3.49106E-08 3.28777E-07
 -1        42-2.20300E-06-1.39414E-05-7.89867E-07 9.40737E-07 6.98213E-08 6.65582E-07
 -1        43-3.70931E-07-3.70931E-07-1.76120E-15 4.16147E-15-1.11181E-15-6.20816E-17
 -1        44-2.47287E-07-2.47287E-07 2.88398E-15 5.54881E-15-7.41292E-16-7.41230E-16
 -1        45-2.64082E-07 2.70667E-06 3.29226E-08 2.21696E-08 3.05216E-15 2.35162E-08
 -1        46-3.97116E-07 2.32907E-06-3.29226E-08 2.21696E-08-1.86986E-17 2.35162E-08
 -1        47 1.68356E-07-1.23971E-06 2.53885E-07-7.27489E-07 1.61201E-08 2.19185E-07
 -1        48-1.61876E-06-7.17101E-06-5.45367E-07-1.24971E-06 2.41801E-08 3.32791E-07
 -1        49 4.06001E-06-3.96122E-07 4.93839E-08 2.16680E-07 3.52742E-08-1.14818E-14
 -1        50 2.70667E-06-2.64082E-07 3.29226E-08 2.21696E-08 2.35162E-08 2.92997E-15
 -1        51 1.35761E-06 1.35761E-06-3.51801E-07-2.45465E-07-1.25643E-07-1.25643E-07
 -1        52 2.06839E-06 3.37508E-06 2.16044E-15 4.07880E-07-1.25643E-07-1.25643E-07
 -1        53 1.19053E-06-2.57445E-06 4.51502E-08 6.86862E-07-4.17523E-08 7.38799E-08
 -1        54 1.15919E-06-5.64287E-06-2.42756E-07 1.35413E-06-6.26285E-08 1.10820E-07
 -1        55 3.49360E-06-5.95674E-07-4.93839E-08 2.16680E-07 3.52742E-08-1.44881E-14
 -1        56 2.32907E-06-3.97116E-07-3.29226E-08 2.21696E-08 2.35161E-08 7.14220E-17
 -1        57 3.37508E-06 2.06839E-06-6.92076E-15 4.07880E-07-1.25643E-07-1.25643E-07
 -1        58 4.08586E-06 4.08586E-06 3.51801E-07 1.06122E-06-1.25643E-07-1.25643E-07
 -1        59 1.85888E-06-2.33788E-06 1.61837E-07 3.01998E-07-4.17523E-08 7.38799E-08
 -1        60 2.16171E-06-5.28802E-06-6.77253E-08 7.76831E-07-6.26284E-08 1.10820E-07
 -1        61-1.65926E-06 7.69790E-07 5.31262E-07 6.28843E-07 3.28777E-07 3.49106E-08
 -1        62-1.23971E-06 1.68356E-07 2.53885E-07-7.27489E-07 2.19185E-07 1.61201E-08
 -1        63-2.57445E-06 1.19053E-06 4.51502E-08 6.86862E-07 7.38799E-08-4.17523E-08
 -1        64-2.33788E-06 1.85888E-06 1.61837E-07 3.01998E-07 7.38799E-08-4.17523E-08
 -1        65-5.08545E-14-1.24622E-13-4.48935E-14-3.68835E-14-1.47409E-14-1.94221E-14
 -1        66-3.83680E-14-7.82606E-14-4.96327E-14-1.99463E-14 1.90935E-14-1.00023E-14
 -1        67-1.39414E-05-2.20300E-06-7.89867E-07 9.40737E-07 6.65582E-07 6.98213E-08
 -1        68-7.17101E-06-1.61876E-06-5.45367E-07-1.24971E-06 3.32791E-07 2.41801E-08
 -1        69-5.64287E-06 1.15919E-06-2.42756E-07 1.35413E-06 1.10820E-07-6.26285E-08
 -1        70-5.28802E-06 2.16171E-06-6.77253E-08 7.76831E-07 1.10820E-07-6.26285E-08
 -1        71-1.07426E-13-2.49426E-13-1.08659E-13-7.10004E-14 6.57446E-14 8.07966E-14
 -1        72 1.30807E-13 2.85027E-13 1.50996E-13 7.71099E-14-1.99137E-13-2.13181E-13
 -3
    1PSTEP                        57          19           1          
  100CL  119 1.29781E-01          72                     0   19           1
 -4  TOSTRAIN    6    1
 -5  EXX         1    4    1    1
 -5  EYY         1    4    2    2
 -5  EZZ         1    4    3    3
 -5  EXY         1    4    1    2
 -5  EYZ         1    4    2    3
 -5  EZX         1    4    3    1
 -1         1-2.47287E-12-2.47287E-12 2.11960E-12-1.74285E-24 2.32843E-25 2.32795E-25
 -1         2-1.23644E-12-1.23644E-12 1.05980E-12 2.57601E-20 1.16343E-25-6.49996E-21
 -1         3-7.75686E-12 1.98287E-11-4.99896E-12 1.34135E-12-1.35861E-24-2.18364E-13
 -1         4-7.75686E-12 1.75577E-11-4.37506E-12 1.34135E-12-1.46107E-24-2.18364E-13
 -1         5 5.20751E-12-9.57386E-12 3.80048E-12 3.89284E-12-2.53169E-18-2.06013E-12
 -1         6 1.04150E-11-6.17401E-11 1.93022E-11 5.82361E-12-5.06335E-18-4.07057E-12
 -1         7-1.23644E-12-1.23644E-12 1.05980E-12 2.57621E-20-6.49836E-21 1.16393E-25
 -1         8-8.24290E-13-8.24290E-13 7.06535E-13 3.43487E-20-4.33253E-21-4.33228E-21
 -1         9-5.17124E-12 1.32191E-11-3.33264E-12 1.37240E-13 6.52651E-20-1.45576E-13
 -1        10-5.17124E-12 1.17051E-11-2.91671E-12 1.37240E-13 6.01577E-20-1.45576E-13
 -1        11 2.16363E-12-6.38258E-12 2.73948E-12-4.50350E-12-4.42863E-14-1.37342E-12
 -1        12 3.24545E-12-3.08700E-11 9.95982E-12-7.73629E-12-6.64295E-14-2.03529E-12
 -1        13 1.98287E-11-7.75686E-12-4.99896E-12 1.34135E-12-2.18364E-13-1.36029E-24
 -1        14 1.32191E-11-5.17124E-12-3.33264E-12 1.37240E-13-1.45576E-13 6.55243E-20
 -1        15 5.02793E-12 5.02793E-12-5.55412E-12-1.51955E-12 7.77791E-13 7.77791E-13
 -1        16 5.02793E-12 1.31170E-11-7.77638E-12 2.52497E-12 7.77791E-13 7.77791E-13
 -1        17 9.27345E-12-1.40155E-11 2.19202E-12 4.27669E-12 2.57982E-13-4.57625E-13
 -1        18 1.39102E-11-2.81622E-11 5.24929E-12 8.42729E-12 3.86973E-13-6.86438E-13
 -1        19 1.75577E-11-7.75686E-12-4.37506E-12 1.34135E-12-2.18364E-13-1.45500E-24
 -1        20 1.17051E-11-5.17124E-12-2.91671E-12 1.37240E-13-1.45576E-13 6.02354E-20
 -1        21 1.31170E-11 5.02793E-12-7.77638E-12 2.52497E-12 7.77791E-13 7.77791E-13
 -1        22 1.31170E-11 1.31170E-11-9.99865E-12 6.56948E-12 7.77791E-13 7.77791E-13
 -1        23 1.19565E-11-1.40155E-11 1.45493E-12 1.89703E-12 2.57982E-13-4.57626E-13
 -1        24 1.79347E-11-2.81622E-11 4.14365E-12 4.85781E-12 3.86973E-13-6.86438E-13
 -1        25-9.57386E-12 5.20751E-12 3.80048E-12 3.89284E-12-2.06013E-12-2.53169E-18
 -1        26-6.38258E-12 2.16363E-12 2.73948E-12-4.50350E-12-1.37342E-12-4.42863E-14
 -1        27-1.40155E-11 9.27345E-12 2.19202E-12 4.27669E-12-4.57625E-13 2.57982E-13
 -1        28-1.40155E-11 1.19565E-11 1.45493E-12 1.89703E-12-4.57625E-13 2.57982E-13
 -1        29-2.02437E-39 5.22014E-20 3.69014E-20 2.61007E-20 7.50864E-20 7.50868E-20
 -1        30-3.03656E-39 4.58933E-19-6.97339E-20 2.29467E-19-1.12274E-19-1.12273E-19
 -1        31-6.17401E-11 1.04150E-11 1.93022E-11 5.82361E-12-4.07057E-12-5.06335E-18
 -1        32-3.08700E-11 3.24545E-12 9.95982E-12-7.73629E-12-2.03529E-12-6.64295E-14
 -1        33-2.81622E-11 1.39102E-11 5.24929E-12 8.42729E-12-6.86438E-13 3.86973E-13
 -1        34-2.81622E-11 1.79347E-11 4.14365E-12 4.85781E-12-6.86438E-13 3.86973E-13
 -1        35 4.68227E-40 1.52091E-19-7.63467E-21 7.60454E-20-2.56032E-19-2.56031E-19
 -1        36 9.36453E-40 3.67091E-19 1.24980E-19 1.83546E-19 1.26976E-18 1.26976E-18
 -1        37-2.47287E-12-2.47287E-12 2.11960E-12-1.74292E-24-7.68346E-22-7.67945E-22
 -1        38-1.23644E-12-1.23644E-12 1.05980E-12 2.57623E-20-3.84515E-22-6.88405E-21
 -1        39-7.75686E-12 1.98287E-11-4.99896E-12 1.34135E-12-6.95568E-20 2.18364E-13
 -1        40-7.75686E-12 1.75577E-11-4.37506E-12 1.34135E-12-9.04109E-20 2.18364E-13
 -1        41 5.27708E-12-9.75986E-12 3.80048E-12 3.89284E-12 2.16113E-13 2.03529E-12
 -1        42 1.05542E-11-6.21121E-11 1.93022E-11 5.82361E-12 4.32227E-13 4.12027E-12
 -1        43-1.23644E-12-1.23644E-12 1.05980E-12 2.57615E-20-6.88265E-21-3.84315E-22
 -1        44-8.24290E-13-8.24290E-13 7.06535E-13 3.43498E-20-4.58895E-21-4.58856E-21
 -1        45-5.17124E-12 1.32191E-11-3.33264E-12 1.37240E-13 1.88948E-20 1.45576E-13
 -1        46-5.17124E-12 1.17051E-11-2.91671E-12 1.37240E-13-1.15332E-22 1.45576E-13
 -1        47 2.21001E-12-6.50657E-12 2.73948E-12-4.50350E-12 9.97910E-14 1.35686E-12
 -1        48 3.31502E-12-3.10560E-11 9.95982E-12-7.73629E-12 1.49686E-13 2.06013E-12
 -1        49 1.98287E-11-7.75686E-12-4.99896E-12 1.34135E-12 2.18364E-13-7.10803E-20
 -1        50 1.32191E-11-5.17124E-12-3.33264E-12 1.37240E-13 1.45576E-13 1.81383E-20
 -1        51 5.02793E-12 5.02793E-12-5.55412E-12-1.51955E-12-7.77791E-13-7.77791E-13
 -1        52 5.02793E-12 1.31170E-11-7.77638E-12 2.52497E-12-7.77791E-13-7.77791E-13
 -1        53 9.27345E-12-1.40155E-11 2.19202E-12 4.27669E-12-2.57982E-13 4.57625E-13
 -1        54 1.39102E-11-2.81622E-11 5.24929E-12 8.42729E-12-3.86973E-13 6.86438E-13
 -1        55 1.75577E-11-7.75686E-12-4.37506E-12 1.34135E-12 2.18364E-13-8.96907E-20
 -1        56 1.17051E-11-5.17124E-12-2.91671E-12 1.37240E-13 1.45576E-13 4.42558E-22
 -1        57 1.31170E-11 5.02793E-12-7.77638E-12 2.52497E-12-7.77792E-13-7.77791E-13
 -1        58 1.31170E-11 1.31170E-11-9.99865E-12 6.56948E-12-7.77791E-13-7.77791E-13
 -1        59 1.19565E-11-1.40155E-11 1.45493E-12 1.89703E-12-2.57982E-13 4.57626E-13
 -1        60 1.79347E-11-2.81622E-11 4.14365E-12 4.85781E-12-3.86973E-13 6.86439E-13
 -1        61-9.75986E-12 5.27708E-12 3.80048E-12 3.89284E-12 2.03529E-12 2.16113E-13
 -1        62-6.50657E-12 2.21001E-12 2.73948E-12-4.50350E-12 1.35686E-12 9.97910E-14
 -1        63-1.40155E-11 9.27345E-12 2.19202E-12 4.27669E-12 4.57626E-13-2.57982E-13
 -1        64-1.40155E-11 1.19565E-11 1.45493E-12 1.89703E-12 4.57626E-13-2.57982E-13
 -1        65 1.01216E-38-4.56653E-19 3.69014E-20-2.28326E-19-9.12531E-20-1.20232E-19
 -1        66 1.51824E-38-2.46954E-19-6.97339E-20-1.23477E-19 1.18198E-19-6.19188E-20
 -1        67-6.21121E-11 1.05542E-11 1.93022E-11 5.82361E-12 4.12027E-12 4.32227E-13
 -1        68-3.10560E-11 3.31502E-12 9.95982E-12-7.73629E-12 2.06013E-12 1.49686E-13
 -1        69-2.81622E-11 1.39102E-11 5.24929E-12 8.42729E-12 6.86438E-13-3.86973E-13
 -1        70-2.81622E-11 1.79347E-11 4.14365E-12 4.85781E-12 6.86438E-13-3.86973E-13
 -1        71-2.34180E-39-8.79053E-19-7.63467E-21-4.39526E-19 4.06990E-19 5.00170E-19
 -1        72-4.68361E-39 9.54694E-19 1.24980E-19 4.77347E-19-1.23275E-18-1.31969E-18
 -3
    1PSTEP                        58          20           1          
  100CL  120 1.38781E-01          72                     0   20           1
 -4  DISP        4    1
 -5  D1          1    2    1    0
 -5  D2          1    2    2    0
 -5  D3          1    2    3    0
 -5  ALL         1    2    0    0    1ALL
 -1         1 0.00000E+00 0.00000E+00 0.00000E+00
 -1         2-1.10369E-09 0.00000E+00 0.00000E+00
 -1         3-5.79437E-02 0.00000E+00 0.00000E+00
 -1         4-5.79437E-02 0.00000E+00 0.00000E+00
 -1         5-1.63531E-01 0.00000E+00 0.00000E+00
 -1         6-1.63531E-01 0.00000E+00 0.00000E+00
 -1         7 0.00000E+00-1.10369E-09 0.00000E+00
 -1         8-1.10369E-09-1.10369E-09 0.00000E+00
 -1         9-5.79437E-02 2.08429E-08 0.00000E+00
 -1        10-5.79437E-02 1.83692E-08 0.00000E+00
 -1        11-1.63531E-01-6.95837E-09 0.00000E+00
 -1        12-1.63531E-01-3.10374E-08 0.00000E+00
 -1        13 0.00000E+00-5.79437E-02 0.00000E+00
 -1        14 2.08429E-08-5.79437E-02 0.00000E+00
 -1        15 6.72644E-01 6.72644E-01 0.00000E+00
 -1        16 6.72644E-01 6.72644E-01 0.00000E+00
 -1        17 1.15585E+00-5.35586E-01 0.00000E+00
 -1        18 1.15551E+00-1.11764E+00 0.00000E+00
 -1        19 0.00000E+00-5.79437E-02 0.00000E+00
 -1        20 1.83692E-08-5.79437E-02 0.00000E+00
 -1        21 6.72644E-01 6.72644E-01 0.00000E+00
 -1        22 6.72644E-01 6.72644E-01 0.00000E+00
 -1        23 1.73791E+00-5.35925E-01 0.00000E+00
 -1        24 1.73757E+00-1.11798E+00 0.00000E+00
 -1        25 0.00000E+00-1.63531E-01 0.00000E+00
 -1        26-6.95837E-09-1.63531E-01 0.00000E+00
 -1        27-5.35586E-01 1.15585E+00 0.00000E+00
 -1        28-5.35925E-01 1.73791E+00 0.00000E+00
 -1        29-4.16344E+00-4.16344E+00 0.00000E+00
 -1        30-4.16344E+00-4.16344E+00 0.00000E+00
 -1        31 0.00000E+00-1.63531E-01 0.00000E+00
 -1        32-3.10374E-08-1.63531E-01 0.00000E+00
 -1        33-1.11764E+00 1.15551E+00 0.00000E+00
 -1        34-1.11798E+00 1.73757E+00 0.00000E+00
 -1        35-4.16344E+00-4.16344E+00 0.00000E+00
 -1        36-4.16344E+00-4.16344E+00 0.00000E+00
 -1        37 0.00000E+00 0.00000E+00 1.32443E-09
 -1        38-1.10369E-09 0.00000E+00 1.32443E-09
 -1        39-5.79437E-02 0.00000E+00-7.49544E-09
 -1        40-5.79437E-02 0.00000E+00-6.54403E-09
 -1        41-1.63531E-01 0.00000E+00 4.26292E-09
 -1        42-1.63531E-01 0.00000E+00 1.35241E-08
 -1        43 0.00000E+00-1.10369E-09 1.32443E-09
 -1        44-1.10369E-09-1.10369E-09 1.32443E-09
 -1        45-5.79437E-02 2.08429E-08-7.49544E-09
 -1        46-5.79437E-02 1.83692E-08-6.54403E-09
 -1        47-1.63531E-01-7.16729E-09 4.74842E-09
 -1        48-1.63531E-01-3.12463E-08 1.40096E-08
 -1        49 0.00000E+00-5.79437E-02-7.49544E-09
 -1        50 2.08429E-08-5.79437E-02-7.49544E-09
 -1        51 6.72644E-01 6.72644E-01-1.20252E-08
 -1        52 6.72644E-01 6.72644E-01-1.71760E-08
 -1        53 1.15585E+00-5.35586E-01 3.67711E-09
 -1        54 1.15551E+00-1.11764E+00 7.01745E-09
 -1        55 0.00000E+00-5.79437E-02-6.54403E-09
 -1        56 1.83692E-08-5.79437E-02-6.54403E-09
 -1        57 6.72644E-01 6.72644E-01-1.71760E-08
 -1        58 6.72644E-01 6.72644E-01-2.23268E-08
 -1        59 1.73791E+00-5.35925E-01 2.05117E-09
 -1        60 1.73757E+00-1.11798E+00 5.39151E-09
 -1        61 0.00000E+00-1.63531E-01 4.26292E-09
 -1        62-7.16729E-09-1.63531E-01 4.74842E-09
 -1        63-5.35586E-01 1.15585E+00 3.67711E-09
 -1        64-5.35925E-01 1.73791E+00 2.05117E-09
 -1        65-4.16344E+00-4.16344E+00 1.74860E-16
 -1        66-4.16344E+00-4.16344E+00 4.57324E-18
 -1        67 0.00000E+00-1.63531E-01 1.35241E-08
 -1        68-3.12463E-08-1.63531E-01 1.40096E-08
 -1        69-1.11764E+00 1.15551E+00 7.01745E-09
 -1        70-1.11798E+00 1.73757E+00 5.39151E-09
 -1        71-4.16344E+00-4.16344E+00 6.54309E-17
 -1        72-4.16344E+00-4.16344E+00-4.23116E-17
 -3
    1PSTEP                        59          20           1          
  100CL  120 1.38781E-01          72                     0   20           1
 -4  STRESS      6    1
 -5  SXX         1    4    1    1
 -5  SYY         1    4    2    2
 -5  SZZ         1    4    3    3
 -5  SXY         1    4    1    2
 -5  SYZ         1    4    2    3
 -5  SZX         1    4    3    1
 -1         1-6.62187E-07-6.62187E-07-7.59860E-15-3.09350E-19 4.20013E-20 4.19725E-20
 -1         2-3.31094E-07-3.31094E-07 2.79539E-15 4.57256E-15 2.09817E-20-1.13539E-15
 -1         3-3.58533E-07 4.28541E-06 5.37908E-08 2.36017E-07-2.55430E-19-3.84221E-08
 -1         4-5.75892E-07 3.66846E-06-5.37908E-08 2.36017E-07-2.72930E-19-3.84221E-08
 -1         5 9.21850E-07-9.99753E-07 6.16017E-07 7.59751E-07-4.59367E-13-3.76260E-07
 -1         6-2.38791E-06-1.40104E-05-8.62399E-07 1.16349E-06-9.18730E-13-7.43503E-07
 -1         7-3.31094E-07-3.31094E-07 2.79504E-15 4.57266E-15-1.13511E-15 2.09975E-20
 -1         8-2.20729E-07-2.20729E-07 6.25973E-15 6.09692E-15-7.56785E-16-7.56757E-16
 -1         9-2.39022E-07 2.85694E-06 3.58606E-08 2.41479E-08 1.18941E-14-2.56147E-08
 -1        10-3.83928E-07 2.44564E-06-3.58606E-08 2.41479E-08 1.07693E-14-2.56147E-08
 -1        11 2.27232E-07-8.16497E-07 2.98029E-07-7.90053E-07-8.03560E-09-2.50840E-07
 -1        12-1.77496E-06-7.23021E-06-6.00173E-07-1.36308E-06-1.20534E-08-3.71752E-07
 -1        13 4.28541E-06-3.58533E-07 5.37908E-08 2.36017E-07-3.84221E-08-2.55315E-19
 -1        14 2.85694E-06-2.39022E-07 3.58606E-08 2.41479E-08-2.56147E-08 1.18095E-14
 -1        15 1.35693E-06 1.35693E-06-3.88291E-07-2.59586E-07 1.38675E-07 1.38675E-07
 -1        16 2.14144E-06 3.58366E-06 1.28667E-14 4.61525E-07 1.38675E-07 1.38675E-07
 -1        17 1.27294E-06-2.28319E-06 6.46193E-08 7.62614E-07 4.38798E-08-8.98806E-08
 -1        18 1.14707E-06-5.59165E-06-2.80784E-07 1.48373E-06 6.58197E-08-1.34821E-07
 -1        19 3.66846E-06-5.75892E-07-5.37908E-08 2.36017E-07-3.84221E-08-2.73095E-19
 -1        20 2.44564E-06-3.83928E-07-3.58606E-08 2.41479E-08-2.56147E-08 1.08746E-14
 -1        21 3.58366E-06 2.14144E-06 1.05152E-14 4.61525E-07 1.38675E-07 1.38675E-07
 -1        22 4.36817E-06 4.36817E-06 3.88291E-07 1.18264E-06 1.38675E-07 1.38675E-07
 -1        23 1.97476E-06-2.03446E-06 1.87190E-07 2.94440E-07 4.38798E-08-8.98806E-08
 -1        24 2.19980E-06-5.21855E-06-9.69283E-08 7.81473E-07 6.58197E-08-1.34821E-07
 -1        25-9.99753E-07 9.21850E-07 6.16017E-07 7.59751E-07-3.76260E-07-4.59367E-13
 -1        26-8.16497E-07 2.27232E-07 2.98029E-07-7.90053E-07-2.50840E-07-8.03560E-09
 -1        27-2.28319E-06 1.27294E-06 6.46193E-08 7.62614E-07-8.98806E-08 4.38798E-08
 -1        28-2.03446E-06 1.97476E-06 1.87190E-07 2.94440E-07-8.98806E-08 4.38798E-08
 -1        29 1.58260E-14 2.34767E-14 2.92765E-14 3.82536E-15-2.68290E-14-2.68289E-14
 -1        30 5.92810E-14 1.37795E-13 5.98085E-14 3.92569E-14 9.22266E-15 9.22272E-15
 -1        31-1.40104E-05-2.38791E-06-8.62399E-07 1.16349E-06-7.43503E-07-9.18730E-13
 -1        32-7.23021E-06-1.77496E-06-6.00173E-07-1.36308E-06-3.71752E-07-1.20534E-08
 -1        33-5.59165E-06 1.14707E-06-2.80784E-07 1.48373E-06-1.34821E-07 6.58197E-08
 -1        34-5.21855E-06 2.19980E-06-9.69284E-08 7.81473E-07-1.34821E-07 6.58197E-08
 -1        35 3.45843E-14 7.31472E-14 4.21338E-14 1.92815E-14 5.26194E-14 5.26195E-14
 -1        36-4.11892E-14-8.63435E-14-5.09537E-14-2.25772E-14-1.63363E-13-1.63363E-13
 -1        37-6.62187E-07-6.62187E-07-1.71348E-14-3.09351E-19-2.11747E-16-2.11576E-16
 -1        38-3.31094E-07-3.31094E-07-1.97288E-15 4.57291E-15-1.05929E-16-1.24119E-15
 -1        39-3.58533E-07 4.28541E-06 5.37908E-08 2.36017E-07-1.30198E-14 3.84221E-08
 -1        40-5.75892E-07 3.66846E-06-5.37908E-08 2.36017E-07-1.62877E-14 3.84220E-08
 -1        41 9.18630E-07-1.04935E-06 6.00173E-07 7.59751E-07 3.92130E-08 3.71752E-07
 -1        42-2.39435E-06-1.41096E-05-8.94087E-07 1.16349E-06 7.84261E-08 7.52520E-07
 -1        43-3.31094E-07-3.31094E-07-1.97256E-15 4.57256E-15-1.24100E-15-1.05843E-16
 -1        44-2.20729E-07-2.20729E-07 3.08123E-15 6.09708E-15-8.27418E-16-8.27333E-16
 -1        45-2.39022E-07 2.85694E-06 3.58606E-08 2.41479E-08 3.21388E-15 2.56147E-08
 -1        46-3.83928E-07 2.44564E-06-3.58606E-08 2.41479E-08-8.94734E-17 2.56147E-08
 -1        47 2.25085E-07-8.49559E-07 2.87466E-07-7.90053E-07 1.81067E-08 2.47834E-07
 -1        48-1.77818E-06-7.27980E-06-6.16017E-07-1.36308E-06 2.71601E-08 3.76260E-07
 -1        49 4.28541E-06-3.58533E-07 5.37908E-08 2.36017E-07 3.84221E-08-1.28856E-14
 -1        50 2.85694E-06-2.39022E-07 3.58606E-08 2.41479E-08 2.56147E-08 3.21877E-15
 -1        51 1.35693E-06 1.35693E-06-3.88291E-07-2.59586E-07-1.38675E-07-1.38675E-07
 -1        52 2.14144E-06 3.58366E-06 2.18261E-15 4.61525E-07-1.38675E-07-1.38675E-07
 -1        53 1.27294E-06-2.28319E-06 6.46193E-08 7.62614E-07-4.38798E-08 8.98806E-08
 -1        54 1.14707E-06-5.59165E-06-2.80784E-07 1.48373E-06-6.58197E-08 1.34821E-07
 -1        55 3.66846E-06-5.75892E-07-5.37908E-08 2.36017E-07 3.84220E-08-1.64502E-14
 -1        56 2.44564E-06-3.83928E-07-3.58606E-08 2.41479E-08 2.56147E-08-9.25114E-17
 -1        57 3.58366E-06 2.14144E-06 5.57781E-15 4.61525E-07-1.38675E-07-1.38675E-07
 -1        58 4.36817E-06 4.36817E-06 3.88291E-07 1.18264E-06-1.38675E-07-1.38675E-07
 -1        59 1.97476E-06-2.03446E-06 1.87190E-07 2.94441E-07-4.38798E-08 8.98807E-08
 -1        60 2.19980E-06-5.21855E-06-9.69284E-08 7.81473E-07-6.58197E-08 1.34821E-07
 -1        61-1.04935E-06 9.18630E-07 6.00173E-07 7.59751E-07 3.71752E-07 3.92130E-08
 -1        62-8.49559E-07 2.25085E-07 2.87466E-07-7.90053E-07 2.47834E-07 1.81067E-08
 -1        63-2.28319E-06 1.27294E-06 6.46192E-08 7.62614E-07 8.98806E-08-4.38798E-08
 -1        64-2.03446E-06 1.97476E-06 1.87190E-07 2.94440E-07 8.98807E-08-4.38798E-08
 -1        65-4.10159E-14-1.09154E-13-2.75654E-14-3.40692E-14 2.81295E-14 2.48526E-14
 -1        66-5.31546E-14-1.24555E-13-5.26271E-14-3.57002E-14 6.40013E-14 5.40344E-14
 -1        67-1.41096E-05-2.39435E-06-8.94087E-07 1.16349E-06 7.52520E-07 7.84261E-08
 -1        68-7.27980E-06-1.77818E-06-6.16017E-07-1.36308E-06 3.76260E-07 2.71601E-08
 -1        69-5.59165E-06 1.14707E-06-2.80784E-07 1.48373E-06 1.34821E-07-6.58197E-08
 -1        70-5.21855E-06 2.19980E-06-9.69284E-08 7.81473E-07 1.34821E-07-6.58197E-08
 -1        71-9.75544E-14-2.35176E-13-9.00049E-14-6.88110E-14-1.20955E-13-1.20818E-13
 -1        72 8.38306E-14 2.05369E-13 7.40660E-14 6.07693E-14 1.16698E-13 1.06867E-13
 -3
    1PSTEP                        60          20           1          
  100CL  120 1.38781E-01          72                     0   20           1
 -4  TOSTRAIN    6    1
 -5  EXX         1    4    1    1
 -5  EYY         1    4    2    2
 -5  EZZ         1    4    3    3
 -5  EXY         1    4    1    2
 -5  EYZ         1    4    2    3
 -5  EZX         1    4    3    1
 -1         1-2.20729E-12-2.20729E-12 1.89196E-12-1.91502E-24 2.60008E-25 2.59830E-25
 -1         2-1.10365E-12-1.10365E-12 9.45982E-13 2.83063E-20 1.29887E-25-7.02857E-21
 -1         3-7.90616E-12 2.08421E-11-5.35368E-12 1.46105E-12-1.58121E-24-2.37851E-13
 -1         4-7.90616E-12 1.83684E-11-4.67411E-12 1.46105E-12-1.68955E-24-2.37851E-13
 -1         5 4.93796E-12-6.95768E-12 3.04470E-12 4.70322E-12-2.84370E-18-2.32923E-12
 -1         6 9.87592E-12-6.20731E-11 1.93195E-11 7.20258E-12-5.68738E-18-4.60264E-12
 -1         7-1.10365E-12-1.10365E-12 9.45982E-13 2.83069E-20-7.02685E-21 1.29985E-25
 -1         8-7.35764E-13-7.35764E-13 6.30654E-13 3.77428E-20-4.68486E-21-4.68469E-21
 -1         9-5.27078E-12 1.38947E-11-3.56912E-12 1.49487E-13 7.36295E-20-1.58567E-13
 -1        10-5.27078E-12 1.22456E-11-3.11607E-12 1.49487E-13 6.66664E-20-1.58567E-13
 -1        11 1.82273E-12-4.63846E-12 2.26099E-12-4.89080E-12-4.97442E-14-1.55282E-12
 -1        12 2.73409E-12-3.10365E-11 1.00066E-11-8.43814E-12-7.46163E-14-2.30132E-12
 -1        13 2.08421E-11-7.90616E-12-5.35368E-12 1.46105E-12-2.37851E-13-1.58050E-24
 -1        14 1.38947E-11-5.27078E-12-3.56912E-12 1.49487E-13-1.58567E-13 7.31058E-20
 -1        15 5.07781E-12 5.07781E-12-5.72595E-12-1.60696E-12 8.58466E-13 8.58466E-13
 -1        16 5.07781E-12 1.40059E-11-8.17871E-12 2.85706E-12 8.58466E-13 8.58466E-13
 -1        17 9.22000E-12-1.27721E-11 1.75092E-12 4.74656E-12 2.70989E-13-5.56720E-13
 -1        18 1.38300E-11-2.78430E-11 5.01232E-12 9.23355E-12 4.06483E-13-8.35079E-13
 -1        19 1.83684E-11-7.90616E-12-4.67411E-12 1.46105E-12-2.37851E-13-1.69057E-24
 -1        20 1.22456E-11-5.27078E-12-3.11607E-12 1.49487E-13-1.58567E-13 6.73184E-20
 -1        21 1.40059E-11 5.07781E-12-8.17871E-12 2.85706E-12 8.58466E-13 8.58466E-13
 -1        22 1.40059E-11 1.40059E-11-1.06315E-11 7.32109E-12 8.58466E-13 8.58466E-13
 -1        23 1.20383E-11-1.27721E-11 9.76667E-13 1.85161E-12 2.70989E-13-5.56720E-13
 -1        24 1.80574E-11-2.78430E-11 3.85094E-12 4.89114E-12 4.06483E-13-8.35080E-13
 -1        25-6.95768E-12 4.93796E-12 3.04470E-12 4.70322E-12-2.32923E-12-2.84370E-18
 -1        26-4.63846E-12 1.82273E-12 2.26099E-12-4.89080E-12-1.55282E-12-4.97442E-14
 -1        27-1.27721E-11 9.22000E-12 1.75092E-12 4.74656E-12-5.56720E-13 2.70989E-13
 -1        28-1.27721E-11 1.20383E-11 9.76667E-13 1.85161E-12-5.56719E-13 2.70989E-13
 -1        29-3.14963E-39 4.73616E-20 8.32654E-20 2.36808E-20-1.66084E-19-1.66084E-19
 -1        30-4.72445E-39 4.86038E-19 3.26543E-21 2.43019E-19 5.70926E-20 5.70930E-20
 -1        31-6.20731E-11 9.87592E-12 1.93195E-11 7.20258E-12-4.60264E-12-5.68738E-18
 -1        32-3.10365E-11 2.73409E-12 1.00066E-11-8.43814E-12-2.30132E-12-7.46163E-14
 -1        33-2.78430E-11 1.38300E-11 5.01232E-12 9.23355E-12-8.35079E-13 4.06483E-13
 -1        34-2.78430E-11 1.80574E-11 3.85094E-12 4.89114E-12-8.35080E-13 4.06483E-13
 -1        35-1.82632E-39 2.38723E-19 4.67349E-20 1.19361E-19 3.25739E-19 3.25739E-19
 -1        36-3.65264E-39-2.79527E-19-6.04473E-20-1.39763E-19-1.01130E-18-1.01130E-18
 -1        37-2.20729E-12-2.20729E-12 1.89196E-12-1.91503E-24-1.31081E-21-1.30976E-21
 -1        38-1.10365E-12-1.10365E-12 9.45982E-13 2.83085E-20-6.55748E-22-7.68358E-21
 -1        39-7.90616E-12 2.08421E-11-5.35368E-12 1.46105E-12-8.06018E-20 2.37851E-13
 -1        40-7.90616E-12 1.83684E-11-4.67411E-12 1.46105E-12-1.00831E-19 2.37851E-13
 -1        41 5.01610E-12-7.16660E-12 3.04470E-12 4.70322E-12 2.42747E-13 2.30132E-12
 -1        42 1.00322E-11-6.24909E-11 1.93195E-11 7.20258E-12 4.85495E-13 4.65846E-12
 -1        43-1.10365E-12-1.10365E-12 9.45982E-13 2.83063E-20-7.68239E-21-6.55221E-22
 -1        44-7.35764E-13-7.35764E-13 6.30654E-13 3.77439E-20-5.12211E-21-5.12159E-21
 -1        45-5.27078E-12 1.38947E-11-3.56912E-12 1.49487E-13 1.98959E-20 1.58567E-13
 -1        46-5.27078E-12 1.22456E-11-3.11607E-12 1.49487E-13-5.53383E-22 1.58567E-13
 -1        47 1.87482E-12-4.77773E-12 2.26099E-12-4.89080E-12 1.12089E-13 1.53421E-12
 -1        48 2.81224E-12-3.12455E-11 1.00066E-11-8.43814E-12 1.68134E-13 2.32923E-12
 -1        49 2.08421E-11-7.90616E-12-5.35368E-12 1.46105E-12 2.37851E-13-7.97710E-20
 -1        50 1.38947E-11-5.27078E-12-3.56912E-12 1.49487E-13 1.58567E-13 1.99262E-20
 -1        51 5.07781E-12 5.07781E-12-5.72595E-12-1.60696E-12-8.58466E-13-8.58466E-13
 -1        52 5.07781E-12 1.40059E-11-8.17871E-12 2.85706E-12-8.58466E-13-8.58466E-13
 -1        53 9.22000E-12-1.27721E-11 1.75092E-12 4.74656E-12-2.70989E-13 5.56720E-13
 -1        54 1.38300E-11-2.78430E-11 5.01232E-12 9.23355E-12-4.06484E-13 8.35080E-13
 -1        55 1.83684E-11-7.90616E-12-4.67411E-12 1.46105E-12 2.37851E-13-1.01838E-19
 -1        56 1.22456E-11-5.27078E-12-3.11607E-12 1.49487E-13 1.58567E-13-5.72190E-22
 -1        57 1.40059E-11 5.07781E-12-8.17871E-12 2.85706E-12-8.58466E-13-8.58466E-13
 -1        58 1.40059E-11 1.40059E-11-1.06315E-11 7.32109E-12-8.58466E-13-8.58466E-13
 -1        59 1.20383E-11-1.27721E-11 9.76667E-13 1.85161E-12-2.70989E-13 5.56720E-13
 -1        60 1.80574E-11-2.78430E-11 3.85094E-12 4.89114E-12-4.06483E-13 8.35080E-13
 -1        61-7.16660E-12 5.01610E-12 3.04470E-12 4.70322E-12 2.30132E-12 2.42747E-13
 -1        62-4.77773E-12 1.87482E-12 2.26099E-12-4.89080E-12 1.53421E-12 1.12089E-13
 -1        63-1.27721E-11 9.22000E-12 1.75092E-12 4.74656E-12 5.56720E-13-2.70989E-13
 -1        64-1.27721E-11 1.20383E-11 9.76667E-13 1.85161E-12 5.56720E-13-2.70989E-13
 -1        65 1.57474E-38-4.21810E-19 8.32654E-20-2.10905E-19 1.74135E-19 1.53849E-19
 -1        66 2.36210E-38-4.42002E-19 3.26543E-21-2.21001E-19 3.96199E-19 3.34499E-19
 -1        67-6.24909E-11 1.00322E-11 1.93195E-11 7.20258E-12 4.65846E-12 4.85495E-13
 -1        68-3.12455E-11 2.81224E-12 1.00066E-11-8.43814E-12 2.32923E-12 1.68134E-13
 -1        69-2.78430E-11 1.38300E-11 5.01232E-12 9.23355E-12 8.35079E-13-4.06484E-13
 -1        70-2.78430E-11 1.80574E-11 3.85094E-12 4.89114E-12 8.35080E-13-4.06484E-13
 -1        71 9.13014E-39-8.51945E-19 4.67349E-20-4.25973E-19-7.48766E-19-7.47922E-19
 -1        72 1.82603E-38 7.52382E-19-6.04473E-20 3.76191E-19 7.22417E-19 6.61560E-19
 -3
    1PSTEP                        61          21           1          
  100CL  121 1.47781E-01          72                     0   21           1
 -4  DISP        4    1
 -5  D1          1    2    1    0
 -5  D2          1    2    2    0
 -5  D3          1    2    3    0
 -5  ALL         1    2    0    0    1ALL
 -1         1 0.00000E+00 0.00000E+00 0.00000E+00
 -1         2-9.42376E-10 0.00000E+00 0.00000E+00
 -1         3-4.94747E-02 0.00000E+00 0.00000E+00
 -1         4-4.94747E-02 0.00000E+00 0.00000E+00
 -1         5-1.49522E-01 0.00000E+00 0.00000E+00
 -1         6-1.49522E-01 0.00000E+00 0.00000E+00
 -1         7 0.00000E+00-9.42376E-10 0.00000E+00
 -1         8-9.42376E-10-9.42376E-10 0.00000E+00
 -1         9-4.94747E-02 2.15999E-08 0.00000E+00
 -1        10-4.94747E-02 1.89742E-08 0.00000E+00
 -1        11-1.49522E-01-4.30337E-09 0.00000E+00
 -1        12-1.49522E-01-3.10548E-08 0.00000E+00
 -1        13 0.00000E+00-4.94747E-02 0.00000E+00
 -1        14 2.15999E-08-4.94747E-02 0.00000E+00
 -1        15 6.98756E-01 6.98756E-01 0.00000E+00
 -1        16 6.98756E-01 6.98756E-01 0.00000E+00
 -1        17 1.19255E+00-4.66102E-01 0.00000E+00
 -1        18 1.19215E+00-1.09537E+00 0.00000E+00
 -1        19 0.00000E+00-4.94747E-02 0.00000E+00
 -1        20 1.89742E-08-4.94747E-02 0.00000E+00
 -1        21 6.98756E-01 6.98756E-01 0.00000E+00
 -1        22 6.98756E-01 6.98756E-01 0.00000E+00
 -1        23 1.82182E+00-4.66498E-01 0.00000E+00
 -1        24 1.82142E+00-1.09577E+00 0.00000E+00
 -1        25 0.00000E+00-1.49522E-01 0.00000E+00
 -1        26-4.30337E-09-1.49522E-01 0.00000E+00
 -1        27-4.66102E-01 1.19255E+00 0.00000E+00
 -1        28-4.66498E-01 1.82182E+00 0.00000E+00
 -1        29-4.43344E+00-4.43344E+00 0.00000E+00
 -1        30-4.43344E+00-4.43344E+00 0.00000E+00
 -1        31 0.00000E+00-1.49522E-01 0.00000E+00
 -1        32-3.10548E-08-1.49522E-01 0.00000E+00
 -1        33-1.09537E+00 1.19215E+00 0.00000E+00
 -1        34-1.09577E+00 1.82142E+00 0.00000E+00
 -1        35-4.43344E+00-4.43344E+00 0.00000E+00
 -1        36-4.43344E+00-4.43344E+00 0.00000E+00
 -1        37 0.00000E+00 0.00000E+00 1.13085E-09
 -1        38-9.42376E-10 0.00000E+00 1.13085E-09
 -1        39-4.94747E-02 0.00000E+00-7.91478E-09
 -1        40-4.94747E-02 0.00000E+00-6.90489E-09
 -1        41-1.49522E-01 0.00000E+00 3.16540E-09
 -1        42-1.49522E-01 0.00000E+00 1.34544E-08
 -1        43 0.00000E+00-9.42376E-10 1.13085E-09
 -1        44-9.42376E-10-9.42376E-10 1.13085E-09
 -1        45-4.94747E-02 2.15999E-08-7.91478E-09
 -1        46-4.94747E-02 1.89742E-08-6.90489E-09
 -1        47-1.49522E-01-4.53070E-09 3.69369E-09
 -1        48-1.49522E-01-3.12821E-08 1.39827E-08
 -1        49 0.00000E+00-4.94747E-02-7.91478E-09
 -1        50 2.15999E-08-4.94747E-02-7.91478E-09
 -1        51 6.98756E-01 6.98756E-01-1.22101E-08
 -1        52 6.98756E-01 6.98756E-01-1.78103E-08
 -1        53 1.19255E+00-4.66102E-01 2.75403E-09
 -1        54 1.19215E+00-1.09537E+00 6.70780E-09
 -1        55 0.00000E+00-4.94747E-02-6.90489E-09
 -1        56 1.89742E-08-4.94747E-02-6.90489E-09
 -1        57 6.98756E-01 6.98756E-01-1.78103E-08
 -1        58 6.98756E-01 6.98756E-01-2.34106E-08
 -1        59 1.82182E+00-4.66498E-01 1.01623E-09
 -1        60 1.82142E+00-1.09577E+00 4.97000E-09
 -1        61 0.00000E+00-1.49522E-01 3.16540E-09
 -1        62-4.53070E-09-1.49522E-01 3.69369E-09
 -1        63-4.66102E-01 1.19255E+00 2.75403E-09
 -1        64-4.66498E-01 1.82182E+00 1.01623E-09
 -1        65-4.43344E+00-4.43344E+00 8.56956E-17
 -1        66-4.43344E+00-4.43344E+00 1.76566E-16
 -1        67 0.00000E+00-1.49522E-01 1.34544E-08
 -1        68-3.12821E-08-1.49522E-01 1.39827E-08
 -1        69-1.09537E+00 1.19215E+00 6.70780E-09
 -1        70-1.09577E+00 1.82142E+00 4.97000E-09
 -1        71-4.43344E+00-4.43344E+00 2.59158E-16
 -1        72-4.43344E+00-4.43344E+00-2.58725E-17
 -3
    1PSTEP                        62          21           1          
  100CL  121 1.47781E-01          72                     0   21           1
 -4  STRESS      6    1
 -5  SXX         1    4    1    1
 -5  SYY         1    4    2    2
 -5  SZZ         1    4    3    3
 -5  SXY         1    4    1    2
 -5  SYZ         1    4    2    3
 -5  SZX         1    4    3    1
 -1         1-5.65403E-07-5.65403E-07-8.18039E-15-3.31279E-19 4.56383E-20 4.56495E-20
 -1         2-2.82701E-07-2.82701E-07 2.87187E-15 4.89643E-15 2.28259E-20-1.19623E-15
 -1         3-3.11828E-07 4.45939E-06 5.70974E-08 2.50525E-07-2.84317E-19-4.07839E-08
 -1         4-5.42548E-07 3.80452E-06-5.70974E-08 2.50525E-07-3.04502E-19-4.07839E-08
 -1         5 1.06969E-06-3.77987E-07 6.82273E-07 8.91347E-07-4.99854E-13-4.17968E-07
 -1         6-2.56188E-06-1.40999E-05-9.62336E-07 1.39531E-06-9.99704E-13-8.26124E-07
 -1         7-2.82701E-07-2.82701E-07 2.87130E-15 4.89676E-15-1.19597E-15 2.28168E-20
 -1         8-1.88468E-07-1.88468E-07 6.55548E-15 6.52890E-15-7.97359E-16-7.97318E-16
 -1         9-2.07885E-07 2.97293E-06 3.80650E-08 2.56323E-08 1.29690E-14-2.71893E-08
 -1        10-3.61699E-07 2.53635E-06-3.80650E-08 2.56324E-08 1.19145E-14-2.71893E-08
 -1        11 2.91652E-07-4.15206E-07 3.32272E-07-8.46219E-07-8.74381E-09-2.78645E-07
 -1        12-1.91315E-06-7.29479E-06-6.65033E-07-1.46302E-06-1.31157E-08-4.13062E-07
 -1        13 4.45939E-06-3.11828E-07 5.70974E-08 2.50525E-07-4.07839E-08-2.84449E-19
 -1        14 2.97293E-06-2.07885E-07 3.80650E-08 2.56323E-08-2.71893E-08 1.30185E-14
 -1        15 1.33129E-06 1.33129E-06-4.22170E-07-2.70858E-07 1.50775E-07 1.50775E-07
 -1        16 2.18424E-06 3.75230E-06-2.37757E-15 5.13172E-07 1.50775E-07 1.50775E-07
 -1        17 1.33231E-06-1.97185E-06 8.35263E-08 8.30030E-07 4.69206E-08-1.06388E-07
 -1        18 1.09610E-06-5.52254E-06-3.21788E-07 1.60789E-06 7.03809E-08-1.59582E-07
 -1        19 3.80452E-06-5.42548E-07-5.70975E-08 2.50525E-07-4.07839E-08-3.04201E-19
 -1        20 2.53635E-06-3.61699E-07-3.80650E-08 2.56324E-08-2.71893E-08 1.18558E-14
 -1        21 3.75230E-06 2.18424E-06 1.62670E-14 5.13172E-07 1.50775E-07 1.50775E-07
 -1        22 4.60526E-06 4.60526E-06 4.22170E-07 1.29720E-06 1.50775E-07 1.50775E-07
 -1        23 2.08217E-06-1.70578E-06 2.14529E-07 2.75894E-07 4.69206E-08-1.06388E-07
 -1        24 2.22090E-06-5.12343E-06-1.25284E-07 7.76686E-07 7.03808E-08-1.59582E-07
 -1        25-3.77987E-07 1.06969E-06 6.82273E-07 8.91347E-07-4.17968E-07-4.99854E-13
 -1        26-4.15206E-07 2.91652E-07 3.32272E-07-8.46219E-07-2.78645E-07-8.74381E-09
 -1        27-1.97185E-06 1.33231E-06 8.35263E-08 8.30030E-07-1.06388E-07 4.69206E-08
 -1        28-1.70578E-06 2.08217E-06 2.14529E-07 2.75894E-07-1.06388E-07 4.69206E-08
 -1        29-4.01786E-14-1.00342E-13-3.35870E-14-3.00816E-14 5.48022E-14 5.48023E-14
 -1        30 1.92515E-14 2.45480E-14 3.96238E-14 2.64821E-15 6.57570E-15 6.57592E-15
 -1        31-1.40999E-05-2.56188E-06-9.62336E-07 1.39531E-06-8.26124E-07-9.99704E-13
 -1        32-7.29479E-06-1.91315E-06-6.65033E-07-1.46302E-06-4.13062E-07-1.31157E-08
 -1        33-5.52254E-06 1.09610E-06-3.21788E-07 1.60789E-06-1.59582E-07 7.03809E-08
 -1        34-5.12343E-06 2.22090E-06-1.25284E-07 7.76686E-07-1.59582E-07 7.03809E-08
 -1        35-8.18186E-14-2.20812E-13-5.19165E-14-6.94968E-14-8.37850E-14-8.37850E-14
 -1        36 2.76370E-13 6.50834E-13 2.70398E-13 1.87232E-13 3.71173E-14 3.71175E-14
 -1        37-5.65403E-07-5.65403E-07-1.82278E-14-3.31260E-19-3.06676E-16-3.06611E-16
 -1        38-2.82701E-07-2.82701E-07-2.15199E-15 4.89678E-15-1.53393E-16-1.34955E-15
 -1        39-3.11828E-07 4.45939E-06 5.70974E-08 2.50525E-07-1.41731E-14 4.07839E-08
 -1        40-5.42548E-07 3.80452E-06-5.70975E-08 2.50525E-07-1.82683E-14 4.07839E-08
 -1        41 1.06618E-06-4.31950E-07 6.65033E-07 8.91347E-07 4.26690E-08 4.13062E-07
 -1        42-2.56889E-06-1.42079E-05-9.96816E-07 1.39531E-06 8.53381E-08 8.35935E-07
 -1        43-2.82701E-07-2.82701E-07-2.15188E-15 4.89666E-15-1.34933E-15-1.53361E-16
 -1        44-1.88468E-07-1.88468E-07 3.20660E-15 6.52907E-15-8.99636E-16-8.99574E-16
 -1        45-2.07885E-07 2.97293E-06 3.80650E-08 2.56323E-08 3.51984E-15 2.71893E-08
 -1        46-3.61699E-07 2.53635E-06-3.80650E-08 2.56324E-08-2.64725E-16 2.71893E-08
 -1        47 2.89316E-07-4.51181E-07 3.20779E-07-8.46219E-07 1.97025E-08 2.75375E-07
 -1        48-1.91665E-06-7.34875E-06-6.82273E-07-1.46302E-06 2.95538E-08 4.17968E-07
 -1        49 4.45939E-06-3.11828E-07 5.70974E-08 2.50525E-07 4.07839E-08-1.42899E-14
 -1        50 2.97293E-06-2.07885E-07 3.80650E-08 2.56323E-08 2.71893E-08 3.49153E-15
 -1        51 1.33129E-06 1.33129E-06-4.22170E-07-2.70858E-07-1.50775E-07-1.50775E-07
 -1        52 2.18424E-06 3.75230E-06 2.09090E-14 5.13172E-07-1.50775E-07-1.50775E-07
 -1        53 1.33231E-06-1.97185E-06 8.35263E-08 8.30030E-07-4.69206E-08 1.06388E-07
 -1        54 1.09610E-06-5.52254E-06-3.21788E-07 1.60789E-06-7.03809E-08 1.59582E-07
 -1        55 3.80452E-06-5.42548E-07-5.70974E-08 2.50525E-07 4.07839E-08-1.81352E-14
 -1        56 2.53635E-06-3.61699E-07-3.80650E-08 2.56324E-08 2.71893E-08-2.34717E-16
 -1        57 3.75230E-06 2.18424E-06 3.43137E-15 5.13172E-07-1.50775E-07-1.50775E-07
 -1        58 4.60526E-06 4.60526E-06 4.22170E-07 1.29720E-06-1.50775E-07-1.50775E-07
 -1        59 2.08217E-06-1.70578E-06 2.14529E-07 2.75894E-07-4.69206E-08 1.06388E-07
 -1        60 2.22090E-06-5.12343E-06-1.25284E-07 7.76686E-07-7.03809E-08 1.59582E-07
 -1        61-4.31950E-07 1.06618E-06 6.65033E-07 8.91347E-07 4.13062E-07 4.26690E-08
 -1        62-4.51181E-07 2.89316E-07 3.20779E-07-8.46219E-07 2.75375E-07 1.97025E-08
 -1        63-1.97185E-06 1.33231E-06 8.35263E-08 8.30030E-07 1.06388E-07-4.69206E-08
 -1        64-1.70578E-06 2.08217E-06 2.14529E-07 2.75894E-07 1.06388E-07-4.69206E-08
 -1        65-2.84677E-14-7.30163E-14-2.18760E-14-2.22743E-14-2.30247E-15-6.74965E-15
 -1        66-4.63079E-14-1.28424E-13-2.59356E-14-4.10581E-14-2.99861E-14-6.29591E-15
 -1        67-1.42079E-05-2.56889E-06-9.96816E-07 1.39531E-06 8.35935E-07 8.53381E-08
 -1        68-7.34875E-06-1.91665E-06-6.82273E-07-1.46302E-06 4.17968E-07 2.95538E-08
 -1        69-5.52254E-06 1.09610E-06-3.21788E-07 1.60789E-06 1.59582E-07-7.03809E-08
 -1        70-5.12343E-06 2.22090E-06-1.25284E-07 7.76686E-07 1.59582E-07-7.03809E-08
 -1        71-3.90114E-14-1.20929E-13-9.10927E-15-4.09587E-14-5.71475E-14-9.41793E-14
 -1        72-4.31519E-14-9.47163E-14-4.91232E-14-2.57822E-14 1.20330E-13 1.06988E-13
 -3
    1PSTEP                        63          21           1          
  100CL  121 1.47781E-01          72                     0   21           1
 -4  TOSTRAIN    6    1
 -5  EXX         1    4    1    1
 -5  EYY         1    4    2    2
 -5  EZZ         1    4    3    3
 -5  EXY         1    4    1    2
 -5  EYZ         1    4    2    3
 -5  EZX         1    4    3    1
 -1         1-1.88468E-12-1.88468E-12 1.61544E-12-2.05077E-24 2.82523E-25 2.82592E-25
 -1         2-9.42338E-13-9.42338E-13 8.07718E-13 3.03112E-20 1.41303E-25-7.40521E-21
 -1         3-7.93703E-12 2.15991E-11-5.65320E-12 1.55087E-12-1.76003E-24-2.52472E-13
 -1         4-7.93703E-12 1.89734E-11-4.93185E-12 1.55087E-12-1.88499E-24-2.52472E-13
 -1         5 4.65905E-12-4.30274E-12 2.26078E-12 5.51786E-12-3.09434E-18-2.58742E-12
 -1         6 9.31810E-12-6.21079E-11 1.92200E-11 8.63763E-12-6.18864E-18-5.11410E-12
 -1         7-9.42338E-13-9.42338E-13 8.07718E-13 3.03133E-20-7.40362E-21 1.41247E-25
 -1         8-6.28225E-13-6.28225E-13 5.38479E-13 4.04170E-20-4.93603E-21-4.93578E-21
 -1         9-5.29135E-12 1.43994E-11-3.76880E-12 1.58676E-13 8.02832E-20-1.68315E-13
 -1        10-5.29135E-12 1.26489E-11-3.28790E-12 1.58676E-13 7.37556E-20-1.68315E-13
 -1        11 1.50730E-12-2.86849E-12 1.75875E-12-5.23850E-12-5.41284E-14-1.72495E-12
 -1        12 2.26095E-12-3.10540E-11 9.98737E-12-9.05680E-12-8.11925E-14-2.55705E-12
 -1        13 2.15991E-11-7.93703E-12-5.65320E-12 1.55087E-12-2.52472E-13-1.76085E-24
 -1        14 1.43994E-11-5.29135E-12-3.76880E-12 1.58676E-13-1.68315E-13 8.05898E-20
 -1        15 5.04072E-12 5.04072E-12-5.81401E-12-1.67674E-12 9.33369E-13 9.33369E-13
 -1        16 5.04072E-12 1.47478E-11-8.48078E-12 3.17678E-12 9.33369E-13 9.33369E-13
 -1        17 9.02897E-12-1.13994E-11 1.31137E-12 5.16400E-12 2.89632E-13-6.58958E-13
 -1        18 1.35434E-11-2.73789E-11 4.79117E-12 1.00051E-11 4.34447E-13-9.88437E-13
 -1        19 1.89734E-11-7.93703E-12-4.93185E-12 1.55087E-12-2.52472E-13-1.88313E-24
 -1        20 1.26489E-11-5.29135E-12-3.28790E-12 1.58676E-13-1.68315E-13 7.33919E-20
 -1        21 1.47478E-11 5.04072E-12-8.48078E-12 3.17678E-12 9.33369E-13 9.33369E-13
 -1        22 1.47478E-11 1.47478E-11-1.11475E-11 8.03030E-12 9.33369E-13 9.33369E-13
 -1        23 1.20411E-11-1.13994E-11 4.83854E-13 1.73742E-12 2.89632E-13-6.58958E-13
 -1        24 1.80617E-11-2.73789E-11 3.54989E-12 4.86526E-12 4.34447E-13-9.88437E-13
 -1        25-4.30274E-12 4.65905E-12 2.26078E-12 5.51786E-12-2.58742E-12-3.09434E-18
 -1        26-2.86849E-12 1.50730E-12 1.75875E-12-5.23850E-12-1.72495E-12-5.41284E-14
 -1        27-1.13994E-11 9.02897E-12 1.31137E-12 5.16400E-12-6.58958E-13 2.89632E-13
 -1        28-1.13994E-11 1.20411E-11 4.83854E-13 1.73742E-12-6.58958E-13 2.89632E-13
 -1        29 1.69895E-39-3.72439E-19 4.08055E-20-1.86219E-19 3.39252E-19 3.39252E-19
 -1        30 2.54843E-39 3.27874E-20 1.26114E-19 1.63937E-20 4.07067E-20 4.07081E-20
 -1        31-6.21079E-11 9.31810E-12 1.92200E-11 8.63763E-12-5.11410E-12-6.18864E-18
 -1        32-3.10540E-11 2.26095E-12 9.98737E-12-9.05680E-12-2.55705E-12-8.11925E-14
 -1        33-2.73789E-11 1.35434E-11 4.79117E-12 1.00051E-11-9.88437E-13 4.34447E-13
 -1        34-2.73789E-11 1.80617E-11 3.54989E-12 4.86526E-12-9.88437E-13 4.34447E-13
 -1        35-9.61544E-39-8.60437E-19 1.85108E-19-4.30218E-19-5.18669E-19-5.18669E-19
 -1        36-1.92309E-38 2.31811E-18-3.69656E-20 1.15906E-18 2.29773E-19 2.29775E-19
 -1        37-1.88468E-12-1.88468E-12 1.61544E-12-2.05066E-24-1.89847E-21-1.89807E-21
 -1        38-9.42338E-13-9.42338E-13 8.07718E-13 3.03134E-20-9.49576E-22-8.35439E-21
 -1        39-7.93703E-12 2.15991E-11-5.65320E-12 1.55087E-12-8.77415E-20 2.52472E-13
 -1        40-7.93703E-12 1.89734E-11-4.93185E-12 1.55087E-12-1.13093E-19 2.52472E-13
 -1        41 4.74408E-12-4.53007E-12 2.26078E-12 5.51786E-12 2.64142E-13 2.55705E-12
 -1        42 9.48816E-12-6.25626E-11 1.92200E-11 8.63763E-12 5.28283E-13 5.17484E-12
 -1        43-9.42338E-13-9.42338E-13 8.07718E-13 3.03127E-20-8.35299E-21-9.49376E-22
 -1        44-6.28225E-13-6.28225E-13 5.38479E-13 4.04181E-20-5.56918E-21-5.56879E-21
 -1        45-5.29135E-12 1.43994E-11-3.76880E-12 1.58676E-13 2.17900E-20 1.68315E-13
 -1        46-5.29135E-12 1.26489E-11-3.28790E-12 1.58676E-13-1.63821E-21 1.68315E-13
 -1        47 1.56399E-12-3.02004E-12 1.75875E-12-5.23850E-12 1.21968E-13 1.70470E-12
 -1        48 2.34598E-12-3.12813E-11 9.98737E-12-9.05680E-12 1.82952E-13 2.58742E-12
 -1        49 2.15991E-11-7.93703E-12-5.65320E-12 1.55087E-12 2.52472E-13-8.84643E-20
 -1        50 1.43994E-11-5.29135E-12-3.76880E-12 1.58676E-13 1.68315E-13 2.16148E-20
 -1        51 5.04072E-12 5.04072E-12-5.81401E-12-1.67674E-12-9.33369E-13-9.33369E-13
 -1        52 5.04072E-12 1.47478E-11-8.48078E-12 3.17678E-12-9.33369E-13-9.33369E-13
 -1        53 9.02897E-12-1.13994E-11 1.31137E-12 5.16401E-12-2.89632E-13 6.58958E-13
 -1        54 1.35434E-11-2.73789E-11 4.79117E-12 1.00051E-11-4.34447E-13 9.88437E-13
 -1        55 1.89734E-11-7.93703E-12-4.93185E-12 1.55087E-12 2.52472E-13-1.12268E-19
 -1        56 1.26489E-11-5.29135E-12-3.28790E-12 1.58676E-13 1.68315E-13-1.45245E-21
 -1        57 1.47478E-11 5.04072E-12-8.48078E-12 3.17678E-12-9.33369E-13-9.33369E-13
 -1        58 1.47478E-11 1.47478E-11-1.11475E-11 8.03030E-12-9.33369E-13-9.33369E-13
 -1        59 1.20411E-11-1.13994E-11 4.83854E-13 1.73742E-12-2.89632E-13 6.58958E-13
 -1        60 1.80617E-11-2.73789E-11 3.54989E-12 4.86526E-12-4.34447E-13 9.88437E-13
 -1        61-4.53007E-12 4.74408E-12 2.26078E-12 5.51786E-12 2.55705E-12 2.64142E-13
 -1        62-3.02004E-12 1.56399E-12 1.75875E-12-5.23850E-12 1.70470E-12 1.21968E-13
 -1        63-1.13994E-11 9.02897E-12 1.31137E-12 5.16400E-12 6.58958E-13-2.89632E-13
 -1        64-1.13994E-11 1.20411E-11 4.83854E-13 1.73742E-12 6.58958E-13-2.89632E-13
 -1        65-8.49606E-39-2.75777E-19 4.08055E-20-1.37888E-19-1.42534E-20-4.17836E-20
 -1        66-1.27441E-38-5.08338E-19 1.26114E-19-2.54169E-19-1.85628E-19-3.89747E-20
 -1        67-6.25626E-11 9.48816E-12 1.92200E-11 8.63763E-12 5.17484E-12 5.28283E-13
 -1        68-3.12813E-11 2.34598E-12 9.98737E-12-9.05680E-12 2.58742E-12 1.82952E-13
 -1        69-2.73789E-11 1.35434E-11 4.79117E-12 1.00051E-11 9.88437E-13-4.34448E-13
 -1        70-2.73789E-11 1.80617E-11 3.54989E-12 4.86526E-12 9.88437E-13-4.34448E-13
 -1        71 4.80763E-38-5.07107E-19 1.85108E-19-2.53554E-19-3.53770E-19-5.83014E-19
 -1        72 9.61525E-38-3.19209E-19-3.69656E-20-1.59604E-19 7.44900E-19 6.62309E-19
 -3
    1PSTEP                        64          22           1          
  100CL  122 1.56781E-01          72                     0   22           1
 -4  DISP        4    1
 -5  D1          1    2    1    0
 -5  D2          1    2    2    0
 -5  D3          1    2    3    0
 -5  ALL         1    2    0    0    1ALL
 -1         1 0.00000E+00 0.00000E+00 0.00000E+00
 -1         2-7.66187E-10 0.00000E+00 0.00000E+00
 -1         3-4.02248E-02 0.00000E+00 0.00000E+00
 -1         4-4.02248E-02 0.00000E+00 0.00000E+00
 -1         5-1.32948E-01 0.00000E+00 0.00000E+00
 -1         6-1.32948E-01 0.00000E+00 0.00000E+00
 -1         7 0.00000E+00-7.66187E-10 0.00000E+00
 -1         8-7.66187E-10-7.66187E-10 0.00000E+00
 -1         9-4.02248E-02 2.21092E-08 0.00000E+00
 -1        10-4.02248E-02 1.93835E-08 0.00000E+00
 -1        11-1.32948E-01-1.69809E-09 0.00000E+00
 -1        12-1.32948E-01-3.09141E-08 0.00000E+00
 -1        13 0.00000E+00-4.02248E-02 0.00000E+00
 -1        14 2.21092E-08-4.02248E-02 0.00000E+00
 -1        15 7.17581E-01 7.17581E-01 0.00000E+00
 -1        16 7.17581E-01 7.17581E-01 0.00000E+00
 -1        17 1.21491E+00-3.94528E-01 0.00000E+00
 -1        18 1.21446E+00-1.06474E+00 0.00000E+00
 -1        19 0.00000E+00-4.02248E-02 0.00000E+00
 -1        20 1.93835E-08-4.02248E-02 0.00000E+00
 -1        21 7.17581E-01 7.17581E-01 0.00000E+00
 -1        22 7.17582E-01 7.17582E-01 0.00000E+00
 -1        23 1.88512E+00-3.94977E-01 0.00000E+00
 -1        24 1.88467E+00-1.06519E+00 0.00000E+00
 -1        25 0.00000E+00-1.32948E-01 0.00000E+00
 -1        26-1.69809E-09-1.32948E-01 0.00000E+00
 -1        27-3.94528E-01 1.21491E+00 0.00000E+00
 -1        28-3.94977E-01 1.88512E+00 0.00000E+00
 -1        29-4.70344E+00-4.70344E+00 0.00000E+00
 -1        30-4.70344E+00-4.70344E+00 0.00000E+00
 -1        31 0.00000E+00-1.32948E-01 0.00000E+00
 -1        32-3.09141E-08-1.32948E-01 0.00000E+00
 -1        33-1.06474E+00 1.21446E+00 0.00000E+00
 -1        34-1.06519E+00 1.88467E+00 0.00000E+00
 -1        35-4.70344E+00-4.70344E+00 0.00000E+00
 -1        36-4.70344E+00-4.70344E+00 0.00000E+00
 -1        37 0.00000E+00 0.00000E+00 9.19424E-10
 -1        38-7.66187E-10 0.00000E+00 9.19424E-10
 -1        39-4.02248E-02 0.00000E+00-8.25002E-09
 -1        40-4.02248E-02 0.00000E+00-7.20166E-09
 -1        41-1.32948E-01 0.00000E+00 2.06861E-09
 -1        42-1.32948E-01 0.00000E+00 1.33055E-08
 -1        43 0.00000E+00-7.66187E-10 9.19424E-10
 -1        44-7.66187E-10-7.66187E-10 9.19424E-10
 -1        45-4.02248E-02 2.21092E-08-8.25002E-09
 -1        46-4.02248E-02 1.93835E-08-7.20166E-09
 -1        47-1.32948E-01-1.93863E-09 2.62759E-09
 -1        48-1.32948E-01-3.11546E-08 1.38645E-08
 -1        49 0.00000E+00-4.02248E-02-8.25002E-09
 -1        50 2.21092E-08-4.02248E-02-8.25002E-09
 -1        51 7.17581E-01 7.17581E-01-1.22381E-08
 -1        52 7.17582E-01 7.17581E-01-1.82406E-08
 -1        53 1.21491E+00-3.94528E-01 1.86226E-09
 -1        54 1.21446E+00-1.06474E+00 6.42407E-09
 -1        55 0.00000E+00-4.02248E-02-7.20166E-09
 -1        56 1.93835E-08-4.02248E-02-7.20166E-09
 -1        57 7.17581E-01 7.17582E-01-1.82406E-08
 -1        58 7.17582E-01 7.17582E-01-2.42432E-08
 -1        59 1.88512E+00-3.94977E-01-2.55575E-11
 -1        60 1.88467E+00-1.06519E+00 4.53626E-09
 -1        61 0.00000E+00-1.32948E-01 2.06861E-09
 -1        62-1.93863E-09-1.32948E-01 2.62759E-09
 -1        63-3.94528E-01 1.21491E+00 1.86226E-09
 -1        64-3.94977E-01 1.88512E+00-2.55574E-11
 -1        65-4.70344E+00-4.70344E+00 2.45638E-16
 -1        66-4.70344E+00-4.70344E+00 1.70623E-16
 -1        67 0.00000E+00-1.32948E-01 1.33055E-08
 -1        68-3.11546E-08-1.32948E-01 1.38645E-08
 -1        69-1.06474E+00 1.21446E+00 6.42407E-09
 -1        70-1.06519E+00 1.88467E+00 4.53626E-09
 -1        71-4.70344E+00-4.70344E+00 2.74951E-16
 -1        72-4.70344E+00-4.70344E+00-2.40493E-19
 -3
    1PSTEP                        65          22           1          
  100CL  122 1.56781E-01          72                     0   22           1
 -4  STRESS      6    1
 -5  SXX         1    4    1    1
 -5  SYY         1    4    2    2
 -5  SZZ         1    4    3    3
 -5  SXY         1    4    1    2
 -5  SYZ         1    4    2    3
 -5  SZX         1    4    3    1
 -1         1-4.59694E-07-4.59694E-07-8.60769E-15-3.46817E-19 4.84645E-20 4.84732E-20
 -1         2-2.29847E-07-2.29847E-07 2.88476E-15 5.12650E-15 2.42475E-20-1.23257E-15
 -1         3-2.60083E-07 4.58251E-06 5.92724E-08 2.60068E-07-3.04590E-19-4.23375E-08
 -1         4-4.99592E-07 3.90269E-06-5.92724E-08 2.60068E-07-3.26801E-19-4.23375E-08
 -1         5 1.20936E-06 2.28840E-07 7.41709E-07 1.01743E-06-5.28896E-13-4.56391E-07
 -1         6-2.71566E-06-1.41157E-05-1.05784E-06 1.62497E-06-1.05779E-12-9.02401E-07
 -1         7-2.29847E-07-2.29847E-07 2.88512E-15 5.12640E-15-1.23285E-15 2.42466E-20
 -1         8-1.53231E-07-1.53231E-07 6.71573E-15 6.83538E-15-8.21735E-16-8.21763E-16
 -1         9-1.73388E-07 3.05501E-06 3.95150E-08 2.66087E-08 1.39629E-14-2.82250E-08
 -1        10-3.33061E-07 2.60180E-06-3.95150E-08 2.66088E-08 1.28554E-14-2.82250E-08
 -1        11 3.60282E-07-2.01369E-08 3.64774E-07-8.94874E-07-9.25181E-09-3.04261E-07
 -1        12-2.02677E-06-7.31687E-06-7.23468E-07-1.54726E-06-1.38777E-08-4.51201E-07
 -1        13 4.58251E-06-2.60083E-07 5.92724E-08 2.60068E-07-4.23375E-08-3.04779E-19
 -1        14 3.05501E-06-1.73388E-07 3.95150E-08 2.66087E-08-2.82250E-08 1.39837E-14
 -1        15 1.28540E-06 1.28540E-06-4.52497E-07-2.79414E-07 1.61606E-07 1.61606E-07
 -1        16 2.19963E-06 3.88033E-06 1.09616E-15 5.60938E-07 1.61606E-07 1.61606E-07
 -1        17 1.36772E-06-1.65243E-06 1.00799E-07 8.86508E-07 5.09900E-08-1.22749E-07
 -1        18 1.01044E-06-5.43785E-06-3.64634E-07 1.72363E-06 7.64850E-08-1.84124E-07
 -1        19 3.90269E-06-4.99592E-07-5.92724E-08 2.60068E-07-4.23375E-08-3.26443E-19
 -1        20 2.60180E-06-3.33061E-07-3.95150E-08 2.66088E-08-2.82250E-08 1.28571E-14
 -1        21 3.88033E-06 2.19963E-06 2.43316E-14 5.60938E-07 1.61606E-07 1.61606E-07
 -1        22 4.79456E-06 4.79456E-06 4.52497E-07 1.40129E-06 1.61606E-07 1.61606E-07
 -1        23 2.18212E-06-1.36319E-06 2.43110E-07 2.47151E-07 5.09900E-08-1.22749E-07
 -1        24 2.23204E-06-5.00399E-06-1.51167E-07 7.64596E-07 7.64850E-08-1.84124E-07
 -1        25 2.28840E-07 1.20936E-06 7.41709E-07 1.01743E-06-4.56391E-07-5.28896E-13
 -1        26-2.01369E-08 3.60282E-07 3.64774E-07-8.94874E-07-3.04261E-07-9.25181E-09
 -1        27-1.65243E-06 1.36772E-06 1.00799E-07 8.86508E-07-1.22749E-07 5.09900E-08
 -1        28-1.36319E-06 2.18212E-06 2.43110E-07 2.47151E-07-1.22749E-07 5.09900E-08
 -1        29 4.73108E-14 9.14972E-14 6.62056E-14 2.20932E-14 1.31632E-15 1.31642E-15
 -1        30-7.36495E-14-1.91535E-13-5.39630E-14-5.89429E-14 3.40692E-14 3.40694E-14
 -1        31-1.41157E-05-2.71566E-06-1.05784E-06 1.62497E-06-9.02401E-07-1.05779E-12
 -1        32-7.31687E-06-2.02677E-06-7.23468E-07-1.54726E-06-4.51201E-07-1.38777E-08
 -1        33-5.43785E-06 1.01044E-06-3.64634E-07 1.72363E-06-1.84124E-07 7.64851E-08
 -1        34-5.00399E-06 2.23204E-06-1.51167E-07 7.64596E-07-1.84124E-07 7.64850E-08
 -1        35 2.47493E-14 2.60241E-14 5.64734E-14 6.37425E-16 1.20617E-14 1.20618E-14
 -1        36 1.87035E-13 4.36473E-13 1.86979E-13 1.24719E-13-1.12237E-13-1.12237E-13
 -1        37-4.59694E-07-4.59694E-07-1.89627E-14-3.46831E-19-4.00783E-16-4.00953E-16
 -1        38-2.29847E-07-2.29847E-07-2.29221E-15 5.12640E-15-2.00447E-16-1.43308E-15
 -1        39-2.60083E-07 4.58251E-06 5.92724E-08 2.60068E-07-1.52734E-14 4.23375E-08
 -1        40-4.99592E-07 3.90269E-06-5.92724E-08 2.60068E-07-1.98729E-14 4.23375E-08
 -1        41 1.20565E-06 1.71742E-07 7.23468E-07 1.01743E-06 4.51480E-08 4.51201E-07
 -1        42-2.72307E-06-1.42299E-05-1.09432E-06 1.62497E-06 9.02960E-08 9.12783E-07
 -1        43-2.29847E-07-2.29847E-07-2.29253E-15 5.12675E-15-1.43327E-15-2.00532E-16
 -1        44-1.53231E-07-1.53231E-07 3.26431E-15 6.83555E-15-9.55383E-16-9.55467E-16
 -1        45-1.73389E-07 3.05501E-06 3.95150E-08 2.66087E-08 3.78016E-15 2.82250E-08
 -1        46-3.33061E-07 2.60180E-06-3.95150E-08 2.66088E-08-3.93600E-16 2.82250E-08
 -1        47 3.57810E-07-5.82020E-08 3.52613E-07-8.94874E-07 2.08472E-08 3.00800E-07
 -1        48-2.03047E-06-7.37397E-06-7.41709E-07-1.54726E-06 3.12708E-08 4.56391E-07
 -1        49 4.58251E-06-2.60083E-07 5.92724E-08 2.60068E-07 4.23375E-08-1.53693E-14
 -1        50 3.05501E-06-1.73388E-07 3.95150E-08 2.66087E-08 2.82250E-08 3.73705E-15
 -1        51 1.28540E-06 1.28540E-06-4.52497E-07-2.79414E-07-1.61606E-07-1.61606E-07
 -1        52 2.19963E-06 3.88033E-06 2.37745E-14 5.60938E-07-1.61606E-07-1.61606E-07
 -1        53 1.36772E-06-1.65243E-06 1.00799E-07 8.86508E-07-5.09900E-08 1.22749E-07
 -1        54 1.01044E-06-5.43785E-06-3.64634E-07 1.72363E-06-7.64850E-08 1.84124E-07
 -1        55 3.90269E-06-4.99592E-07-5.92724E-08 2.60068E-07 4.23375E-08-1.98138E-14
 -1        56 2.60180E-06-3.33061E-07-3.95150E-08 2.66088E-08 2.82250E-08-3.52537E-16
 -1        57 3.88033E-06 2.19963E-06-1.53830E-14 5.60938E-07-1.61606E-07-1.61606E-07
 -1        58 4.79456E-06 4.79456E-06 4.52497E-07 1.40129E-06-1.61606E-07-1.61606E-07
 -1        59 2.18212E-06-1.36319E-06 2.43111E-07 2.47151E-07-5.09900E-08 1.22749E-07
 -1        60 2.23204E-06-5.00399E-06-1.51167E-07 7.64596E-07-7.64851E-08 1.84124E-07
 -1        61 1.71742E-07 1.20565E-06 7.23468E-07 1.01743E-06 4.51201E-07 4.51480E-08
 -1        62-5.82020E-08 3.57810E-07 3.52613E-07-8.94874E-07 3.00800E-07 2.08472E-08
 -1        63-1.65243E-06 1.36772E-06 1.00799E-07 8.86508E-07 1.22749E-07-5.09900E-08
 -1        64-1.36319E-06 2.18212E-06 2.43110E-07 2.47151E-07 1.22749E-07-5.09900E-08
 -1        65-1.14958E-13-2.87131E-13-9.60636E-14-8.60863E-14-3.83619E-14-4.39794E-14
 -1        66 8.11293E-14 1.69615E-13 1.00816E-13 4.42430E-14 5.51393E-14 6.28810E-14
 -1        67-1.42299E-05-2.72307E-06-1.09432E-06 1.62497E-06 9.12783E-07 9.02960E-08
 -1        68-7.37397E-06-2.03047E-06-7.41709E-07-1.54726E-06 4.56391E-07 3.12708E-08
 -1        69-5.43785E-06 1.01044E-06-3.64634E-07 1.72363E-06 1.84124E-07-7.64850E-08
 -1        70-5.00399E-06 2.23204E-06-1.51167E-07 7.64596E-07 1.84124E-07-7.64851E-08
 -1        71-1.35720E-13-3.48405E-13-1.03996E-13-1.06342E-13 9.89354E-15-1.47006E-14
 -1        72-1.22445E-13-2.85648E-13-1.22502E-13-8.16016E-14-9.00484E-16-1.77530E-14
 -3
    1PSTEP                        66          22           1          
  100CL  122 1.56781E-01          72                     0   22           1
 -4  TOSTRAIN    6    1
 -5  EXX         1    4    1    1
 -5  EYY         1    4    2    2
 -5  EZZ         1    4    3    3
 -5  EXY         1    4    1    2
 -5  EYZ         1    4    2    3
 -5  EZX         1    4    3    1
 -1         1-1.53231E-12-1.53231E-12 1.31341E-12-2.14696E-24 3.00018E-25 3.00072E-25
 -1         2-7.66156E-13-7.66156E-13 6.56705E-13 3.17354E-20 1.50104E-25-7.63022E-21
 -1         3-7.86961E-12 2.21084E-11-5.89265E-12 1.60994E-12-1.88553E-24-2.62089E-13
 -1         4-7.86961E-12 1.93826E-11-5.14382E-12 1.60994E-12-2.02303E-24-2.62089E-13
 -1         5 4.37236E-12-1.69753E-12 1.47738E-12 6.29837E-12-3.27412E-18-2.82528E-12
 -1         6 8.74472E-12-6.18267E-11 1.90074E-11 1.00593E-11-6.54821E-18-5.58629E-12
 -1         7-7.66156E-13-7.66156E-13 6.56705E-13 3.17349E-20-7.63194E-21 1.50098E-25
 -1         8-5.10771E-13-5.10771E-13 4.37803E-13 4.23143E-20-5.08693E-21-5.08710E-21
 -1         9-5.24641E-12 1.47389E-11-3.92843E-12 1.64721E-13 8.64359E-20-1.74726E-13
 -1        10-5.24641E-12 1.29218E-11-3.42922E-12 1.64721E-13 7.95800E-20-1.74726E-13
 -1        11 1.22329E-12-1.13169E-12 1.25110E-12-5.53970E-12-5.72731E-14-1.88352E-12
 -1        12 1.83494E-12-3.09133E-11 9.90297E-12-9.57826E-12-8.59096E-14-2.79315E-12
 -1        13 2.21084E-11-7.86961E-12-5.89265E-12 1.60994E-12-2.62089E-13-1.88670E-24
 -1        14 1.47389E-11-5.24641E-12-3.92843E-12 1.64721E-13-1.74726E-13 8.65645E-20
 -1        15 4.93109E-12 4.93109E-12-5.82732E-12-1.72970E-12 1.00042E-12 1.00042E-12
 -1        16 4.93109E-12 1.53354E-11-8.68566E-12 3.47247E-12 1.00042E-12 1.00042E-12
 -1        17 8.71482E-12-9.95187E-12 8.86732E-13 5.51295E-12 3.14634E-13-7.60298E-13
 -1        18 1.30722E-11-2.67884E-11 4.58852E-12 1.07236E-11 4.71950E-13-1.14045E-12
 -1        19 1.93826E-11-7.86961E-12-5.14382E-12 1.60994E-12-2.62089E-13-2.02082E-24
 -1        20 1.29218E-11-5.24641E-12-3.42922E-12 1.64721E-13-1.74726E-13 7.95904E-20
 -1        21 1.53354E-11 4.93109E-12-8.68566E-12 3.47247E-12 1.00042E-12 1.00042E-12
 -1        22 1.53354E-11 1.53354E-11-1.15440E-11 8.67465E-12 1.00042E-12 1.00042E-12
 -1        23 1.19870E-11-9.95187E-12-1.22217E-14 1.55940E-12 3.14634E-13-7.60298E-13
 -1        24 1.79805E-11-2.67884E-11 3.24009E-12 4.79324E-12 4.71950E-13-1.14045E-12
 -1        25-1.69753E-12 4.37236E-12 1.47738E-12 6.29837E-12-2.82528E-12-3.27412E-18
 -1        26-1.13169E-12 1.22329E-12 1.25110E-12-5.53970E-12-1.88352E-12-5.72731E-14
 -1        27-9.95187E-12 8.71482E-12 8.86732E-13 5.51295E-12-7.60298E-13 3.14634E-13
 -1        28-9.95187E-12 1.19870E-11-1.22216E-14 1.55940E-12-7.60297E-13 3.14634E-13
 -1        29 1.16452E-40 2.73535E-19 1.16967E-19 1.36767E-19 8.14866E-21 8.14925E-21
 -1        30 1.74679E-40-7.29769E-19 1.21869E-19-3.64884E-19 2.10905E-19 2.10906E-19
 -1        31-6.18267E-11 8.74472E-12 1.90074E-11 1.00593E-11-5.58629E-12-6.54821E-18
 -1        32-3.09133E-11 1.83494E-12 9.90297E-12-9.57826E-12-2.79315E-12-8.59096E-14
 -1        33-2.67884E-11 1.30722E-11 4.58852E-12 1.07236E-11-1.14045E-12 4.71951E-13
 -1        34-2.67884E-11 1.79805E-11 3.24009E-12 4.79324E-12-1.14045E-12 4.71950E-13
 -1        35-1.15088E-38 7.89193E-21 1.96388E-19 3.94596E-21 7.46676E-20 7.46681E-20
 -1        36-2.30176E-38 1.54414E-18-3.51401E-22 7.72068E-19-6.94801E-19-6.94800E-19
 -1        37-1.53231E-12-1.53231E-12 1.31341E-12-2.14705E-24-2.48104E-21-2.48209E-21
 -1        38-7.66156E-13-7.66156E-13 6.56705E-13 3.17348E-20-1.24086E-21-8.87142E-21
 -1        39-7.86961E-12 2.21084E-11-5.89265E-12 1.60994E-12-9.45533E-20 2.62089E-13
 -1        40-7.86961E-12 1.93826E-11-5.14382E-12 1.60994E-12-1.23026E-19 2.62089E-13
 -1        41 4.46233E-12-1.93807E-12 1.47738E-12 6.29837E-12 2.79488E-13 2.79315E-12
 -1        42 8.92467E-12-6.23078E-11 1.90074E-11 1.00593E-11 5.58975E-13 5.65056E-12
 -1        43-7.66156E-13-7.66156E-13 6.56705E-13 3.17370E-20-8.87261E-21-1.24139E-21
 -1        44-5.10771E-13-5.10771E-13 4.37803E-13 4.23153E-20-5.91427E-21-5.91480E-21
 -1        45-5.24641E-12 1.47389E-11-3.92843E-12 1.64721E-13 2.34016E-20 1.74726E-13
 -1        46-5.24641E-12 1.29218E-11-3.42922E-12 1.64721E-13-2.43596E-21 1.74726E-13
 -1        47 1.28327E-12-1.29204E-12 1.25110E-12-5.53970E-12 1.29054E-13 1.86210E-12
 -1        48 1.92491E-12-3.11539E-11 9.90297E-12-9.57826E-12 1.93581E-13 2.82528E-12
 -1        49 2.21084E-11-7.86961E-12-5.89265E-12 1.60994E-12 2.62089E-13-9.51466E-20
 -1        50 1.47389E-11-5.24641E-12-3.92843E-12 1.64721E-13 1.74726E-13 2.31347E-20
 -1        51 4.93109E-12 4.93109E-12-5.82732E-12-1.72970E-12-1.00042E-12-1.00042E-12
 -1        52 4.93109E-12 1.53354E-11-8.68566E-12 3.47247E-12-1.00042E-12-1.00042E-12
 -1        53 8.71482E-12-9.95187E-12 8.86732E-13 5.51295E-12-3.14634E-13 7.60298E-13
 -1        54 1.30722E-11-2.67884E-11 4.58852E-12 1.07236E-11-4.71951E-13 1.14045E-12
 -1        55 1.93826E-11-7.86961E-12-5.14382E-12 1.60994E-12 2.62089E-13-1.22660E-19
 -1        56 1.29218E-11-5.24641E-12-3.42922E-12 1.64721E-13 1.74726E-13-2.18177E-21
 -1        57 1.53354E-11 4.93109E-12-8.68566E-12 3.47247E-12-1.00042E-12-1.00042E-12
 -1        58 1.53354E-11 1.53354E-11-1.15440E-11 8.67465E-12-1.00042E-12-1.00042E-12
 -1        59 1.19870E-11-9.95187E-12-1.22217E-14 1.55940E-12-3.14634E-13 7.60298E-13
 -1        60 1.79805E-11-2.67884E-11 3.24009E-12 4.79324E-12-4.71951E-13 1.14045E-12
 -1        61-1.93807E-12 4.46233E-12 1.47738E-12 6.29837E-12 2.79315E-12 2.79488E-13
 -1        62-1.29204E-12 1.28327E-12 1.25110E-12-5.53970E-12 1.86210E-12 1.29054E-13
 -1        63-9.95187E-12 8.71482E-12 8.86732E-13 5.51295E-12 7.60298E-13-3.14634E-13
 -1        64-9.95187E-12 1.19870E-11-1.22216E-14 1.55940E-12 7.60298E-13-3.14634E-13
 -1        65-5.84126E-40-1.06583E-18 1.16967E-19-5.32915E-19-2.37478E-19-2.72253E-19
 -1        66-8.76188E-40 5.47770E-19 1.21869E-19 2.73885E-19 3.41339E-19 3.89263E-19
 -1        67-6.23078E-11 8.92467E-12 1.90074E-11 1.00593E-11 5.65056E-12 5.58975E-13
 -1        68-3.11539E-11 1.92491E-12 9.90297E-12-9.57826E-12 2.82528E-12 1.93581E-13
 -1        69-2.67884E-11 1.30722E-11 4.58852E-12 1.07236E-11 1.14045E-12-4.71951E-13
 -1        70-2.67884E-11 1.79805E-11 3.24009E-12 4.79324E-12 1.14045E-12-4.71951E-13
 -1        71 5.75422E-38-1.31662E-18 1.96388E-19-6.58310E-19 6.12457E-20-9.10038E-20
 -1        72 1.15084E-37-1.01031E-18-3.51401E-22-5.05153E-19-5.57442E-21-1.09899E-19
 -3
    1PSTEP                        67          23           1          
  100CL  123 1.65781E-01          72                     0   23           1
 -4  DISP        4    1
 -5  D1          1    2    1    0
 -5  D2          1    2    2    0
 -5  D3          1    2    3    0
 -5  ALL         1    2    0    0    1ALL
 -1         1 0.00000E+00 0.00000E+00 0.00000E+00
 -1         2-5.86908E-10 0.00000E+00 0.00000E+00
 -1         3-3.08127E-02 0.00000E+00 0.00000E+00
 -1         4-3.08127E-02 0.00000E+00 0.00000E+00
 -1         5-1.15067E-01 0.00000E+00 0.00000E+00
 -1         6-1.15067E-01 0.00000E+00 0.00000E+00
 -1         7 0.00000E+00-5.86908E-10 0.00000E+00
 -1         8-5.86908E-10-5.86908E-10 0.00000E+00
 -1         9-3.08127E-02 2.23828E-08 0.00000E+00
 -1        10-3.08127E-02 1.96081E-08 0.00000E+00
 -1        11-1.15067E-01 7.82531E-10 0.00000E+00
 -1        12-1.15067E-01-3.06054E-08 0.00000E+00
 -1        13 0.00000E+00-3.08127E-02 0.00000E+00
 -1        14 2.23828E-08-3.08127E-02 0.00000E+00
 -1        15 7.29322E-01 7.29322E-01 0.00000E+00
 -1        16 7.29322E-01 7.29322E-01 0.00000E+00
 -1        17 1.22396E+00-3.23071E-01 0.00000E+00
 -1        18 1.22347E+00-1.02692E+00 0.00000E+00
 -1        19 0.00000E+00-3.08127E-02 0.00000E+00
 -1        20 1.96081E-08-3.08127E-02 0.00000E+00
 -1        21 7.29322E-01 7.29322E-01 0.00000E+00
 -1        22 7.29322E-01 7.29322E-01 0.00000E+00
 -1        23 1.92782E+00-3.23566E-01 0.00000E+00
 -1        24 1.92732E+00-1.02742E+00 0.00000E+00
 -1        25 0.00000E+00-1.15067E-01 0.00000E+00
 -1        26 7.82531E-10-1.15067E-01 0.00000E+00
 -1        27-3.23071E-01 1.22396E+00 0.00000E+00
 -1        28-3.23566E-01 1.92782E+00 0.00000E+00
 -1        29-4.97344E+00-4.97344E+00 0.00000E+00
 -1        30-4.97344E+00-4.97344E+00 0.00000E+00
 -1        31 0.00000E+00-1.15067E-01 0.00000E+00
 -1        32-3.06054E-08-1.15067E-01 0.00000E+00
 -1        33-1.02692E+00 1.22347E+00 0.00000E+00
 -1        34-1.02742E+00 1.92732E+00 0.00000E+00
 -1        35-4.97344E+00-4.97344E+00 0.00000E+00
 -1        36-4.97344E+00-4.97344E+00 0.00000E+00
 -1        37 0.00000E+00 0.00000E+00 7.04290E-10
 -1        38-5.86908E-10 0.00000E+00 7.04290E-10
 -1        39-3.08127E-02 0.00000E+00-8.49691E-09
 -1        40-3.08127E-02 0.00000E+00-7.42973E-09
 -1        41-1.15067E-01 0.00000E+00 1.00705E-09
 -1        42-1.15067E-01 0.00000E+00 1.30793E-08
 -1        43 0.00000E+00-5.86908E-10 7.04290E-10
 -1        44-5.86908E-10-5.86908E-10 7.04290E-10
 -1        45-3.08127E-02 2.23828E-08-8.49691E-09
 -1        46-3.08127E-02 1.96081E-08-7.42973E-09
 -1        47-1.15067E-01 5.34288E-10 1.58394E-09
 -1        48-1.15067E-01-3.08537E-08 1.36562E-08
 -1        49 0.00000E+00-3.08127E-02-8.49691E-09
 -1        50 2.23828E-08-3.08127E-02-8.49691E-09
 -1        51 7.29322E-01 7.29322E-01-1.21298E-08
 -1        52 7.29322E-01 7.29322E-01-1.84765E-08
 -1        53 1.22396E+00-3.23071E-01 1.02471E-09
 -1        54 1.22347E+00-1.02692E+00 6.16435E-09
 -1        55 0.00000E+00-3.08127E-02-7.42973E-09
 -1        56 1.96081E-08-3.08127E-02-7.42973E-09
 -1        57 7.29322E-01 7.29322E-01-1.84765E-08
 -1        58 7.29322E-01 7.29322E-01-2.48233E-08
 -1        59 1.92782E+00-3.23566E-01-1.05059E-09
 -1        60 1.92732E+00-1.02742E+00 4.08905E-09
 -1        61 0.00000E+00-1.15067E-01 1.00705E-09
 -1        62 5.34288E-10-1.15067E-01 1.58394E-09
 -1        63-3.23071E-01 1.22396E+00 1.02471E-09
 -1        64-3.23566E-01 1.92782E+00-1.05059E-09
 -1        65-4.97344E+00-4.97344E+00-1.50223E-16
 -1        66-4.97344E+00-4.97344E+00-1.98993E-17
 -1        67 0.00000E+00-1.15067E-01 1.30793E-08
 -1        68-3.08537E-08-1.15067E-01 1.36562E-08
 -1        69-1.02692E+00 1.22347E+00 6.16435E-09
 -1        70-1.02742E+00 1.92732E+00 4.08905E-09
 -1        71-4.97344E+00-4.97344E+00 2.14837E-16
 -1        72-4.97344E+00-4.97344E+00 2.96214E-16
 -3
    1PSTEP                        68          23           1          
  100CL  123 1.65781E-01          72                     0   23           1
 -4  STRESS      6    1
 -5  SXX         1    4    1    1
 -5  SYY         1    4    2    2
 -5  SZZ         1    4    3    3
 -5  SXY         1    4    1    2
 -5  SYZ         1    4    2    3
 -5  SZX         1    4    3    1
 -1         1-3.52131E-07-3.52131E-07-8.87367E-15-3.55873E-19 5.03890E-20 5.04028E-20
 -1         2-1.76065E-07-1.76065E-07 2.84456E-15 5.26023E-15 2.51973E-20-1.24624E-15
 -1         3-2.06844E-07 4.65626E-06 6.03364E-08 2.64736E-07-3.15174E-19-4.30975E-08
 -1         4-4.50653E-07 3.96424E-06-6.03364E-08 2.64736E-07-3.38127E-19-4.30975E-08
 -1         5 1.33509E-06 8.02668E-07 7.92347E-07 1.13262E-06-5.45837E-13-4.90210E-07
 -1         6-2.84589E-06-1.40514E-05-1.14548E-06 1.84222E-06-1.09167E-12-9.69707E-07
 -1         7-1.76065E-07-1.76065E-07 2.84431E-15 5.26020E-15-1.24602E-15 2.51995E-20
 -1         8-1.17377E-07-1.17377E-07 6.75047E-15 7.01374E-15-8.30681E-16-8.30826E-16
 -1         9-1.37896E-07 3.10417E-06 4.02243E-08 2.70864E-08 1.49273E-14-2.87317E-08
 -1        10-3.00435E-07 2.64283E-06-4.02243E-08 2.70864E-08 1.36306E-14-2.87317E-08
 -1        11 4.29819E-07 3.56884E-07 3.94379E-07-9.35029E-07-9.54812E-09-3.26807E-07
 -1        12-2.11331E-06-7.29304E-06-7.73521E-07-1.61405E-06-1.43222E-08-4.84853E-07
 -1        13 4.65626E-06-2.06844E-07 6.03364E-08 2.64736E-07-4.30975E-08-3.15186E-19
 -1        14 3.10417E-06-1.37896E-07 4.02243E-08 2.70864E-08-2.87317E-08 1.49736E-14
 -1        15 1.22410E-06 1.22410E-06-4.78446E-07-2.85402E-07 1.70873E-07 1.70873E-07
 -1        16 2.19075E-06 3.96784E-06 2.40873E-15 6.03140E-07 1.70873E-07 1.70873E-07
 -1        17 1.37935E-06-1.33574E-06 1.15545E-07 9.30136E-07 5.60677E-08-1.38295E-07
 -1        18 8.96052E-07-5.33768E-06-4.07854E-07 1.82797E-06 8.41016E-08-2.07443E-07
 -1        19 3.96424E-06-4.50653E-07-6.03364E-08 2.64736E-07-4.30975E-08-3.37794E-19
 -1        20 2.64283E-06-3.00435E-07-4.02243E-08 2.70864E-08-2.87317E-08 1.35977E-14
 -1        21 3.96784E-06 2.19075E-06 1.99200E-14 6.03140E-07 1.70873E-07 1.70873E-07
 -1        22 4.93449E-06 4.93449E-06 4.78446E-07 1.49168E-06 1.70873E-07 1.70873E-07
 -1        23 2.27449E-06-1.01764E-06 2.71989E-07 2.09776E-07 5.60678E-08-1.38295E-07
 -1        24 2.23875E-06-4.86051E-06-1.73187E-07 7.47433E-07 8.41016E-08-2.07443E-07
 -1        25 8.02668E-07 1.33509E-06 7.92347E-07 1.13262E-06-4.90210E-07-5.45837E-13
 -1        26 3.56884E-07 4.29819E-07 3.94379E-07-9.35029E-07-3.26807E-07-9.54812E-09
 -1        27-1.33574E-06 1.37935E-06 1.15545E-07 9.30136E-07-1.38295E-07 5.60677E-08
 -1        28-1.01764E-06 2.27449E-06 2.71989E-07 2.09776E-07-1.38295E-07 5.60677E-08
 -1        29-1.37746E-13-3.09852E-13-1.49302E-13-8.60528E-14-7.81920E-14-7.81918E-14
 -1        30 2.29717E-13 5.38302E-13 2.27420E-13 1.54293E-13 1.18813E-13 1.18813E-13
 -1        31-1.40514E-05-2.84589E-06-1.14548E-06 1.84222E-06-9.69707E-07-1.09167E-12
 -1        32-7.29304E-06-2.11331E-06-7.73521E-07-1.61405E-06-4.84853E-07-1.43222E-08
 -1        33-5.33768E-06 8.96052E-07-4.07854E-07 1.82797E-06-2.07443E-07 8.41016E-08
 -1        34-4.86051E-06 2.23875E-06-1.73187E-07 7.47433E-07-2.07443E-07 8.41016E-08
 -1        35-5.13133E-14-1.44520E-13-2.65249E-14-4.66031E-14-3.66801E-14-3.66798E-14
 -1        36 2.21215E-13 4.47811E-13 2.89571E-13 1.13298E-13-1.29493E-13-1.29493E-13
 -1        37-3.52131E-07-3.52131E-07-1.93414E-14-3.55871E-19-4.87524E-16-4.87289E-16
 -1        38-1.76065E-07-1.76065E-07-2.38930E-15 5.26023E-15-2.43762E-16-1.48991E-15
 -1        39-2.06844E-07 4.65626E-06 6.03364E-08 2.64736E-07-1.65357E-14 4.30975E-08
 -1        40-4.50653E-07 3.96424E-06-6.03364E-08 2.64736E-07-2.10952E-14 4.30975E-08
 -1        41 1.33126E-06 7.43742E-07 7.73521E-07 1.13262E-06 4.65940E-08 4.84853E-07
 -1        42-2.85355E-06-1.41693E-05-1.18314E-06 1.84222E-06 9.31880E-08 9.80420E-07
 -1        43-1.76065E-07-1.76065E-07-2.38955E-15 5.26020E-15-1.48981E-15-2.43644E-16
 -1        44-1.17377E-07-1.17377E-07 3.26123E-15 7.01374E-15-9.93206E-16-9.93272E-16
 -1        45-1.37896E-07 3.10417E-06 4.02243E-08 2.70864E-08 3.90305E-15 2.87316E-08
 -1        46-3.00435E-07 2.64283E-06-4.02243E-08 2.70864E-08-4.33314E-16 2.87316E-08
 -1        47 4.27268E-07 3.17600E-07 3.81828E-07-9.35029E-07 2.15149E-08 3.23236E-07
 -1        48-2.11714E-06-7.35197E-06-7.92347E-07-1.61405E-06 3.22724E-08 4.90210E-07
 -1        49 4.65626E-06-2.06844E-07 6.03364E-08 2.64736E-07 4.30975E-08-1.66392E-14
 -1        50 3.10417E-06-1.37896E-07 4.02243E-08 2.70864E-08 2.87316E-08 3.88031E-15
 -1        51 1.22410E-06 1.22410E-06-4.78446E-07-2.85402E-07-1.70873E-07-1.70873E-07
 -1        52 2.19075E-06 3.96784E-06-1.07037E-16 6.03140E-07-1.70873E-07-1.70873E-07
 -1        53 1.37935E-06-1.33574E-06 1.15545E-07 9.30136E-07-5.60678E-08 1.38295E-07
 -1        54 8.96052E-07-5.33768E-06-4.07854E-07 1.82797E-06-8.41016E-08 2.07443E-07
 -1        55 3.96424E-06-4.50653E-07-6.03364E-08 2.64736E-07 4.30975E-08-2.10198E-14
 -1        56 2.64283E-06-3.00435E-07-4.02243E-08 2.70864E-08 2.87316E-08-4.15962E-16
 -1        57 3.96784E-06 2.19075E-06 9.19463E-15 6.03140E-07-1.70873E-07-1.70873E-07
 -1        58 4.93449E-06 4.93449E-06 4.78446E-07 1.49168E-06-1.70873E-07-1.70873E-07
 -1        59 2.27449E-06-1.01764E-06 2.71989E-07 2.09776E-07-5.60677E-08 1.38295E-07
 -1        60 2.23875E-06-4.86051E-06-1.73187E-07 7.47433E-07-8.41016E-08 2.07443E-07
 -1        61 7.43742E-07 1.33126E-06 7.73521E-07 1.13262E-06 4.84853E-07 4.65940E-08
 -1        62 3.17600E-07 4.27268E-07 3.81828E-07-9.35029E-07 3.23236E-07 2.15149E-08
 -1        63-1.33574E-06 1.37935E-06 1.15545E-07 9.30136E-07 1.38295E-07-5.60677E-08
 -1        64-1.01764E-06 2.27449E-06 2.71989E-07 2.09776E-07 1.38295E-07-5.60677E-08
 -1        65 1.01066E-13 2.47376E-13 8.95100E-14 7.31551E-14 8.09106E-15-4.54832E-15
 -1        66-2.53633E-13-5.89513E-13-2.55929E-13-1.67940E-13-3.95863E-14-5.45920E-14
 -1        67-1.41693E-05-2.85355E-06-1.18314E-06 1.84222E-06 9.80420E-07 9.31880E-08
 -1        68-7.35197E-06-2.11714E-06-7.92347E-07-1.61405E-06 4.90210E-07 3.22724E-08
 -1        69-5.33768E-06 8.96052E-07-4.07854E-07 1.82797E-06 2.07443E-07-8.41016E-08
 -1        70-4.86051E-06 2.23875E-06-1.73187E-07 7.47433E-07 2.07443E-07-8.41016E-08
 -1        71-2.39117E-13-5.82729E-13-2.14329E-13-1.71806E-13 7.81491E-14 5.52366E-14
 -1        72 3.46559E-13 7.40281E-13 4.14915E-13 1.96861E-13-8.87164E-14-1.26635E-13
 -3
    1PSTEP                        69          23           1          
  100CL  123 1.65781E-01          72                     0   23           1
 -4  TOSTRAIN    6    1
 -5  EXX         1    4    1    1
 -5  EYY         1    4    2    2
 -5  EZZ         1    4    3    3
 -5  EXY         1    4    1    2
 -5  EYZ         1    4    2    3
 -5  EZX         1    4    3    1
 -1         1-1.17377E-12-1.17377E-12 1.00609E-12-2.20303E-24 3.11932E-25 3.12017E-25
 -1         2-5.86885E-13-5.86885E-13 5.03044E-13 3.25633E-20 1.55983E-25-7.71481E-21
 -1         3-7.72297E-12 2.23820E-11-6.06899E-12 1.63884E-12-1.95105E-24-2.66794E-13
 -1         4-7.72297E-12 1.96073E-11-5.30672E-12 1.63884E-12-2.09314E-24-2.66794E-13
 -1         5 4.07898E-12 7.83034E-13 7.19139E-13 7.01147E-12-3.37899E-18-3.03463E-12
 -1         6 8.15796E-12-6.12094E-11 1.86843E-11 1.14042E-11-6.75795E-18-6.00295E-12
 -1         7-5.86885E-13-5.86885E-13 5.03044E-13 3.25631E-20-7.71347E-21 1.55997E-25
 -1         8-3.91257E-13-3.91257E-13 3.35363E-13 4.34184E-20-5.14231E-21-5.14321E-21
 -1         9-5.14865E-12 1.49213E-11-4.04600E-12 1.67678E-13 9.24060E-20-1.77863E-13
 -1        10-5.14865E-12 1.30715E-11-3.53782E-12 1.67678E-13 8.43787E-20-1.77863E-13
 -1        11 9.73523E-13 5.22023E-13 7.54133E-13-5.78827E-12-5.91074E-14-2.02309E-12
 -1        12 1.46028E-12-3.06047E-11 9.75421E-12-9.99176E-12-8.86611E-14-3.00147E-12
 -1        13 2.23820E-11-7.72297E-12-6.06899E-12 1.63884E-12-2.66794E-13-1.95113E-24
 -1        14 1.49213E-11-5.14865E-12-4.04600E-12 1.67678E-13-1.77863E-13 9.26924E-20
 -1        15 4.76382E-12 4.76382E-12-5.77574E-12-1.76677E-12 1.05779E-12 1.05779E-12
 -1        16 4.76382E-12 1.57648E-11-8.79799E-12 3.73373E-12 1.05779E-12 1.05779E-12
 -1        17 8.29525E-12-8.48001E-12 4.87913E-13 5.78162E-12 3.45880E-13-8.56601E-13
 -1        18 1.24429E-11-2.60830E-11 4.40302E-12 1.13703E-11 5.18820E-13-1.28490E-12
 -1        19 1.96073E-11-7.72297E-12-5.30672E-12 1.63884E-12-2.66794E-13-2.09108E-24
 -1        20 1.30715E-11-5.14865E-12-3.53782E-12 1.67678E-13-1.77863E-13 8.41750E-20
 -1        21 1.57648E-11 4.76382E-12-8.79799E-12 3.73373E-12 1.05779E-12 1.05779E-12
 -1        22 1.57648E-11 1.57648E-11-1.18202E-11 9.23422E-12 1.05779E-12 1.05779E-12
 -1        23 1.18924E-11-8.48001E-12-5.00317E-13 1.32730E-12 3.45881E-13-8.56601E-13
 -1        24 1.78386E-11-2.60830E-11 2.92067E-12 4.68881E-12 5.18821E-13-1.28490E-12
 -1        25 7.83034E-13 4.07898E-12 7.19139E-13 7.01147E-12-3.03463E-12-3.37899E-18
 -1        26 5.22023E-13 9.73523E-13 7.54133E-13-5.78827E-12-2.02309E-12-5.91074E-14
 -1        27-8.48001E-12 8.29525E-12 4.87913E-13 5.78162E-12-8.56601E-13 3.45880E-13
 -1        28-8.48001E-12 1.18924E-11-5.00317E-13 1.32730E-12-8.56601E-13 3.45880E-13
 -1        29-1.84285E-39-1.06542E-18-7.15359E-20-5.32708E-19-4.84046E-19-4.84044E-19
 -1        30-2.76427E-39 1.91029E-18-1.42158E-20 9.55145E-19 7.35506E-19 7.35508E-19
 -1        31-6.12094E-11 8.15796E-12 1.86843E-11 1.14042E-11-6.00295E-12-6.75795E-18
 -1        32-3.06047E-11 1.46028E-12 9.75421E-12-9.99176E-12-3.00147E-12-8.86611E-14
 -1        33-2.60830E-11 1.24429E-11 4.40302E-12 1.13703E-11-1.28490E-12 5.18821E-13
 -1        34-2.60830E-11 1.78386E-11 2.92067E-12 4.68881E-12-1.28490E-12 5.18820E-13
 -1        35-1.03729E-39-5.76991E-19 1.53452E-19-2.88495E-19-2.27067E-19-2.27065E-19
 -1        36-2.07459E-39 1.40274E-18 4.23157E-19 7.01370E-19-8.01625E-19-8.01621E-19
 -1        37-1.17377E-12-1.17377E-12 1.00609E-12-2.20301E-24-3.01801E-21-3.01655E-21
 -1        38-5.86885E-13-5.86885E-13 5.03044E-13 3.25633E-20-1.50900E-21-9.22324E-21
 -1        39-7.72297E-12 2.23820E-11-6.06899E-12 1.63884E-12-1.02367E-19 2.66794E-13
 -1        40-7.72297E-12 1.96073E-11-5.30672E-12 1.63884E-12-1.30593E-19 2.66794E-13
 -1        41 4.17183E-12 5.34793E-13 7.19139E-13 7.01147E-12 2.88439E-13 3.00147E-12
 -1        42 8.34366E-12-6.17059E-11 1.86843E-11 1.14042E-11 5.76878E-13 6.06927E-12
 -1        43-5.86885E-13-5.86885E-13 5.03044E-13 3.25631E-20-9.22263E-21-1.50827E-21
 -1        44-3.91257E-13-3.91257E-13 3.35363E-13 4.34184E-20-6.14842E-21-6.14883E-21
 -1        45-5.14865E-12 1.49213E-11-4.04600E-12 1.67678E-13 2.41624E-20 1.77863E-13
 -1        46-5.14865E-12 1.30715E-11-3.53782E-12 1.67678E-13-2.68179E-21 1.77863E-13
 -1        47 1.03543E-12 3.56529E-13 7.54133E-13-5.78827E-12 1.33187E-13 2.00098E-12
 -1        48 1.55314E-12-3.08530E-11 9.75421E-12-9.99176E-12 1.99781E-13 3.03463E-12
 -1        49 2.23820E-11-7.72297E-12-6.06899E-12 1.63884E-12 2.66794E-13-1.03008E-19
 -1        50 1.49213E-11-5.14865E-12-4.04600E-12 1.67678E-13 1.77863E-13 2.40216E-20
 -1        51 4.76382E-12 4.76382E-12-5.77574E-12-1.76677E-12-1.05779E-12-1.05779E-12
 -1        52 4.76382E-12 1.57648E-11-8.79799E-12 3.73373E-12-1.05779E-12-1.05779E-12
 -1        53 8.29525E-12-8.48001E-12 4.87913E-13 5.78162E-12-3.45881E-13 8.56601E-13
 -1        54 1.24429E-11-2.60830E-11 4.40302E-12 1.13703E-11-5.18821E-13 1.28490E-12
 -1        55 1.96073E-11-7.72297E-12-5.30672E-12 1.63884E-12 2.66794E-13-1.30126E-19
 -1        56 1.30715E-11-5.14865E-12-3.53782E-12 1.67678E-13 1.77863E-13-2.57437E-21
 -1        57 1.57648E-11 4.76382E-12-8.79799E-12 3.73373E-12-1.05779E-12-1.05779E-12
 -1        58 1.57648E-11 1.57648E-11-1.18202E-11 9.23422E-12-1.05779E-12-1.05779E-12
 -1        59 1.18924E-11-8.48001E-12-5.00317E-13 1.32730E-12-3.45880E-13 8.56601E-13
 -1        60 1.78386E-11-2.60830E-11 2.92067E-12 4.68881E-12-5.18821E-13 1.28490E-12
 -1        61 5.34793E-13 4.17183E-12 7.19139E-13 7.01147E-12 3.00147E-12 2.88439E-13
 -1        62 3.56529E-13 1.03543E-12 7.54133E-13-5.78827E-12 2.00098E-12 1.33187E-13
 -1        63-8.48001E-12 8.29525E-12 4.87913E-13 5.78162E-12 8.56601E-13-3.45881E-13
 -1        64-8.48001E-12 1.18924E-11-5.00317E-13 1.32730E-12 8.56601E-13-3.45880E-13
 -1        65 9.21378E-39 9.05729E-19-7.15359E-20 4.52865E-19 5.00875E-20-2.81562E-20
 -1        66 1.38207E-38-2.07926E-18-1.42158E-20-1.03963E-18-2.45058E-19-3.37951E-19
 -1        67-6.17059E-11 8.34366E-12 1.86843E-11 1.14042E-11 6.06927E-12 5.76878E-13
 -1        68-3.08530E-11 1.55314E-12 9.75421E-12-9.99176E-12 3.03463E-12 1.99781E-13
 -1        69-2.60830E-11 1.24429E-11 4.40302E-12 1.13703E-11 1.28490E-12-5.18821E-13
 -1        70-2.60830E-11 1.78386E-11 2.92067E-12 4.68881E-12 1.28490E-12-5.18821E-13
 -1        71 5.18563E-39-2.12712E-18 1.53452E-19-1.06356E-18 4.83780E-19 3.41941E-19
 -1        72 1.03713E-38 2.43733E-18 4.23157E-19 1.21866E-18-5.49197E-19-7.83928E-19
 -3
    1PSTEP                        70          24           1          
  100CL  124 1.74781E-01          72                     0   24           1
 -4  DISP        4    1
 -5  D1          1    2    1    0
 -5  D2          1    2    2    0
 -5  D3          1    2    3    0
 -5  ALL         1    2    0    0    1ALL
 -1         1 0.00000E+00 0.00000E+00 0.00000E+00
 -1         2-4.13984E-10 0.00000E+00 0.00000E+00
 -1         3-2.17341E-02 0.00000E+00 0.00000E+00
 -1         4-2.17342E-02 0.00000E+00 0.00000E+00
 -1         5-9.69189E-02 0.00000E+00 0.00000E+00
 -1         6-9.69189E-02 0.00000E+00 0.00000E+00
 -1         7 0.00000E+00-4.13984E-10 0.00000E+00
 -1         8-4.13984E-10-4.13984E-10 0.00000E+00
 -1         9-2.17341E-02 2.24349E-08 0.00000E+00
 -1        10-2.17342E-02 1.96598E-08 0.00000E+00
 -1        11-9.69189E-02 3.07805E-09 0.00000E+00
 -1        12-9.69189E-02-3.01205E-08 0.00000E+00
 -1        13 0.00000E+00-2.17341E-02 0.00000E+00
 -1        14 2.24349E-08-2.17341E-02 0.00000E+00
 -1        15 7.34245E-01 7.34245E-01 0.00000E+00
 -1        16 7.34245E-01 7.34245E-01 0.00000E+00
 -1        17 1.22086E+00-2.53618E-01 0.00000E+00
 -1        18 1.22033E+00-9.83075E-01 0.00000E+00
 -1        19 0.00000E+00-2.17342E-02 0.00000E+00
 -1        20 1.96598E-08-2.17342E-02 0.00000E+00
 -1        21 7.34245E-01 7.34245E-01 0.00000E+00
 -1        22 7.34245E-01 7.34245E-01 0.00000E+00
 -1        23 1.95031E+00-2.54150E-01 0.00000E+00
 -1        24 1.94978E+00-9.83607E-01 0.00000E+00
 -1        25 0.00000E+00-9.69189E-02 0.00000E+00
 -1        26 3.07805E-09-9.69189E-02 0.00000E+00
 -1        27-2.53618E-01 1.22086E+00 0.00000E+00
 -1        28-2.54150E-01 1.95031E+00 0.00000E+00
 -1        29-5.24344E+00-5.24344E+00 0.00000E+00
 -1        30-5.24344E+00-5.24344E+00 0.00000E+00
 -1        31 0.00000E+00-9.69189E-02 0.00000E+00
 -1        32-3.01205E-08-9.69189E-02 0.00000E+00
 -1        33-9.83075E-01 1.22033E+00 0.00000E+00
 -1        34-9.83607E-01 1.94978E+00 0.00000E+00
 -1        35-5.24344E+00-5.24344E+00 0.00000E+00
 -1        36-5.24344E+00-5.24344E+00 0.00000E+00
 -1        37 0.00000E+00 0.00000E+00 4.96780E-10
 -1        38-4.13984E-10 0.00000E+00 4.96780E-10
 -1        39-2.17341E-02 0.00000E+00-8.65360E-09
 -1        40-2.17342E-02 0.00000E+00-7.58623E-09
 -1        41-9.69189E-02 0.00000E+00 8.99203E-12
 -1        42-9.69189E-02 0.00000E+00 1.27777E-08
 -1        43 0.00000E+00-4.13984E-10 4.96780E-10
 -1        44-4.13984E-10-4.13984E-10 4.96780E-10
 -1        45-2.17341E-02 2.24349E-08-8.65360E-09
 -1        46-2.17342E-02 1.96598E-08-7.58623E-09
 -1        47-9.69189E-02 2.82756E-09 5.91100E-10
 -1        48-9.69189E-02-3.03710E-08 1.33598E-08
 -1        49 0.00000E+00-2.17341E-02-8.65360E-09
 -1        50 2.24349E-08-2.17341E-02-8.65360E-09
 -1        51 7.34245E-01 7.34245E-01-1.19058E-08
 -1        52 7.34245E-01 7.34245E-01-1.85297E-08
 -1        53 1.22086E+00-2.53618E-01 2.59112E-10
 -1        54 1.22033E+00-9.83075E-01 5.92287E-09
 -1        55 0.00000E+00-2.17342E-02-7.58623E-09
 -1        56 1.96598E-08-2.17342E-02-7.58623E-09
 -1        57 7.34245E-01 7.34245E-01-1.85297E-08
 -1        58 7.34245E-01 7.34245E-01-2.51536E-08
 -1        59 1.95031E+00-2.54150E-01-2.03579E-09
 -1        60 1.94978E+00-9.83607E-01 3.62797E-09
 -1        61 0.00000E+00-9.69189E-02 8.99203E-12
 -1        62 2.82756E-09-9.69189E-02 5.91100E-10
 -1        63-2.53618E-01 1.22086E+00 2.59112E-10
 -1        64-2.54150E-01 1.95031E+00-2.03579E-09
 -1        65-5.24344E+00-5.24344E+00 2.46991E-16
 -1        66-5.24344E+00-5.24344E+00-2.46741E-16
 -1        67 0.00000E+00-9.69189E-02 1.27777E-08
 -1        68-3.03710E-08-9.69189E-02 1.33598E-08
 -1        69-9.83075E-01 1.22033E+00 5.92287E-09
 -1        70-9.83607E-01 1.94978E+00 3.62797E-09
 -1        71-5.24344E+00-5.24344E+00-7.72091E-17
 -1        72-5.24344E+00-5.24344E+00 2.59586E-17
 -3
    1PSTEP                        71          24           1          
  100CL  124 1.74781E-01          72                     0   24           1
 -4  STRESS      6    1
 -5  SXX         1    4    1    1
 -5  SYY         1    4    2    2
 -5  SZZ         1    4    3    3
 -5  SXY         1    4    1    2
 -5  SYZ         1    4    2    3
 -5  SZX         1    4    3    1
 -1         1-2.48380E-07-2.48380E-07-8.97765E-15-3.58532E-19 5.13745E-20 5.13769E-20
 -1         2-1.24190E-07-1.24190E-07 2.76024E-15 5.29953E-15 2.56824E-20-1.23845E-15
 -1         3-1.54974E-07 4.68277E-06 6.03470E-08 2.64783E-07-3.15318E-19-4.31051E-08
 -1         4-3.98826E-07 3.99062E-06-6.03470E-08 2.64783E-07-3.40127E-19-4.31051E-08
 -1         5 1.44233E-06 1.32899E-06 8.32712E-07 1.23261E-06-5.50778E-13-5.18357E-07
 -1         6-2.94960E-06-1.39019E-05-1.22224E-06 2.03837E-06-1.10155E-12-1.02590E-06
 -1         7-1.24190E-07-1.24190E-07 2.76024E-15 5.29953E-15-1.23845E-15 2.56804E-20
 -1         8-8.27934E-08-8.27934E-08 6.67287E-15 7.06616E-15-8.25635E-16-8.25635E-16
 -1         9-1.03316E-07 3.12185E-06 4.02314E-08 2.70912E-08 1.55738E-14-2.87367E-08
 -1        10-2.65884E-07 2.66042E-06-4.02314E-08 2.70912E-08 1.43011E-14-2.87367E-08
 -1        11 4.97146E-07 7.06156E-07 4.20078E-07-9.65863E-07-9.63451E-09-3.45571E-07
 -1        12-2.17141E-06-7.22070E-06-8.13715E-07-1.66222E-06-1.44518E-08-5.12951E-07
 -1        13 4.68277E-06-1.54974E-07 6.03470E-08 2.64783E-07-4.31051E-08-3.15634E-19
 -1        14 3.12185E-06-1.03316E-07 4.02314E-08 2.70912E-08-2.87367E-08 1.56045E-14
 -1        15 1.15195E-06 1.15195E-06-4.99338E-07-2.88961E-07 1.78335E-07 1.78335E-07
 -1        16 2.16082E-06 4.01550E-06 1.49561E-14 6.38381E-07 1.78335E-07 1.78335E-07
 -1        17 1.36835E-06-1.03100E-06 1.27110E-07 9.59745E-07 6.20078E-08-1.52394E-07
 -1        18 7.59983E-07-5.22061E-06-4.49772E-07 1.91807E-06 9.30117E-08-2.28592E-07
 -1        19 3.99062E-06-3.98826E-07-6.03470E-08 2.64783E-07-4.31051E-08-3.39987E-19
 -1        20 2.66042E-06-2.65884E-07-4.02314E-08 2.70912E-08-2.87367E-08 1.43219E-14
 -1        21 4.01550E-06 2.16082E-06 2.79441E-14 6.38381E-07 1.78335E-07 1.78335E-07
 -1        22 5.02437E-06 5.02437E-06 4.99338E-07 1.56572E-06 1.78335E-07 1.78335E-07
 -1        23 2.35813E-06-6.79156E-07 3.00109E-07 1.65890E-07 6.20078E-08-1.52394E-07
 -1        24 2.24466E-06-4.69284E-06-1.90273E-07 7.27289E-07 9.30117E-08-2.28592E-07
 -1        25 1.32899E-06 1.44233E-06 8.32712E-07 1.23261E-06-5.18357E-07-5.50778E-13
 -1        26 7.06156E-07 4.97146E-07 4.20078E-07-9.65863E-07-3.45571E-07-9.63451E-09
 -1        27-1.03100E-06 1.36835E-06 1.27110E-07 9.59746E-07-1.52394E-07 6.20078E-08
 -1        28-6.79156E-07 2.35813E-06 3.00109E-07 1.65890E-07-1.52394E-07 6.20078E-08
 -1        29 1.06977E-13 2.30615E-13 1.25977E-13 6.18187E-14 3.93445E-14 3.93446E-14
 -1        30 6.61016E-14 1.82707E-13 3.76319E-14 5.83026E-14-8.99991E-15-8.99984E-15
 -1        31-1.39019E-05-2.94960E-06-1.22224E-06 2.03837E-06-1.02590E-06-1.10155E-12
 -1        32-7.22070E-06-2.17141E-06-8.13715E-07-1.66222E-06-5.12951E-07-1.44518E-08
 -1        33-5.22061E-06 7.59983E-07-4.49772E-07 1.91807E-06-2.28592E-07 9.30117E-08
 -1        34-4.69284E-06 2.24466E-06-1.90273E-07 7.27289E-07-2.28592E-07 9.30117E-08
 -1        35 1.71816E-13 4.09813E-13 1.62908E-13 1.18998E-13-2.58279E-14-2.58275E-14
 -1        36-1.14730E-13-2.73694E-13-1.08740E-13-7.94818E-14 7.95702E-14 7.95706E-14
 -1        37-2.48380E-07-2.48380E-07-1.93809E-14-3.58531E-19-5.60350E-16-5.60350E-16
 -1        38-1.24190E-07-1.24190E-07-2.44136E-15 5.29953E-15-2.80175E-16-1.51865E-15
 -1        39-1.54974E-07 4.68277E-06 6.03470E-08 2.64783E-07-1.71940E-14 4.31051E-08
 -1        40-3.98826E-07 3.99062E-06-6.03471E-08 2.64783E-07-2.22917E-14 4.31051E-08
 -1        41 1.43847E-06 1.26954E-06 8.13715E-07 1.23261E-06 4.70155E-08 5.12952E-07
 -1        42-2.95733E-06-1.40208E-05-1.26023E-06 2.03837E-06 9.40311E-08 1.03671E-06
 -1        43-1.24190E-07-1.24190E-07-2.44136E-15 5.29953E-15-1.51865E-15-2.80175E-16
 -1        44-8.27934E-08-8.27934E-08 3.20514E-15 7.06616E-15-1.01244E-15-1.01244E-15
 -1        45-1.03316E-07 3.12185E-06 4.02314E-08 2.70912E-08 4.11073E-15 2.87367E-08
 -1        46-2.65884E-07 2.66042E-06-4.02314E-08 2.70912E-08-5.60480E-16 2.87367E-08
 -1        47 4.94572E-07 6.66516E-07 4.07414E-07-9.65863E-07 2.17096E-08 3.41968E-07
 -1        48-2.17527E-06-7.28016E-06-8.32712E-07-1.66222E-06 3.25643E-08 5.18357E-07
 -1        49 4.68277E-06-1.54974E-07 6.03470E-08 2.64783E-07 4.31051E-08-1.72794E-14
 -1        50 3.12185E-06-1.03316E-07 4.02314E-08 2.70912E-08 2.87367E-08 4.08445E-15
 -1        51 1.15195E-06 1.15195E-06-4.99338E-07-2.88961E-07-1.78335E-07-1.78335E-07
 -1        52 2.16082E-06 4.01550E-06 3.08748E-14 6.38381E-07-1.78335E-07-1.78335E-07
 -1        53 1.36835E-06-1.03100E-06 1.27110E-07 9.59746E-07-6.20078E-08 1.52394E-07
 -1        54 7.59983E-07-5.22061E-06-4.49772E-07 1.91807E-06-9.30117E-08 2.28592E-07
 -1        55 3.99062E-06-3.98826E-07-6.03471E-08 2.64783E-07 4.31051E-08-2.22705E-14
 -1        56 2.66042E-06-2.65884E-07-4.02314E-08 2.70912E-08 2.87367E-08-5.25476E-16
 -1        57 4.01550E-06 2.16082E-06-2.01721E-14 6.38381E-07-1.78335E-07-1.78335E-07
 -1        58 5.02437E-06 5.02437E-06 4.99338E-07 1.56572E-06-1.78335E-07-1.78335E-07
 -1        59 2.35813E-06-6.79156E-07 3.00109E-07 1.65890E-07-6.20078E-08 1.52395E-07
 -1        60 2.24466E-06-4.69284E-06-1.90273E-07 7.27289E-07-9.30117E-08 2.28592E-07
 -1        61 1.26954E-06 1.43847E-06 8.13715E-07 1.23261E-06 5.12952E-07 4.70155E-08
 -1        62 6.66516E-07 4.94572E-07 4.07414E-07-9.65863E-07 3.41968E-07 2.17096E-08
 -1        63-1.03100E-06 1.36835E-06 1.27110E-07 9.59746E-07 1.52394E-07-6.20078E-08
 -1        64-6.79156E-07 2.35813E-06 3.00109E-07 1.65890E-07 1.52395E-07-6.20078E-08
 -1        65-1.43040E-13-3.52759E-13-1.24041E-13-1.04860E-13-3.01152E-14-3.92437E-14
 -1        66 6.61408E-14 1.82798E-13 3.76710E-14 5.83287E-14 1.08057E-13 4.61534E-14
 -1        67-1.40208E-05-2.95733E-06-1.26023E-06 2.03837E-06 1.03671E-06 9.40311E-08
 -1        68-7.28016E-06-2.17527E-06-8.32712E-07-1.66222E-06 5.18357E-07 3.25643E-08
 -1        69-5.22061E-06 7.59983E-07-4.49772E-07 1.91807E-06 2.28592E-07-9.30117E-08
 -1        70-4.69284E-06 2.24466E-06-1.90273E-07 7.27289E-07 2.28592E-07-9.30117E-08
 -1        71-2.32057E-13-5.32557E-13-2.40965E-13-1.50250E-13-2.95552E-15 3.15625E-14
 -1        72 1.00666E-13 2.28897E-13 1.06656E-13 6.41154E-14-1.37471E-13-1.64856E-13
 -3
    1PSTEP                        72          24           1          
  100CL  124 1.74781E-01          72                     0   24           1
 -4  TOSTRAIN    6    1
 -5  EXX         1    4    1    1
 -5  EYY         1    4    2    2
 -5  EZZ         1    4    3    3
 -5  EXY         1    4    1    2
 -5  EYZ         1    4    2    3
 -5  EZX         1    4    3    1
 -1         1-8.27934E-13-8.27934E-13 7.09658E-13-2.21949E-24 3.18033E-25 3.18048E-25
 -1         2-4.13967E-13-4.13967E-13 3.54829E-13 3.28066E-20 1.58986E-25-7.66661E-21
 -1         3-7.51385E-12 2.24341E-11-6.18091E-12 1.63913E-12-1.95194E-24-2.66841E-13
 -1         4-7.51385E-12 1.96589E-11-5.41851E-12 1.63913E-12-2.10553E-24-2.66841E-13
 -1         5 3.78007E-12 3.07849E-12 6.26134E-15 7.63043E-12-3.40958E-18-3.20888E-12
 -1         6 7.56015E-12-6.02396E-11 1.82534E-11 1.26185E-11-6.81912E-18-6.35083E-12
 -1         7-4.13967E-13-4.13967E-13 3.54829E-13 3.28066E-20-7.66661E-21 1.58974E-25
 -1         8-2.75978E-13-2.75978E-13 2.36553E-13 4.37429E-20-5.11107E-21-5.11107E-21
 -1         9-5.00924E-12 1.49561E-11-4.12061E-12 1.67707E-13 9.64084E-20-1.77894E-13
 -1        10-5.00924E-12 1.31060E-11-3.61234E-12 1.67707E-13 8.85295E-20-1.77894E-13
 -1        11 7.58459E-13 2.05233E-12 2.81367E-13-5.97915E-12-5.96422E-14-2.13925E-12
 -1        12 1.13769E-12-3.01198E-11 9.54246E-12-1.02899E-11-8.94633E-14-3.17541E-12
 -1        13 2.24341E-11-7.51385E-12-6.18091E-12 1.63913E-12-2.66841E-13-1.95390E-24
 -1        14 1.49561E-11-5.00924E-12-4.12061E-12 1.67707E-13-1.77894E-13 9.65984E-20
 -1        15 4.55317E-12 4.55317E-12-5.66908E-12-1.78880E-12 1.10398E-12 1.10398E-12
 -1        16 4.55317E-12 1.60345E-11-8.82331E-12 3.95188E-12 1.10398E-12 1.10398E-12
 -1        17 7.78985E-12-7.02852E-12 1.23354E-13 5.96293E-12 3.82481E-13-9.43953E-13
 -1        18 1.16848E-11-2.52685E-11 4.23055E-12 1.19277E-11 5.73722E-13-1.41593E-12
 -1        19 1.96589E-11-7.51385E-12-5.41851E-12 1.63913E-12-2.66841E-13-2.10466E-24
 -1        20 1.31060E-11-5.00924E-12-3.61234E-12 1.67707E-13-1.77894E-13 8.86586E-20
 -1        21 1.60345E-11 4.55317E-12-8.82331E-12 3.95188E-12 1.10398E-12 1.10398E-12
 -1        22 1.60345E-11 1.60345E-11-1.19775E-11 9.69257E-12 1.10398E-12 1.10398E-12
 -1        23 1.17677E-11-7.02852E-12-9.69449E-13 1.05437E-12 3.82481E-13-9.43953E-13
 -1        24 1.76515E-11-2.52685E-11 2.59134E-12 4.56490E-12 5.73721E-13-1.41593E-12
 -1        25 3.07849E-12 3.78007E-12 6.26134E-15 7.63043E-12-3.20888E-12-3.40958E-18
 -1        26 2.05233E-12 7.58459E-13 2.81367E-13-5.97915E-12-2.13925E-12-5.96422E-14
 -1        27-7.02852E-12 7.78985E-12 1.23354E-13 5.96293E-12-9.43953E-13 3.82481E-13
 -1        28-7.02852E-12 1.17677E-11-9.69449E-13 1.05437E-12-9.43953E-13 3.82481E-13
 -1        29-2.04878E-38 7.65374E-19 1.17614E-19 3.82687E-19 2.43561E-19 2.43562E-19
 -1        30-3.07318E-38 7.21842E-19-1.76241E-19 3.60921E-19-5.57137E-20-5.57133E-20
 -1        31-6.02396E-11 7.56015E-12 1.82534E-11 1.26185E-11-6.35083E-12-6.81912E-18
 -1        32-3.01198E-11 1.13769E-12 9.54246E-12-1.02899E-11-3.17541E-12-8.94633E-14
 -1        33-2.52685E-11 1.16848E-11 4.23055E-12 1.19277E-11-1.41593E-12 5.73722E-13
 -1        34-2.52685E-11 1.76515E-11 2.59134E-12 4.56490E-12-1.41593E-12 5.73721E-13
 -1        35 8.12176E-39 1.47331E-18-5.51479E-20 7.36657E-19-1.59887E-19-1.59885E-19
 -1        36 1.62435E-38-9.84061E-19 3.70827E-20-4.92030E-19 4.92577E-19 4.92580E-19
 -1        37-8.27934E-13-8.27934E-13 7.09658E-13-2.21947E-24-3.46884E-21-3.46884E-21
 -1        38-4.13967E-13-4.13967E-13 3.54829E-13 3.28066E-20-1.73442E-21-9.40118E-21
 -1        39-7.51385E-12 2.24341E-11-6.18091E-12 1.63913E-12-1.06443E-19 2.66841E-13
 -1        40-7.51385E-12 1.96589E-11-5.41851E-12 1.63913E-12-1.38000E-19 2.66841E-13
 -1        41 3.87377E-12 2.82800E-12 6.26134E-15 7.63043E-12 2.91049E-13 3.17541E-12
 -1        42 7.74754E-12-6.07406E-11 1.82534E-11 1.26185E-11 5.82097E-13 6.41775E-12
 -1        43-4.13967E-13-4.13967E-13 3.54829E-13 3.28066E-20-9.40118E-21-1.73442E-21
 -1        44-2.75978E-13-2.75978E-13 2.36553E-13 4.37429E-20-6.26746E-21-6.26746E-21
 -1        45-5.00924E-12 1.49561E-11-4.12061E-12 1.67707E-13 2.54480E-20 1.77894E-13
 -1        46-5.00924E-12 1.31060E-11-3.61234E-12 1.67707E-13-3.46901E-21 1.77894E-13
 -1        47 8.20921E-13 1.88534E-12 2.81367E-13-5.97915E-12 1.34393E-13 2.11694E-12
 -1        48 1.23138E-12-3.03703E-11 9.54246E-12-1.02899E-11 2.01589E-13 3.20888E-12
 -1        49 2.24341E-11-7.51385E-12-6.18091E-12 1.63913E-12 2.66841E-13-1.06971E-19
 -1        50 1.49561E-11-5.00924E-12-4.12061E-12 1.67707E-13 1.77894E-13 2.52853E-20
 -1        51 4.55317E-12 4.55317E-12-5.66908E-12-1.78880E-12-1.10398E-12-1.10398E-12
 -1        52 4.55317E-12 1.60345E-11-8.82331E-12 3.95188E-12-1.10398E-12-1.10398E-12
 -1        53 7.78986E-12-7.02852E-12 1.23354E-13 5.96293E-12-3.82481E-13 9.43953E-13
 -1        54 1.16848E-11-2.52685E-11 4.23055E-12 1.19277E-11-5.73722E-13 1.41593E-12
 -1        55 1.96589E-11-7.51385E-12-5.41851E-12 1.63913E-12 2.66841E-13-1.37869E-19
 -1        56 1.31060E-11-5.00924E-12-3.61234E-12 1.67707E-13 1.77894E-13-3.25232E-21
 -1        57 1.60345E-11 4.55317E-12-8.82331E-12 3.95188E-12-1.10398E-12-1.10398E-12
 -1        58 1.60345E-11 1.60345E-11-1.19775E-11 9.69257E-12-1.10398E-12-1.10398E-12
 -1        59 1.17677E-11-7.02852E-12-9.69449E-13 1.05437E-12-3.82481E-13 9.43954E-13
 -1        60 1.76515E-11-2.52685E-11 2.59134E-12 4.56490E-12-5.73722E-13 1.41593E-12
 -1        61 2.82800E-12 3.87377E-12 6.26134E-15 7.63043E-12 3.17541E-12 2.91049E-13
 -1        62 1.88534E-12 8.20921E-13 2.81367E-13-5.97915E-12 2.11694E-12 1.34393E-13
 -1        63-7.02852E-12 7.78986E-12 1.23354E-13 5.96293E-12 9.43953E-13-3.82481E-13
 -1        64-7.02852E-12 1.17677E-11-9.69449E-13 1.05437E-12 9.43954E-13-3.82481E-13
 -1        65 1.02437E-37-1.29826E-18 1.17614E-19-6.49131E-19-1.86428E-19-2.42937E-19
 -1        66 1.53656E-37 7.22165E-19-1.76241E-19 3.61083E-19 6.68922E-19 2.85711E-19
 -1        67-6.07406E-11 7.74754E-12 1.82534E-11 1.26185E-11 6.41775E-12 5.82097E-13
 -1        68-3.03703E-11 1.23138E-12 9.54246E-12-1.02899E-11 3.20888E-12 2.01589E-13
 -1        69-2.52685E-11 1.16848E-11 4.23055E-12 1.19277E-11 1.41593E-12-5.73722E-13
 -1        70-2.52685E-11 1.76515E-11 2.59134E-12 4.56490E-12 1.41593E-12-5.73722E-13
 -1        71-4.06150E-38-1.86024E-18-5.51479E-20-9.30120E-19-1.82961E-20 1.95387E-19
 -1        72-8.12301E-38 7.93810E-19 3.70827E-20 3.96905E-19-8.51010E-19-1.02054E-18
 -3
    1PSTEP                        73          25           1          
  100CL  125 1.83781E-01          72                     0   25           1
 -4  DISP        4    1
 -5  D1          1    2    1    0
 -5  D2          1    2    2    0
 -5  D3          1    2    3    0
 -5  ALL         1    2    0    0    1ALL
 -1         1 0.00000E+00 0.00000E+00 0.00000E+00
 -1         2-2.54443E-10 0.00000E+00 0.00000E+00
 -1         3-1.33583E-02 0.00000E+00 0.00000E+00
 -1         4-1.33583E-02 0.00000E+00 0.00000E+00
 -1         5-7.93166E-02 0.00000E+00 0.00000E+00
 -1         6-7.93166E-02 0.00000E+00 0.00000E+00
 -1         7 0.00000E+00-2.54443E-10 0.00000E+00
 -1         8-2.54443E-10-2.54443E-10 0.00000E+00
 -1         9-1.33583E-02 2.22806E-08 0.00000E+00
 -1        10-1.33583E-02 1.95496E-08 0.00000E+00
 -1        11-7.93166E-02 5.14218E-09 0.00000E+00
 -1        12-7.93166E-02-2.94541E-08 0.00000E+00
 -1        13 0.00000E+00-1.33583E-02 0.00000E+00
 -1        14 2.22806E-08-1.33583E-02 0.00000E+00
 -1        15 7.32663E-01 7.32663E-01 0.00000E+00
 -1        16 7.32663E-01 7.32663E-01 0.00000E+00
 -1        17 1.20676E+00-1.87701E-01 0.00000E+00
 -1        18 1.20621E+00-9.34237E-01 0.00000E+00
 -1        19 0.00000E+00-1.33583E-02 0.00000E+00
 -1        20 1.95496E-08-1.33583E-02 0.00000E+00
 -1        21 7.32663E-01 7.32663E-01 0.00000E+00
 -1        22 7.32663E-01 7.32663E-01 0.00000E+00
 -1        23 1.95330E+00-1.88259E-01 0.00000E+00
 -1        24 1.95274E+00-9.34795E-01 0.00000E+00
 -1        25 0.00000E+00-7.93166E-02 0.00000E+00
 -1        26 5.14218E-09-7.93166E-02 0.00000E+00
 -1        27-1.87701E-01 1.20676E+00 0.00000E+00
 -1        28-1.88259E-01 1.95330E+00 0.00000E+00
 -1        29-5.51344E+00-5.51344E+00 0.00000E+00
 -1        30-5.51344E+00-5.51344E+00 0.00000E+00
 -1        31 0.00000E+00-7.93166E-02 0.00000E+00
 -1        32-2.94541E-08-7.93166E-02 0.00000E+00
 -1        33-9.34237E-01 1.20621E+00 0.00000E+00
 -1        34-9.34795E-01 1.95274E+00 0.00000E+00
 -1        35-5.51344E+00-5.51344E+00 0.00000E+00
 -1        36-5.51344E+00-5.51344E+00 0.00000E+00
 -1        37 0.00000E+00 0.00000E+00 3.05332E-10
 -1        38-2.54443E-10 0.00000E+00 3.05332E-10
 -1        39-1.33583E-02 0.00000E+00-8.72033E-09
 -1        40-1.33583E-02 0.00000E+00-7.66995E-09
 -1        41-7.93166E-02 0.00000E+00-9.03554E-10
 -1        42-7.93166E-02 0.00000E+00 1.24027E-08
 -1        43 0.00000E+00-2.54443E-10 3.05332E-10
 -1        44-2.54443E-10-2.54443E-10 3.05332E-10
 -1        45-1.33583E-02 2.22806E-08-8.72033E-09
 -1        46-1.33583E-02 1.95496E-08-7.66995E-09
 -1        47-7.93166E-02 4.89458E-09-3.28177E-10
 -1        48-7.93166E-02-2.97017E-08 1.29781E-08
 -1        49 0.00000E+00-1.33583E-02-8.72033E-09
 -1        50 2.22806E-08-1.33583E-02-8.72033E-09
 -1        51 7.32663E-01 7.32663E-01-1.15854E-08
 -1        52 7.32663E-01 7.32663E-01-1.84126E-08
 -1        53 1.20676E+00-1.87701E-01-4.21852E-10
 -1        54 1.20621E+00-9.34237E-01 5.69171E-09
 -1        55 0.00000E+00-1.33583E-02-7.66995E-09
 -1        56 1.95496E-08-1.33583E-02-7.66995E-09
 -1        57 7.32663E-01 7.32663E-01-1.84126E-08
 -1        58 7.32663E-01 7.32663E-01-2.52397E-08
 -1        59 1.95330E+00-1.88259E-01-2.95932E-09
 -1        60 1.95274E+00-9.34795E-01 3.15425E-09
 -1        61 0.00000E+00-7.93166E-02-9.03554E-10
 -1        62 4.89458E-09-7.93166E-02-3.28177E-10
 -1        63-1.87701E-01 1.20676E+00-4.21852E-10
 -1        64-1.88259E-01 1.95330E+00-2.95932E-09
 -1        65-5.51344E+00-5.51344E+00 4.01414E-17
 -1        66-5.51344E+00-5.51344E+00 2.32493E-17
 -1        67 0.00000E+00-7.93166E-02 1.24027E-08
 -1        68-2.97017E-08-7.93166E-02 1.29781E-08
 -1        69-9.34237E-01 1.20621E+00 5.69171E-09
 -1        70-9.34795E-01 1.95274E+00 3.15425E-09
 -1        71-5.51344E+00-5.51344E+00 5.86145E-18
 -1        72-5.51344E+00-5.51344E+00 3.31808E-16
 -3
    1PSTEP                        74          25           1          
  100CL  125 1.83781E-01          72                     0   25           1
 -4  STRESS      6    1
 -5  SXX         1    4    1    1
 -5  SYY         1    4    2    2
 -5  SZZ         1    4    3    3
 -5  SXY         1    4    1    2
 -5  SYZ         1    4    2    3
 -5  SZX         1    4    3    1
 -1         1-1.52660E-07-1.52660E-07-8.92556E-15-3.55129E-19 5.14072E-20 5.14100E-20
 -1         2-7.63299E-08-7.63299E-08 2.64130E-15 5.24924E-15 2.57041E-20-1.21175E-15
 -1         3-1.06624E-07 4.66458E-06 5.93868E-08 2.60570E-07-3.07404E-19-4.24192E-08
 -1         4-3.46595E-07 3.98345E-06-5.93868E-08 2.60570E-07-3.32297E-19-4.24192E-08
 -1         5 1.52780E-06 1.79683E-06 8.61825E-07 1.31418E-06-5.44411E-13-5.40036E-07
 -1         6-3.02429E-06-1.36634E-05-1.28559E-06 2.20645E-06-1.08882E-12-1.06939E-06
 -1         7-7.63299E-08-7.63299E-08 2.64130E-15 5.24924E-15-1.21175E-15 2.57021E-20
 -1         8-5.08866E-08-5.08866E-08 6.49692E-15 6.99910E-15-8.07832E-16-8.07832E-16
 -1         9-7.10828E-08 3.10972E-06 3.95912E-08 2.66601E-08 1.61095E-14-2.82794E-08
 -1        10-2.31064E-07 2.65563E-06-3.95912E-08 2.66601E-08 1.47722E-14-2.82795E-08
 -1        11 5.59499E-07 1.02012E-06 4.41048E-07-9.86743E-07-9.52310E-09-3.60024E-07
 -1        12-2.20070E-06-7.09836E-06-8.43048E-07-1.69107E-06-1.42847E-08-5.34693E-07
 -1        13 4.66458E-06-1.06624E-07 5.93868E-08 2.60570E-07-4.24192E-08-3.07286E-19
 -1        14 3.10972E-06-7.10828E-08 3.95912E-08 2.66601E-08-2.82794E-08 1.60863E-14
 -1        15 1.07303E-06 1.07303E-06-5.14657E-07-2.90201E-07 1.83806E-07 1.83806E-07
 -1        16 2.11284E-06 4.02443E-06 2.55364E-14 6.65591E-07 1.83806E-07 1.83806E-07
 -1        17 1.33651E-06-7.45713E-07 1.35050E-07 9.74877E-07 6.85616E-08-1.64493E-07
 -1        18 6.09648E-07-5.08454E-06-4.88724E-07 1.99134E-06 1.02842E-07-2.46739E-07
 -1        19 3.98345E-06-3.46595E-07-5.93868E-08 2.60570E-07-4.24192E-08-3.32365E-19
 -1        20 2.65563E-06-2.31064E-07-3.95912E-08 2.66601E-08-2.82795E-08 1.47816E-14
 -1        21 4.02443E-06 2.11284E-06 3.76917E-15 6.65591E-07 1.83806E-07 1.83806E-07
 -1        22 5.06425E-06 5.06425E-06 5.14657E-07 1.62138E-06 1.83806E-07 1.83806E-07
 -1        23 2.43091E-06-3.56682E-07 3.26335E-07 1.17926E-07 6.85617E-08-1.64493E-07
 -1        24 2.25125E-06-4.50100E-06-2.01796E-07 7.05918E-07 1.02842E-07-2.46739E-07
 -1        25 1.79683E-06 1.52780E-06 8.61825E-07 1.31418E-06-5.40036E-07-5.44411E-13
 -1        26 1.02012E-06 5.59499E-07 4.41048E-07-9.86743E-07-3.60024E-07-9.52310E-09
 -1        27-7.45713E-07 1.33651E-06 1.35050E-07 9.74877E-07-1.64493E-07 6.85616E-08
 -1        28-3.56682E-07 2.43091E-06 3.26335E-07 1.17926E-07-1.64493E-07 6.85617E-08
 -1        29 1.49071E-14 3.16959E-14 1.79946E-14 8.39436E-15-3.79511E-14-3.79512E-14
 -1        30 2.25315E-14 4.98912E-14 2.52138E-14 1.36799E-14 1.32157E-13 1.32157E-13
 -1        31-1.36634E-05-3.02429E-06-1.28559E-06 2.20645E-06-1.06939E-06-1.08882E-12
 -1        32-7.09836E-06-2.20070E-06-8.43048E-07-1.69107E-06-5.34693E-07-1.42847E-08
 -1        33-5.08454E-06 6.09648E-07-4.88724E-07 1.99134E-06-2.46739E-07 1.02842E-07
 -1        34-4.50100E-06 2.25125E-06-2.01796E-07 7.05918E-07-2.46739E-07 1.02842E-07
 -1        35 5.21054E-14 1.20903E-13 5.27814E-14 3.43990E-14-2.06336E-14-2.06335E-14
 -1        36-1.45696E-13-4.16528E-13-6.91266E-14-1.35416E-13-6.94404E-14-6.94405E-14
 -1        37-1.52660E-07-1.52660E-07-1.91045E-14-3.55129E-19-6.15979E-16-6.15979E-16
 -1        38-7.63300E-08-7.63299E-08-2.44815E-15 5.24924E-15-3.07990E-16-1.51976E-15
 -1        39-1.06624E-07 4.66458E-06 5.93868E-08 2.60570E-07-1.79380E-14 4.24192E-08
 -1        40-3.46595E-07 3.98345E-06-5.93868E-08 2.60570E-07-2.29384E-14 4.24191E-08
 -1        41 1.52398E-06 1.73805E-06 8.43048E-07 1.31418E-06 4.64719E-08 5.34693E-07
 -1        42-3.03193E-06-1.37810E-05-1.32315E-06 2.20645E-06 9.29438E-08 1.08007E-06
 -1        43-7.63299E-08-7.63300E-08-2.44815E-15 5.24924E-15-1.51976E-15-3.07990E-16
 -1        44-5.08866E-08-5.08866E-08 3.10396E-15 6.99910E-15-1.01318E-15-1.01318E-15
 -1        45-7.10828E-08 3.10972E-06 3.95912E-08 2.66601E-08 4.15040E-15 2.82794E-08
 -1        46-2.31064E-07 2.65563E-06-3.95912E-08 2.66601E-08-5.20480E-16 2.82794E-08
 -1        47 5.56954E-07 9.80941E-07 4.28531E-07-9.86743E-07 2.14585E-08 3.56462E-07
 -1        48-2.20452E-06-7.15713E-06-8.61825E-07-1.69107E-06 3.21878E-08 5.40036E-07
 -1        49 4.66458E-06-1.06624E-07 5.93868E-08 2.60570E-07 4.24192E-08-1.78906E-14
 -1        50 3.10972E-06-7.10828E-08 3.95912E-08 2.66601E-08 2.82794E-08 4.15882E-15
 -1        51 1.07303E-06 1.07303E-06-5.14657E-07-2.90201E-07-1.83806E-07-1.83806E-07
 -1        52 2.11284E-06 4.02443E-06 1.52715E-14 6.65591E-07-1.83806E-07-1.83806E-07
 -1        53 1.33651E-06-7.45713E-07 1.35050E-07 9.74877E-07-6.85617E-08 1.64493E-07
 -1        54 6.09648E-07-5.08454E-06-4.88724E-07 1.99134E-06-1.02842E-07 2.46739E-07
 -1        55 3.98345E-06-3.46595E-07-5.93868E-08 2.60570E-07 4.24191E-08-2.29622E-14
 -1        56 2.65563E-06-2.31064E-07-3.95912E-08 2.66601E-08 2.82794E-08-5.26943E-16
 -1        57 4.02443E-06 2.11284E-06 4.44037E-14 6.65591E-07-1.83806E-07-1.83806E-07
 -1        58 5.06425E-06 5.06425E-06 5.14657E-07 1.62138E-06-1.83806E-07-1.83806E-07
 -1        59 2.43091E-06-3.56682E-07 3.26335E-07 1.17926E-07-6.85616E-08 1.64493E-07
 -1        60 2.25125E-06-4.50100E-06-2.01796E-07 7.05918E-07-1.02843E-07 2.46739E-07
 -1        61 1.73805E-06 1.52398E-06 8.43048E-07 1.31418E-06 5.34693E-07 4.64719E-08
 -1        62 9.80941E-07 5.56954E-07 4.28531E-07-9.86743E-07 3.56462E-07 2.14585E-08
 -1        63-7.45713E-07 1.33651E-06 1.35050E-07 9.74877E-07 1.64493E-07-6.85617E-08
 -1        64-3.56682E-07 2.43091E-06 3.26335E-07 1.17926E-07 1.64493E-07-6.85617E-08
 -1        65-3.50586E-14-8.48910E-14-3.19712E-14-2.49162E-14 6.72749E-14 6.82112E-14
 -1        66-1.28398E-13-3.02277E-13-1.25716E-13-8.69397E-14-4.31080E-14-6.93942E-14
 -1        67-1.37810E-05-3.03193E-06-1.32315E-06 2.20645E-06 1.08007E-06 9.29438E-08
 -1        68-7.15713E-06-2.20452E-06-8.61825E-07-1.69107E-06 5.40036E-07 3.21878E-08
 -1        69-5.08454E-06 6.09648E-07-4.88724E-07 1.99134E-06 2.46739E-07-1.02842E-07
 -1        70-4.50100E-06 2.25125E-06-2.01796E-07 7.05918E-07 2.46739E-07-1.02843E-07
 -1        71-1.38230E-13-3.23212E-13-1.37554E-13-9.24913E-14-1.64480E-13-1.35385E-13
 -1        72 4.13715E-13 8.88766E-13 4.90285E-13 2.37525E-13 9.14530E-14 9.42617E-14
 -3
    1PSTEP                        75          25           1          
  100CL  125 1.83781E-01          72                     0   25           1
 -4  TOSTRAIN    6    1
 -5  EXX         1    4    1    1
 -5  EYY         1    4    2    2
 -5  EZZ         1    4    3    3
 -5  EXY         1    4    1    2
 -5  EYZ         1    4    2    3
 -5  EZX         1    4    3    1
 -1         1-5.08866E-13-5.08866E-13 4.36171E-13-2.19841E-24 3.18235E-25 3.18252E-25
 -1         2-2.54433E-13-2.54433E-13 2.18086E-13 3.24953E-20 1.59121E-25-7.50130E-21
 -1         3-7.25626E-12 2.22798E-11-6.22857E-12 1.61305E-12-1.90295E-24-2.62595E-13
 -1         4-7.25626E-12 1.95488E-11-5.47830E-12 1.61305E-12-2.05705E-24-2.62595E-13
 -1         5 3.47717E-12 5.14256E-12-6.45537E-13 8.13541E-12-3.37016E-18-3.34308E-12
 -1         6 6.95434E-12-5.89070E-11 1.77177E-11 1.36590E-11-6.74029E-18-6.62001E-12
 -1         7-2.54433E-13-2.54433E-13 2.18086E-13 3.24953E-20-7.50130E-21 1.59108E-25
 -1         8-1.69622E-13-1.69622E-13 1.45390E-13 4.33278E-20-5.00086E-21-5.00086E-21
 -1         9-4.83751E-12 1.48532E-11-4.15238E-12 1.65038E-13 9.97243E-20-1.75063E-13
 -1        10-4.83751E-12 1.30325E-11-3.65220E-12 1.65039E-13 9.14459E-20-1.75063E-13
 -1        11 5.76892E-13 3.42837E-12-1.56371E-13-6.10841E-12-5.89525E-14-2.22872E-12
 -1        12 8.65338E-13-2.94535E-11 9.26985E-12-1.04685E-11-8.84288E-14-3.31001E-12
 -1        13 2.22798E-11-7.25626E-12-6.22857E-12 1.61305E-12-2.62595E-13-1.90223E-24
 -1        14 1.48532E-11-4.83751E-12-4.15238E-12 1.65038E-13-1.75063E-13 9.95809E-20
 -1        15 4.31198E-12 4.31198E-12-5.51654E-12-1.79648E-12 1.13785E-12 1.13785E-12
 -1        16 4.31198E-12 1.61456E-11-8.76753E-12 4.12033E-12 1.13785E-12 1.13785E-12
 -1        17 7.21867E-12-5.63520E-12-2.00902E-13 6.05417E-12 4.22908E-13-1.01892E-12
 -1        18 1.08280E-11-2.43480E-11 4.06545E-12 1.23799E-11 6.34363E-13-1.52838E-12
 -1        19 1.95488E-11-7.25626E-12-5.47830E-12 1.61305E-12-2.62595E-13-2.05748E-24
 -1        20 1.30325E-11-4.83751E-12-3.65220E-12 1.65039E-13-1.75063E-13 9.15041E-20
 -1        21 1.61456E-11 4.31198E-12-8.76753E-12 4.12033E-12 1.13785E-12 1.13785E-12
 -1        22 1.61456E-11 1.61456E-11-1.20185E-11 1.00371E-11 1.13785E-12 1.13785E-12
 -1        23 1.16169E-11-5.63520E-12-1.40921E-12 7.55781E-13 4.22909E-13-1.01892E-12
 -1        24 1.74254E-11-2.43480E-11 2.25299E-12 4.43236E-12 6.34363E-13-1.52838E-12
 -1        25 5.14256E-12 3.47717E-12-6.45537E-13 8.13541E-12-3.34308E-12-3.37016E-18
 -1        26 3.42837E-12 5.76892E-13-1.56371E-13-6.10841E-12-2.22872E-12-5.89525E-14
 -1        27-5.63520E-12 7.21867E-12-2.00903E-13 6.05417E-12-1.01892E-12 4.22908E-13
 -1        28-5.63520E-12 1.16169E-11-1.40921E-12 7.55781E-13-1.01892E-12 4.22908E-13
 -1        29 2.14454E-39 1.03930E-19 1.91129E-20 5.19651E-20-2.34936E-19-2.34936E-19
 -1        30 3.21681E-39 1.69370E-19 1.66046E-20 8.46849E-20 8.18115E-19 8.18114E-19
 -1        31-5.89070E-11 6.95434E-12 1.77177E-11 1.36590E-11-6.62001E-12-6.74029E-18
 -1        32-2.94535E-11 8.65338E-13 9.26985E-12-1.04685E-11-3.31001E-12-8.84288E-14
 -1        33-2.43480E-11 1.08280E-11 4.06545E-12 1.23799E-11-1.52838E-12 6.34363E-13
 -1        34-2.43480E-11 1.74254E-11 2.25299E-12 4.43236E-12-1.52838E-12 6.34363E-13
 -1        35-1.44420E-38 4.25892E-19 4.18473E-21 2.12946E-19-1.27732E-19-1.27731E-19
 -1        36-2.88840E-38-1.67658E-18 4.74003E-19-8.38288E-19-4.29869E-19-4.29870E-19
 -1        37-5.08866E-13-5.08866E-13 4.36171E-13-2.19842E-24-3.81320E-21-3.81320E-21
 -1        38-2.54433E-13-2.54433E-13 2.18086E-13 3.24953E-20-1.90660E-21-9.40806E-21
 -1        39-7.25626E-12 2.22798E-11-6.22857E-12 1.61305E-12-1.11048E-19 2.62595E-13
 -1        40-7.25626E-12 1.95488E-11-5.47830E-12 1.61305E-12-1.42003E-19 2.62595E-13
 -1        41 3.56978E-12 4.89497E-12-6.45537E-13 8.13541E-12 2.87683E-13 3.31001E-12
 -1        42 7.13956E-12-5.94022E-11 1.77177E-11 1.36590E-11 5.75367E-13 6.68616E-12
 -1        43-2.54433E-13-2.54433E-13 2.18086E-13 3.24953E-20-9.40806E-21-1.90660E-21
 -1        44-1.69622E-13-1.69622E-13 1.45390E-13 4.33278E-20-6.27204E-21-6.27204E-21
 -1        45-4.83751E-12 1.48532E-11-4.15238E-12 1.65038E-13 2.56936E-20 1.75063E-13
 -1        46-4.83751E-12 1.30325E-11-3.65220E-12 1.65039E-13-3.22141E-21 1.75063E-13
 -1        47 6.38632E-13 3.26331E-12-1.56371E-13-6.10841E-12 1.32839E-13 2.20667E-12
 -1        48 9.57949E-13-2.97011E-11 9.26985E-12-1.04685E-11 1.99258E-13 3.34308E-12
 -1        49 2.22798E-11-7.25626E-12-6.22857E-12 1.61305E-12 2.62595E-13-1.10755E-19
 -1        50 1.48532E-11-4.83751E-12-4.15238E-12 1.65038E-13 1.75063E-13 2.57457E-20
 -1        51 4.31198E-12 4.31198E-12-5.51654E-12-1.79648E-12-1.13785E-12-1.13785E-12
 -1        52 4.31198E-12 1.61456E-11-8.76753E-12 4.12033E-12-1.13785E-12-1.13785E-12
 -1        53 7.21867E-12-5.63520E-12-2.00902E-13 6.05417E-12-4.22909E-13 1.01892E-12
 -1        54 1.08280E-11-2.43480E-11 4.06545E-12 1.23799E-11-6.34363E-13 1.52838E-12
 -1        55 1.95488E-11-7.25626E-12-5.47830E-12 1.61305E-12 2.62595E-13-1.42150E-19
 -1        56 1.30325E-11-4.83751E-12-3.65220E-12 1.65039E-13 1.75063E-13-3.26142E-21
 -1        57 1.61456E-11 4.31198E-12-8.76753E-12 4.12033E-12-1.13785E-12-1.13785E-12
 -1        58 1.61456E-11 1.61456E-11-1.20185E-11 1.00371E-11-1.13785E-12-1.13785E-12
 -1        59 1.16169E-11-5.63520E-12-1.40921E-12 7.55782E-13-4.22908E-13 1.01892E-12
 -1        60 1.74254E-11-2.43480E-11 2.25299E-12 4.43236E-12-6.34363E-13 1.52838E-12
 -1        61 4.89497E-12 3.56978E-12-6.45537E-13 8.13541E-12 3.31001E-12 2.87683E-13
 -1        62 3.26331E-12 6.38632E-13-1.56371E-13-6.10841E-12 2.20667E-12 1.32839E-13
 -1        63-5.63520E-12 7.21867E-12-2.00903E-13 6.05417E-12 1.01892E-12-4.22909E-13
 -1        64-5.63520E-12 1.16169E-11-1.40921E-12 7.55782E-13 1.01892E-12-4.22908E-13
 -1        65-1.07247E-38-3.08486E-19 1.91129E-20-1.54243E-19 4.16464E-19 4.22260E-19
 -1        66-1.60871E-38-1.07640E-18 1.66046E-20-5.38198E-19-2.66859E-19-4.29583E-19
 -1        67-5.94022E-11 7.13956E-12 1.77177E-11 1.36590E-11 6.68616E-12 5.75367E-13
 -1        68-2.97011E-11 9.57949E-13 9.26985E-12-1.04685E-11 3.34308E-12 1.99258E-13
 -1        69-2.43480E-11 1.08280E-11 4.06545E-12 1.23799E-11 1.52838E-12-6.34363E-13
 -1        70-2.43480E-11 1.74254E-11 2.25299E-12 4.43236E-12 1.52838E-12-6.34363E-13
 -1        71 7.22086E-38-1.14513E-18 4.18473E-21-5.72565E-19-1.01821E-18-8.38098E-19
 -1        72 1.44417E-37 2.94079E-18 4.74003E-19 1.47040E-18 5.66138E-19 5.83525E-19
 -3
    1PSTEP                        76          26           1          
  100CL  126 1.92781E-01          72                     0   26           1
 -4  DISP        4    1
 -5  D1          1    2    1    0
 -5  D2          1    2    2    0
 -5  D3          1    2    3    0
 -5  ALL         1    2    0    0    1ALL
 -1         1 0.00000E+00 0.00000E+00 0.00000E+00
 -1         2-1.13103E-10 0.00000E+00 0.00000E+00
 -1         3-5.93793E-03 0.00000E+00 0.00000E+00
 -1         4-5.93794E-03 0.00000E+00 0.00000E+00
 -1         5-6.28520E-02 0.00000E+00 0.00000E+00
 -1         6-6.28520E-02 0.00000E+00 0.00000E+00
 -1         7 0.00000E+00-1.13103E-10 0.00000E+00
 -1         8-1.13103E-10-1.13103E-10 0.00000E+00
 -1         9-5.93793E-03 2.19350E-08 0.00000E+00
 -1        10-5.93793E-03 1.92883E-08 0.00000E+00
 -1        11-6.28520E-02 6.94167E-09 0.00000E+00
 -1        12-6.28520E-02-2.86048E-08 0.00000E+00
 -1        13 0.00000E+00-5.93793E-03 0.00000E+00
 -1        14 2.19350E-08-5.93793E-03 0.00000E+00
 -1        15 7.24913E-01 7.24913E-01 0.00000E+00
 -1        16 7.24913E-01 7.24913E-01 0.00000E+00
 -1        17 1.18281E+00-1.26511E-01 0.00000E+00
 -1        18 1.18224E+00-8.81353E-01 0.00000E+00
 -1        19 0.00000E+00-5.93794E-03 0.00000E+00
 -1        20 1.92883E-08-5.93793E-03 0.00000E+00
 -1        21 7.24913E-01 7.24913E-01 0.00000E+00
 -1        22 7.24913E-01 7.24913E-01 0.00000E+00
 -1        23 1.93765E+00-1.27080E-01 0.00000E+00
 -1        24 1.93708E+00-8.81923E-01 0.00000E+00
 -1        25 0.00000E+00-6.28520E-02 0.00000E+00
 -1        26 6.94167E-09-6.28520E-02 0.00000E+00
 -1        27-1.26511E-01 1.18281E+00 0.00000E+00
 -1        28-1.27080E-01 1.93765E+00 0.00000E+00
 -1        29-5.78344E+00-5.78344E+00 0.00000E+00
 -1        30-5.78344E+00-5.78344E+00 0.00000E+00
 -1        31 0.00000E+00-6.28520E-02 0.00000E+00
 -1        32-2.86048E-08-6.28520E-02 0.00000E+00
 -1        33-8.81353E-01 1.18224E+00 0.00000E+00
 -1        34-8.81923E-01 1.93708E+00 0.00000E+00
 -1        35-5.78344E+00-5.78344E+00 0.00000E+00
 -1        36-5.78344E+00-5.78344E+00 0.00000E+00
 -1        37 0.00000E+00 0.00000E+00 1.35724E-10
 -1        38-1.13103E-10 0.00000E+00 1.35724E-10
 -1        39-5.93793E-03 0.00000E+00-8.69899E-09
 -1        40-5.93794E-03 0.00000E+00-7.68103E-09
 -1        41-6.28520E-02 0.00000E+00-1.71440E-09
 -1        42-6.28520E-02 0.00000E+00 1.19573E-08
 -1        43 0.00000E+00-1.13103E-10 1.35724E-10
 -1        44-1.13103E-10-1.13103E-10 1.35724E-10
 -1        45-5.93793E-03 2.19350E-08-8.69899E-09
 -1        46-5.93794E-03 1.92883E-08-7.68103E-09
 -1        47-6.28520E-02 6.70161E-09-1.15653E-09
 -1        48-6.28520E-02-2.88449E-08 1.25152E-08
 -1        49 0.00000E+00-5.93793E-03-8.69899E-09
 -1        50 2.19350E-08-5.93793E-03-8.69899E-09
 -1        51 7.24913E-01 7.24913E-01-1.11859E-08
 -1        52 7.24913E-01 7.24913E-01-1.81376E-08
 -1        53 1.18281E+00-1.26511E-01-1.01009E-09
 -1        54 1.18224E+00-8.81353E-01 5.46223E-09
 -1        55 0.00000E+00-5.93794E-03-7.68103E-09
 -1        56 1.92883E-08-5.93794E-03-7.68103E-09
 -1        57 7.24913E-01 7.24913E-01-1.81376E-08
 -1        58 7.24913E-01 7.24913E-01-2.50893E-08
 -1        59 1.93765E+00-1.27080E-01-3.80118E-09
 -1        60 1.93708E+00-8.81923E-01 2.67114E-09
 -1        61 0.00000E+00-6.28520E-02-1.71440E-09
 -1        62 6.70161E-09-6.28520E-02-1.15653E-09
 -1        63-1.26511E-01 1.18281E+00-1.01009E-09
 -1        64-1.27080E-01 1.93765E+00-3.80118E-09
 -1        65-5.78344E+00-5.78344E+00 3.77142E-16
 -1        66-5.78344E+00-5.78344E+00-7.30198E-17
 -1        67 0.00000E+00-6.28520E-02 1.19573E-08
 -1        68-2.88449E-08-6.28520E-02 1.25152E-08
 -1        69-8.81353E-01 1.18224E+00 5.46223E-09
 -1        70-8.81923E-01 1.93708E+00 2.67114E-09
 -1        71-5.78344E+00-5.78344E+00 1.61717E-16
 -1        72-5.78344E+00-5.78344E+00-1.18897E-16
 -3
    1PSTEP                        77          26           1          
  100CL  126 1.92781E-01          72                     0   26           1
 -4  STRESS      6    1
 -5  SXX         1    4    1    1
 -5  SYY         1    4    2    2
 -5  SZZ         1    4    3    3
 -5  SXY         1    4    1    2
 -5  SYZ         1    4    2    3
 -5  SZX         1    4    3    1
 -1         1-6.78593E-08-6.78593E-08-8.72768E-15-3.46138E-19 5.05544E-20 5.05533E-20
 -1         2-3.39297E-08-3.39297E-08 2.49562E-15 5.11632E-15 2.52758E-20-1.16837E-15
 -1         3-6.32887E-08 4.60446E-06 5.75533E-08 2.52525E-07-2.91276E-19-4.11095E-08
 -1         4-2.95851E-07 3.94436E-06-5.75533E-08 2.52525E-07-3.16331E-19-4.11096E-08
 -1         5 1.58942E-06 2.19839E-06 8.79157E-07 1.37519E-06-5.27851E-13-5.54714E-07
 -1         6-3.06805E-06-1.33343E-05-1.33358E-06 2.34130E-06-1.05570E-12-1.09907E-06
 -1         7-3.39297E-08-3.39297E-08 2.49562E-15 5.11632E-15-1.16837E-15 2.52752E-20
 -1         8-2.26198E-08-2.26198E-08 6.23672E-15 6.82187E-15-7.78914E-16-7.78914E-16
 -1         9-4.21924E-08 3.06964E-06 3.83689E-08 2.58370E-08 1.64018E-14-2.74064E-08
 -1        10-1.97234E-07 2.62957E-06-3.83689E-08 2.58370E-08 1.50771E-14-2.74064E-08
 -1        11 6.14541E-07 1.29324E-06 4.56664E-07-9.97239E-07-9.23340E-09-3.69810E-07
 -1        12-2.20163E-06-6.92567E-06-8.60951E-07-1.70040E-06-1.38501E-08-5.49534E-07
 -1        13 4.60446E-06-6.32887E-08 5.75533E-08 2.52525E-07-4.11095E-08-2.91397E-19
 -1        14 3.06964E-06-4.21924E-08 3.83689E-08 2.58370E-08-2.74064E-08 1.63986E-14
 -1        15 9.90797E-07 9.90797E-07-5.24048E-07-2.89199E-07 1.87160E-07 1.87160E-07
 -1        16 2.04959E-06 3.99605E-06 1.04124E-14 6.84033E-07 1.87160E-07 1.87160E-07
 -1        17 1.28590E-06-4.85876E-07 1.38996E-07 9.75687E-07 7.54072E-08-1.74140E-07
 -1        18 4.51947E-07-4.92760E-06-5.23372E-07 2.04555E-06 1.13111E-07-2.61210E-07
 -1        19 3.94436E-06-2.95851E-07-5.75533E-08 2.52525E-07-4.11096E-08-3.16197E-19
 -1        20 2.62957E-06-1.97234E-07-3.83689E-08 2.58370E-08-2.74064E-08 1.50829E-14
 -1        21 3.99605E-06 2.04959E-06-1.42060E-16 6.84033E-07 1.87160E-07 1.87160E-07
 -1        22 5.05484E-06 5.05484E-06 5.24048E-07 1.65726E-06 1.87160E-07 1.87160E-07
 -1        23 2.48976E-06-5.80373E-08 3.49400E-07 6.83915E-08 7.54072E-08-1.74140E-07
 -1        24 2.25774E-06-4.28585E-06-2.07766E-07 6.84605E-07 1.13111E-07-2.61210E-07
 -1        25 2.19839E-06 1.58942E-06 8.79157E-07 1.37519E-06-5.54714E-07-5.27851E-13
 -1        26 1.29324E-06 6.14541E-07 4.56664E-07-9.97239E-07-3.69810E-07-9.23340E-09
 -1        27-4.85877E-07 1.28590E-06 1.38996E-07 9.75687E-07-1.74140E-07 7.54072E-08
 -1        28-5.80372E-08 2.48976E-06 3.49400E-07 6.83914E-08-1.74140E-07 7.54072E-08
 -1        29 5.15062E-14 9.11706E-14 8.05167E-14 1.98322E-14-2.24456E-14-2.24454E-14
 -1        30 9.15864E-15 2.97958E-14 7.33026E-16 1.03186E-14 2.90962E-14 2.90965E-14
 -1        31-1.33343E-05-3.06805E-06-1.33358E-06 2.34130E-06-1.09907E-06-1.05570E-12
 -1        32-6.92567E-06-2.20163E-06-8.60951E-07-1.70040E-06-5.49534E-07-1.38501E-08
 -1        33-4.92760E-06 4.51947E-07-5.23372E-07 2.04555E-06-2.61210E-07 1.13111E-07
 -1        34-4.28585E-06 2.25774E-06-2.07766E-07 6.84605E-07-2.61210E-07 1.13111E-07
 -1        35 4.33770E-14 8.25538E-14 6.20362E-14 1.95884E-14 1.14104E-13 1.14104E-13
 -1        36 1.24131E-13 3.17076E-13 9.66921E-14 9.64729E-14-3.79611E-13-3.79610E-13
 -1        37-6.78594E-08-6.78594E-08-1.85422E-14-3.46135E-19-6.52171E-16-6.52171E-16
 -1        38-3.39297E-08-3.39297E-08-2.41164E-15 5.11632E-15-3.26085E-16-1.49448E-15
 -1        39-6.32888E-08 4.60446E-06 5.75533E-08 2.52525E-07-1.83503E-14 4.11095E-08
 -1        40-2.95851E-07 3.94436E-06-5.75533E-08 2.52525E-07-2.33400E-14 4.11095E-08
 -1        41 1.58572E-06 2.14141E-06 8.60952E-07 1.37519E-06 4.50582E-08 5.49534E-07
 -1        42-3.07545E-06-1.34483E-05-1.36999E-06 2.34130E-06 9.01164E-08 1.10943E-06
 -1        43-3.39297E-08-3.39297E-08-2.41164E-15 5.11632E-15-1.49448E-15-3.26085E-16
 -1        44-2.26198E-08-2.26198E-08 2.96521E-15 6.82187E-15-9.96321E-16-9.96321E-16
 -1        45-4.21924E-08 3.06964E-06 3.83689E-08 2.58370E-08 4.16787E-15 2.74064E-08
 -1        46-1.97234E-07 2.62957E-06-3.83689E-08 2.58370E-08-4.83306E-16 2.74063E-08
 -1        47 6.12074E-07 1.25525E-06 4.44527E-07-9.97239E-07 2.08057E-08 3.66356E-07
 -1        48-2.20533E-06-6.98266E-06-8.79157E-07-1.70040E-06 3.12086E-08 5.54714E-07
 -1        49 4.60446E-06-6.32888E-08 5.75533E-08 2.52525E-07 4.11095E-08-1.83344E-14
 -1        50 3.06964E-06-4.21924E-08 3.83689E-08 2.58370E-08 2.74064E-08 4.17527E-15
 -1        51 9.90797E-07 9.90797E-07-5.24048E-07-2.89199E-07-1.87160E-07-1.87160E-07
 -1        52 2.04959E-06 3.99605E-06 1.86402E-14 6.84033E-07-1.87160E-07-1.87160E-07
 -1        53 1.28590E-06-4.85876E-07 1.38996E-07 9.75687E-07-7.54072E-08 1.74140E-07
 -1        54 4.51947E-07-4.92760E-06-5.23372E-07 2.04555E-06-1.13111E-07 2.61210E-07
 -1        55 3.94436E-06-2.95851E-07-5.75533E-08 2.52525E-07 4.11095E-08-2.33682E-14
 -1        56 2.62957E-06-1.97234E-07-3.83689E-08 2.58370E-08 2.74063E-08-4.96235E-16
 -1        57 3.99605E-06 2.04959E-06-8.33346E-15 6.84033E-07-1.87160E-07-1.87160E-07
 -1        58 5.05484E-06 5.05484E-06 5.24048E-07 1.65726E-06-1.87160E-07-1.87160E-07
 -1        59 2.48976E-06-5.80371E-08 3.49400E-07 6.83914E-08-7.54072E-08 1.74140E-07
 -1        60 2.25774E-06-4.28585E-06-2.07766E-07 6.84606E-07-1.13111E-07 2.61210E-07
 -1        61 2.14141E-06 1.58572E-06 8.60952E-07 1.37519E-06 5.49534E-07 4.50582E-08
 -1        62 1.25525E-06 6.12074E-07 4.44527E-07-9.97239E-07 3.66356E-07 2.08057E-08
 -1        63-4.85876E-07 1.28590E-06 1.38996E-07 9.75687E-07 1.74140E-07-7.54072E-08
 -1        64-5.80372E-08 2.48976E-06 3.49400E-07 6.83914E-08 1.74140E-07-7.54072E-08
 -1        65-1.27182E-13-3.25769E-13-9.81719E-14-9.92935E-14-7.11469E-14-8.37863E-14
 -1        66 1.48194E-13 3.54212E-13 1.39768E-13 1.03009E-13 1.35046E-13 1.02393E-13
 -1        67-1.34483E-05-3.07545E-06-1.36999E-06 2.34130E-06 1.10943E-06 9.01164E-08
 -1        68-6.98266E-06-2.20533E-06-8.79157E-07-1.70040E-06 5.54714E-07 3.12086E-08
 -1        69-4.92760E-06 4.51947E-07-5.23372E-07 2.04555E-06 2.61210E-07-1.13111E-07
 -1        70-4.28585E-06 2.25774E-06-2.07766E-07 6.84606E-07 2.61210E-07-1.13111E-07
 -1        71-1.52539E-13-3.74584E-13-1.33880E-13-1.11022E-13 5.53034E-14 5.00384E-14
 -1        72-1.36093E-13-2.90111E-13-1.63531E-13-7.70092E-14-2.54538E-14-6.33719E-14
 -3
    1PSTEP                        78          26           1          
  100CL  126 1.92781E-01          72                     0   26           1
 -4  TOSTRAIN    6    1
 -5  EXX         1    4    1    1
 -5  EYY         1    4    2    2
 -5  EZZ         1    4    3    3
 -5  EXY         1    4    1    2
 -5  EYZ         1    4    2    3
 -5  EZX         1    4    3    1
 -1         1-2.26198E-13-2.26198E-13 1.93884E-13-2.14276E-24 3.12956E-25 3.12949E-25
 -1         2-1.13099E-13-1.13099E-13 9.69419E-14 3.16725E-20 1.56469E-25-7.23277E-21
 -1         3-6.96139E-12 2.19342E-11-6.21332E-12 1.56325E-12-1.80312E-24-2.54488E-13
 -1         4-6.96139E-12 1.92875E-11-5.48622E-12 1.56325E-12-1.95822E-24-2.54488E-13
 -1         5 3.17216E-12 6.94200E-12-1.22470E-12 8.51306E-12-3.26765E-18-3.43395E-12
 -1         6 6.34432E-12-5.72086E-11 1.70815E-11 1.44937E-11-6.53526E-18-6.80375E-12
 -1         7-1.13099E-13-1.13099E-13 9.69419E-14 3.16725E-20-7.23277E-21 1.56466E-25
 -1         8-7.53992E-14-7.53992E-14 6.46279E-14 4.22306E-20-4.82185E-21-4.82185E-21
 -1         9-4.64093E-12 1.46228E-11-4.14222E-12 1.59943E-13 1.01534E-19-1.69658E-13
 -1        10-4.64093E-12 1.28583E-11-3.65748E-12 1.59943E-13 9.33333E-20-1.69659E-13
 -1        11 4.26522E-13 4.62800E-12-5.50812E-13-6.17339E-12-5.71591E-14-2.28930E-12
 -1        12 6.39783E-13-2.86043E-11 8.93924E-12-1.05263E-11-8.57387E-14-3.40188E-12
 -1        13 2.19342E-11-6.96139E-12-6.21332E-12 1.56325E-12-2.54488E-13-1.80386E-24
 -1        14 1.46228E-11-4.64093E-12-4.14222E-12 1.59943E-13-1.69658E-13 1.01514E-19
 -1        15 4.05130E-12 4.05130E-12-5.32631E-12-1.79028E-12 1.15861E-12 1.15861E-12
 -1        16 4.05130E-12 1.61008E-11-8.63663E-12 4.23449E-12 1.15861E-12 1.15861E-12
 -1        17 6.60062E-12-4.33100E-12-4.81007E-13 6.05650E-12 4.65178E-13-1.07871E-12
 -1        18 9.90093E-12-2.33244E-11 3.90155E-12 1.27131E-11 6.97768E-13-1.61807E-12
 -1        19 1.92875E-11-6.96139E-12-5.48622E-12 1.56325E-12-2.54488E-13-1.95739E-24
 -1        20 1.28583E-11-4.64093E-12-3.65748E-12 1.59943E-13-1.69659E-13 9.33696E-20
 -1        21 1.61008E-11 4.05130E-12-8.63663E-12 4.23449E-12 1.15861E-12 1.15861E-12
 -1        22 1.61008E-11 1.61008E-11-1.19469E-11 1.02593E-11 1.15861E-12 1.15861E-12
 -1        23 1.14385E-11-4.33100E-12-1.81009E-12 4.47185E-13 4.65179E-13-1.07871E-12
 -1        24 1.71577E-11-2.33244E-11 1.90793E-12 4.29917E-12 6.97767E-13-1.61807E-12
 -1        25 6.94200E-12 3.17216E-12-1.22470E-12 8.51306E-12-3.43395E-12-3.26765E-18
 -1        26 4.62800E-12 4.26522E-13-5.50812E-13-6.17339E-12-2.28930E-12-5.71591E-14
 -1        27-4.33100E-12 6.60062E-12-4.81007E-13 6.05650E-12-1.07871E-12 4.65178E-13
 -1        28-4.33100E-12 1.14385E-11-1.81009E-12 4.47185E-13-1.07871E-12 4.65178E-13
 -1        29-2.19846E-38 2.45541E-19 1.79589E-19 1.22771E-19-1.38949E-19-1.38948E-19
 -1        30-3.29769E-38 1.27754E-19-5.21586E-20 6.38769E-20 1.80119E-19 1.80121E-19
 -1        31-5.72086E-11 6.34432E-12 1.70815E-11 1.44937E-11-6.80375E-12-6.53526E-18
 -1        32-2.86043E-11 6.39783E-13 8.93924E-12-1.05263E-11-3.40188E-12-8.57387E-14
 -1        33-2.33244E-11 9.90093E-12 3.90155E-12 1.27131E-11-1.61807E-12 6.97768E-13
 -1        34-2.33244E-11 1.71577E-11 1.90793E-12 4.29917E-12-1.61807E-12 6.97767E-13
 -1        35-1.23272E-38 2.42523E-19 1.15509E-19 1.21262E-19 7.06359E-19 7.06361E-19
 -1        36-2.46545E-38 1.19443E-18-1.69857E-19 5.97213E-19-2.34997E-18-2.34997E-18
 -1        37-2.26198E-13-2.26198E-13 1.93884E-13-2.14274E-24-4.03725E-21-4.03725E-21
 -1        38-1.13099E-13-1.13099E-13 9.69419E-14 3.16725E-20-2.01862E-21-9.25155E-21
 -1        39-6.96139E-12 2.19342E-11-6.21332E-12 1.56325E-12-1.13601E-19 2.54488E-13
 -1        40-6.96139E-12 1.92875E-11-5.48622E-12 1.56325E-12-1.44489E-19 2.54487E-13
 -1        41 3.26195E-12 6.70194E-12-1.22470E-12 8.51306E-12 2.78932E-13 3.40188E-12
 -1        42 6.52391E-12-5.76887E-11 1.70815E-11 1.44937E-11 5.57863E-13 6.86789E-12
 -1        43-1.13099E-13-1.13099E-13 9.69419E-14 3.16725E-20-9.25155E-21-2.01862E-21
 -1        44-7.53992E-14-7.53992E-14 6.46279E-14 4.22306E-20-6.16770E-21-6.16770E-21
 -1        45-4.64093E-12 1.46228E-11-4.14222E-12 1.59943E-13 2.58017E-20 1.69658E-13
 -1        46-4.64093E-12 1.28583E-11-3.65748E-12 1.59943E-13-2.99132E-21 1.69658E-13
 -1        47 4.86384E-13 4.46796E-12-5.50812E-13-6.17339E-12 1.28797E-13 2.26792E-12
 -1        48 7.29576E-13-2.88443E-11 8.93924E-12-1.05263E-11 1.93196E-13 3.43395E-12
 -1        49 2.19342E-11-6.96139E-12-6.21332E-12 1.56325E-12 2.54488E-13-1.13502E-19
 -1        50 1.46228E-11-4.64093E-12-4.14222E-12 1.59943E-13 1.69658E-13 2.58475E-20
 -1        51 4.05130E-12 4.05130E-12-5.32631E-12-1.79028E-12-1.15861E-12-1.15861E-12
 -1        52 4.05130E-12 1.61008E-11-8.63663E-12 4.23449E-12-1.15861E-12-1.15861E-12
 -1        53 6.60062E-12-4.33100E-12-4.81007E-13 6.05650E-12-4.65179E-13 1.07871E-12
 -1        54 9.90093E-12-2.33244E-11 3.90155E-12 1.27131E-11-6.97768E-13 1.61807E-12
 -1        55 1.92875E-11-6.96139E-12-5.48622E-12 1.56325E-12 2.54487E-13-1.44663E-19
 -1        56 1.28583E-11-4.64093E-12-3.65748E-12 1.59943E-13 1.69658E-13-3.07136E-21
 -1        57 1.61008E-11 4.05130E-12-8.63663E-12 4.23449E-12-1.15861E-12-1.15861E-12
 -1        58 1.61008E-11 1.61008E-11-1.19469E-11 1.02593E-11-1.15861E-12-1.15861E-12
 -1        59 1.14385E-11-4.33100E-12-1.81009E-12 4.47184E-13-4.65178E-13 1.07871E-12
 -1        60 1.71577E-11-2.33244E-11 1.90793E-12 4.29917E-12-6.97768E-13 1.61807E-12
 -1        61 6.70194E-12 3.26195E-12-1.22470E-12 8.51306E-12 3.40188E-12 2.78932E-13
 -1        62 4.46796E-12 4.86384E-13-5.50812E-13-6.17339E-12 2.26792E-12 1.28797E-13
 -1        63-4.33100E-12 6.60062E-12-4.81007E-13 6.05650E-12 1.07871E-12-4.65178E-13
 -1        64-4.33100E-12 1.14385E-11-1.81009E-12 4.47185E-13 1.07871E-12-4.65178E-13
 -1        65 1.09917E-37-1.22935E-18 1.79589E-19-6.14674E-19-4.40433E-19-5.18677E-19
 -1        66 1.64876E-37 1.27535E-18-5.21586E-20 6.37674E-19 8.35999E-19 6.33861E-19
 -1        67-5.76887E-11 6.52391E-12 1.70815E-11 1.44937E-11 6.86789E-12 5.57863E-13
 -1        68-2.88443E-11 7.29576E-13 8.93924E-12-1.05263E-11 3.43395E-12 1.93196E-13
 -1        69-2.33244E-11 9.90093E-12 3.90155E-12 1.27131E-11 1.61807E-12-6.97768E-13
 -1        70-2.33244E-11 1.71577E-11 1.90793E-12 4.29917E-12 1.61807E-12-6.97768E-13
 -1        71 6.16261E-38-1.37456E-18 1.15509E-19-6.87281E-19 3.42354E-19 3.09761E-19
 -1        72 1.23252E-37-9.53447E-19-1.69857E-19-4.76724E-19-1.57571E-19-3.92302E-19
 -3
    1PSTEP                        79          27           1          
  100CL  127 2.01781E-01          72                     0   27           1
 -4  DISP        4    1
 -5  D1          1    2    1    0
 -5  D2          1    2    2    0
 -5  D3          1    2    3    0
 -5  ALL         1    2    0    0    1ALL
 -1         1 0.00000E+00 0.00000E+00 0.00000E+00
 -1         2 7.10591E-12 0.00000E+00 0.00000E+00
 -1         3 3.73060E-04 0.00000E+00 0.00000E+00
 -1         4 3.73054E-04 0.00000E+00 0.00000E+00
 -1         5-4.79265E-02 0.00000E+00 0.00000E+00
 -1         6-4.79265E-02 0.00000E+00 0.00000E+00
 -1         7 0.00000E+00 7.10591E-12 0.00000E+00
 -1         8 7.10597E-12 7.10597E-12 0.00000E+00
 -1         9 3.73063E-04 2.14128E-08 0.00000E+00
 -1        10 3.73057E-04 1.88857E-08 0.00000E+00
 -1        11-4.79265E-02 8.45467E-09 0.00000E+00
 -1        12-4.79265E-02-2.75750E-08 0.00000E+00
 -1        13 0.00000E+00 3.73060E-04 0.00000E+00
 -1        14 2.14128E-08 3.73063E-04 0.00000E+00
 -1        15 7.11340E-01 7.11340E-01 0.00000E+00
 -1        16 7.11340E-01 7.11340E-01 0.00000E+00
 -1        17 1.15003E+00-7.09213E-02 0.00000E+00
 -1        18 1.14946E+00-8.25257E-01 0.00000E+00
 -1        19 0.00000E+00 3.73054E-04 0.00000E+00
 -1        20 1.88857E-08 3.73057E-04 0.00000E+00
 -1        21 7.11340E-01 7.11340E-01 0.00000E+00
 -1        22 7.11340E-01 7.11340E-01 0.00000E+00
 -1        23 1.90437E+00-7.14903E-02 0.00000E+00
 -1        24 1.90380E+00-8.25826E-01 0.00000E+00
 -1        25 0.00000E+00-4.79265E-02 0.00000E+00
 -1        26 8.45467E-09-4.79265E-02 0.00000E+00
 -1        27-7.09213E-02 1.15003E+00 0.00000E+00
 -1        28-7.14903E-02 1.90437E+00 0.00000E+00
 -1        29-6.05344E+00-6.05344E+00 0.00000E+00
 -1        30-6.05344E+00-6.05344E+00 0.00000E+00
 -1        31 0.00000E+00-4.79265E-02 0.00000E+00
 -1        32-2.75750E-08-4.79265E-02 0.00000E+00
 -1        33-8.25257E-01 1.14946E+00 0.00000E+00
 -1        34-8.25826E-01 1.90380E+00 0.00000E+00
 -1        35-6.05344E+00-6.05344E+00 0.00000E+00
 -1        36-6.05344E+00-6.05344E+00 0.00000E+00
 -1        37 0.00000E+00 0.00000E+00-8.52711E-12
 -1        38 7.10589E-12 0.00000E+00-8.52712E-12
 -1        39 3.73060E-04 0.00000E+00-8.59264E-09
 -1        40 3.73053E-04 0.00000E+00-7.62068E-09
 -1        41-4.79265E-02 0.00000E+00-2.41249E-09
 -1        42-4.79265E-02 0.00000E+00 1.14451E-08
 -1        43 0.00000E+00 7.10589E-12-8.52712E-12
 -1        44 7.10595E-12 7.10595E-12-8.52712E-12
 -1        45 3.73063E-04 2.14128E-08-8.59264E-09
 -1        46 3.73056E-04 1.88857E-08-7.62068E-09
 -1        47-4.79265E-02 8.22615E-09-1.88144E-09
 -1        48-4.79265E-02-2.78035E-08 1.19761E-08
 -1        49 0.00000E+00 3.73060E-04-8.59264E-09
 -1        50 2.14128E-08 3.73063E-04-8.59264E-09
 -1        51 7.11340E-01 7.11340E-01-1.07220E-08
 -1        52 7.11340E-01 7.11340E-01-1.77170E-08
 -1        53 1.15003E+00-7.09213E-02-1.50151E-09
 -1        54 1.14946E+00-8.25257E-01 5.22611E-09
 -1        55 0.00000E+00 3.73053E-04-7.62068E-09
 -1        56 1.88857E-08 3.73056E-04-7.62068E-09
 -1        57 7.11340E-01 7.11340E-01-1.77170E-08
 -1        58 7.11340E-01 7.11340E-01-2.47119E-08
 -1        59 1.90437E+00-7.14903E-02-4.54373E-09
 -1        60 1.90380E+00-8.25826E-01 2.18389E-09
 -1        61 0.00000E+00-4.79265E-02-2.41249E-09
 -1        62 8.22615E-09-4.79265E-02-1.88144E-09
 -1        63-7.09213E-02 1.15003E+00-1.50151E-09
 -1        64-7.14903E-02 1.90437E+00-4.54373E-09
 -1        65-6.05344E+00-6.05344E+00 5.16245E-18
 -1        66-6.05344E+00-6.05344E+00 9.98167E-17
 -1        67 0.00000E+00-4.79265E-02 1.14451E-08
 -1        68-2.78035E-08-4.79265E-02 1.19761E-08
 -1        69-8.25257E-01 1.14946E+00 5.22612E-09
 -1        70-8.25826E-01 1.90380E+00 2.18389E-09
 -1        71-6.05344E+00-6.05344E+00 3.69329E-16
 -1        72-6.05344E+00-6.05344E+00 1.14366E-17
 -3
    1PSTEP                        80          27           1          
  100CL  127 2.01781E-01          72                     0   27           1
 -4  STRESS      6    1
 -5  SXX         1    4    1    1
 -5  SYY         1    4    2    2
 -5  SZZ         1    4    3    3
 -5  SXY         1    4    1    2
 -5  SYZ         1    4    2    3
 -5  SZX         1    4    3    1
 -1         1 4.26337E-09 4.26337E-09-8.39754E-15-3.32118E-19 4.88703E-20 4.88727E-20
 -1         2 2.13169E-09 2.13170E-09 2.32951E-15 4.90936E-15 2.44357E-20-1.11051E-15
 -1         3-2.59007E-08 4.50523E-06 5.49526E-08 2.41114E-07-2.69318E-19-3.92519E-08
 -1         4-2.47954E-07 3.87496E-06-5.49526E-08 2.41114E-07-2.93720E-19-3.92519E-08
 -1         5 1.62611E-06 2.52874E-06 8.84559E-07 1.41439E-06-5.02476E-13-5.62094E-07
 -1         6-3.07958E-06-1.29146E-05-1.36480E-06 2.43938E-06-1.00495E-12-1.11433E-06
 -1         7 2.13170E-09 2.13169E-09 2.32982E-15 4.90901E-15-1.11055E-15 2.44357E-20
 -1         8 1.42114E-09 1.42114E-09 5.90549E-15 6.54569E-15-7.40322E-16-7.40507E-16
 -1         9-1.72670E-08 3.00349E-06 3.66351E-08 2.46695E-08 1.64873E-14-2.61679E-08
 -1        10-1.65303E-07 2.58330E-06-3.66351E-08 2.46695E-08 1.52010E-14-2.61679E-08
 -1        11 6.60399E-07 1.52176E-06 4.66488E-07-9.97117E-07-8.78950E-09-3.74730E-07
 -1        12-2.17530E-06-6.70340E-06-8.67228E-07-1.69038E-06-1.31842E-08-5.57163E-07
 -1        13 4.50523E-06-2.59007E-08 5.49526E-08 2.41114E-07-3.92519E-08-2.69369E-19
 -1        14 3.00349E-06-1.72670E-08 3.66351E-08 2.46695E-08-2.61679E-08 1.64864E-14
 -1        15 9.08050E-07 9.08050E-07-5.27307E-07-2.86004E-07 1.88324E-07 1.88324E-07
 -1        16 1.97343E-06 3.93199E-06-8.12185E-15 6.93280E-07 1.88324E-07 1.88324E-07
 -1        17 1.21917E-06-2.55504E-07 1.38950E-07 9.62821E-07 8.21787E-08-1.81003E-07
 -1        18 2.93689E-07-4.74775E-06-5.52309E-07 2.07883E-06 1.23268E-07-2.71505E-07
 -1        19 3.87496E-06-2.47954E-07-5.49526E-08 2.41114E-07-3.92519E-08-2.93732E-19
 -1        20 2.58330E-06-1.65303E-07-3.66351E-08 2.46695E-08-2.61679E-08 1.52009E-14
 -1        21 3.93199E-06 1.97343E-06 1.76401E-15 6.93280E-07 1.88324E-07 1.88324E-07
 -1        22 4.99737E-06 4.99737E-06 5.27307E-07 1.67256E-06 1.88324E-07 1.88324E-07
 -1        23 2.53150E-06 2.10692E-07 3.68286E-07 1.96787E-08 8.21788E-08-1.81003E-07
 -1        24 2.26218E-06-4.04846E-06-2.08305E-07 6.64116E-07 1.23268E-07-2.71505E-07
 -1        25 2.52874E-06 1.62611E-06 8.84559E-07 1.41439E-06-5.62094E-07-5.02476E-13
 -1        26 1.52176E-06 6.60399E-07 4.66488E-07-9.97117E-07-3.74730E-07-8.78950E-09
 -1        27-2.55504E-07 1.21917E-06 1.38950E-07 9.62821E-07-1.81003E-07 8.21787E-08
 -1        28 2.10692E-07 2.53150E-06 3.68286E-07 1.96787E-08-1.81003E-07 8.21787E-08
 -1        29-1.19366E-13-2.78917E-13-1.18969E-13-7.97755E-14-4.72527E-14-4.72524E-14
 -1        30 2.60080E-13 5.95336E-13 2.71597E-13 1.67628E-13 5.17836E-14 5.17841E-14
 -1        31-1.29146E-05-3.07958E-06-1.36480E-06 2.43938E-06-1.11433E-06-1.00495E-12
 -1        32-6.70340E-06-2.17530E-06-8.67228E-07-1.69038E-06-5.57163E-07-1.31842E-08
 -1        33-4.74775E-06 2.93688E-07-5.52309E-07 2.07883E-06-2.71505E-07 1.23268E-07
 -1        34-4.04846E-06 2.26218E-06-2.08305E-07 6.64116E-07-2.71505E-07 1.23268E-07
 -1        35-1.19504E-13-3.21457E-13-7.68901E-14-1.00976E-13 6.52909E-14 6.52911E-14
 -1        36 2.95641E-13 6.87190E-13 2.98279E-13 1.95775E-13-2.19481E-13-2.19480E-13
 -1        37 4.26336E-09 4.26336E-09-1.77262E-14-3.32119E-19-6.68511E-16-6.68340E-16
 -1        38 2.13169E-09 2.13170E-09-2.33468E-15 4.90901E-15-3.34200E-16-1.44471E-15
 -1        39-2.59007E-08 4.50523E-06 5.49526E-08 2.41114E-07-1.85079E-14 3.92519E-08
 -1        40-2.47954E-07 3.87496E-06-5.49526E-08 2.41114E-07-2.34545E-14 3.92519E-08
 -1        41 1.62259E-06 2.47449E-06 8.67228E-07 1.41439E-06 4.28920E-08 5.57163E-07
 -1        42-3.08663E-06-1.30231E-05-1.39946E-06 2.43938E-06 8.57840E-08 1.12419E-06
 -1        43 2.13170E-09 2.13169E-09-2.33504E-15 4.90911E-15-1.44483E-15-3.34115E-16
 -1        44 1.42113E-09 1.42113E-09 2.79569E-15 6.54553E-15-9.63138E-16-9.63267E-16
 -1        45-1.72671E-08 3.00349E-06 3.66351E-08 2.46695E-08 4.14832E-15 2.61679E-08
 -1        46-1.65303E-07 2.58330E-06-3.66351E-08 2.46695E-08-4.35625E-16 2.61679E-08
 -1        47 6.58050E-07 1.48560E-06 4.54935E-07-9.97117E-07 1.98055E-08 3.71442E-07
 -1        48-2.17882E-06-6.75765E-06-8.84559E-07-1.69038E-06 2.97082E-08 5.62094E-07
 -1        49 4.50523E-06-2.59007E-08 5.49526E-08 2.41114E-07 3.92519E-08-1.85062E-14
 -1        50 3.00349E-06-1.72671E-08 3.66351E-08 2.46695E-08 2.61679E-08 4.14860E-15
 -1        51 9.08050E-07 9.08050E-07-5.27307E-07-2.86004E-07-1.88324E-07-1.88324E-07
 -1        52 1.97343E-06 3.93199E-06 2.66648E-14 6.93280E-07-1.88324E-07-1.88324E-07
 -1        53 1.21917E-06-2.55504E-07 1.38950E-07 9.62821E-07-8.21788E-08 1.81003E-07
 -1        54 2.93688E-07-4.74775E-06-5.52309E-07 2.07883E-06-1.23268E-07 2.71505E-07
 -1        55 3.87496E-06-2.47954E-07-5.49526E-08 2.41114E-07 3.92519E-08-2.34554E-14
 -1        56 2.58330E-06-1.65303E-07-3.66351E-08 2.46695E-08 2.61679E-08-4.36371E-16
 -1        57 3.93199E-06 1.97343E-06-2.25585E-14 6.93280E-07-1.88324E-07-1.88324E-07
 -1        58 4.99737E-06 4.99737E-06 5.27307E-07 1.67256E-06-1.88324E-07-1.88324E-07
 -1        59 2.53150E-06 2.10692E-07 3.68286E-07 1.96787E-08-8.21787E-08 1.81003E-07
 -1        60 2.26218E-06-4.04846E-06-2.08305E-07 6.64116E-07-1.23268E-07 2.71505E-07
 -1        61 2.47449E-06 1.62259E-06 8.67228E-07 1.41439E-06 5.57163E-07 4.28920E-08
 -1        62 1.48560E-06 6.58050E-07 4.54935E-07-9.97117E-07 3.71442E-07 1.98055E-08
 -1        63-2.55504E-07 1.21917E-06 1.38950E-07 9.62821E-07 1.81003E-07-8.21788E-08
 -1        64 2.10692E-07 2.53150E-06 3.68286E-07 1.96787E-08 1.81003E-07-8.21787E-08
 -1        65-2.31552E-14-5.44257E-14-2.27584E-14-1.56352E-14 3.36600E-14 1.91481E-14
 -1        66-6.31975E-14-1.58978E-13-5.16809E-14-4.78900E-14-9.54158E-14-8.06321E-14
 -1        67-1.30231E-05-3.08663E-06-1.39946E-06 2.43938E-06 1.12419E-06 8.57840E-08
 -1        68-6.75765E-06-2.17882E-06-8.84559E-07-1.69038E-06 5.62094E-07 2.97082E-08
 -1        69-4.74775E-06 2.93689E-07-5.52309E-07 2.07883E-06 2.71505E-07-1.23268E-07
 -1        70-4.04846E-06 2.26218E-06-2.08305E-07 6.64116E-07 2.71505E-07-1.23268E-07
 -1        71 1.03881E-14-1.83752E-14 5.30021E-14-1.43816E-14-9.13308E-14-1.49650E-13
 -1        72-2.43255E-13-5.70234E-13-2.40617E-13-1.63489E-13 3.17945E-13 2.74409E-13
 -3
    1PSTEP                        81          27           1          
  100CL  127 2.01781E-01          72                     0   27           1
 -4  TOSTRAIN    6    1
 -5  EXX         1    4    1    1
 -5  EYY         1    4    2    2
 -5  EZZ         1    4    3    3
 -5  EXY         1    4    1    2
 -5  EYZ         1    4    2    3
 -5  EZX         1    4    3    1
 -1         1 1.42113E-14 1.42113E-14-1.21811E-14-2.05597E-24 3.02531E-25 3.02545E-25
 -1         2 7.10563E-15 7.10569E-15-6.09055E-15 3.03913E-20 1.51268E-25-6.87459E-21
 -1         3-6.63788E-12 2.14120E-11-6.13736E-12 1.49261E-12-1.66719E-24-2.42988E-13
 -1         4-6.63788E-12 1.88849E-11-5.44311E-12 1.49261E-12-1.81825E-24-2.42988E-13
 -1         5 2.86724E-12 8.45495E-12-1.72331E-12 8.75577E-12-3.11057E-18-3.47963E-12
 -1         6 5.73447E-12-5.51490E-11 1.63498E-11 1.51009E-11-6.22110E-18-6.89821E-12
 -1         7 7.10569E-15 7.10563E-15-6.09055E-15 3.03891E-20-6.87485E-21 1.51269E-25
 -1         8 4.73712E-15 4.73712E-15-4.06037E-15 4.05210E-20-4.58294E-21-4.58409E-21
 -1         9-4.42525E-12 1.42746E-11-4.09158E-12 1.52716E-13 1.02063E-19-1.61992E-13
 -1        10-4.42525E-12 1.25899E-11-3.62874E-12 1.52716E-13 9.41009E-20-1.61992E-13
 -1        11 3.04402E-13 5.63663E-12-8.95995E-13-6.17263E-12-5.44112E-14-2.31975E-12
 -1        12 4.56603E-13-2.75745E-11 8.55420E-12-1.04643E-11-8.16168E-14-3.44910E-12
 -1        13 2.14120E-11-6.63788E-12-6.13736E-12 1.49261E-12-2.42988E-13-1.66750E-24
 -1        14 1.42746E-11-4.42525E-12-4.09158E-12 1.52716E-13-1.61992E-13 1.02058E-19
 -1        15 3.78013E-12 3.78013E-12-5.10541E-12-1.77050E-12 1.16581E-12 1.16581E-12
 -1        16 3.78013E-12 1.59046E-11-8.43631E-12 4.29174E-12 1.16581E-12 1.16581E-12
 -1        17 5.95409E-12-3.13886E-12-7.15004E-13 5.97406E-12 5.07035E-13-1.12126E-12
 -1        18 8.93113E-12-2.22000E-11 3.73291E-12 1.29160E-11 7.60552E-13-1.68189E-12
 -1        19 1.88849E-11-6.63788E-12-5.44311E-12 1.49261E-12-2.42988E-13-1.81832E-24
 -1        20 1.25899E-11-4.42525E-12-3.62874E-12 1.52716E-13-1.61992E-13 9.41000E-20
 -1        21 1.59046E-11 3.78013E-12-8.43631E-12 4.29174E-12 1.16581E-12 1.16581E-12
 -1        22 1.59046E-11 1.59046E-11-1.17672E-11 1.03540E-11 1.16581E-12 1.16581E-12
 -1        23 1.12272E-11-3.13886E-12-2.16367E-12 1.43495E-13 5.07035E-13-1.12126E-12
 -1        24 1.68409E-11-2.22000E-11 1.55990E-12 4.17011E-12 7.60552E-13-1.68189E-12
 -1        25 8.45495E-12 2.86724E-12-1.72331E-12 8.75577E-12-3.47963E-12-3.11057E-18
 -1        26 5.63663E-12 3.04402E-13-8.95995E-13-6.17263E-12-2.31975E-12-5.44112E-14
 -1        27-3.13886E-12 5.95409E-12-7.15004E-13 5.97406E-12-1.12126E-12 5.07034E-13
 -1        28-3.13886E-12 1.12272E-11-2.16367E-12 1.43495E-13-1.12126E-12 5.07034E-13
 -1        29 2.79666E-39-9.87697E-19 2.45672E-21-4.93848E-19-2.92516E-19-2.92515E-19
 -1        30 4.19499E-39 2.07540E-18 7.12937E-20 1.03770E-18 3.20565E-19 3.20568E-19
 -1        31-5.51490E-11 5.73447E-12 1.63498E-11 1.51009E-11-6.89821E-12-6.22110E-18
 -1        32-2.75745E-11 4.56603E-13 8.55420E-12-1.04643E-11-3.44910E-12-8.16168E-14
 -1        33-2.22000E-11 8.93113E-12 3.73291E-12 1.29160E-11-1.68189E-12 7.60552E-13
 -1        34-2.22000E-11 1.68409E-11 1.55990E-12 4.17011E-12-1.68189E-12 7.60552E-13
 -1        35-1.56591E-38-1.25018E-18 2.63801E-19-6.25092E-19 4.04182E-19 4.04183E-19
 -1        36-3.13182E-38 2.42388E-18 1.63331E-20 1.21194E-18-1.35869E-18-1.35868E-18
 -1        37 1.42112E-14 1.42112E-14-1.21811E-14-2.05598E-24-4.13840E-21-4.13734E-21
 -1        38 7.10561E-15 7.10567E-15-6.09055E-15 3.03891E-20-2.06886E-21-8.94342E-21
 -1        39-6.63788E-12 2.14120E-11-6.13736E-12 1.49261E-12-1.14576E-19 2.42988E-13
 -1        40-6.63788E-12 1.88849E-11-5.44311E-12 1.49261E-12-1.45197E-19 2.42988E-13
 -1        41 2.95271E-12 8.22643E-12-1.72331E-12 8.75577E-12 2.65522E-13 3.44911E-12
 -1        42 5.90542E-12-5.56060E-11 1.63498E-11 1.51009E-11 5.31044E-13 6.95926E-12
 -1        43 7.10567E-15 7.10561E-15-6.09055E-15 3.03897E-20-8.94420E-21-2.06833E-21
 -1        44 4.73711E-15 4.73711E-15-4.06037E-15 4.05199E-20-5.96228E-21-5.96308E-21
 -1        45-4.42526E-12 1.42746E-11-4.09158E-12 1.52716E-13 2.56806E-20 1.61992E-13
 -1        46-4.42526E-12 1.25899E-11-3.62874E-12 1.52716E-13-2.69620E-21 1.61992E-13
 -1        47 3.61386E-13 5.48429E-12-8.95995E-13-6.17263E-12 1.22605E-13 2.29940E-12
 -1        48 5.42079E-13-2.78030E-11 8.55420E-12-1.04643E-11 1.83908E-13 3.47963E-12
 -1        49 2.14120E-11-6.63788E-12-6.13736E-12 1.49261E-12 2.42988E-13-1.14565E-19
 -1        50 1.42746E-11-4.42526E-12-4.09158E-12 1.52716E-13 1.61992E-13 2.56823E-20
 -1        51 3.78013E-12 3.78013E-12-5.10541E-12-1.77050E-12-1.16581E-12-1.16581E-12
 -1        52 3.78013E-12 1.59046E-11-8.43631E-12 4.29173E-12-1.16581E-12-1.16581E-12
 -1        53 5.95409E-12-3.13886E-12-7.15004E-13 5.97406E-12-5.07035E-13 1.12126E-12
 -1        54 8.93113E-12-2.22000E-11 3.73291E-12 1.29160E-11-7.60552E-13 1.68189E-12
 -1        55 1.88849E-11-6.63788E-12-5.44311E-12 1.49261E-12 2.42988E-13-1.45203E-19
 -1        56 1.25899E-11-4.42526E-12-3.62874E-12 1.52716E-13 1.61992E-13-2.70082E-21
 -1        57 1.59046E-11 3.78013E-12-8.43631E-12 4.29174E-12-1.16581E-12-1.16581E-12
 -1        58 1.59046E-11 1.59046E-11-1.17672E-11 1.03540E-11-1.16581E-12-1.16581E-12
 -1        59 1.12272E-11-3.13886E-12-2.16367E-12 1.43495E-13-5.07034E-13 1.12126E-12
 -1        60 1.68409E-11-2.22000E-11 1.55990E-12 4.17011E-12-7.60552E-13 1.68189E-12
 -1        61 8.22643E-12 2.95271E-12-1.72331E-12 8.75577E-12 3.44911E-12 2.65522E-13
 -1        62 5.48429E-12 3.61386E-13-8.95995E-13-6.17263E-12 2.29940E-12 1.22605E-13
 -1        63-3.13886E-12 5.95409E-12-7.15004E-13 5.97406E-12 1.12126E-12-5.07035E-13
 -1        64-3.13886E-12 1.12272E-11-2.16367E-12 1.43495E-13 1.12126E-12-5.07035E-13
 -1        65-1.39854E-38-1.93579E-19 2.45672E-21-9.67896E-20 2.08372E-19 1.18536E-19
 -1        66-2.09781E-38-5.92924E-19 7.12937E-20-2.96462E-19-5.90669E-19-4.99151E-19
 -1        67-5.56060E-11 5.90542E-12 1.63498E-11 1.51009E-11 6.95926E-12 5.31044E-13
 -1        68-2.78030E-11 5.42079E-13 8.55420E-12-1.04643E-11 3.47963E-12 1.83908E-13
 -1        69-2.22000E-11 8.93113E-12 3.73291E-12 1.29160E-11 1.68189E-12-7.60552E-13
 -1        70-2.22000E-11 1.68409E-11 1.55990E-12 4.17011E-12 1.68189E-12-7.60552E-13
 -1        71 7.82939E-38-1.78058E-19 2.63801E-19-8.90292E-20-5.65381E-19-9.26406E-19
 -1        72 1.56588E-37-2.02415E-18 1.63331E-20-1.01208E-18 1.96823E-18 1.69872E-18
 -3
    1PSTEP                        82          28           1          
  100CL  128 2.10781E-01          72                     0   28           1
 -4  DISP        4    1
 -5  D1          1    2    1    0
 -5  D2          1    2    2    0
 -5  D3          1    2    3    0
 -5  ALL         1    2    0    0    1ALL
 -1         1 0.00000E+00 0.00000E+00 0.00000E+00
 -1         2 1.04774E-10 0.00000E+00 0.00000E+00
 -1         3 5.50066E-03 0.00000E+00 0.00000E+00
 -1         4 5.50065E-03 0.00000E+00 0.00000E+00
 -1         5-3.47852E-02 0.00000E+00 0.00000E+00
 -1         6-3.47852E-02 0.00000E+00 0.00000E+00
 -1         7 0.00000E+00 1.04774E-10 0.00000E+00
 -1         8 1.04774E-10 1.04774E-10 0.00000E+00
 -1         9 5.50066E-03 2.07276E-08 0.00000E+00
 -1        10 5.50065E-03 1.83504E-08 0.00000E+00
 -1        11-3.47852E-02 9.66883E-09 0.00000E+00
 -1        12-3.47852E-02-2.63703E-08 0.00000E+00
 -1        13 0.00000E+00 5.50066E-03 0.00000E+00
 -1        14 2.07276E-08 5.50066E-03 0.00000E+00
 -1        15 6.92277E-01 6.92277E-01 0.00000E+00
 -1        16 6.92277E-01 6.92277E-01 0.00000E+00
 -1        17 1.10936E+00-2.15395E-02 0.00000E+00
 -1        18 1.10881E+00-7.66685E-01 0.00000E+00
 -1        19 0.00000E+00 5.50065E-03 0.00000E+00
 -1        20 1.83504E-08 5.50065E-03 0.00000E+00
 -1        21 6.92277E-01 6.92277E-01 0.00000E+00
 -1        22 6.92277E-01 6.92277E-01 0.00000E+00
 -1        23 1.85451E+00-2.20948E-02 0.00000E+00
 -1        24 1.85395E+00-7.67240E-01 0.00000E+00
 -1        25 0.00000E+00-3.47852E-02 0.00000E+00
 -1        26 9.66883E-09-3.47852E-02 0.00000E+00
 -1        27-2.15395E-02 1.10936E+00 0.00000E+00
 -1        28-2.20948E-02 1.85451E+00 0.00000E+00
 -1        29-6.32344E+00-6.32344E+00 0.00000E+00
 -1        30-6.32344E+00-6.32344E+00 0.00000E+00
 -1        31 0.00000E+00-3.47852E-02 0.00000E+00
 -1        32-2.63703E-08-3.47852E-02 0.00000E+00
 -1        33-7.66685E-01 1.10881E+00 0.00000E+00
 -1        34-7.67240E-01 1.85395E+00 0.00000E+00
 -1        35-6.32344E+00-6.32344E+00 0.00000E+00
 -1        36-6.32344E+00-6.32344E+00 0.00000E+00
 -1        37 0.00000E+00 0.00000E+00-1.25729E-10
 -1        38 1.04774E-10 0.00000E+00-1.25729E-10
 -1        39 5.50066E-03 0.00000E+00-8.40515E-09
 -1        40 5.50065E-03 0.00000E+00-7.49082E-09
 -1        41-3.47853E-02 0.00000E+00-2.99105E-09
 -1        42-3.47853E-02 0.00000E+00 1.08701E-08
 -1        43 0.00000E+00 1.04774E-10-1.25729E-10
 -1        44 1.04774E-10 1.04774E-10-1.25729E-10
 -1        45 5.50066E-03 2.07276E-08-8.40515E-09
 -1        46 5.50065E-03 1.83504E-08-7.49082E-09
 -1        47-3.47852E-02 9.45517E-09-2.49453E-09
 -1        48-3.47852E-02-2.65839E-08 1.13667E-08
 -1        49 0.00000E+00 5.50066E-03-8.40515E-09
 -1        50 2.07276E-08 5.50066E-03-8.40515E-09
 -1        51 6.92277E-01 6.92277E-01-1.02058E-08
 -1        52 6.92277E-01 6.92277E-01-1.71617E-08
 -1        53 1.10936E+00-2.15395E-02-1.89526E-09
 -1        54 1.10881E+00-7.66685E-01 4.97619E-09
 -1        55 0.00000E+00 5.50065E-03-7.49082E-09
 -1        56 1.83504E-08 5.50065E-03-7.49082E-09
 -1        57 6.92277E-01 6.92277E-01-1.71617E-08
 -1        58 6.92277E-01 6.92277E-01-2.41177E-08
 -1        59 1.85451E+00-2.20948E-02-5.17198E-09
 -1        60 1.85395E+00-7.67240E-01 1.69947E-09
 -1        61 0.00000E+00-3.47853E-02-2.99105E-09
 -1        62 9.45517E-09-3.47852E-02-2.49453E-09
 -1        63-2.15395E-02 1.10936E+00-1.89526E-09
 -1        64-2.20948E-02 1.85451E+00-5.17198E-09
 -1        65-6.32344E+00-6.32344E+00 1.03403E-16
 -1        66-6.32344E+00-6.32344E+00 1.88340E-16
 -1        67 0.00000E+00-3.47853E-02 1.08701E-08
 -1        68-2.65839E-08-3.47852E-02 1.13667E-08
 -1        69-7.66685E-01 1.10881E+00 4.97619E-09
 -1        70-7.67240E-01 1.85395E+00 1.69947E-09
 -1        71-6.32344E+00-6.32344E+00 4.83934E-16
 -1        72-6.32344E+00-6.32344E+00-2.67298E-16
 -3
    1PSTEP                        83          28           1          
  100CL  128 2.10781E-01          72                     0   28           1
 -4  STRESS      6    1
 -5  SXX         1    4    1    1
 -5  SYY         1    4    2    2
 -5  SZZ         1    4    3    3
 -5  SXY         1    4    1    2
 -5  SYZ         1    4    2    3
 -5  SZX         1    4    3    1
 -1         1 6.28621E-08 6.28621E-08-7.95082E-15-3.13723E-19 4.64560E-20 4.64520E-20
 -1         2 3.14311E-08 3.14311E-08 2.14925E-15 4.63723E-15 2.32280E-20-1.04075E-15
 -1         3 5.06090E-09 4.36967E-06 5.16941E-08 2.26817E-07-2.42733E-19-3.69244E-08
 -1         4-2.03826E-07 3.77677E-06-5.16941E-08 2.26817E-07-2.66300E-19-3.69245E-08
 -1         5 1.63764E-06 2.78525E-06 8.78191E-07 1.43134E-06-4.69800E-13-5.62081E-07
 -1         6-3.05818E-06-1.24063E-05-1.37836E-06 2.49859E-06-9.39596E-13-1.11494E-06
 -1         7 3.14311E-08 3.14311E-08 2.14915E-15 4.63735E-15-1.04069E-15 2.32281E-20
 -1         8 2.09541E-08 2.09541E-08 5.51597E-15 6.18316E-15-6.93958E-16-6.93786E-16
 -1         9 3.37401E-09 2.91311E-06 3.44628E-08 2.32067E-08 1.63738E-14-2.46163E-08
 -1        10-1.35884E-07 2.51784E-06-3.44628E-08 2.32067E-08 1.51243E-14-2.46163E-08
 -1        11 6.95638E-07 1.70344E-06 4.70256E-07-9.86329E-07-8.21789E-09-3.74721E-07
 -1        12-2.12327E-06-6.43324E-06-8.61988E-07-1.66154E-06-1.23268E-08-5.57470E-07
 -1        13 4.36967E-06 5.06090E-09 5.16941E-08 2.26817E-07-3.69244E-08-2.42739E-19
 -1        14 2.91311E-06 3.37401E-09 3.44628E-08 2.32067E-08-2.46163E-08 1.63718E-14
 -1        15 8.26919E-07 8.26919E-07-5.24366E-07-2.80642E-07 1.87274E-07 1.87274E-07
 -1        16 1.88635E-06 3.83400E-06 2.28901E-14 6.93181E-07 1.87274E-07 1.87274E-07
 -1        17 1.13984E-06-5.63905E-08 1.35509E-07 9.37286E-07 8.84945E-08-1.84868E-07
 -1        18 1.41947E-07-4.54248E-06-5.73734E-07 2.08973E-06 1.32742E-07-2.77302E-07
 -1        19 3.77677E-06-2.03826E-07-5.16941E-08 2.26817E-07-3.69245E-08-2.66193E-19
 -1        20 2.51784E-06-1.35884E-07-3.44628E-08 2.32067E-08-2.46163E-08 1.51236E-14
 -1        21 3.83400E-06 1.88635E-06 4.07501E-14 6.93181E-07 1.87274E-07 1.87274E-07
 -1        22 4.89343E-06 4.89343E-06 5.24366E-07 1.66700E-06 1.87274E-07 1.87274E-07
 -1        23 2.55351E-06 4.45546E-07 3.82522E-07-2.60748E-08 8.84945E-08-1.84868E-07
 -1        24 2.26246E-06-3.78957E-06-2.03215E-07 6.44691E-07 1.32742E-07-2.77302E-07
 -1        25 2.78525E-06 1.63764E-06 8.78191E-07 1.43134E-06-5.62081E-07-4.69800E-13
 -1        26 1.70344E-06 6.95638E-07 4.70256E-07-9.86329E-07-3.74721E-07-8.21789E-09
 -1        27-5.63905E-08 1.13984E-06 1.35509E-07 9.37286E-07-1.84868E-07 8.84945E-08
 -1        28 4.45546E-07 2.55351E-06 3.82522E-07-2.60748E-08-1.84868E-07 8.84945E-08
 -1        29 2.06465E-14 4.02214E-14 2.86003E-14 9.78743E-15 3.84897E-14 3.84900E-14
 -1        30-1.99123E-13-4.86350E-13-1.77392E-13-1.43614E-13 9.93811E-14 9.93818E-14
 -1        31-1.24063E-05-3.05818E-06-1.37836E-06 2.49859E-06-1.11494E-06-9.39596E-13
 -1        32-6.43324E-06-2.12327E-06-8.61988E-07-1.66154E-06-5.57470E-07-1.23268E-08
 -1        33-4.54248E-06 1.41947E-07-5.73734E-07 2.08973E-06-2.77302E-07 1.32742E-07
 -1        34-3.78957E-06 2.26246E-06-2.03215E-07 6.44691E-07-2.77302E-07 1.32742E-07
 -1        35 1.65053E-13 3.29287E-13 2.20891E-13 8.21168E-14-8.64463E-14-8.64461E-14
 -1        36 2.88588E-14 1.29022E-13-3.28255E-14 5.00814E-14-9.76715E-14-9.76707E-14
 -1        37 6.28621E-08 6.28621E-08-1.66930E-14-3.13724E-19-6.65166E-16-6.65231E-16
 -1        38 3.14311E-08 3.14311E-08-2.22238E-15 4.63733E-15-3.32528E-16-1.37339E-15
 -1        39 5.06083E-09 4.36967E-06 5.16941E-08 2.26817E-07-1.84635E-14 3.69244E-08
 -1        40-2.03826E-07 3.77677E-06-5.16941E-08 2.26817E-07-2.32142E-14 3.69244E-08
 -1        41 1.63435E-06 2.73453E-06 8.61988E-07 1.43134E-06 4.01026E-08 5.57470E-07
 -1        42-3.06477E-06-1.25077E-05-1.41077E-06 2.49859E-06 8.02052E-08 1.12416E-06
 -1        43 3.14311E-08 3.14311E-08-2.22181E-15 4.63700E-15-1.37329E-15-3.32560E-16
 -1        44 2.09541E-08 2.09541E-08 2.60164E-15 6.18299E-15-9.15658E-16-9.15508E-16
 -1        45 3.37397E-09 2.91311E-06 3.44628E-08 2.32067E-08 4.06443E-15 2.46163E-08
 -1        46-1.35884E-07 2.51784E-06-3.44628E-08 2.32067E-08-3.52088E-16 2.46163E-08
 -1        47 6.93442E-07 1.66962E-06 4.59454E-07-9.86329E-07 1.85175E-08 3.71647E-07
 -1        48-2.12657E-06-6.48396E-06-8.78191E-07-1.66154E-06 2.77762E-08 5.62081E-07
 -1        49 4.36967E-06 5.06083E-09 5.16941E-08 2.26817E-07 3.69244E-08-1.84620E-14
 -1        50 2.91311E-06 3.37397E-09 3.44628E-08 2.32067E-08 2.46163E-08 4.06355E-15
 -1        51 8.26919E-07 8.26919E-07-5.24366E-07-2.80642E-07-1.87274E-07-1.87274E-07
 -1        52 1.88635E-06 3.83400E-06-5.03171E-15 6.93181E-07-1.87274E-07-1.87274E-07
 -1        53 1.13984E-06-5.63905E-08 1.35509E-07 9.37286E-07-8.84945E-08 1.84868E-07
 -1        54 1.41947E-07-4.54248E-06-5.73735E-07 2.08973E-06-1.32742E-07 2.77302E-07
 -1        55 3.77677E-06-2.03826E-07-5.16941E-08 2.26817E-07 3.69244E-08-2.32135E-14
 -1        56 2.51784E-06-1.35884E-07-3.44628E-08 2.32067E-08 2.46163E-08-3.52381E-16
 -1        57 3.83400E-06 1.88635E-06-5.23284E-15 6.93181E-07-1.87274E-07-1.87274E-07
 -1        58 4.89343E-06 4.89343E-06 5.24366E-07 1.66700E-06-1.87274E-07-1.87274E-07
 -1        59 2.55351E-06 4.45546E-07 3.82522E-07-2.60748E-08-8.84945E-08 1.84868E-07
 -1        60 2.26246E-06-3.78957E-06-2.03215E-07 6.44691E-07-1.32742E-07 2.77302E-07
 -1        61 2.73453E-06 1.63435E-06 8.61988E-07 1.43134E-06 5.57470E-07 4.01026E-08
 -1        62 1.66962E-06 6.93442E-07 4.59454E-07-9.86329E-07 3.71647E-07 1.85175E-08
 -1        63-5.63905E-08 1.13984E-06 1.35509E-07 9.37286E-07 1.84868E-07-8.84945E-08
 -1        64 4.45546E-07 2.55351E-06 3.82522E-07-2.60748E-08 1.84868E-07-8.84945E-08
 -1        65 5.75484E-14 1.26326E-13 6.55022E-14 3.43887E-14 2.45868E-14 8.67053E-15
 -1        66 2.24792E-13 5.02783E-13 2.46522E-13 1.38996E-13-1.44102E-13-1.00440E-13
 -1        67-1.25077E-05-3.06477E-06-1.41077E-06 2.49859E-06 1.12416E-06 8.02052E-08
 -1        68-6.48396E-06-2.12657E-06-8.78191E-07-1.66154E-06 5.62081E-07 2.77762E-08
 -1        69-4.54248E-06 1.41947E-07-5.73734E-07 2.08973E-06 2.77302E-07-1.32742E-07
 -1        70-3.78957E-06 2.26246E-06-2.03215E-07 6.44691E-07 2.77302E-07-1.32742E-07
 -1        71-4.74996E-13-1.16416E-12-4.19158E-13-3.44583E-13 6.88143E-15-8.45290E-14
 -1        72 1.00158E-13 2.95387E-13 3.84741E-14 9.76145E-14 3.03504E-13 2.55755E-13
 -3
    1PSTEP                        84          28           1          
  100CL  128 2.10781E-01          72                     0   28           1
 -4  TOSTRAIN    6    1
 -5  EXX         1    4    1    1
 -5  EYY         1    4    2    2
 -5  EZZ         1    4    3    3
 -5  EXY         1    4    1    2
 -5  EYZ         1    4    2    3
 -5  EZX         1    4    3    1
 -1         1 2.09540E-13 2.09540E-13-1.79606E-13-1.94210E-24 2.87584E-25 2.87560E-25
 -1         2 1.04770E-13 1.04770E-13-8.98031E-14 2.87067E-20 1.43792E-25-6.44273E-21
 -1         3-6.29213E-12 2.07269E-11-6.00345E-12 1.40410E-12-1.50261E-24-2.28580E-13
 -1         4-6.29213E-12 1.83496E-11-5.35036E-12 1.40411E-12-1.64850E-24-2.28580E-13
 -1         5 2.56479E-12 9.66905E-12-2.13655E-12 8.86068E-12-2.90829E-18-3.47955E-12
 -1         6 5.12959E-12-5.27397E-11 1.55285E-11 1.54675E-11-5.81654E-18-6.90201E-12
 -1         7 1.04770E-13 1.04770E-13-8.98031E-14 2.87074E-20-6.44235E-21 1.43793E-25
 -1         8 6.98469E-14 6.98469E-14-5.98687E-14 3.82767E-20-4.29593E-21-4.29486E-21
 -1         9-4.19475E-12 1.38179E-11-4.00230E-12 1.43660E-13 1.01361E-19-1.52387E-13
 -1        10-4.19475E-12 1.22331E-11-3.56691E-12 1.43660E-13 9.36260E-20-1.52387E-13
 -1        11 2.07287E-13 6.44603E-12-1.18793E-12-6.10584E-12-5.08727E-14-2.31970E-12
 -1        12 3.10930E-13-2.63698E-11 8.11889E-12-1.02857E-11-7.63090E-14-3.45101E-12
 -1        13 2.07269E-11-6.29213E-12-6.00345E-12 1.40410E-12-2.28580E-13-1.50265E-24
 -1        14 1.38179E-11-4.19475E-12-4.00230E-12 1.43660E-13-1.52387E-13 1.01349E-19
 -1        15 3.50549E-12 3.50549E-12-4.85961E-12-1.73731E-12 1.15931E-12 1.15931E-12
 -1        16 3.50549E-12 1.55623E-11-8.17193E-12 4.29112E-12 1.15931E-12 1.15931E-12
 -1        17 5.29746E-12-2.07314E-12-9.02499E-13 5.81326E-12 5.46117E-13-1.14524E-12
 -1        18 7.94619E-12-2.09754E-11 3.55440E-12 1.29796E-11 8.19175E-13-1.71785E-12
 -1        19 1.83496E-11-6.29213E-12-5.35036E-12 1.40411E-12-2.28580E-13-1.64784E-24
 -1        20 1.22331E-11-4.19475E-12-3.56691E-12 1.43660E-13-1.52387E-13 9.36215E-20
 -1        21 1.55623E-11 3.50549E-12-8.17193E-12 4.29112E-12 1.15931E-12 1.15931E-12
 -1        22 1.55623E-11 1.55623E-11-1.14843E-11 1.03195E-11 1.15931E-12 1.15931E-12
 -1        23 1.09771E-11-2.07314E-12-2.46283E-12-1.41968E-13 5.46117E-13-1.14524E-12
 -1        24 1.64656E-11-2.09754E-11 1.21390E-12 4.04676E-12 8.19175E-13-1.71785E-12
 -1        25 9.66905E-12 2.56479E-12-2.13655E-12 8.86068E-12-3.47955E-12-2.90829E-18
 -1        26 6.44603E-12 2.07287E-13-1.18793E-12-6.10584E-12-2.31970E-12-5.08727E-14
 -1        27-2.07314E-12 5.29746E-12-9.02499E-13 5.81326E-12-1.14524E-12 5.46117E-13
 -1        28-2.07314E-12 1.09771E-11-2.46283E-12-1.41967E-13-1.14524E-12 5.46117E-13
 -1        29 1.21441E-38 1.21178E-19 4.92379E-20 6.05888E-20 2.38270E-19 2.38271E-19
 -1        30 1.82162E-38-1.77808E-18 1.34523E-19-8.89038E-19 6.15217E-19 6.15221E-19
 -1        31-5.27397E-11 5.12959E-12 1.55285E-11 1.54675E-11-6.90201E-12-5.81654E-18
 -1        32-2.63698E-11 3.10930E-13 8.11889E-12-1.02857E-11-3.45101E-12-7.63090E-14
 -1        33-2.09754E-11 7.94619E-12 3.55440E-12 1.29796E-11-1.71785E-12 8.19175E-13
 -1        34-2.09754E-11 1.64656E-11 1.21390E-12 4.04676E-12-1.71785E-12 8.19175E-13
 -1        35-7.46370E-38 1.01668E-18 3.45661E-19 5.08342E-19-5.35144E-19-5.35143E-19
 -1        36-1.49274E-37 6.20055E-19-3.81855E-19 3.10028E-19-6.04633E-19-6.04628E-19
 -1        37 2.09540E-13 2.09540E-13-1.79606E-13-1.94210E-24-4.11769E-21-4.11809E-21
 -1        38 1.04770E-13 1.04770E-13-8.98031E-14 2.87073E-20-2.05850E-21-8.50192E-21
 -1        39-6.29213E-12 2.07269E-11-6.00345E-12 1.40411E-12-1.14301E-19 2.28580E-13
 -1        40-6.29213E-12 1.83496E-11-5.35036E-12 1.40411E-12-1.43709E-19 2.28580E-13
 -1        41 2.64471E-12 9.45539E-12-2.13655E-12 8.86068E-12 2.48254E-13 3.45101E-12
 -1        42 5.28942E-12-5.31670E-11 1.55285E-11 1.54675E-11 4.96508E-13 6.95910E-12
 -1        43 1.04770E-13 1.04770E-13-8.98031E-14 2.87053E-20-8.50134E-21-2.05871E-21
 -1        44 6.98469E-14 6.98469E-14-5.98687E-14 3.82757E-20-5.66836E-21-5.66743E-21
 -1        45-4.19475E-12 1.38179E-11-4.00230E-12 1.43660E-13 2.51612E-20 1.52387E-13
 -1        46-4.19475E-12 1.22331E-11-3.56691E-12 1.43660E-13-2.17913E-21 1.52386E-13
 -1        47 2.60565E-13 6.30360E-12-1.18793E-12-6.10584E-12 1.14632E-13 2.30067E-12
 -1        48 3.90848E-13-2.65835E-11 8.11889E-12-1.02857E-11 1.71948E-13 3.47955E-12
 -1        49 2.07269E-11-6.29213E-12-6.00345E-12 1.40411E-12 2.28580E-13-1.14291E-19
 -1        50 1.38179E-11-4.19475E-12-4.00230E-12 1.43660E-13 1.52387E-13 2.51558E-20
 -1        51 3.50549E-12 3.50549E-12-4.85961E-12-1.73731E-12-1.15931E-12-1.15931E-12
 -1        52 3.50549E-12 1.55623E-11-8.17193E-12 4.29112E-12-1.15931E-12-1.15931E-12
 -1        53 5.29746E-12-2.07314E-12-9.02499E-13 5.81326E-12-5.46117E-13 1.14524E-12
 -1        54 7.94619E-12-2.09754E-11 3.55440E-12 1.29796E-11-8.19175E-13 1.71785E-12
 -1        55 1.83496E-11-6.29213E-12-5.35036E-12 1.40411E-12 2.28580E-13-1.43705E-19
 -1        56 1.22331E-11-4.19475E-12-3.56691E-12 1.43660E-13 1.52386E-13-2.18094E-21
 -1        57 1.55623E-11 3.50549E-12-8.17193E-12 4.29112E-12-1.15931E-12-1.15931E-12
 -1        58 1.55623E-11 1.55623E-11-1.14843E-11 1.03195E-11-1.15931E-12-1.15931E-12
 -1        59 1.09771E-11-2.07314E-12-2.46283E-12-1.41967E-13-5.46117E-13 1.14524E-12
 -1        60 1.64656E-11-2.09754E-11 1.21390E-12 4.04676E-12-8.19175E-13 1.71785E-12
 -1        61 9.45539E-12 2.64471E-12-2.13655E-12 8.86068E-12 3.45101E-12 2.48254E-13
 -1        62 6.30360E-12 2.60565E-13-1.18793E-12-6.10584E-12 2.30067E-12 1.14632E-13
 -1        63-2.07314E-12 5.29746E-12-9.02499E-13 5.81326E-12 1.14524E-12-5.46117E-13
 -1        64-2.07314E-12 1.09771E-11-2.46283E-12-1.41967E-13 1.14524E-12-5.46117E-13
 -1        65-6.07310E-38 4.25765E-19 4.92379E-20 2.12882E-19 1.52204E-19 5.36747E-20
 -1        66-9.10965E-38 1.72090E-18 1.34523E-19 8.60450E-19-8.92058E-19-6.21771E-19
 -1        67-5.31670E-11 5.28942E-12 1.55285E-11 1.54675E-11 6.95910E-12 4.96508E-13
 -1        68-2.65835E-11 3.90848E-13 8.11889E-12-1.02857E-11 3.47955E-12 1.71948E-13
 -1        69-2.09754E-11 7.94619E-12 3.55440E-12 1.29796E-11 1.71785E-12-8.19175E-13
 -1        70-2.09754E-11 1.64656E-11 1.21390E-12 4.04676E-12 1.71785E-12-8.19175E-13
 -1        71 3.73178E-37-4.26626E-18 3.45661E-19-2.13313E-18 4.25993E-20-5.23275E-19
 -1        72 7.46355E-37 1.20856E-18-3.81855E-19 6.04280E-19 1.87883E-18 1.58324E-18
 -3
    1PSTEP                        85          29           1          
  100CL  129 2.19781E-01          72                     0   29           1
 -4  DISP        4    1
 -5  D1          1    2    1    0
 -5  D2          1    2    2    0
 -5  D3          1    2    3    0
 -5  ALL         1    2    0    0    1ALL
 -1         1 0.00000E+00 0.00000E+00 0.00000E+00
 -1         2 1.79668E-10 0.00000E+00 0.00000E+00
 -1         3 9.43257E-03 0.00000E+00 0.00000E+00
 -1         4 9.43257E-03 0.00000E+00 0.00000E+00
 -1         5-2.35503E-02 0.00000E+00 0.00000E+00
 -1         6-2.35503E-02 0.00000E+00 0.00000E+00
 -1         7 0.00000E+00 1.79668E-10 0.00000E+00
 -1         8 1.79668E-10 1.79668E-10 0.00000E+00
 -1         9 9.43258E-03 1.98922E-08 0.00000E+00
 -1        10 9.43257E-03 1.76900E-08 0.00000E+00
 -1        11-2.35503E-02 1.05794E-08 0.00000E+00
 -1        12-2.35503E-02-2.49995E-08 0.00000E+00
 -1        13 0.00000E+00 9.43257E-03 0.00000E+00
 -1        14 1.98922E-08 9.43258E-03 0.00000E+00
 -1        15 6.68039E-01 6.68039E-01 0.00000E+00
 -1        16 6.68039E-01 6.68039E-01 0.00000E+00
 -1        17 1.06159E+00 2.12477E-02 0.00000E+00
 -1        18 1.06106E+00-7.06291E-01 0.00000E+00
 -1        19 0.00000E+00 9.43257E-03 0.00000E+00
 -1        20 1.76900E-08 9.43257E-03 0.00000E+00
 -1        21 6.68039E-01 6.68039E-01 0.00000E+00
 -1        22 6.68039E-01 6.68039E-01 0.00000E+00
 -1        23 1.78913E+00 2.07184E-02 0.00000E+00
 -1        24 1.78860E+00-7.06820E-01 0.00000E+00
 -1        25 0.00000E+00-2.35503E-02 0.00000E+00
 -1        26 1.05794E-08-2.35503E-02 0.00000E+00
 -1        27 2.12477E-02 1.06159E+00 0.00000E+00
 -1        28 2.07184E-02 1.78913E+00 0.00000E+00
 -1        29-6.59344E+00-6.59344E+00 0.00000E+00
 -1        30-6.59344E+00-6.59344E+00 0.00000E+00
 -1        31 0.00000E+00-2.35503E-02 0.00000E+00
 -1        32-2.49995E-08-2.35503E-02 0.00000E+00
 -1        33-7.06291E-01 1.06106E+00 0.00000E+00
 -1        34-7.06820E-01 1.78860E+00 0.00000E+00
 -1        35-6.59344E+00-6.59344E+00 0.00000E+00
 -1        36-6.59344E+00-6.59344E+00 0.00000E+00
 -1        37 0.00000E+00 0.00000E+00-2.15602E-10
 -1        38 1.79668E-10 0.00000E+00-2.15602E-10
 -1        39 9.43257E-03 0.00000E+00-8.14083E-09
 -1        40 9.43257E-03 0.00000E+00-7.29383E-09
 -1        41-2.35503E-02 0.00000E+00-3.44675E-09
 -1        42-2.35503E-02 0.00000E+00 1.02374E-08
 -1        43 0.00000E+00 1.79668E-10-2.15602E-10
 -1        44 1.79668E-10 1.79668E-10-2.15602E-10
 -1        45 9.43258E-03 1.98922E-08-8.14083E-09
 -1        46 9.43257E-03 1.76900E-08-7.29383E-09
 -1        47-2.35503E-02 1.03832E-08-2.99084E-09
 -1        48-2.35503E-02-2.51956E-08 1.06933E-08
 -1        49 0.00000E+00 9.43257E-03-8.14083E-09
 -1        50 1.98922E-08 9.43258E-03-8.14083E-09
 -1        51 6.68039E-01 6.68039E-01-9.64687E-09
 -1        52 6.68039E-01 6.68039E-01-1.64822E-08
 -1        53 1.06159E+00 2.12477E-02-2.19310E-09
 -1        54 1.06106E+00-7.06291E-01 4.70687E-09
 -1        55 0.00000E+00 9.43257E-03-7.29383E-09
 -1        56 1.76900E-08 9.43257E-03-7.29383E-09
 -1        57 6.68039E-01 6.68039E-01-1.64822E-08
 -1        58 6.68039E-01 6.68039E-01-2.33175E-08
 -1        59 1.78913E+00 2.07184E-02-5.67372E-09
 -1        60 1.78860E+00-7.06820E-01 1.22625E-09
 -1        61 0.00000E+00-2.35503E-02-3.44675E-09
 -1        62 1.03832E-08-2.35503E-02-2.99084E-09
 -1        63 2.12477E-02 1.06159E+00-2.19310E-09
 -1        64 2.07184E-02 1.78913E+00-5.67372E-09
 -1        65-6.59344E+00-6.59344E+00 4.61144E-16
 -1        66-6.59344E+00-6.59344E+00-6.37696E-17
 -1        67 0.00000E+00-2.35503E-02 1.02374E-08
 -1        68-2.51956E-08-2.35503E-02 1.06933E-08
 -1        69-7.06291E-01 1.06106E+00 4.70687E-09
 -1        70-7.06820E-01 1.78860E+00 1.22625E-09
 -1        71-6.59344E+00-6.59344E+00 4.92518E-17
 -1        72-6.59344E+00-6.59344E+00-1.45605E-16
 -3
    1PSTEP                        86          29           1          
  100CL  129 2.19781E-01          72                     0   29           1
 -4  STRESS      6    1
 -5  SXX         1    4    1    1
 -5  SYY         1    4    2    2
 -5  SZZ         1    4    3    3
 -5  SXY         1    4    1    2
 -5  SYZ         1    4    2    3
 -5  SZX         1    4    3    1
 -1         1 1.07797E-07 1.07797E-07-7.40435E-15-2.91614E-19 4.34060E-20 4.34023E-20
 -1         2 5.38983E-08 5.38983E-08 1.95897E-15 4.31020E-15 2.16998E-20-9.61273E-16
 -1         3 2.94696E-08 4.20042E-06 4.78881E-08 2.10117E-07-2.13584E-19-3.42058E-08
 -1         4-1.64038E-07 3.65117E-06-4.78881E-08 2.10117E-07-2.35527E-19-3.42059E-08
 -1         5 1.62443E-06 2.96717E-06 8.60452E-07 1.42617E-06-4.31378E-13-5.54743E-07
 -1         6-3.00371E-06-1.18129E-05-1.37380E-06 2.51804E-06-8.62752E-13-1.10102E-06
 -1         7 5.38983E-08 5.38983E-08 1.95830E-15 4.31065E-15-9.60954E-16 2.17015E-20
 -1         8 3.59322E-08 3.59322E-08 5.07963E-15 5.74733E-15-6.40849E-16-6.40636E-16
 -1         9 1.96465E-08 2.80028E-06 3.19254E-08 2.14980E-08 1.60534E-14-2.28039E-08
 -1        10-1.09358E-07 2.43411E-06-3.19254E-08 2.14981E-08 1.48641E-14-2.28039E-08
 -1        11 7.19229E-07 1.83726E-06 4.67853E-07-9.64990E-07-7.54577E-09-3.69829E-07
 -1        12-2.04744E-06-6.11771E-06-8.45574E-07-1.61464E-06-1.13187E-08-5.50509E-07
 -1        13 4.20042E-06 2.94696E-08 4.78881E-08 2.10117E-07-3.42058E-08-2.13773E-19
 -1        14 2.80028E-06 1.96465E-08 3.19254E-08 2.14980E-08-2.28039E-08 1.60402E-14
 -1        15 7.48919E-07 7.48919E-07-5.15274E-07-2.73127E-07 1.84026E-07 1.84026E-07
 -1        16 1.78998E-06 3.70386E-06 2.89820E-14 6.83810E-07 1.84026E-07 1.84026E-07
 -1        17 1.05061E-06 1.10160E-07 1.28925E-07 9.00330E-07 9.39787E-08-1.85631E-07
 -1        18 1.67393E-09-4.31122E-06-5.86835E-07 2.07720E-06 1.40968E-07-2.78446E-07
 -1        19 3.65117E-06-1.64038E-07-4.78881E-08 2.10117E-07-3.42059E-08-2.35559E-19
 -1        20 2.43411E-06-1.09358E-07-3.19254E-08 2.14981E-08-2.28039E-08 1.48712E-14
 -1        21 3.70386E-06 1.78998E-06 1.58226E-14 6.83810E-07 1.84026E-07 1.84026E-07
 -1        22 4.74492E-06 4.74492E-06 5.15274E-07 1.64075E-06 1.84026E-07 1.84026E-07
 -1        23 2.55249E-06 6.43096E-07 3.91309E-07-6.70741E-08 9.39787E-08-1.85631E-07
 -1        24 2.25449E-06-3.51182E-06-1.93259E-07 6.26095E-07 1.40968E-07-2.78446E-07
 -1        25 2.96717E-06 1.62443E-06 8.60452E-07 1.42617E-06-5.54743E-07-4.31378E-13
 -1        26 1.83726E-06 7.19229E-07 4.67853E-07-9.64990E-07-3.69829E-07-7.54577E-09
 -1        27 1.10160E-07 1.05061E-06 1.28925E-07 9.00330E-07-1.85631E-07 9.39787E-08
 -1        28 6.43096E-07 2.55249E-06 3.91309E-07-6.70741E-08-1.85631E-07 9.39787E-08
 -1        29 5.54935E-14 9.40127E-14 9.09656E-14 1.92596E-14 1.67750E-14 1.67751E-14
 -1        30 1.47668E-14 4.18141E-14 7.40859E-15 1.35236E-14-3.17504E-14-3.17503E-14
 -1        31-1.18129E-05-3.00371E-06-1.37380E-06 2.51804E-06-1.10102E-06-8.62752E-13
 -1        32-6.11771E-06-2.04744E-06-8.45574E-07-1.61464E-06-5.50509E-07-1.13187E-08
 -1        33-4.31122E-06 1.67408E-09-5.86835E-07 2.07720E-06-2.78446E-07 1.40968E-07
 -1        34-3.51182E-06 2.25449E-06-1.93259E-07 6.26095E-07-2.78446E-07 1.40968E-07
 -1        35-1.98396E-14-5.19751E-14-1.41570E-14-1.60677E-14-7.74260E-14-7.74258E-14
 -1        36 5.18723E-13 1.24396E-12 4.85122E-13 3.62616E-13-2.95768E-14-2.95764E-14
 -1        37 1.07797E-07 1.07797E-07-1.54779E-14-2.91614E-19-6.43989E-16-6.43989E-16
 -1        38 5.38983E-08 5.38983E-08-2.07846E-15 4.31065E-15-3.21994E-16-1.28329E-15
 -1        39 2.94696E-08 4.20042E-06 4.78881E-08 2.10117E-07-1.82241E-14 3.42058E-08
 -1        40-1.64038E-07 3.65117E-06-4.78881E-08 2.10117E-07-2.26419E-14 3.42058E-08
 -1        41 1.62140E-06 2.92060E-06 8.45574E-07 1.42617E-06 3.68227E-08 5.50510E-07
 -1        42-3.00976E-06-1.19060E-05-1.40356E-06 2.51804E-06 7.36455E-08 1.10949E-06
 -1        43 5.38983E-08 5.38983E-08-2.07779E-15 4.31020E-15-1.28297E-15-3.21994E-16
 -1        44 3.59322E-08 3.59322E-08 2.38846E-15 5.74733E-15-8.55526E-16-8.55313E-16
 -1        45 1.96465E-08 2.80028E-06 3.19254E-08 2.14981E-08 3.90381E-15 2.28039E-08
 -1        46-1.09358E-07 2.43411E-06-3.19254E-08 2.14981E-08-2.30695E-16 2.28039E-08
 -1        47 7.17213E-07 1.80622E-06 4.57934E-07-9.64990E-07 1.70030E-08 3.67006E-07
 -1        48-2.05047E-06-6.16427E-06-8.60452E-07-1.61464E-06 2.55045E-08 5.54743E-07
 -1        49 4.20042E-06 2.94696E-08 4.78881E-08 2.10117E-07 3.42058E-08-1.81827E-14
 -1        50 2.80028E-06 1.96465E-08 3.19254E-08 2.14980E-08 2.28039E-08 3.91813E-15
 -1        51 7.48919E-07 7.48919E-07-5.15274E-07-2.73127E-07-1.84026E-07-1.84026E-07
 -1        52 1.78998E-06 3.70386E-06-2.75256E-14 6.83810E-07-1.84026E-07-1.84026E-07
 -1        53 1.05061E-06 1.10160E-07 1.28925E-07 9.00330E-07-9.39787E-08 1.85631E-07
 -1        54 1.67393E-09-4.31122E-06-5.86835E-07 2.07720E-06-1.40968E-07 2.78446E-07
 -1        55 3.65117E-06-1.64038E-07-4.78881E-08 2.10117E-07 3.42058E-08-2.26618E-14
 -1        56 2.43411E-06-1.09358E-07-3.19254E-08 2.14981E-08 2.28039E-08-2.36968E-16
 -1        57 3.70386E-06 1.78998E-06 1.59613E-14 6.83810E-07-1.84026E-07-1.84026E-07
 -1        58 4.74492E-06 4.74492E-06 5.15274E-07 1.64075E-06-1.84026E-07-1.84026E-07
 -1        59 2.55249E-06 6.43096E-07 3.91309E-07-6.70741E-08-9.39787E-08 1.85631E-07
 -1        60 2.25449E-06-3.51182E-06-1.93259E-07 6.26095E-07-1.40968E-07 2.78446E-07
 -1        61 2.92060E-06 1.62140E-06 8.45574E-07 1.42617E-06 5.50510E-07 3.68227E-08
 -1        62 1.80622E-06 7.17213E-07 4.57934E-07-9.64990E-07 3.67006E-07 1.70030E-08
 -1        63 1.10160E-07 1.05061E-06 1.28925E-07 9.00330E-07 1.85631E-07-9.39787E-08
 -1        64 6.43096E-07 2.55249E-06 3.91309E-07-6.70742E-08 1.85631E-07-9.39787E-08
 -1        65-8.02699E-14-2.22768E-13-4.47977E-14-7.12493E-14-5.09956E-14-5.70812E-14
 -1        66-8.64992E-14-1.94473E-13-9.38574E-14-5.39870E-14 2.09833E-13 1.74046E-13
 -1        67-1.19060E-05-3.00976E-06-1.40356E-06 2.51804E-06 1.10949E-06 7.36455E-08
 -1        68-6.16427E-06-2.05047E-06-8.60452E-07-1.61464E-06 5.54743E-07 2.55045E-08
 -1        69-4.31122E-06 1.67386E-09-5.86835E-07 2.07720E-06 2.78446E-07-1.40968E-07
 -1        70-3.51182E-06 2.25449E-06-1.93259E-07 6.26095E-07 2.78446E-07-1.40968E-07
 -1        71-1.80215E-13-4.26184E-13-1.74532E-13-1.22984E-13 1.27131E-14 3.02428E-14
 -1        72-6.78515E-15 1.77695E-14-4.03867E-14 1.22773E-14-2.32114E-13-2.50370E-13
 -3
    1PSTEP                        87          29           1          
  100CL  129 2.19781E-01          72                     0   29           1
 -4  TOSTRAIN    6    1
 -5  EXX         1    4    1    1
 -5  EYY         1    4    2    2
 -5  EZZ         1    4    3    3
 -5  EXY         1    4    1    2
 -5  EYZ         1    4    2    3
 -5  EZX         1    4    3    1
 -1         1 3.59322E-13 3.59322E-13-3.07990E-13-1.80523E-24 2.68704E-25 2.68681E-25
 -1         2 1.79661E-13 1.79661E-13-1.53995E-13 2.66822E-20 1.34332E-25-5.95074E-21
 -1         3-5.92868E-12 1.98915E-11-5.81466E-12 1.30073E-12-1.32217E-24-2.11750E-13
 -1         4-5.92868E-12 1.76893E-11-5.20966E-12 1.30073E-12-1.45801E-24-2.11751E-13
 -1         5 2.26734E-12 1.05796E-11-2.46204E-12 8.82869E-12-2.67044E-18-3.43412E-12
 -1         6 4.53468E-12-4.99981E-11 1.46246E-11 1.55878E-11-5.34084E-18-6.81583E-12
 -1         7 1.79661E-13 1.79661E-13-1.53995E-13 2.66850E-20-5.94876E-21 1.34343E-25
 -1         8 1.19774E-13 1.19774E-13-1.02663E-13 3.55787E-20-3.96716E-21-3.96584E-21
 -1         9-3.95245E-12 1.32610E-11-3.87644E-12 1.33083E-13 9.93779E-20-1.41167E-13
 -1        10-3.95245E-12 1.17929E-11-3.47310E-12 1.33083E-13 9.20154E-20-1.41167E-13
 -1        11 1.31876E-13 7.05304E-12-1.42426E-12-5.97374E-12-4.67119E-14-2.28942E-12
 -1        12 1.97814E-13-2.49990E-11 7.63795E-12-9.99538E-12-7.00679E-14-3.40792E-12
 -1        13 1.98915E-11-5.92868E-12-5.81466E-12 1.30073E-12-2.11750E-13-1.32334E-24
 -1        14 1.32610E-11-3.95245E-12-3.87644E-12 1.33083E-13-1.41167E-13 9.92956E-20
 -1        15 3.23250E-12 3.23250E-12-4.59345E-12-1.69079E-12 1.13921E-12 1.13921E-12
 -1        16 3.23250E-12 1.50803E-11-7.84834E-12 4.23311E-12 1.13921E-12 1.13921E-12
 -1        17 4.64514E-12-1.14425E-12-1.04432E-12 5.58192E-12 5.80100E-13-1.14999E-12
 -1        18 6.96771E-12-1.96562E-11 3.36204E-12 1.28977E-11 8.70150E-13-1.72498E-12
 -1        19 1.76893E-11-5.92868E-12-5.20966E-12 1.30073E-12-2.11751E-13-1.45821E-24
 -1        20 1.17929E-11-3.95245E-12-3.47310E-12 1.33083E-13-1.41167E-13 9.20590E-20
 -1        21 1.50803E-11 3.23250E-12-7.84834E-12 4.23311E-12 1.13921E-12 1.13921E-12
 -1        22 1.50803E-11 1.50803E-11-1.11032E-11 1.01570E-11 1.13921E-12 1.13921E-12
 -1        23 1.06782E-11-1.14425E-12-2.70175E-12-3.98020E-13 5.80100E-13-1.14999E-12
 -1        24 1.60173E-11-1.96562E-11 8.75896E-13 3.92775E-12 8.70150E-13-1.72498E-12
 -1        25 1.05796E-11 2.26734E-12-2.46204E-12 8.82869E-12-3.43412E-12-2.67044E-18
 -1        26 7.05304E-12 1.31876E-13-1.42426E-12-5.97374E-12-2.28942E-12-4.67119E-14
 -1        27-1.14425E-12 4.64514E-12-1.04432E-12 5.58192E-12-1.14999E-12 5.80100E-13
 -1        28-1.14425E-12 1.06782E-11-2.70175E-12-3.98020E-13-1.14999E-12 5.80100E-13
 -1        29-2.85981E-38 2.38452E-19 2.19589E-19 1.19226E-19 1.03845E-19 1.03846E-19
 -1        30-4.28971E-38 1.67435E-19-4.55508E-20 8.37177E-20-1.96550E-19-1.96550E-19
 -1        31-4.99981E-11 4.53468E-12 1.46246E-11 1.55878E-11-6.81583E-12-5.34084E-18
 -1        32-2.49990E-11 1.97814E-13 7.63795E-12-9.99538E-12-3.40792E-12-7.00679E-14
 -1        33-1.96562E-11 6.96771E-12 3.36204E-12 1.28977E-11-1.72498E-12 8.70150E-13
 -1        34-1.96562E-11 1.60173E-11 8.75896E-13 3.92775E-12-1.72498E-12 8.70150E-13
 -1        35-3.30408E-39-1.98934E-19 3.51782E-20-9.94669E-20-4.79304E-19-4.79302E-19
 -1        36-6.60816E-39 4.48953E-18-2.08010E-19 2.24477E-18-1.83094E-19-1.83092E-19
 -1        37 3.59322E-13 3.59322E-13-3.07990E-13-1.80523E-24-3.98660E-21-3.98660E-21
 -1        38 1.79661E-13 1.79661E-13-1.53995E-13 2.66850E-20-1.99330E-21-7.94417E-21
 -1        39-5.92868E-12 1.98915E-11-5.81466E-12 1.30073E-12-1.12818E-19 2.11750E-13
 -1        40-5.92868E-12 1.76893E-11-5.20966E-12 1.30073E-12-1.40166E-19 2.11750E-13
 -1        41 2.34072E-12 1.03834E-11-2.46204E-12 8.82869E-12 2.27950E-13 3.40792E-12
 -1        42 4.68144E-12-5.03905E-11 1.46246E-11 1.55878E-11 4.55901E-13 6.86825E-12
 -1        43 1.79661E-13 1.79661E-13-1.53995E-13 2.66822E-20-7.94219E-21-1.99330E-21
 -1        44 1.19774E-13 1.19774E-13-1.02663E-13 3.55787E-20-5.29611E-21-5.29480E-21
 -1        45-3.95245E-12 1.32610E-11-3.87644E-12 1.33083E-13 2.41668E-20 1.41167E-13
 -1        46-3.95245E-12 1.17929E-11-3.47310E-12 1.33083E-13-1.42771E-21 1.41167E-13
 -1        47 1.80797E-13 6.92225E-12-1.42426E-12-5.97374E-12 1.05257E-13 2.27194E-12
 -1        48 2.71196E-13-2.51952E-11 7.63795E-12-9.99538E-12 1.57885E-13 3.43412E-12
 -1        49 1.98915E-11-5.92868E-12-5.81466E-12 1.30073E-12 2.11750E-13-1.12562E-19
 -1        50 1.32610E-11-3.95245E-12-3.87644E-12 1.33083E-13 1.41167E-13 2.42555E-20
 -1        51 3.23250E-12 3.23250E-12-4.59345E-12-1.69079E-12-1.13921E-12-1.13921E-12
 -1        52 3.23250E-12 1.50803E-11-7.84834E-12 4.23311E-12-1.13921E-12-1.13921E-12
 -1        53 4.64514E-12-1.14425E-12-1.04432E-12 5.58192E-12-5.80100E-13 1.14999E-12
 -1        54 6.96771E-12-1.96562E-11 3.36204E-12 1.28977E-11-8.70150E-13 1.72498E-12
 -1        55 1.76893E-11-5.92868E-12-5.20966E-12 1.30073E-12 2.11750E-13-1.40290E-19
 -1        56 1.17929E-11-3.95245E-12-3.47310E-12 1.33083E-13 1.41167E-13-1.46655E-21
 -1        57 1.50803E-11 3.23250E-12-7.84834E-12 4.23311E-12-1.13921E-12-1.13921E-12
 -1        58 1.50803E-11 1.50803E-11-1.11032E-11 1.01570E-11-1.13921E-12-1.13921E-12
 -1        59 1.06782E-11-1.14425E-12-2.70175E-12-3.98020E-13-5.80100E-13 1.14999E-12
 -1        60 1.60173E-11-1.96562E-11 8.75896E-13 3.92775E-12-8.70150E-13 1.72498E-12
 -1        61 1.03834E-11 2.34072E-12-2.46204E-12 8.82869E-12 3.40792E-12 2.27950E-13
 -1        62 6.92225E-12 1.80797E-13-1.42426E-12-5.97374E-12 2.27194E-12 1.05257E-13
 -1        63-1.14425E-12 4.64514E-12-1.04432E-12 5.58192E-12 1.14999E-12-5.80100E-13
 -1        64-1.14425E-12 1.06782E-11-2.70175E-12-3.98020E-13 1.14999E-12-5.80100E-13
 -1        65 1.42985E-37-8.82134E-19 2.19589E-19-4.41067E-19-3.15687E-19-3.53360E-19
 -1        66 2.14478E-37-6.68411E-19-4.55508E-20-3.34205E-19 1.29896E-18 1.07743E-18
 -1        67-5.03905E-11 4.68144E-12 1.46246E-11 1.55878E-11 6.86825E-12 4.55901E-13
 -1        68-2.51952E-11 2.71196E-13 7.63795E-12-9.99538E-12 3.43412E-12 1.57885E-13
 -1        69-1.96562E-11 6.96771E-12 3.36204E-12 1.28977E-11 1.72498E-12-8.70150E-13
 -1        70-1.96562E-11 1.60173E-11 8.75896E-13 3.92775E-12 1.72498E-12-8.70150E-13
 -1        71 1.65094E-38-1.52266E-18 3.51782E-20-7.61332E-19 7.86999E-20 1.87217E-19
 -1        72 3.30187E-38 1.52005E-19-2.08010E-19 7.60026E-20-1.43689E-18-1.54991E-18
 -3
    1PSTEP                        88          30           1          
  100CL  130 2.28781E-01          72                     0   30           1
 -4  DISP        4    1
 -5  D1          1    2    1    0
 -5  D2          1    2    2    0
 -5  D3          1    2    3    0
 -5  ALL         1    2    0    0    1ALL
 -1         1 0.00000E+00 0.00000E+00 0.00000E+00
 -1         2 2.32440E-10 0.00000E+00 0.00000E+00
 -1         3 1.22031E-02 0.00000E+00 0.00000E+00
 -1         4 1.22031E-02 0.00000E+00 0.00000E+00
 -1         5-1.42500E-02 0.00000E+00 0.00000E+00
 -1         6-1.42500E-02 0.00000E+00 0.00000E+00
 -1         7 0.00000E+00 2.32440E-10 0.00000E+00
 -1         8 2.32440E-10 2.32440E-10 0.00000E+00
 -1         9 1.22031E-02 1.89180E-08 0.00000E+00
 -1        10 1.22031E-02 1.69109E-08 0.00000E+00
 -1        11-1.42500E-02 1.11876E-08 0.00000E+00
 -1        12-1.42500E-02-2.34738E-08 0.00000E+00
 -1        13 0.00000E+00 1.22031E-02 0.00000E+00
 -1        14 1.89180E-08 1.22031E-02 0.00000E+00
 -1        15 6.38914E-01 6.38914E-01 0.00000E+00
 -1        16 6.38914E-01 6.38914E-01 0.00000E+00
 -1        17 1.00738E+00 5.72284E-02 0.00000E+00
 -1        18 1.00689E+00-6.44660E-01 0.00000E+00
 -1        19 0.00000E+00 1.22031E-02 0.00000E+00
 -1        20 1.69109E-08 1.22031E-02 0.00000E+00
 -1        21 6.38914E-01 6.38914E-01 0.00000E+00
 -1        22 6.38914E-01 6.38914E-01 0.00000E+00
 -1        23 1.70927E+00 5.67357E-02 0.00000E+00
 -1        24 1.70877E+00-6.45153E-01 0.00000E+00
 -1        25 0.00000E+00-1.42500E-02 0.00000E+00
 -1        26 1.11876E-08-1.42500E-02 0.00000E+00
 -1        27 5.72284E-02 1.00738E+00 0.00000E+00
 -1        28 5.67357E-02 1.70927E+00 0.00000E+00
 -1        29-6.86344E+00-6.86344E+00 0.00000E+00
 -1        30-6.86344E+00-6.86344E+00 0.00000E+00
 -1        31 0.00000E+00-1.42500E-02 0.00000E+00
 -1        32-2.34738E-08-1.42500E-02 0.00000E+00
 -1        33-6.44660E-01 1.00689E+00 0.00000E+00
 -1        34-6.45153E-01 1.70877E+00 0.00000E+00
 -1        35-6.86344E+00-6.86344E+00 0.00000E+00
 -1        36-6.86344E+00-6.86344E+00 0.00000E+00
 -1        37 0.00000E+00 0.00000E+00-2.78928E-10
 -1        38 2.32440E-10 0.00000E+00-2.78928E-10
 -1        39 1.22031E-02 0.00000E+00-7.80419E-09
 -1        40 1.22031E-02 0.00000E+00-7.03225E-09
 -1        41-1.42500E-02 0.00000E+00-3.77902E-09
 -1        42-1.42500E-02 0.00000E+00 9.55231E-09
 -1        43 0.00000E+00 2.32440E-10-2.78928E-10
 -1        44 2.32440E-10 2.32440E-10-2.78928E-10
 -1        45 1.22031E-02 1.89180E-08-7.80419E-09
 -1        46 1.22031E-02 1.69109E-08-7.03225E-09
 -1        47-1.42500E-02 1.10108E-08-3.36817E-09
 -1        48-1.42500E-02-2.36506E-08 9.96315E-09
 -1        49 0.00000E+00 1.22031E-02-7.80419E-09
 -1        50 1.89180E-08 1.22031E-02-7.80419E-09
 -1        51 6.38914E-01 6.38914E-01-9.05234E-09
 -1        52 6.38914E-01 6.38914E-01-1.56874E-08
 -1        53 1.00738E+00 5.72284E-02-2.39868E-09
 -1        54 1.00689E+00-6.44660E-01 4.41440E-09
 -1        55 0.00000E+00 1.22031E-02-7.03225E-09
 -1        56 1.69109E-08 1.22031E-02-7.03225E-09
 -1        57 6.38914E-01 6.38914E-01-1.56874E-08
 -1        58 6.38914E-01 6.38914E-01-2.23224E-08
 -1        59 1.70927E+00 5.67357E-02-6.03953E-09
 -1        60 1.70877E+00-6.45153E-01 7.73541E-10
 -1        61 0.00000E+00-1.42500E-02-3.77902E-09
 -1        62 1.10108E-08-1.42500E-02-3.36817E-09
 -1        63 5.72284E-02 1.00738E+00-2.39868E-09
 -1        64 5.67357E-02 1.70927E+00-6.03953E-09
 -1        65-6.86344E+00-6.86344E+00 7.19682E-17
 -1        66-6.86344E+00-6.86344E+00-7.55116E-17
 -1        67 0.00000E+00-1.42500E-02 9.55231E-09
 -1        68-2.36506E-08-1.42500E-02 9.96315E-09
 -1        69-6.44660E-01 1.00689E+00 4.41440E-09
 -1        70-6.45153E-01 1.70877E+00 7.73541E-10
 -1        71-6.86344E+00-6.86344E+00-1.53757E-16
 -1        72-6.86344E+00-6.86344E+00 7.04131E-16
 -3
    1PSTEP                        89          30           1          
  100CL  130 2.28781E-01          72                     0   30           1
 -4  STRESS      6    1
 -5  SXX         1    4    1    1
 -5  SYY         1    4    2    2
 -5  SZZ         1    4    3    3
 -5  SXY         1    4    1    2
 -5  SYZ         1    4    2    3
 -5  SZX         1    4    3    1
 -1         1 1.39458E-07 1.39458E-07-6.77617E-15-2.66478E-19 3.98240E-20 3.98237E-20
 -1         2 6.97291E-08 6.97292E-08 1.76152E-15 3.93887E-15 1.99104E-20-8.73738E-16
 -1         3 4.74656E-08 3.99996E-06 4.36437E-08 1.91494E-07-1.83222E-19-3.11742E-08
 -1         4-1.28891E-07 3.49939E-06-4.36437E-08 1.91495E-07-2.03859E-19-3.11742E-08
 -1         5 1.58741E-06 3.07523E-06 8.31926E-07 1.39952E-06-3.88741E-13-5.40284E-07
 -1         6-2.91654E-06-1.11391E-05-1.35106E-06 2.49777E-06-7.77477E-13-1.07294E-06
 -1         7 6.97292E-08 6.97291E-08 1.76152E-15 3.93887E-15-8.73738E-16 1.99112E-20
 -1         8 4.64861E-08 4.64861E-08 4.60742E-15 5.25192E-15-5.82492E-16-5.82492E-16
 -1         9 3.16438E-08 2.66664E-06 2.90958E-08 1.95927E-08 1.55266E-14-2.07828E-08
 -1        10-8.59272E-08 2.33293E-06-2.90958E-08 1.95927E-08 1.44424E-14-2.07828E-08
 -1        11 7.30499E-07 1.92322E-06 4.59291E-07-9.33361E-07-6.79993E-09-3.60190E-07
 -1        12-1.94993E-06-5.75996E-06-8.18519E-07-1.55067E-06-1.01999E-08-5.36469E-07
 -1        13 3.99996E-06 4.74656E-08 4.36437E-08 1.91494E-07-3.11742E-08-1.83352E-19
 -1        14 2.66664E-06 3.16438E-08 2.90958E-08 1.95927E-08-2.07828E-08 1.55311E-14
 -1        15 6.74997E-07 6.74997E-07-5.00178E-07-2.63467E-07 1.78635E-07 1.78635E-07
 -1        16 1.68556E-06 3.54336E-06 2.32270E-14 6.65434E-07 1.78635E-07 1.78635E-07
 -1        17 9.54424E-07 2.44199E-07 1.19724E-07 8.53336E-07 9.82799E-08-1.83290E-07
 -1        18-1.22740E-07-4.05383E-06-5.90812E-07 2.04056E-06 1.47420E-07-2.74935E-07
 -1        19 3.49939E-06-1.28891E-07-4.36437E-08 1.91495E-07-3.11742E-08-2.03654E-19
 -1        20 2.33293E-06-8.59272E-08-2.90958E-08 1.95927E-08-2.07828E-08 1.44306E-14
 -1        21 3.54336E-06 1.68556E-06-7.93980E-15 6.65434E-07 1.78635E-07 1.78635E-07
 -1        22 4.55392E-06 4.55392E-06 5.00178E-07 1.59433E-06 1.78635E-07 1.78635E-07
 -1        23 2.52571E-06 8.01407E-07 3.94187E-07-1.01916E-07 9.82799E-08-1.83290E-07
 -1        24 2.23418E-06-3.21802E-06-1.79117E-07 6.07682E-07 1.47420E-07-2.74935E-07
 -1        25 3.07523E-06 1.58741E-06 8.31926E-07 1.39952E-06-5.40284E-07-3.88741E-13
 -1        26 1.92322E-06 7.30499E-07 4.59291E-07-9.33361E-07-3.60190E-07-6.79993E-09
 -1        27 2.44199E-07 9.54424E-07 1.19724E-07 8.53336E-07-1.83290E-07 9.82799E-08
 -1        28 8.01407E-07 2.52571E-06 3.94187E-07-1.01916E-07-1.83290E-07 9.82799E-08
 -1        29 3.26695E-14 7.06935E-14 3.82050E-14 1.90120E-14 1.71038E-13 1.71038E-13
 -1        30 8.24518E-14 2.01101E-13 7.37386E-14 5.93244E-14-7.65790E-14-7.65793E-14
 -1        31-1.11391E-05-2.91654E-06-1.35106E-06 2.49777E-06-1.07294E-06-7.77477E-13
 -1        32-5.75996E-06-1.94993E-06-8.18519E-07-1.55067E-06-5.36469E-07-1.01999E-08
 -1        33-4.05383E-06-1.22740E-07-5.90812E-07 2.04056E-06-2.74935E-07 1.47420E-07
 -1        34-3.21802E-06 2.23418E-06-1.79117E-07 6.07682E-07-2.74935E-07 1.47420E-07
 -1        35-2.09018E-14-3.10295E-14-3.86432E-14-5.06383E-15-2.36780E-13-2.36780E-13
 -1        36 4.53346E-14-5.67085E-14 2.07824E-13-5.10215E-14 3.00769E-13 3.00769E-13
 -1        37 1.39458E-07 1.39458E-07-1.41157E-14-2.66478E-19-6.07083E-16-6.07083E-16
 -1        38 6.97291E-08 6.97291E-08-1.90826E-15 3.93887E-15-3.03541E-16-1.17730E-15
 -1        39 4.74656E-08 3.99996E-06 4.36437E-08 1.91494E-07-1.76969E-14 3.11741E-08
 -1        40-1.28891E-07 3.49939E-06-4.36437E-08 1.91495E-07-2.18565E-14 3.11741E-08
 -1        41 1.58468E-06 3.03326E-06 8.18519E-07 1.39952E-06 3.31831E-08 5.36469E-07
 -1        42-2.92199E-06-1.12231E-05-1.37787E-06 2.49777E-06 6.63661E-08 1.08057E-06
 -1        43 6.97291E-08 6.97291E-08-1.90826E-15 3.93887E-15-1.17730E-15-3.03541E-16
 -1        44 4.64861E-08 4.64861E-08 2.16089E-15 5.25192E-15-7.84866E-16-7.84866E-16
 -1        45 3.16438E-08 2.66664E-06 2.90958E-08 1.95927E-08 3.72845E-15 2.07828E-08
 -1        46-8.59272E-08 2.33293E-06-2.90958E-08 1.95927E-08-1.28793E-16 2.07827E-08
 -1        47 7.28683E-07 1.89524E-06 4.50353E-07-9.33361E-07 1.53224E-08 3.57646E-07
 -1        48-1.95265E-06-5.80193E-06-8.31926E-07-1.55067E-06 2.29836E-08 5.40284E-07
 -1        49 3.99996E-06 4.74656E-08 4.36437E-08 1.91494E-07 3.11741E-08-1.77398E-14
 -1        50 2.66664E-06 3.16438E-08 2.90958E-08 1.95927E-08 2.07828E-08 3.70436E-15
 -1        51 6.74997E-07 6.74997E-07-5.00177E-07-2.63467E-07-1.78635E-07-1.78635E-07
 -1        52 1.68556E-06 3.54336E-06 9.16653E-16 6.65434E-07-1.78635E-07-1.78635E-07
 -1        53 9.54424E-07 2.44199E-07 1.19724E-07 8.53337E-07-9.82799E-08 1.83290E-07
 -1        54-1.22740E-07-4.05383E-06-5.90812E-07 2.04056E-06-1.47420E-07 2.74935E-07
 -1        55 3.49939E-06-1.28891E-07-4.36437E-08 1.91495E-07 3.11741E-08-2.18003E-14
 -1        56 2.33293E-06-8.59272E-08-2.90958E-08 1.95927E-08 2.07827E-08-1.03089E-16
 -1        57 3.54336E-06 1.68556E-06 5.87207E-15 6.65434E-07-1.78635E-07-1.78635E-07
 -1        58 4.55392E-06 4.55392E-06 5.00178E-07 1.59433E-06-1.78635E-07-1.78635E-07
 -1        59 2.52571E-06 8.01407E-07 3.94187E-07-1.01916E-07-9.82799E-08 1.83290E-07
 -1        60 2.23418E-06-3.21802E-06-1.79117E-07 6.07683E-07-1.47420E-07 2.74935E-07
 -1        61 3.03326E-06 1.58468E-06 8.18519E-07 1.39952E-06 5.36469E-07 3.31831E-08
 -1        62 1.89524E-06 7.28683E-07 4.50353E-07-9.33361E-07 3.57646E-07 1.53224E-08
 -1        63 2.44199E-07 9.54424E-07 1.19724E-07 8.53337E-07 1.83290E-07-9.82799E-08
 -1        64 8.01406E-07 2.52571E-06 3.94187E-07-1.01916E-07 1.83290E-07-9.82799E-08
 -1        65-1.38907E-13-3.29652E-13-1.33372E-13-9.53724E-14-6.86261E-14-6.44130E-14
 -1        66-1.33575E-13-3.02962E-13-1.42288E-13-8.46935E-14 7.64500E-14 1.56776E-15
 -1        67-1.12231E-05-2.92199E-06-1.37787E-06 2.49777E-06 1.08057E-06 6.63661E-08
 -1        68-5.80193E-06-1.95265E-06-8.31926E-07-1.55067E-06 5.40284E-07 2.29836E-08
 -1        69-4.05383E-06-1.22740E-07-5.90812E-07 2.04056E-06 2.74935E-07-1.47420E-07
 -1        70-3.21802E-06 2.23418E-06-1.79117E-07 6.07682E-07 2.74935E-07-1.47420E-07
 -1        71 5.86167E-14 1.54514E-13 4.08753E-14 4.79485E-14 1.89418E-14 1.06463E-13
 -1        72 8.22895E-14 2.95198E-14 2.44779E-13-2.63849E-14-2.55819E-13-2.43180E-13
 -3
    1PSTEP                        90          30           1          
  100CL  130 2.28781E-01          72                     0   30           1
 -4  TOSTRAIN    6    1
 -5  EXX         1    4    1    1
 -5  EYY         1    4    2    2
 -5  EZZ         1    4    3    3
 -5  EXY         1    4    1    2
 -5  EYZ         1    4    2    3
 -5  EZX         1    4    3    1
 -1         1 4.64861E-13 4.64861E-13-3.98452E-13-1.64963E-24 2.46529E-25 2.46528E-25
 -1         2 2.32430E-13 2.32431E-13-1.99226E-13 2.43835E-20 1.23255E-25-5.40886E-21
 -1         3-5.55055E-12 1.89173E-11-5.57420E-12 1.18544E-12-1.13422E-24-1.92983E-13
 -1         4-5.55055E-12 1.69102E-11-5.02283E-12 1.18544E-12-1.26197E-24-1.92983E-13
 -1         5 1.97743E-12 1.11878E-11-2.69935E-12 8.66369E-12-2.40649E-18-3.34462E-12
 -1         6 3.95487E-12-4.69469E-11 1.36459E-11 1.54624E-11-4.81295E-18-6.64200E-12
 -1         7 2.32431E-13 2.32430E-13-1.99226E-13 2.43835E-20-5.40886E-21 1.23260E-25
 -1         8 1.54954E-13 1.54954E-13-1.32817E-13 3.25119E-20-3.60590E-21-3.60590E-21
 -1         9-3.70036E-12 1.26115E-11-3.71614E-12 1.21288E-13 9.61166E-20-1.28655E-13
 -1        10-3.70036E-12 1.12735E-11-3.34855E-12 1.21288E-13 8.94047E-20-1.28655E-13
 -1        11 7.49776E-14 7.45850E-12-1.60393E-12-5.77795E-12-4.20948E-14-2.22975E-12
 -1        12 1.12466E-13-2.34735E-11 7.11642E-12-9.59941E-12-6.31422E-14-3.32100E-12
 -1        13 1.89173E-11-5.55055E-12-5.57420E-12 1.18544E-12-1.92983E-13-1.13502E-24
 -1        14 1.26115E-11-3.70036E-12-3.71614E-12 1.21288E-13-1.28655E-13 9.61443E-20
 -1        15 2.96453E-12 2.96453E-12-4.31036E-12-1.63099E-12 1.10583E-12 1.10583E-12
 -1        16 2.96453E-12 1.44652E-11-7.46989E-12 4.11935E-12 1.10583E-12 1.10583E-12
 -1        17 4.01015E-12-3.56803E-13-1.14221E-12 5.28871E-12 6.06806E-13-1.13551E-12
 -1        18 6.01522E-12-1.82491E-11 3.15314E-12 1.26662E-11 9.10209E-13-1.70326E-12
 -1        19 1.69102E-11-5.55055E-12-5.02283E-12 1.18544E-12-1.92983E-13-1.26070E-24
 -1        20 1.12735E-11-3.70036E-12-3.34855E-12 1.21288E-13-1.28655E-13 8.93320E-20
 -1        21 1.44652E-11 2.96453E-12-7.46989E-12 4.11935E-12 1.10583E-12 1.10583E-12
 -1        22 1.44652E-11 1.44652E-11-1.06294E-11 9.86969E-12 1.10583E-12 1.10583E-12
 -1        23 1.03209E-11-3.56803E-13-2.87594E-12-6.15919E-13 6.06806E-13-1.13551E-12
 -1        24 1.54814E-11-1.82491E-11 5.52546E-13 3.80921E-12 9.10209E-13-1.70326E-12
 -1        25 1.11878E-11 1.97743E-12-2.69935E-12 8.66369E-12-3.34462E-12-2.40649E-18
 -1        26 7.45850E-12 7.49776E-14-1.60393E-12-5.77795E-12-2.22975E-12-4.20948E-14
 -1        27-3.56803E-13 4.01015E-12-1.14221E-12 5.28871E-12-1.13551E-12 6.06806E-13
 -1        28-3.56803E-13 1.03209E-11-2.87594E-12-6.15919E-13-1.13551E-12 6.06806E-13
 -1        29 1.62986E-38 2.35386E-19 3.42673E-20 1.17693E-19 1.05881E-18 1.05881E-18
 -1        30 2.44479E-38 7.34493E-19-5.39386E-20 3.67246E-19-4.74060E-19-4.74063E-19
 -1        31-4.69469E-11 3.95487E-12 1.36459E-11 1.54624E-11-6.64200E-12-4.81295E-18
 -1        32-2.34735E-11 1.12466E-13 7.11642E-12-9.59941E-12-3.32100E-12-6.31422E-14
 -1        33-1.82491E-11 6.01522E-12 3.15314E-12 1.26662E-11-1.70326E-12 9.10209E-13
 -1        34-1.82491E-11 1.54814E-11 5.52546E-13 3.80921E-12-1.70326E-12 9.10209E-13
 -1        35-9.45856E-38-6.26951E-20-1.09828E-19-3.13475E-20-1.46578E-18-1.46578E-18
 -1        36-1.89171E-37-6.31695E-19 1.00589E-18-3.15848E-19 1.86191E-18 1.86190E-18
 -1        37 4.64861E-13 4.64861E-13-3.98452E-13-1.64963E-24-3.75813E-21-3.75813E-21
 -1        38 2.32430E-13 2.32431E-13-1.99226E-13 2.43835E-20-1.87907E-21-7.28804E-21
 -1        39-5.55055E-12 1.89173E-11-5.57420E-12 1.18544E-12-1.09554E-19 1.92983E-13
 -1        40-5.55055E-12 1.69102E-11-5.02283E-12 1.18544E-12-1.35304E-19 1.92983E-13
 -1        41 2.04356E-12 1.10110E-11-2.69935E-12 8.66369E-12 2.05419E-13 3.32100E-12
 -1        42 4.08713E-12-4.73005E-11 1.36459E-11 1.54624E-11 4.10838E-13 6.68924E-12
 -1        43 2.32431E-13 2.32430E-13-1.99226E-13 2.43835E-20-7.28804E-21-1.87907E-21
 -1        44 1.54954E-13 1.54954E-13-1.32817E-13 3.25119E-20-4.85870E-21-4.85870E-21
 -1        45-3.70036E-12 1.26115E-11-3.71614E-12 1.21288E-13 2.30812E-20 1.28655E-13
 -1        46-3.70036E-12 1.12735E-11-3.34855E-12 1.21288E-13-7.96958E-22 1.28655E-13
 -1        47 1.19063E-13 7.34064E-12-1.60393E-12-5.77795E-12 9.48528E-14 2.21400E-12
 -1        48 1.78594E-13-2.36503E-11 7.11642E-12-9.59941E-12 1.42279E-13 3.34462E-12
 -1        49 1.89173E-11-5.55055E-12-5.57420E-12 1.18544E-12 1.92983E-13-1.09819E-19
 -1        50 1.26115E-11-3.70036E-12-3.71614E-12 1.21288E-13 1.28655E-13 2.29321E-20
 -1        51 2.96453E-12 2.96453E-12-4.31036E-12-1.63099E-12-1.10583E-12-1.10583E-12
 -1        52 2.96453E-12 1.44652E-11-7.46989E-12 4.11935E-12-1.10583E-12-1.10583E-12
 -1        53 4.01015E-12-3.56803E-13-1.14221E-12 5.28871E-12-6.06806E-13 1.13551E-12
 -1        54 6.01522E-12-1.82491E-11 3.15314E-12 1.26662E-11-9.10209E-13 1.70326E-12
 -1        55 1.69102E-11-5.55055E-12-5.02283E-12 1.18544E-12 1.92983E-13-1.34956E-19
 -1        56 1.12735E-11-3.70036E-12-3.34855E-12 1.21288E-13 1.28655E-13-6.37840E-22
 -1        57 1.44652E-11 2.96453E-12-7.46989E-12 4.11935E-12-1.10583E-12-1.10583E-12
 -1        58 1.44652E-11 1.44652E-11-1.06294E-11 9.86969E-12-1.10583E-12-1.10583E-12
 -1        59 1.03209E-11-3.56803E-13-2.87594E-12-6.15919E-13-6.06806E-13 1.13551E-12
 -1        60 1.54814E-11-1.82491E-11 5.52546E-13 3.80921E-12-9.10209E-13 1.70326E-12
 -1        61 1.10110E-11 2.04356E-12-2.69935E-12 8.66369E-12 3.32100E-12 2.05419E-13
 -1        62 7.34064E-12 1.19063E-13-1.60393E-12-5.77795E-12 2.21400E-12 9.48528E-14
 -1        63-3.56803E-13 4.01015E-12-1.14221E-12 5.28871E-12 1.13551E-12-6.06806E-13
 -1        64-3.56803E-13 1.03209E-11-2.87594E-12-6.15919E-13 1.13551E-12-6.06806E-13
 -1        65-8.15060E-38-1.18080E-18 3.42673E-20-5.90401E-19-4.24828E-19-3.98747E-19
 -1        66-1.22259E-37-1.04859E-18-5.39386E-20-5.24293E-19 4.73262E-19 9.70516E-21
 -1        67-4.73005E-11 4.08713E-12 1.36459E-11 1.54624E-11 6.68924E-12 4.10838E-13
 -1        68-2.36503E-11 1.78594E-13 7.11642E-12-9.59941E-12 3.34462E-12 1.42279E-13
 -1        69-1.82491E-11 6.01522E-12 3.15314E-12 1.26662E-11 1.70326E-12-9.10209E-13
 -1        70-1.82491E-11 1.54814E-11 5.52546E-13 3.80921E-12 1.70326E-12-9.10209E-13
 -1        71 4.72919E-37 5.93648E-19-1.09828E-19 2.96824E-19 1.17258E-19 6.59059E-19
 -1        72 9.45838E-37-3.26670E-19 1.00589E-18-1.63335E-19-1.58364E-18-1.50540E-18
 -3
    1PSTEP                        91          31           1          
  100CL  131 2.37781E-01          72                     0   31           1
 -4  DISP        4    1
 -5  D1          1    2    1    0
 -5  D2          1    2    2    0
 -5  D3          1    2    3    0
 -5  ALL         1    2    0    0    1ALL
 -1         1 0.00000E+00 0.00000E+00 0.00000E+00
 -1         2 2.64402E-10 0.00000E+00 0.00000E+00
 -1         3 1.38811E-02 0.00000E+00 0.00000E+00
 -1         4 1.38811E-02 0.00000E+00 0.00000E+00
 -1         5-6.84220E-03 0.00000E+00 0.00000E+00
 -1         6-6.84220E-03 0.00000E+00 0.00000E+00
 -1         7 0.00000E+00 2.64402E-10 0.00000E+00
 -1         8 2.64402E-10 2.64402E-10 0.00000E+00
 -1         9 1.38811E-02 1.78151E-08 0.00000E+00
 -1        10 1.38811E-02 1.60184E-08 0.00000E+00
 -1        11-6.84219E-03 1.14993E-08 0.00000E+00
 -1        12-6.84219E-03-2.18069E-08 0.00000E+00
 -1        13 0.00000E+00 1.38811E-02 0.00000E+00
 -1        14 1.78151E-08 1.38811E-02 0.00000E+00
 -1        15 6.05158E-01 6.05158E-01 0.00000E+00
 -1        16 6.05158E-01 6.05158E-01 0.00000E+00
 -1        17 9.47263E-01 8.63213E-02 0.00000E+00
 -1        18 9.46816E-01-5.82329E-01 0.00000E+00
 -1        19 0.00000E+00 1.38811E-02 0.00000E+00
 -1        20 1.60184E-08 1.38811E-02 0.00000E+00
 -1        21 6.05158E-01 6.05158E-01 0.00000E+00
 -1        22 6.05158E-01 6.05158E-01 0.00000E+00
 -1        23 1.61591E+00 8.58742E-02 0.00000E+00
 -1        24 1.61547E+00-5.82776E-01 0.00000E+00
 -1        25 0.00000E+00-6.84220E-03 0.00000E+00
 -1        26 1.14993E-08-6.84219E-03 0.00000E+00
 -1        27 8.63213E-02 9.47263E-01 0.00000E+00
 -1        28 8.58742E-02 1.61591E+00 0.00000E+00
 -1        29-7.13344E+00-7.13344E+00 0.00000E+00
 -1        30-7.13344E+00-7.13344E+00 0.00000E+00
 -1        31 0.00000E+00-6.84220E-03 0.00000E+00
 -1        32-2.18069E-08-6.84219E-03 0.00000E+00
 -1        33-5.82329E-01 9.46816E-01 0.00000E+00
 -1        34-5.82776E-01 1.61547E+00 0.00000E+00
 -1        35-7.13344E+00-7.13344E+00 0.00000E+00
 -1        36-7.13344E+00-7.13344E+00 0.00000E+00
 -1        37 0.00000E+00 0.00000E+00-3.17282E-10
 -1        38 2.64402E-10 0.00000E+00-3.17282E-10
 -1        39 1.38811E-02 0.00000E+00-7.39972E-09
 -1        40 1.38811E-02 0.00000E+00-6.70870E-09
 -1        41-6.84221E-03 0.00000E+00-3.98932E-09
 -1        42-6.84221E-03 0.00000E+00 8.82076E-09
 -1        43 0.00000E+00 2.64402E-10-3.17282E-10
 -1        44 2.64402E-10 2.64402E-10-3.17282E-10
 -1        45 1.38811E-02 1.78151E-08-7.39972E-09
 -1        46 1.38811E-02 1.60184E-08-6.70870E-09
 -1        47-6.84220E-03 1.13432E-08-3.62645E-09
 -1        48-6.84219E-03-2.19630E-08 9.18364E-09
 -1        49 0.00000E+00 1.38811E-02-7.39972E-09
 -1        50 1.78151E-08 1.38811E-02-7.39972E-09
 -1        51 6.05158E-01 6.05158E-01-8.42729E-09
 -1        52 6.05158E-01 6.05158E-01-1.47854E-08
 -1        53 9.47263E-01 8.63213E-02-2.51698E-09
 -1        54 9.46816E-01-5.82329E-01 4.09694E-09
 -1        55 0.00000E+00 1.38811E-02-6.70870E-09
 -1        56 1.60184E-08 1.38811E-02-6.70870E-09
 -1        57 6.05158E-01 6.05158E-01-1.47854E-08
 -1        58 6.05158E-01 6.05158E-01-2.11436E-08
 -1        59 1.61591E+00 8.58742E-02-6.26267E-09
 -1        60 1.61547E+00-5.82776E-01 3.51248E-10
 -1        61 0.00000E+00-6.84221E-03-3.98932E-09
 -1        62 1.13432E-08-6.84220E-03-3.62645E-09
 -1        63 8.63213E-02 9.47263E-01-2.51698E-09
 -1        64 8.58742E-02 1.61591E+00-6.26267E-09
 -1        65-7.13344E+00-7.13344E+00 1.15130E-16
 -1        66-7.13344E+00-7.13344E+00 7.22406E-17
 -1        67 0.00000E+00-6.84221E-03 8.82076E-09
 -1        68-2.19630E-08-6.84219E-03 9.18364E-09
 -1        69-5.82329E-01 9.46816E-01 4.09694E-09
 -1        70-5.82776E-01 1.61547E+00 3.51247E-10
 -1        71-7.13344E+00-7.13344E+00 2.28732E-16
 -1        72-7.13344E+00-7.13344E+00-2.92258E-16
 -3
    1PSTEP                        92          31           1          
  100CL  131 2.37781E-01          72                     0   31           1
 -4  STRESS      6    1
 -5  SXX         1    4    1    1
 -5  SYY         1    4    2    2
 -5  SZZ         1    4    3    3
 -5  SXY         1    4    1    2
 -5  SYZ         1    4    2    3
 -5  SZX         1    4    3    1
 -1         1 1.58635E-07 1.58635E-07-6.08519E-15-2.39033E-19 3.58328E-20 3.58294E-20
 -1         2 7.93173E-08 7.93173E-08 1.56074E-15 3.53321E-15 1.79171E-20-7.80541E-16
 -1         3 5.93874E-08 3.77056E-06 3.90692E-08 1.71423E-07-1.53432E-19-2.79066E-08
 -1         4-9.84841E-08 3.32246E-06-3.90692E-08 1.71423E-07-1.72173E-19-2.79066E-08
 -1         5 1.52787E-06 3.11124E-06 7.93326E-07 1.35237E-06-3.43354E-13-5.19012E-07
 -1         6-2.79744E-06-1.03911E-05-1.31038E-06 2.43864E-06-6.86704E-13-1.03128E-06
 -1         7 7.93173E-08 7.93173E-08 1.56099E-15 3.53324E-15-7.80758E-16 1.79136E-20
 -1         8 5.28782E-08 5.28782E-08 4.10955E-15 4.71104E-15-5.20505E-16-5.20361E-16
 -1         9 3.95916E-08 2.51371E-06 2.60461E-08 1.75390E-08 1.47798E-14-1.86044E-08
 -1        10-6.56560E-08 2.21497E-06-2.60461E-08 1.75391E-08 1.38613E-14-1.86044E-08
 -1        11 7.29079E-07 1.96205E-06 4.44688E-07-8.91823E-07-6.00600E-09-3.46008E-07
 -1        12-1.83297E-06-5.36372E-06-7.81484E-07-1.47078E-06-9.00900E-09-5.15642E-07
 -1        13 3.77056E-06 5.93874E-08 3.90692E-08 1.71423E-07-2.79066E-08-1.53800E-19
 -1        14 2.51371E-06 3.95916E-08 2.60461E-08 1.75390E-08-1.86044E-08 1.48180E-14
 -1        15 6.05617E-07 6.05617E-07-4.79304E-07-2.51669E-07 1.71180E-07 1.71180E-07
 -1        16 1.57401E-06 3.35428E-06 6.71974E-15 6.38466E-07 1.71180E-07 1.71180E-07
 -1        17 8.53601E-07 3.46184E-07 1.08243E-07 7.97747E-07 1.01083E-07-1.77931E-07
 -1        18-2.28515E-07-3.77167E-06-5.85512E-07 1.97949E-06 1.51624E-07-2.66896E-07
 -1        19 3.32246E-06-9.84841E-08-3.90692E-08 1.71423E-07-2.79066E-08-1.72094E-19
 -1        20 2.21497E-06-6.56560E-08-2.60461E-08 1.75391E-08-1.86044E-08 1.38196E-14
 -1        21 3.35428E-06 1.57401E-06 3.11419E-14 6.38466E-07 1.71180E-07 1.71180E-07
 -1        22 4.32267E-06 4.32267E-06 4.79304E-07 1.52860E-06 1.71180E-07 1.71180E-07
 -1        23 2.47040E-06 9.19156E-07 3.90609E-07-1.29595E-07 1.01083E-07-1.77931E-07
 -1        24 2.19669E-06-2.91221E-06-1.61963E-07 5.88480E-07 1.51624E-07-2.66896E-07
 -1        25 3.11124E-06 1.52787E-06 7.93326E-07 1.35237E-06-5.19012E-07-3.43354E-13
 -1        26 1.96205E-06 7.29079E-07 4.44688E-07-8.91823E-07-3.46008E-07-6.00600E-09
 -1        27 3.46184E-07 8.53601E-07 1.08243E-07 7.97747E-07-1.77931E-07 1.01083E-07
 -1        28 9.19156E-07 2.47040E-06 3.90609E-07-1.29595E-07-1.77931E-07 1.01083E-07
 -1        29 9.13132E-15 1.24504E-14 1.79874E-14 1.65951E-15-6.92500E-14-6.92499E-14
 -1        30 3.44147E-13 7.94675E-13 3.52483E-13 2.25264E-13-1.23270E-13-1.23270E-13
 -1        31-1.03911E-05-2.79744E-06-1.31038E-06 2.43864E-06-1.03128E-06-6.86704E-13
 -1        32-5.36372E-06-1.83297E-06-7.81484E-07-1.47078E-06-5.15642E-07-9.00900E-09
 -1        33-3.77167E-06-2.28515E-07-5.85512E-07 1.97949E-06-2.66896E-07 1.51624E-07
 -1        34-2.91221E-06 2.19669E-06-1.61963E-07 5.88480E-07-2.66896E-07 1.51624E-07
 -1        35 1.56794E-13 3.39461E-13 1.83186E-13 9.13334E-14 9.59408E-14 9.59409E-14
 -1        36-3.69518E-13-7.94765E-13-4.36962E-13-2.12624E-13 1.31884E-13 1.31884E-13
 -1        37 1.58635E-07 1.58635E-07-1.26428E-14-2.39033E-19-5.57088E-16-5.57323E-16
 -1        38 7.93173E-08 7.93173E-08-1.71806E-15 3.53321E-15-2.78544E-16-1.05922E-15
 -1        39 5.93873E-08 3.77056E-06 3.90692E-08 1.71423E-07-1.69059E-14 2.79066E-08
 -1        40-9.84842E-08 3.32246E-06-3.90692E-08 1.71423E-07-2.08144E-14 2.79066E-08
 -1        41 1.52547E-06 3.07417E-06 7.81484E-07 1.35237E-06 2.93088E-08 5.15642E-07
 -1        42-2.80225E-06-1.04652E-05-1.33406E-06 2.43864E-06 5.86175E-08 1.03802E-06
 -1        43 7.93173E-08 7.93173E-08-1.71781E-15 3.53324E-15-1.05932E-15-2.78662E-16
 -1        44 5.28782E-08 5.28782E-08 1.92368E-15 4.71104E-15-7.06213E-16-7.06147E-16
 -1        45 3.95916E-08 2.51371E-06 2.60461E-08 1.75390E-08 3.50904E-15 1.86044E-08
 -1        46-6.56560E-08 2.21497E-06-2.60461E-08 1.75391E-08-1.51251E-17 1.86044E-08
 -1        47 7.27475E-07 1.93734E-06 4.36793E-07-8.91823E-07 1.35334E-08 3.43761E-07
 -1        48-1.83538E-06-5.40078E-06-7.93326E-07-1.47078E-06 2.03001E-08 5.19012E-07
 -1        49 3.77056E-06 5.93873E-08 3.90692E-08 1.71423E-07 2.79066E-08-1.69823E-14
 -1        50 2.51371E-06 3.95916E-08 2.60461E-08 1.75390E-08 1.86044E-08 3.49632E-15
 -1        51 6.05617E-07 6.05617E-07-4.79304E-07-2.51669E-07-1.71180E-07-1.71180E-07
 -1        52 1.57401E-06 3.35428E-06-1.50944E-14 6.38466E-07-1.71180E-07-1.71180E-07
 -1        53 8.53601E-07 3.46184E-07 1.08243E-07 7.97747E-07-1.01083E-07 1.77931E-07
 -1        54-2.28515E-07-3.77167E-06-5.85512E-07 1.97949E-06-1.51624E-07 2.66896E-07
 -1        55 3.32246E-06-9.84842E-08-3.90692E-08 1.71423E-07 2.79066E-08-2.07094E-14
 -1        56 2.21497E-06-6.56560E-08-2.60461E-08 1.75391E-08 1.86044E-08 1.31822E-17
 -1        57 3.35428E-06 1.57401E-06-1.85849E-14 6.38466E-07-1.71180E-07-1.71180E-07
 -1        58 4.32267E-06 4.32267E-06 4.79304E-07 1.52860E-06-1.71180E-07-1.71180E-07
 -1        59 2.47040E-06 9.19156E-07 3.90609E-07-1.29595E-07-1.01083E-07 1.77931E-07
 -1        60 2.19669E-06-2.91221E-06-1.61963E-07 5.88480E-07-1.51624E-07 2.66896E-07
 -1        61 3.07417E-06 1.52547E-06 7.81484E-07 1.35237E-06 5.15642E-07 2.93088E-08
 -1        62 1.93734E-06 7.27475E-07 4.36793E-07-8.91823E-07 3.43761E-07 1.35334E-08
 -1        63 3.46184E-07 8.53601E-07 1.08243E-07 7.97747E-07 1.77931E-07-1.01083E-07
 -1        64 9.19156E-07 2.47040E-06 3.90609E-07-1.29595E-07 1.77931E-07-1.01083E-07
 -1        65-7.31302E-14-1.79493E-13-6.42741E-14-5.31815E-14 6.65089E-14 5.80826E-14
 -1        66-2.71954E-13-6.42893E-13-2.63618E-13-1.85470E-13-8.70690E-14-6.10929E-14
 -1        67-1.04652E-05-2.80225E-06-1.33406E-06 2.43864E-06 1.03802E-06 5.86175E-08
 -1        68-5.40078E-06-1.83538E-06-7.93326E-07-1.47078E-06 5.19012E-07 2.03001E-08
 -1        69-3.77167E-06-2.28515E-07-5.85512E-07 1.97949E-06 2.66896E-07-1.51624E-07
 -1        70-2.91221E-06 2.19669E-06-1.61964E-07 5.88480E-07 2.66896E-07-1.51624E-07
 -1        71-2.62277E-13-6.38371E-13-2.35885E-13-1.88047E-13-5.91113E-14-1.10366E-13
 -1        72 6.05285E-13 1.47978E-12 5.37841E-13 4.37245E-13 1.46682E-13 1.21403E-13
 -3
    1PSTEP                        93          31           1          
  100CL  131 2.37781E-01          72                     0   31           1
 -4  TOSTRAIN    6    1
 -5  EXX         1    4    1    1
 -5  EYY         1    4    2    2
 -5  EZZ         1    4    3    3
 -5  EXY         1    4    1    2
 -5  EYZ         1    4    2    3
 -5  EZX         1    4    3    1
 -1         1 5.28782E-13 5.28782E-13-4.53242E-13-1.47973E-24 2.21822E-25 2.21801E-25
 -1         2 2.64391E-13 2.64391E-13-2.26621E-13 2.18722E-20 1.10915E-25-4.83192E-21
 -1         3-5.15953E-12 1.78144E-11-5.28531E-12 1.06119E-12-9.49810E-25-1.72755E-13
 -1         4-5.15953E-12 1.60178E-11-4.79173E-12 1.06119E-12-1.06583E-24-1.72755E-13
 -1         5 1.69764E-12 1.14994E-11-2.84956E-12 8.37179E-12-2.12552E-18-3.21293E-12
 -1         6 3.39527E-12-4.36132E-11 1.26009E-11 1.50964E-11-4.25103E-18-6.38414E-12
 -1         7 2.64391E-13 2.64391E-13-2.26621E-13 2.18724E-20-4.83326E-21 1.10893E-25
 -1         8 1.76261E-13 1.76261E-13-1.51081E-13 2.91636E-20-3.22218E-21-3.22128E-21
 -1         9-3.43969E-12 1.18763E-11-3.52354E-12 1.08575E-13 9.14938E-20-1.15170E-13
 -1        10-3.43969E-12 1.06785E-11-3.19448E-12 1.08575E-13 8.58078E-20-1.15170E-13
 -1        11 3.36082E-14 7.66629E-12-1.72691E-12-5.52081E-12-3.71800E-14-2.14195E-12
 -1        12 5.04123E-14-2.18066E-11 6.55964E-12-9.10483E-12-5.57700E-14-3.19207E-12
 -1        13 1.78144E-11-5.15953E-12-5.28531E-12 1.06119E-12-1.72755E-13-9.52083E-25
 -1        14 1.18763E-11-3.43969E-12-3.52354E-12 1.08575E-13-1.15170E-13 9.17304E-20
 -1        15 2.70344E-12 2.70344E-12-4.01273E-12-1.55795E-12 1.05968E-12 1.05968E-12
 -1        16 2.70344E-12 1.37242E-11-7.04040E-12 3.95241E-12 1.05968E-12 1.05968E-12
 -1        17 3.40237E-12 2.87644E-13-1.19854E-12 4.94262E-12 6.24278E-13-1.10231E-12
 -1        18 5.10356E-12-1.67646E-11 2.92639E-12 1.22833E-11 9.36417E-13-1.65347E-12
 -1        19 1.60178E-11-5.15953E-12-4.79173E-12 1.06119E-12-1.72755E-13-1.06533E-24
 -1        20 1.06785E-11-3.43969E-12-3.19448E-12 1.08575E-13-1.15170E-13 8.55494E-20
 -1        21 1.37242E-11 2.70344E-12-7.04040E-12 3.95241E-12 1.05968E-12 1.05968E-12
 -1        22 1.37242E-11 1.37242E-11-1.00681E-11 9.46277E-12 1.05968E-12 1.05968E-12
 -1        23 9.89487E-12 2.87644E-13-2.98219E-12-7.89410E-13 6.24278E-13-1.10231E-12
 -1        24 1.48423E-11-1.67646E-11 2.50916E-13 3.68525E-12 9.36417E-13-1.65347E-12
 -1        25 1.14994E-11 1.69764E-12-2.84956E-12 8.37179E-12-3.21293E-12-2.12552E-18
 -1        26 7.66629E-12 3.36082E-14-1.72691E-12-5.52081E-12-2.14195E-12-3.71800E-14
 -1        27 2.87644E-13 3.40237E-12-1.19854E-12 4.94262E-12-1.10231E-12 6.24278E-13
 -1        28 2.87644E-13 9.89487E-12-2.98219E-12-7.89409E-13-1.10231E-12 6.24278E-13
 -1        29 4.02750E-39 2.05464E-20 5.48233E-20 1.02732E-20-4.28691E-19-4.28690E-19
 -1        30 6.04124E-39 2.78898E-18 5.15988E-20 1.39449E-18-7.63102E-19-7.63099E-19
 -1        31-4.36132E-11 3.39527E-12 1.26009E-11 1.50964E-11-6.38414E-12-4.25103E-18
 -1        32-2.18066E-11 5.04123E-14 6.55964E-12-9.10483E-12-3.19207E-12-5.57700E-14
 -1        33-1.67646E-11 5.10356E-12 2.92639E-12 1.22833E-11-1.65347E-12 9.36417E-13
 -1        34-1.67646E-11 1.48423E-11 2.50916E-13 3.68525E-12-1.65347E-12 9.36417E-13
 -1        35-3.88893E-38 1.13079E-18 1.63377E-19 5.65397E-19 5.93919E-19 5.93920E-19
 -1        36-7.77787E-38-2.63248E-18-4.17509E-19-1.31624E-18 8.16424E-19 8.16427E-19
 -1        37 5.28782E-13 5.28782E-13-4.53242E-13-1.47973E-24-3.44864E-21-3.45010E-21
 -1        38 2.64391E-13 2.64391E-13-2.26621E-13 2.18722E-20-1.72432E-21-6.55708E-21
 -1        39-5.15953E-12 1.78144E-11-5.28531E-12 1.06119E-12-1.04657E-19 1.72755E-13
 -1        40-5.15953E-12 1.60178E-11-4.79173E-12 1.06119E-12-1.28853E-19 1.72755E-13
 -1        41 1.75604E-12 1.13433E-11-2.84956E-12 8.37179E-12 1.81435E-13 3.19207E-12
 -1        42 3.51209E-12-4.39255E-11 1.26009E-11 1.50964E-11 3.62870E-13 6.42586E-12
 -1        43 2.64391E-13 2.64391E-13-2.26621E-13 2.18724E-20-6.55770E-21-1.72505E-21
 -1        44 1.76261E-13 1.76261E-13-1.51081E-13 2.91636E-20-4.37180E-21-4.37139E-21
 -1        45-3.43969E-12 1.18763E-11-3.52354E-12 1.08575E-13 2.17229E-20 1.15170E-13
 -1        46-3.43969E-12 1.06785E-11-3.19448E-12 1.08575E-13-9.33681E-23 1.15170E-13
 -1        47 7.25462E-14 7.56219E-12-1.72691E-12-5.52081E-12 8.37783E-14 2.12805E-12
 -1        48 1.08819E-13-2.19627E-11 6.55964E-12-9.10483E-12 1.25667E-13 3.21293E-12
 -1        49 1.78144E-11-5.15953E-12-5.28531E-12 1.06119E-12 1.72755E-13-1.05130E-19
 -1        50 1.18763E-11-3.43969E-12-3.52354E-12 1.08575E-13 1.15170E-13 2.16442E-20
 -1        51 2.70344E-12 2.70344E-12-4.01273E-12-1.55795E-12-1.05968E-12-1.05968E-12
 -1        52 2.70344E-12 1.37242E-11-7.04040E-12 3.95241E-12-1.05968E-12-1.05969E-12
 -1        53 3.40237E-12 2.87644E-13-1.19854E-12 4.94262E-12-6.24278E-13 1.10231E-12
 -1        54 5.10356E-12-1.67646E-11 2.92639E-12 1.22833E-11-9.36417E-13 1.65347E-12
 -1        55 1.60178E-11-5.15953E-12-4.79173E-12 1.06119E-12 1.72755E-13-1.28202E-19
 -1        56 1.06785E-11-3.43969E-12-3.19448E-12 1.08575E-13 1.15170E-13 8.18681E-23
 -1        57 1.37242E-11 2.70344E-12-7.04040E-12 3.95241E-12-1.05968E-12-1.05968E-12
 -1        58 1.37242E-11 1.37242E-11-1.00681E-11 9.46277E-12-1.05968E-12-1.05968E-12
 -1        59 9.89487E-12 2.87644E-13-2.98219E-12-7.89409E-13-6.24278E-13 1.10231E-12
 -1        60 1.48423E-11-1.67646E-11 2.50916E-13 3.68525E-12-9.36417E-13 1.65347E-12
 -1        61 1.13433E-11 1.75604E-12-2.84956E-12 8.37179E-12 3.19207E-12 1.81435E-13
 -1        62 7.56219E-12 7.25462E-14-1.72691E-12-5.52081E-12 2.12805E-12 8.37783E-14
 -1        63 2.87644E-13 3.40237E-12-1.19854E-12 4.94262E-12 1.10231E-12-6.24278E-13
 -1        64 2.87644E-13 9.89486E-12-2.98219E-12-7.89410E-13 1.10231E-12-6.24278E-13
 -1        65-2.01432E-38-6.58437E-19 5.48233E-20-3.29219E-19 4.11722E-19 3.59559E-19
 -1        66-3.02148E-38-2.29629E-18 5.15988E-20-1.14815E-18-5.38999E-19-3.78194E-19
 -1        67-4.39255E-11 3.51209E-12 1.26009E-11 1.50964E-11 6.42586E-12 3.62870E-13
 -1        68-2.19627E-11 1.08819E-13 6.55964E-12-9.10483E-12 3.21293E-12 1.25667E-13
 -1        69-1.67646E-11 5.10356E-12 2.92639E-12 1.22833E-11 1.65347E-12-9.36417E-13
 -1        70-1.67646E-11 1.48423E-11 2.50916E-13 3.68525E-12 1.65347E-12-9.36417E-13
 -1        71 1.94442E-37-2.32820E-18 1.63377E-19-1.16410E-18-3.65927E-19-6.83219E-19
 -1        72 3.88884E-37 5.41351E-18-4.17509E-19 2.70676E-18 9.08029E-19 7.51542E-19
 -3
    1PSTEP                        94          32           1          
  100CL  132 2.46781E-01          72                     0   32           1
 -4  DISP        4    1
 -5  D1          1    2    1    0
 -5  D2          1    2    2    0
 -5  D3          1    2    3    0
 -5  ALL         1    2    0    0    1ALL
 -1         1 0.00000E+00 0.00000E+00 0.00000E+00
 -1         2 2.77360E-10 0.00000E+00 0.00000E+00
 -1         3 1.45614E-02 0.00000E+00 0.00000E+00
 -1         4 1.45614E-02 0.00000E+00 0.00000E+00
 -1         5-1.23231E-03 0.00000E+00 0.00000E+00
 -1         6-1.23231E-03 0.00000E+00 0.00000E+00
 -1         7 0.00000E+00 2.77360E-10 0.00000E+00
 -1         8 2.77360E-10 2.77360E-10 0.00000E+00
 -1         9 1.45614E-02 1.65926E-08 0.00000E+00
 -1        10 1.45614E-02 1.50166E-08 0.00000E+00
 -1        11-1.23229E-03 1.15238E-08 0.00000E+00
 -1        12-1.23229E-03-2.00139E-08 0.00000E+00
 -1        13 0.00000E+00 1.45614E-02 0.00000E+00
 -1        14 1.65926E-08 1.45614E-02 0.00000E+00
 -1        15 5.66997E-01 5.66997E-01 0.00000E+00
 -1        16 5.66997E-01 5.66997E-01 0.00000E+00
 -1        17 8.81660E-01 1.08542E-01 0.00000E+00
 -1        18 8.81265E-01-5.19800E-01 0.00000E+00
 -1        19 0.00000E+00 1.45614E-02 0.00000E+00
 -1        20 1.50166E-08 1.45614E-02 0.00000E+00
 -1        21 5.66997E-01 5.66997E-01 0.00000E+00
 -1        22 5.66997E-01 5.66997E-01 0.00000E+00
 -1        23 1.51000E+00 1.08148E-01 0.00000E+00
 -1        24 1.50961E+00-5.20195E-01 0.00000E+00
 -1        25 0.00000E+00-1.23231E-03 0.00000E+00
 -1        26 1.15238E-08-1.23229E-03 0.00000E+00
 -1        27 1.08542E-01 8.81660E-01 0.00000E+00
 -1        28 1.08148E-01 1.51000E+00 0.00000E+00
 -1        29-7.40344E+00-7.40344E+00 0.00000E+00
 -1        30-7.40344E+00-7.40344E+00 0.00000E+00
 -1        31 0.00000E+00-1.23231E-03 0.00000E+00
 -1        32-2.00139E-08-1.23229E-03 0.00000E+00
 -1        33-5.19800E-01 8.81265E-01 0.00000E+00
 -1        34-5.20195E-01 1.50961E+00 0.00000E+00
 -1        35-7.40344E+00-7.40344E+00 0.00000E+00
 -1        36-7.40344E+00-7.40344E+00 0.00000E+00
 -1        37 0.00000E+00 0.00000E+00-3.32832E-10
 -1        38 2.77360E-10 0.00000E+00-3.32832E-10
 -1        39 1.45614E-02 0.00000E+00-6.93186E-09
 -1        40 1.45614E-02 0.00000E+00-6.32569E-09
 -1        41-1.23232E-03 0.00000E+00-4.08073E-09
 -1        42-1.23232E-03 0.00000E+00 8.04914E-09
 -1        43 0.00000E+00 2.77360E-10-3.32832E-10
 -1        44 2.77360E-10 2.77360E-10-3.32832E-10
 -1        45 1.45614E-02 1.65926E-08-6.93186E-09
 -1        46 1.45614E-02 1.50166E-08-6.32569E-09
 -1        47-1.23230E-03 1.13889E-08-3.76726E-09
 -1        48-1.23230E-03-2.01488E-08 8.36260E-09
 -1        49 0.00000E+00 1.45614E-02-6.93186E-09
 -1        50 1.65926E-08 1.45614E-02-6.93186E-09
 -1        51 5.66997E-01 5.66997E-01-7.77491E-09
 -1        52 5.66997E-01 5.66997E-01-1.37834E-08
 -1        53 8.81660E-01 1.08542E-01-2.55387E-09
 -1        54 8.81265E-01-5.19800E-01 3.75448E-09
 -1        55 0.00000E+00 1.45614E-02-6.32569E-09
 -1        56 1.50166E-08 1.45614E-02-6.32569E-09
 -1        57 5.66997E-01 5.66997E-01-1.37834E-08
 -1        58 5.66997E-01 5.66997E-01-1.97919E-08
 -1        59 1.51000E+00 1.08148E-01-6.33891E-09
 -1        60 1.50961E+00-5.20195E-01-3.05590E-11
 -1        61 0.00000E+00-1.23232E-03-4.08073E-09
 -1        62 1.13889E-08-1.23230E-03-3.76726E-09
 -1        63 1.08542E-01 8.81660E-01-2.55387E-09
 -1        64 1.08148E-01 1.51000E+00-6.33891E-09
 -1        65-7.40344E+00-7.40344E+00 3.71500E-17
 -1        66-7.40344E+00-7.40344E+00 2.17230E-16
 -1        67 0.00000E+00-1.23232E-03 8.04914E-09
 -1        68-2.01488E-08-1.23230E-03 8.36260E-09
 -1        69-5.19800E-01 8.81265E-01 3.75448E-09
 -1        70-5.20195E-01 1.50961E+00-3.05592E-11
 -1        71-7.40344E+00-7.40344E+00 2.60700E-16
 -1        72-7.40344E+00-7.40344E+00 4.85057E-16
 -3
    1PSTEP                        95          32           1          
  100CL  132 2.46781E-01          72                     0   32           1
 -4  STRESS      6    1
 -5  SXX         1    4    1    1
 -5  SYY         1    4    2    2
 -5  SZZ         1    4    3    3
 -5  SXY         1    4    1    2
 -5  SYZ         1    4    2    3
 -5  SZX         1    4    3    1
 -1         1 1.66410E-07 1.66410E-07-5.34943E-15-2.09971E-19 3.15377E-20 3.15412E-20
 -1         2 8.32048E-08 8.32048E-08 1.35952E-15 3.10366E-15 1.57719E-20-6.83926E-16
 -1         3 6.57221E-08 3.51431E-06 3.42717E-08 1.50373E-07-1.25832E-19-2.44798E-08
 -1         4-7.27636E-08 3.12124E-06-3.42717E-08 1.50373E-07-1.41852E-19-2.44799E-08
 -1         5 1.44740E-06 3.07786E-06 7.45463E-07 1.28597E-06-2.96600E-13-4.91312E-07
 -1         6-2.64758E-06-9.57568E-06-1.25227E-06 2.34208E-06-5.93196E-13-9.76803E-07
 -1         7 8.32048E-08 8.32048E-08 1.35952E-15 3.10366E-15-6.83926E-16 1.57745E-20
 -1         8 5.54699E-08 5.54699E-08 3.59584E-15 4.13828E-15-4.55951E-16-4.55951E-16
 -1         9 4.38148E-08 2.34288E-06 2.28478E-08 1.53853E-08 1.39733E-14-1.63199E-08
 -1        10-4.85090E-08 2.08083E-06-2.28478E-08 1.53854E-08 1.30412E-14-1.63199E-08
 -1        11 7.14853E-07 1.95506E-06 4.24244E-07-8.40858E-07-5.18815E-09-3.27542E-07
 -1        12-1.69891E-06-4.93311E-06-7.35234E-07-1.37622E-06-7.78223E-09-4.88401E-07
 -1        13 3.51431E-06 6.57221E-08 3.42717E-08 1.50373E-07-2.44798E-08-1.25486E-19
 -1        14 2.34288E-06 4.38148E-08 2.28478E-08 1.53853E-08-1.63199E-08 1.39520E-14
 -1        15 5.40824E-07 5.40824E-07-4.52945E-07-2.37745E-07 1.61766E-07 1.61766E-07
 -1        16 1.45596E-06 3.13833E-06 2.04431E-14 6.03438E-07 1.61766E-07 1.61766E-07
 -1        17 7.50790E-07 4.17721E-07 9.51723E-08 7.34996E-07 1.02118E-07-1.69711E-07
 -1        18-3.13029E-07-3.46611E-06-5.70566E-07 1.89402E-06 1.53177E-07-2.54566E-07
 -1        19 3.12124E-06-7.27636E-08-3.42717E-08 1.50373E-07-2.44798E-08-1.41705E-19
 -1        20 2.08083E-06-4.85090E-08-2.28478E-08 1.53854E-08-1.63199E-08 1.30374E-14
 -1        21 3.13833E-06 1.45596E-06 4.14199E-15 6.03438E-07 1.61766E-07 1.61766E-07
 -1        22 4.05346E-06 4.05346E-06 4.52945E-07 1.44462E-06 1.61766E-07 1.61766E-07
 -1        23 2.38486E-06 9.96430E-07 3.80505E-07-1.49497E-07 1.02118E-07-1.69711E-07
 -1        24 2.13808E-06-2.59805E-06-1.42568E-07 5.67277E-07 1.53177E-07-2.54566E-07
 -1        25 3.07786E-06 1.44740E-06 7.45463E-07 1.28597E-06-4.91312E-07-2.96600E-13
 -1        26 1.95506E-06 7.14853E-07 4.24244E-07-8.40858E-07-3.27542E-07-5.18815E-09
 -1        27 4.17721E-07 7.50790E-07 9.51723E-08 7.34996E-07-1.69711E-07 1.02118E-07
 -1        28 9.96430E-07 2.38486E-06 3.80504E-07-1.49497E-07-1.69711E-07 1.02118E-07
 -1        29 1.98727E-14 4.35127E-14 2.27298E-14 1.18200E-14-7.14862E-14-7.14862E-14
 -1        30 1.01562E-13 2.11915E-13 1.26626E-13 5.51764E-14 3.13088E-14 3.13089E-14
 -1        31-9.57568E-06-2.64758E-06-1.25227E-06 2.34208E-06-9.76803E-07-5.93196E-13
 -1        32-4.93311E-06-1.69891E-06-7.35234E-07-1.37622E-06-4.88401E-07-7.78223E-09
 -1        33-3.46611E-06-3.13029E-07-5.70566E-07 1.89402E-06-2.54566E-07 1.53177E-07
 -1        34-2.59805E-06 2.13808E-06-1.42568E-07 5.67277E-07-2.54566E-07 1.53177E-07
 -1        35 1.06440E-13 2.18280E-13 1.36519E-13 5.59200E-14 1.03480E-13 1.03480E-13
 -1        36-1.78108E-13-5.27520E-13-6.61747E-14-1.74706E-13-2.67000E-13-2.67000E-13
 -1        37 1.66410E-07 1.66410E-07-1.10945E-14-2.09973E-19-4.97097E-16-4.97097E-16
 -1        38 8.32048E-08 8.32048E-08-1.51304E-15 3.10366E-15-2.48548E-16-9.32490E-16
 -1        39 6.57221E-08 3.51431E-06 3.42717E-08 1.50373E-07-1.61816E-14 2.44798E-08
 -1        40-7.27637E-08 3.12124E-06-3.42717E-08 1.50373E-07-1.92971E-14 2.44798E-08
 -1        41 1.44532E-06 3.04584E-06 7.35234E-07 1.28597E-06 2.53177E-08 4.88402E-07
 -1        42-2.65174E-06-9.63972E-06-1.27273E-06 2.34208E-06 5.06355E-08 9.82625E-07
 -1        43 8.32048E-08 8.32048E-08-1.51304E-15 3.10366E-15-9.32490E-16-2.48548E-16
 -1        44 5.54699E-08 5.54699E-08 1.68080E-15 4.13828E-15-6.21660E-16-6.21660E-16
 -1        45 4.38148E-08 2.34288E-06 2.28478E-08 1.53853E-08 3.18541E-15 1.63199E-08
 -1        46-4.85090E-08 2.08083E-06-2.28478E-08 1.53854E-08 1.76350E-16 1.63199E-08
 -1        47 7.13466E-07 1.93372E-06 4.17424E-07-8.40858E-07 1.16905E-08 3.25601E-07
 -1        48-1.70099E-06-4.96512E-06-7.45463E-07-1.37622E-06 1.75358E-08 4.91312E-07
 -1        49 3.51431E-06 6.57221E-08 3.42717E-08 1.50373E-07 2.44798E-08-1.61398E-14
 -1        50 2.34288E-06 4.38148E-08 2.28478E-08 1.53853E-08 1.63199E-08 3.19197E-15
 -1        51 5.40824E-07 5.40824E-07-4.52945E-07-2.37746E-07-1.61766E-07-1.61766E-07
 -1        52 1.45596E-06 3.13833E-06-2.23420E-15 6.03438E-07-1.61766E-07-1.61766E-07
 -1        53 7.50790E-07 4.17721E-07 9.51723E-08 7.34996E-07-1.02118E-07 1.69711E-07
 -1        54-3.13029E-07-3.46611E-06-5.70566E-07 1.89402E-06-1.53177E-07 2.54566E-07
 -1        55 3.12124E-06-7.27637E-08-3.42717E-08 1.50373E-07 2.44798E-08-1.93226E-14
 -1        56 2.08083E-06-4.85090E-08-2.28478E-08 1.53854E-08 1.63199E-08 1.55602E-16
 -1        57 3.13833E-06 1.45596E-06 1.59450E-14 6.03438E-07-1.61766E-07-1.61766E-07
 -1        58 4.05346E-06 4.05346E-06 4.52945E-07 1.44462E-06-1.61766E-07-1.61766E-07
 -1        59 2.38486E-06 9.96430E-07 3.80504E-07-1.49497E-07-1.02118E-07 1.69711E-07
 -1        60 2.13808E-06-2.59805E-06-1.42568E-07 5.67277E-07-1.53177E-07 2.54567E-07
 -1        61 3.04584E-06 1.44532E-06 7.35234E-07 1.28597E-06 4.88402E-07 2.53177E-08
 -1        62 1.93372E-06 7.13466E-07 4.17424E-07-8.40858E-07 3.25601E-07 1.16905E-08
 -1        63 4.17721E-07 7.50790E-07 9.51723E-08 7.34996E-07 1.69711E-07-1.02118E-07
 -1        64 9.96430E-07 2.38486E-06 3.80505E-07-1.49497E-07 1.69711E-07-1.02118E-07
 -1        65-9.65868E-14-2.28226E-13-9.37298E-14-6.58197E-14-1.12632E-15-3.46695E-15
 -1        66-1.07769E-13-2.76526E-13-8.27056E-14-8.43782E-14 1.32697E-13 1.25610E-13
 -1        67-9.63972E-06-2.65174E-06-1.27273E-06 2.34208E-06 9.82625E-07 5.06355E-08
 -1        68-4.96512E-06-1.70099E-06-7.45463E-07-1.37622E-06 4.91312E-07 1.75358E-08
 -1        69-3.46611E-06-3.13029E-07-5.70566E-07 1.89402E-06 2.54566E-07-1.53177E-07
 -1        70-2.59805E-06 2.13808E-06-1.42568E-07 5.67277E-07 2.54567E-07-1.53177E-07
 -1        71-1.62001E-13-4.08083E-13-1.31922E-13-1.23041E-13-1.40228E-13-1.40162E-13
 -1        72 1.03010E-13 1.28423E-13 2.14943E-13 1.27064E-14 5.63149E-14 4.92930E-14
 -3
    1PSTEP                        96          32           1          
  100CL  132 2.46781E-01          72                     0   32           1
 -4  TOSTRAIN    6    1
 -5  EXX         1    4    1    1
 -5  EYY         1    4    2    2
 -5  EZZ         1    4    3    3
 -5  EXY         1    4    1    2
 -5  EYZ         1    4    2    3
 -5  EZX         1    4    3    1
 -1         1 5.54699E-13 5.54699E-13-4.75456E-13-1.29982E-24 1.95233E-25 1.95255E-25
 -1         2 2.77349E-13 2.77349E-13-2.37728E-13 1.92131E-20 9.76354E-26-4.23383E-21
 -1         3-4.75645E-12 1.65920E-11-4.95114E-12 9.30881E-13-7.78950E-25-1.51542E-13
 -1         4-4.75645E-12 1.50159E-11-4.51816E-12 9.30881E-13-8.78126E-25-1.51542E-13
 -1         5 1.43049E-12 1.15238E-11-2.91484E-12 7.96076E-12-1.83609E-18-3.04146E-12
 -1         6 2.86098E-12-4.00273E-11 1.14986E-11 1.44986E-11-3.67217E-18-6.04688E-12
 -1         7 2.77349E-13 2.77349E-13-2.37728E-13 1.92131E-20-4.23383E-21 9.76514E-26
 -1         8 1.84900E-13 1.84900E-13-1.58485E-13 2.56179E-20-2.82255E-21-2.82255E-21
 -1         9-3.17096E-12 1.10613E-11-3.30076E-12 9.52426E-14 8.65008E-20-1.01028E-13
 -1        10-3.17096E-12 1.00106E-11-3.01211E-12 9.52427E-14 8.07309E-20-1.01028E-13
 -1        11 5.04736E-15 7.68255E-12-1.79396E-12-5.20531E-12-3.21171E-14-2.02764E-12
 -1        12 7.57105E-15-2.00136E-11 5.97320E-12-8.51943E-12-4.81757E-14-3.02344E-12
 -1        13 1.65920E-11-4.75645E-12-4.95114E-12 9.30881E-13-1.51542E-13-7.76813E-25
 -1        14 1.10613E-11-3.17096E-12-3.30076E-12 9.52426E-14-1.01028E-13 8.63691E-20
 -1        15 2.44981E-12 2.44981E-12-3.70209E-12-1.47176E-12 1.00141E-12 1.00141E-12
 -1        16 2.44981E-12 1.28645E-11-6.56326E-12 3.73557E-12 1.00141E-12 1.00141E-12
 -1        17 2.83104E-12 7.92070E-13-1.21610E-12 4.55255E-12 6.30836E-13-1.05139E-12
 -1        18 4.24657E-12-1.52135E-11 2.68179E-12 1.17494E-11 9.46254E-13-1.57708E-12
 -1        19 1.50159E-11-4.75645E-12-4.51816E-12 9.30881E-13-1.51542E-13-8.77214E-25
 -1        20 1.00106E-11-3.17096E-12-3.01211E-12 9.52427E-14-1.01028E-13 8.07076E-20
 -1        21 1.28645E-11 2.44981E-12-6.56326E-12 3.73557E-12 1.00141E-12 1.00141E-12
 -1        22 1.28645E-11 1.28645E-11-9.42443E-12 8.94290E-12 1.00141E-12 1.00141E-12
 -1        23 9.39174E-12 7.92070E-13-3.01849E-12-9.14652E-13 6.30837E-13-1.05139E-12
 -1        24 1.40876E-11-1.52135E-11-2.17965E-14 3.54855E-12 9.46254E-13-1.57708E-12
 -1        25 1.15238E-11 1.43049E-12-2.91484E-12 7.96076E-12-3.04146E-12-1.83609E-18
 -1        26 7.68255E-12 5.04736E-15-1.79396E-12-5.20531E-12-2.02764E-12-3.21171E-14
 -1        27 7.92070E-13 2.83104E-12-1.21610E-12 4.55255E-12-1.05139E-12 6.30836E-13
 -1        28 7.92070E-13 9.39174E-12-3.01849E-12-9.14652E-13-1.05139E-12 6.30836E-13
 -1        29-3.56720E-39 1.46343E-19 1.76863E-20 7.31714E-20-4.42534E-19-4.42533E-19
 -1        30-5.35080E-39 6.83136E-19 1.55157E-19 3.41568E-19 1.93816E-19 1.93817E-19
 -1        31-4.00273E-11 2.86098E-12 1.14986E-11 1.44986E-11-6.04688E-12-3.67217E-18
 -1        32-2.00136E-11 7.57105E-15 5.97320E-12-8.51943E-12-3.02344E-12-4.81757E-14
 -1        33-1.52135E-11 4.24657E-12 2.68179E-12 1.17494E-11-1.57708E-12 9.46255E-13
 -1        34-1.52135E-11 1.40876E-11-2.17966E-14 3.54855E-12-1.57708E-12 9.46255E-13
 -1        35-8.33530E-39 6.92343E-19 1.86207E-19 3.46172E-19 6.40588E-19 6.40588E-19
 -1        36-1.66706E-38-2.16302E-18 6.92922E-19-1.08151E-18-1.65286E-18-1.65286E-18
 -1        37 5.54699E-13 5.54699E-13-4.75456E-13-1.29983E-24-3.07726E-21-3.07726E-21
 -1        38 2.77349E-13 2.77349E-13-2.37728E-13 1.92131E-20-1.53863E-21-5.77256E-21
 -1        39-4.75645E-12 1.65920E-11-4.95114E-12 9.30881E-13-1.00173E-19 1.51542E-13
 -1        40-4.75645E-12 1.50160E-11-4.51816E-12 9.30881E-13-1.19459E-19 1.51542E-13
 -1        41 1.48094E-12 1.13889E-11-2.91484E-12 7.96076E-12 1.56729E-13 3.02344E-12
 -1        42 2.96189E-12-4.02970E-11 1.14986E-11 1.44986E-11 3.13458E-13 6.08291E-12
 -1        43 2.77349E-13 2.77349E-13-2.37728E-13 1.92131E-20-5.77256E-21-1.53863E-21
 -1        44 1.84900E-13 1.84900E-13-1.58485E-13 2.56179E-20-3.84837E-21-3.84837E-21
 -1        45-3.17096E-12 1.10613E-11-3.30076E-12 9.52426E-14 1.97194E-20 1.01028E-13
 -1        46-3.17096E-12 1.00106E-11-3.01211E-12 9.52427E-14 1.09189E-21 1.01028E-13
 -1        47 3.86831E-14 7.59263E-12-1.79396E-12-5.20531E-12 7.23700E-14 2.01563E-12
 -1        48 5.80247E-14-2.01485E-11 5.97320E-12-8.51943E-12 1.08555E-13 3.04146E-12
 -1        49 1.65920E-11-4.75645E-12-4.95114E-12 9.30881E-13 1.51542E-13-9.99144E-20
 -1        50 1.10613E-11-3.17096E-12-3.30076E-12 9.52426E-14 1.01028E-13 1.97600E-20
 -1        51 2.44981E-12 2.44981E-12-3.70209E-12-1.47176E-12-1.00141E-12-1.00141E-12
 -1        52 2.44981E-12 1.28645E-11-6.56326E-12 3.73557E-12-1.00141E-12-1.00141E-12
 -1        53 2.83104E-12 7.92071E-13-1.21610E-12 4.55255E-12-6.30837E-13 1.05139E-12
 -1        54 4.24657E-12-1.52135E-11 2.68179E-12 1.17494E-11-9.46255E-13 1.57708E-12
 -1        55 1.50160E-11-4.75645E-12-4.51816E-12 9.30881E-13 1.51542E-13-1.19617E-19
 -1        56 1.00106E-11-3.17096E-12-3.01211E-12 9.52427E-14 1.01028E-13 9.63451E-22
 -1        57 1.28645E-11 2.44981E-12-6.56326E-12 3.73557E-12-1.00141E-12-1.00141E-12
 -1        58 1.28645E-11 1.28645E-11-9.42443E-12 8.94290E-12-1.00141E-12-1.00141E-12
 -1        59 9.39174E-12 7.92071E-13-3.01849E-12-9.14652E-13-6.30836E-13 1.05139E-12
 -1        60 1.40876E-11-1.52135E-11-2.17965E-14 3.54855E-12-9.46255E-13 1.57708E-12
 -1        61 1.13889E-11 1.48094E-12-2.91484E-12 7.96076E-12 3.02344E-12 1.56729E-13
 -1        62 7.59263E-12 3.86831E-14-1.79396E-12-5.20531E-12 2.01563E-12 7.23700E-14
 -1        63 7.92071E-13 2.83104E-12-1.21610E-12 4.55255E-12 1.05139E-12-6.30836E-13
 -1        64 7.92071E-13 9.39174E-12-3.01849E-12-9.14652E-13 1.05139E-12-6.30836E-13
 -1        65 1.78340E-38-8.14911E-19 1.76863E-20-4.07455E-19-6.97247E-21-2.14621E-20
 -1        66 2.67511E-38-1.04468E-18 1.55157E-19-5.22341E-19 8.21458E-19 7.77585E-19
 -1        67-4.02970E-11 2.96189E-12 1.14986E-11 1.44986E-11 6.08291E-12 3.13458E-13
 -1        68-2.01485E-11 5.80247E-14 5.97320E-12-8.51943E-12 3.04146E-12 1.08555E-13
 -1        69-1.52135E-11 4.24657E-12 2.68179E-12 1.17494E-11 1.57708E-12-9.46255E-13
 -1        70-1.52135E-11 1.40876E-11-2.17966E-14 3.54855E-12 1.57708E-12-9.46255E-13
 -1        71 4.16739E-38-1.52336E-18 1.86207E-19-7.61680E-19-8.68076E-19-8.67671E-19
 -1        72 8.33477E-38 1.57318E-19 6.92922E-19 7.86589E-20 3.48616E-19 3.05147E-19
 -3
    1PSTEP                        97          33           1          
  100CL  133 2.55781E-01          72                     0   33           1
 -4  DISP        4    1
 -5  D1          1    2    1    0
 -5  D2          1    2    2    0
 -5  D3          1    2    3    0
 -5  ALL         1    2    0    0    1ALL
 -1         1 0.00000E+00 0.00000E+00 0.00000E+00
 -1         2 2.73508E-10 0.00000E+00 0.00000E+00
 -1         3 1.43592E-02 0.00000E+00 0.00000E+00
 -1         4 1.43591E-02 0.00000E+00 0.00000E+00
 -1         5 2.71456E-03 0.00000E+00 0.00000E+00
 -1         6 2.71456E-03 0.00000E+00 0.00000E+00
 -1         7 0.00000E+00 2.73508E-10 0.00000E+00
 -1         8 2.73508E-10 2.73508E-10 0.00000E+00
 -1         9 1.43592E-02 1.52586E-08 0.00000E+00
 -1        10 1.43591E-02 1.39085E-08 0.00000E+00
 -1        11 2.71457E-03 1.12726E-08 0.00000E+00
 -1        12 2.71457E-03-1.81116E-08 0.00000E+00
 -1        13 0.00000E+00 1.43592E-02 0.00000E+00
 -1        14 1.52586E-08 1.43592E-02 0.00000E+00
 -1        15 5.24620E-01 5.24620E-01 0.00000E+00
 -1        16 5.24620E-01 5.24620E-01 0.00000E+00
 -1        17 8.10881E-01 1.23977E-01 0.00000E+00
 -1        18 8.10543E-01-4.57550E-01 0.00000E+00
 -1        19 0.00000E+00 1.43591E-02 0.00000E+00
 -1        20 1.39085E-08 1.43591E-02 0.00000E+00
 -1        21 5.24620E-01 5.24620E-01 0.00000E+00
 -1        22 5.24620E-01 5.24620E-01 0.00000E+00
 -1        23 1.39241E+00 1.23639E-01 0.00000E+00
 -1        24 1.39207E+00-4.57889E-01 0.00000E+00
 -1        25 0.00000E+00 2.71456E-03 0.00000E+00
 -1        26 1.12726E-08 2.71457E-03 0.00000E+00
 -1        27 1.23977E-01 8.10881E-01 0.00000E+00
 -1        28 1.23639E-01 1.39241E+00 0.00000E+00
 -1        29-7.67344E+00-7.67344E+00 0.00000E+00
 -1        30-7.67344E+00-7.67344E+00 0.00000E+00
 -1        31 0.00000E+00 2.71456E-03 0.00000E+00
 -1        32-1.81116E-08 2.71457E-03 0.00000E+00
 -1        33-4.57550E-01 8.10543E-01 0.00000E+00
 -1        34-4.57889E-01 1.39207E+00 0.00000E+00
 -1        35-7.67344E+00-7.67344E+00 0.00000E+00
 -1        36-7.67344E+00-7.67344E+00 0.00000E+00
 -1        37 0.00000E+00 0.00000E+00-3.28209E-10
 -1        38 2.73508E-10 0.00000E+00-3.28209E-10
 -1        39 1.43592E-02 0.00000E+00-6.40489E-09
 -1        40 1.43591E-02 0.00000E+00-5.88561E-09
 -1        41 2.71455E-03 0.00000E+00-4.05743E-09
 -1        42 2.71455E-03 0.00000E+00 7.24419E-09
 -1        43 0.00000E+00 2.73508E-10-3.28209E-10
 -1        44 2.73508E-10 2.73508E-10-3.28209E-10
 -1        45 1.43592E-02 1.52586E-08-6.40489E-09
 -1        46 1.43591E-02 1.39085E-08-5.88561E-09
 -1        47 2.71456E-03 1.11590E-08-3.79347E-09
 -1        48 2.71456E-03-1.82252E-08 7.50816E-09
 -1        49 0.00000E+00 1.43592E-02-6.40489E-09
 -1        50 1.52586E-08 1.43592E-02-6.40489E-09
 -1        51 5.24620E-01 5.24620E-01-7.09680E-09
 -1        52 5.24620E-01 5.24620E-01-1.26875E-08
 -1        53 8.10881E-01 1.23977E-01-2.51571E-09
 -1        54 8.10543E-01-4.57550E-01 3.38873E-09
 -1        55 0.00000E+00 1.43591E-02-5.88561E-09
 -1        56 1.39085E-08 1.43591E-02-5.88561E-09
 -1        57 5.24620E-01 5.24620E-01-1.26875E-08
 -1        58 5.24620E-01 5.24620E-01-1.82781E-08
 -1        59 1.39241E+00 1.23639E-01-6.26640E-09
 -1        60 1.39207E+00-4.57889E-01-3.61952E-10
 -1        61 0.00000E+00 2.71455E-03-4.05743E-09
 -1        62 1.11590E-08 2.71456E-03-3.79347E-09
 -1        63 1.23977E-01 8.10881E-01-2.51571E-09
 -1        64 1.23639E-01 1.39241E+00-6.26640E-09
 -1        65-7.67344E+00-7.67344E+00-1.44014E-16
 -1        66-7.67344E+00-7.67344E+00 5.63000E-16
 -1        67 0.00000E+00 2.71455E-03 7.24419E-09
 -1        68-1.82252E-08 2.71456E-03 7.50816E-09
 -1        69-4.57550E-01 8.10543E-01 3.38873E-09
 -1        70-4.57889E-01 1.39207E+00-3.61953E-10
 -1        71-7.67344E+00-7.67344E+00 5.19530E-16
 -1        72-7.67344E+00-7.67344E+00-7.18619E-17
 -3
    1PSTEP                        98          33           1          
  100CL  133 2.55781E-01          72                     0   33           1
 -4  STRESS      6    1
 -5  SXX         1    4    1    1
 -5  SYY         1    4    2    2
 -5  SZZ         1    4    3    3
 -5  SXY         1    4    1    2
 -5  SYZ         1    4    2    3
 -5  SZX         1    4    3    1
 -1         1 1.64098E-07 1.64098E-07-4.58848E-15-1.80013E-19 2.70750E-20 2.70768E-20
 -1         2 8.20490E-08 8.20490E-08 1.15952E-15 2.66087E-15 1.35368E-20-5.85329E-16
 -1         3 6.70725E-08 3.23311E-06 2.93588E-08 1.28817E-07-9.99056E-20-2.09707E-08
 -1         4-5.15613E-08 2.89638E-06-2.93589E-08 1.28817E-07-1.13759E-19-2.09707E-08
 -1         5 1.34776E-06 2.97836E-06 6.89215E-07 1.20178E-06-2.49767E-13-4.57635E-07
 -1         6-2.46842E-06-8.70054E-06-1.17746E-06 2.21001E-06-4.99531E-13-9.10367E-07
 -1         7 8.20490E-08 8.20490E-08 1.15952E-15 2.66087E-15-5.85329E-16 1.35375E-20
 -1         8 5.46993E-08 5.46993E-08 3.07552E-15 3.54789E-15-3.90220E-16-3.90220E-16
 -1         9 4.47151E-08 2.15541E-06 1.95726E-08 1.31798E-08 1.29135E-14-1.39804E-08
 -1        10-3.43742E-08 1.93092E-06-1.95726E-08 1.31799E-08 1.21172E-14-1.39804E-08
 -1        11 6.87914E-07 1.90402E-06 3.98230E-07-7.81028E-07-4.36894E-09-3.05090E-07
 -1        12-1.55010E-06-4.47260E-06-6.80601E-07-1.26832E-06-6.55341E-09-4.55183E-07
 -1        13 3.23311E-06 6.70725E-08 2.93588E-08 1.28817E-07-2.09707E-08-1.00029E-19
 -1        14 2.15541E-06 4.47151E-08 1.95726E-08 1.31798E-08-1.39804E-08 1.28898E-14
 -1        15 4.80310E-07 4.80310E-07-4.21447E-07-2.21716E-07 1.50517E-07 1.50517E-07
 -1        16 1.33180E-06 2.89718E-06 1.83077E-14 5.60972E-07 1.50517E-07 1.50517E-07
 -1        17 6.48371E-07 4.60854E-07 8.12029E-08 6.66471E-07 1.01164E-07-1.58847E-07
 -1        18-3.74544E-07-3.13933E-06-5.45848E-07 1.78446E-06 1.51746E-07-2.38271E-07
 -1        19 2.89638E-06-5.15613E-08-2.93589E-08 1.28817E-07-2.09707E-08-1.14012E-19
 -1        20 1.93092E-06-3.43742E-08-1.95726E-08 1.31799E-08-1.39804E-08 1.21309E-14
 -1        21 2.89718E-06 1.33180E-06-6.26927E-15 5.60972E-07 1.50517E-07 1.50517E-07
 -1        22 3.74867E-06 3.74867E-06 4.21447E-07 1.34366E-06 1.50517E-07 1.50517E-07
 -1        23 2.26789E-06 1.03403E-06 3.63945E-07-1.61366E-07 1.01164E-07-1.58847E-07
 -1        24 2.05473E-06-2.27956E-06-1.21735E-07 5.42704E-07 1.51746E-07-2.38271E-07
 -1        25 2.97836E-06 1.34776E-06 6.89215E-07 1.20178E-06-4.57635E-07-2.49767E-13
 -1        26 1.90402E-06 6.87914E-07 3.98230E-07-7.81028E-07-3.05090E-07-4.36894E-09
 -1        27 4.60854E-07 6.48371E-07 8.12029E-08 6.66471E-07-1.58847E-07 1.01164E-07
 -1        28 1.03403E-06 2.26789E-06 3.63945E-07-1.61366E-07-1.58847E-07 1.01164E-07
 -1        29 3.85821E-14 1.01103E-13 2.75038E-14 3.12606E-14 1.99652E-14 1.99651E-14
 -1        30-3.17638E-14-1.39075E-13 3.31962E-14-5.36558E-14 9.54250E-14 9.54253E-14
 -1        31-8.70054E-06-2.46842E-06-1.17746E-06 2.21001E-06-9.10367E-07-4.99531E-13
 -1        32-4.47260E-06-1.55010E-06-6.80601E-07-1.26832E-06-4.55183E-07-6.55341E-09
 -1        33-3.13933E-06-3.74544E-07-5.45848E-07 1.78446E-06-2.38271E-07 1.51746E-07
 -1        34-2.27956E-06 2.05473E-06-1.21735E-07 5.42704E-07-2.38271E-07 1.51746E-07
 -1        35 4.21711E-14 3.84550E-14 1.02115E-13-1.85806E-15 2.56843E-14 2.56839E-14
 -1        36 3.72401E-13 8.85521E-13 3.55817E-13 2.56560E-13-3.02741E-13-3.02741E-13
 -1        37 1.64098E-07 1.64098E-07-9.50536E-15-1.80020E-19-4.30126E-16-4.30126E-16
 -1        38 8.20490E-08 8.20490E-08-1.29892E-15 2.66087E-15-2.15063E-16-8.00406E-16
 -1        39 6.70724E-08 3.23311E-06 2.93588E-08 1.28817E-07-1.50684E-14 2.09706E-08
 -1        40-5.15614E-08 2.89638E-06-2.93589E-08 1.28817E-07-1.77606E-14 2.09706E-08
 -1        41 1.34601E-06 2.95139E-06 6.80601E-07 1.20178E-06 2.13201E-08 4.55183E-07
 -1        42-2.47192E-06-8.75446E-06-1.19469E-06 2.21001E-06 4.26401E-08 9.15269E-07
 -1        43 8.20490E-08 8.20490E-08-1.29892E-15 2.66087E-15-8.00406E-16-2.15063E-16
 -1        44 5.46993E-08 5.46993E-08 1.43656E-15 3.54789E-15-5.33604E-16-5.33604E-16
 -1        45 4.47150E-08 2.15541E-06 1.95726E-08 1.31799E-08 2.86784E-15 1.39804E-08
 -1        46-3.43742E-08 1.93092E-06-1.95726E-08 1.31799E-08 2.76750E-16 1.39804E-08
 -1        47 6.86747E-07 1.88604E-06 3.92487E-07-7.81028E-07 9.84460E-09 3.03456E-07
 -1        48-1.55185E-06-4.49956E-06-6.89215E-07-1.26832E-06 1.47669E-08 4.57635E-07
 -1        49 3.23311E-06 6.70724E-08 2.93588E-08 1.28817E-07 2.09706E-08-1.49753E-14
 -1        50 2.15541E-06 4.47150E-08 1.95726E-08 1.31799E-08 1.39804E-08 2.90613E-15
 -1        51 4.80310E-07 4.80310E-07-4.21447E-07-2.21716E-07-1.50517E-07-1.50517E-07
 -1        52 1.33180E-06 2.89718E-06 8.54874E-16 5.60972E-07-1.50517E-07-1.50517E-07
 -1        53 6.48371E-07 4.60854E-07 8.12029E-08 6.66471E-07-1.01164E-07 1.58847E-07
 -1        54-3.74544E-07-3.13933E-06-5.45848E-07 1.78446E-06-1.51746E-07 2.38271E-07
 -1        55 2.89638E-06-5.15614E-08-2.93589E-08 1.28817E-07 2.09706E-08-1.78075E-14
 -1        56 1.93092E-06-3.43742E-08-1.95726E-08 1.31799E-08 1.39804E-08 2.59173E-16
 -1        57 2.89718E-06 1.33180E-06 1.72760E-15 5.60972E-07-1.50517E-07-1.50517E-07
 -1        58 3.74867E-06 3.74867E-06 4.21447E-07 1.34366E-06-1.50517E-07-1.50517E-07
 -1        59 2.26789E-06 1.03403E-06 3.63945E-07-1.61366E-07-1.01164E-07 1.58847E-07
 -1        60 2.05473E-06-2.27956E-06-1.21735E-07 5.42704E-07-1.51746E-07 2.38271E-07
 -1        61 2.95139E-06 1.34601E-06 6.80601E-07 1.20178E-06 4.55183E-07 2.13201E-08
 -1        62 1.88604E-06 6.86747E-07 3.92487E-07-7.81028E-07 3.03456E-07 9.84460E-09
 -1        63 4.60854E-07 6.48371E-07 8.12029E-08 6.66471E-07 1.58847E-07-1.01164E-07
 -1        64 1.03403E-06 2.26789E-06 3.63945E-07-1.61366E-07 1.58847E-07-1.01164E-07
 -1        65-1.03749E-13-2.31002E-13-1.14827E-13-6.36267E-14-1.05632E-13-1.03291E-13
 -1        66-9.62634E-14-2.89575E-13-3.13034E-14-9.66556E-14-3.31760E-14 7.52051E-14
 -1        67-8.75446E-06-2.47192E-06-1.19469E-06 2.21001E-06 9.15269E-07 4.26401E-08
 -1        68-4.49956E-06-1.55185E-06-6.89215E-07-1.26832E-06 4.57635E-07 1.47669E-08
 -1        69-3.13933E-06-3.74544E-07-5.45848E-07 1.78446E-06 2.38271E-07-1.51746E-07
 -1        70-2.27956E-06 2.05473E-06-1.21735E-07 5.42704E-07 2.38271E-07-1.51746E-07
 -1        71-1.20844E-13-3.41913E-13-6.08994E-14-1.10535E-13 8.07652E-14-2.05940E-14
 -1        72-1.33403E-13-2.94690E-13-1.49988E-13-8.06434E-14 1.09016E-13 1.16038E-13
 -3
    1PSTEP                        99          33           1          
  100CL  133 2.55781E-01          72                     0   33           1
 -4  TOSTRAIN    6    1
 -5  EXX         1    4    1    1
 -5  EYY         1    4    2    2
 -5  EZZ         1    4    3    3
 -5  EXY         1    4    1    2
 -5  EYZ         1    4    2    3
 -5  EZX         1    4    3    1
 -1         1 5.46993E-13 5.46993E-13-4.68851E-13-1.11437E-24 1.67607E-25 1.67618E-25
 -1         2 2.73497E-13 2.73497E-13-2.34426E-13 1.64721E-20 8.37995E-26-3.62347E-21
 -1         3-4.34128E-12 1.52580E-11-4.57474E-12 7.97439E-13-6.18458E-25-1.29818E-13
 -1         4-4.34128E-12 1.39079E-11-4.20383E-12 7.97439E-13-7.04217E-25-1.29818E-13
 -1         5 1.17852E-12 1.12727E-11-2.89819E-12 7.43962E-12-1.54618E-18-2.83298E-12
 -1         6 2.35704E-12-3.62227E-11 1.03487E-11 1.36810E-11-3.09234E-18-5.63560E-12
 -1         7 2.73497E-13 2.73497E-13-2.34426E-13 1.64721E-20-3.62347E-21 8.38035E-26
 -1         8 1.82331E-13 1.82331E-13-1.56284E-13 2.19631E-20-2.41565E-21-2.41565E-21
 -1         9-2.89418E-12 1.01720E-11-3.04983E-12 8.15895E-14 7.99405E-20-8.65455E-14
 -1        10-2.89418E-12 9.27193E-12-2.80256E-12 8.15897E-14 7.50112E-20-8.65456E-14
 -1        11-1.31447E-14 7.51512E-12-1.80643E-12-4.83493E-12-2.70458E-14-1.88865E-12
 -1        12-1.97171E-14-1.81114E-11 5.36290E-12-7.85152E-12-4.05687E-14-2.81780E-12
 -1        13 1.52580E-11-4.34128E-12-4.57474E-12 7.97439E-13-1.29818E-13-6.19220E-25
 -1        14 1.01720E-11-2.89418E-12-3.04983E-12 8.15895E-14-8.65455E-14 7.97936E-20
 -1        15 2.20310E-12 2.20310E-12-3.37920E-12-1.37252E-12 9.31770E-13 9.31770E-13
 -1        16 2.20310E-12 1.18935E-11-6.04141E-12 3.47268E-12 9.31770E-13 9.31770E-13
 -1        17 2.30352E-12 1.16189E-12-1.19793E-12 4.12711E-12 6.25110E-13-9.84068E-13
 -1        18 3.45527E-12-1.36086E-11 2.42054E-12 1.10665E-11 9.37665E-13-1.47610E-12
 -1        19 1.39079E-11-4.34128E-12-4.20383E-12 7.97439E-13-1.29818E-13-7.05781E-25
 -1        20 9.27193E-12-2.89418E-12-2.80256E-12 8.15897E-14-8.65456E-14 7.50957E-20
 -1        21 1.18935E-11 2.20310E-12-6.04141E-12 3.47268E-12 9.31770E-13 9.31770E-13
 -1        22 1.18935E-11 1.18935E-11-8.70361E-12 8.31789E-12 9.31770E-13 9.31770E-13
 -1        23 8.80466E-12 1.16189E-12-2.98396E-12-9.90044E-13 6.25110E-13-9.84068E-13
 -1        24 1.32070E-11-1.36086E-11-2.58501E-13 3.39079E-12 9.37665E-13-1.47610E-12
 -1        25 1.12727E-11 1.17852E-12-2.89819E-12 7.43962E-12-2.83298E-12-1.54618E-18
 -1        26 7.51512E-12-1.31447E-14-1.80643E-12-4.83493E-12-1.88865E-12-2.70458E-14
 -1        27 1.16189E-12 2.30352E-12-1.19793E-12 4.12711E-12-9.84068E-13 6.25110E-13
 -1        28 1.16189E-12 8.80466E-12-2.98396E-12-9.90044E-13-9.84068E-13 6.25110E-13
 -1        29-2.43221E-38 3.87036E-19-6.85800E-20 1.93518E-19 1.23594E-19 1.23594E-19
 -1        30-3.64831E-38-6.64310E-19 4.02133E-19-3.32155E-19 5.90726E-19 5.90728E-19
 -1        31-3.62227E-11 2.35704E-12 1.03487E-11 1.36810E-11-5.63560E-12-3.09234E-18
 -1        32-1.81114E-11-1.97171E-14 5.36290E-12-7.85152E-12-2.81780E-12-4.05687E-14
 -1        33-1.36086E-11 3.45527E-12 2.42054E-12 1.10665E-11-1.47610E-12 9.37665E-13
 -1        34-1.36086E-11 1.32070E-11-2.58501E-13 3.39079E-12-1.47610E-12 9.37665E-13
 -1        35-1.14632E-38-2.30046E-20 3.71084E-19-1.15023E-20 1.58998E-19 1.58996E-19
 -1        36-2.29263E-38 3.17646E-18-1.02666E-19 1.58823E-18-1.87411E-18-1.87411E-18
 -1        37 5.46993E-13 5.46993E-13-4.68851E-13-1.11441E-24-2.66268E-21-2.66268E-21
 -1        38 2.73497E-13 2.73497E-13-2.34426E-13 1.64721E-20-1.33134E-21-4.95489E-21
 -1        39-4.34128E-12 1.52580E-11-4.57474E-12 7.97439E-13-9.32811E-20 1.29818E-13
 -1        40-4.34128E-12 1.39079E-11-4.20383E-12 7.97439E-13-1.09947E-19 1.29818E-13
 -1        41 1.22101E-12 1.11591E-11-2.89819E-12 7.43962E-12 1.31981E-13 2.81780E-12
 -1        42 2.44202E-12-3.64499E-11 1.03487E-11 1.36810E-11 2.63963E-13 5.66595E-12
 -1        43 2.73497E-13 2.73497E-13-2.34426E-13 1.64721E-20-4.95489E-21-1.33134E-21
 -1        44 1.82331E-13 1.82331E-13-1.56284E-13 2.19631E-20-3.30326E-21-3.30326E-21
 -1        45-2.89419E-12 1.01720E-11-3.04983E-12 8.15895E-14 1.77535E-20 8.65455E-14
 -1        46-2.89419E-12 9.27193E-12-2.80256E-12 8.15897E-14 1.71336E-21 8.65454E-14
 -1        47 1.51799E-14 7.43939E-12-1.80643E-12-4.83493E-12 6.09428E-14 1.87853E-12
 -1        48 2.27698E-14-1.82250E-11 5.36290E-12-7.85152E-12 9.14141E-14 2.83298E-12
 -1        49 1.52580E-11-4.34128E-12-4.57474E-12 7.97439E-13 1.29818E-13-9.27053E-20
 -1        50 1.01720E-11-2.89419E-12-3.04983E-12 8.15895E-14 8.65455E-14 1.79905E-20
 -1        51 2.20310E-12 2.20310E-12-3.37920E-12-1.37253E-12-9.31770E-13-9.31770E-13
 -1        52 2.20310E-12 1.18935E-11-6.04141E-12 3.47268E-12-9.31770E-13-9.31770E-13
 -1        53 2.30352E-12 1.16189E-12-1.19793E-12 4.12711E-12-6.25110E-13 9.84068E-13
 -1        54 3.45527E-12-1.36086E-11 2.42054E-12 1.10665E-11-9.37665E-13 1.47610E-12
 -1        55 1.39079E-11-4.34128E-12-4.20383E-12 7.97439E-13 1.29818E-13-1.10237E-19
 -1        56 9.27193E-12-2.89419E-12-2.80256E-12 8.15897E-14 8.65454E-14 1.60455E-21
 -1        57 1.18935E-11 2.20310E-12-6.04141E-12 3.47268E-12-9.31770E-13-9.31770E-13
 -1        58 1.18935E-11 1.18935E-11-8.70361E-12 8.31789E-12-9.31770E-13-9.31770E-13
 -1        59 8.80466E-12 1.16189E-12-2.98396E-12-9.90043E-13-6.25110E-13 9.84068E-13
 -1        60 1.32070E-11-1.36086E-11-2.58501E-13 3.39079E-12-9.37665E-13 1.47610E-12
 -1        61 1.11591E-11 1.22101E-12-2.89819E-12 7.43962E-12 2.81780E-12 1.31981E-13
 -1        62 7.43939E-12 1.51799E-14-1.80643E-12-4.83493E-12 1.87853E-12 6.09428E-14
 -1        63 1.16189E-12 2.30352E-12-1.19793E-12 4.12711E-12 9.84068E-13-6.25110E-13
 -1        64 1.16189E-12 8.80466E-12-2.98396E-12-9.90044E-13 9.84068E-13-6.25110E-13
 -1        65 1.21605E-37-7.87760E-19-6.85800E-20-3.93880E-19-6.53909E-19-6.39420E-19
 -1        66 1.82407E-37-1.19669E-18 4.02133E-19-5.98344E-19-2.05375E-19 4.65555E-19
 -1        67-3.64499E-11 2.44202E-12 1.03487E-11 1.36810E-11 5.66595E-12 2.63963E-13
 -1        68-1.82250E-11 2.27698E-14 5.36290E-12-7.85152E-12 2.83298E-12 9.14141E-14
 -1        69-1.36086E-11 3.45527E-12 2.42054E-12 1.10665E-11 1.47610E-12-9.37665E-13
 -1        70-1.36086E-11 1.32070E-11-2.58501E-13 3.39079E-12 1.47610E-12-9.37666E-13
 -1        71 5.73051E-38-1.36852E-18 3.71084E-19-6.84262E-19 4.99975E-19-1.27487E-19
 -1        72 1.14610E-37-9.98442E-19-1.02666E-19-4.99221E-19 6.74861E-19 7.18330E-19
 -3
    1PSTEP                       100          34           1          
  100CL  134 2.64781E-01          72                     0   34           1
 -4  DISP        4    1
 -5  D1          1    2    1    0
 -5  D2          1    2    2    0
 -5  D3          1    2    3    0
 -5  ALL         1    2    0    0    1ALL
 -1         1 0.00000E+00 0.00000E+00 0.00000E+00
 -1         2 2.55354E-10 0.00000E+00 0.00000E+00
 -1         3 1.34061E-02 0.00000E+00 0.00000E+00
 -1         4 1.34061E-02 0.00000E+00 0.00000E+00
 -1         5 5.16542E-03 0.00000E+00 0.00000E+00
 -1         6 5.16542E-03 0.00000E+00 0.00000E+00
 -1         7 0.00000E+00 2.55354E-10 0.00000E+00
 -1         8 2.55354E-10 2.55354E-10 0.00000E+00
 -1         9 1.34061E-02 1.38201E-08 0.00000E+00
 -1        10 1.34061E-02 1.26962E-08 0.00000E+00
 -1        11 5.16543E-03 1.07596E-08 0.00000E+00
 -1        12 5.16543E-03-1.61179E-08 0.00000E+00
 -1        13 0.00000E+00 1.34061E-02 0.00000E+00
 -1        14 1.38201E-08 1.34061E-02 0.00000E+00
 -1        15 4.78188E-01 4.78188E-01 0.00000E+00
 -1        16 4.78188E-01 4.78188E-01 0.00000E+00
 -1        17 7.35144E-01 1.32756E-01 0.00000E+00
 -1        18 7.34864E-01-3.96045E-01 0.00000E+00
 -1        19 0.00000E+00 1.34061E-02 0.00000E+00
 -1        20 1.26962E-08 1.34061E-02 0.00000E+00
 -1        21 4.78188E-01 4.78188E-01 0.00000E+00
 -1        22 4.78188E-01 4.78188E-01 0.00000E+00
 -1        23 1.26394E+00 1.32476E-01 0.00000E+00
 -1        24 1.26366E+00-3.96325E-01 0.00000E+00
 -1        25 0.00000E+00 5.16542E-03 0.00000E+00
 -1        26 1.07596E-08 5.16543E-03 0.00000E+00
 -1        27 1.32756E-01 7.35144E-01 0.00000E+00
 -1        28 1.32476E-01 1.26394E+00 0.00000E+00
 -1        29-7.94344E+00-7.94344E+00 0.00000E+00
 -1        30-7.94344E+00-7.94344E+00 0.00000E+00
 -1        31 0.00000E+00 5.16542E-03 0.00000E+00
 -1        32-1.61179E-08 5.16543E-03 0.00000E+00
 -1        33-3.96045E-01 7.34864E-01 0.00000E+00
 -1        34-3.96325E-01 1.26366E+00 0.00000E+00
 -1        35-7.94344E+00-7.94344E+00 0.00000E+00
 -1        36-7.94344E+00-7.94344E+00 0.00000E+00
 -1        37 0.00000E+00 0.00000E+00-3.06425E-10
 -1        38 2.55354E-10 0.00000E+00-3.06425E-10
 -1        39 1.34061E-02 0.00000E+00-5.82293E-09
 -1        40 1.34061E-02 0.00000E+00-5.39066E-09
 -1        41 5.16541E-03 0.00000E+00-3.92453E-09
 -1        42 5.16541E-03 0.00000E+00 6.41296E-09
 -1        43 0.00000E+00 2.55354E-10-3.06425E-10
 -1        44 2.55354E-10 2.55354E-10-3.06425E-10
 -1        45 1.34061E-02 1.38201E-08-5.82293E-09
 -1        46 1.34061E-02 1.26962E-08-5.39066E-09
 -1        47 5.16542E-03 1.06668E-08-3.70887E-09
 -1        48 5.16542E-03-1.62107E-08 6.62862E-09
 -1        49 0.00000E+00 1.34061E-02-5.82293E-09
 -1        50 1.38201E-08 1.34061E-02-5.82293E-09
 -1        51 4.78188E-01 4.78188E-01-6.39326E-09
 -1        52 4.78188E-01 4.78188E-01-1.15030E-08
 -1        53 7.35144E-01 1.32756E-01-2.40907E-09
 -1        54 7.34864E-01-3.96045E-01 3.00289E-09
 -1        55 0.00000E+00 1.34061E-02-5.39066E-09
 -1        56 1.26962E-08 1.34061E-02-5.39066E-09
 -1        57 4.78188E-01 4.78188E-01-1.15030E-08
 -1        58 4.78188E-01 4.78188E-01-1.66128E-08
 -1        59 1.26394E+00 1.32476E-01-6.04541E-09
 -1        60 1.26366E+00-3.96325E-01-6.33453E-10
 -1        61 0.00000E+00 5.16541E-03-3.92453E-09
 -1        62 1.06668E-08 5.16542E-03-3.70887E-09
 -1        63 1.32756E-01 7.35144E-01-2.40907E-09
 -1        64 1.32476E-01 1.26394E+00-6.04541E-09
 -1        65-7.94344E+00-7.94344E+00 2.59480E-16
 -1        66-7.94344E+00-7.94344E+00 1.97887E-16
 -1        67 0.00000E+00 5.16541E-03 6.41296E-09
 -1        68-1.62107E-08 5.16542E-03 6.62862E-09
 -1        69-3.96045E-01 7.34864E-01 3.00289E-09
 -1        70-3.96325E-01 1.26366E+00-6.33454E-10
 -1        71-7.94344E+00-7.94344E+00 3.89154E-16
 -1        72-7.94344E+00-7.94344E+00-5.37328E-16
 -3
    1PSTEP                       101          34           1          
  100CL  134 2.64781E-01          72                     0   34           1
 -4  STRESS      6    1
 -5  SXX         1    4    1    1
 -5  SYY         1    4    2    2
 -5  SZZ         1    4    3    3
 -5  SXY         1    4    1    2
 -5  SYZ         1    4    2    3
 -5  SZX         1    4    3    1
 -1         1 1.53206E-07 1.53206E-07-3.82103E-15-1.49887E-19 2.25555E-20 2.25551E-20
 -1         2 7.66032E-08 7.66032E-08 9.64003E-16 2.21555E-15 1.12767E-20-4.87172E-16
 -1         3 6.41360E-08 2.92868E-06 2.44397E-08 1.07234E-07-7.75894E-20-1.74570E-08
 -1         4-3.46206E-08 2.64837E-06-2.44397E-08 1.07234E-07-8.93175E-20-1.74570E-08
 -1         5 1.23087E-06 2.81643E-06 6.25509E-07 1.10142E-06-2.04054E-13-4.18474E-07
 -1         6-2.26166E-06-7.77398E-06-1.08683E-06 2.04470E-06-4.08107E-13-8.32943E-07
 -1         7 7.66032E-08 7.66032E-08 9.64003E-16 2.21555E-15-4.87172E-16 1.12761E-20
 -1         8 5.10688E-08 5.10688E-08 2.55901E-15 2.95412E-15-3.24781E-16-3.24781E-16
 -1         9 4.27574E-08 1.95245E-06 1.62932E-08 1.09715E-08 1.17014E-14-1.16380E-08
 -1        10-2.30803E-08 1.76558E-06-1.62932E-08 1.09716E-08 1.10897E-14-1.16380E-08
 -1        11 6.48531E-07 1.81099E-06 3.66968E-07-7.12960E-07-3.56933E-09-2.78983E-07
 -1        12-1.38891E-06-3.98693E-06-6.18471E-07-1.14851E-06-5.35399E-09-4.16472E-07
 -1        13 2.92868E-06 6.41360E-08 2.44397E-08 1.07234E-07-1.74570E-08-7.77573E-20
 -1        14 1.95245E-06 4.27574E-08 1.62932E-08 1.09715E-08-1.16380E-08 1.16979E-14
 -1        15 4.23481E-07 4.23481E-07-3.85195E-07-2.03605E-07 1.37570E-07 1.37570E-07
 -1        16 1.20173E-06 2.63245E-06 1.72683E-14 5.11757E-07 1.37570E-07 1.37570E-07
 -1        17 5.48328E-07 4.77787E-07 6.69342E-08 5.93477E-07 9.80549E-08-1.45602E-07
 -1        18-4.12312E-07-2.79436E-06-5.11563E-07 1.65144E-06 1.47082E-07-2.18403E-07
 -1        19 2.64837E-06-3.46205E-08-2.44397E-08 1.07234E-07-1.74570E-08-8.93565E-20
 -1        20 1.76558E-06-2.30803E-08-1.62932E-08 1.09716E-08-1.16380E-08 1.10775E-14
 -1        21 2.63245E-06 1.20173E-06 5.49374E-15 5.11757E-07 1.37569E-07 1.37570E-07
 -1        22 3.41071E-06 3.41071E-06 3.85195E-07 1.22712E-06 1.37570E-07 1.37570E-07
 -1        23 2.11873E-06 1.03323E-06 3.41057E-07-1.65267E-07 9.80550E-08-1.45602E-07
 -1        24 1.94330E-06-1.96119E-06-1.00379E-07 5.13321E-07 1.47082E-07-2.18403E-07
 -1        25 2.81643E-06 1.23087E-06 6.25509E-07 1.10142E-06-4.18474E-07-2.04054E-13
 -1        26 1.81099E-06 6.48531E-07 3.66968E-07-7.12960E-07-2.78983E-07-3.56933E-09
 -1        27 4.77787E-07 5.48328E-07 6.69342E-08 5.93477E-07-1.45602E-07 9.80549E-08
 -1        28 1.03323E-06 2.11873E-06 3.41057E-07-1.65267E-07-1.45602E-07 9.80549E-08
 -1        29 2.00351E-14 2.67888E-14 3.99949E-14 3.37682E-15 1.00630E-14 1.00632E-14
 -1        30 1.70781E-13 3.75657E-13 1.93614E-13 1.02438E-13 6.39164E-14 6.39169E-14
 -1        31-7.77398E-06-2.26166E-06-1.08683E-06 2.04470E-06-8.32943E-07-4.08107E-13
 -1        32-3.98693E-06-1.38891E-06-6.18471E-07-1.14851E-06-4.16472E-07-5.35399E-09
 -1        33-2.79436E-06-4.12312E-07-5.11563E-07 1.65144E-06-2.18403E-07 1.47082E-07
 -1        34-1.96119E-06 1.94330E-06-1.00379E-07 5.13321E-07-2.18403E-07 1.47082E-07
 -1        35 8.19043E-14 1.46209E-13 1.26806E-13 3.21521E-14-1.28633E-14-1.28633E-14
 -1        36-8.89578E-14-8.35697E-14-2.12956E-13 2.69401E-15-1.22282E-13-1.22281E-13
 -1        37 1.53206E-07 1.53206E-07-7.91337E-15-1.49893E-19-3.59120E-16-3.59120E-16
 -1        38 7.66032E-08 7.66032E-08-1.08217E-15 2.21555E-15-1.79560E-16-6.66743E-16
 -1        39 6.41360E-08 2.92868E-06 2.44397E-08 1.07234E-07-1.37326E-14 1.74570E-08
 -1        40-3.46206E-08 2.64837E-06-2.44397E-08 1.07234E-07-1.60687E-14 1.74570E-08
 -1        41 1.22944E-06 2.79440E-06 6.18471E-07 1.10142E-06 1.74180E-08 4.16472E-07
 -1        42-2.26452E-06-7.81804E-06-1.10091E-06 2.04470E-06 3.48361E-08 8.36948E-07
 -1        43 7.66032E-08 7.66032E-08-1.08217E-15 2.21555E-15-6.66743E-16-1.79560E-16
 -1        44 5.10688E-08 5.10688E-08 1.19490E-15 2.95412E-15-4.44496E-16-4.44496E-16
 -1        45 4.27574E-08 1.95245E-06 1.62932E-08 1.09715E-08 2.54631E-15 1.16380E-08
 -1        46-2.30803E-08 1.76558E-06-1.62932E-08 1.09716E-08 3.77183E-16 1.16380E-08
 -1        47 6.47578E-07 1.79631E-06 3.62277E-07-7.12960E-07 8.04283E-09 2.77648E-07
 -1        48-1.39034E-06-4.00896E-06-6.25509E-07-1.14851E-06 1.20642E-08 4.18474E-07
 -1        49 2.92868E-06 6.41360E-08 2.44397E-08 1.07234E-07 1.74570E-08-1.37250E-14
 -1        50 1.95245E-06 4.27574E-08 1.62932E-08 1.09715E-08 1.16380E-08 2.54791E-15
 -1        51 4.23481E-07 4.23481E-07-3.85195E-07-2.03605E-07-1.37570E-07-1.37570E-07
 -1        52 1.20173E-06 2.63245E-06-1.69030E-14 5.11757E-07-1.37570E-07-1.37570E-07
 -1        53 5.48328E-07 4.77787E-07 6.69342E-08 5.93477E-07-9.80550E-08 1.45602E-07
 -1        54-4.12312E-07-2.79436E-06-5.11563E-07 1.65144E-06-1.47082E-07 2.18403E-07
 -1        55 2.64837E-06-3.46206E-08-2.44397E-08 1.07234E-07 1.74570E-08-1.60428E-14
 -1        56 1.76558E-06-2.30803E-08-1.62932E-08 1.09716E-08 1.16380E-08 3.82224E-16
 -1        57 2.63245E-06 1.20173E-06-4.86977E-15 5.11757E-07-1.37570E-07-1.37570E-07
 -1        58 3.41071E-06 3.41071E-06 3.85195E-07 1.22712E-06-1.37570E-07-1.37570E-07
 -1        59 2.11873E-06 1.03323E-06 3.41057E-07-1.65267E-07-9.80549E-08 1.45602E-07
 -1        60 1.94330E-06-1.96119E-06-1.00379E-07 5.13321E-07-1.47082E-07 2.18403E-07
 -1        61 2.79440E-06 1.22944E-06 6.18471E-07 1.10142E-06 4.16472E-07 1.74180E-08
 -1        62 1.79631E-06 6.47578E-07 3.62277E-07-7.12960E-07 2.77648E-07 8.04283E-09
 -1        63 4.77787E-07 5.48328E-07 6.69342E-08 5.93477E-07 1.45602E-07-9.80549E-08
 -1        64 1.03323E-06 2.11873E-06 3.41057E-07-1.65267E-07 1.45602E-07-9.80549E-08
 -1        65-9.36487E-14-2.38473E-13-7.36888E-14-7.24124E-14-1.35556E-14-2.38543E-14
 -1        66-5.40899E-14-1.49042E-13-3.12574E-14-4.74762E-14-1.25331E-13-7.09234E-14
 -1        67-7.81804E-06-2.26452E-06-1.10091E-06 2.04470E-06 8.36948E-07 3.48361E-08
 -1        68-4.00896E-06-1.39034E-06-6.25509E-07-1.14851E-06 4.18474E-07 1.20642E-08
 -1        69-2.79436E-06-4.12312E-07-5.11563E-07 1.65144E-06 2.18403E-07-1.47082E-07
 -1        70-1.96119E-06 1.94330E-06-1.00379E-07 5.13321E-07 2.18403E-07-1.47082E-07
 -1        71-1.82373E-13-4.70439E-13-1.37471E-13-1.44033E-13 5.16397E-14-3.36641E-14
 -1        72 1.61082E-13 4.99856E-13 3.70834E-14 1.69387E-13 2.45107E-13 2.14211E-13
 -3
    1PSTEP                       102          34           1          
  100CL  134 2.64781E-01          72                     0   34           1
 -4  TOSTRAIN    6    1
 -5  EXX         1    4    1    1
 -5  EYY         1    4    2    2
 -5  EZZ         1    4    3    3
 -5  EXY         1    4    1    2
 -5  EYZ         1    4    2    3
 -5  EZX         1    4    3    1
 -1         1 5.10688E-13 5.10688E-13-4.37733E-13-9.27874E-25 1.39629E-25 1.39627E-25
 -1         2 2.55344E-13 2.55344E-13-2.18866E-13 1.37153E-20 6.98078E-26-3.01583E-21
 -1         3-3.91333E-12 1.38196E-11-4.15907E-12 6.63827E-13-4.80311E-25-1.08067E-13
 -1         4-3.91333E-12 1.26957E-11-3.85031E-12 6.63827E-13-5.52914E-25-1.08067E-13
 -1         5 9.44238E-13 1.07596E-11-2.80325E-12 6.81831E-12-1.26319E-18-2.59055E-12
 -1         6 1.88848E-12-3.22354E-11 9.16125E-12 1.26577E-11-2.52638E-18-5.15631E-12
 -1         7 2.55344E-13 2.55344E-13-2.18866E-13 1.37153E-20-3.01583E-21 6.98042E-26
 -1         8 1.70229E-13 1.70229E-13-1.45911E-13 1.82874E-20-2.01055E-21-2.01055E-21
 -1         9-2.60889E-12 9.21304E-12-2.77271E-12 6.79191E-14 7.24373E-20-7.20447E-14
 -1        10-2.60889E-12 8.46377E-12-2.56687E-12 6.79192E-14 6.86505E-20-7.20448E-14
 -1        11-2.31319E-14 7.17307E-12-1.76614E-12-4.41356E-12-2.20958E-14-1.72704E-12
 -1        12-3.46979E-14-1.61177E-11 4.73466E-12-7.10981E-12-3.31438E-14-2.57816E-12
 -1        13 1.38196E-11-3.91333E-12-4.15907E-12 6.63827E-13-1.08067E-13-4.81351E-25
 -1        14 9.21304E-12-2.60889E-12-2.77271E-12 6.79191E-14-7.20447E-14 7.24157E-20
 -1        15 1.96188E-12 1.96188E-12-3.04421E-12-1.26041E-12 8.51621E-13 8.51621E-13
 -1        16 1.96188E-12 1.08187E-11-5.47741E-12 3.16802E-12 8.51621E-13 8.51621E-13
 -1        17 1.82514E-12 1.40400E-12-1.14714E-12 3.67436E-12 6.06053E-13-9.01987E-13
 -1        18 2.73771E-12-1.19650E-11 2.14494E-12 1.02388E-11 9.09080E-13-1.35298E-12
 -1        19 1.26957E-11-3.91333E-12-3.85031E-12 6.63827E-13-1.08067E-13-5.53155E-25
 -1        20 8.46377E-12-2.60889E-12-2.56687E-12 6.79192E-14-7.20448E-14 6.85746E-20
 -1        21 1.08187E-11 1.96188E-12-5.47741E-12 3.16802E-12 8.51621E-13 8.51621E-13
 -1        22 1.08187E-11 1.08187E-11-7.91061E-12 7.59645E-12 8.51621E-13 8.51621E-13
 -1        23 8.12809E-12 1.40400E-12-2.87873E-12-1.01597E-12 6.06053E-13-9.01987E-13
 -1        24 1.21921E-11-1.19650E-11-4.52427E-13 3.20325E-12 9.09080E-13-1.35298E-12
 -1        25 1.07596E-11 9.44238E-13-2.80325E-12 6.81831E-12-2.59055E-12-1.26319E-18
 -1        26 7.17307E-12-2.31319E-14-1.76614E-12-4.41356E-12-1.72704E-12-2.20958E-14
 -1        27 1.40400E-12 1.82514E-12-1.14714E-12 3.67436E-12-9.01987E-13 6.06053E-13
 -1        28 1.40400E-12 8.12809E-12-2.87873E-12-1.01597E-12-9.01987E-13 6.06053E-13
 -1        29 1.34275E-38 4.18083E-20 1.23561E-19 2.09041E-20 6.22947E-20 6.22958E-20
 -1        30 2.01413E-38 1.26828E-18 1.41344E-19 6.34140E-19 3.95673E-19 3.95676E-19
 -1        31-3.22354E-11 1.88848E-12 9.16125E-12 1.26577E-11-5.15631E-12-2.52638E-18
 -1        32-1.61177E-11-3.46979E-14 4.73466E-12-7.10981E-12-2.57816E-12-3.31438E-14
 -1        33-1.19650E-11 2.73771E-12 2.14494E-12 1.02388E-11-1.35298E-12 9.09080E-13
 -1        34-1.19650E-11 1.21921E-11-4.52427E-13 3.20325E-12-1.35298E-12 9.09080E-13
 -1        35-1.22284E-37 3.98074E-19 2.77962E-19 1.99037E-19-7.96302E-20-7.96302E-20
 -1        36-2.44568E-37 3.33544E-20-7.67609E-19 1.66772E-20-7.56982E-19-7.56979E-19
 -1        37 5.10688E-13 5.10688E-13-4.37733E-13-9.27909E-25-2.22312E-21-2.22312E-21
 -1        38 2.55344E-13 2.55344E-13-2.18866E-13 1.37153E-20-1.11156E-21-4.12746E-21
 -1        39-3.91333E-12 1.38196E-11-4.15907E-12 6.63827E-13-8.50120E-20 1.08067E-13
 -1        40-3.91333E-12 1.26957E-11-3.85031E-12 6.63827E-13-9.94737E-20 1.08067E-13
 -1        41 9.78949E-13 1.06668E-11-2.80325E-12 6.81831E-12 1.07826E-13 2.57816E-12
 -1        42 1.95790E-12-3.24210E-11 9.16125E-12 1.26577E-11 2.15652E-13 5.18111E-12
 -1        43 2.55344E-13 2.55344E-13-2.18866E-13 1.37153E-20-4.12746E-21-1.11156E-21
 -1        44 1.70229E-13 1.70229E-13-1.45911E-13 1.82874E-20-2.75164E-21-2.75164E-21
 -1        45-2.60889E-12 9.21304E-12-2.77271E-12 6.79191E-14 1.57630E-20 7.20447E-14
 -1        46-2.60889E-12 8.46377E-12-2.56687E-12 6.79192E-14 2.33505E-21 7.20446E-14
 -1        47 8.67842E-18 7.11121E-12-1.76614E-12-4.41356E-12 4.97890E-14 1.71877E-12
 -1        48 1.30176E-17-1.62105E-11 4.73466E-12-7.10981E-12 7.46834E-14 2.59055E-12
 -1        49 1.38196E-11-3.91333E-12-4.15907E-12 6.63827E-13 1.08067E-13-8.49647E-20
 -1        50 9.21304E-12-2.60889E-12-2.77271E-12 6.79191E-14 7.20447E-14 1.57729E-20
 -1        51 1.96188E-12 1.96188E-12-3.04421E-12-1.26041E-12-8.51621E-13-8.51621E-13
 -1        52 1.96188E-12 1.08187E-11-5.47741E-12 3.16802E-12-8.51621E-13-8.51621E-13
 -1        53 1.82514E-12 1.40400E-12-1.14714E-12 3.67436E-12-6.06053E-13 9.01988E-13
 -1        54 2.73771E-12-1.19650E-11 2.14494E-12 1.02388E-11-9.09080E-13 1.35298E-12
 -1        55 1.26957E-11-3.91333E-12-3.85031E-12 6.63827E-13 1.08067E-13-9.93131E-20
 -1        56 8.46377E-12-2.60889E-12-2.56687E-12 6.79192E-14 7.20446E-14 2.36625E-21
 -1        57 1.08187E-11 1.96188E-12-5.47741E-12 3.16802E-12-8.51621E-13-8.51621E-13
 -1        58 1.08187E-11 1.08187E-11-7.91061E-12 7.59645E-12-8.51621E-13-8.51621E-13
 -1        59 8.12809E-12 1.40400E-12-2.87873E-12-1.01597E-12-6.06053E-13 9.01988E-13
 -1        60 1.21921E-11-1.19650E-11-4.52427E-13 3.20325E-12-9.09080E-13 1.35298E-12
 -1        61 1.06668E-11 9.78949E-13-2.80325E-12 6.81831E-12 2.57816E-12 1.07826E-13
 -1        62 7.11121E-12 8.67808E-18-1.76614E-12-4.41356E-12 1.71877E-12 4.97890E-14
 -1        63 1.40400E-12 1.82514E-12-1.14714E-12 3.67436E-12 9.01988E-13-6.06053E-13
 -1        64 1.40400E-12 8.12809E-12-2.87873E-12-1.01597E-12 9.01988E-13-6.06053E-13
 -1        65-6.71555E-38-8.96534E-19 1.23561E-19-4.48267E-19-8.39154E-20-1.47670E-19
 -1        66-1.00733E-37-5.87800E-19 1.41344E-19-2.93900E-19-7.75858E-19-4.39049E-19
 -1        67-3.24210E-11 1.95790E-12 9.16125E-12 1.26577E-11 5.18111E-12 2.15652E-13
 -1        68-1.62105E-11 1.30171E-17 4.73466E-12-7.10981E-12 2.59055E-12 7.46834E-14
 -1        69-1.19650E-11 2.73771E-12 2.14494E-12 1.02388E-11 1.35298E-12-9.09080E-13
 -1        70-1.19650E-11 1.21921E-11-4.52427E-13 3.20325E-12 1.35298E-12-9.09080E-13
 -1        71 6.11406E-37-1.78326E-18 2.77962E-19-8.91632E-19 3.19674E-19-2.08397E-19
 -1        72 1.22281E-36 2.09717E-18-7.67609E-19 1.04859E-18 1.51733E-18 1.32607E-18
 -3
    1PSTEP                       103          35           1          
  100CL  135 2.73781E-01          72                     0   35           1
 -4  DISP        4    1
 -5  D1          1    2    1    0
 -5  D2          1    2    2    0
 -5  D3          1    2    3    0
 -5  ALL         1    2    0    0    1ALL
 -1         1 0.00000E+00 0.00000E+00 0.00000E+00
 -1         2 2.25702E-10 0.00000E+00 0.00000E+00
 -1         3 1.18494E-02 0.00000E+00 0.00000E+00
 -1         4 1.18494E-02 0.00000E+00 0.00000E+00
 -1         5 6.31491E-03 0.00000E+00 0.00000E+00
 -1         6 6.31491E-03 0.00000E+00 0.00000E+00
 -1         7 0.00000E+00 2.25702E-10 0.00000E+00
 -1         8 2.25702E-10 2.25702E-10 0.00000E+00
 -1         9 1.18494E-02 1.22834E-08 0.00000E+00
 -1        10 1.18494E-02 1.13808E-08 0.00000E+00
 -1        11 6.31493E-03 9.99961E-09 0.00000E+00
 -1        12 6.31493E-03-1.40516E-08 0.00000E+00
 -1        13 0.00000E+00 1.18494E-02 0.00000E+00
 -1        14 1.22834E-08 1.18494E-02 0.00000E+00
 -1        15 4.27831E-01 4.27831E-01 0.00000E+00
 -1        16 4.27831E-01 4.27831E-01 0.00000E+00
 -1        17 6.54587E-01 1.35041E-01 0.00000E+00
 -1        18 6.54365E-01-3.35742E-01 0.00000E+00
 -1        19 0.00000E+00 1.18494E-02 0.00000E+00
 -1        20 1.13808E-08 1.18494E-02 0.00000E+00
 -1        21 4.27831E-01 4.27831E-01 0.00000E+00
 -1        22 4.27831E-01 4.27831E-01 0.00000E+00
 -1        23 1.12537E+00 1.34820E-01 0.00000E+00
 -1        24 1.12515E+00-3.35963E-01 0.00000E+00
 -1        25 0.00000E+00 6.31491E-03 0.00000E+00
 -1        26 9.99961E-09 6.31493E-03 0.00000E+00
 -1        27 1.35041E-01 6.54587E-01 0.00000E+00
 -1        28 1.34820E-01 1.12537E+00 0.00000E+00
 -1        29-8.21344E+00-8.21344E+00 0.00000E+00
 -1        30-8.21344E+00-8.21344E+00 0.00000E+00
 -1        31 0.00000E+00 6.31491E-03 0.00000E+00
 -1        32-1.40516E-08 6.31493E-03 0.00000E+00
 -1        33-3.35742E-01 6.54365E-01 0.00000E+00
 -1        34-3.35963E-01 1.12515E+00 0.00000E+00
 -1        35-8.21344E+00-8.21344E+00 0.00000E+00
 -1        36-8.21344E+00-8.21344E+00 0.00000E+00
 -1        37 0.00000E+00 0.00000E+00-2.70843E-10
 -1        38 2.25702E-10 0.00000E+00-2.70843E-10
 -1        39 1.18494E-02 0.00000E+00-5.18997E-09
 -1        40 1.18494E-02 0.00000E+00-4.84283E-09
 -1        41 6.31491E-03 0.00000E+00-3.68775E-09
 -1        42 6.31491E-03 0.00000E+00 5.56272E-09
 -1        43 0.00000E+00 2.25702E-10-2.70843E-10
 -1        44 2.25702E-10 2.25702E-10-2.70843E-10
 -1        45 1.18494E-02 1.22834E-08-5.18997E-09
 -1        46 1.18494E-02 1.13808E-08-4.84283E-09
 -1        47 6.31492E-03 9.92658E-09-3.51804E-09
 -1        48 6.31492E-03-1.41247E-08 5.73243E-09
 -1        49 0.00000E+00 1.18494E-02-5.18997E-09
 -1        50 1.22834E-08 1.18494E-02-5.18997E-09
 -1        51 4.27831E-01 4.27831E-01-5.66350E-09
 -1        52 4.27831E-01 4.27831E-01-1.02348E-08
 -1        53 6.54587E-01 1.35041E-01-2.24050E-09
 -1        54 6.54365E-01-3.35742E-01 2.60142E-09
 -1        55 0.00000E+00 1.18494E-02-4.84283E-09
 -1        56 1.13808E-08 1.18494E-02-4.84283E-09
 -1        57 4.27831E-01 4.27831E-01-1.02348E-08
 -1        58 4.27831E-01 4.27831E-01-1.48062E-08
 -1        59 1.12537E+00 1.34820E-01-5.67820E-09
 -1        60 1.12515E+00-3.35963E-01-8.36283E-10
 -1        61 0.00000E+00 6.31491E-03-3.68775E-09
 -1        62 9.92658E-09 6.31492E-03-3.51804E-09
 -1        63 1.35041E-01 6.54587E-01-2.24050E-09
 -1        64 1.34820E-01 1.12537E+00-5.67820E-09
 -1        65-8.21344E+00-8.21344E+00 1.37202E-16
 -1        66-8.21344E+00-8.21344E+00-7.82568E-17
 -1        67 0.00000E+00 6.31491E-03 5.56272E-09
 -1        68-1.41247E-08 6.31492E-03 5.73243E-09
 -1        69-3.35742E-01 6.54365E-01 2.60142E-09
 -1        70-3.35963E-01 1.12515E+00-8.36283E-10
 -1        71-8.21344E+00-8.21344E+00 2.60706E-17
 -1        72-8.21344E+00-8.21344E+00 3.32717E-16
 -3
    1PSTEP                       104          35           1          
  100CL  135 2.73781E-01          72                     0   35           1
 -4  STRESS      6    1
 -5  SXX         1    4    1    1
 -5  SYY         1    4    2    2
 -5  SZZ         1    4    3    3
 -5  SXY         1    4    1    2
 -5  SYZ         1    4    2    3
 -5  SZX         1    4    3    1
 -1         1 1.35416E-07 1.35416E-07-3.06697E-15-1.20329E-19 1.81002E-20 1.80983E-20
 -1         2 6.77079E-08 6.77079E-08 7.75318E-16 1.77865E-15 9.04931E-21-3.91368E-16
 -1         3 5.76959E-08 2.60261E-06 1.96267E-08 8.61157E-08-5.90976E-20-1.40191E-08
 -1         4-2.16122E-08 2.37751E-06-1.96267E-08 8.61157E-08-6.84477E-20-1.40191E-08
 -1         5 1.09876E-06 2.59614E-06 5.55306E-07 9.86593E-07-1.60579E-13-3.74362E-07
 -1         6-2.02921E-06-6.80480E-06-9.81406E-07 1.84874E-06-3.21157E-13-7.45573E-07
 -1         7 6.77079E-08 6.77079E-08 7.75318E-16 1.77865E-15-3.91368E-16 9.05081E-21
 -1         8 4.51386E-08 4.51386E-08 2.05608E-15 2.37158E-15-2.60912E-16-2.60912E-16
 -1         9 3.84640E-08 1.73507E-06 1.30845E-08 8.81088E-09 1.04186E-14-9.34608E-09
 -1        10-1.44081E-08 1.58500E-06-1.30845E-08 8.81090E-09 9.89042E-15-9.34610E-09
 -1        11 5.97114E-07 1.67833E-06 3.30827E-07-6.37330E-07-2.80885E-09-2.49575E-07
 -1        12-1.21769E-06-3.48105E-06-5.49768E-07-1.01822E-06-4.21328E-09-3.72787E-07
 -1        13 2.60261E-06 5.76959E-08 1.96267E-08 8.61157E-08-1.40191E-08-5.90484E-20
 -1        14 1.73507E-06 3.84640E-08 1.30845E-08 8.81088E-09-9.34608E-09 1.03952E-14
 -1        15 3.69510E-07 3.69510E-07-3.44606E-07-1.83443E-07 1.23074E-07 1.23074E-07
 -1        16 1.06576E-06 2.34572E-06 1.16995E-14 4.56540E-07 1.23074E-07 1.23074E-07
 -1        17 4.52358E-07 4.70889E-07 5.29303E-08 5.17226E-07 9.26756E-08-1.30271E-07
 -1        18-4.26292E-07-2.43480E-06-4.68111E-07 1.49584E-06 1.39013E-07-1.95407E-07
 -1        19 2.37751E-06-2.16122E-08-1.96267E-08 8.61157E-08-1.40191E-08-6.83293E-20
 -1        20 1.58500E-06-1.44081E-08-1.30845E-08 8.81090E-09-9.34610E-09 9.90379E-15
 -1        21 2.34572E-06 1.06576E-06-5.86437E-15 4.56540E-07 1.23074E-07 1.23074E-07
 -1        22 3.04197E-06 3.04197E-06 3.44606E-07 1.09652E-06 1.23074E-07 1.23074E-07
 -1        23 1.93722E-06 9.95752E-07 3.12078E-07-1.61544E-07 9.26756E-08-1.30271E-07
 -1        24 1.80099E-06-1.64751E-06-7.93887E-08 4.77681E-07 1.39013E-07-1.95407E-07
 -1        25 2.59614E-06 1.09876E-06 5.55306E-07 9.86593E-07-3.74362E-07-1.60579E-13
 -1        26 1.67833E-06 5.97114E-07 3.30827E-07-6.37330E-07-2.49575E-07-2.80885E-09
 -1        27 4.70889E-07 4.52358E-07 5.29303E-08 5.17226E-07-1.30271E-07 9.26756E-08
 -1        28 9.95752E-07 1.93722E-06 3.12078E-07-1.61544E-07-1.30271E-07 9.26756E-08
 -1        29 3.01223E-14 5.97318E-14 4.06759E-14 1.48047E-14-2.26977E-15-2.26968E-15
 -1        30 5.09230E-14 1.27850E-13 4.18932E-14 3.84636E-14-6.20408E-14-6.20408E-14
 -1        31-6.80480E-06-2.02921E-06-9.81406E-07 1.84874E-06-7.45573E-07-3.21157E-13
 -1        32-3.48105E-06-1.21769E-06-5.49768E-07-1.01822E-06-3.72787E-07-4.21328E-09
 -1        33-2.43480E-06-4.26292E-07-4.68111E-07 1.49584E-06-1.95407E-07 1.39013E-07
 -1        34-1.64751E-06 1.80099E-06-7.93887E-08 4.77681E-07-1.95407E-07 1.39013E-07
 -1        35 3.11036E-14 6.95672E-14 3.41114E-14 1.92318E-14-1.40455E-13-1.40455E-13
 -1        36 2.06287E-13 4.04557E-13 2.83067E-13 9.91350E-14 2.47769E-13 2.47770E-13
 -1        37 1.35416E-07 1.35416E-07-6.35454E-15-1.20333E-19-2.87392E-16-2.87392E-16
 -1        38 6.77079E-08 6.77079E-08-8.68465E-16 1.77865E-15-1.43696E-16-5.35073E-16
 -1        39 5.76959E-08 2.60261E-06 1.96267E-08 8.61157E-08-1.23257E-14 1.40191E-08
 -1        40-2.16122E-08 2.37751E-06-1.96267E-08 8.61157E-08-1.41399E-14 1.40191E-08
 -1        41 1.09764E-06 2.57880E-06 5.49768E-07 9.86593E-07 1.37070E-08 3.72787E-07
 -1        42-2.03146E-06-6.83947E-06-9.92482E-07 1.84874E-06 2.74140E-08 7.48725E-07
 -1        43 6.77079E-08 6.77079E-08-8.68465E-16 1.77865E-15-5.35073E-16-1.43696E-16
 -1        44 4.51386E-08 4.51386E-08 9.60227E-16 2.37158E-15-3.56715E-16-3.56715E-16
 -1        45 3.84640E-08 1.73507E-06 1.30845E-08 8.81088E-09 2.20139E-15 9.34608E-09
 -1        46-1.44081E-08 1.58500E-06-1.30845E-08 8.81090E-09 4.63785E-16 9.34607E-09
 -1        47 5.96363E-07 1.66677E-06 3.27135E-07-6.37330E-07 6.32924E-09 2.48524E-07
 -1        48-1.21882E-06-3.49838E-06-5.55306E-07-1.01822E-06 9.49386E-09 3.74362E-07
 -1        49 2.60261E-06 5.76959E-08 1.96267E-08 8.61157E-08 1.40191E-08-1.22660E-14
 -1        50 1.73507E-06 3.84640E-08 1.30845E-08 8.81088E-09 9.34608E-09 2.21779E-15
 -1        51 3.69510E-07 3.69510E-07-3.44606E-07-1.83443E-07-1.23074E-07-1.23074E-07
 -1        52 1.06576E-06 2.34572E-06-2.11355E-14 4.56540E-07-1.23074E-07-1.23074E-07
 -1        53 4.52358E-07 4.70889E-07 5.29303E-08 5.17226E-07-9.26756E-08 1.30271E-07
 -1        54-4.26292E-07-2.43480E-06-4.68111E-07 1.49584E-06-1.39013E-07 1.95407E-07
 -1        55 2.37751E-06-2.16122E-08-1.96267E-08 8.61157E-08 1.40191E-08-1.41847E-14
 -1        56 1.58500E-06-1.44081E-08-1.30845E-08 8.81090E-09 9.34607E-09 4.47318E-16
 -1        57 2.34572E-06 1.06576E-06 1.46630E-14 4.56540E-07-1.23074E-07-1.23074E-07
 -1        58 3.04197E-06 3.04197E-06 3.44606E-07 1.09652E-06-1.23074E-07-1.23074E-07
 -1        59 1.93722E-06 9.95752E-07 3.12078E-07-1.61544E-07-9.26756E-08 1.30271E-07
 -1        60 1.80099E-06-1.64751E-06-7.93887E-08 4.77681E-07-1.39013E-07 1.95407E-07
 -1        61 2.57880E-06 1.09764E-06 5.49768E-07 9.86593E-07 3.72787E-07 1.37070E-08
 -1        62 1.66677E-06 5.96363E-07 3.27135E-07-6.37330E-07 2.48524E-07 6.32924E-09
 -1        63 4.70889E-07 4.52358E-07 5.29303E-08 5.17226E-07 1.30271E-07-9.26756E-08
 -1        64 9.95752E-07 1.93722E-06 3.12078E-07-1.61544E-07 1.30271E-07-9.26756E-08
 -1        65-9.41930E-14-2.30337E-13-8.36394E-14-6.80721E-14 3.11044E-14 2.54869E-14
 -1        66-1.14431E-13-2.57976E-13-1.23461E-13-7.17725E-14 1.43001E-13 9.24047E-14
 -1        67-6.83947E-06-2.03146E-06-9.92482E-07 1.84874E-06 7.48725E-07 2.74140E-08
 -1        68-3.49838E-06-1.21882E-06-5.55306E-07-1.01822E-06 3.74362E-07 9.49386E-09
 -1        69-2.43480E-06-4.26292E-07-4.68111E-07 1.49584E-06 1.95407E-07-1.39013E-07
 -1        70-1.64751E-06 1.80100E-06-7.93886E-08 4.77681E-07 1.95407E-07-1.39013E-07
 -1        71-2.13063E-13-5.00154E-13-2.10055E-13-1.43546E-13-1.08937E-13-7.51937E-14
 -1        72 3.06214E-13 6.37719E-13 3.82993E-13 1.65753E-13-1.98266E-13-2.15119E-13
 -3
    1PSTEP                       105          35           1          
  100CL  135 2.73781E-01          72                     0   35           1
 -4  TOSTRAIN    6    1
 -5  EXX         1    4    1    1
 -5  EYY         1    4    2    2
 -5  EZZ         1    4    3    3
 -5  EXY         1    4    1    2
 -5  EYZ         1    4    2    3
 -5  EZX         1    4    3    1
 -1         1 4.51386E-13 4.51386E-13-3.86902E-13-7.44894E-25 1.12049E-25 1.12037E-25
 -1         2 2.25693E-13 2.25693E-13-1.93451E-13 1.10107E-20 5.60196E-26-2.42275E-21
 -1         3-3.47131E-12 1.22829E-11-3.70698E-12 5.33097E-13-3.65840E-25-8.67851E-14
 -1         4-3.47131E-12 1.13804E-11-3.45902E-12 5.33097E-13-4.23722E-25-8.67852E-14
 -1         5 7.30130E-13 9.99961E-12-2.63411E-12 6.10748E-12-9.94061E-19-2.31748E-12
 -1         6 1.46026E-12-2.81029E-11 7.94665E-12 1.14446E-11-1.98811E-18-4.61545E-12
 -1         7 2.25693E-13 2.25693E-13-1.93451E-13 1.10107E-20-2.42275E-21 5.60288E-26
 -1         8 1.50462E-13 1.50462E-13-1.28967E-13 1.46812E-20-1.61517E-21-1.61517E-21
 -1         9-2.31421E-12 8.18862E-12-2.47132E-12 5.45435E-14 6.44959E-20-5.78567E-14
 -1        10-2.31421E-12 7.58691E-12-2.30601E-12 5.45437E-14 6.12263E-20-5.78568E-14
 -1        11-2.68232E-14 6.66641E-12-1.67526E-12-3.94538E-12-1.73881E-14-1.54499E-12
 -1        12-4.02349E-14-1.40515E-11 4.09454E-12-6.30325E-12-2.60822E-14-2.30773E-12
 -1        13 1.22829E-11-3.47131E-12-3.70698E-12 5.33097E-13-8.67851E-14-3.65535E-25
 -1        14 8.18862E-12-2.31421E-12-2.47132E-12 5.45435E-14-5.78567E-14 6.43510E-20
 -1        15 1.72399E-12 1.72399E-12-2.69672E-12-1.13560E-12 7.61884E-13 7.61884E-13
 -1        16 1.72399E-12 9.64759E-12-4.87354E-12 2.82620E-12 7.61884E-13 7.61884E-13
 -1        17 1.39974E-12 1.52652E-12-1.06687E-12 3.20176E-12 5.72946E-13-8.06982E-13
 -1        18 2.09961E-12-1.02991E-11 1.85818E-12 9.27163E-12 8.59420E-13-1.21047E-12
 -1        19 1.13804E-11-3.47131E-12-3.45902E-12 5.33097E-13-8.67852E-14-4.22988E-25
 -1        20 7.58691E-12-2.31421E-12-2.30601E-12 5.45437E-14-5.78568E-14 6.13090E-20
 -1        21 9.64759E-12 1.72399E-12-4.87354E-12 2.82620E-12 7.61884E-13 7.61884E-13
 -1        22 9.64759E-12 9.64759E-12-7.05035E-12 6.78800E-12 7.61884E-13 7.61884E-13
 -1        23 7.35839E-12 1.52652E-12-2.70387E-12-9.94542E-13 5.72947E-13-8.06982E-13
 -1        24 1.10376E-11-1.02991E-11-5.97304E-13 2.97717E-12 8.59420E-13-1.21047E-12
 -1        25 9.99961E-12 7.30130E-13-2.63411E-12 6.10748E-12-2.31748E-12-9.94061E-19
 -1        26 6.66641E-12-2.68232E-14-1.67526E-12-3.94538E-12-1.54499E-12-1.73881E-14
 -1        27 1.52652E-12 1.39974E-12-1.06687E-12 3.20176E-12-8.06982E-13 5.72946E-13
 -1        28 1.52652E-12 7.35839E-12-2.70387E-12-9.94542E-13-8.06982E-13 5.72947E-13
 -1        29-1.10258E-40 1.83297E-19 6.53318E-20 9.16483E-20-1.40510E-20-1.40504E-20
 -1        30-1.65388E-40 4.76216E-19-5.58992E-20 2.38108E-19-3.84062E-19-3.84062E-19
 -1        31-2.81029E-11 1.46026E-12 7.94665E-12 1.14446E-11-4.61545E-12-1.98811E-18
 -1        32-1.40515E-11-4.02349E-14 4.09454E-12-6.30325E-12-2.30773E-12-2.60822E-14
 -1        33-1.02991E-11 2.09961E-12 1.85818E-12 9.27163E-12-1.21047E-12 8.59420E-13
 -1        34-1.02991E-11 1.10376E-11-5.97304E-13 2.97717E-12-1.21047E-12 8.59420E-13
 -1        35-8.10011E-39 2.38108E-19 1.86199E-20 1.19054E-19-8.69486E-19-8.69484E-19
 -1        36-1.62002E-38 1.22739E-18 4.75301E-19 6.13693E-19 1.53381E-18 1.53381E-18
 -1        37 4.51386E-13 4.51386E-13-3.86902E-13-7.44921E-25-1.77909E-21-1.77909E-21
 -1        38 2.25693E-13 2.25693E-13-1.93451E-13 1.10107E-20-8.89546E-22-3.31236E-21
 -1        39-3.47131E-12 1.22829E-11-3.70698E-12 5.33097E-13-7.63026E-20 8.67850E-14
 -1        40-3.47131E-12 1.13804E-11-3.45902E-12 5.33097E-13-8.75332E-20 8.67849E-14
 -1        41 7.57446E-13 9.92659E-12-2.63411E-12 6.10748E-12 8.48527E-14 2.30773E-12
 -1        42 1.51489E-12-2.82490E-11 7.94665E-12 1.14446E-11 1.69705E-13 4.63496E-12
 -1        43 2.25693E-13 2.25693E-13-1.93451E-13 1.10107E-20-3.31236E-21-8.89546E-22
 -1        44 1.50462E-13 1.50462E-13-1.28967E-13 1.46812E-20-2.20824E-21-2.20824E-21
 -1        45-2.31421E-12 8.18862E-12-2.47132E-12 5.45436E-14 1.36277E-20 5.78567E-14
 -1        46-2.31421E-12 7.58691E-12-2.30601E-12 5.45437E-14 2.87112E-21 5.78566E-14
 -1        47-8.61297E-15 6.61773E-12-1.67526E-12-3.94538E-12 3.91810E-14 1.53848E-12
 -1        48-1.29195E-14-1.41245E-11 4.09454E-12-6.30325E-12 5.87715E-14 2.31748E-12
 -1        49 1.22829E-11-3.47131E-12-3.70698E-12 5.33097E-13 8.67850E-14-7.59330E-20
 -1        50 8.18862E-12-2.31421E-12-2.47132E-12 5.45436E-14 5.78567E-14 1.37292E-20
 -1        51 1.72399E-12 1.72399E-12-2.69672E-12-1.13560E-12-7.61885E-13-7.61885E-13
 -1        52 1.72399E-12 9.64759E-12-4.87354E-12 2.82620E-12-7.61885E-13-7.61885E-13
 -1        53 1.39974E-12 1.52652E-12-1.06687E-12 3.20176E-12-5.72947E-13 8.06982E-13
 -1        54 2.09961E-12-1.02991E-11 1.85818E-12 9.27163E-12-8.59420E-13 1.21047E-12
 -1        55 1.13804E-11-3.47131E-12-3.45902E-12 5.33097E-13 8.67849E-14-8.78102E-20
 -1        56 7.58691E-12-2.31421E-12-2.30601E-12 5.45437E-14 5.78566E-14 2.76918E-21
 -1        57 9.64759E-12 1.72399E-12-4.87354E-12 2.82620E-12-7.61885E-13-7.61885E-13
 -1        58 9.64759E-12 9.64759E-12-7.05035E-12 6.78800E-12-7.61885E-13-7.61885E-13
 -1        59 7.35839E-12 1.52652E-12-2.70387E-12-9.94542E-13-5.72946E-13 8.06982E-13
 -1        60 1.10376E-11-1.02991E-11-5.97304E-13 2.97717E-12-8.59420E-13 1.21047E-12
 -1        61 9.92659E-12 7.57446E-13-2.63411E-12 6.10748E-12 2.30773E-12 8.48527E-14
 -1        62 6.61773E-12-8.61297E-15-1.67526E-12-3.94538E-12 1.53848E-12 3.91810E-14
 -1        63 1.52652E-12 1.39974E-12-1.06687E-12 3.20176E-12 8.06982E-13-5.72947E-13
 -1        64 1.52652E-12 7.35839E-12-2.70387E-12-9.94542E-13 8.06982E-13-5.72947E-13
 -1        65 5.49951E-40-8.42798E-19 6.53318E-20-4.21399E-19 1.92551E-19 1.57776E-19
 -1        66 8.24926E-40-8.88612E-19-5.58992E-20-4.44306E-19 8.85242E-19 5.72029E-19
 -1        67-2.82490E-11 1.51489E-12 7.94665E-12 1.14446E-11 4.63496E-12 1.69705E-13
 -1        68-1.41245E-11-1.29195E-14 4.09454E-12-6.30325E-12 2.31748E-12 5.87715E-14
 -1        69-1.02991E-11 2.09961E-12 1.85818E-12 9.27163E-12 1.21047E-12-8.59420E-13
 -1        70-1.02991E-11 1.10376E-11-5.97304E-13 2.97717E-12 1.21047E-12-8.59420E-13
 -1        71 4.04992E-38-1.77723E-18 1.86199E-20-8.88616E-19-6.74372E-19-4.65485E-19
 -1        72 8.09985E-38 2.05218E-18 4.75301E-19 1.02609E-18-1.22736E-18-1.33169E-18
 -3
    1PSTEP                       106          36           1          
  100CL  136 2.82781E-01          72                     0   36           1
 -4  DISP        4    1
 -5  D1          1    2    1    0
 -5  D2          1    2    2    0
 -5  D3          1    2    3    0
 -5  ALL         1    2    0    0    1ALL
 -1         1 0.00000E+00 0.00000E+00 0.00000E+00
 -1         2 1.87643E-10 0.00000E+00 0.00000E+00
 -1         3 9.85127E-03 0.00000E+00 0.00000E+00
 -1         4 9.85126E-03 0.00000E+00 0.00000E+00
 -1         5 6.38355E-03 0.00000E+00 0.00000E+00
 -1         6 6.38355E-03 0.00000E+00 0.00000E+00
 -1         7 0.00000E+00 1.87643E-10 0.00000E+00
 -1         8 1.87643E-10 1.87643E-10 0.00000E+00
 -1         9 9.85127E-03 1.06542E-08 0.00000E+00
 -1        10 9.85126E-03 9.96263E-09 0.00000E+00
 -1        11 6.38356E-03 9.00880E-09 0.00000E+00
 -1        12 6.38356E-03-1.19324E-08 0.00000E+00
 -1        13 0.00000E+00 9.85127E-03 0.00000E+00
 -1        14 1.06542E-08 9.85127E-03 0.00000E+00
 -1        15 3.73647E-01 3.73647E-01 0.00000E+00
 -1        16 3.73647E-01 3.73647E-01 0.00000E+00
 -1        17 5.69281E-01 1.31014E-01 0.00000E+00
 -1        18 5.69114E-01-2.77095E-01 0.00000E+00
 -1        19 0.00000E+00 9.85126E-03 0.00000E+00
 -1        20 9.96263E-09 9.85126E-03 0.00000E+00
 -1        21 3.73647E-01 3.73647E-01 0.00000E+00
 -1        22 3.73647E-01 3.73647E-01 0.00000E+00
 -1        23 9.77390E-01 1.30847E-01 0.00000E+00
 -1        24 9.77223E-01-2.77261E-01 0.00000E+00
 -1        25 0.00000E+00 6.38355E-03 0.00000E+00
 -1        26 9.00880E-09 6.38356E-03 0.00000E+00
 -1        27 1.31014E-01 5.69281E-01 0.00000E+00
 -1        28 1.30847E-01 9.77390E-01 0.00000E+00
 -1        29-8.48344E+00-8.48344E+00 0.00000E+00
 -1        30-8.48344E+00-8.48344E+00 0.00000E+00
 -1        31 0.00000E+00 6.38355E-03 0.00000E+00
 -1        32-1.19324E-08 6.38356E-03 0.00000E+00
 -1        33-2.77095E-01 5.69114E-01 0.00000E+00
 -1        34-2.77261E-01 9.77223E-01 0.00000E+00
 -1        35-8.48344E+00-8.48344E+00 0.00000E+00
 -1        36-8.48344E+00-8.48344E+00 0.00000E+00
 -1        37 0.00000E+00 0.00000E+00-2.25172E-10
 -1        38 1.87643E-10 0.00000E+00-2.25172E-10
 -1        39 9.85127E-03 0.00000E+00-4.50993E-09
 -1        40 9.85126E-03 0.00000E+00-4.24396E-09
 -1        41 6.38355E-03 0.00000E+00-3.35336E-09
 -1        42 6.38355E-03 0.00000E+00 4.70093E-09
 -1        43 0.00000E+00 1.87643E-10-2.25172E-10
 -1        44 1.87643E-10 1.87643E-10-2.25172E-10
 -1        45 9.85127E-03 1.06542E-08-4.50993E-09
 -1        46 9.85126E-03 9.96263E-09-4.24396E-09
 -1        47 6.38356E-03 8.95405E-09-3.22613E-09
 -1        48 6.38356E-03-1.19871E-08 4.82816E-09
 -1        49 0.00000E+00 9.85127E-03-4.50993E-09
 -1        50 1.06542E-08 9.85127E-03-4.50993E-09
 -1        51 3.73647E-01 3.73647E-01-4.90588E-09
 -1        52 3.73647E-01 3.73647E-01-8.88713E-09
 -1        53 5.69281E-01 1.31014E-01-2.01641E-09
 -1        54 5.69114E-01-2.77095E-01 2.18980E-09
 -1        55 0.00000E+00 9.85126E-03-4.24396E-09
 -1        56 9.96263E-09 9.85126E-03-4.24396E-09
 -1        57 3.73647E-01 3.73647E-01-8.88713E-09
 -1        58 3.73647E-01 3.73647E-01-1.28684E-08
 -1        59 9.77390E-01 1.30847E-01-5.16879E-09
 -1        60 9.77223E-01-2.77261E-01-9.62574E-10
 -1        61 0.00000E+00 6.38355E-03-3.35336E-09
 -1        62 8.95405E-09 6.38356E-03-3.22613E-09
 -1        63 1.31014E-01 5.69281E-01-2.01641E-09
 -1        64 1.30847E-01 9.77390E-01-5.16879E-09
 -1        65-8.48344E+00-8.48344E+00 6.66659E-16
 -1        66-8.48344E+00-8.48344E+00-1.84523E-16
 -1        67 0.00000E+00 6.38355E-03 4.70093E-09
 -1        68-1.19871E-08 6.38356E-03 4.82816E-09
 -1        69-2.77095E-01 5.69114E-01 2.18980E-09
 -1        70-2.77261E-01 9.77223E-01-9.62574E-10
 -1        71-8.48344E+00-8.48344E+00-4.54201E-17
 -1        72-8.48344E+00-8.48344E+00-7.34843E-17
 -3
    1PSTEP                       107          36           1          
  100CL  136 2.82781E-01          72                     0   36           1
 -4  STRESS      6    1
 -5  SXX         1    4    1    1
 -5  SYY         1    4    2    2
 -5  SZZ         1    4    3    3
 -5  SXY         1    4    1    2
 -5  SYZ         1    4    2    3
 -5  SZX         1    4    3    1
 -1         1 1.12581E-07 1.12581E-07-2.34677E-15-9.21173E-20 1.38387E-20 1.38380E-20
 -1         2 5.62907E-08 5.62907E-08 5.96610E-16 1.36162E-15 6.91966E-21-3.00205E-16
 -1         3 4.86198E-08 2.25638E-06 1.50374E-08 6.59794E-08-4.39343E-20-1.07411E-08
 -1         4-1.21438E-08 2.08391E-06-1.50374E-08 6.59794E-08-5.09557E-20-1.07411E-08
 -1         5 9.53535E-07 2.32178E-06 4.79591E-07 8.59112E-07-1.20385E-13-3.25858E-07
 -1         6-1.77310E-06-5.80217E-06-8.62317E-07 1.62493E-06-2.40770E-13-6.49354E-07
 -1         7 5.62907E-08 5.62907E-08 5.96358E-16 1.36159E-15-2.99988E-16 6.92176E-21
 -1         8 3.75271E-08 3.75271E-08 1.57757E-15 1.81550E-15-1.99992E-16-2.00137E-16
 -1         9 3.24132E-08 1.50425E-06 1.00250E-08 6.75065E-09 9.00275E-15-7.16071E-09
 -1        10-8.09583E-09 1.38927E-06-1.00250E-08 6.75066E-09 8.60992E-15-7.16072E-09
 -1        11 5.34187E-07 1.50855E-06 2.90207E-07-5.54853E-07-2.10578E-09-2.17239E-07
 -1        12-1.03880E-06-2.96004E-06-4.75439E-07-8.78927E-07-3.15866E-09-3.24677E-07
 -1        13 2.25638E-06 4.86198E-08 1.50374E-08 6.59794E-08-1.07411E-08-4.40522E-20
 -1        14 1.50425E-06 3.24132E-08 1.00250E-08 6.75065E-09-7.16071E-09 8.98873E-15
 -1        15 3.17386E-07 3.17386E-07-3.00123E-07-1.61264E-07 1.07187E-07 1.07187E-07
 -1        16 9.23757E-07 2.03850E-06 4.01434E-15 3.96107E-07 1.07187E-07 1.07187E-07
 -1        17 3.61903E-07 4.42621E-07 3.97221E-08 4.38821E-07 8.49635E-08-1.13174E-07
 -1        18-4.17019E-07-2.06470E-06-4.16040E-07 1.31878E-06 1.27445E-07-1.69761E-07
 -1        19 2.08391E-06-1.21438E-08-1.50374E-08 6.59794E-08-1.07411E-08-5.10587E-20
 -1        20 1.38927E-06-8.09583E-09-1.00250E-08 6.75066E-09-7.16072E-09 8.62121E-15
 -1        21 2.03850E-06 9.23757E-07 1.24744E-14 3.96107E-07 1.07187E-07 1.07187E-07
 -1        22 2.64487E-06 2.64487E-06 3.00123E-07 9.53479E-07 1.07187E-07 1.07187E-07
 -1        23 1.72373E-06 9.23711E-07 2.77361E-07-1.50765E-07 8.49635E-08-1.13174E-07
 -1        24 1.62572E-06-1.34306E-06-5.95812E-08 4.34404E-07 1.27445E-07-1.69761E-07
 -1        25 2.32178E-06 9.53535E-07 4.79591E-07 8.59112E-07-3.25858E-07-1.20385E-13
 -1        26 1.50855E-06 5.34187E-07 2.90207E-07-5.54853E-07-2.17239E-07-2.10578E-09
 -1        27 4.42621E-07 3.61903E-07 3.97221E-08 4.38821E-07-1.13174E-07 8.49635E-08
 -1        28 9.23711E-07 1.72373E-06 2.77361E-07-1.50765E-07-1.13174E-07 8.49635E-08
 -1        29 4.79043E-14 6.04960E-14 9.91852E-14 6.29583E-15-3.72983E-15-3.72970E-15
 -1        30 1.13178E-13 2.85373E-13 9.18865E-14 8.60974E-14-2.69189E-13-2.69189E-13
 -1        31-5.80217E-06-1.77310E-06-8.62317E-07 1.62493E-06-6.49354E-07-2.40770E-13
 -1        32-2.96004E-06-1.03880E-06-4.75439E-07-8.78927E-07-3.24677E-07-3.15866E-09
 -1        33-2.06470E-06-4.17019E-07-4.16040E-07 1.31878E-06-1.69761E-07 1.27445E-07
 -1        34-1.34306E-06 1.62572E-06-5.95813E-08 4.34404E-07-1.69761E-07 1.27445E-07
 -1        35 3.42104E-14 8.50652E-14 2.89695E-14 2.54274E-14-2.50105E-13-2.50104E-13
 -1        36 6.66147E-14 1.72393E-13 4.96559E-14 5.28892E-14 4.53555E-13 4.53555E-13
 -1        37 1.12581E-07 1.12581E-07-4.86764E-15-9.21176E-20-2.18188E-16-2.17953E-16
 -1        38 5.62907E-08 5.62907E-08-6.63825E-16 1.36162E-15-1.09094E-16-4.09188E-16
 -1        39 4.86198E-08 2.25638E-06 1.50374E-08 6.59794E-08-1.07618E-14 1.07411E-08
 -1        40-1.21439E-08 2.08391E-06-1.50374E-08 6.59794E-08-1.21220E-14 1.07410E-08
 -1        41 9.52691E-07 2.30879E-06 4.75439E-07 8.59112E-07 1.02760E-08 3.24677E-07
 -1        42-1.77479E-06-5.82816E-06-8.70621E-07 1.62493E-06 2.05520E-08 6.51716E-07
 -1        43 5.62907E-08 5.62907E-08-6.64077E-16 1.36159E-15-4.09089E-16-1.08976E-16
 -1        44 3.75271E-08 3.75271E-08 7.37277E-16 1.81550E-15-2.72726E-16-2.72792E-16
 -1        45 3.24132E-08 1.50425E-06 1.00250E-08 6.75065E-09 1.82822E-15 7.16070E-09
 -1        46-8.09586E-09 1.38927E-06-1.00250E-08 6.75066E-09 5.28570E-16 7.16069E-09
 -1        47 5.33624E-07 1.49988E-06 2.87439E-07-5.54853E-07 4.74499E-09 2.16451E-07
 -1        48-1.03965E-06-2.97304E-06-4.79591E-07-8.78927E-07 7.11748E-09 3.25858E-07
 -1        49 2.25638E-06 4.86198E-08 1.50374E-08 6.59794E-08 1.07411E-08-1.07252E-14
 -1        50 1.50425E-06 3.24132E-08 1.00250E-08 6.75065E-09 7.16070E-09 1.83856E-15
 -1        51 3.17386E-07 3.17386E-07-3.00123E-07-1.61264E-07-1.07187E-07-1.07187E-07
 -1        52 9.23757E-07 2.03850E-06 3.46120E-15 3.96107E-07-1.07187E-07-1.07187E-07
 -1        53 3.61903E-07 4.42621E-07 3.97221E-08 4.38821E-07-8.49635E-08 1.13174E-07
 -1        54-4.17019E-07-2.06470E-06-4.16040E-07 1.31878E-06-1.27445E-07 1.69761E-07
 -1        55 2.08391E-06-1.21439E-08-1.50374E-08 6.59794E-08 1.07410E-08-1.21469E-14
 -1        56 1.38927E-06-8.09586E-09-1.00250E-08 6.75066E-09 7.16069E-09 5.23301E-16
 -1        57 2.03850E-06 9.23757E-07-4.49793E-15 3.96107E-07-1.07187E-07-1.07187E-07
 -1        58 2.64487E-06 2.64487E-06 3.00123E-07 9.53479E-07-1.07187E-07-1.07187E-07
 -1        59 1.72373E-06 9.23711E-07 2.77361E-07-1.50765E-07-8.49635E-08 1.13174E-07
 -1        60 1.62572E-06-1.34306E-06-5.95813E-08 4.34404E-07-1.27445E-07 1.69761E-07
 -1        61 2.30879E-06 9.52691E-07 4.75439E-07 8.59112E-07 3.24677E-07 1.02760E-08
 -1        62 1.49988E-06 5.33624E-07 2.87439E-07-5.54853E-07 2.16451E-07 4.74499E-09
 -1        63 4.42621E-07 3.61903E-07 3.97221E-08 4.38821E-07 1.13174E-07-8.49635E-08
 -1        64 9.23711E-07 1.72373E-06 2.77361E-07-1.50765E-07 1.13174E-07-8.49635E-08
 -1        65-6.02278E-14-1.91812E-13-8.94703E-15-6.57923E-14 6.73425E-14 5.98525E-14
 -1        66-1.42772E-13-3.11844E-13-1.64063E-13-8.45359E-14 2.89723E-13 2.12006E-13
 -1        67-5.82816E-06-1.77479E-06-8.70621E-07 1.62493E-06 6.51716E-07 2.05520E-08
 -1        68-2.97304E-06-1.03965E-06-4.79591E-07-8.78927E-07 3.25858E-07 7.11748E-09
 -1        69-2.06470E-06-4.17019E-07-4.16040E-07 1.31878E-06 1.69761E-07-1.27445E-07
 -1        70-1.34306E-06 1.62572E-06-5.95813E-08 4.34404E-07 1.69761E-07-1.27445E-07
 -1        71-2.21740E-13-5.12151E-13-2.26980E-13-1.45206E-13-9.91936E-14-4.39467E-14
 -1        72 2.54497E-13 6.10785E-13 2.37538E-13 1.78144E-13-2.51093E-13-2.73563E-13
 -3
    1PSTEP                       108          36           1          
  100CL  136 2.82781E-01          72                     0   36           1
 -4  TOSTRAIN    6    1
 -5  EXX         1    4    1    1
 -5  EYY         1    4    2    2
 -5  EZZ         1    4    3    3
 -5  EXY         1    4    1    2
 -5  EYZ         1    4    2    3
 -5  EZX         1    4    3    1
 -1         1 3.75271E-13 3.75271E-13-3.21661E-13-5.70250E-25 8.56683E-26 8.56640E-26
 -1         2 1.87636E-13 1.87636E-13-1.60831E-13 8.42905E-21 4.28360E-26-1.85841E-21
 -1         3-3.01336E-12 1.06537E-11-3.22125E-12 4.08444E-13-2.71972E-25-6.64923E-14
 -1         4-3.01336E-12 9.96222E-12-3.03127E-12 4.08444E-13-3.15439E-25-6.64924E-14
 -1         5 5.38681E-13 9.00879E-12-2.39526E-12 5.31831E-12-7.45241E-19-2.01722E-12
 -1         6 1.07736E-12-2.38645E-11 6.71554E-12 1.00591E-11-1.49048E-18-4.01981E-12
 -1         7 1.87636E-13 1.87636E-13-1.60831E-13 8.42888E-21-1.85707E-21 4.28490E-26
 -1         8 1.25090E-13 1.25090E-13-1.07220E-13 1.12388E-20-1.23805E-21-1.23894E-21
 -1         9-2.00891E-12 7.10249E-12-2.14750E-12 4.17897E-14 5.57313E-20-4.43282E-14
 -1        10-2.00891E-12 6.64148E-12-2.02085E-12 4.17898E-14 5.32994E-20-4.43282E-14
 -1        11-2.59046E-14 6.00586E-12-1.53626E-12-3.43480E-12-1.30358E-14-1.34481E-12
 -1        12-3.88569E-14-1.19322E-11 3.44865E-12-5.44097E-12-1.95536E-14-2.00990E-12
 -1        13 1.06537E-11-3.01336E-12-3.22125E-12 4.08444E-13-6.64923E-14-2.72703E-25
 -1        14 7.10249E-12-2.00891E-12-2.14750E-12 4.17897E-14-4.43282E-14 5.56445E-20
 -1        15 1.48670E-12 1.48670E-12-2.33597E-12-9.98302E-13 6.63537E-13 6.63537E-13
 -1        16 1.48670E-12 8.38749E-12-4.23180E-12 2.45209E-12 6.63537E-13 6.63537E-13
 -1        17 1.02985E-12 1.53841E-12-9.60167E-13 2.71610E-12 5.25392E-13-7.01031E-13
 -1        18 1.54477E-12-8.62848E-12 1.56417E-12 8.17221E-12 7.88088E-13-1.05155E-12
 -1        19 9.96222E-12-3.01336E-12-3.03127E-12 4.08444E-13-6.64924E-14-3.16076E-25
 -1        20 6.64148E-12-2.00891E-12-2.02085E-12 4.17898E-14-4.43282E-14 5.33693E-20
 -1        21 8.38749E-12 1.48670E-12-4.23180E-12 2.45209E-12 6.63537E-13 6.63537E-13
 -1        22 8.38749E-12 8.38749E-12-6.12762E-12 5.90249E-12 6.63537E-13 6.63537E-13
 -1        23 6.49393E-12 1.53841E-12-2.46129E-12-9.29263E-13 5.25392E-13-7.01031E-13
 -1        24 9.74089E-12-8.62848E-12-6.87512E-13 2.70417E-12 7.88088E-13-1.05155E-12
 -1        25 9.00879E-12 5.38681E-13-2.39526E-12 5.31831E-12-2.01722E-12-7.45241E-19
 -1        26 6.00586E-12-2.59046E-14-1.53626E-12-3.43480E-12-1.34481E-12-1.30358E-14
 -1        27 1.53841E-12 1.02985E-12-9.60167E-13 2.71610E-12-7.01031E-13 5.25392E-13
 -1        28 1.53841E-12 6.49393E-12-2.46129E-12-9.29263E-13-7.01031E-13 5.25392E-13
 -1        29-6.79551E-38 7.79484E-20 3.17453E-19 3.89742E-20-2.30894E-20-2.30886E-20
 -1        30-1.01933E-37 1.06597E-18-1.31803E-19 5.32984E-19-1.66641E-18-1.66641E-18
 -1        31-2.38645E-11 1.07736E-12 6.71554E-12 1.00591E-11-4.01981E-12-1.49048E-18
 -1        32-1.19322E-11-3.88569E-14 3.44865E-12-5.44097E-12-2.00990E-12-1.95536E-14
 -1        33-8.62848E-12 1.54477E-12 1.56417E-12 8.17221E-12-1.05155E-12 7.88088E-13
 -1        34-8.62848E-12 9.74089E-12-6.87513E-13 2.70417E-12-1.05155E-12 7.88088E-13
 -1        35 1.86846E-38 3.14815E-19-3.24439E-20 1.57408E-19-1.54827E-18-1.54826E-18
 -1        36 3.73692E-38 6.54819E-19-1.04983E-19 3.27410E-19 2.80772E-18 2.80772E-18
 -1        37 3.75271E-13 3.75271E-13-3.21661E-13-5.70252E-25-1.35069E-21-1.34923E-21
 -1        38 1.87636E-13 1.87636E-13-1.60831E-13 8.42905E-21-6.75343E-22-2.53307E-21
 -1        39-3.01336E-12 1.06537E-11-3.22125E-12 4.08444E-13-6.66208E-20 6.64922E-14
 -1        40-3.01336E-12 9.96222E-12-3.03127E-12 4.08444E-13-7.50413E-20 6.64922E-14
 -1        41 5.59159E-13 8.95404E-12-2.39526E-12 5.31831E-12 6.36135E-14 2.00990E-12
 -1        42 1.11832E-12-2.39740E-11 6.71554E-12 1.00591E-11 1.27227E-13 4.03444E-12
 -1        43 1.87636E-13 1.87636E-13-1.60831E-13 8.42888E-21-2.53246E-21-6.74615E-22
 -1        44 1.25090E-13 1.25090E-13-1.07220E-13 1.12388E-20-1.68831E-21-1.68871E-21
 -1        45-2.00891E-12 7.10249E-12-2.14750E-12 4.17897E-14 1.13176E-20 4.43282E-14
 -1        46-2.00891E-12 6.64148E-12-2.02085E-12 4.17898E-14 3.27214E-21 4.43281E-14
 -1        47-1.22525E-14 5.96936E-12-1.53626E-12-3.43480E-12 2.93737E-14 1.33994E-12
 -1        48-1.83788E-14-1.19870E-11 3.44865E-12-5.44097E-12 4.40606E-14 2.01722E-12
 -1        49 1.06537E-11-3.01336E-12-3.22125E-12 4.08444E-13 6.64922E-14-6.63945E-20
 -1        50 7.10249E-12-2.00891E-12-2.14750E-12 4.17897E-14 4.43282E-14 1.13816E-20
 -1        51 1.48670E-12 1.48670E-12-2.33597E-12-9.98301E-13-6.63537E-13-6.63537E-13
 -1        52 1.48670E-12 8.38749E-12-4.23180E-12 2.45209E-12-6.63537E-13-6.63537E-13
 -1        53 1.02985E-12 1.53841E-12-9.60167E-13 2.71610E-12-5.25392E-13 7.01031E-13
 -1        54 1.54477E-12-8.62848E-12 1.56417E-12 8.17221E-12-7.88089E-13 1.05155E-12
 -1        55 9.96222E-12-3.01336E-12-3.03127E-12 4.08444E-13 6.64922E-14-7.51950E-20
 -1        56 6.64148E-12-2.00891E-12-2.02085E-12 4.17898E-14 4.43281E-14 3.23952E-21
 -1        57 8.38749E-12 1.48670E-12-4.23180E-12 2.45209E-12-6.63537E-13-6.63537E-13
 -1        58 8.38749E-12 8.38749E-12-6.12762E-12 5.90249E-12-6.63537E-13-6.63537E-13
 -1        59 6.49393E-12 1.53841E-12-2.46129E-12-9.29263E-13-5.25392E-13 7.01031E-13
 -1        60 9.74089E-12-8.62848E-12-6.87512E-13 2.70417E-12-7.88088E-13 1.05155E-12
 -1        61 8.95404E-12 5.59159E-13-2.39526E-12 5.31831E-12 2.00990E-12 6.36135E-14
 -1        62 5.96936E-12-1.22525E-14-1.53626E-12-3.43480E-12 1.33994E-12 2.93737E-14
 -1        63 1.53841E-12 1.02985E-12-9.60167E-13 2.71610E-12 7.01031E-13-5.25392E-13
 -1        64 1.53841E-12 6.49393E-12-2.46129E-12-9.29263E-13 7.01032E-13-5.25392E-13
 -1        65 3.39768E-37-8.14571E-19 3.17453E-19-4.07286E-19 4.16882E-19 3.70515E-19
 -1        66 5.09652E-37-1.04663E-18-1.31803E-19-5.23317E-19 1.79352E-18 1.31242E-18
 -1        67-2.39740E-11 1.11832E-12 6.71554E-12 1.00591E-11 4.03444E-12 1.27227E-13
 -1        68-1.19870E-11-1.83788E-14 3.44865E-12-5.44097E-12 2.01722E-12 4.40606E-14
 -1        69-8.62848E-12 1.54477E-12 1.56417E-12 8.17221E-12 1.05155E-12-7.88089E-13
 -1        70-8.62848E-12 9.74089E-12-6.87513E-13 2.70417E-12 1.05155E-12-7.88089E-13
 -1        71-9.34451E-38-1.79779E-18-3.24439E-20-8.98894E-19-6.14056E-19-2.72051E-19
 -1        72-1.86890E-37 2.20559E-18-1.04983E-19 1.10280E-18-1.55438E-18-1.69348E-18
 -3
    1PSTEP                       109          37           1          
  100CL  137 2.91781E-01          72                     0   37           1
 -4  DISP        4    1
 -5  D1          1    2    1    0
 -5  D2          1    2    2    0
 -5  D3          1    2    3    0
 -5  ALL         1    2    0    0    1ALL
 -1         1 0.00000E+00 0.00000E+00 0.00000E+00
 -1         2 1.44582E-10 0.00000E+00 0.00000E+00
 -1         3 7.59056E-03 0.00000E+00 0.00000E+00
 -1         4 7.59055E-03 0.00000E+00 0.00000E+00
 -1         5 5.61801E-03 0.00000E+00 0.00000E+00
 -1         6 5.61801E-03 0.00000E+00 0.00000E+00
 -1         7 0.00000E+00 1.44582E-10 0.00000E+00
 -1         8 1.44582E-10 1.44582E-10 0.00000E+00
 -1         9 7.59056E-03 8.93738E-09 0.00000E+00
 -1        10 7.59055E-03 8.44087E-09 0.00000E+00
 -1        11 5.61802E-03 7.80413E-09 0.00000E+00
 -1        12 5.61802E-03-9.78016E-09 0.00000E+00
 -1        13 0.00000E+00 7.59056E-03 0.00000E+00
 -1        14 8.93738E-09 7.59056E-03 0.00000E+00
 -1        15 3.15710E-01 3.15710E-01 0.00000E+00
 -1        16 3.15710E-01 3.15710E-01 0.00000E+00
 -1        17 4.79238E-01 1.20862E-01 0.00000E+00
 -1        18 4.79121E-01-2.20559E-01 0.00000E+00
 -1        19 0.00000E+00 7.59055E-03 0.00000E+00
 -1        20 8.44087E-09 7.59055E-03 0.00000E+00
 -1        21 3.15710E-01 3.15710E-01 0.00000E+00
 -1        22 3.15710E-01 3.15710E-01 0.00000E+00
 -1        23 8.20660E-01 1.20746E-01 0.00000E+00
 -1        24 8.20543E-01-2.20676E-01 0.00000E+00
 -1        25 0.00000E+00 5.61801E-03 0.00000E+00
 -1        26 7.80413E-09 5.61802E-03 0.00000E+00
 -1        27 1.20862E-01 4.79238E-01 0.00000E+00
 -1        28 1.20746E-01 8.20660E-01 0.00000E+00
 -1        29-8.75344E+00-8.75344E+00 0.00000E+00
 -1        30-8.75344E+00-8.75344E+00 0.00000E+00
 -1        31 0.00000E+00 5.61801E-03 0.00000E+00
 -1        32-9.78016E-09 5.61802E-03 0.00000E+00
 -1        33-2.20559E-01 4.79121E-01 0.00000E+00
 -1        34-2.20676E-01 8.20543E-01 0.00000E+00
 -1        35-8.75344E+00-8.75344E+00 0.00000E+00
 -1        36-8.75344E+00-8.75344E+00 0.00000E+00
 -1        37 0.00000E+00 0.00000E+00-1.73498E-10
 -1        38 1.44582E-10 0.00000E+00-1.73498E-10
 -1        39 7.59056E-03 0.00000E+00-3.78665E-09
 -1        40 7.59055E-03 0.00000E+00-3.59568E-09
 -1        41 5.61801E-03 0.00000E+00-2.92807E-09
 -1        42 5.61801E-03 0.00000E+00 3.83512E-09
 -1        43 0.00000E+00 1.44582E-10-1.73498E-10
 -1        44 1.44582E-10 1.44582E-10-1.73498E-10
 -1        45 7.59056E-03 8.93738E-09-3.78665E-09
 -1        46 7.59055E-03 8.44087E-09-3.59568E-09
 -1        47 5.61802E-03 7.76572E-09-2.83881E-09
 -1        48 5.61802E-03-9.81857E-09 3.92438E-09
 -1        49 0.00000E+00 7.59056E-03-3.78665E-09
 -1        50 8.93738E-09 7.59056E-03-3.78665E-09
 -1        51 3.15710E-01 3.15710E-01-4.11807E-09
 -1        52 3.15710E-01 3.15710E-01-7.46365E-09
 -1        53 4.79238E-01 1.20862E-01-1.74296E-09
 -1        54 4.79121E-01-2.20559E-01 1.77426E-09
 -1        55 0.00000E+00 7.59055E-03-3.59568E-09
 -1        56 8.44087E-09 7.59055E-03-3.59568E-09
 -1        57 3.15710E-01 3.15710E-01-7.46365E-09
 -1        58 3.15710E-01 3.15710E-01-1.08092E-08
 -1        59 8.20660E-01 1.20746E-01-4.52276E-09
 -1        60 8.20543E-01-2.20676E-01-1.00555E-09
 -1        61 0.00000E+00 5.61801E-03-2.92807E-09
 -1        62 7.76572E-09 5.61802E-03-2.83881E-09
 -1        63 1.20862E-01 4.79238E-01-1.74296E-09
 -1        64 1.20746E-01 8.20660E-01-4.52276E-09
 -1        65-8.75344E+00-8.75344E+00 7.63703E-17
 -1        66-8.75344E+00-8.75344E+00 3.09943E-16
 -1        67 0.00000E+00 5.61801E-03 3.83512E-09
 -1        68-9.81857E-09 5.61802E-03 3.92438E-09
 -1        69-2.20559E-01 4.79121E-01 1.77426E-09
 -1        70-2.20676E-01 8.20543E-01-1.00555E-09
 -1        71-8.75344E+00-8.75344E+00 3.62107E-16
 -1        72-8.75344E+00-8.75344E+00 6.44339E-17
 -3
    1PSTEP                       110          37           1          
  100CL  137 2.91781E-01          72                     0   37           1
 -4  STRESS      6    1
 -5  SXX         1    4    1    1
 -5  SYY         1    4    2    2
 -5  SZZ         1    4    3    3
 -5  SXY         1    4    1    2
 -5  SYZ         1    4    2    3
 -5  SZX         1    4    3    1
 -1         1 8.67457E-08 8.67457E-08-1.68181E-15-6.60503E-20 9.90433E-21 9.90363E-21
 -1         2 4.33729E-08 4.33729E-08 4.30993E-16 9.76457E-16 4.95283E-21-2.15613E-16
 -1         3 3.78651E-08 1.89138E-06 1.07970E-08 4.73736E-08-3.23605E-20-7.71214E-09
 -1         4-5.76347E-09 1.76754E-06-1.07970E-08 4.73736E-08-3.69059E-20-7.71215E-09
 -1         5 7.97372E-07 1.99789E-06 3.99367E-07 7.20858E-07-8.44575E-14-2.73541E-07
 -1         6-1.49549E-06-4.77551E-06-7.30778E-07 1.37626E-06-1.68915E-13-5.45425E-07
 -1         7 4.33729E-08 4.33729E-08 4.30993E-16 9.76457E-16-2.15613E-16 4.95113E-21
 -1         8 2.89152E-08 2.89152E-08 1.13544E-15 1.30196E-15-1.43862E-16-1.43862E-16
 -1         9 2.52435E-08 1.26092E-06 7.19797E-09 4.84700E-09 7.51132E-15-5.14143E-09
 -1        10-3.84228E-09 1.17836E-06-7.19797E-09 4.84701E-09 7.20906E-15-5.14143E-09
 -1        11 4.60370E-07 1.30435E-06 2.45534E-07-4.66269E-07-1.47733E-09-1.82361E-07
 -1        12-8.54563E-07-2.42912E-06-3.96454E-07-7.32129E-07-2.21599E-09-2.72713E-07
 -1        13 1.89138E-06 3.78651E-08 1.07970E-08 4.73736E-08-7.71214E-09-3.21087E-20
 -1        14 1.26092E-06 2.52435E-08 7.19797E-09 4.84700E-09-5.14143E-09 7.50176E-15
 -1        15 2.65958E-07 2.65958E-07-2.52204E-07-1.37098E-07 9.00728E-08 9.00728E-08
 -1        16 7.75513E-07 1.71227E-06 2.46344E-15 3.31281E-07 9.00728E-08 9.00728E-08
 -1        17 2.78154E-07 3.95461E-07 2.77946E-08 3.59257E-07 7.49051E-08-9.46426E-08
 -1        18-3.85516E-07-1.68837E-06-3.56022E-07 1.12163E-06 1.12358E-07-1.41964E-07
 -1        19 1.76754E-06-5.76347E-09-1.07970E-08 4.73736E-08-7.71215E-09-3.71855E-20
 -1        20 1.17836E-06-3.84228E-09-7.19797E-09 4.84701E-09-5.14143E-09 7.20795E-15
 -1        21 1.71227E-06 7.75513E-07 1.94891E-14 3.31281E-07 9.00728E-08 9.00728E-08
 -1        22 2.22183E-06 2.22183E-06 2.52204E-07 7.99660E-07 9.00728E-08 9.00728E-08
 -1        23 1.47921E-06 8.19518E-07 2.37348E-07-1.33681E-07 7.49052E-08-9.46425E-08
 -1        24 1.41606E-06-1.05229E-06-4.16914E-08 3.82225E-07 1.12358E-07-1.41964E-07
 -1        25 1.99789E-06 7.97372E-07 3.99367E-07 7.20858E-07-2.73541E-07-8.44575E-14
 -1        26 1.30435E-06 4.60370E-07 2.45534E-07-4.66269E-07-1.82361E-07-1.47733E-09
 -1        27 3.95461E-07 2.78154E-07 2.77946E-08 3.59257E-07-9.46426E-08 7.49051E-08
 -1        28 8.19518E-07 1.47921E-06 2.37348E-07-1.33681E-07-9.46425E-08 7.49052E-08
 -1        29 2.22925E-14 4.61417E-14 2.81667E-14 1.19246E-14-1.09423E-13-1.09423E-13
 -1        30 1.08706E-13 2.17885E-13 1.44467E-13 5.45897E-14 1.93024E-13 1.93024E-13
 -1        31-4.77551E-06-1.49549E-06-7.30778E-07 1.37626E-06-5.45425E-07-1.68915E-13
 -1        32-2.42912E-06-8.54563E-07-3.96454E-07-7.32129E-07-2.72713E-07-2.21599E-09
 -1        33-1.68837E-06-3.85516E-07-3.56022E-07 1.12163E-06-1.41964E-07 1.12358E-07
 -1        34-1.05229E-06 1.41606E-06-4.16915E-08 3.82225E-07-1.41964E-07 1.12358E-07
 -1        35 9.87960E-14 1.88744E-13 1.40576E-13 4.49738E-14 1.11981E-13 1.11981E-13
 -1        36-1.28353E-13-3.14358E-13-1.13485E-13-9.30027E-14 2.29658E-13 2.29658E-13
 -1        37 8.67457E-08 8.67457E-08-3.49300E-15-6.60532E-20-1.54260E-16-1.54260E-16
 -1        38 4.33729E-08 4.33729E-08-4.74978E-16 9.76205E-16-7.70198E-17-2.92748E-16
 -1        39 3.78651E-08 1.89138E-06 1.07970E-08 4.73736E-08-9.08721E-15 7.71213E-09
 -1        40-5.76351E-09 1.76754E-06-1.07970E-08 4.73736E-08-9.97040E-15 7.71212E-09
 -1        41 7.96780E-07 1.98877E-06 3.96454E-07 7.20858E-07 7.20926E-09 2.72713E-07
 -1        42-1.49668E-06-4.79374E-06-7.36603E-07 1.37626E-06 1.44185E-08 5.47083E-07
 -1        43 4.33729E-08 4.33729E-08-4.74978E-16 9.76205E-16-2.92748E-16-7.70198E-17
 -1        44 2.89152E-08 2.89152E-08 5.31212E-16 1.30163E-15-1.95212E-16-1.95212E-16
 -1        45 2.52434E-08 1.26092E-06 7.19797E-09 4.84700E-09 1.45318E-15 5.14142E-09
 -1        46-3.84230E-09 1.17836E-06-7.19797E-09 4.84701E-09 5.62128E-16 5.14142E-09
 -1        47 4.59976E-07 1.29827E-06 2.43593E-07-4.66269E-07 3.32890E-09 1.81808E-07
 -1        48-8.55156E-07-2.43824E-06-3.99367E-07-7.32129E-07 4.99335E-09 2.73542E-07
 -1        49 1.89138E-06 3.78651E-08 1.07970E-08 4.73736E-08 7.71213E-09-9.03985E-15
 -1        50 1.26092E-06 2.52434E-08 7.19797E-09 4.84700E-09 5.14142E-09 1.47519E-15
 -1        51 2.65958E-07 2.65958E-07-2.52204E-07-1.37098E-07-9.00729E-08-9.00729E-08
 -1        52 7.75513E-07 1.71227E-06-7.11391E-16 3.31281E-07-9.00729E-08-9.00729E-08
 -1        53 2.78154E-07 3.95461E-07 2.77947E-08 3.59257E-07-7.49052E-08 9.46426E-08
 -1        54-3.85516E-07-1.68837E-06-3.56022E-07 1.12163E-06-1.12358E-07 1.41964E-07
 -1        55 1.76754E-06-5.76351E-09-1.07970E-08 4.73736E-08 7.71212E-09-1.00013E-14
 -1        56 1.17836E-06-3.84230E-09-7.19797E-09 4.84701E-09 5.14142E-09 5.40419E-16
 -1        57 1.71227E-06 7.75513E-07-1.40612E-14 3.31281E-07-9.00729E-08-9.00729E-08
 -1        58 2.22183E-06 2.22183E-06 2.52204E-07 7.99660E-07-9.00729E-08-9.00729E-08
 -1        59 1.47921E-06 8.19518E-07 2.37348E-07-1.33681E-07-7.49051E-08 9.46426E-08
 -1        60 1.41606E-06-1.05229E-06-4.16915E-08 3.82225E-07-1.12358E-07 1.41964E-07
 -1        61 1.98877E-06 7.96780E-07 3.96454E-07 7.20858E-07 2.72713E-07 7.20926E-09
 -1        62 1.29827E-06 4.59976E-07 2.43593E-07-4.66269E-07 1.81808E-07 3.32890E-09
 -1        63 3.95461E-07 2.78154E-07 2.77947E-08 3.59257E-07 9.46426E-08-7.49052E-08
 -1        64 8.19518E-07 1.47921E-06 2.37348E-07-1.33681E-07 9.46426E-08-7.49051E-08
 -1        65-9.13913E-14-2.19120E-13-8.55171E-14-6.38646E-14-9.76547E-14-1.00463E-13
 -1        66-1.16166E-13-3.06815E-13-8.04040E-14-9.53245E-14-2.64660E-15 3.60482E-14
 -1        67-4.79374E-06-1.49668E-06-7.36603E-07 1.37626E-06 5.47083E-07 1.44185E-08
 -1        68-2.43824E-06-8.55156E-07-3.99367E-07-7.32129E-07 2.73542E-07 4.99335E-09
 -1        69-1.68837E-06-3.85516E-07-3.56022E-07 1.12163E-06 1.41964E-07-1.12358E-07
 -1        70-1.05229E-06 1.41606E-06-4.16915E-08 3.82225E-07 1.41964E-07-1.12358E-07
 -1        71-1.65481E-13-4.27904E-13-1.23701E-13-1.31211E-13 2.35061E-13 1.87940E-13
 -1        72 1.21686E-13 2.69067E-13 1.36554E-13 7.36903E-14-4.51348E-13-4.59775E-13
 -3
    1PSTEP                       111          37           1          
  100CL  137 2.91781E-01          72                     0   37           1
 -4  TOSTRAIN    6    1
 -5  EXX         1    4    1    1
 -5  EYY         1    4    2    2
 -5  EZZ         1    4    3    3
 -5  EXY         1    4    1    2
 -5  EYZ         1    4    2    3
 -5  EZX         1    4    3    1
 -1         1 2.89152E-13 2.89152E-13-2.47845E-13-4.08883E-25 6.13125E-26 6.13082E-26
 -1         2 1.44576E-13 1.44576E-13-1.23922E-13 6.04474E-21 3.06604E-26-1.33474E-21
 -1         3-2.53708E-12 8.93703E-12-2.70464E-12 2.93265E-13-2.00326E-25-4.77418E-14
 -1         4-2.53708E-12 8.44052E-12-2.56824E-12 2.93265E-13-2.28464E-25-4.77419E-14
 -1         5 3.72361E-13 7.80411E-12-2.09148E-12 4.46245E-12-5.22832E-19-1.69335E-12
 -1         6 7.44723E-13-1.95601E-11 5.47868E-12 8.51973E-12-1.04566E-18-3.37644E-12
 -1         7 1.44576E-13 1.44576E-13-1.23922E-13 6.04474E-21-1.33474E-21 3.06499E-26
 -1         8 9.63842E-14 9.63842E-14-8.26150E-14 8.05978E-21-8.90572E-22-8.90572E-22
 -1         9-1.69139E-12 5.95802E-12-1.80310E-12 3.00052E-14 4.64986E-20-3.18279E-14
 -1        10-1.69139E-12 5.62701E-12-1.71216E-12 3.00053E-14 4.46275E-20-3.18279E-14
 -1        11-2.18775E-14 5.20274E-12-1.35181E-12-2.88643E-12-9.14537E-15-1.12890E-12
 -1        12-3.28162E-14-9.78007E-12 2.80310E-12-4.53223E-12-1.37181E-14-1.68822E-12
 -1        13 8.93703E-12-2.53708E-12-2.70464E-12 2.93265E-13-4.77418E-14-1.98767E-25
 -1        14 5.95802E-12-1.69139E-12-1.80310E-12 3.00052E-14-3.18279E-14 4.64394E-20
 -1        15 1.24682E-12 1.24682E-12-1.96085E-12-8.48702E-13 5.57594E-13 5.57594E-13
 -1        16 1.24682E-12 7.04580E-12-3.55398E-12 2.05079E-12 5.57594E-13 5.57594E-13
 -1        17 7.16855E-13 1.44912E-12-8.29952E-13 2.22347E-12 4.63298E-13-5.86199E-13
 -1        18 1.07528E-12-6.97103E-12 1.26735E-12 6.94894E-12 6.94947E-13-8.79299E-13
 -1        19 8.44052E-12-2.53708E-12-2.56824E-12 2.93265E-13-4.77419E-14-2.30195E-25
 -1        20 5.62701E-12-1.69139E-12-1.71216E-12 3.00053E-14-3.18279E-14 4.46206E-20
 -1        21 7.04580E-12 1.24682E-12-3.55398E-12 2.05079E-12 5.57594E-13 5.57594E-13
 -1        22 7.04580E-12 7.04580E-12-5.14710E-12 4.95027E-12 5.57594E-13 5.57594E-13
 -1        23 5.53516E-12 1.44912E-12-2.15366E-12-8.24762E-13 4.63299E-13-5.86199E-13
 -1        24 8.30274E-12-6.97103E-12-7.18211E-13 2.37658E-12 6.94947E-13-8.79299E-13
 -1        25 7.80411E-12 3.72361E-13-2.09148E-12 4.46245E-12-1.69335E-12-5.22832E-19
 -1        26 5.20274E-12-2.18775E-14-1.35181E-12-2.88643E-12-1.12890E-12-9.14537E-15
 -1        27 1.44912E-12 7.16855E-13-8.29952E-13 2.22347E-12-5.86199E-13 4.63298E-13
 -1        28 1.44912E-12 5.53516E-12-2.15366E-12-8.24762E-13-5.86199E-13 4.63298E-13
 -1        29-8.35695E-40 1.47638E-19 3.63638E-20 7.38190E-20-6.77383E-19-6.77382E-19
 -1        30-1.25354E-39 6.75872E-19 2.21381E-19 3.37936E-19 1.19491E-18 1.19491E-18
 -1        31-1.95601E-11 7.44723E-13 5.47868E-12 8.51973E-12-3.37644E-12-1.04566E-18
 -1        32-9.78007E-12-3.28162E-14 2.80310E-12-4.53223E-12-1.68822E-12-1.37181E-14
 -1        33-6.97103E-12 1.07528E-12 1.26735E-12 6.94894E-12-8.79299E-13 6.94948E-13
 -1        34-6.97103E-12 8.30274E-12-7.18211E-13 2.37658E-12-8.79298E-13 6.94948E-13
 -1        35-6.92888E-39 5.56818E-19 2.58641E-19 2.78409E-19 6.93214E-19 6.93214E-19
 -1        36-1.38578E-38-1.15146E-18 9.20393E-20-5.75731E-19 1.42169E-18 1.42169E-18
 -1        37 2.89152E-13 2.89152E-13-2.47845E-13-4.08901E-25-9.54945E-22-9.54945E-22
 -1        38 1.44576E-13 1.44576E-13-1.23922E-13 6.04318E-21-4.76789E-22-1.81225E-21
 -1        39-2.53708E-12 8.93704E-12-2.70464E-12 2.93265E-13-5.62543E-20 4.77418E-14
 -1        40-2.53708E-12 8.44052E-12-2.56824E-12 2.93265E-13-6.17216E-20 4.77417E-14
 -1        41 3.86728E-13 7.76571E-12-2.09148E-12 4.46245E-12 4.46287E-14 1.68822E-12
 -1        42 7.73456E-13-1.96370E-11 5.47868E-12 8.51973E-12 8.92574E-14 3.38670E-12
 -1        43 1.44576E-13 1.44576E-13-1.23922E-13 6.04318E-21-1.81225E-21-4.76789E-22
 -1        44 9.63842E-14 9.63842E-14-8.26150E-14 8.05770E-21-1.20845E-21-1.20845E-21
 -1        45-1.69139E-12 5.95802E-12-1.80310E-12 3.00052E-14 8.99590E-21 3.18279E-14
 -1        46-1.69139E-12 5.62701E-12-1.71216E-12 3.00053E-14 3.47986E-21 3.18278E-14
 -1        47-1.22997E-14 5.17714E-12-1.35181E-12-2.88643E-12 2.06075E-14 1.12548E-12
 -1        48-1.84496E-14-9.81848E-12 2.80310E-12-4.53223E-12 3.09112E-14 1.69335E-12
 -1        49 8.93704E-12-2.53708E-12-2.70464E-12 2.93265E-13 4.77418E-14-5.59611E-20
 -1        50 5.95802E-12-1.69139E-12-1.80310E-12 3.00052E-14 3.18279E-14 9.13216E-21
 -1        51 1.24682E-12 1.24682E-12-1.96085E-12-8.48702E-13-5.57594E-13-5.57594E-13
 -1        52 1.24682E-12 7.04580E-12-3.55398E-12 2.05079E-12-5.57594E-13-5.57594E-13
 -1        53 7.16855E-13 1.44912E-12-8.29952E-13 2.22347E-12-4.63298E-13 5.86199E-13
 -1        54 1.07528E-12-6.97103E-12 1.26735E-12 6.94894E-12-6.94948E-13 8.79299E-13
 -1        55 8.44052E-12-2.53708E-12-2.56824E-12 2.93265E-13 4.77417E-14-6.19130E-20
 -1        56 5.62701E-12-1.69139E-12-1.71216E-12 3.00053E-14 3.18278E-14 3.34547E-21
 -1        57 7.04580E-12 1.24682E-12-3.55398E-12 2.05079E-12-5.57594E-13-5.57594E-13
 -1        58 7.04580E-12 7.04580E-12-5.14710E-12 4.95027E-12-5.57594E-13-5.57594E-13
 -1        59 5.53516E-12 1.44912E-12-2.15366E-12-8.24762E-13-4.63298E-13 5.86199E-13
 -1        60 8.30274E-12-6.97103E-12-7.18211E-13 2.37659E-12-6.94948E-13 8.79299E-13
 -1        61 7.76571E-12 3.86728E-13-2.09148E-12 4.46245E-12 1.68822E-12 4.46287E-14
 -1        62 5.17714E-12-1.22997E-14-1.35181E-12-2.88643E-12 1.12548E-12 2.06075E-14
 -1        63 1.44912E-12 7.16855E-13-8.29952E-13 2.22347E-12 5.86199E-13-4.63298E-13
 -1        64 1.44912E-12 5.53516E-12-2.15366E-12-8.24762E-13 5.86199E-13-4.63298E-13
 -1        65 4.17721E-39-7.90704E-19 3.63638E-20-3.95352E-19-6.04529E-19-6.21917E-19
 -1        66 6.26581E-39-1.18021E-18 2.21381E-19-5.90104E-19-1.63837E-20 2.23156E-19
 -1        67-1.96370E-11 7.73456E-13 5.47868E-12 8.51973E-12 3.38670E-12 8.92574E-14
 -1        68-9.81848E-12-1.84496E-14 2.80310E-12-4.53223E-12 1.69335E-12 3.09112E-14
 -1        69-6.97103E-12 1.07528E-12 1.26735E-12 6.94894E-12 8.79299E-13-6.94948E-13
 -1        70-6.97103E-12 8.30274E-12-7.18211E-13 2.37659E-12 8.79299E-13-6.94948E-13
 -1        71 3.46430E-38-1.62452E-18 2.58641E-19-8.12259E-19 1.45514E-18 1.16344E-18
 -1        72 6.92860E-38 9.12356E-19 9.20393E-20 4.56178E-19-2.79406E-18-2.84622E-18
 -3
    1PSTEP                       112          38           1          
  100CL  138 3.00781E-01          72                     0   38           1
 -4  DISP        4    1
 -5  D1          1    2    1    0
 -5  D2          1    2    2    0
 -5  D3          1    2    3    0
 -5  ALL         1    2    0    0    1ALL
 -1         1 0.00000E+00 0.00000E+00 0.00000E+00
 -1         2 1.00276E-10 0.00000E+00 0.00000E+00
 -1         3 5.26448E-03 0.00000E+00 0.00000E+00
 -1         4 5.26447E-03 0.00000E+00 0.00000E+00
 -1         5 4.29310E-03 0.00000E+00 0.00000E+00
 -1         6 4.29310E-03 0.00000E+00 0.00000E+00
 -1         7 0.00000E+00 1.00276E-10 0.00000E+00
 -1         8 1.00276E-10 1.00276E-10 0.00000E+00
 -1         9 5.26448E-03 7.13772E-09 0.00000E+00
 -1        10 5.26448E-03 6.81395E-09 0.00000E+00
 -1        11 4.29311E-03 6.40339E-09 0.00000E+00
 -1        12 4.29311E-03-7.61537E-09 0.00000E+00
 -1        13 0.00000E+00 5.26448E-03 0.00000E+00
 -1        14 7.13772E-09 5.26448E-03 0.00000E+00
 -1        15 2.54064E-01 2.54064E-01 0.00000E+00
 -1        16 2.54064E-01 2.54064E-01 0.00000E+00
 -1        17 3.84422E-01 1.04779E-01 0.00000E+00
 -1        18 3.84349E-01-1.66591E-01 0.00000E+00
 -1        19 0.00000E+00 5.26447E-03 0.00000E+00
 -1        20 6.81395E-09 5.26448E-03 0.00000E+00
 -1        21 2.54064E-01 2.54064E-01 0.00000E+00
 -1        22 2.54064E-01 2.54064E-01 0.00000E+00
 -1        23 6.55792E-01 1.04705E-01 0.00000E+00
 -1        24 6.55719E-01-1.66665E-01 0.00000E+00
 -1        25 0.00000E+00 4.29310E-03 0.00000E+00
 -1        26 6.40339E-09 4.29311E-03 0.00000E+00
 -1        27 1.04779E-01 3.84422E-01 0.00000E+00
 -1        28 1.04705E-01 6.55792E-01 0.00000E+00
 -1        29-9.02344E+00-9.02344E+00 0.00000E+00
 -1        30-9.02344E+00-9.02344E+00 0.00000E+00
 -1        31 0.00000E+00 4.29310E-03 0.00000E+00
 -1        32-7.61537E-09 4.29311E-03 0.00000E+00
 -1        33-1.66591E-01 3.84349E-01 0.00000E+00
 -1        34-1.66665E-01 6.55719E-01 0.00000E+00
 -1        35-9.02344E+00-9.02344E+00 0.00000E+00
 -1        36-9.02344E+00-9.02344E+00 0.00000E+00
 -1        37 0.00000E+00 0.00000E+00-1.20331E-10
 -1        38 1.00276E-10 0.00000E+00-1.20331E-10
 -1        39 5.26448E-03 0.00000E+00-3.02400E-09
 -1        40 5.26447E-03 0.00000E+00-2.89948E-09
 -1        41 4.29309E-03 0.00000E+00-2.41897E-09
 -1        42 4.29309E-03 0.00000E+00 2.97286E-09
 -1        43 0.00000E+00 1.00276E-10-1.20331E-10
 -1        44 1.00276E-10 1.00276E-10-1.20331E-10
 -1        45 5.26448E-03 7.13772E-09-3.02400E-09
 -1        46 5.26448E-03 6.81395E-09-2.89948E-09
 -1        47 4.29310E-03 6.37895E-09-2.36219E-09
 -1        48 4.29310E-03-7.63981E-09 3.02964E-09
 -1        49 0.00000E+00 5.26448E-03-3.02400E-09
 -1        50 7.13772E-09 5.26448E-03-3.02400E-09
 -1        51 2.54064E-01 2.54064E-01-3.29724E-09
 -1        52 2.54064E-01 2.54064E-01-5.96782E-09
 -1        53 3.84422E-01 1.04779E-01-1.42598E-09
 -1        54 3.84349E-01-1.66591E-01 1.36151E-09
 -1        55 0.00000E+00 5.26447E-03-2.89948E-09
 -1        56 6.81395E-09 5.26448E-03-2.89948E-09
 -1        57 2.54064E-01 2.54064E-01-5.96782E-09
 -1        58 2.54064E-01 2.54064E-01-8.63840E-09
 -1        59 6.55792E-01 1.04705E-01-3.74715E-09
 -1        60 6.55719E-01-1.66665E-01-9.59650E-10
 -1        61 0.00000E+00 4.29309E-03-2.41897E-09
 -1        62 6.37895E-09 4.29310E-03-2.36219E-09
 -1        63 1.04779E-01 3.84422E-01-1.42598E-09
 -1        64 1.04705E-01 6.55792E-01-3.74715E-09
 -1        65-9.02344E+00-9.02344E+00 3.27692E-16
 -1        66-9.02344E+00-9.02344E+00 2.60244E-16
 -1        67 0.00000E+00 4.29309E-03 2.97286E-09
 -1        68-7.63981E-09 4.29310E-03 3.02964E-09
 -1        69-1.66591E-01 3.84349E-01 1.36151E-09
 -1        70-1.66665E-01 6.55719E-01-9.59650E-10
 -1        71-9.02344E+00-9.02344E+00 3.03714E-16
 -1        72-9.02344E+00-9.02344E+00-1.16707E-16
 -3
    1PSTEP                       113          38           1          
  100CL  138 3.00781E-01          72                     0   38           1
 -4  STRESS      6    1
 -5  SXX         1    4    1    1
 -5  SYY         1    4    2    2
 -5  SZZ         1    4    3    3
 -5  SXY         1    4    1    2
 -5  SYZ         1    4    2    3
 -5  SZX         1    4    3    1
 -1         1 6.01630E-08 6.01630E-08-1.09338E-15-4.29935E-20 6.43071E-21 6.42893E-21
 -1         2 3.00815E-08 3.00815E-08 2.84034E-16 6.35255E-16 3.21402E-21-1.41071E-16
 -1         3 2.64901E-08 1.50892E-06 7.04042E-09 3.08911E-08-2.29943E-20-5.02890E-09
 -1         4-1.95905E-09 1.42817E-06-7.04042E-09 3.08911E-08-2.61845E-20-5.02890E-09
 -1         5 6.32506E-07 1.62916E-06 3.15653E-07 5.73774E-07-5.37344E-14-2.18009E-07
 -1         6-1.19862E-06-3.73443E-06-5.88070E-07 1.10591E-06-1.07469E-13-4.34964E-07
 -1         7 3.00815E-08 3.00815E-08 2.83363E-16 6.35702E-16-1.40752E-16 3.21496E-21
 -1         8 2.00543E-08 2.00543E-08 7.42724E-16 8.47319E-16-9.40473E-17-9.38345E-17
 -1         9 1.76601E-08 1.00595E-06 4.69362E-09 3.16060E-09 5.93506E-15-3.35260E-09
 -1        10-1.30600E-09 9.52114E-07-4.69361E-09 3.16061E-09 5.75099E-15-3.35260E-09
 -1        11 3.76364E-07 1.06856E-06 1.97259E-07-3.72336E-07-9.39920E-10-1.45340E-07
 -1        12-6.67272E-07-1.89353E-06-3.13800E-07-5.79324E-07-1.40988E-09-2.17482E-07
 -1        13 1.50892E-06 2.64901E-08 7.04042E-09 3.08911E-08-5.02890E-09-2.31235E-20
 -1        14 1.00595E-06 1.76601E-08 4.69362E-09 3.16060E-09-3.35260E-09 5.92624E-15
 -1        15 2.13972E-07 2.13972E-07-2.01319E-07-1.10969E-07 7.18997E-08 7.18997E-08
 -1        16 6.20719E-07 1.36848E-06 4.00097E-15 2.62910E-07 7.18997E-08 7.18997E-08
 -1        17 2.02060E-07 3.31841E-07 1.75771E-08 2.79424E-07 6.25332E-08-7.50136E-08
 -1        18-3.33213E-07-1.31034E-06-2.88834E-07 9.05942E-07 9.37998E-08-1.12520E-07
 -1        19 1.42817E-06-1.95905E-09-7.04042E-09 3.08911E-08-5.02890E-09-2.63084E-20
 -1        20 9.52114E-07-1.30600E-09-4.69361E-09 3.16061E-09-3.35260E-09 5.74826E-15
 -1        21 1.36848E-06 6.20719E-07 4.82663E-15 2.62910E-07 7.18997E-08 7.18997E-08
 -1        22 1.77522E-06 1.77522E-06 2.01319E-07 6.36789E-07 7.18997E-08 7.18997E-08
 -1        23 1.20509E-06 6.85794E-07 1.92556E-07-1.11175E-07 6.25332E-08-7.50136E-08
 -1        24 1.17133E-06-7.79411E-07-2.63655E-08 3.20043E-07 9.37998E-08-1.12520E-07
 -1        25 1.62916E-06 6.32506E-07 3.15653E-07 5.73774E-07-2.18009E-07-5.37344E-14
 -1        26 1.06856E-06 3.76364E-07 1.97259E-07-3.72336E-07-1.45340E-07-9.39920E-10
 -1        27 3.31841E-07 2.02060E-07 1.75771E-08 2.79424E-07-7.50136E-08 6.25332E-08
 -1        28 6.85794E-07 1.20509E-06 1.92556E-07-1.11175E-07-7.50136E-08 6.25332E-08
 -1        29 4.21861E-14 7.32277E-14 6.73926E-14 1.55208E-14-5.80954E-15-5.80950E-15
 -1        30 7.42063E-14 1.43121E-13 1.04233E-13 3.44573E-14 7.39620E-14 7.39622E-14
 -1        31-3.73443E-06-1.19862E-06-5.88070E-07 1.10591E-06-4.34964E-07-1.07469E-13
 -1        32-1.89353E-06-6.67272E-07-3.13800E-07-5.79324E-07-2.17482E-07-1.40988E-09
 -1        33-1.31034E-06-3.33213E-07-2.88834E-07 9.05942E-07-1.12520E-07 9.37998E-08
 -1        34-7.79411E-07 1.17133E-06-2.63655E-08 3.20043E-07-1.12520E-07 9.37998E-08
 -1        35 7.90836E-14 1.49485E-13 1.14126E-13 3.52009E-14 6.38013E-14 6.38013E-14
 -1        36-5.02852E-14-9.03987E-14-7.72188E-14-2.00567E-14-4.98430E-13-4.98430E-13
 -1        37 6.01630E-08 6.01630E-08-2.27706E-15-4.29911E-20-9.82842E-17-9.82842E-17
 -1        38 3.00815E-08 3.00815E-08-3.08478E-16 6.35702E-16-4.91421E-17-1.90216E-16
 -1        39 2.64900E-08 1.50892E-06 7.04042E-09 3.08911E-08-7.22706E-15 5.02889E-09
 -1        40-1.95908E-09 1.42817E-06-7.04042E-09 3.08911E-08-7.84887E-15 5.02888E-09
 -1        41 6.32129E-07 1.62335E-06 3.13800E-07 5.73774E-07 4.58675E-09 2.17482E-07
 -1        42-1.19938E-06-3.74604E-06-5.91776E-07 1.10591E-06 9.17349E-09 4.36019E-07
 -1        43 3.00815E-08 3.00815E-08-3.07808E-16 6.35255E-16-1.89897E-16-4.91421E-17
 -1        44 2.00543E-08 2.00543E-08 3.48163E-16 8.47319E-16-1.26811E-16-1.26598E-16
 -1        45 1.76601E-08 1.00595E-06 4.69362E-09 3.16060E-09 1.11703E-15 3.35259E-09
 -1        46-1.30602E-09 9.52114E-07-4.69361E-09 3.16061E-09 5.18419E-16 3.35259E-09
 -1        47 3.76113E-07 1.06469E-06 1.96023E-07-3.72336E-07 2.11795E-09 1.44988E-07
 -1        48-6.67649E-07-1.89934E-06-3.15653E-07-5.79324E-07 3.17692E-09 2.18009E-07
 -1        49 1.50892E-06 2.64900E-08 7.04042E-09 3.08911E-08 5.02889E-09-7.20445E-15
 -1        50 1.00595E-06 1.76601E-08 4.69362E-09 3.16060E-09 3.35259E-09 1.12328E-15
 -1        51 2.13972E-07 2.13972E-07-2.01319E-07-1.10969E-07-7.18997E-08-7.18997E-08
 -1        52 6.20719E-07 1.36848E-06-5.91822E-15 2.62910E-07-7.18997E-08-7.18997E-08
 -1        53 2.02060E-07 3.31841E-07 1.75771E-08 2.79424E-07-6.25332E-08 7.50136E-08
 -1        54-3.33213E-07-1.31034E-06-2.88834E-07 9.05942E-07-9.37998E-08 1.12520E-07
 -1        55 1.42817E-06-1.95908E-09-7.04042E-09 3.08911E-08 5.02888E-09-7.83932E-15
 -1        56 9.52114E-07-1.30602E-09-4.69361E-09 3.16061E-09 3.35259E-09 5.22053E-16
 -1        57 1.36848E-06 6.20719E-07-4.68208E-15 2.62910E-07-7.18998E-08-7.18997E-08
 -1        58 1.77522E-06 1.77522E-06 2.01319E-07 6.36789E-07-7.18997E-08-7.18997E-08
 -1        59 1.20509E-06 6.85794E-07 1.92556E-07-1.11175E-07-6.25332E-08 7.50136E-08
 -1        60 1.17133E-06-7.79411E-07-2.63655E-08 3.20043E-07-9.37998E-08 1.12520E-07
 -1        61 1.62335E-06 6.32129E-07 3.13800E-07 5.73774E-07 2.17482E-07 4.58675E-09
 -1        62 1.06469E-06 3.76113E-07 1.96023E-07-3.72336E-07 1.44988E-07 2.11795E-09
 -1        63 3.31841E-07 2.02060E-07 1.75771E-08 2.79424E-07 7.50136E-08-6.25332E-08
 -1        64 6.85794E-07 1.20509E-06 1.92556E-07-1.11175E-07 7.50136E-08-6.25332E-08
 -1        65-7.83374E-14-2.07994E-13-5.31310E-14-6.48282E-14-5.11511E-14-5.34917E-14
 -1        66-1.12375E-13-2.92235E-13-8.23477E-14-8.99302E-14 9.40267E-14 1.19025E-13
 -1        67-3.74604E-06-1.19938E-06-5.91776E-07 1.10591E-06 4.36019E-07 9.17349E-09
 -1        68-1.89934E-06-6.67649E-07-3.15653E-07-5.79324E-07 2.18009E-07 3.17692E-09
 -1        69-1.31034E-06-3.33213E-07-2.88834E-07 9.05942E-07 1.12520E-07-9.37998E-08
 -1        70-7.79411E-07 1.17133E-06-2.63655E-08 3.20043E-07 1.12520E-07-9.37998E-08
 -1        71-1.66607E-13-4.23792E-13-1.31564E-13-1.28593E-13-1.89785E-14-5.09985E-14
 -1        72 6.10168E-14 1.69306E-13 3.40833E-14 5.41446E-14 1.49190E-13 1.42168E-13
 -3
    1PSTEP                       114          38           1          
  100CL  138 3.00781E-01          72                     0   38           1
 -4  TOSTRAIN    6    1
 -5  EXX         1    4    1    1
 -5  EYY         1    4    2    2
 -5  EZZ         1    4    3    3
 -5  EXY         1    4    1    2
 -5  EYZ         1    4    2    3
 -5  EZX         1    4    3    1
 -1         1 2.00543E-13 2.00543E-13-1.71894E-13-2.66150E-25 3.98092E-26 3.97982E-26
 -1         2 1.00272E-13 1.00272E-13-8.59472E-14 3.93253E-21 1.98963E-26-8.73297E-22
 -1         3-2.03952E-12 7.13744E-12-2.15992E-12 1.91231E-13-1.42345E-25-3.11313E-14
 -1         4-2.03952E-12 6.81367E-12-2.07097E-12 1.91231E-13-1.62094E-25-3.11313E-14
 -1         5 2.33634E-13 6.40337E-12-1.72784E-12 3.55193E-12-3.32642E-19-1.34958E-12
 -1         6 4.67268E-13-1.52306E-11 4.24689E-12 6.84608E-12-6.65282E-19-2.69263E-12
 -1         7 1.00272E-13 1.00272E-13-8.59472E-14 3.93530E-21-8.71320E-22 1.99021E-26
 -1         8 6.68478E-14 6.68478E-14-5.72981E-14 5.24531E-21-5.82198E-22-5.80880E-22
 -1         9-1.35968E-12 4.75829E-12-1.43995E-12 1.95656E-14 3.67408E-20-2.07542E-14
 -1        10-1.35968E-12 4.54245E-12-1.38065E-12 1.95657E-14 3.56014E-20-2.07542E-14
 -1        11-1.61014E-14 4.26891E-12-1.12485E-12-2.30493E-12-5.81855E-15-8.99721E-13
 -1        12-2.41521E-14-7.61530E-12 2.16401E-12-3.58629E-12-8.72783E-15-1.34632E-12
 -1        13 7.13744E-12-2.03952E-12-2.15992E-12 1.91231E-13-3.11313E-14-1.43145E-25
 -1        14 4.75829E-12-1.35968E-12-1.43995E-12 1.95656E-14-2.07542E-14 3.66862E-20
 -1        15 1.00084E-12 1.00084E-12-1.57001E-12-6.86950E-13 4.45094E-13 4.45094E-13
 -1        16 1.00084E-12 5.62981E-12-2.84171E-12 1.62754E-12 4.45094E-13 4.45094E-13
 -1        17 4.61144E-13 1.26831E-12-6.79016E-13 1.72933E-12 3.86858E-13-4.64580E-13
 -1        18 6.91716E-13-5.34499E-12 9.72533E-13 5.61149E-12 5.80287E-13-6.96870E-13
 -1        19 6.81367E-12-2.03952E-12-2.07097E-12 1.91231E-13-3.11313E-14-1.62861E-25
 -1        20 4.54245E-12-1.35968E-12-1.38065E-12 1.95657E-14-2.07542E-14 3.55845E-20
 -1        21 5.62981E-12 1.00084E-12-2.84171E-12 1.62754E-12 4.45094E-13 4.45094E-13
 -1        22 5.62981E-12 5.62981E-12-4.11340E-12 3.94202E-12 4.45094E-13 4.45094E-13
 -1        23 4.48447E-12 1.26831E-12-1.78433E-12-6.86483E-13 3.86858E-13-4.64580E-13
 -1        24 6.72671E-12-5.34499E-12-6.85431E-13 1.98777E-12 5.80287E-13-6.96870E-13
 -1        25 6.40337E-12 2.33634E-13-1.72784E-12 3.55193E-12-1.34958E-12-3.32642E-19
 -1        26 4.26891E-12-1.61014E-14-1.12485E-12-2.30493E-12-8.99721E-13-5.81855E-15
 -1        27 1.26831E-12 4.61144E-13-6.79016E-13 1.72933E-12-4.64580E-13 3.86858E-13
 -1        28 1.26831E-12 4.48447E-12-1.78433E-12-6.86483E-13-4.64580E-13 3.86858E-13
 -1        29 1.80102E-39 1.92163E-19 1.56040E-19 9.60813E-20-3.59638E-20-3.59636E-20
 -1        30 2.70153E-39 4.26614E-19 1.85883E-19 2.13307E-19 4.57860E-19 4.57861E-19
 -1        31-1.52306E-11 4.67268E-13 4.24689E-12 6.84608E-12-2.69263E-12-6.65282E-19
 -1        32-7.61530E-12-2.41521E-14 2.16401E-12-3.58629E-12-1.34632E-12-8.72783E-15
 -1        33-5.34499E-12 6.91716E-13 9.72533E-13 5.61149E-12-6.96870E-13 5.80287E-13
 -1        34-5.34499E-12 6.72671E-12-6.85431E-13 1.98777E-12-6.96870E-13 5.80287E-13
 -1        35-2.59984E-38 4.35821E-19 2.16932E-19 2.17911E-19 3.94961E-19 3.94960E-19
 -1        36-5.19969E-38-2.48321E-19-1.66732E-19-1.24161E-19-3.08552E-18-3.08552E-18
 -1        37 2.00543E-13 2.00543E-13-1.71894E-13-2.66135E-25-6.08426E-22-6.08426E-22
 -1        38 1.00272E-13 1.00272E-13-8.59472E-14 3.93530E-21-3.04213E-22-1.17753E-21
 -1        39-2.03952E-12 7.13744E-12-2.15992E-12 1.91231E-13-4.47390E-20 3.11312E-14
 -1        40-2.03952E-12 6.81367E-12-2.07097E-12 1.91231E-13-4.85883E-20 3.11312E-14
 -1        41 2.42775E-13 6.37893E-12-1.72784E-12 3.55193E-12 2.83941E-14 1.34632E-12
 -1        42 4.85549E-13-1.52795E-11 4.24689E-12 6.84608E-12 5.67883E-14 2.69916E-12
 -1        43 1.00272E-13 1.00272E-13-8.59472E-14 3.93253E-21-1.17555E-21-3.04213E-22
 -1        44 6.68478E-14 6.68478E-14-5.72981E-14 5.24531E-21-7.85020E-22-7.83702E-22
 -1        45-1.35968E-12 4.75829E-12-1.43995E-12 1.95656E-14 6.91495E-21 2.07542E-14
 -1        46-1.35968E-12 4.54245E-12-1.38065E-12 1.95657E-14 3.20927E-21 2.07541E-14
 -1        47-1.00078E-14 4.25262E-12-1.12485E-12-2.30493E-12 1.31111E-14 8.97545E-13
 -1        48-1.50117E-14-7.63974E-12 2.16401E-12-3.58629E-12 1.96666E-14 1.34958E-12
 -1        49 7.13744E-12-2.03952E-12-2.15992E-12 1.91231E-13 3.11312E-14-4.45990E-20
 -1        50 4.75829E-12-1.35968E-12-1.43995E-12 1.95656E-14 2.07542E-14 6.95367E-21
 -1        51 1.00084E-12 1.00084E-12-1.57001E-12-6.86950E-13-4.45094E-13-4.45094E-13
 -1        52 1.00084E-12 5.62981E-12-2.84171E-12 1.62754E-12-4.45094E-13-4.45094E-13
 -1        53 4.61144E-13 1.26831E-12-6.79016E-13 1.72933E-12-3.86858E-13 4.64580E-13
 -1        54 6.91716E-13-5.34499E-12 9.72533E-13 5.61149E-12-5.80288E-13 6.96870E-13
 -1        55 6.81367E-12-2.03952E-12-2.07097E-12 1.91231E-13 3.11312E-14-4.85292E-20
 -1        56 4.54245E-12-1.35968E-12-1.38065E-12 1.95657E-14 2.07541E-14 3.23176E-21
 -1        57 5.62981E-12 1.00084E-12-2.84171E-12 1.62754E-12-4.45094E-13-4.45094E-13
 -1        58 5.62981E-12 5.62981E-12-4.11340E-12 3.94202E-12-4.45094E-13-4.45094E-13
 -1        59 4.48447E-12 1.26831E-12-1.78433E-12-6.86483E-13-3.86858E-13 4.64580E-13
 -1        60 6.72671E-12-5.34499E-12-6.85431E-13 1.98777E-12-5.80288E-13 6.96870E-13
 -1        61 6.37893E-12 2.42775E-13-1.72784E-12 3.55193E-12 1.34632E-12 2.83941E-14
 -1        62 4.25262E-12-1.00078E-14-1.12485E-12-2.30493E-12 8.97545E-13 1.31111E-14
 -1        63 1.26831E-12 4.61144E-13-6.79016E-13 1.72933E-12 4.64580E-13-3.86858E-13
 -1        64 1.26831E-12 4.48447E-12-1.78433E-12-6.86483E-13 4.64580E-13-3.86858E-13
 -1        65-9.00906E-39-8.02635E-19 1.56040E-19-4.01317E-19-3.16650E-19-3.31139E-19
 -1        66-1.35136E-38-1.11342E-18 1.85883E-19-5.56711E-19 5.82070E-19 7.36821E-19
 -1        67-1.52795E-11 4.85549E-13 4.24689E-12 6.84608E-12 2.69916E-12 5.67883E-14
 -1        68-7.63974E-12-1.50117E-14 2.16401E-12-3.58629E-12 1.34958E-12 1.96666E-14
 -1        69-5.34499E-12 6.91716E-13 9.72533E-13 5.61149E-12 6.96870E-13-5.80288E-13
 -1        70-5.34499E-12 6.72671E-12-6.85431E-13 1.98777E-12 6.96870E-13-5.80288E-13
 -1        71 1.29989E-37-1.59210E-18 2.16932E-19-7.96049E-19-1.17486E-19-3.15705E-19
 -1        72 2.59977E-37 6.70362E-19-1.66732E-19 3.35181E-19 9.23556E-19 8.80087E-19
 -3
    1PSTEP                       115          39           1          
  100CL  139 3.09781E-01          72                     0   39           1
 -4  DISP        4    1
 -5  D1          1    2    1    0
 -5  D2          1    2    2    0
 -5  D3          1    2    3    0
 -5  ALL         1    2    0    0    1ALL
 -1         1 0.00000E+00 0.00000E+00 0.00000E+00
 -1         2 5.88909E-11 0.00000E+00 0.00000E+00
 -1         3 3.09177E-03 0.00000E+00 0.00000E+00
 -1         4 3.09177E-03 0.00000E+00 0.00000E+00
 -1         5 2.71496E-03 0.00000E+00 0.00000E+00
 -1         6 2.71496E-03 0.00000E+00 0.00000E+00
 -1         7 0.00000E+00 5.88909E-11 0.00000E+00
 -1         8 5.88909E-11 5.88909E-11 0.00000E+00
 -1         9 3.09177E-03 5.25939E-09 0.00000E+00
 -1        10 3.09177E-03 5.07930E-09 0.00000E+00
 -1        11 2.71497E-03 4.82517E-09 0.00000E+00
 -1        12 2.71497E-03-5.45847E-09 0.00000E+00
 -1        13 0.00000E+00 3.09177E-03 0.00000E+00
 -1        14 5.25939E-09 3.09177E-03 0.00000E+00
 -1        15 1.88722E-01 1.88722E-01 0.00000E+00
 -1        16 1.88722E-01 1.88722E-01 0.00000E+00
 -1        17 2.84755E-01 8.29540E-02 0.00000E+00
 -1        18 2.84715E-01-1.15647E-01 0.00000E+00
 -1        19 0.00000E+00 3.09177E-03 0.00000E+00
 -1        20 5.07930E-09 3.09177E-03 0.00000E+00
 -1        21 1.88722E-01 1.88722E-01 0.00000E+00
 -1        22 1.88722E-01 1.88722E-01 0.00000E+00
 -1        23 4.83356E-01 8.29146E-02 0.00000E+00
 -1        24 4.83316E-01-1.15686E-01 0.00000E+00
 -1        25 0.00000E+00 2.71496E-03 0.00000E+00
 -1        26 4.82517E-09 2.71497E-03 0.00000E+00
 -1        27 8.29540E-02 2.84755E-01 0.00000E+00
 -1        28 8.29146E-02 4.83356E-01 0.00000E+00
 -1        29-9.29344E+00-9.29344E+00 0.00000E+00
 -1        30-9.29344E+00-9.29344E+00 0.00000E+00
 -1        31 0.00000E+00 2.71496E-03 0.00000E+00
 -1        32-5.45847E-09 2.71497E-03 0.00000E+00
 -1        33-1.15647E-01 2.84715E-01 0.00000E+00
 -1        34-1.15686E-01 4.83316E-01 0.00000E+00
 -1        35-9.29344E+00-9.29344E+00 0.00000E+00
 -1        36-9.29344E+00-9.29344E+00 0.00000E+00
 -1        37 0.00000E+00 0.00000E+00-7.06690E-11
 -1        38 5.88909E-11 0.00000E+00-7.06690E-11
 -1        39 3.09177E-03 0.00000E+00-2.22593E-09
 -1        40 3.09177E-03 0.00000E+00-2.15666E-09
 -1        41 2.71496E-03 0.00000E+00-1.83359E-09
 -1        42 2.71496E-03 0.00000E+00 2.12166E-09
 -1        43 0.00000E+00 5.88909E-11-7.06690E-11
 -1        44 5.88909E-11 5.88909E-11-7.06690E-11
 -1        45 3.09177E-03 5.25939E-09-2.22593E-09
 -1        46 3.09177E-03 5.07930E-09-2.15666E-09
 -1        47 2.71496E-03 4.81192E-09-1.80281E-09
 -1        48 2.71496E-03-5.47171E-09 2.15243E-09
 -1        49 0.00000E+00 3.09177E-03-2.22593E-09
 -1        50 5.25939E-09 3.09177E-03-2.22593E-09
 -1        51 1.88722E-01 1.88722E-01-2.44020E-09
 -1        52 1.88722E-01 1.88722E-01-4.40277E-09
 -1        53 2.84755E-01 8.29540E-02-1.07103E-09
 -1        54 2.84715E-01-1.15647E-01 9.58515E-10
 -1        55 0.00000E+00 3.09177E-03-2.15666E-09
 -1        56 5.07930E-09 3.09177E-03-2.15666E-09
 -1        57 1.88722E-01 1.88722E-01-4.40277E-09
 -1        58 1.88722E-01 1.88722E-01-6.36533E-09
 -1        59 4.83356E-01 8.29146E-02-2.85020E-09
 -1        60 4.83316E-01-1.15686E-01-8.20655E-10
 -1        61 0.00000E+00 2.71496E-03-1.83359E-09
 -1        62 4.81192E-09 2.71496E-03-1.80281E-09
 -1        63 8.29540E-02 2.84755E-01-1.07103E-09
 -1        64 8.29146E-02 4.83356E-01-2.85020E-09
 -1        65-9.29344E+00-9.29344E+00 4.98360E-16
 -1        66-9.29344E+00-9.29344E+00 5.34519E-17
 -1        67 0.00000E+00 2.71496E-03 2.12166E-09
 -1        68-5.47171E-09 2.71496E-03 2.15243E-09
 -1        69-1.15647E-01 2.84715E-01 9.58515E-10
 -1        70-1.15686E-01 4.83316E-01-8.20655E-10
 -1        71-9.29344E+00-9.29344E+00 2.27331E-16
 -1        72-9.29344E+00-9.29344E+00 2.36844E-17
 -3
    1PSTEP                       116          39           1          
  100CL  139 3.09781E-01          72                     0   39           1
 -4  STRESS      6    1
 -5  SXX         1    4    1    1
 -5  SYY         1    4    2    2
 -5  SZZ         1    4    3    3
 -5  SXY         1    4    1    2
 -5  SYZ         1    4    2    3
 -5  SZX         1    4    3    1
 -1         1 3.53331E-08 3.53331E-08-6.05856E-16-2.38548E-20 3.55359E-21 3.55401E-21
 -1         2 1.76665E-08 1.76665E-08 1.59640E-16 3.52598E-16 1.77786E-21-7.85546E-17
 -1         3 1.56689E-08 1.11030E-06 3.91610E-09 1.71826E-08-1.59341E-20-2.79723E-09
 -1         4-1.55415E-10 1.06539E-06-3.91610E-09 1.71826E-08-1.76708E-20-2.79724E-09
 -1         5 4.61229E-07 1.22049E-06 2.29480E-07 4.19863E-07-2.91197E-14-1.59873E-07
 -1         6-8.84773E-07-2.68863E-06-4.35529E-07 8.17160E-07-5.82393E-14-3.19174E-07
 -1         7 1.76665E-08 1.76665E-08 1.59640E-16 3.52598E-16-7.85546E-17 1.77765E-21
 -1         8 1.17777E-08 1.17777E-08 4.14805E-16 4.70138E-16-5.23698E-17-5.23697E-17
 -1         9 1.04459E-08 7.40203E-07 2.61073E-09 1.75802E-09 4.30994E-15-1.86482E-09
 -1        10-1.03588E-10 7.10259E-07-2.61073E-09 1.75803E-09 4.21682E-15-1.86482E-09
 -1        11 2.82934E-07 8.04155E-07 1.45846E-07-2.73822E-07-5.09359E-10-1.06582E-07
 -1        12-4.79215E-07-1.35858E-06-2.28475E-07-4.22016E-07-7.64039E-10-1.59587E-07
 -1        13 1.11030E-06 1.56689E-08 3.91610E-09 1.71826E-08-2.79723E-09-1.59521E-20
 -1        14 7.40203E-07 1.04459E-08 2.61073E-09 1.75802E-09-1.86482E-09 4.30893E-15
 -1        15 1.60096E-07 1.60096E-07-1.47946E-07-8.28870E-08 5.28379E-08 5.28379E-08
 -1        16 4.59008E-07 1.00852E-06 3.34913E-15 1.91870E-07 5.28379E-08 5.28379E-08
 -1        17 1.34343E-07 2.54113E-07 9.43727E-09 2.00116E-07 4.79221E-08-5.46223E-08
 -1        18-2.61860E-07-9.35203E-07-2.15338E-07 6.73459E-07 7.18832E-08-8.19335E-08
 -1        19 1.06539E-06-1.55415E-10-3.91610E-09 1.71826E-08-2.79724E-09-1.77044E-20
 -1        20 7.10259E-07-1.03588E-10-2.61073E-09 1.75803E-09-1.86482E-09 4.21694E-15
 -1        21 1.00852E-06 4.59007E-07-6.25337E-15 1.91870E-07 5.28379E-08 5.28379E-08
 -1        22 1.30743E-06 1.30743E-06 1.47946E-07 4.66628E-07 5.28379E-08 5.28379E-08
 -1        23 9.03261E-07 5.25318E-07 1.43559E-07-8.42164E-08 4.79222E-08-5.46223E-08
 -1        24 8.91518E-07-5.28395E-07-1.41559E-08 2.46960E-07 7.18832E-08-8.19335E-08
 -1        25 1.22049E-06 4.61229E-07 2.29480E-07 4.19863E-07-1.59873E-07-2.91197E-14
 -1        26 8.04155E-07 2.82934E-07 1.45846E-07-2.73822E-07-1.06582E-07-5.09359E-10
 -1        27 2.54113E-07 1.34343E-07 9.43726E-09 2.00116E-07-5.46223E-08 4.79221E-08
 -1        28 5.25318E-07 9.03261E-07 1.43559E-07-8.42164E-08-5.46223E-08 4.79221E-08
 -1        29 7.04773E-14 1.26112E-13 1.08812E-13 2.78175E-14-1.79532E-14-1.79530E-14
 -1        30-4.69474E-14-1.15711E-13-4.07806E-14-3.43816E-14 1.76281E-14 1.76283E-14
 -1        31-2.68863E-06-8.84773E-07-4.35529E-07 8.17160E-07-3.19174E-07-5.82393E-14
 -1        32-1.35858E-06-4.79215E-07-2.28475E-07-4.22016E-07-1.59587E-07-7.64039E-10
 -1        33-9.35203E-07-2.61860E-07-2.15338E-07 6.73459E-07-8.19335E-08 7.18832E-08
 -1        34-5.28395E-07 8.91518E-07-1.41559E-08 2.46960E-07-8.19334E-08 7.18832E-08
 -1        35 5.13737E-14 9.36425E-14 7.76033E-14 2.11344E-14 6.05535E-14 6.05539E-14
 -1        36 1.31508E-13 3.01388E-13 1.36972E-13 8.49399E-14-4.07571E-13-4.07571E-13
 -1        37 3.53331E-08 3.53331E-08-1.26573E-15-2.38539E-20-5.30741E-17-5.30741E-17
 -1        38 1.76665E-08 1.76665E-08-1.70297E-16 3.52598E-16-2.65370E-17-1.05093E-16
 -1        39 1.56688E-08 1.11030E-06 3.91610E-09 1.71826E-08-5.29435E-15 2.79723E-09
 -1        40-1.55434E-10 1.06539E-06-3.91610E-09 1.71826E-08-5.65119E-15 2.79722E-09
 -1        41 4.61025E-07 1.21735E-06 2.28475E-07 4.19863E-07 2.48564E-09 1.59587E-07
 -1        42-8.85181E-07-2.69492E-06-4.37538E-07 8.17160E-07 4.97128E-09 3.19746E-07
 -1        43 1.76665E-08 1.76665E-08-1.70297E-16 3.52598E-16-1.05093E-16-2.65370E-17
 -1        44 1.17777E-08 1.17777E-08 1.94847E-16 4.70138E-16-7.00623E-17-7.00623E-17
 -1        45 1.04459E-08 7.40203E-07 2.61073E-09 1.75803E-09 7.80381E-16 1.86482E-09
 -1        46-1.03601E-10 7.10259E-07-2.61073E-09 1.75803E-09 4.49365E-16 1.86481E-09
 -1        47 2.82798E-07 8.02059E-07 1.45176E-07-2.73822E-07 1.14775E-09 1.06391E-07
 -1        48-4.79419E-07-1.36172E-06-2.29480E-07-4.22016E-07 1.72163E-09 1.59873E-07
 -1        49 1.11030E-06 1.56688E-08 3.91610E-09 1.71826E-08 2.79723E-09-5.29540E-15
 -1        50 7.40203E-07 1.04459E-08 2.61073E-09 1.75803E-09 1.86482E-09 7.78670E-16
 -1        51 1.60096E-07 1.60096E-07-1.47946E-07-8.28870E-08-5.28379E-08-5.28379E-08
 -1        52 4.59007E-07 1.00852E-06-4.80408E-15 1.91870E-07-5.28379E-08-5.28380E-08
 -1        53 1.34343E-07 2.54113E-07 9.43726E-09 2.00116E-07-4.79222E-08 5.46223E-08
 -1        54-2.61860E-07-9.35203E-07-2.15338E-07 6.73459E-07-7.18832E-08 8.19335E-08
 -1        55 1.06539E-06-1.55435E-10-3.91610E-09 1.71826E-08 2.79722E-09-5.64547E-15
 -1        56 7.10259E-07-1.03601E-10-2.61073E-09 1.75803E-09 1.86481E-09 4.53301E-16
 -1        57 1.00852E-06 4.59008E-07 1.19165E-15 1.91870E-07-5.28379E-08-5.28379E-08
 -1        58 1.30743E-06 1.30743E-06 1.47946E-07 4.66628E-07-5.28380E-08-5.28380E-08
 -1        59 9.03261E-07 5.25318E-07 1.43559E-07-8.42164E-08-4.79221E-08 5.46223E-08
 -1        60 8.91518E-07-5.28395E-07-1.41559E-08 2.46960E-07-7.18832E-08 8.19335E-08
 -1        61 1.21735E-06 4.61025E-07 2.28475E-07 4.19863E-07 1.59587E-07 2.48564E-09
 -1        62 8.02059E-07 2.82798E-07 1.45176E-07-2.73822E-07 1.06391E-07 1.14775E-09
 -1        63 2.54113E-07 1.34343E-07 9.43726E-09 2.00116E-07 5.46223E-08-4.79221E-08
 -1        64 5.25318E-07 9.03261E-07 1.43559E-07-8.42164E-08 5.46223E-08-4.79221E-08
 -1        65-1.29747E-13-3.41076E-13-9.14119E-14-1.05665E-13 3.66134E-14 2.72509E-14
 -1        66 2.12646E-13 4.90007E-13 2.18813E-13 1.38681E-13 2.02328E-14-1.32973E-14
 -1        67-2.69492E-06-8.85181E-07-4.37538E-07 8.17160E-07 3.19746E-07 4.97128E-09
 -1        68-1.36172E-06-4.79419E-07-2.29480E-07-4.22016E-07 1.59873E-07 1.72163E-09
 -1        69-9.35203E-07-2.61860E-07-2.15338E-07 6.73459E-07 8.19334E-08-7.18832E-08
 -1        70-5.28395E-07 8.91518E-07-1.41559E-08 2.46960E-07 8.19335E-08-7.18832E-08
 -1        71-8.30936E-14-2.20115E-13-5.68640E-14-6.85105E-14-8.76816E-14-8.22390E-14
 -1        72-5.87382E-13-1.37602E-12-5.81918E-13-3.94320E-13 3.20515E-13 2.92427E-13
 -3
    1PSTEP                       117          39           1          
  100CL  139 3.09781E-01          72                     0   39           1
 -4  TOSTRAIN    6    1
 -5  EXX         1    4    1    1
 -5  EYY         1    4    2    2
 -5  EZZ         1    4    3    3
 -5  EXY         1    4    1    2
 -5  EYZ         1    4    2    3
 -5  EZX         1    4    3    1
 -1         1 1.17777E-13 1.17777E-13-1.00952E-13-1.47673E-25 2.19984E-26 2.20010E-26
 -1         2 5.88885E-14 5.88885E-14-5.04758E-14 2.18275E-21 1.10058E-26-4.86291E-22
 -1         3-1.51713E-12 5.25919E-12-1.58989E-12 1.06368E-13-9.86399E-26-1.73162E-14
 -1         4-1.51713E-12 5.07910E-12-1.54041E-12 1.06369E-13-1.09391E-25-1.73162E-14
 -1         5 1.24940E-13 4.82515E-12-1.30970E-12 2.59915E-12-1.80265E-19-9.89690E-13
 -1         6 2.49879E-13-1.09169E-11 3.03091E-12 5.05861E-12-3.60529E-19-1.97584E-12
 -1         7 5.88885E-14 5.88885E-14-5.04758E-14 2.18275E-21-4.86290E-22 1.10045E-26
 -1         8 3.92590E-14 3.92590E-14-3.36506E-14 2.91038E-21-3.24194E-22-3.24194E-22
 -1         9-1.01142E-12 3.50612E-12-1.05992E-12 1.08830E-14 2.66806E-20-1.15441E-14
 -1        10-1.01142E-12 3.38606E-12-1.02694E-12 1.08831E-14 2.61041E-20-1.15442E-14
 -1        11-9.83958E-15 3.21676E-12-8.58479E-13-1.69509E-12-3.15318E-15-6.59793E-13
 -1        12-1.47594E-14-5.45843E-12 1.53744E-12-2.61248E-12-4.72976E-15-9.87921E-13
 -1        13 5.25919E-12-1.51713E-12-1.58989E-12 1.06368E-13-1.73162E-14-9.87510E-26
 -1        14 3.50612E-12-1.01142E-12-1.05992E-12 1.08830E-14-1.15441E-14 2.66743E-20
 -1        15 7.45004E-13 7.45004E-13-1.16192E-12-5.13110E-13 3.27092E-13 3.27092E-13
 -1        16 7.45004E-13 4.14676E-12-2.09647E-12 1.18777E-12 3.27092E-13 3.27092E-13
 -1        17 2.62242E-13 1.00565E-12-5.09997E-13 1.23852E-12 2.96527E-13-3.38256E-13
 -1        18 3.93363E-13-3.76832E-12 6.84672E-13 4.17069E-12 4.44790E-13-5.07384E-13
 -1        19 5.07910E-12-1.51713E-12-1.54041E-12 1.06369E-13-1.73162E-14-1.09599E-25
 -1        20 3.38606E-12-1.01142E-12-1.02694E-12 1.08831E-14-1.15442E-14 2.61049E-20
 -1        21 4.14676E-12 7.45004E-13-2.09647E-12 1.18777E-12 3.27092E-13 3.27092E-13
 -1        22 4.14676E-12 4.14676E-12-3.03102E-12 2.88865E-12 3.27092E-13 3.27092E-13
 -1        23 3.34612E-12 1.00565E-12-1.35722E-12-5.20410E-13 2.96527E-13-3.38256E-13
 -1        24 5.01918E-12-3.76832E-12-5.86156E-13 1.53229E-12 4.44790E-13-5.07384E-13
 -1        25 4.82515E-12 1.24940E-13-1.30970E-12 2.59915E-12-9.89690E-13-1.80265E-19
 -1        26 3.21676E-12-9.83958E-15-8.58479E-13-1.69509E-12-6.59793E-13-3.15318E-15
 -1        27 1.00565E-12 2.62242E-13-5.09997E-13 1.23852E-12-3.38256E-13 2.96527E-13
 -1        28 1.00565E-12 3.34612E-12-1.35722E-12-5.20410E-13-3.38256E-13 2.96527E-13
 -1        29-2.09163E-38 3.44408E-19 2.37309E-19 1.72204E-19-1.11139E-19-1.11138E-19
 -1        30-3.13744E-38-4.25677E-19 3.81751E-20-2.12839E-19 1.09126E-19 1.09127E-19
 -1        31-1.09169E-11 2.49880E-13 3.03091E-12 5.05861E-12-1.97584E-12-3.60529E-19
 -1        32-5.45843E-12-1.47594E-14 1.53744E-12-2.61248E-12-9.87921E-13-4.72976E-15
 -1        33-3.76832E-12 3.93364E-13 6.84672E-13 4.17069E-12-5.07384E-13 4.44790E-13
 -1        34-3.76832E-12 5.01918E-12-5.86156E-13 1.53229E-12-5.07384E-13 4.44790E-13
 -1        35-5.29660E-39 2.61664E-19 1.62374E-19 1.30832E-19 3.74855E-19 3.74857E-19
 -1        36-1.05932E-38 1.05164E-18 3.38243E-20 5.25819E-19-2.52306E-18-2.52306E-18
 -1        37 1.17777E-13 1.17777E-13-1.00952E-13-1.47667E-25-3.28554E-22-3.28554E-22
 -1        38 5.88885E-14 5.88885E-14-5.04758E-14 2.18275E-21-1.64277E-22-6.50578E-22
 -1        39-1.51713E-12 5.25919E-12-1.58989E-12 1.06368E-13-3.27746E-20 1.73162E-14
 -1        40-1.51713E-12 5.07910E-12-1.54041E-12 1.06369E-13-3.49836E-20 1.73161E-14
 -1        41 1.29893E-13 4.81190E-12-1.30970E-12 2.59915E-12 1.53873E-14 9.87921E-13
 -1        42 2.59786E-13-1.09433E-11 3.03091E-12 5.05861E-12 3.07746E-14 1.97938E-12
 -1        43 5.88885E-14 5.88885E-14-5.04758E-14 2.18275E-21-6.50578E-22-1.64277E-22
 -1        44 3.92590E-14 3.92590E-14-3.36506E-14 2.91038E-21-4.33719E-22-4.33719E-22
 -1        45-1.01142E-12 3.50612E-12-1.05992E-12 1.08830E-14 4.83094E-21 1.15441E-14
 -1        46-1.01142E-12 3.38606E-12-1.02694E-12 1.08831E-14 2.78179E-21 1.15441E-14
 -1        47-6.53734E-15 3.20794E-12-8.58479E-13-1.69509E-12 7.10515E-15 6.58614E-13
 -1        48-9.80602E-15-5.47167E-12 1.53744E-12-2.61248E-12 1.06577E-14 9.89690E-13
 -1        49 5.25919E-12-1.51713E-12-1.58989E-12 1.06368E-13 1.73162E-14-3.27811E-20
 -1        50 3.50612E-12-1.01142E-12-1.05992E-12 1.08830E-14 1.15441E-14 4.82034E-21
 -1        51 7.45004E-13 7.45004E-13-1.16192E-12-5.13110E-13-3.27092E-13-3.27092E-13
 -1        52 7.45004E-13 4.14676E-12-2.09647E-12 1.18777E-12-3.27092E-13-3.27092E-13
 -1        53 2.62242E-13 1.00565E-12-5.09997E-13 1.23852E-12-2.96527E-13 3.38256E-13
 -1        54 3.93363E-13-3.76832E-12 6.84672E-13 4.17069E-12-4.44790E-13 5.07384E-13
 -1        55 5.07910E-12-1.51713E-12-1.54041E-12 1.06369E-13 1.73161E-14-3.49482E-20
 -1        56 3.38606E-12-1.01142E-12-1.02694E-12 1.08831E-14 1.15441E-14 2.80615E-21
 -1        57 4.14676E-12 7.45004E-13-2.09647E-12 1.18777E-12-3.27092E-13-3.27092E-13
 -1        58 4.14676E-12 4.14676E-12-3.03102E-12 2.88865E-12-3.27092E-13-3.27092E-13
 -1        59 3.34612E-12 1.00565E-12-1.35722E-12-5.20410E-13-2.96527E-13 3.38256E-13
 -1        60 5.01918E-12-3.76832E-12-5.86156E-13 1.53229E-12-4.44790E-13 5.07384E-13
 -1        61 4.81190E-12 1.29893E-13-1.30970E-12 2.59915E-12 9.87921E-13 1.53873E-14
 -1        62 3.20794E-12-6.53734E-15-8.58479E-13-1.69509E-12 6.58614E-13 7.10515E-15
 -1        63 1.00565E-12 2.62242E-13-5.09997E-13 1.23852E-12 3.38256E-13-2.96527E-13
 -1        64 1.00565E-12 3.34612E-12-1.35722E-12-5.20410E-13 3.38256E-13-2.96527E-13
 -1        65 1.04577E-37-1.30823E-18 2.37309E-19-6.54117E-19 2.26655E-19 1.68696E-19
 -1        66 1.56866E-37 1.71700E-18 3.81751E-20 8.58498E-19 1.25251E-19-8.23166E-20
 -1        67-1.09433E-11 2.59786E-13 3.03091E-12 5.05861E-12 1.97938E-12 3.07746E-14
 -1        68-5.47167E-12-9.80602E-15 1.53744E-12-2.61248E-12 9.89690E-13 1.06577E-14
 -1        69-3.76832E-12 3.93363E-13 6.84672E-13 4.17069E-12 5.07384E-13-4.44790E-13
 -1        70-3.76832E-12 5.01918E-12-5.86156E-13 1.53229E-12 5.07384E-13-4.44790E-13
 -1        71 2.64744E-38-8.48226E-19 1.62374E-19-4.24113E-19-5.42791E-19-5.09098E-19
 -1        72 5.29489E-38-4.88205E-18 3.38243E-20-2.44103E-18 1.98414E-18 1.81027E-18
 -3
    1PSTEP                       118          40           1          
  100CL  140 3.18781E-01          72                     0   40           1
 -4  DISP        4    1
 -5  D1          1    2    1    0
 -5  D2          1    2    2    0
 -5  D3          1    2    3    0
 -5  ALL         1    2    0    0    1ALL
 -1         1 0.00000E+00 0.00000E+00 0.00000E+00
 -1         2 2.50758E-11 0.00000E+00 0.00000E+00
 -1         3 1.31648E-03 0.00000E+00 0.00000E+00
 -1         4 1.31648E-03 0.00000E+00 0.00000E+00
 -1         5 1.22546E-03 0.00000E+00 0.00000E+00
 -1         6 1.22546E-03 0.00000E+00 0.00000E+00
 -1         7 0.00000E+00 2.50758E-11 0.00000E+00
 -1         8 2.50758E-11 2.50758E-11 0.00000E+00
 -1         9 1.31648E-03 3.30637E-09 0.00000E+00
 -1        10 1.31648E-03 3.23330E-09 0.00000E+00
 -1        11 1.22546E-03 3.08892E-09 0.00000E+00
 -1        12 1.22546E-03-3.32993E-09 0.00000E+00
 -1        13 0.00000E+00 1.31648E-03 0.00000E+00
 -1        14 3.30637E-09 1.31648E-03 0.00000E+00
 -1        15 1.19666E-01 1.19666E-01 0.00000E+00
 -1        16 1.19666E-01 1.19666E-01 0.00000E+00
 -1        17 1.80117E-01 5.55737E-02 0.00000E+00
 -1        18 1.80102E-01-6.81862E-02 0.00000E+00
 -1        19 0.00000E+00 1.31648E-03 0.00000E+00
 -1        20 3.23330E-09 1.31648E-03 0.00000E+00
 -1        21 1.19666E-01 1.19666E-01 0.00000E+00
 -1        22 1.19666E-01 1.19666E-01 0.00000E+00
 -1        23 3.03877E-01 5.55584E-02 0.00000E+00
 -1        24 3.03862E-01-6.82015E-02 0.00000E+00
 -1        25 0.00000E+00 1.22546E-03 0.00000E+00
 -1        26 3.08892E-09 1.22546E-03 0.00000E+00
 -1        27 5.55737E-02 1.80117E-01 0.00000E+00
 -1        28 5.55584E-02 3.03877E-01 0.00000E+00
 -1        29-9.56344E+00-9.56344E+00 0.00000E+00
 -1        30-9.56344E+00-9.56344E+00 0.00000E+00
 -1        31 0.00000E+00 1.22546E-03 0.00000E+00
 -1        32-3.32993E-09 1.22546E-03 0.00000E+00
 -1        33-6.81862E-02 1.80102E-01 0.00000E+00
 -1        34-6.82015E-02 3.03862E-01 0.00000E+00
 -1        35-9.56344E+00-9.56344E+00 0.00000E+00
 -1        36-9.56344E+00-9.56344E+00 0.00000E+00
 -1        37 0.00000E+00 0.00000E+00-3.00910E-11
 -1        38 2.50758E-11 0.00000E+00-3.00910E-11
 -1        39 1.31648E-03 0.00000E+00-1.39649E-09
 -1        40 1.31648E-03 0.00000E+00-1.36838E-09
 -1        41 1.22546E-03 0.00000E+00-1.17985E-09
 -1        42 1.22546E-03 0.00000E+00 1.28894E-09
 -1        43 0.00000E+00 2.50758E-11-3.00910E-11
 -1        44 2.50758E-11 2.50758E-11-3.00910E-11
 -1        45 1.31648E-03 3.30637E-09-1.39649E-09
 -1        46 1.31648E-03 3.23330E-09-1.36838E-09
 -1        47 1.22546E-03 3.08369E-09-1.16771E-09
 -1        48 1.22546E-03-3.33516E-09 1.30108E-09
 -1        49 0.00000E+00 1.31648E-03-1.39649E-09
 -1        50 3.30637E-09 1.31648E-03-1.39649E-09
 -1        51 1.19666E-01 1.19666E-01-1.54345E-09
 -1        52 1.19666E-01 1.19666E-01-2.77137E-09
 -1        53 1.80117E-01 5.55737E-02-6.83356E-10
 -1        54 1.80102E-01-6.81862E-02 5.72219E-10
 -1        55 0.00000E+00 1.31648E-03-1.36838E-09
 -1        56 3.23330E-09 1.31648E-03-1.36838E-09
 -1        57 1.19666E-01 1.19666E-01-2.77137E-09
 -1        58 1.19666E-01 1.19666E-01-3.99928E-09
 -1        59 3.03877E-01 5.55584E-02-1.84131E-09
 -1        60 3.03862E-01-6.82015E-02-5.85735E-10
 -1        61 0.00000E+00 1.22546E-03-1.17985E-09
 -1        62 3.08369E-09 1.22546E-03-1.16771E-09
 -1        63 5.55737E-02 1.80117E-01-6.83356E-10
 -1        64 5.55584E-02 3.03877E-01-1.84131E-09
 -1        65-9.56344E+00-9.56344E+00-8.35902E-17
 -1        66-9.56344E+00-9.56344E+00 1.79473E-16
 -1        67 0.00000E+00 1.22546E-03 1.28894E-09
 -1        68-3.33516E-09 1.22546E-03 1.30108E-09
 -1        69-6.81862E-02 1.80102E-01 5.72219E-10
 -1        70-6.82015E-02 3.03862E-01-5.85735E-10
 -1        71-9.56344E+00-9.56344E+00 3.35964E-16
 -1        72-9.56344E+00-9.56344E+00-8.79085E-17
 -3
    1PSTEP                       119          40           1          
  100CL  140 3.18781E-01          72                     0   40           1
 -4  STRESS      6    1
 -5  SXX         1    4    1    1
 -5  SYY         1    4    2    2
 -5  SZZ         1    4    3    3
 -5  SXY         1    4    1    2
 -5  SYZ         1    4    2    3
 -5  SZX         1    4    3    1
 -1         1 1.50449E-08 1.50449E-08-2.44916E-16-9.65657E-21 1.43271E-21 1.43237E-21
 -1         2 7.52245E-09 7.52245E-09 6.56423E-17 1.42733E-16 7.16133E-22-3.19427E-17
 -1         3 6.71182E-09 6.96801E-07 1.58910E-09 6.97248E-09-9.79971E-21-1.13508E-09
 -1         4 2.90530E-10 6.78575E-07-1.58910E-09 6.97248E-09-1.05217E-20-1.13509E-09
 -1         5 2.85894E-07 7.77007E-07 1.41893E-07 2.61188E-07-1.14945E-14-9.97569E-08
 -1         6-5.56252E-07-1.64780E-06-2.74537E-07 5.13469E-07-2.29890E-14-1.99288E-07
 -1         7 7.52245E-09 7.52245E-09 6.56423E-17 1.42733E-16-3.19427E-17 7.16278E-22
 -1         8 5.01497E-09 5.01497E-09 1.69162E-16 1.90314E-16-2.12951E-17-2.12951E-17
 -1         9 4.47456E-09 4.64534E-07 1.05940E-09 7.13382E-10 2.66733E-15-7.56721E-10
 -1        10 1.93701E-10 4.52383E-07-1.05940E-09 7.13387E-10 2.63018E-15-7.56724E-10
 -1        11 1.80904E-07 5.14251E-07 9.17766E-08-1.71503E-07-2.01060E-10-6.65046E-08
 -1        12-2.92664E-07-8.29529E-07-1.41496E-07-2.61708E-07-3.01590E-10-9.96441E-08
 -1        13 6.96801E-07 6.71182E-09 1.58910E-09 6.97248E-09-1.13508E-09-9.81667E-21
 -1        14 4.64534E-07 4.47456E-09 1.05940E-09 7.13382E-10-7.56721E-10 2.66779E-15
 -1        15 1.02948E-07 1.02948E-07-9.25655E-08-5.28428E-08 3.30591E-08 3.30591E-08
 -1        16 2.89968E-07 6.33783E-07 6.14908E-16 1.19065E-07 3.30591E-08 3.30591E-08
 -1        17 7.55172E-08 1.64525E-07 3.67955E-09 1.22040E-07 3.11838E-08-3.37960E-08
 -1        18-1.73453E-07-5.67520E-07-1.36456E-07 4.26098E-07 4.67758E-08-5.06940E-08
 -1        19 6.78575E-07 2.90530E-10-1.58910E-09 6.97248E-09-1.13509E-09-1.05622E-20
 -1        20 4.52383E-07 1.93701E-10-1.05940E-09 7.13387E-10-7.56724E-10 2.62899E-15
 -1        21 6.33783E-07 2.89968E-07-4.41316E-15 1.19065E-07 3.30591E-08 3.30591E-08
 -1        22 8.20803E-07 8.20803E-07 9.25655E-08 2.90972E-07 3.30591E-08 3.30591E-08
 -1        23 5.76019E-07 3.40976E-07 9.09709E-08-5.38197E-08 3.11839E-08-3.37960E-08
 -1        24 5.77301E-07-3.02843E-07-5.51931E-09 1.62309E-07 4.67758E-08-5.06940E-08
 -1        25 7.77007E-07 2.85894E-07 1.41893E-07 2.61188E-07-9.97569E-08-1.14945E-14
 -1        26 5.14251E-07 1.80904E-07 9.17766E-08-1.71503E-07-6.65046E-08-2.01060E-10
 -1        27 1.64525E-07 7.55172E-08 3.67955E-09 1.22040E-07-3.37960E-08 3.11838E-08
 -1        28 3.40976E-07 5.76019E-07 9.09709E-08-5.38197E-08-3.37960E-08 3.11838E-08
 -1        29 1.22040E-14 3.49062E-14 5.77394E-15 1.13511E-14-8.74359E-14-8.74358E-14
 -1        30 2.47655E-13 5.57155E-13 2.68363E-13 1.54750E-13 2.66026E-13 2.66027E-13
 -1        31-1.64780E-06-5.56252E-07-2.74537E-07 5.13469E-07-1.99288E-07-2.29890E-14
 -1        32-8.29529E-07-2.92664E-07-1.41496E-07-2.61708E-07-9.96441E-08-3.01590E-10
 -1        33-5.67520E-07-1.73453E-07-1.36456E-07 4.26098E-07-5.06940E-08 4.67758E-08
 -1        34-3.02843E-07 5.77301E-07-5.51932E-09 1.62309E-07-5.06940E-08 4.67758E-08
 -1        35-1.85102E-14-8.19548E-14 2.02542E-14-3.17223E-14 1.45379E-13 1.45379E-13
 -1        36-2.66153E-13-6.00736E-13-2.86439E-13-1.67292E-13-1.24711E-13-1.24710E-13
 -1        37 1.50449E-08 1.50449E-08-5.13241E-16-9.65646E-21-2.08039E-17-2.08039E-17
 -1        38 7.52245E-09 7.52245E-09-6.85200E-17 1.42733E-16-1.04019E-17-4.23453E-17
 -1        39 6.71180E-09 6.96801E-07 1.58910E-09 6.97248E-09-3.31210E-15 1.13508E-09
 -1        40 2.90518E-10 6.78575E-07-1.58910E-09 6.97248E-09-3.45624E-15 1.13508E-09
 -1        41 2.85813E-07 7.75766E-07 1.41496E-07 2.61188E-07 9.81163E-10 9.96441E-08
 -1        42-5.56414E-07-1.65028E-06-2.75330E-07 5.13469E-07 1.96233E-09 1.99514E-07
 -1        43 7.52245E-09 7.52245E-09-6.85200E-17 1.42733E-16-4.23454E-17-1.04019E-17
 -1        44 5.01497E-09 5.01497E-09 7.97204E-17 1.90314E-16-2.82302E-17-2.82302E-17
 -1        45 4.47455E-09 4.64534E-07 1.05940E-09 7.13383E-10 4.59274E-16 7.56720E-10
 -1        46 1.93693E-10 4.52383E-07-1.05940E-09 7.13387E-10 3.26029E-16 7.56717E-10
 -1        47 1.80851E-07 5.13424E-07 9.15124E-08-1.71503E-07 4.53057E-10 6.64294E-08
 -1        48-2.92744E-07-8.30769E-07-1.41893E-07-2.61708E-07 6.79585E-10 9.97569E-08
 -1        49 6.96801E-07 6.71180E-09 1.58910E-09 6.97248E-09 1.13508E-09-3.30796E-15
 -1        50 4.64534E-07 4.47455E-09 1.05940E-09 7.13383E-10 7.56720E-10 4.62490E-16
 -1        51 1.02948E-07 1.02948E-07-9.25655E-08-5.28427E-08-3.30591E-08-3.30591E-08
 -1        52 2.89968E-07 6.33783E-07 4.74871E-16 1.19065E-07-3.30591E-08-3.30591E-08
 -1        53 7.55172E-08 1.64525E-07 3.67955E-09 1.22040E-07-3.11839E-08 3.37960E-08
 -1        54-1.73453E-07-5.67520E-07-1.36456E-07 4.26098E-07-4.67758E-08 5.06940E-08
 -1        55 6.78575E-07 2.90518E-10-1.58910E-09 6.97248E-09 1.13508E-09-3.45502E-15
 -1        56 4.52383E-07 1.93693E-10-1.05940E-09 7.13387E-10 7.56717E-10 3.25652E-16
 -1        57 6.33783E-07 2.89968E-07-2.43163E-16 1.19065E-07-3.30591E-08-3.30591E-08
 -1        58 8.20803E-07 8.20803E-07 9.25655E-08 2.90972E-07-3.30591E-08-3.30591E-08
 -1        59 5.76019E-07 3.40976E-07 9.09709E-08-5.38197E-08-3.11838E-08 3.37960E-08
 -1        60 5.77301E-07-3.02843E-07-5.51932E-09 1.62309E-07-4.67758E-08 5.06940E-08
 -1        61 7.75766E-07 2.85813E-07 1.41496E-07 2.61188E-07 9.96441E-08 9.81163E-10
 -1        62 5.13424E-07 1.80851E-07 9.15124E-08-1.71503E-07 6.64294E-08 4.53057E-10
 -1        63 1.64525E-07 7.55172E-08 3.67954E-09 1.22040E-07 3.37960E-08-3.11838E-08
 -1        64 3.40976E-07 5.76019E-07 9.09709E-08-5.38197E-08 3.37960E-08-3.11838E-08
 -1        65-3.34940E-13-7.75096E-13-3.41370E-13-2.20078E-13-8.47062E-14-9.31324E-14
 -1        66 5.32637E-14 1.03574E-13 7.39715E-14 2.51552E-14-2.32652E-13-1.89808E-13
 -1        67-1.65028E-06-5.56414E-07-2.75330E-07 5.13469E-07 1.99514E-07 1.96233E-09
 -1        68-8.30769E-07-2.92744E-07-1.41893E-07-2.61708E-07 9.97569E-08 6.79585E-10
 -1        69-5.67520E-07-1.73453E-07-1.36456E-07 4.26098E-07 5.06940E-08-4.67758E-08
 -1        70-3.02843E-07 5.77301E-07-5.51933E-09 1.62309E-07 5.06940E-08-4.67758E-08
 -1        71 1.41753E-13 2.91992E-13 1.80517E-13 7.51196E-14 2.01326E-13 1.33204E-13
 -1        72 2.29252E-13 5.55209E-13 2.08965E-13 1.62978E-13-1.73211E-14-4.25998E-14
 -3
    1PSTEP                       120          40           1          
  100CL  140 3.18781E-01          72                     0   40           1
 -4  TOSTRAIN    6    1
 -5  EXX         1    4    1    1
 -5  EYY         1    4    2    2
 -5  EZZ         1    4    3    3
 -5  EXY         1    4    1    2
 -5  EYZ         1    4    2    3
 -5  EZX         1    4    3    1
 -1         1 5.01497E-14 5.01497E-14-4.29854E-14-5.97788E-26 8.86914E-27 8.86703E-27
 -1         2 2.50748E-14 2.50748E-14-2.14927E-14 8.83587E-22 4.43320E-27-1.97740E-22
 -1         3-9.65740E-13 3.30624E-12-9.97452E-13 4.31629E-14-6.06649E-26-7.02670E-15
 -1         4-9.65740E-13 3.23317E-12-9.77375E-13 4.31630E-14-6.51345E-26-7.02672E-15
 -1         5 4.86860E-14 3.08891E-12-8.42749E-13 1.61688E-12-7.11564E-20-6.17543E-13
 -1         6 9.73720E-14-6.65981E-12 1.84132E-12 3.17862E-12-1.42313E-19-1.23369E-12
 -1         7 2.50748E-14 2.50748E-14-2.14927E-14 8.83587E-22-1.97741E-22 4.43410E-27
 -1         8 1.67166E-14 1.67166E-14-1.43285E-14 1.17814E-21-1.31827E-22-1.31827E-22
 -1         9-6.43826E-13 2.20416E-12-6.64968E-13 4.41618E-15 1.65121E-20-4.68447E-15
 -1        10-6.43826E-13 2.15544E-12-6.51584E-13 4.41621E-15 1.62821E-20-4.68448E-15
 -1        11-4.30522E-15 2.05927E-12-5.56048E-13-1.06169E-12-1.24466E-15-4.11695E-13
 -1        12-6.45783E-15-3.32991E-12 9.29339E-13-1.62010E-12-1.86699E-15-6.16844E-13
 -1        13 3.30624E-12-9.65740E-13-9.97452E-13 4.31629E-14-7.02670E-15-6.07698E-26
 -1        14 2.20416E-12-6.43826E-13-6.64968E-13 4.41618E-15-4.68447E-15 1.65149E-20
 -1        15 4.75398E-13 4.75398E-13-7.34926E-13-3.27122E-13 2.04652E-13 2.04652E-13
 -1        16 4.75398E-13 2.60377E-12-1.31964E-12 7.37066E-13 2.04651E-13 2.04651E-13
 -1        17 1.18940E-13 6.70687E-13-3.25395E-13 7.55349E-13 1.92991E-13-2.09261E-13
 -1        18 1.78410E-13-2.25844E-12 4.08740E-13 2.63835E-12 2.89487E-13-3.13892E-13
 -1        19 3.23317E-12-9.65740E-13-9.77375E-13 4.31630E-14-7.02672E-15-6.53851E-26
 -1        20 2.15544E-12-6.43826E-13-6.51584E-13 4.41621E-15-4.68448E-15 1.62747E-20
 -1        21 2.60377E-12 4.75398E-13-1.31964E-12 7.37066E-13 2.04651E-13 2.04651E-13
 -1        22 2.60377E-12 2.60377E-12-1.90436E-12 1.80125E-12 2.04652E-13 2.04652E-13
 -1        23 2.12605E-12 6.70687E-13-8.76798E-13-3.32809E-13 1.92991E-13-2.09261E-13
 -1        24 3.18907E-12-2.25844E-12-4.18364E-13 1.00612E-12 2.89487E-13-3.13892E-13
 -1        25 3.08891E-12 4.86860E-14-8.42749E-13 1.61688E-12-6.17543E-13-7.11564E-20
 -1        26 2.05927E-12-4.30522E-15-5.56048E-13-1.06169E-12-4.11695E-13-1.24466E-15
 -1        27 6.70687E-13 1.18940E-13-3.25395E-13 7.55349E-13-2.09261E-13 1.92991E-13
 -1        28 6.70687E-13 2.12605E-12-8.76798E-13-3.32809E-13-2.09261E-13 1.92991E-13
 -1        29 1.04892E-39 1.40537E-19-3.98054E-20 7.02686E-20-5.41270E-19-5.41269E-19
 -1        30 1.57337E-39 1.91595E-18 1.28191E-19 9.57974E-19 1.64683E-18 1.64683E-18
 -1        31-6.65981E-12 9.73720E-14 1.84132E-12 3.17862E-12-1.23369E-12-1.42313E-19
 -1        32-3.32991E-12-6.45783E-15 9.29339E-13-1.62010E-12-6.16844E-13-1.86699E-15
 -1        33-2.25844E-12 1.78410E-13 4.08740E-13 2.63835E-12-3.13892E-13 2.89487E-13
 -1        34-2.25844E-12 3.18907E-12-4.18364E-13 1.00612E-12-3.13892E-13 2.89487E-13
 -1        35-1.68371E-38-3.92752E-19 2.39970E-19-1.96376E-19 8.99964E-19 8.99964E-19
 -1        36-3.36741E-38-2.07123E-18-1.25585E-19-1.03561E-18-7.72020E-19-7.72017E-19
 -1        37 5.01497E-14 5.01497E-14-4.29854E-14-5.97781E-26-1.28786E-22-1.28786E-22
 -1        38 2.50748E-14 2.50748E-14-2.14927E-14 8.83587E-22-6.43930E-23-2.62138E-22
 -1        39-9.65740E-13 3.30624E-12-9.97452E-13 4.31629E-14-2.05035E-20 7.02668E-15
 -1        40-9.65740E-13 3.23317E-12-9.77375E-13 4.31630E-14-2.13958E-20 7.02666E-15
 -1        41 5.06412E-14 3.08368E-12-8.42749E-13 1.61688E-12 6.07387E-15 6.16845E-13
 -1        42 1.01282E-13-6.67027E-12 1.84132E-12 3.17862E-12 1.21477E-14 1.23509E-12
 -1        43 2.50748E-14 2.50748E-14-2.14927E-14 8.83587E-22-2.62138E-22-6.43929E-23
 -1        44 1.67166E-14 1.67166E-14-1.43285E-14 1.17814E-21-1.74759E-22-1.74759E-22
 -1        45-6.43826E-13 2.20416E-12-6.64968E-13 4.41618E-15 2.84312E-21 4.68446E-15
 -1        46-6.43826E-13 2.15544E-12-6.51584E-13 4.41621E-15 2.01828E-21 4.68444E-15
 -1        47-3.00174E-15 2.05579E-12-5.56048E-13-1.06169E-12 2.80464E-15 4.11230E-13
 -1        48-4.50261E-15-3.33513E-12 9.29339E-13-1.62010E-12 4.20696E-15 6.17543E-13
 -1        49 3.30624E-12-9.65740E-13-9.97452E-13 4.31629E-14 7.02668E-15-2.04779E-20
 -1        50 2.20416E-12-6.43826E-13-6.64968E-13 4.41618E-15 4.68446E-15 2.86303E-21
 -1        51 4.75398E-13 4.75398E-13-7.34926E-13-3.27122E-13-2.04652E-13-2.04652E-13
 -1        52 4.75398E-13 2.60377E-12-1.31964E-12 7.37066E-13-2.04652E-13-2.04652E-13
 -1        53 1.18940E-13 6.70687E-13-3.25395E-13 7.55349E-13-1.92991E-13 2.09261E-13
 -1        54 1.78410E-13-2.25844E-12 4.08740E-13 2.63835E-12-2.89487E-13 3.13892E-13
 -1        55 3.23317E-12-9.65740E-13-9.77375E-13 4.31630E-14 7.02666E-15-2.13882E-20
 -1        56 2.15544E-12-6.43826E-13-6.51584E-13 4.41621E-15 4.68444E-15 2.01594E-21
 -1        57 2.60377E-12 4.75398E-13-1.31964E-12 7.37066E-13-2.04652E-13-2.04652E-13
 -1        58 2.60377E-12 2.60377E-12-1.90436E-12 1.80125E-12-2.04652E-13-2.04652E-13
 -1        59 2.12605E-12 6.70687E-13-8.76798E-13-3.32809E-13-1.92991E-13 2.09261E-13
 -1        60 3.18907E-12-2.25844E-12-4.18364E-13 1.00612E-12-2.89487E-13 3.13892E-13
 -1        61 3.08368E-12 5.06412E-14-8.42749E-13 1.61688E-12 6.16845E-13 6.07387E-15
 -1        62 2.05579E-12-3.00174E-15-5.56048E-13-1.06169E-12 4.11230E-13 2.80464E-15
 -1        63 6.70687E-13 1.18940E-13-3.25395E-13 7.55349E-13 2.09261E-13-1.92991E-13
 -1        64 6.70687E-13 2.12605E-12-8.76798E-13-3.32809E-13 2.09261E-13-1.92991E-13
 -1        65-5.24716E-39-2.72478E-18-3.98054E-20-1.36239E-18-5.24372E-19-5.76534E-19
 -1        66-7.87075E-39 3.11446E-19 1.28191E-19 1.55723E-19-1.44023E-18-1.17500E-18
 -1        67-6.67027E-12 1.01282E-13 1.84132E-12 3.17862E-12 1.23509E-12 1.21477E-14
 -1        68-3.33513E-12-4.50261E-15 9.29339E-13-1.62010E-12 6.17543E-13 4.20696E-15
 -1        69-2.25844E-12 1.78410E-13 4.08740E-13 2.63835E-12 3.13892E-13-2.89487E-13
 -1        70-2.25844E-12 3.18907E-12-4.18364E-13 1.00612E-12 3.13892E-13-2.89487E-13
 -1        71 8.41830E-38 9.30053E-19 2.39970E-19 4.65026E-19 1.24631E-18 8.24598E-19
 -1        72 1.68366E-37 2.01783E-18-1.25585E-19 1.00891E-18-1.07226E-19-2.63713E-19
 -3
    1PSTEP                       121          41           1          
  100CL  141 3.27781E-01          72                     0   41           1
 -4  DISP        4    1
 -5  D1          1    2    1    0
 -5  D2          1    2    2    0
 -5  D3          1    2    3    0
 -5  ALL         1    2    0    0    1ALL
 -1         1 0.00000E+00 0.00000E+00 0.00000E+00
 -1         2 4.05226E-12 0.00000E+00 0.00000E+00
 -1         3 2.12744E-04 0.00000E+00 0.00000E+00
 -1         4 2.12743E-04 0.00000E+00 0.00000E+00
 -1         5 2.07567E-04 0.00000E+00 0.00000E+00
 -1         6 2.07567E-04 0.00000E+00 0.00000E+00
 -1         7 0.00000E+00 4.05226E-12 0.00000E+00
 -1         8 4.05226E-12 4.05226E-12 0.00000E+00
 -1         9 2.12744E-04 1.28240E-09 0.00000E+00
 -1        10 2.12743E-04 1.27109E-09 0.00000E+00
 -1        11 2.07568E-04 1.21514E-09 0.00000E+00
 -1        12 2.07568E-04-1.25006E-09 0.00000E+00
 -1        13 0.00000E+00 2.12744E-04 0.00000E+00
 -1        14 1.28240E-09 2.12744E-04 0.00000E+00
 -1        15 4.68439E-02 4.68439E-02 0.00000E+00
 -1        16 4.68439E-02 4.68439E-02 0.00000E+00
 -1        17 7.03537E-02 2.28161E-02 0.00000E+00
 -1        18 7.03514E-02-2.46719E-02 0.00000E+00
 -1        19 0.00000E+00 2.12743E-04 0.00000E+00
 -1        20 1.27109E-09 2.12743E-04 0.00000E+00
 -1        21 4.68439E-02 4.68439E-02 0.00000E+00
 -1        22 4.68439E-02 4.68439E-02 0.00000E+00
 -1        23 1.17842E-01 2.28139E-02 0.00000E+00
 -1        24 1.17840E-01-2.46742E-02 0.00000E+00
 -1        25 0.00000E+00 2.07567E-04 0.00000E+00
 -1        26 1.21514E-09 2.07568E-04 0.00000E+00
 -1        27 2.28161E-02 7.03537E-02 0.00000E+00
 -1        28 2.28139E-02 1.17842E-01 0.00000E+00
 -1        29-9.83344E+00-9.83344E+00 0.00000E+00
 -1        30-9.83344E+00-9.83344E+00 0.00000E+00
 -1        31 0.00000E+00 2.07567E-04 0.00000E+00
 -1        32-1.25006E-09 2.07568E-04 0.00000E+00
 -1        33-2.46719E-02 7.03514E-02 0.00000E+00
 -1        34-2.46742E-02 1.17840E-01 0.00000E+00
 -1        35-9.83344E+00-9.83344E+00 0.00000E+00
 -1        36-9.83344E+00-9.83344E+00 0.00000E+00
 -1        37 0.00000E+00 0.00000E+00-4.86271E-12
 -1        38 4.05226E-12 0.00000E+00-4.86271E-12
 -1        39 2.12744E-04 0.00000E+00-5.39951E-10
 -1        40 2.12743E-04 0.00000E+00-5.35600E-10
 -1        41 2.07566E-04 0.00000E+00-4.66216E-10
 -1        42 2.07566E-04 0.00000E+00 4.81937E-10
 -1        43 0.00000E+00 4.05226E-12-4.86271E-12
 -1        44 4.05226E-12 4.05226E-12-4.86271E-12
 -1        45 2.12744E-04 1.28240E-09-5.39951E-10
 -1        46 2.12743E-04 1.27109E-09-5.35600E-10
 -1        47 2.07568E-04 1.21435E-09-4.64389E-10
 -1        48 2.07568E-04-1.25084E-09 4.83763E-10
 -1        49 0.00000E+00 2.12744E-04-5.39951E-10
 -1        50 1.28240E-09 2.12744E-04-5.39951E-10
 -1        51 4.68439E-02 4.68439E-02-6.03295E-10
 -1        52 4.68439E-02 4.68439E-02-1.07631E-09
 -1        53 7.03537E-02 2.28161E-02-2.67964E-10
 -1        54 7.03514E-02-2.46719E-02 2.09367E-10
 -1        55 0.00000E+00 2.12743E-04-5.35600E-10
 -1        56 1.27109E-09 2.12743E-04-5.35600E-10
 -1        57 4.68439E-02 4.68439E-02-1.07631E-09
 -1        58 4.68439E-02 4.68439E-02-1.54933E-09
 -1        59 1.17842E-01 2.28139E-02-7.30838E-10
 -1        60 1.17840E-01-2.46742E-02-2.53507E-10
 -1        61 0.00000E+00 2.07566E-04-4.66216E-10
 -1        62 1.21435E-09 2.07568E-04-4.64389E-10
 -1        63 2.28161E-02 7.03537E-02-2.67964E-10
 -1        64 2.28139E-02 1.17842E-01-7.30838E-10
 -1        65-9.83344E+00-9.83344E+00-2.00417E-16
 -1        66-9.83344E+00-9.83344E+00 6.38624E-17
 -1        67 0.00000E+00 2.07566E-04 4.81937E-10
 -1        68-1.25084E-09 2.07568E-04 4.83763E-10
 -1        69-2.46719E-02 7.03514E-02 2.09367E-10
 -1        70-2.46742E-02 1.17840E-01-2.53507E-10
 -1        71-9.83344E+00-9.83344E+00 1.42108E-16
 -1        72-9.83344E+00-9.83344E+00-1.67811E-16
 -3
    1PSTEP                       122          41           1          
  100CL  141 3.27781E-01          72                     0   41           1
 -4  STRESS      6    1
 -5  SXX         1    4    1    1
 -5  SYY         1    4    2    2
 -5  SZZ         1    4    3    3
 -5  SXY         1    4    1    2
 -5  SYZ         1    4    2    3
 -5  SZX         1    4    3    1
 -1         1 2.43126E-09 2.43126E-09-3.76073E-17-1.48886E-21 2.20598E-22 2.20605E-22
 -1         2 1.21563E-09 1.21563E-09 1.04295E-17 2.20074E-17 1.10318E-22-5.00966E-18
 -1         3 1.09012E-09 2.69695E-07 2.46034E-10 1.07953E-09-3.89815E-21-1.75743E-10
 -1         4 9.59295E-11 2.66873E-07-2.46035E-10 1.07953E-09-4.00260E-21-1.75745E-10
 -1         5 1.08916E-07 3.04039E-07 5.39544E-08 9.98755E-08-1.72828E-15-3.82990E-08
 -1         6-2.15399E-07-6.21596E-07-1.06518E-07 1.98412E-07-3.45656E-15-7.65641E-08
 -1         7 1.21563E-09 1.21563E-09 1.04295E-17 2.20074E-17-5.00966E-18 1.10299E-22
 -1         8 8.10420E-10 8.10420E-10 2.64417E-17 2.93437E-17-3.33977E-18-3.33977E-18
 -1         9 7.26752E-10 1.79797E-07 1.64023E-10 1.10450E-10 1.01545E-15-1.17162E-10
 -1        10 6.39583E-11 1.77915E-07-1.64023E-10 1.10452E-10 1.00914E-15-1.17163E-10
 -1        11 7.11533E-08 2.02128E-07 3.55458E-08-6.61569E-08-3.02302E-11-2.55327E-08
 -1        12-1.09885E-07-3.11644E-07-5.38948E-08-9.99051E-08-4.53454E-11-3.82821E-08
 -1        13 2.69695E-07 1.09012E-09 2.46034E-10 1.07953E-09-1.75743E-10-3.89469E-21
 -1        14 1.79797E-07 7.26752E-10 1.64023E-10 1.10450E-10-1.17162E-10 1.01540E-15
 -1        15 4.11121E-08 4.11121E-08-3.56582E-08-2.07978E-08 1.27351E-08 1.27351E-08
 -1        16 1.13156E-07 2.45601E-07 1.13582E-15 4.54246E-08 1.27351E-08 1.27351E-08
 -1        17 2.59165E-08 6.52176E-08 5.44917E-10 4.58298E-08 1.24631E-08-1.28500E-08
 -1        18-7.01579E-08-2.11721E-07-5.31574E-08 1.65929E-07 1.86947E-08-1.92749E-08
 -1        19 2.66873E-07 9.59295E-11-2.46035E-10 1.07953E-09-1.75745E-10-3.99919E-21
 -1        20 1.77915E-07 6.39583E-11-1.64023E-10 1.10452E-10-1.17163E-10 1.00903E-15
 -1        21 2.45601E-07 1.13156E-07 1.93000E-15 4.54246E-08 1.27351E-08 1.27351E-08
 -1        22 3.17645E-07 3.17645E-07 3.56582E-08 1.11647E-07 1.27351E-08 1.27351E-08
 -1        23 2.26007E-07 1.35729E-07 3.54383E-08-2.10084E-08 1.24631E-08-1.28500E-08
 -1        24 2.29977E-07-1.05954E-07-8.17374E-10 6.56712E-08 1.86947E-08-1.92749E-08
 -1        25 3.04039E-07 1.08916E-07 5.39544E-08 9.98755E-08-3.82990E-08-1.72828E-15
 -1        26 2.02128E-07 7.11533E-08 3.55458E-08-6.61569E-08-2.55327E-08-3.02302E-11
 -1        27 6.52176E-08 2.59165E-08 5.44915E-10 4.58298E-08-1.28500E-08 1.24631E-08
 -1        28 1.35729E-07 2.26007E-07 3.54383E-08-2.10084E-08-1.28499E-08 1.24631E-08
 -1        29 8.66375E-14 2.17571E-13 7.12210E-14 6.54665E-14-3.31107E-14-3.31107E-14
 -1        30 1.22866E-13 2.79319E-13 1.30235E-13 7.82264E-14-1.95715E-13-1.95715E-13
 -1        31-6.21596E-07-2.15399E-07-1.06518E-07 1.98412E-07-7.65641E-08-3.45656E-15
 -1        32-3.11644E-07-1.09885E-07-5.38948E-08-9.99051E-08-3.82821E-08-4.53454E-11
 -1        33-2.11721E-07-7.01579E-08-5.31574E-08 1.65929E-07-1.92749E-08 1.86947E-08
 -1        34-1.05954E-07 2.29977E-07-8.17374E-10 6.56712E-08-1.92749E-08 1.86947E-08
 -1        35-1.02165E-14-4.02356E-14 6.18047E-15-1.50095E-14-5.92236E-15-5.92242E-15
 -1        36 2.12168E-13 5.33783E-13 1.73443E-13 1.60808E-13 2.48430E-13 2.48431E-13
 -1        37 2.43126E-09 2.43126E-09-7.96894E-17-1.48888E-21-3.02309E-18-3.02309E-18
 -1        38 1.21563E-09 1.21563E-09-1.06116E-17 2.20074E-17-1.51154E-18-6.52131E-18
 -1        39 1.09012E-09 2.69695E-07 2.46034E-10 1.07953E-09-1.27551E-15 1.75742E-10
 -1        40 9.59249E-11 2.66873E-07-2.46035E-10 1.07953E-09-1.29522E-15 1.75741E-10
 -1        41 1.08904E-07 3.03852E-07 5.38948E-08 9.98755E-08 1.47524E-10 3.82821E-08
 -1        42-2.15423E-07-6.21969E-07-1.06637E-07 1.98412E-07 2.95049E-10 7.65981E-08
 -1        43 1.21563E-09 1.21563E-09-1.06116E-17 2.20074E-17-6.52131E-18-1.51154E-18
 -1        44 8.10420E-10 8.10420E-10 1.24144E-17 2.93437E-17-4.34754E-18-4.34754E-18
 -1        45 7.26749E-10 1.79797E-07 1.64023E-10 1.10450E-10 1.65111E-16 1.17162E-10
 -1        46 6.39552E-11 1.77915E-07-1.64023E-10 1.10452E-10 1.45661E-16 1.17160E-10
 -1        47 7.11453E-08 2.02004E-07 3.55061E-08-6.61569E-08 6.81206E-11 2.55214E-08
 -1        48-1.09897E-07-3.11831E-07-5.39544E-08-9.99051E-08 1.02181E-10 3.82990E-08
 -1        49 2.69695E-07 1.09012E-09 2.46034E-10 1.07953E-09 1.75742E-10-1.27632E-15
 -1        50 1.79797E-07 7.26749E-10 1.64023E-10 1.10450E-10 1.17162E-10 1.64528E-16
 -1        51 4.11120E-08 4.11120E-08-3.56582E-08-2.07978E-08-1.27351E-08-1.27351E-08
 -1        52 1.13156E-07 2.45601E-07-6.97110E-16 4.54246E-08-1.27351E-08-1.27351E-08
 -1        53 2.59165E-08 6.52176E-08 5.44915E-10 4.58298E-08-1.24631E-08 1.28500E-08
 -1        54-7.01579E-08-2.11721E-07-5.31574E-08 1.65929E-07-1.86947E-08 1.92749E-08
 -1        55 2.66873E-07 9.59249E-11-2.46035E-10 1.07953E-09 1.75741E-10-1.29434E-15
 -1        56 1.77915E-07 6.39552E-11-1.64023E-10 1.10452E-10 1.17160E-10 1.46139E-16
 -1        57 2.45601E-07 1.13156E-07-6.21271E-16 4.54246E-08-1.27351E-08-1.27351E-08
 -1        58 3.17645E-07 3.17645E-07 3.56582E-08 1.11647E-07-1.27351E-08-1.27351E-08
 -1        59 2.26007E-07 1.35729E-07 3.54383E-08-2.10084E-08-1.24631E-08 1.28500E-08
 -1        60 2.29977E-07-1.05954E-07-8.17370E-10 6.56712E-08-1.86947E-08 1.92749E-08
 -1        61 3.03852E-07 1.08904E-07 5.38948E-08 9.98755E-08 3.82821E-08 1.47524E-10
 -1        62 2.02004E-07 7.11453E-08 3.55061E-08-6.61569E-08 2.55214E-08 6.81206E-11
 -1        63 6.52176E-08 2.59165E-08 5.44916E-10 4.58298E-08 1.28500E-08-1.24631E-08
 -1        64 1.35729E-07 2.26007E-07 3.54383E-08-2.10084E-08 1.28500E-08-1.24631E-08
 -1        65-3.63430E-13-8.32588E-13-3.78847E-13-2.34579E-13-7.44615E-15-1.16593E-14
 -1        66 7.40141E-14 1.65331E-13 8.13829E-14 4.56584E-14-5.87622E-14-1.87047E-14
 -1        67-6.21969E-07-2.15423E-07-1.06637E-07 1.98412E-07 7.65981E-08 2.95049E-10
 -1        68-3.11831E-07-1.09897E-07-5.39544E-08-9.99051E-08 3.82990E-08 1.02181E-10
 -1        69-2.11721E-07-7.01579E-08-5.31574E-08 1.65929E-07 1.92749E-08-1.86947E-08
 -1        70-1.05954E-07 2.29977E-07-8.17376E-10 6.56712E-08 1.92749E-08-1.86947E-08
 -1        71 1.18259E-13 2.59540E-13 1.34656E-13 7.06406E-14 3.29187E-14-1.97781E-14
 -1        72 8.35520E-14 2.33679E-13 4.48271E-14 7.50638E-14 2.25045E-14 9.86516E-15
 -3
    1PSTEP                       123          41           1          
  100CL  141 3.27781E-01          72                     0   41           1
 -4  TOSTRAIN    6    1
 -5  EXX         1    4    1    1
 -5  EYY         1    4    2    2
 -5  EZZ         1    4    3    3
 -5  EXY         1    4    1    2
 -5  EYZ         1    4    2    3
 -5  EZX         1    4    3    1
 -1         1 8.10420E-15 8.10420E-15-6.94645E-15-9.21674E-27 1.36561E-27 1.36565E-27
 -1         2 4.05210E-15 4.05210E-15-3.47323E-15 1.36237E-22 6.82919E-28-3.10122E-23
 -1         3-3.80439E-13 1.28235E-12-3.85664E-13 6.68281E-15-2.41314E-26-1.08793E-15
 -1         4-3.80439E-13 1.27104E-12-3.82556E-13 6.68283E-15-2.47780E-26-1.08794E-15
 -1         5 7.22779E-15 1.21513E-12-3.33009E-13 6.18277E-13-1.06989E-20-2.37089E-13
 -1         6 1.44556E-14-2.50010E-12 6.88477E-13 1.22826E-12-2.13978E-20-4.73968E-13
 -1         7 4.05210E-15 4.05210E-15-3.47323E-15 1.36237E-22-3.10122E-23 6.82800E-28
 -1         8 2.70140E-15 2.70140E-15-2.31548E-15 1.81652E-22-2.06748E-23-2.06748E-23
 -1         9-2.53626E-13 8.54902E-13-2.57109E-13 6.83741E-16 6.28609E-21-7.25290E-16
 -1        10-2.53626E-13 8.47359E-13-2.55037E-13 6.83752E-16 6.24706E-21-7.25296E-16
 -1        11-7.08984E-16 8.10088E-13-2.21137E-13-4.09543E-13-1.87140E-16-1.58059E-13
 -1        12-1.06348E-15-1.25005E-12 3.45543E-13-6.18460E-13-2.80709E-16-2.36984E-13
 -1        13 1.28235E-12-3.80439E-13-3.85664E-13 6.68281E-15-1.08793E-15-2.41100E-26
 -1        14 8.54902E-13-2.53626E-13-2.57109E-13 6.83741E-16-7.25290E-16 6.28583E-21
 -1        15 1.87980E-13 1.87980E-13-2.87264E-13-1.28748E-13 7.88361E-14 7.88361E-14
 -1        16 1.87980E-13 1.00788E-12-5.12510E-13 2.81200E-13 7.88361E-14 7.88361E-14
 -1        17 2.94114E-14 2.72812E-13-1.27597E-13 2.83685E-13 7.71452E-14-7.95546E-14
 -1        18 4.41172E-14-8.31835E-13 1.49553E-13 1.02726E-12 1.15718E-13-1.19332E-13
 -1        19 1.27104E-12-3.80439E-13-3.82556E-13 6.68283E-15-1.08794E-15-2.47569E-26
 -1        20 8.47359E-13-2.53626E-13-2.55037E-13 6.83752E-16-7.25296E-16 6.24635E-21
 -1        21 1.00788E-12 1.87980E-13-5.12510E-13 2.81200E-13 7.88361E-14 7.88361E-14
 -1        22 1.00788E-12 1.00788E-12-7.37756E-13 6.91148E-13 7.88361E-14 7.88361E-14
 -1        23 8.31721E-13 2.72812E-13-3.48011E-13-1.29999E-13 7.71452E-14-7.95546E-14
 -1        24 1.24758E-12-8.31835E-13-1.81069E-13 4.06734E-13 1.15718E-13-1.19332E-13
 -1        25 1.21513E-12 7.22779E-15-3.33009E-13 6.18277E-13-2.37089E-13-1.06989E-20
 -1        26 8.10088E-13-7.08984E-16-2.21137E-13-4.09543E-13-1.58059E-13-1.87140E-16
 -1        27 2.72812E-13 2.94114E-14-1.27597E-13 2.83685E-13-7.95547E-14 7.71452E-14
 -1        28 2.72812E-13 8.31721E-13-3.48011E-13-1.29999E-13-7.95546E-14 7.71452E-14
 -1        29-1.65501E-39 8.10538E-19-9.54351E-20 4.05269E-19-2.04971E-19-2.04971E-19
 -1        30-2.48252E-39 9.68518E-19 4.56159E-20 4.84259E-19-1.21157E-18-1.21157E-18
 -1        31-2.50010E-12 1.44556E-14 6.88477E-13 1.22826E-12-4.73968E-13-2.13978E-20
 -1        32-1.25005E-12-1.06348E-15 3.45543E-13-6.18460E-13-2.36984E-13-2.80709E-16
 -1        33-8.31835E-13 4.41172E-14 1.49554E-13 1.02726E-12-1.19332E-13 1.15718E-13
 -1        34-8.31835E-13 1.24758E-12-1.81069E-13 4.06734E-13-1.19332E-13 1.15718E-13
 -1        35-6.85009E-39-1.85832E-19 1.01505E-19-9.29161E-20-3.66623E-20-3.66626E-20
 -1        36-1.37002E-38 1.99095E-18-2.39725E-19 9.95475E-19 1.53790E-18 1.53790E-18
 -1        37 8.10420E-15 8.10420E-15-6.94645E-15-9.21685E-27-1.87143E-23-1.87143E-23
 -1        38 4.05210E-15 4.05210E-15-3.47323E-15 1.36237E-22-9.35717E-24-4.03700E-23
 -1        39-3.80439E-13 1.28235E-12-3.85664E-13 6.68281E-15-7.89599E-21 1.08793E-15
 -1        40-3.80439E-13 1.27104E-12-3.82556E-13 6.68283E-15-8.01804E-21 1.08792E-15
 -1        41 7.52176E-15 1.21435E-12-3.33009E-13 6.18277E-13 9.13247E-16 2.36984E-13
 -1        42 1.50435E-14-2.50167E-12 6.88477E-13 1.22826E-12 1.82649E-15 4.74178E-13
 -1        43 4.05210E-15 4.05210E-15-3.47323E-15 1.36237E-22-4.03700E-23-9.35717E-24
 -1        44 2.70140E-15 2.70140E-15-2.31548E-15 1.81652E-22-2.69134E-23-2.69134E-23
 -1        45-2.53626E-13 8.54902E-13-2.57109E-13 6.83741E-16 1.02212E-21 7.25286E-16
 -1        46-2.53626E-13 8.47359E-13-2.55037E-13 6.83752E-16 9.01712E-22 7.25279E-16
 -1        47-5.13006E-16 8.09564E-13-2.21137E-13-4.09543E-13 4.21699E-16 1.57989E-13
 -1        48-7.69509E-16-1.25084E-12 3.45543E-13-6.18460E-13 6.32548E-16 2.37089E-13
 -1        49 1.28235E-12-3.80439E-13-3.85664E-13 6.68281E-15 1.08793E-15-7.90101E-21
 -1        50 8.54902E-13-2.53626E-13-2.57109E-13 6.83741E-16 7.25286E-16 1.01851E-21
 -1        51 1.87980E-13 1.87980E-13-2.87264E-13-1.28748E-13-7.88362E-14-7.88362E-14
 -1        52 1.87980E-13 1.00788E-12-5.12510E-13 2.81200E-13-7.88362E-14-7.88362E-14
 -1        53 2.94114E-14 2.72812E-13-1.27597E-13 2.83685E-13-7.71452E-14 7.95547E-14
 -1        54 4.41171E-14-8.31835E-13 1.49553E-13 1.02726E-12-1.15718E-13 1.19332E-13
 -1        55 1.27104E-12-3.80439E-13-3.82556E-13 6.68283E-15 1.08792E-15-8.01255E-21
 -1        56 8.47359E-13-2.53626E-13-2.55037E-13 6.83752E-16 7.25279E-16 9.04668E-22
 -1        57 1.00788E-12 1.87980E-13-5.12510E-13 2.81200E-13-7.88362E-14-7.88362E-14
 -1        58 1.00788E-12 1.00788E-12-7.37756E-13 6.91148E-13-7.88362E-14-7.88362E-14
 -1        59 8.31721E-13 2.72812E-13-3.48011E-13-1.29999E-13-7.71452E-14 7.95547E-14
 -1        60 1.24758E-12-8.31835E-13-1.81069E-13 4.06734E-13-1.15718E-13 1.19332E-13
 -1        61 1.21435E-12 7.52176E-15-3.33009E-13 6.18277E-13 2.36984E-13 9.13247E-16
 -1        62 8.09564E-13-5.13006E-16-2.21137E-13-4.09543E-13 1.57989E-13 4.21699E-16
 -1        63 2.72812E-13 2.94114E-14-1.27597E-13 2.83685E-13 7.95547E-14-7.71452E-14
 -1        64 2.72812E-13 8.31721E-13-3.48011E-13-1.29999E-13 7.95547E-14-7.71452E-14
 -1        65 8.27367E-39-2.90431E-18-9.54351E-20-1.45215E-18-4.60952E-20-7.21765E-20
 -1        66 1.24105E-38 5.65294E-19 4.56159E-20 2.82647E-19-3.63766E-19-1.15791E-19
 -1        67-2.50167E-12 1.50435E-14 6.88477E-13 1.22826E-12 4.74178E-13 1.82649E-15
 -1        68-1.25084E-12-7.69509E-16 3.45543E-13-6.18460E-13 2.37089E-13 6.32548E-16
 -1        69-8.31835E-13 4.41172E-14 1.49554E-13 1.02726E-12 1.19332E-13-1.15718E-13
 -1        70-8.31835E-13 1.24758E-12-1.81069E-13 4.06734E-13 1.19332E-13-1.15718E-13
 -1        71 3.42487E-38 8.74598E-19 1.01505E-19 4.37299E-19 2.03782E-19-1.22436E-19
 -1        72 6.84975E-38 9.29361E-19-2.39725E-19 4.64680E-19 1.39314E-19 6.10700E-20
 -3
    1PSTEP                       124          42           1          
  100CL  142 3.32281E-01          72                     0   42           1
 -4  DISP        4    1
 -5  D1          1    2    1    0
 -5  D2          1    2    2    0
 -5  D3          1    2    3    0
 -5  ALL         1    2    0    0    1ALL
 -1         1 0.00000E+00 0.00000E+00 0.00000E+00
 -1         2 1.53089E-13 0.00000E+00 0.00000E+00
 -1         3 8.03717E-06 0.00000E+00 0.00000E+00
 -1         4 8.03710E-06 0.00000E+00 0.00000E+00
 -1         5 8.00141E-06 0.00000E+00 0.00000E+00
 -1         6 8.00141E-06 0.00000E+00 0.00000E+00
 -1         7 0.00000E+00 1.53089E-13 0.00000E+00
 -1         8 1.53089E-13 1.53089E-13 0.00000E+00
 -1         9 8.03717E-06 2.44937E-10 0.00000E+00
 -1        10 8.03710E-06 2.44518E-10 0.00000E+00
 -1        11 8.00164E-06 2.33402E-10 0.00000E+00
 -1        12 8.00164E-06-2.34652E-10 0.00000E+00
 -1        13 0.00000E+00 8.03717E-06 0.00000E+00
 -1        14 2.44937E-10 8.03717E-06 0.00000E+00
 -1        15 8.99092E-03 8.99092E-03 0.00000E+00
 -1        16 8.99092E-03 8.99092E-03 0.00000E+00
 -1        17 1.34895E-02 4.47397E-03 0.00000E+00
 -1        18 1.34894E-02-4.54098E-03 0.00000E+00
 -1        19 0.00000E+00 8.03710E-06 0.00000E+00
 -1        20 2.44518E-10 8.03710E-06 0.00000E+00
 -1        21 8.99092E-03 8.99092E-03 0.00000E+00
 -1        22 8.99092E-03 8.99092E-03 0.00000E+00
 -1        23 2.25045E-02 4.47389E-03 0.00000E+00
 -1        24 2.25044E-02-4.54106E-03 0.00000E+00
 -1        25 0.00000E+00 8.00141E-06 0.00000E+00
 -1        26 2.33402E-10 8.00164E-06 0.00000E+00
 -1        27 4.47397E-03 1.34895E-02 0.00000E+00
 -1        28 4.47389E-03 2.25045E-02 0.00000E+00
 -1        29-9.96844E+00-9.96844E+00 0.00000E+00
 -1        30-9.96844E+00-9.96844E+00 0.00000E+00
 -1        31 0.00000E+00 8.00141E-06 0.00000E+00
 -1        32-2.34652E-10 8.00164E-06 0.00000E+00
 -1        33-4.54098E-03 1.34894E-02 0.00000E+00
 -1        34-4.54106E-03 2.25044E-02 0.00000E+00
 -1        35-9.96844E+00-9.96844E+00 0.00000E+00
 -1        36-9.96844E+00-9.96844E+00 0.00000E+00
 -1        37 0.00000E+00 0.00000E+00-1.83707E-13
 -1        38 1.53089E-13 0.00000E+00-1.83707E-13
 -1        39 8.03717E-06 0.00000E+00-1.02926E-10
 -1        40 8.03710E-06 0.00000E+00-1.02765E-10
 -1        41 8.00128E-06 0.00000E+00-8.97298E-11
 -1        42 8.00128E-06 0.00000E+00 9.02911E-11
 -1        43 0.00000E+00 1.53089E-13-1.83707E-13
 -1        44 1.53089E-13 1.53089E-13-1.83707E-13
 -1        45 8.03717E-06 2.44937E-10-1.02926E-10
 -1        46 8.03710E-06 2.44518E-10-1.02765E-10
 -1        47 8.00151E-06 2.33373E-10-8.96632E-11
 -1        48 8.00151E-06-2.34681E-10 9.03577E-11
 -1        49 0.00000E+00 8.03717E-06-1.02926E-10
 -1        50 2.44937E-10 8.03717E-06-1.02926E-10
 -1        51 8.99092E-03 8.99092E-03-1.15744E-10
 -1        52 8.99092E-03 8.99092E-03-2.05714E-10
 -1        53 1.34895E-02 4.47397E-03-5.13933E-11
 -1        54 1.34894E-02-4.54097E-03 3.87367E-11
 -1        55 0.00000E+00 8.03710E-06-1.02765E-10
 -1        56 2.44518E-10 8.03710E-06-1.02765E-10
 -1        57 8.99092E-03 8.99092E-03-2.05714E-10
 -1        58 8.99092E-03 8.99092E-03-2.95685E-10
 -1        59 2.25045E-02 4.47389E-03-1.41000E-10
 -1        60 2.25044E-02-4.54106E-03-5.08704E-11
 -1        61 0.00000E+00 8.00128E-06-8.97298E-11
 -1        62 2.33373E-10 8.00151E-06-8.96632E-11
 -1        63 4.47397E-03 1.34895E-02-5.13933E-11
 -1        64 4.47389E-03 2.25045E-02-1.41000E-10
 -1        65-9.96844E+00-9.96844E+00 4.11731E-16
 -1        66-9.96844E+00-9.96844E+00 1.41434E-16
 -1        67 0.00000E+00 8.00128E-06 9.02911E-11
 -1        68-2.34681E-10 8.00151E-06 9.03577E-11
 -1        69-4.54097E-03 1.34894E-02 3.87367E-11
 -1        70-4.54106E-03 2.25044E-02-5.08704E-11
 -1        71-9.96844E+00-9.96844E+00 8.05764E-17
 -1        72-9.96844E+00-9.96844E+00 2.60739E-16
 -3
    1PSTEP                       125          42           1          
  100CL  142 3.32281E-01          72                     0   42           1
 -4  STRESS      6    1
 -5  SXX         1    4    1    1
 -5  SYY         1    4    2    2
 -5  SZZ         1    4    3    3
 -5  SXY         1    4    1    2
 -5  SYZ         1    4    2    3
 -5  SZX         1    4    3    1
 -1         1 9.18497E-11 9.18497E-11-1.44921E-18-5.69459E-23 8.28612E-24 8.28379E-24
 -1         2 4.59248E-11 4.59248E-11 3.86962E-19 8.41702E-19 4.14491E-24-1.84578E-19
 -1         3 4.12752E-11 5.14499E-08 9.11387E-12 3.99914E-11-7.58415E-22-6.51081E-12
 -1         4 4.44535E-12 5.13454E-08-9.11399E-12 3.99919E-11-7.63614E-22-6.51111E-12
 -1         5 2.05864E-08 5.82473E-08 1.01907E-08 1.89142E-08-6.30506E-17-7.27034E-09
 -1         6-4.10823E-08-1.16977E-07-2.03307E-08 3.77795E-08-1.26101E-16-1.45394E-08
 -1         7 4.59248E-11 4.59248E-11 3.86962E-19 8.41702E-19-1.84578E-19 4.14485E-24
 -1         8 3.06166E-11 3.06166E-11 9.99020E-19 1.12229E-18-1.23052E-19-1.23052E-19
 -1         9 2.75178E-11 3.43000E-08 6.07601E-12 4.09145E-12 1.91800E-16-4.34054E-12
 -1        10 2.96457E-12 3.42303E-08-6.07590E-12 4.09179E-12 1.91593E-16-4.34074E-12
 -1        11 1.36711E-08 3.88109E-08 6.77836E-09-1.25933E-08-1.10268E-12-4.84689E-09
 -1        12-2.06209E-08-5.85195E-08-1.01886E-08-1.89144E-08-1.65403E-12-7.26972E-09
 -1        13 5.14499E-08 4.12752E-11 9.11387E-12 3.99914E-11-6.51081E-12-7.57050E-22
 -1        14 3.43000E-08 2.75178E-11 6.07601E-12 4.09145E-12-4.34054E-12 1.91806E-16
 -1        15 7.98548E-09 7.98548E-09-6.78234E-09-4.00282E-09 2.42226E-09 2.42226E-09
 -1        16 2.16886E-08 4.68801E-08 3.84292E-16 8.59295E-09 2.42226E-09 2.42226E-09
 -1        17 4.63520E-09 1.25609E-08 1.97097E-11 8.60696E-09 2.41253E-09-2.42652E-09
 -1        18-1.36376E-08-3.96048E-08-1.01620E-08 3.17271E-08 3.61879E-09-3.63978E-09
 -1        19 5.13454E-08 4.44535E-12-9.11399E-12 3.99919E-11-6.51111E-12-7.64906E-22
 -1        20 3.42303E-08 2.96457E-12-6.07590E-12 4.09179E-12-4.34074E-12 1.91603E-16
 -1        21 4.68801E-08 2.16886E-08 1.71319E-17 8.59295E-09 2.42226E-09 2.42226E-09
 -1        22 6.05832E-08 6.05832E-08 6.78234E-09 2.11887E-08 2.42226E-09 2.42226E-09
 -1        23 4.33724E-08 2.62091E-08 6.77467E-09-4.01162E-09 2.41253E-09-2.42652E-09
 -1        24 4.44681E-08-1.91325E-08-2.95645E-11 1.27993E-08 3.61879E-09-3.63978E-09
 -1        25 5.82473E-08 2.05864E-08 1.01907E-08 1.89142E-08-7.27034E-09-6.30506E-17
 -1        26 3.88109E-08 1.36711E-08 6.77836E-09-1.25933E-08-4.84689E-09-1.10268E-12
 -1        27 1.25609E-08 4.63520E-09 1.97091E-11 8.60696E-09-2.42652E-09 2.41253E-09
 -1        28 2.62091E-08 4.33724E-08 6.77467E-09-4.01162E-09-2.42652E-09 2.41253E-09
 -1        29 1.43538E-14 1.82151E-15 4.60247E-14-6.26617E-15-4.64166E-14-4.64166E-14
 -1        30 2.46876E-13 5.59726E-13 2.63195E-13 1.56425E-13 1.35533E-13 1.35532E-13
 -1        31-1.16977E-07-4.10823E-08-2.03307E-08 3.77795E-08-1.45394E-08-1.26101E-16
 -1        32-5.85195E-08-2.06209E-08-1.01886E-08-1.89144E-08-7.26972E-09-1.65403E-12
 -1        33-3.96048E-08-1.36376E-08-1.01620E-08 3.17271E-08-3.63978E-09 3.61879E-09
 -1        34-1.91325E-08 4.44681E-08-2.95643E-11 1.27993E-08-3.63978E-09 3.61879E-09
 -1        35 3.51367E-14 7.26893E-14 4.44332E-14 1.87763E-14 2.42103E-13 2.42103E-13
 -1        36 1.98938E-13 4.04021E-13 2.59107E-13 1.02542E-13-5.92095E-13-5.92095E-13
 -1        37 9.18497E-11 9.18497E-11-2.99970E-18-5.69426E-23-1.20814E-19-1.20814E-19
 -1        38 4.59248E-11 4.59248E-11-3.88283E-19 8.41702E-19-6.04071E-20-2.44989E-19
 -1        39 4.12744E-11 5.14499E-08 9.11384E-12 3.99914E-11-2.42213E-16 6.51060E-12
 -1        40 4.44448E-12 5.13454E-08-9.11402E-12 3.99919E-11-2.42917E-16 6.51030E-12
 -1        41 2.05860E-08 5.82405E-08 1.01886E-08 1.89142E-08 5.38169E-12 7.26972E-09
 -1        42-4.10832E-08-1.16991E-07-2.03351E-08 3.77795E-08 1.07634E-11 1.45407E-08
 -1        43 4.59248E-11 4.59248E-11-3.88283E-19 8.41702E-19-2.44989E-19-6.04071E-20
 -1        44 3.06166E-11 3.06166E-11 4.82190E-19 1.12229E-18-1.63326E-19-1.63326E-19
 -1        45 2.75172E-11 3.43000E-08 6.07600E-12 4.09145E-12 3.03245E-17 4.34040E-12
 -1        46 2.96399E-12 3.42303E-08-6.07591E-12 4.09179E-12 2.96486E-17 4.34020E-12
 -1        47 1.36708E-08 3.88064E-08 6.77691E-09-1.25933E-08 2.48515E-12 4.84648E-09
 -1        48-2.06214E-08-5.85263E-08-1.01907E-08-1.89144E-08 3.72773E-12 7.27034E-09
 -1        49 5.14499E-08 4.12744E-11 9.11385E-12 3.99914E-11 6.51060E-12-2.42241E-16
 -1        50 3.43000E-08 2.75172E-11 6.07600E-12 4.09145E-12 4.34040E-12 3.03121E-17
 -1        51 7.98548E-09 7.98548E-09-6.78234E-09-4.00282E-09-2.42226E-09-2.42226E-09
 -1        52 2.16886E-08 4.68801E-08-2.33625E-16 8.59295E-09-2.42226E-09-2.42226E-09
 -1        53 4.63520E-09 1.25609E-08 1.97098E-11 8.60696E-09-2.41253E-09 2.42652E-09
 -1        54-1.36376E-08-3.96048E-08-1.01620E-08 3.17271E-08-3.61879E-09 3.63978E-09
 -1        55 5.13454E-08 4.44448E-12-9.11402E-12 3.99919E-11 6.51030E-12-2.42977E-16
 -1        56 3.42303E-08 2.96399E-12-6.07591E-12 4.09179E-12 4.34020E-12 2.96183E-17
 -1        57 4.68801E-08 2.16886E-08 2.77622E-17 8.59295E-09-2.42226E-09-2.42226E-09
 -1        58 6.05832E-08 6.05832E-08 6.78234E-09 2.11887E-08-2.42226E-09-2.42226E-09
 -1        59 4.33724E-08 2.62091E-08 6.77467E-09-4.01162E-09-2.41253E-09 2.42652E-09
 -1        60 4.44681E-08-1.91325E-08-2.95642E-11 1.27993E-08-3.61879E-09 3.63978E-09
 -1        61 5.82405E-08 2.05860E-08 1.01886E-08 1.89142E-08 7.26972E-09 5.38169E-12
 -1        62 3.88064E-08 1.36708E-08 6.77691E-09-1.25933E-08 4.84648E-09 2.48515E-12
 -1        63 1.25609E-08 4.63520E-09 1.97094E-11 8.60696E-09 2.42652E-09-2.41253E-09
 -1        64 2.62091E-08 4.33724E-08 6.77467E-09-4.01162E-09 2.42652E-09-2.41253E-09
 -1        65-1.21915E-14-6.01176E-14 1.94793E-14-2.39630E-14-6.85782E-14-6.53013E-14
 -1        66-4.65809E-13-1.10321E-12-4.49491E-13-3.18699E-13 1.83486E-13 1.52019E-13
 -1        67-1.16991E-07-4.10832E-08-2.03351E-08 3.77795E-08 1.45407E-08 1.07634E-11
 -1        68-5.85263E-08-2.06214E-08-1.01907E-08-1.89144E-08 7.27034E-09 3.72773E-12
 -1        69-3.96048E-08-1.36376E-08-1.01620E-08 3.17271E-08 3.63978E-09-3.61879E-09
 -1        70-1.91325E-08 4.44681E-08-2.95639E-11 1.27993E-08 3.63978E-09-3.61879E-09
 -1        71-1.84973E-13-4.40900E-13-1.75676E-13-1.27963E-13-3.53041E-14 5.99411E-15
 -1        72 1.19302E-13 2.18204E-13 1.79471E-13 4.94509E-14-1.65483E-13-1.55653E-13
 -3
    1PSTEP                       126          42           1          
  100CL  142 3.32281E-01          72                     0   42           1
 -4  TOSTRAIN    6    1
 -5  EXX         1    4    1    1
 -5  EYY         1    4    2    2
 -5  EZZ         1    4    3    3
 -5  EXY         1    4    1    2
 -5  EYZ         1    4    2    3
 -5  EZX         1    4    3    1
 -1         1 3.06166E-16 3.06166E-16-2.62428E-16-3.52522E-28 5.12950E-29 5.12806E-29
 -1         2 1.53083E-16 1.53083E-16-1.31214E-16 5.21054E-24 2.56590E-29-1.14263E-24
 -1         3-7.33164E-14 2.44928E-13-7.35155E-14 2.47566E-16-4.69495E-27-4.03050E-17
 -1         4-7.33164E-14 2.44509E-13-7.34003E-14 2.47569E-16-4.72713E-27-4.03069E-17
 -1         5 2.62009E-16 2.33401E-13-6.40923E-14 1.17088E-13-3.90313E-22-4.50069E-14
 -1         6 5.24017E-16-4.69302E-13 1.28986E-13 2.33873E-13-7.80626E-22-9.00061E-14
 -1         7 1.53083E-16 1.53083E-16-1.31214E-16 5.21054E-24-1.14263E-24 2.56586E-29
 -1         8 1.02055E-16 1.02055E-16-8.74759E-17 6.94750E-24-7.61750E-25-7.61750E-25
 -1         9-4.88776E-14 1.63285E-13-4.90103E-14 2.53280E-17 1.18733E-21-2.68700E-17
 -1        10-4.88776E-14 1.63006E-13-4.89335E-14 2.53301E-17 1.18605E-21-2.68712E-17
 -1        11-2.69750E-17 1.55600E-13-4.26965E-14-7.79586E-14-6.82614E-18-3.00046E-14
 -1        12-4.04625E-17-2.34651E-13 6.45408E-14-1.17089E-13-1.02392E-17-4.50030E-14
 -1        13 2.44928E-13-7.33164E-14-7.35155E-14 2.47566E-16-4.03050E-17-4.68650E-27
 -1        14 1.63285E-13-4.88776E-14-4.90103E-14 2.53280E-17-2.68700E-17 1.18737E-21
 -1        15 3.63073E-14 3.63073E-14-5.51125E-14-2.47794E-14 1.49950E-14 1.49950E-14
 -1        16 3.63073E-14 1.92255E-13-9.79553E-14 5.31945E-14 1.49950E-14 1.49950E-14
 -1        17 4.09814E-15 5.31659E-14-2.44720E-14 5.32803E-14 1.49344E-14-1.50216E-14
 -1        18 6.14720E-15-1.54588E-13 2.76701E-14 1.96409E-13 2.24016E-14-2.25324E-14
 -1        19 2.44509E-13-7.33164E-14-7.34003E-14 2.47569E-16-4.03069E-17-4.73513E-27
 -1        20 1.63006E-13-4.88776E-14-4.89335E-14 2.53301E-17-2.68712E-17 1.18611E-21
 -1        21 1.92255E-13 3.63073E-14-9.79553E-14 5.31945E-14 1.49950E-14 1.49950E-14
 -1        22 1.92255E-13 1.92255E-13-1.40798E-13 1.31168E-13 1.49950E-14 1.49950E-14
 -1        23 1.59416E-13 5.31659E-14-6.71418E-14-2.48319E-14 1.49344E-14-1.50216E-14
 -1        24 2.39124E-13-1.54588E-13-3.63346E-14 7.92407E-14 2.24016E-14-2.25324E-14
 -1        25 2.33401E-13 2.62009E-16-6.40923E-14 1.17088E-13-4.50069E-14-3.90313E-22
 -1        26 1.55600E-13-2.69750E-17-4.26965E-14-7.79586E-14-3.00046E-14-6.82614E-18
 -1        27 5.31659E-14 4.09813E-15-2.44720E-14 5.32803E-14-1.50216E-14 1.49344E-14
 -1        28 5.31659E-14 1.59416E-13-6.71418E-14-2.48319E-14-1.50216E-14 1.49344E-14
 -1        29-4.36025E-39-7.75812E-20 1.96057E-19-3.87906E-20-2.87341E-19-2.87341E-19
 -1        30-6.54038E-39 1.93669E-18 1.01019E-19 9.68345E-19 8.39011E-19 8.39010E-19
 -1        31-4.69302E-13 5.24017E-16 1.28986E-13 2.33873E-13-9.00061E-14-7.80626E-22
 -1        32-2.34651E-13-4.04625E-17 6.45408E-14-1.17089E-13-4.50030E-14-1.02392E-17
 -1        33-1.54588E-13 6.14720E-15 2.76701E-14 1.96409E-13-2.25324E-14 2.24016E-14
 -1        34-1.54588E-13 2.39124E-13-3.63346E-14 7.92407E-14-2.25324E-14 2.24016E-14
 -1        35 2.26471E-40 2.32468E-19 5.75494E-20 1.16234E-19 1.49873E-18 1.49873E-18
 -1        36 4.52942E-40 1.26956E-18 3.72469E-19 6.34781E-19-3.66535E-18-3.66535E-18
 -1        37 3.06166E-16 3.06166E-16-2.62428E-16-3.52502E-28-7.47898E-25-7.47898E-25
 -1        38 1.53083E-16 1.53083E-16-1.31214E-16 5.21054E-24-3.73949E-25-1.51660E-24
 -1        39-7.33164E-14 2.44928E-13-7.35155E-14 2.47566E-16-1.49942E-21 4.03037E-17
 -1        40-7.33164E-14 2.44509E-13-7.34003E-14 2.47569E-16-1.50377E-21 4.03019E-17
 -1        41 2.72729E-16 2.33372E-13-6.40923E-14 1.17088E-13 3.33152E-17 4.50030E-14
 -1        42 5.45457E-16-4.69359E-13 1.28986E-13 2.33873E-13 6.66304E-17 9.00137E-14
 -1        43 1.53083E-16 1.53083E-16-1.31214E-16 5.21054E-24-1.51660E-24-3.73949E-25
 -1        44 1.02055E-16 1.02055E-16-8.74759E-17 6.94750E-24-1.01107E-24-1.01107E-24
 -1        45-4.88776E-14 1.63285E-13-4.90103E-14 2.53280E-17 1.87723E-22 2.68692E-17
 -1        46-4.88776E-14 1.63006E-13-4.89335E-14 2.53301E-17 1.83539E-22 2.68679E-17
 -1        47-1.98283E-17 1.55581E-13-4.26965E-14-7.79586E-14 1.53843E-17 3.00020E-14
 -1        48-2.97425E-17-2.34679E-13 6.45408E-14-1.17089E-13 2.30764E-17 4.50069E-14
 -1        49 2.44928E-13-7.33164E-14-7.35155E-14 2.47566E-16 4.03037E-17-1.49959E-21
 -1        50 1.63285E-13-4.88776E-14-4.90103E-14 2.53280E-17 2.68692E-17 1.87646E-22
 -1        51 3.63073E-14 3.63073E-14-5.51125E-14-2.47794E-14-1.49950E-14-1.49950E-14
 -1        52 3.63073E-14 1.92255E-13-9.79553E-14 5.31945E-14-1.49950E-14-1.49950E-14
 -1        53 4.09814E-15 5.31660E-14-2.44720E-14 5.32803E-14-1.49344E-14 1.50216E-14
 -1        54 6.14720E-15-1.54588E-13 2.76701E-14 1.96409E-13-2.24016E-14 2.25324E-14
 -1        55 2.44509E-13-7.33164E-14-7.34003E-14 2.47569E-16 4.03019E-17-1.50414E-21
 -1        56 1.63006E-13-4.88776E-14-4.89335E-14 2.53301E-17 2.68679E-17 1.83351E-22
 -1        57 1.92255E-13 3.63073E-14-9.79553E-14 5.31945E-14-1.49950E-14-1.49950E-14
 -1        58 1.92255E-13 1.92255E-13-1.40798E-13 1.31168E-13-1.49950E-14-1.49950E-14
 -1        59 1.59416E-13 5.31660E-14-6.71418E-14-2.48319E-14-1.49344E-14 1.50216E-14
 -1        60 2.39124E-13-1.54588E-13-3.63346E-14 7.92407E-14-2.24016E-14 2.25324E-14
 -1        61 2.33372E-13 2.72729E-16-6.40923E-14 1.17088E-13 4.50030E-14 3.33152E-17
 -1        62 1.55581E-13-1.98283E-17-4.26965E-14-7.79586E-14 3.00020E-14 1.53843E-17
 -1        63 5.31660E-14 4.09813E-15-2.44720E-14 5.32803E-14 1.50216E-14-1.49344E-14
 -1        64 5.31660E-14 1.59416E-13-6.71418E-14-2.48319E-14 1.50216E-14-1.49344E-14
 -1        65 2.18006E-38-2.96685E-19 1.96057E-19-1.48343E-19-4.24532E-19-4.04246E-19
 -1        66 3.27009E-38-3.94579E-18 1.01019E-19-1.97290E-18 1.13587E-18 9.41069E-19
 -1        67-4.69359E-13 5.45457E-16 1.28986E-13 2.33873E-13 9.00137E-14 6.66304E-17
 -1        68-2.34679E-13-2.97425E-17 6.45408E-14-1.17089E-13 4.50069E-14 2.30764E-17
 -1        69-1.54588E-13 6.14720E-15 2.76701E-14 1.96409E-13 2.25324E-14-2.24016E-14
 -1        70-1.54588E-13 2.39124E-13-3.63346E-14 7.92407E-14 2.25324E-14-2.24016E-14
 -1        71-1.13392E-39-1.58431E-18 5.75494E-20-7.92155E-19-2.18549E-19 3.71064E-20
 -1        72-2.26785E-39 6.12249E-19 3.72469E-19 3.06125E-19-1.02442E-18-9.63564E-19
 -3
    1PSTEP                       127          43           1          
  100CL  143 3.33406E-01          72                     0   43           1
 -4  DISP        4    1
 -5  D1          1    2    1    0
 -5  D2          1    2    2    0
 -5  D3          1    2    3    0
 -5  ALL         1    2    0    0    1ALL
 -1         1 0.00000E+00 0.00000E+00 0.00000E+00
 -1         2 7.09474E-15 0.00000E+00 0.00000E+00
 -1         3 3.72474E-07 0.00000E+00 0.00000E+00
 -1         4 3.72480E-07 0.00000E+00 0.00000E+00
 -1         5 6.91748E-07 0.00000E+00 0.00000E+00
 -1         6 6.91766E-07 0.00000E+00 0.00000E+00
 -1         7 0.00000E+00 7.09474E-15 0.00000E+00
 -1         8 7.09474E-15 7.09474E-15 0.00000E+00
 -1         9 3.72474E-07-1.98434E-11 0.00000E+00
 -1        10 3.72480E-07-1.98462E-11 0.00000E+00
 -1        11 6.91748E-07-5.95139E-11 0.00000E+00
 -1        12 6.91766E-07-5.95305E-11 0.00000E+00
 -1        13 0.00000E+00 3.72474E-07 0.00000E+00
 -1        14-1.98434E-11 3.72474E-07 0.00000E+00
 -1        15-7.29220E-04-7.29220E-04 0.00000E+00
 -1        16-7.29220E-04-7.29220E-04 0.00000E+00
 -1        17-1.45857E-03-2.18750E-03 0.00000E+00
 -1        18-1.45857E-03-2.18750E-03 0.00000E+00
 -1        19 0.00000E+00 3.72480E-07 0.00000E+00
 -1        20-1.98462E-11 3.72480E-07 0.00000E+00
 -1        21-7.29220E-04-7.29220E-04 0.00000E+00
 -1        22-7.29220E-04-7.29220E-04 0.00000E+00
 -1        23-1.45857E-03-2.18750E-03 0.00000E+00
 -1        24-1.45857E-03-2.18750E-03 0.00000E+00
 -1        25 0.00000E+00 6.91748E-07 0.00000E+00
 -1        26-5.95139E-11 6.91748E-07 0.00000E+00
 -1        27-2.18750E-03-1.45857E-03 0.00000E+00
 -1        28-2.18750E-03-1.45857E-03 0.00000E+00
 -1        29-1.00022E+01-1.00022E+01 0.00000E+00
 -1        30-1.00022E+01-1.00022E+01 0.00000E+00
 -1        31 0.00000E+00 6.91766E-07 0.00000E+00
 -1        32-5.95305E-11 6.91766E-07 0.00000E+00
 -1        33-2.18750E-03-1.45857E-03 0.00000E+00
 -1        34-2.18750E-03-1.45857E-03 0.00000E+00
 -1        35-1.00022E+01-1.00022E+01 0.00000E+00
 -1        36-1.00022E+01-1.00022E+01 0.00000E+00
 -1        37 0.00000E+00 0.00000E+00-8.51368E-15
 -1        38 7.09474E-15 0.00000E+00-8.51368E-15
 -1        39 3.72474E-07 0.00000E+00 8.32915E-12
 -1        40 3.72480E-07 0.00000E+00 8.33022E-12
 -1        41 6.91748E-07 0.00000E+00 2.49938E-11
 -1        42 6.91766E-07 0.00000E+00 2.50001E-11
 -1        43 0.00000E+00 7.09474E-15-8.51368E-15
 -1        44 7.09474E-15 7.09474E-15-8.51368E-15
 -1        45 3.72474E-07-1.98434E-11 8.32915E-12
 -1        46 3.72480E-07-1.98462E-11 8.33022E-12
 -1        47 6.91748E-07-5.95139E-11 2.49938E-11
 -1        48 6.91766E-07-5.95305E-11 2.50001E-11
 -1        49 0.00000E+00 3.72474E-07 8.32915E-12
 -1        50-1.98434E-11 3.72474E-07 8.32915E-12
 -1        51-7.29220E-04-7.29220E-04 1.66679E-11
 -1        52-7.29220E-04-7.29220E-04 1.66679E-11
 -1        53-1.45857E-03-2.18750E-03 2.19260E-11
 -1        54-1.45857E-03-2.18750E-03 3.64663E-11
 -1        55 0.00000E+00 3.72480E-07 8.33022E-12
 -1        56-1.98462E-11 3.72480E-07 8.33022E-12
 -1        57-7.29220E-04-7.29220E-04 1.66679E-11
 -1        58-7.29220E-04-7.29220E-04 1.66679E-11
 -1        59-1.45857E-03-2.18750E-03 2.18527E-11
 -1        60-1.45857E-03-2.18750E-03 3.64162E-11
 -1        61 0.00000E+00 6.91748E-07 2.49938E-11
 -1        62-5.95139E-11 6.91748E-07 2.49938E-11
 -1        63-2.18750E-03-1.45857E-03 2.19329E-11
 -1        64-2.18750E-03-1.45857E-03 2.18458E-11
 -1        65-1.00022E+01-1.00022E+01 6.74926E-17
 -1        66-1.00022E+01-1.00022E+01-4.04943E-16
 -1        67 0.00000E+00 6.91766E-07 2.50001E-11
 -1        68-5.95305E-11 6.91766E-07 2.50001E-11
 -1        69-2.18750E-03-1.45857E-03 3.64577E-11
 -1        70-2.18750E-03-1.45857E-03 3.64248E-11
 -1        71-1.00022E+01-1.00022E+01-5.71850E-17
 -1        72-1.00022E+01-1.00022E+01 2.64531E-16
 -3
    1PSTEP                       128          43           1          
  100CL  143 3.33406E-01          72                     0   43           1
 -4  FORC        4    1
 -5  F1          1    2    1    0
 -5  F2          1    2    2    0
 -5  F3          1    2    3    0
 -5  ALL         1    2    0    0    1ALL
 -1         1 0.00000E+00 0.00000E+00 0.00000E+00
 -1         2-4.24639E-16 0.00000E+00 0.00000E+00
 -1         3-4.59210E-16 0.00000E+00 0.00000E+00
 -1         4 2.31940E-15 0.00000E+00 0.00000E+00
 -1         5-8.26783E-15 0.00000E+00 0.00000E+00
 -1         6 7.65976E-15 0.00000E+00 0.00000E+00
 -1         7 0.00000E+00-4.12329E-16 0.00000E+00
 -1         8-4.24638E-16-4.12330E-16 0.00000E+00
 -1         9 1.07283E-15-7.82501E-15 0.00000E+00
 -1        10 3.43140E-15 4.76318E-14 0.00000E+00
 -1        11-6.45360E-15-4.84118E-15 0.00000E+00
 -1        12 2.80885E-15-2.58951E-15 0.00000E+00
 -1        13 0.00000E+00 2.08615E-16 0.00000E+00
 -1        14 3.59891E-14-6.61854E-17 0.00000E+00
 -1        15 1.85656E-12-1.14196E-12 0.00000E+00
 -1        16-2.48888E-13-1.01805E-12 0.00000E+00
 -1        17-1.07314E-11-7.22269E-12 0.00000E+00
 -1        18 5.01990E-12-6.04012E-12 0.00000E+00
 -1        19 0.00000E+00 2.55948E-15 0.00000E+00
 -1        20-1.65334E-14 3.11914E-15 0.00000E+00
 -1        21-7.71727E-13 2.57337E-12 0.00000E+00
 -1        22-5.88398E-13-2.73174E-13 0.00000E+00
 -1        23-5.00594E-12-7.57150E-03 0.00000E+00
 -1        24 4.32248E-12-8.89315E-03 0.00000E+00
 -1        25 0.00000E+00-3.66020E-15 0.00000E+00
 -1        26 2.84438E-14-3.23672E-15 0.00000E+00
 -1        27-5.11871E-12-1.00547E-11 0.00000E+00
 -1        28 2.31736E-02-4.25771E-12 0.00000E+00
 -1        29 0.00000E+00 0.00000E+00 0.00000E+00
 -1        30 0.00000E+00 0.00000E+00 0.00000E+00
 -1        31 0.00000E+00 7.58945E-16 0.00000E+00
 -1        32 4.79694E-15 2.57073E-15 0.00000E+00
 -1        33-9.31990E-12 1.02052E-11 0.00000E+00
 -1        34 1.79090E-02 4.76755E-12 0.00000E+00
 -1        35 0.00000E+00 0.00000E+00 0.00000E+00
 -1        36 0.00000E+00 0.00000E+00 0.00000E+00
 -1        37 0.00000E+00 0.00000E+00-2.67878E-23
 -1        38-4.24640E-16 0.00000E+00 3.71685E-23
 -1        39 1.05175E-16 0.00000E+00-1.13206E-16
 -1        40 4.72393E-15 0.00000E+00-6.93172E-18
 -1        41-9.20202E-15 0.00000E+00 1.93291E-15
 -1        42 4.46745E-15 0.00000E+00 1.13127E-15
 -1        43 0.00000E+00-4.12329E-16-1.56733E-23
 -1        44-4.24639E-16-4.12330E-16-1.52038E-23
 -1        45 1.63639E-15-8.07882E-15 2.19368E-16
 -1        46 2.28690E-15 4.73211E-14-3.01569E-16
 -1        47-6.54997E-15 6.48266E-15 1.64879E-15
 -1        48 2.07805E-15-1.87151E-14 5.00572E-16
 -1        49 0.00000E+00 4.21778E-16 1.11415E-16
 -1        50 3.61023E-14 1.12722E-15-1.65556E-16
 -1        51 6.80553E-13-2.11001E-12 2.05753E-13
 -1        52 5.18704E-13-2.76883E-12 3.50413E-13
 -1        53-7.22378E-12-1.27646E-11 3.30300E-12
 -1        54 5.66244E-12 2.84860E-12 5.06039E-12
 -1        55 0.00000E+00 3.02875E-15 7.44904E-18
 -1        56-1.69119E-14 4.72631E-15 3.25374E-17
 -1        57-6.66736E-13 3.82659E-12 3.83434E-13
 -1        58-8.55835E-13 1.06372E-12 3.08010E-13
 -1        59 1.33134E-12-2.71054E-03-1.14820E-12
 -1        60 6.65441E-12-6.91739E-03 2.39871E-12
 -1        61 0.00000E+00-3.36541E-15 8.14271E-16
 -1        62-1.19518E-14-7.23751E-15 1.34646E-15
 -1        63-5.59010E-12-8.98969E-12 7.43930E-12
 -1        64 2.37650E-02-7.51086E-12-1.00241E-12
 -1        65 0.00000E+00 0.00000E+00 9.52216E-19
 -1        66 0.00000E+00 0.00000E+00 1.06002E-18
 -1        67 0.00000E+00 9.55874E-16-2.47769E-16
 -1        68 1.25342E-14-2.78224E-16-6.80996E-16
 -1        69-1.36427E-11 1.03184E-11 6.45831E-12
 -1        70 2.58625E-02 5.32395E-12 8.66205E-13
 -1        71 0.00000E+00 0.00000E+00-6.71414E-19
 -1        72 0.00000E+00 0.00000E+00-6.19436E-25
 -3
