    1C
    1UUSER                                                              
    1UDATE              13.june.2016                                    
    1UTIME              11:11:13                                        
    1UHOST                                                              
    1UPGM               CalculiX                                        
    1UDIR                                                               
    1UDBN                                                               
    1UMAT    1EL                                                        
    2C                            32                                     1
 -1         1 0.00000E+00 0.00000E+00 0.00000E+00
 -1         2 5.00000E+02 0.00000E+00 0.00000E+00
 -1         3 1.00000E+03 0.00000E+00 0.00000E+00
 -1         4 1.50000E+03 0.00000E+00 0.00000E+00
 -1         5 0.00000E+00 5.00000E+02 0.00000E+00
 -1         6 5.00000E+02 5.00000E+02 0.00000E+00
 -1         7 1.00000E+03 5.00000E+02 0.00000E+00
 -1         8 1.50000E+03 5.00000E+02 0.00000E+00
 -1         9 0.00000E+00 1.00000E+03 0.00000E+00
 -1        10 5.00000E+02 1.00000E+03 0.00000E+00
 -1        11 1.00000E+03 1.00000E+03 0.00000E+00
 -1        12 1.50000E+03 1.00000E+03 0.00000E+00
 -1        13 0.00000E+00 1.50000E+03 0.00000E+00
 -1        14 5.00000E+02 1.50000E+03 0.00000E+00
 -1        15 1.00000E+03 1.50000E+03 0.00000E+00
 -1        16 1.50000E+03 1.50000E+03 0.00000E+00
 -1        17 0.00000E+00 0.00000E+00 7.00000E+02
 -1        18 5.00000E+02 0.00000E+00 7.00000E+02
 -1        19 1.00000E+03 0.00000E+00 7.00000E+02
 -1        20 1.50000E+03 0.00000E+00 7.00000E+02
 -1        21 0.00000E+00 5.00000E+02 7.00000E+02
 -1        22 5.00000E+02 5.00000E+02 7.00000E+02
 -1        23 1.00000E+03 5.00000E+02 7.00000E+02
 -1        24 1.50000E+03 5.00000E+02 7.00000E+02
 -1        25 0.00000E+00 1.00000E+03 7.00000E+02
 -1        26 5.00000E+02 1.00000E+03 7.00000E+02
 -1        27 1.00000E+03 1.00000E+03 7.00000E+02
 -1        28 1.50000E+03 1.00000E+03 7.00000E+02
 -1        29 0.00000E+00 1.50000E+03 7.00000E+02
 -1        30 5.00000E+02 1.50000E+03 7.00000E+02
 -1        31 1.00000E+03 1.50000E+03 7.00000E+02
 -1        32 1.50000E+03 1.50000E+03 7.00000E+02
 -3
    3C                             9                                     1
 -1         1    1    0    1
 -2         1         2         6         5        17        18        22        21
 -1         2    1    0    1
 -2         2         3         7         6        18        19        23        22
 -1         3    1    0    1
 -2         3         4         8         7        19        20        24        23
 -1         4    1    0    1
 -2         5         6        10         9        21        22        26        25
 -1         5    1    0    1
 -2         6         7        11        10        22        23        27        26
 -1         6    1    0    1
 -2         7         8        12        11        23        24        28        27
 -1         7    1    0    1
 -2         9        10        14        13        25        26        30        29
 -1         8    1    0    1
 -2        10        11        15        14        26        27        31        30
 -1         9    1    0    1
 -2        11        12        16        15        27        28        32        31
 -3
    1PSTEP                         1           1           1          
  100CL  101 5.00000E-02          32                     0    1           1
 -4  DISP        4    1
 -5  D1          1    2    1    0
 -5  D2          1    2    2    0
 -5  D3          1    2    3    0
 -5  ALL         1    2    0    0    1ALL
 -1         1 0.00000E+00 0.00000E+00 0.00000E+00
 -1         2-3.33333E+00 0.00000E+00 0.00000E+00
 -1         3-6.66667E+00 0.00000E+00 0.00000E+00
 -1         4-1.00000E+01 0.00000E+00 0.00000E+00
 -1         5 0.00000E+00 9.95675E-01 0.00000E+00
 -1         6-3.33333E+00 9.95675E-01 0.00000E+00
 -1         7-6.66667E+00 9.95675E-01 0.00000E+00
 -1         8-1.00000E+01 9.95675E-01 0.00000E+00
 -1         9 0.00000E+00 1.99135E+00 0.00000E+00
 -1        10-3.33333E+00 1.99135E+00 0.00000E+00
 -1        11-6.66667E+00 1.99135E+00 0.00000E+00
 -1        12-1.00000E+01 1.99135E+00 0.00000E+00
 -1        13 0.00000E+00 2.98703E+00 0.00000E+00
 -1        14-3.33333E+00 2.98703E+00 0.00000E+00
 -1        15-6.66667E+00 2.98703E+00 0.00000E+00
 -1        16-1.00000E+01 2.98703E+00 0.00000E+00
 -1        17 0.00000E+00 0.00000E+00 1.39395E+00
 -1        18-3.33333E+00 0.00000E+00 1.39395E+00
 -1        19-6.66667E+00 0.00000E+00 1.39395E+00
 -1        20-1.00000E+01 0.00000E+00 1.39395E+00
 -1        21 0.00000E+00 9.95675E-01 1.39395E+00
 -1        22-3.33333E+00 9.95675E-01 1.39395E+00
 -1        23-6.66667E+00 9.95675E-01 1.39395E+00
 -1        24-1.00000E+01 9.95675E-01 1.39395E+00
 -1        25 0.00000E+00 1.99135E+00 1.39395E+00
 -1        26-3.33333E+00 1.99135E+00 1.39395E+00
 -1        27-6.66667E+00 1.99135E+00 1.39395E+00
 -1        28-1.00000E+01 1.99135E+00 1.39395E+00
 -1        29 0.00000E+00 2.98703E+00 1.39395E+00
 -1        30-3.33333E+00 2.98703E+00 1.39395E+00
 -1        31-6.66667E+00 2.98703E+00 1.39395E+00
 -1        32-1.00000E+01 2.98703E+00 1.39395E+00
 -3
    1PSTEP                         2           1           1          
  100CL  101 5.00000E-02          32                     0    1           1
 -4  STRESS      6    1
 -5  SXX         1    4    1    1
 -5  SYY         1    4    2    2
 -5  SZZ         1    4    3    3
 -5  SXY         1    4    1    2
 -5  SYZ         1    4    2    3
 -5  SZX         1    4    3    1
 -1         1-1.38047E+03 4.56203E-05 4.56203E-05-3.75817E-14 4.29566E-15 1.04049E-14
 -1         2-1.38047E+03 4.56203E-05 4.56203E-05-1.21709E-13 7.09205E-15 3.16643E-14
 -1         3-1.38047E+03 4.56203E-05 4.56203E-05-5.83683E-14-1.11655E-14 2.10207E-13
 -1         4-1.38047E+03 4.56203E-05 4.56203E-05 2.42721E-13 3.45644E-15-3.89829E-13
 -1         5-1.38047E+03 4.56203E-05 4.56203E-05 5.82811E-14-4.63095E-14-1.57797E-14
 -1         6-1.38047E+03 4.56203E-05 4.56203E-05-2.15796E-14-3.22957E-14 2.20133E-13
 -1         7-1.38047E+03 4.56203E-05 4.56203E-05 9.53012E-14-3.85566E-14 2.11621E-13
 -1         8-1.38047E+03 4.56203E-05 4.56203E-05-8.53908E-14 4.79990E-14-1.50033E-13
 -1         9-1.38047E+03 4.56203E-05 4.56203E-05-1.72331E-14 6.36409E-14-2.79466E-14
 -1        10-1.38047E+03 4.56203E-05 4.56203E-05 2.95923E-14 1.69528E-14 1.27210E-13
 -1        11-1.38047E+03 4.56203E-05 4.56203E-05 3.23156E-13 3.86377E-14 1.92639E-13
 -1        12-1.38047E+03 4.56203E-05 4.56203E-05 1.52990E-13 7.34686E-14 2.59624E-13
 -1        13-1.38047E+03 4.56203E-05 4.56203E-05-1.53455E-14-1.64535E-13 2.58081E-14
 -1        14-1.38047E+03 4.56203E-05 4.56203E-05 2.35533E-13-1.39335E-13 2.34119E-15
 -1        15-1.38047E+03 4.56203E-05 4.56203E-05 4.13524E-13 9.05685E-14-1.29942E-13
 -1        16-1.38047E+03 4.56203E-05 4.56203E-05 9.25748E-14 1.32475E-13 2.99158E-13
 -1        17-1.38047E+03 4.56203E-05 4.56203E-05 4.77744E-15 4.75957E-14 4.53982E-15
 -1        18-1.38047E+03 4.56203E-05 4.56203E-05-6.84482E-14-9.25721E-14 1.24176E-13
 -1        19-1.38047E+03 4.56203E-05 4.56203E-05-4.09010E-13 9.11892E-14 3.31977E-14
 -1        20-1.38047E+03 4.56203E-05 4.56203E-05-4.23961E-15 1.66240E-14-3.31130E-13
 -1        21-1.38047E+03 4.56203E-05 4.56203E-05-2.20707E-14-2.15419E-15-1.02565E-13
 -1        22-1.38047E+03 4.56203E-05 4.56203E-05 1.19957E-13-4.14940E-14 1.87783E-14
 -1        23-1.38047E+03 4.56203E-05 4.56203E-05-1.43342E-13 5.08423E-14 3.43247E-14
 -1        24-1.38047E+03 4.56203E-05 4.56203E-05 1.37713E-14-2.54218E-14 9.02058E-14
 -1        25-1.38047E+03 4.56203E-05 4.56203E-05-1.05829E-14 7.07467E-14-1.79598E-14
 -1        26-1.38047E+03 4.56203E-05 4.56203E-05 1.27014E-13 1.11151E-14 1.23189E-13
 -1        27-1.38047E+03 4.56203E-05 4.56203E-05-1.51589E-13 7.12250E-14 1.95296E-13
 -1        28-1.38047E+03 4.56203E-05 4.56203E-05-6.40566E-14 6.45244E-14-1.62832E-14
 -1        29-1.38047E+03 4.56203E-05 4.56203E-05-2.81227E-14-1.58114E-14-8.92839E-14
 -1        30-1.38047E+03 4.56203E-05 4.56203E-05 7.13192E-14-1.02486E-13-6.78353E-14
 -1        31-1.38047E+03 4.56203E-05 4.56203E-05-3.11493E-13 1.81391E-13 1.19082E-13
 -1        32-1.38047E+03 4.56203E-05 4.56203E-05-2.04904E-14 1.34801E-13-8.92370E-16
 -3
    1PSTEP                         3           1           1          
  100CL  101 5.00000E-02          32                     0    1           1
 -4  TOSTRAIN    6    1
 -5  EXX         1    4    1    1
 -5  EYY         1    4    2    2
 -5  EZZ         1    4    3    3
 -5  EXY         1    4    1    2
 -5  EYZ         1    4    2    3
 -5  EZX         1    4    3    1
 -1         1-6.64418E-03 1.99325E-03 1.99325E-03-2.33860E-19 2.64149E-20 6.45355E-20
 -1         2-6.64418E-03 1.99325E-03 1.99325E-03-7.54941E-19 4.36105E-20 1.96522E-19
 -1         3-6.64418E-03 1.99325E-03 1.99325E-03-3.61984E-19-6.86591E-20 1.30403E-18
 -1         4-6.64418E-03 1.99325E-03 1.99325E-03 1.50493E-18 2.12544E-20-2.41796E-18
 -1         5-6.64418E-03 1.99325E-03 1.99325E-03 3.67741E-19-2.84767E-19-9.74193E-20
 -1         6-6.64418E-03 1.99325E-03 1.99325E-03-1.33887E-19-1.98593E-19 1.36573E-18
 -1         7-6.64418E-03 1.99325E-03 1.99325E-03 5.87576E-19-2.37092E-19 1.31245E-18
 -1         8-6.64418E-03 1.99325E-03 1.99325E-03-5.30480E-19 2.95156E-19-9.31122E-19
 -1         9-6.64418E-03 1.99325E-03 1.99325E-03-1.09460E-19 3.91341E-19-1.73647E-19
 -1        10-6.64418E-03 1.99325E-03 1.99325E-03 1.77399E-19 1.04247E-19 7.88979E-19
 -1        11-6.64418E-03 1.99325E-03 1.99325E-03 1.99966E-18 2.37591E-19 1.19490E-18
 -1        12-6.64418E-03 1.99325E-03 1.99325E-03 9.49090E-19 4.51774E-19 1.61025E-18
 -1        13-6.64418E-03 1.99325E-03 1.99325E-03-9.47179E-20-1.01176E-18 1.59373E-19
 -1        14-6.64418E-03 1.99325E-03 1.99325E-03 1.45793E-18-8.56801E-19 1.41589E-20
 -1        15-6.64418E-03 1.99325E-03 1.99325E-03 2.56174E-18 5.56924E-19-8.05855E-19
 -1        16-6.64418E-03 1.99325E-03 1.99325E-03 5.74223E-19 8.14618E-19 1.85594E-18
 -1        17-6.64418E-03 1.99325E-03 1.99325E-03 2.90245E-20 2.92676E-19 2.83933E-20
 -1        18-6.64418E-03 1.99325E-03 1.99325E-03-4.24541E-19-5.69245E-19 7.64282E-19
 -1        19-6.64418E-03 1.99325E-03 1.99325E-03-2.53703E-18 5.60741E-19 1.97841E-19
 -1        20-6.64418E-03 1.99325E-03 1.99325E-03-2.69985E-20 1.02224E-19-2.05794E-18
 -1        21-6.64418E-03 1.99325E-03 1.99325E-03-1.39272E-19-1.32465E-20-6.48368E-19
 -1        22-6.64418E-03 1.99325E-03 1.99325E-03 7.42979E-19-2.55155E-19 1.10448E-19
 -1        23-6.64418E-03 1.99325E-03 1.99325E-03-8.87299E-19 3.12640E-19 2.11784E-19
 -1        24-6.64418E-03 1.99325E-03 1.99325E-03 8.88777E-20-1.56324E-19 5.57162E-19
 -1        25-6.64418E-03 1.99325E-03 1.99325E-03-6.47391E-20 4.35036E-19-1.13842E-19
 -1        26-6.64418E-03 1.99325E-03 1.99325E-03 7.84153E-19 6.83490E-20 7.61328E-19
 -1        27-6.64418E-03 1.99325E-03 1.99325E-03-9.44656E-19 4.37977E-19 1.20619E-18
 -1        28-6.64418E-03 1.99325E-03 1.99325E-03-3.97798E-19 3.96774E-19-1.08239E-19
 -1        29-6.64418E-03 1.99325E-03 1.99325E-03-1.74565E-19-9.72277E-20-5.62032E-19
 -1        30-6.64418E-03 1.99325E-03 1.99325E-03 4.44494E-19-6.30208E-19-4.25954E-19
 -1        31-6.64418E-03 1.99325E-03 1.99325E-03-1.92995E-18 1.11541E-18 7.35371E-19
 -1        32-6.64418E-03 1.99325E-03 1.99325E-03-1.27098E-19 8.28916E-19-9.92658E-21
 -3
    1PSTEP                         4           2           1          
  100CL  102 1.00000E-01          32                     0    2           1
 -4  DISP        4    1
 -5  D1          1    2    1    0
 -5  D2          1    2    2    0
 -5  D3          1    2    3    0
 -5  ALL         1    2    0    0    1ALL
 -1         1 0.00000E+00 0.00000E+00 0.00000E+00
 -1         2-6.66667E+00 0.00000E+00 0.00000E+00
 -1         3-1.33333E+01 0.00000E+00 0.00000E+00
 -1         4-2.00000E+01 0.00000E+00 0.00000E+00
 -1         5 0.00000E+00 1.98274E+00 0.00000E+00
 -1         6-6.66667E+00 1.98274E+00 0.00000E+00
 -1         7-1.33333E+01 1.98274E+00 0.00000E+00
 -1         8-2.00000E+01 1.98274E+00 0.00000E+00
 -1         9 0.00000E+00 3.96547E+00 0.00000E+00
 -1        10-6.66667E+00 3.96547E+00 0.00000E+00
 -1        11-1.33333E+01 3.96547E+00 0.00000E+00
 -1        12-2.00000E+01 3.96547E+00 0.00000E+00
 -1        13 0.00000E+00 5.94821E+00 0.00000E+00
 -1        14-6.66667E+00 5.94821E+00 0.00000E+00
 -1        15-1.33333E+01 5.94821E+00 0.00000E+00
 -1        16-2.00000E+01 5.94821E+00 0.00000E+00
 -1        17 0.00000E+00 0.00000E+00 2.77583E+00
 -1        18-6.66667E+00 0.00000E+00 2.77583E+00
 -1        19-1.33333E+01 0.00000E+00 2.77583E+00
 -1        20-2.00000E+01 0.00000E+00 2.77583E+00
 -1        21 0.00000E+00 1.98274E+00 2.77583E+00
 -1        22-6.66667E+00 1.98274E+00 2.77583E+00
 -1        23-1.33333E+01 1.98274E+00 2.77583E+00
 -1        24-2.00000E+01 1.98274E+00 2.77583E+00
 -1        25 0.00000E+00 3.96547E+00 2.77583E+00
 -1        26-6.66667E+00 3.96547E+00 2.77583E+00
 -1        27-1.33333E+01 3.96547E+00 2.77583E+00
 -1        28-2.00000E+01 3.96547E+00 2.77583E+00
 -1        29 0.00000E+00 5.94821E+00 2.77583E+00
 -1        30-6.66667E+00 5.94821E+00 2.77583E+00
 -1        31-1.33333E+01 5.94821E+00 2.77583E+00
 -1        32-2.00000E+01 5.94821E+00 2.77583E+00
 -3
    1PSTEP                         5           2           1          
  100CL  102 1.00000E-01          32                     0    2           1
 -4  STRESS      6    1
 -5  SXX         1    4    1    1
 -5  SYY         1    4    2    2
 -5  SZZ         1    4    3    3
 -5  SXY         1    4    1    2
 -5  SYZ         1    4    2    3
 -5  SZX         1    4    3    1
 -1         1-2.72250E+03-7.64372E-13-8.79595E-13-4.81572E-14-2.56592E-14 1.22260E-14
 -1         2-2.72250E+03-3.18915E-13-3.76526E-13 3.46814E-14 5.62618E-14 2.12006E-13
 -1         3-2.72250E+03-6.54790E-13-5.91528E-13 1.83166E-14-4.33758E-14 6.40512E-13
 -1         4-2.72250E+03-9.26117E-14-5.64796E-13 4.43350E-13 6.00519E-14-1.48523E-12
 -1         5-2.72250E+03-4.55228E-13 9.00031E-14 7.94002E-14-2.00286E-14 2.96720E-14
 -1         6-2.72250E+03-1.88258E-13-2.77501E-13 2.75255E-14-9.25191E-14 1.96351E-13
 -1         7-2.72250E+03-6.12621E-13-5.33921E-13 2.96001E-13-7.48894E-14 1.56560E-13
 -1         8-2.72250E+03-9.41235E-14-2.30432E-13-2.38783E-13 1.16068E-13-4.44825E-14
 -1         9-2.72250E+03-3.82181E-13-3.45660E-13 1.61282E-13 8.26039E-14-8.40562E-14
 -1        10-2.72250E+03 4.09687E-13-2.59736E-14-2.12909E-13-1.62329E-13 4.01283E-13
 -1        11-2.72250E+03-4.16638E-13 3.10665E-13 1.70259E-13 3.37701E-14 2.45979E-13
 -1        12-2.72250E+03 2.45886E-13-2.51518E-13 2.03628E-13 1.79753E-13 5.40398E-13
 -1        13-2.72250E+03 1.01743E-12 9.21785E-13 8.36802E-15-3.75447E-13 7.57004E-14
 -1        14-2.72250E+03 5.97202E-13 7.71543E-13-4.69399E-14-5.94465E-14-2.33930E-13
 -1        15-2.72250E+03 1.69470E-14-1.72825E-13 2.46498E-14 1.68697E-13 2.58019E-13
 -1        16-2.72250E+03 1.88275E-13-3.14780E-13 6.83777E-13 3.98661E-13 4.43084E-13
 -1        17-2.72250E+03 1.95787E-14 4.49592E-13-4.67208E-14 5.86699E-14-6.23867E-15
 -1        18-2.72250E+03-2.45868E-13-3.08613E-14 2.39686E-14-7.96694E-14 4.01327E-13
 -1        19-2.72250E+03-9.77549E-15-4.62966E-14 1.56678E-13 1.02118E-13-4.19847E-13
 -1        20-2.72250E+03-7.44793E-13-4.72175E-13-2.86928E-13-2.43131E-13-2.46757E-13
 -1        21-2.72250E+03-3.35871E-13-3.35871E-13-8.08991E-14-6.97712E-14-1.01469E-13
 -1        22-2.72250E+03-5.60662E-13-4.63704E-13-1.42959E-13-2.83488E-14 1.07005E-13
 -1        23-2.72250E+03-2.93695E-13-2.88044E-13-8.24052E-14 1.04627E-13 1.57894E-14
 -1        24-2.72250E+03-5.39576E-13-7.02622E-13 1.20853E-13 1.27850E-13-3.28930E-13
 -1        25-2.72250E+03-6.08493E-13-8.17849E-13-1.18504E-13 3.87236E-14 2.02742E-13
 -1        26-2.72250E+03-7.84149E-13-2.38917E-13 1.37888E-13-1.76982E-13 2.12381E-13
 -1        27-2.72250E+03 1.65117E-13-3.14783E-13-3.11118E-13-9.88252E-14 1.57205E-13
 -1        28-2.72250E+03-8.64155E-13-1.04264E-12 4.14504E-14 1.42581E-13-2.01360E-13
 -1        29-2.72250E+03-2.72618E-13 3.37392E-13 2.78294E-13 7.52762E-14-2.32037E-13
 -1        30-2.72250E+03-3.40019E-13-1.38982E-12-6.37517E-15 2.42279E-14-2.48687E-13
 -1        31-2.72250E+03-7.35013E-13-1.11720E-12-6.04046E-14-2.15996E-14 5.45609E-13
 -1        32-2.72250E+03 9.56537E-14-8.60016E-13 2.47016E-13 3.57001E-14-9.62652E-14
 -3
    1PSTEP                         6           2           1          
  100CL  102 1.00000E-01          32                     0    2           1
 -4  TOSTRAIN    6    1
 -5  EXX         1    4    1    1
 -5  EYY         1    4    2    2
 -5  EZZ         1    4    3    3
 -5  EXY         1    4    1    2
 -5  EYZ         1    4    2    3
 -5  EZX         1    4    3    1
 -1         1-1.32439E-02 3.97317E-03 3.97317E-03-2.99548E-19-1.56725E-19 7.67815E-20
 -1         2-1.32439E-02 3.97317E-03 3.97317E-03 2.15544E-19 3.43644E-19 1.31827E-18
 -1         3-1.32439E-02 3.97317E-03 3.97317E-03 1.14089E-19-2.64937E-19 3.98209E-18
 -1         4-1.32439E-02 3.97317E-03 3.97317E-03 2.75569E-18 3.66793E-19-9.22862E-18
 -1         5-1.32439E-02 3.97317E-03 3.97317E-03 5.06639E-19-1.22333E-19 1.86463E-19
 -1         6-1.32439E-02 3.97317E-03 3.97317E-03 1.71192E-19-5.65101E-19 1.22132E-18
 -1         7-1.32439E-02 3.97317E-03 3.97317E-03 1.82637E-18-4.57420E-19 9.71884E-19
 -1         8-1.32439E-02 3.97317E-03 3.97317E-03-1.49768E-18 7.08936E-19-2.78672E-19
 -1         9-1.32439E-02 3.97317E-03 3.97317E-03 1.02649E-18 5.04540E-19-5.27039E-19
 -1        10-1.32439E-02 3.97317E-03 3.97317E-03-1.32368E-18-9.91498E-19 2.49167E-18
 -1        11-1.32439E-02 3.97317E-03 3.97317E-03 1.03552E-18 2.06265E-19 1.52763E-18
 -1        12-1.32439E-02 3.97317E-03 3.97317E-03 1.24527E-18 1.09792E-18 3.35633E-18
 -1        13-1.32439E-02 3.97317E-03 3.97317E-03 5.00809E-20-2.29321E-18 4.71759E-19
 -1        14-1.32439E-02 3.97317E-03 3.97317E-03-3.24171E-19-3.63095E-19-1.45278E-18
 -1        15-1.32439E-02 3.97317E-03 3.97317E-03 1.36100E-19 1.03039E-18 1.60483E-18
 -1        16-1.32439E-02 3.97317E-03 3.97317E-03 4.27845E-18 2.43500E-18 2.75530E-18
 -1        17-1.32439E-02 3.97317E-03 3.97317E-03-2.90304E-19 3.58352E-19-3.85242E-20
 -1        18-1.32439E-02 3.97317E-03 3.97317E-03 1.49082E-19-4.86615E-19 2.48143E-18
 -1        19-1.32439E-02 3.97317E-03 3.97317E-03 9.73574E-19 6.23730E-19-2.63018E-18
 -1        20-1.32439E-02 3.97317E-03 3.97317E-03-1.78380E-18-1.48503E-18-1.54934E-18
 -1        21-1.32439E-02 3.97317E-03 3.97317E-03-5.06317E-19-4.26158E-19-6.56312E-19
 -1        22-1.32439E-02 3.97317E-03 3.97317E-03-8.94753E-19-1.73153E-19 6.53933E-19
 -1        23-1.32439E-02 3.97317E-03 3.97317E-03-5.02482E-19 6.39053E-19 7.66873E-20
 -1        24-1.32439E-02 3.97317E-03 3.97317E-03 7.79430E-19 7.80902E-19-2.09067E-18
 -1        25-1.32439E-02 3.97317E-03 3.97317E-03-7.46882E-19 2.36521E-19 1.28838E-18
 -1        26-1.32439E-02 3.97317E-03 3.97317E-03 8.51290E-19-1.08100E-18 1.33435E-18
 -1        27-1.32439E-02 3.97317E-03 3.97317E-03-1.92435E-18-6.03618E-19 9.47061E-19
 -1        28-1.32439E-02 3.97317E-03 3.97317E-03 2.77133E-19 8.70874E-19-1.31187E-18
 -1        29-1.32439E-02 3.97317E-03 3.97317E-03 1.80396E-18 4.59782E-19-1.48456E-18
 -1        30-1.32439E-02 3.97317E-03 3.97317E-03-3.43984E-21 1.47982E-19-1.59098E-18
 -1        31-1.32439E-02 3.97317E-03 3.97317E-03-3.33914E-19-1.31929E-19 3.35721E-18
 -1        32-1.32439E-02 3.97317E-03 3.97317E-03 1.62021E-18 2.18054E-19-6.17497E-19
 -3
    1PSTEP                         7           3           1          
  100CL  103 1.50000E-01          32                     0    3           1
 -4  DISP        4    1
 -5  D1          1    2    1    0
 -5  D2          1    2    2    0
 -5  D3          1    2    3    0
 -5  ALL         1    2    0    0    1ALL
 -1         1 0.00000E+00 0.00000E+00 0.00000E+00
 -1         2-1.00000E+01 0.00000E+00 0.00000E+00
 -1         3-2.00000E+01 0.00000E+00 0.00000E+00
 -1         4-3.00000E+01 0.00000E+00 0.00000E+00
 -1         5 0.00000E+00 2.96123E+00 0.00000E+00
 -1         6-1.00000E+01 2.96123E+00 0.00000E+00
 -1         7-2.00000E+01 2.96123E+00 0.00000E+00
 -1         8-3.00000E+01 2.96123E+00 0.00000E+00
 -1         9 0.00000E+00 5.92246E+00 0.00000E+00
 -1        10-1.00000E+01 5.92246E+00 0.00000E+00
 -1        11-2.00000E+01 5.92246E+00 0.00000E+00
 -1        12-3.00000E+01 5.92246E+00 0.00000E+00
 -1        13 0.00000E+00 8.88369E+00 0.00000E+00
 -1        14-1.00000E+01 8.88369E+00 0.00000E+00
 -1        15-2.00000E+01 8.88369E+00 0.00000E+00
 -1        16-3.00000E+01 8.88369E+00 0.00000E+00
 -1        17 0.00000E+00 0.00000E+00 4.14572E+00
 -1        18-1.00000E+01 0.00000E+00 4.14572E+00
 -1        19-2.00000E+01 0.00000E+00 4.14572E+00
 -1        20-3.00000E+01 0.00000E+00 4.14572E+00
 -1        21 0.00000E+00 2.96123E+00 4.14572E+00
 -1        22-1.00000E+01 2.96123E+00 4.14572E+00
 -1        23-2.00000E+01 2.96123E+00 4.14572E+00
 -1        24-3.00000E+01 2.96123E+00 4.14572E+00
 -1        25 0.00000E+00 5.92246E+00 4.14572E+00
 -1        26-1.00000E+01 5.92246E+00 4.14572E+00
 -1        27-2.00000E+01 5.92246E+00 4.14572E+00
 -1        28-3.00000E+01 5.92246E+00 4.14572E+00
 -1        29 0.00000E+00 8.88369E+00 4.14572E+00
 -1        30-1.00000E+01 8.88369E+00 4.14572E+00
 -1        31-2.00000E+01 8.88369E+00 4.14572E+00
 -1        32-3.00000E+01 8.88369E+00 4.14572E+00
 -3
    1PSTEP                         8           3           1          
  100CL  103 1.50000E-01          32                     0    3           1
 -4  STRESS      6    1
 -5  SXX         1    4    1    1
 -5  SYY         1    4    2    2
 -5  SZZ         1    4    3    3
 -5  SXY         1    4    1    2
 -5  SYZ         1    4    2    3
 -5  SZX         1    4    3    1
 -1         1-4.02684E+03-1.29881E-12-8.65876E-13 1.23367E-14-5.70589E-14 6.92109E-15
 -1         2-4.02684E+03-8.29107E-13-7.44180E-13-2.90551E-13 1.03882E-14 7.16435E-13
 -1         3-4.02684E+03 2.69183E-14-6.78501E-14-4.99036E-13 2.41439E-14-8.18277E-13
 -1         4-4.02684E+03 8.54507E-13 4.32957E-13 4.45328E-13-5.62916E-14-5.08620E-13
 -1         5-4.02684E+03-3.84786E-13-5.80035E-14 1.02510E-13-9.30418E-14-9.81372E-15
 -1         6-4.02684E+03 7.92351E-14-1.71161E-13 4.68851E-14-4.79889E-14 5.52398E-14
 -1         7-4.02684E+03 3.70011E-13 1.98089E-13-4.28295E-14-2.79823E-14 8.46456E-13
 -1         8-4.02684E+03 8.38962E-13 5.60332E-13 3.35269E-13-5.22709E-14-8.50289E-13
 -1         9-4.02684E+03-6.12624E-13-4.59852E-13 3.00767E-13-3.36283E-14 6.91839E-15
 -1        10-4.02684E+03-2.90017E-14 5.38323E-13 9.46487E-15-3.77187E-13-6.26715E-14
 -1        11-4.02684E+03-3.85549E-13-4.59856E-13-6.69641E-14-1.30463E-13 6.12008E-13
 -1        12-4.02684E+03 3.01395E-13-2.99859E-13 7.88747E-14 1.34396E-13 2.64403E-13
 -1        13-4.02684E+03-3.48012E-13-1.01296E-12 5.05309E-14-6.91661E-13 6.06326E-14
 -1        14-4.02684E+03-1.07249E-12-5.50467E-13-3.48318E-13 4.14032E-13-3.90384E-13
 -1        15-4.02684E+03-4.32938E-13 1.42921E-13-2.92340E-13 2.58720E-15 2.11795E-12
 -1        16-4.02684E+03-9.70496E-13-1.08650E-12 3.99617E-13 3.35163E-13-2.11587E-13
 -1        17-4.02684E+03 3.48021E-13 2.32014E-13-4.63754E-15-3.33245E-15-7.72777E-14
 -1        18-4.02684E+03 1.68317E-13 3.26787E-13-2.95979E-13 3.39509E-14 4.52713E-13
 -1        19-4.02684E+03-2.69183E-14-8.44638E-13 1.01699E-12-1.59137E-14-3.08196E-14
 -1        20-4.02684E+03-4.83721E-13-8.31535E-15 2.40262E-13-3.02393E-13-1.73954E-12
 -1        21-4.02684E+03-3.38156E-13-5.79988E-14 5.75801E-14-1.58994E-13-1.24798E-13
 -1        22-4.02684E+03 4.24609E-14 4.28012E-13-1.68366E-13 4.46827E-14 2.96464E-13
 -1        23-4.02684E+03 3.93322E-13-2.63853E-13-1.22787E-13 1.86513E-14 4.52056E-13
 -1        24-4.02684E+03-1.17559E-12-1.08650E-12-5.94255E-14-2.44578E-13-4.88111E-13
 -1        25-4.02684E+03 4.92473E-13 4.71239E-13-7.81532E-14-2.22498E-13 8.49779E-14
 -1        26-4.02684E+03-2.39775E-13-1.71159E-13 2.39306E-13-1.84092E-13 1.39183E-13
 -1        27-4.02684E+03-9.76199E-14-1.58470E-13-2.93050E-13 3.10936E-13 9.05423E-13
 -1        28-4.02684E+03-7.03244E-13-7.08933E-13-1.02495E-14-3.17221E-13-4.14958E-13
 -1        29-4.02684E+03 5.38551E-14 2.32023E-13 1.41523E-13-1.71029E-13 1.30655E-13
 -1        30-4.02684E+03 1.25789E-12 1.01033E-12-1.09783E-13 2.92903E-14 9.82046E-14
 -1        31-4.02684E+03-4.32933E-13-1.85384E-13-4.99024E-13 2.19374E-14 2.13978E-13
 -1        32-4.02684E+03-7.30166E-13-6.99086E-13-4.30116E-13 3.56501E-13 1.51827E-12
 -3
    1PSTEP                         9           3           1          
  100CL  103 1.50000E-01          32                     0    3           1
 -4  TOSTRAIN    6    1
 -5  EXX         1    4    1    1
 -5  EYY         1    4    2    2
 -5  EZZ         1    4    3    3
 -5  EXY         1    4    1    2
 -5  EYZ         1    4    2    3
 -5  EZX         1    4    3    1
 -1         1-1.97992E-02 5.93976E-03 5.93976E-03 8.29283E-20-3.46157E-19 4.38291E-20
 -1         2-1.97992E-02 5.93976E-03 5.93976E-03-1.80625E-18 6.30220E-20 4.46216E-18
 -1         3-1.97992E-02 5.93976E-03 5.93976E-03-3.10378E-18 1.46473E-19-5.09416E-18
 -1         4-1.97992E-02 5.93976E-03 5.93976E-03 2.78069E-18-3.41502E-19-3.16543E-18
 -1         5-1.97992E-02 5.93976E-03 5.93976E-03 6.75996E-19-5.64454E-19-6.04857E-20
 -1         6-1.97992E-02 5.93976E-03 5.93976E-03 3.11535E-19-2.91132E-19 3.42233E-19
 -1         7-1.97992E-02 5.93976E-03 5.93976E-03-2.58438E-19-1.69759E-19 5.26878E-18
 -1         8-1.97992E-02 5.93976E-03 5.93976E-03 2.10280E-18-3.17110E-19-5.29517E-18
 -1         9-1.97992E-02 5.93976E-03 5.93976E-03 1.95160E-18-2.04012E-19 4.22702E-20
 -1        10-1.97992E-02 5.93976E-03 5.93976E-03 8.20236E-20-2.28826E-18-3.92466E-19
 -1        11-1.97992E-02 5.93976E-03 5.93976E-03-4.54422E-19-7.91477E-19 3.81128E-18
 -1        12-1.97992E-02 5.93976E-03 5.93976E-03 4.48820E-19 8.15338E-19 1.65049E-18
 -1        13-1.97992E-02 5.93976E-03 5.93976E-03 3.03664E-19-4.19608E-18 3.77073E-19
 -1        14-1.97992E-02 5.93976E-03 5.93976E-03-2.16937E-18 2.51179E-18-2.43105E-18
 -1        15-1.97992E-02 5.93976E-03 5.93976E-03-1.83818E-18 1.56957E-20 1.31910E-17
 -1        16-1.97992E-02 5.93976E-03 5.93976E-03 2.44269E-18 2.03332E-18-1.31342E-18
 -1        17-1.97992E-02 5.93976E-03 5.93976E-03-2.60548E-20-2.02169E-20-5.19166E-19
 -1        18-1.97992E-02 5.93976E-03 5.93976E-03-1.84169E-18 2.05969E-19 2.78114E-18
 -1        19-1.97992E-02 5.93976E-03 5.93976E-03 6.32745E-18-9.65433E-20-1.91249E-19
 -1        20-1.97992E-02 5.93976E-03 5.93976E-03 1.48520E-18-1.83452E-18-1.07930E-17
 -1        21-1.97992E-02 5.93976E-03 5.93976E-03 3.70864E-19-9.64562E-19-8.09651E-19
 -1        22-1.97992E-02 5.93976E-03 5.93976E-03-1.04060E-18 2.71075E-19 1.81476E-18
 -1        23-1.97992E-02 5.93976E-03 5.93976E-03-7.87338E-19 1.13151E-19 2.76280E-18
 -1        24-1.97992E-02 5.93976E-03 5.93976E-03-4.18865E-19-1.48378E-18-3.11377E-18
 -1        25-1.97992E-02 5.93976E-03 5.93976E-03-4.75153E-19-1.34982E-18 5.71346E-19
 -1        26-1.97992E-02 5.93976E-03 5.93976E-03 1.55574E-18-1.11682E-18 8.56279E-19
 -1        27-1.97992E-02 5.93976E-03 5.93976E-03-1.78789E-18 1.88634E-18 5.60254E-18
 -1        28-1.97992E-02 5.93976E-03 5.93976E-03-1.09451E-19-1.92448E-18-2.59227E-18
 -1        29-1.97992E-02 5.93976E-03 5.93976E-03 9.45663E-19-1.03757E-18 8.39306E-19
 -1        30-1.97992E-02 5.93976E-03 5.93976E-03-7.04146E-19 1.77695E-19 6.15416E-19
 -1        31-1.97992E-02 5.93976E-03 5.93976E-03-3.14633E-18 1.33087E-19 1.23328E-18
 -1        32-1.97992E-02 5.93976E-03 5.93976E-03-2.65067E-18 2.16277E-18 9.27404E-18
 -3
    1PSTEP                        10           4           1          
  100CL  104 2.00000E-01          32                     0    4           1
 -4  DISP        4    1
 -5  D1          1    2    1    0
 -5  D2          1    2    2    0
 -5  D3          1    2    3    0
 -5  ALL         1    2    0    0    1ALL
 -1         1 0.00000E+00 0.00000E+00 0.00000E+00
 -1         2-1.33333E+01 0.00000E+00 0.00000E+00
 -1         3-2.66667E+01 0.00000E+00 0.00000E+00
 -1         4-4.00000E+01 0.00000E+00 0.00000E+00
 -1         5 0.00000E+00 3.93121E+00 0.00000E+00
 -1         6-1.33333E+01 3.93121E+00 0.00000E+00
 -1         7-2.66667E+01 3.93121E+00 0.00000E+00
 -1         8-4.00000E+01 3.93121E+00 0.00000E+00
 -1         9 0.00000E+00 7.86242E+00 0.00000E+00
 -1        10-1.33333E+01 7.86242E+00 0.00000E+00
 -1        11-2.66667E+01 7.86242E+00 0.00000E+00
 -1        12-4.00000E+01 7.86242E+00 0.00000E+00
 -1        13 0.00000E+00 1.17936E+01 0.00000E+00
 -1        14-1.33333E+01 1.17936E+01 0.00000E+00
 -1        15-2.66667E+01 1.17936E+01 0.00000E+00
 -1        16-4.00000E+01 1.17936E+01 0.00000E+00
 -1        17 0.00000E+00 0.00000E+00 5.50370E+00
 -1        18-1.33333E+01 0.00000E+00 5.50370E+00
 -1        19-2.66667E+01 0.00000E+00 5.50370E+00
 -1        20-4.00000E+01 0.00000E+00 5.50370E+00
 -1        21 0.00000E+00 3.93121E+00 5.50370E+00
 -1        22-1.33333E+01 3.93121E+00 5.50370E+00
 -1        23-2.66667E+01 3.93121E+00 5.50370E+00
 -1        24-4.00000E+01 3.93121E+00 5.50370E+00
 -1        25 0.00000E+00 7.86242E+00 5.50370E+00
 -1        26-1.33333E+01 7.86242E+00 5.50370E+00
 -1        27-2.66667E+01 7.86242E+00 5.50370E+00
 -1        28-4.00000E+01 7.86242E+00 5.50370E+00
 -1        29 0.00000E+00 1.17936E+01 5.50370E+00
 -1        30-1.33333E+01 1.17936E+01 5.50370E+00
 -1        31-2.66667E+01 1.17936E+01 5.50370E+00
 -1        32-4.00000E+01 1.17936E+01 5.50370E+00
 -3
    1PSTEP                        11           4           1          
  100CL  104 2.00000E-01          32                     0    4           1
 -4  STRESS      6    1
 -5  SXX         1    4    1    1
 -5  SYY         1    4    2    2
 -5  SZZ         1    4    3    3
 -5  SXY         1    4    1    2
 -5  SYZ         1    4    2    3
 -5  SZX         1    4    3    1
 -1         1-5.29420E+03 5.29756E-13 7.63359E-13 4.66360E-14 4.50874E-14-5.26577E-14
 -1         2-5.29420E+03 1.23056E-12 1.23056E-12-6.22142E-13 1.82727E-14 3.04122E-13
 -1         3-5.29420E+03 1.91459E-12 1.02295E-12-4.16226E-14-3.17913E-15 1.01098E-12
 -1         4-5.29420E+03 1.68101E-12 1.42451E-12 9.90888E-13-5.23189E-14-2.89904E-12
 -1         5-5.29420E+03-2.99302E-13 4.12954E-13 2.45776E-14-1.19457E-13-3.19301E-14
 -1         6-5.29420E+03 1.81763E-12 9.82847E-13-1.47156E-13-1.02888E-13 7.81995E-13
 -1         7-5.29420E+03 1.50999E-12 2.01003E-12 7.46351E-13-2.05648E-13 6.26602E-13
 -1         8-5.29420E+03 1.94283E-12 2.15659E-12-7.60789E-13 2.69506E-13-1.50427E-13
 -1         9-5.29420E+03-1.48132E-13 1.33897E-12 1.76448E-13-3.75463E-14 9.35774E-14
 -1        10-5.29420E+03 2.24474E-12 1.75615E-12 3.14236E-13-3.97482E-13 5.86762E-13
 -1        11-5.29420E+03 1.41876E-12 1.79054E-12 3.01057E-13 2.03819E-13 4.15254E-13
 -1        12-5.29420E+03 1.24510E-12 1.29931E-12 4.67405E-13 4.69042E-13 1.13276E-12
 -1        13-5.29420E+03-1.29934E-12 1.29315E-12 5.23672E-13-7.56465E-13 4.11351E-14
 -1        14-5.29420E+03 2.57264E-12 1.84892E-12-8.35985E-14 2.65947E-13-1.99702E-13
 -1        15-5.29420E+03 2.33905E-12 2.70090E-12-3.09068E-13-1.19289E-13 1.10810E-12
 -1        16-5.29420E+03 2.35889E-12 2.18789E-12 9.51521E-13 7.37527E-13 7.99030E-13
 -1        17-5.29420E+03 8.25946E-13 7.63359E-13-2.63690E-13 3.62691E-13-6.81515E-14
 -1        18-5.29420E+03 6.77841E-13 6.77851E-13 1.26832E-12-8.68827E-14 4.91237E-13
 -1        19-5.29420E+03 1.14506E-12 7.51912E-13 1.06988E-12 3.01491E-13-2.67009E-14
 -1        20-5.29420E+03 1.16798E-12 2.12528E-12-9.28790E-13 5.19471E-14-3.48326E-13
 -1        21-5.29420E+03 2.81462E-12 2.62377E-12-1.10740E-13 1.51877E-13-1.96370E-13
 -1        22-5.29420E+03 1.28477E-12 1.50845E-12 6.14337E-13-4.68088E-14 4.97340E-13
 -1        23-5.29420E+03 9.96962E-13 1.39584E-12-6.75303E-13 1.51655E-13 5.06341E-13
 -1        24-5.29420E+03-7.66489E-13-2.37346E-12 2.55155E-13 1.92529E-13-6.09900E-13
 -1        25-5.29420E+03 1.54968E-12 1.89168E-12-1.23111E-13 1.96837E-13-2.53538E-13
 -1        26-5.29420E+03 1.69437E-13 5.02648E-13-4.00038E-13 7.88753E-14 4.22499E-13
 -1        27-5.29420E+03 3.80128E-13 5.02653E-13-9.90062E-13 1.42886E-13 6.50730E-13
 -1        28-5.29420E+03 1.79370E-13-8.32150E-13-1.05331E-13-1.31748E-13-3.02597E-13
 -1        29-5.29420E+03 2.42147E-12 1.80616E-12-1.31901E-13 5.93487E-13-1.77704E-13
 -1        30-5.29420E+03-2.45078E-13 1.24201E-12-9.01127E-14-6.32599E-13-3.06618E-13
 -1        31-5.29420E+03 7.74815E-13-5.75645E-13 1.15805E-13 2.25665E-13 1.04468E-12
 -1        32-5.29420E+03-1.87497E-12-1.23677E-12-1.69174E-13 6.91949E-13 1.67059E-13
 -3
    1PSTEP                        12           4           1          
  100CL  104 2.00000E-01          32                     0    4           1
 -4  TOSTRAIN    6    1
 -5  EXX         1    4    1    1
 -5  EYY         1    4    2    2
 -5  EZZ         1    4    3    3
 -5  EXY         1    4    1    2
 -5  EYZ         1    4    2    3
 -5  EZX         1    4    3    1
 -1         1-2.63101E-02 7.89302E-03 7.89302E-03 2.76251E-19 2.71669E-19-3.32024E-19
 -1         2-2.63101E-02 7.89302E-03 7.89302E-03-3.88901E-18 1.10100E-19 1.89291E-18
 -1         3-2.63101E-02 7.89302E-03 7.89302E-03-2.58342E-19-1.91555E-20 6.30310E-18
 -1         4-2.63101E-02 7.89302E-03 7.89302E-03 6.18501E-18-3.15242E-19-1.80910E-17
 -1         5-2.63101E-02 7.89302E-03 7.89302E-03 1.79821E-19-7.19773E-19-1.99726E-19
 -1         6-2.63101E-02 7.89302E-03 7.89302E-03-9.05396E-19-6.19942E-19 4.87084E-18
 -1         7-2.63101E-02 7.89302E-03 7.89302E-03 4.58358E-18-1.23911E-18 3.90052E-18
 -1         8-2.63101E-02 7.89302E-03 7.89302E-03-4.89168E-18 1.62388E-18-9.40654E-19
 -1         9-2.63101E-02 7.89302E-03 7.89302E-03 1.17763E-18-2.26232E-19 6.03734E-19
 -1        10-2.63101E-02 7.89302E-03 7.89302E-03 1.91919E-18-2.39499E-18 3.67617E-18
 -1        11-2.63101E-02 7.89302E-03 7.89302E-03 1.76298E-18 1.22809E-18 2.60194E-18
 -1        12-2.63101E-02 7.89302E-03 7.89302E-03 2.84499E-18 2.82616E-18 7.07904E-18
 -1        13-2.63101E-02 7.89302E-03 7.89302E-03 3.45754E-18-4.55800E-18 2.39564E-19
 -1        14-2.63101E-02 7.89302E-03 7.89302E-03-5.60217E-19 1.60244E-18-1.25359E-18
 -1        15-2.63101E-02 7.89302E-03 7.89302E-03-2.10230E-18-7.18761E-19 6.91449E-18
 -1        16-2.63101E-02 7.89302E-03 7.89302E-03 5.85626E-18 4.44389E-18 4.98520E-18
 -1        17-2.63101E-02 7.89302E-03 7.89302E-03-1.64126E-18 2.18536E-18-4.21527E-19
 -1        18-2.63101E-02 7.89302E-03 7.89302E-03 7.91569E-18-5.23503E-19 3.04154E-18
 -1        19-2.63101E-02 7.89302E-03 7.89302E-03 6.67524E-18 1.81660E-18-1.89948E-19
 -1        20-2.63101E-02 7.89302E-03 7.89302E-03-5.79558E-18 3.13002E-19-2.16958E-18
 -1        21-2.63101E-02 7.89302E-03 7.89302E-03-6.98016E-19 9.15119E-19-1.35875E-18
 -1        22-2.63101E-02 7.89302E-03 7.89302E-03 3.81172E-18-2.82042E-19 3.07910E-18
 -1        23-2.63101E-02 7.89302E-03 7.89302E-03-4.21156E-18 9.13783E-19 3.13275E-18
 -1        24-2.63101E-02 7.89302E-03 7.89302E-03 1.63081E-18 1.16006E-18-3.94386E-18
 -1        25-2.63101E-02 7.89302E-03 7.89302E-03-7.88670E-19 1.18602E-18-1.69791E-18
 -1        26-2.63101E-02 7.89302E-03 7.89302E-03-2.53238E-18 4.75255E-19 2.57044E-18
 -1        27-2.63101E-02 7.89302E-03 7.89302E-03-6.19380E-18 8.60946E-19 3.95324E-18
 -1        28-2.63101E-02 7.89302E-03 7.89302E-03-6.38089E-19-7.93832E-19-2.08632E-18
 -1        29-2.63101E-02 7.89302E-03 7.89302E-03-8.73935E-19 3.57600E-18-1.16854E-18
 -1        30-2.63101E-02 7.89302E-03 7.89302E-03-5.38212E-19-3.81166E-18-2.01455E-18
 -1        31-2.63101E-02 7.89302E-03 7.89302E-03 7.82805E-19 1.35972E-18 6.44815E-18
 -1        32-2.63101E-02 7.89302E-03 7.89302E-03-1.03395E-18 4.16927E-18 1.04598E-18
 -3
    1PSTEP                        13           5           1          
  100CL  105 2.50000E-01          32                     0    5           1
 -4  DISP        4    1
 -5  D1          1    2    1    0
 -5  D2          1    2    2    0
 -5  D3          1    2    3    0
 -5  ALL         1    2    0    0    1ALL
 -1         1 0.00000E+00 0.00000E+00 0.00000E+00
 -1         2-1.66667E+01 0.00000E+00 0.00000E+00
 -1         3-3.33333E+01 0.00000E+00 0.00000E+00
 -1         4-5.00000E+01 0.00000E+00 0.00000E+00
 -1         5 0.00000E+00 4.89273E+00 0.00000E+00
 -1         6-1.66667E+01 4.89273E+00 0.00000E+00
 -1         7-3.33333E+01 4.89273E+00 0.00000E+00
 -1         8-5.00000E+01 4.89273E+00 0.00000E+00
 -1         9 0.00000E+00 9.78546E+00 0.00000E+00
 -1        10-1.66667E+01 9.78546E+00 0.00000E+00
 -1        11-3.33333E+01 9.78546E+00 0.00000E+00
 -1        12-5.00000E+01 9.78546E+00 0.00000E+00
 -1        13 0.00000E+00 1.46782E+01 0.00000E+00
 -1        14-1.66667E+01 1.46782E+01 0.00000E+00
 -1        15-3.33333E+01 1.46782E+01 0.00000E+00
 -1        16-5.00000E+01 1.46782E+01 0.00000E+00
 -1        17 0.00000E+00 0.00000E+00 6.84982E+00
 -1        18-1.66667E+01 0.00000E+00 6.84982E+00
 -1        19-3.33333E+01 0.00000E+00 6.84982E+00
 -1        20-5.00000E+01 0.00000E+00 6.84982E+00
 -1        21 0.00000E+00 4.89273E+00 6.84982E+00
 -1        22-1.66667E+01 4.89273E+00 6.84982E+00
 -1        23-3.33333E+01 4.89273E+00 6.84982E+00
 -1        24-5.00000E+01 4.89273E+00 6.84982E+00
 -1        25 0.00000E+00 9.78546E+00 6.84982E+00
 -1        26-1.66667E+01 9.78546E+00 6.84982E+00
 -1        27-3.33333E+01 9.78546E+00 6.84982E+00
 -1        28-5.00000E+01 9.78546E+00 6.84982E+00
 -1        29 0.00000E+00 1.46782E+01 6.84982E+00
 -1        30-1.66667E+01 1.46782E+01 6.84982E+00
 -1        31-3.33333E+01 1.46782E+01 6.84982E+00
 -1        32-5.00000E+01 1.46782E+01 6.84982E+00
 -3
    1PSTEP                        14           5           1          
  100CL  105 2.50000E-01          32                     0    5           1
 -4  STRESS      6    1
 -5  SXX         1    4    1    1
 -5  SYY         1    4    2    2
 -5  SZZ         1    4    3    3
 -5  SXY         1    4    1    2
 -5  SYZ         1    4    2    3
 -5  SZX         1    4    3    1
 -1         1-6.52529E+03-2.26603E-12-1.73257E-12 1.76768E-13-3.75770E-14-4.09586E-14
 -1         2-6.52529E+03 2.35224E-13-8.23212E-13-4.47985E-13 6.81757E-14-1.00268E-13
 -1         3-6.52529E+03-8.86249E-13-8.63179E-13-1.20019E-12-7.76917E-15-1.70216E-12
 -1         4-6.52529E+03-3.84321E-13-2.13996E-12 8.01574E-13 5.40226E-14-1.42708E-12
 -1         5-6.52529E+03-2.26912E-12-4.58884E-13 1.66943E-14-1.42175E-13 1.16647E-13
 -1         6-6.52529E+03 6.31070E-13 9.10886E-13 6.95678E-14-9.32702E-14 1.54749E-13
 -1         7-6.52529E+03-1.01843E-13-7.07162E-13 3.36924E-13-4.32818E-14 4.21418E-13
 -1         8-6.52529E+03 3.81261E-12 4.01630E-12 1.09859E-12-5.78221E-15 6.62145E-13
 -1         9-6.52529E+03-7.48677E-13-2.66705E-13 2.45172E-13 3.22184E-13-1.18584E-13
 -1        10-6.52529E+03 1.09727E-12-9.98247E-15 7.84434E-14 8.59674E-14-9.65670E-13
 -1        11-6.52529E+03-1.19336E-12-1.18183E-12 7.30570E-13 5.19476E-14-1.56654E-12
 -1        12-6.52529E+03 4.24289E-13 1.57565E-13 3.18072E-13-2.26085E-13 2.12755E-12
 -1        13-6.52529E+03-3.99299E-14-9.40819E-13 5.24568E-13-2.43789E-13 1.21707E-13
 -1        14-6.52529E+03-2.43635E-13-7.91712E-13-5.05081E-13-2.69279E-13-4.26281E-13
 -1        15-6.52529E+03-8.97794E-13 1.03538E-12-1.44165E-13 2.56580E-13-6.13405E-14
 -1        16-6.52529E+03 3.18378E-12-9.23959E-13 7.36401E-13-1.28872E-13 1.91132E-13
 -1        17-6.52529E+03-8.84010E-13-1.24526E-12-1.69861E-13 4.93462E-13 4.16103E-13
 -1        18-6.52529E+03-8.77819E-13 1.40686E-13 6.73354E-13-6.15969E-14 1.36563E-13
 -1        19-6.52529E+03-5.48068E-13-2.26746E-13-7.04625E-13 8.14561E-14-3.38569E-13
 -1        20-6.52529E+03-1.95265E-13 2.75163E-13 1.32840E-12-6.02779E-13-2.74526E-12
 -1        21-6.52529E+03 2.57576E-12-4.73514E-13-1.70026E-13 1.90896E-14-2.84251E-14
 -1        22-6.52529E+03-7.80196E-13-9.89649E-13 2.18909E-13-3.75792E-14 5.65317E-15
 -1        23-6.52529E+03 1.01852E-13 9.49701E-13-1.19745E-12 6.26370E-15 2.55845E-13
 -1        24-6.52529E+03-1.39971E-12-1.86169E-12-6.00788E-13 1.69827E-13-9.23392E-13
 -1        25-6.52529E+03 3.09768E-13-8.23231E-13-4.24533E-14 1.87377E-13 2.64858E-13
 -1        26-6.52529E+03-3.68571E-13-1.66414E-13-7.11879E-13-1.64415E-13-5.57758E-13
 -1        27-6.52529E+03 5.98018E-13 7.30152E-14-1.08323E-12 1.77324E-13-9.00275E-14
 -1        28-6.52529E+03-6.59493E-13 1.59807E-12 8.75613E-13 1.28392E-13-9.04322E-13
 -1        29-6.52529E+03-9.63889E-13-6.42586E-13-1.32207E-13-7.24602E-13-9.90592E-14
 -1        30-6.52529E+03 6.51063E-13-1.34823E-12 6.89093E-14-1.32406E-13-6.84489E-13
 -1        31-6.52529E+03 5.68052E-13-1.23063E-12-8.17130E-14-6.59625E-14-2.65637E-13
 -1        32-6.52529E+03-3.65421E-12-1.60034E-12 8.16974E-13 6.64567E-13 3.44062E-12
 -3
    1PSTEP                        15           5           1          
  100CL  105 2.50000E-01          32                     0    5           1
 -4  TOSTRAIN    6    1
 -5  EXX         1    4    1    1
 -5  EYY         1    4    2    2
 -5  EZZ         1    4    3    3
 -5  EXY         1    4    1    2
 -5  EYZ         1    4    2    3
 -5  EZX         1    4    3    1
 -1         1-3.27765E-02 9.83294E-03 9.83294E-03 1.10496E-18-2.24866E-19-2.61552E-19
 -1         2-3.27765E-02 9.83294E-03 9.83294E-03-2.80039E-18 4.07972E-19-6.29542E-19
 -1         3-3.27765E-02 9.83294E-03 9.83294E-03-7.50244E-18-4.64917E-20-1.06690E-17
 -1         4-3.27765E-02 9.83294E-03 9.83294E-03 5.01066E-18 3.23278E-19-8.97816E-18
 -1         5-3.27765E-02 9.83294E-03 9.83294E-03 1.04316E-19-8.50791E-19 7.45776E-19
 -1         6-3.27765E-02 9.83294E-03 9.83294E-03 4.42152E-19-5.58141E-19 9.80233E-19
 -1         7-3.27765E-02 9.83294E-03 9.83294E-03 2.11464E-18-2.59004E-19 2.65826E-18
 -1         8-3.27765E-02 9.83294E-03 9.83294E-03 6.86975E-18-3.46015E-20 4.17783E-18
 -1         9-3.27765E-02 9.83294E-03 9.83294E-03 1.67052E-18 1.92799E-18-7.43646E-19
 -1        10-3.27765E-02 9.83294E-03 9.83294E-03 4.45728E-19 5.14440E-19-6.05405E-18
 -1        11-3.27765E-02 9.83294E-03 9.83294E-03 4.38287E-18 3.10861E-19-9.81445E-18
 -1        12-3.27765E-02 9.83294E-03 9.83294E-03 1.84756E-18-1.35292E-18 1.32883E-17
 -1        13-3.27765E-02 9.83294E-03 9.83294E-03 3.49282E-18-1.45886E-18 7.61450E-19
 -1        14-3.27765E-02 9.83294E-03 9.83294E-03-3.14650E-18-1.61140E-18-2.67892E-18
 -1        15-3.27765E-02 9.83294E-03 9.83294E-03-9.76670E-19 1.53541E-18-3.78212E-19
 -1        16-3.27765E-02 9.83294E-03 9.83294E-03 4.64446E-18-7.71185E-19 1.23432E-18
 -1        17-3.27765E-02 9.83294E-03 9.83294E-03-1.06067E-18 2.95294E-18 2.85613E-18
 -1        18-3.27765E-02 9.83294E-03 9.83294E-03 4.20974E-18-3.68604E-19 9.81188E-19
 -1        19-3.27765E-02 9.83294E-03 9.83294E-03-4.40408E-18 4.87444E-19-1.96495E-18
 -1        20-3.27765E-02 9.83294E-03 9.83294E-03 8.30504E-18-3.60710E-18-1.68579E-17
 -1        21-3.27765E-02 9.83294E-03 9.83294E-03-1.12410E-18 1.14235E-19-2.17249E-19
 -1        22-3.27765E-02 9.83294E-03 9.83294E-03 1.34489E-18-2.24879E-19 5.83488E-21
 -1        23-3.27765E-02 9.83294E-03 9.83294E-03-7.50916E-18 3.74828E-20 1.50344E-18
 -1        24-3.27765E-02 9.83294E-03 9.83294E-03-3.81747E-18 1.01627E-18-5.94445E-18
 -1        25-3.27765E-02 9.83294E-03 9.83294E-03-2.93848E-19 1.12129E-18 1.77882E-18
 -1        26-3.27765E-02 9.83294E-03 9.83294E-03-4.55845E-18-9.83883E-19-3.36626E-18
 -1        27-3.27765E-02 9.83294E-03 9.83294E-03-6.84247E-18 1.06113E-18-4.23731E-19
 -1        28-3.27765E-02 9.83294E-03 9.83294E-03 5.51970E-18 7.68317E-19-5.49235E-18
 -1        29-3.27765E-02 9.83294E-03 9.83294E-03-8.83701E-19-4.33611E-18-6.53374E-19
 -1        30-3.27765E-02 9.83294E-03 9.83294E-03 4.61841E-19-7.92337E-19-4.18640E-18
 -1        31-3.27765E-02 9.83294E-03 9.83294E-03-4.56590E-19-3.94728E-19-1.69588E-18
 -1        32-3.27765E-02 9.83294E-03 9.83294E-03 5.09591E-18 3.97685E-18 2.12178E-17
 -3
    1PSTEP                        16           6           1          
  100CL  106 3.00000E-01          32                     0    6           1
 -4  DISP        4    1
 -5  D1          1    2    1    0
 -5  D2          1    2    2    0
 -5  D3          1    2    3    0
 -5  ALL         1    2    0    0    1ALL
 -1         1 0.00000E+00 0.00000E+00 0.00000E+00
 -1         2-2.00000E+01 0.00000E+00 0.00000E+00
 -1         3-4.00000E+01 0.00000E+00 0.00000E+00
 -1         4-6.00000E+01 0.00000E+00 0.00000E+00
 -1         5 0.00000E+00 5.84583E+00 0.00000E+00
 -1         6-2.00000E+01 5.84583E+00 0.00000E+00
 -1         7-4.00000E+01 5.84583E+00 0.00000E+00
 -1         8-6.00000E+01 5.84583E+00 0.00000E+00
 -1         9 0.00000E+00 1.16917E+01 0.00000E+00
 -1        10-2.00000E+01 1.16917E+01 0.00000E+00
 -1        11-4.00000E+01 1.16917E+01 0.00000E+00
 -1        12-6.00000E+01 1.16917E+01 0.00000E+00
 -1        13 0.00000E+00 1.75375E+01 0.00000E+00
 -1        14-2.00000E+01 1.75375E+01 0.00000E+00
 -1        15-4.00000E+01 1.75375E+01 0.00000E+00
 -1        16-6.00000E+01 1.75375E+01 0.00000E+00
 -1        17 0.00000E+00 0.00000E+00 8.18416E+00
 -1        18-2.00000E+01 0.00000E+00 8.18416E+00
 -1        19-4.00000E+01 0.00000E+00 8.18416E+00
 -1        20-6.00000E+01 0.00000E+00 8.18416E+00
 -1        21 0.00000E+00 5.84583E+00 8.18416E+00
 -1        22-2.00000E+01 5.84583E+00 8.18416E+00
 -1        23-4.00000E+01 5.84583E+00 8.18416E+00
 -1        24-6.00000E+01 5.84583E+00 8.18416E+00
 -1        25 0.00000E+00 1.16917E+01 8.18416E+00
 -1        26-2.00000E+01 1.16917E+01 8.18416E+00
 -1        27-4.00000E+01 1.16917E+01 8.18416E+00
 -1        28-6.00000E+01 1.16917E+01 8.18416E+00
 -1        29 0.00000E+00 1.75375E+01 8.18416E+00
 -1        30-2.00000E+01 1.75375E+01 8.18416E+00
 -1        31-4.00000E+01 1.75375E+01 8.18416E+00
 -1        32-6.00000E+01 1.75375E+01 8.18416E+00
 -3
    1PSTEP                        17           6           1          
  100CL  106 3.00000E-01          32                     0    6           1
 -4  STRESS      6    1
 -5  SXX         1    4    1    1
 -5  SYY         1    4    2    2
 -5  SZZ         1    4    3    3
 -5  SXY         1    4    1    2
 -5  SYZ         1    4    2    3
 -5  SZX         1    4    3    1
 -1         1-7.72081E+03-6.06879E-13 1.98139E-12 1.03495E-14-5.20778E-14 9.55722E-14
 -1         2-7.72081E+03 1.70434E-12 1.01392E-12-6.65283E-13 2.17293E-14 4.54394E-13
 -1         3-7.72081E+03 3.00294E-13 4.30343E-13-1.74244E-12 2.00435E-14-7.88058E-13
 -1         4-7.72081E+03 1.91797E-12 2.97528E-12 2.78334E-12-2.36435E-14 3.10895E-13
 -1         5-7.72081E+03-1.83444E-12-4.88465E-13 4.31691E-13-1.13543E-13-3.08887E-14
 -1         6-7.72081E+03-4.72568E-13 7.56543E-13 1.86864E-13-2.51273E-13 5.40574E-13
 -1         7-7.72081E+03 5.93658E-13 4.27642E-13-5.38804E-13-1.84080E-13 2.14894E-12
 -1         8-7.72081E+03 1.18424E-13 9.70611E-13-1.49070E-13 1.72883E-13-8.70947E-13
 -1         9-7.72081E+03-1.21596E-12 1.30020E-13 3.36177E-13 2.77430E-13 8.15109E-14
 -1        10-7.72081E+03 1.01664E-12 1.53947E-12 7.16224E-13-3.91910E-13 3.78933E-13
 -1        11-7.72081E+03-7.61247E-13 5.33949E-14 3.05505E-13-2.90910E-13 4.12306E-13
 -1        12-7.72081E+03-1.47915E-12-1.23068E-12 3.35492E-13 5.68108E-13-5.55951E-13
 -1        13-7.72081E+03-8.20459E-13-2.52483E-12 4.83561E-13-1.04815E-12 1.39509E-13
 -1        14-7.72081E+03 7.45369E-13 4.73667E-13-6.88687E-14-2.37710E-13-9.70433E-13
 -1        15-7.72081E+03-5.08540E-13 8.72291E-13-7.53453E-13 1.19067E-13 1.10654E-12
 -1        16-7.72081E+03-7.57003E-13-1.61767E-12 1.73790E-12 1.61721E-12 2.27802E-12
 -1        17-7.72081E+03 3.16563E-12 3.81270E-12 1.74682E-14 2.94092E-14 9.55722E-14
 -1        18-7.72081E+03 8.83906E-13 1.36920E-12 2.48577E-13-1.26905E-13 6.61846E-13
 -1        19-7.72081E+03 1.12073E-12 1.60604E-12 6.11650E-13 4.90923E-13 7.41987E-13
 -1        20-7.72081E+03 6.87275E-13-1.31738E-12-1.99077E-12-4.82592E-13-5.12890E-12
 -1        21-7.72081E+03 1.17258E-12 1.30260E-12 7.57136E-14-8.13642E-14 2.68183E-14
 -1        22-7.72081E+03 7.92956E-13 1.80959E-12 4.24489E-13-1.52682E-13 5.54751E-13
 -1        23-7.72081E+03 4.36155E-13 5.70433E-13-6.92649E-13 5.89800E-16 7.43262E-13
 -1        24-7.72081E+03 9.38873E-13-1.12076E-12-2.17689E-13-6.57239E-15-7.25876E-13
 -1        25-7.72081E+03 2.59679E-12 2.87697E-12-4.76817E-13 2.47657E-14-1.87374E-13
 -1        26-7.72081E+03 8.53741E-13 8.63783E-13-7.45969E-13-2.70451E-13 1.17123E-12
 -1        27-7.72081E+03-1.11053E-13-4.79503E-13-9.25976E-13 1.47132E-13 3.36526E-13
 -1        28-7.72081E+03-1.01394E-12-1.23068E-12-5.43683E-14-1.75667E-14-1.13780E-12
 -1        29-7.72081E+03-1.64092E-12-5.83630E-13 2.46393E-13-3.57276E-13 3.56576E-13
 -1        30-7.72081E+03 6.90420E-13 4.73676E-13-1.07592E-12-3.23057E-13-1.78696E-12
 -1        31-7.72081E+03 3.01862E-12 1.78794E-12-1.23700E-12 8.52228E-13-7.66548E-13
 -1        32-7.72081E+03-1.65791E-12-2.62852E-12 2.68023E-13 6.17248E-13 1.81053E-12
 -3
    1PSTEP                        18           6           1          
  100CL  106 3.00000E-01          32                     0    6           1
 -4  TOSTRAIN    6    1
 -5  EXX         1    4    1    1
 -5  EYY         1    4    2    2
 -5  EZZ         1    4    3    3
 -5  EXY         1    4    1    2
 -5  EYZ         1    4    2    3
 -5  EZX         1    4    3    1
 -1         1-3.91984E-02 1.17595E-02 1.17595E-02 7.03278E-20-3.09491E-19 5.98555E-19
 -1         2-3.91984E-02 1.17595E-02 1.17595E-02-4.16381E-18 1.29134E-19 2.82103E-18
 -1         3-3.91984E-02 1.17595E-02 1.17595E-02-1.09179E-17 1.19116E-19-4.95449E-18
 -1         4-3.91984E-02 1.17595E-02 1.17595E-02 1.74211E-17-1.40510E-19 1.95864E-18
 -1         5-3.91984E-02 1.17595E-02 1.17595E-02 2.96130E-18-6.74769E-19-1.93452E-19
 -1         6-3.91984E-02 1.17595E-02 1.17595E-02 1.29225E-18-1.49328E-18 3.40444E-18
 -1         7-3.91984E-02 1.17595E-02 1.17595E-02-3.36711E-18-1.09396E-18 1.34596E-17
 -1         8-3.91984E-02 1.17595E-02 1.17595E-02-9.05122E-19 1.02742E-18-5.49021E-18
 -1         9-3.91984E-02 1.17595E-02 1.17595E-02 2.28930E-18 1.64873E-18 4.99594E-19
 -1        10-3.91984E-02 1.17595E-02 1.17595E-02 4.51177E-18-2.32906E-18 2.34513E-18
 -1        11-3.91984E-02 1.17595E-02 1.17595E-02 1.72871E-18-1.72884E-18 2.56551E-18
 -1        12-3.91984E-02 1.17595E-02 1.17595E-02 1.86344E-18 3.37618E-18-3.47000E-18
 -1        13-3.91984E-02 1.17595E-02 1.17595E-02 3.26095E-18-6.22898E-18 9.14680E-19
 -1        14-3.91984E-02 1.17595E-02 1.17595E-02-4.50821E-19-1.41268E-18-6.03028E-18
 -1        15-3.91984E-02 1.17595E-02 1.17595E-02-4.84261E-18 7.07597E-19 6.94338E-18
 -1        16-3.91984E-02 1.17595E-02 1.17595E-02 1.09080E-17 9.61085E-18 1.42396E-17
 -1        17-3.91984E-02 1.17595E-02 1.17595E-02 8.49268E-20 1.74774E-19 5.98555E-19
 -1        18-3.91984E-02 1.17595E-02 1.17595E-02 1.54457E-18-7.54177E-19 4.09629E-18
 -1        19-3.91984E-02 1.17595E-02 1.17595E-02 3.84086E-18 2.91748E-18 4.58045E-18
 -1        20-3.91984E-02 1.17595E-02 1.17595E-02-1.24475E-17-2.86797E-18-3.21570E-17
 -1        21-3.91984E-02 1.17595E-02 1.17595E-02 6.48717E-19-4.83536E-19 1.67959E-19
 -1        22-3.91984E-02 1.17595E-02 1.17595E-02 2.74695E-18-9.07366E-19 3.43278E-18
 -1        23-3.91984E-02 1.17595E-02 1.17595E-02-4.30734E-18 3.50510E-21 4.48456E-18
 -1        24-3.91984E-02 1.17595E-02 1.17595E-02-1.30446E-18-3.90588E-20-4.80372E-18
 -1        25-3.91984E-02 1.17595E-02 1.17595E-02-3.29059E-18 1.47179E-19-1.15302E-18
 -1        26-3.91984E-02 1.17595E-02 1.17595E-02-4.77114E-18-1.60725E-18 7.29109E-18
 -1        27-3.91984E-02 1.17595E-02 1.17595E-02-5.52313E-18 8.74383E-19 2.02800E-18
 -1        28-3.91984E-02 1.17595E-02 1.17595E-02 1.05888E-19-1.04397E-19-7.17626E-18
 -1        29-3.91984E-02 1.17595E-02 1.17595E-02 1.80380E-18-2.12324E-18 2.35328E-18
 -1        30-3.91984E-02 1.17595E-02 1.17595E-02-6.57163E-18-1.91988E-18-1.11940E-17
 -1        31-3.91984E-02 1.17595E-02 1.17595E-02-7.34104E-18 5.06467E-18-5.20767E-18
 -1        32-3.91984E-02 1.17595E-02 1.17595E-02 2.41806E-18 3.66822E-18 1.06505E-17
 -3
    1PSTEP                        19           7           1          
  100CL  107 3.50000E-01          32                     0    7           1
 -4  DISP        4    1
 -5  D1          1    2    1    0
 -5  D2          1    2    2    0
 -5  D3          1    2    3    0
 -5  ALL         1    2    0    0    1ALL
 -1         1 0.00000E+00 0.00000E+00 0.00000E+00
 -1         2-2.33333E+01 0.00000E+00 0.00000E+00
 -1         3-4.66667E+01 0.00000E+00 0.00000E+00
 -1         4-7.00000E+01 0.00000E+00 0.00000E+00
 -1         5 0.00000E+00 6.79056E+00 0.00000E+00
 -1         6-2.33333E+01 6.79056E+00 0.00000E+00
 -1         7-4.66667E+01 6.79056E+00 0.00000E+00
 -1         8-7.00000E+01 6.79056E+00 0.00000E+00
 -1         9 0.00000E+00 1.35811E+01 0.00000E+00
 -1        10-2.33333E+01 1.35811E+01 0.00000E+00
 -1        11-4.66667E+01 1.35811E+01 0.00000E+00
 -1        12-7.00000E+01 1.35811E+01 0.00000E+00
 -1        13 0.00000E+00 2.03717E+01 0.00000E+00
 -1        14-2.33333E+01 2.03717E+01 0.00000E+00
 -1        15-4.66667E+01 2.03717E+01 0.00000E+00
 -1        16-7.00000E+01 2.03717E+01 0.00000E+00
 -1        17 0.00000E+00 0.00000E+00 9.50678E+00
 -1        18-2.33333E+01 0.00000E+00 9.50678E+00
 -1        19-4.66667E+01 0.00000E+00 9.50678E+00
 -1        20-7.00000E+01 0.00000E+00 9.50678E+00
 -1        21 0.00000E+00 6.79056E+00 9.50678E+00
 -1        22-2.33333E+01 6.79056E+00 9.50678E+00
 -1        23-4.66667E+01 6.79056E+00 9.50678E+00
 -1        24-7.00000E+01 6.79056E+00 9.50678E+00
 -1        25 0.00000E+00 1.35811E+01 9.50678E+00
 -1        26-2.33333E+01 1.35811E+01 9.50678E+00
 -1        27-4.66667E+01 1.35811E+01 9.50678E+00
 -1        28-7.00000E+01 1.35811E+01 9.50678E+00
 -1        29 0.00000E+00 2.03717E+01 9.50678E+00
 -1        30-2.33333E+01 2.03717E+01 9.50678E+00
 -1        31-4.66667E+01 2.03717E+01 9.50678E+00
 -1        32-7.00000E+01 2.03717E+01 9.50678E+00
 -3
    1PSTEP                        20           7           1          
  100CL  107 3.50000E-01          32                     0    7           1
 -4  STRESS      6    1
 -5  SXX         1    4    1    1
 -5  SYY         1    4    2    2
 -5  SZZ         1    4    3    3
 -5  SXY         1    4    1    2
 -5  SYZ         1    4    2    3
 -5  SZX         1    4    3    1
 -1         1-8.88143E+03-1.90801E-12 2.38485E-13 2.87211E-14-3.79099E-14 8.77350E-14
 -1         2-8.88143E+03 3.25815E-13 1.10834E-12 2.09259E-13 4.61388E-14 1.70166E-12
 -1         3-8.88143E+03 2.85289E-13-1.04129E-12-5.78824E-13-2.53298E-14-7.47845E-13
 -1         4-8.88143E+03 4.68040E-14 6.75004E-13 6.46378E-13-6.26440E-14-6.55833E-12
 -1         5-8.88143E+03-1.54170E-12-9.01802E-13 2.19213E-13-6.21477E-14-7.64906E-14
 -1         6-8.88143E+03 3.62240E-14 9.91794E-13 5.80977E-13-2.17778E-13 3.74339E-13
 -1         7-8.88143E+03-1.55183E-12-8.78410E-13-7.56992E-14-1.37911E-13 1.95875E-12
 -1         8-8.88143E+03 1.47465E-12 2.70463E-13 9.04382E-13 4.98361E-13 8.98998E-13
 -1         9-8.88143E+03-8.49579E-13 4.33342E-13-4.40122E-14-3.81361E-14-6.85808E-14
 -1        10-8.88143E+03-1.63328E-12-4.39210E-13-3.77744E-13-2.66382E-13 3.13062E-13
 -1        11-8.88143E+03-7.37339E-13-3.95554E-13 8.25629E-13-2.29974E-13 1.12898E-12
 -1        12-8.88143E+03 6.25061E-13-4.36366E-14 1.13119E-12 2.06165E-13-8.39183E-13
 -1        13-8.88143E+03-3.02404E-13-1.41389E-12 1.73963E-13-1.05130E-12-8.39076E-14
 -1        14-8.88143E+03 3.23459E-12 7.35737E-13-2.76568E-13-2.73959E-13 1.75194E-17
 -1        15-8.88143E+03 9.62573E-13 1.71316E-12-5.07251E-13 2.17844E-14 1.77485E-12
 -1        16-8.88143E+03 7.15512E-13 4.68232E-14 1.58970E-12 1.86895E-12 2.66938E-12
 -1        17-8.88143E+03-6.98377E-13 1.66951E-12-1.17969E-13 1.91017E-13-2.13019E-13
 -1        18-8.88143E+03-6.92110E-13-1.09350E-12 2.38264E-13 1.23607E-13 6.18267E-13
 -1        19-8.88143E+03-4.59874E-13 1.10520E-12 8.12755E-14 1.34059E-13 3.74875E-13
 -1        20-8.88143E+03 2.08260E-12-2.61896E-13 1.82520E-12-5.41573E-14-1.81992E-12
 -1        21-8.88143E+03 1.54170E-12 1.25954E-12-4.34031E-13 1.65062E-13 1.52979E-13
 -1        22-8.88143E+03 9.93373E-13 1.77006E-12-1.56843E-13-1.59530E-13-2.91954E-13
 -1        23-8.88143E+03 6.02093E-13-9.89095E-13-3.67815E-13 2.59587E-13 2.02286E-12
 -1        24-8.88143E+03-2.42010E-12-1.42245E-12-1.01411E-12 4.33513E-13-6.36013E-13
 -1        25-8.88143E+03 6.11085E-13-9.42310E-13-6.32834E-14 2.28503E-13 1.23929E-13
 -1        26-8.88143E+03 1.60131E-12 3.04985E-12 7.49765E-13-1.17967E-13 5.40290E-13
 -1        27-8.88143E+03 2.35890E-12 1.21433E-12-1.65565E-12 3.32186E-13 1.27501E-12
 -1        28-8.88143E+03-2.22210E-12-3.22287E-12 4.77438E-14 2.85290E-13 1.19271E-12
 -1        29-8.88143E+03-5.23774E-13 1.66949E-12-1.68928E-13-4.36087E-13-7.49646E-14
 -1        30-8.88143E+03-2.67029E-12-3.00780E-12 7.47055E-13-1.51704E-13-9.76890E-14
 -1        31-8.88143E+03-1.26498E-12-2.07090E-12-2.24684E-12-2.49848E-13-4.41364E-13
 -1        32-8.88143E+03 1.46069E-12 4.68232E-14 1.10534E-12 8.84577E-13 7.06161E-13
 -3
    1PSTEP                        21           7           1          
  100CL  107 3.50000E-01          32                     0    7           1
 -4  TOSTRAIN    6    1
 -5  EXX         1    4    1    1
 -5  EYY         1    4    2    2
 -5  EZZ         1    4    3    3
 -5  EXY         1    4    1    2
 -5  EYZ         1    4    2    3
 -5  EZX         1    4    3    1
 -1         1-4.55760E-02 1.36728E-02 1.36728E-02 1.76756E-19-2.23728E-19 5.66570E-19
 -1         2-4.55760E-02 1.36728E-02 1.36728E-02 1.31298E-18 2.72292E-19 1.07185E-17
 -1         3-4.55760E-02 1.36728E-02 1.36728E-02-3.66525E-18-1.49486E-19-4.66840E-18
 -1         4-4.55760E-02 1.36728E-02 1.36728E-02 3.98556E-18-3.69699E-19-4.11692E-17
 -1         5-4.55760E-02 1.36728E-02 1.36728E-02 1.52786E-18-3.66770E-19-5.04022E-19
 -1         6-4.55760E-02 1.36728E-02 1.36728E-02 3.63012E-18-1.28524E-18 2.33234E-18
 -1         7-4.55760E-02 1.36728E-02 1.36728E-02-6.16640E-19-8.13893E-19 1.22659E-17
 -1         8-4.55760E-02 1.36728E-02 1.36728E-02 5.57415E-18 2.94112E-18 5.60088E-18
 -1         9-4.55760E-02 1.36728E-02 1.36728E-02-3.84127E-19-2.25063E-19-4.33627E-19
 -1        10-4.55760E-02 1.36728E-02 1.36728E-02-2.44023E-18-1.57208E-18 1.93658E-18
 -1        11-4.55760E-02 1.36728E-02 1.36728E-02 5.16729E-18-1.35721E-18 7.06238E-18
 -1        12-4.55760E-02 1.36728E-02 1.36728E-02 7.10354E-18 1.21670E-18-5.25625E-18
 -1        13-4.55760E-02 1.36728E-02 1.36728E-02 1.11689E-18-6.20435E-18-5.22404E-19
 -1        14-4.55760E-02 1.36728E-02 1.36728E-02-1.83583E-18-1.61679E-18 3.33846E-20
 -1        15-4.55760E-02 1.36728E-02 1.36728E-02-3.30454E-18 1.28562E-19 1.11759E-17
 -1        16-4.55760E-02 1.36728E-02 1.36728E-02 9.95745E-18 1.10298E-17 1.67657E-17
 -1        17-4.55760E-02 1.36728E-02 1.36728E-02-7.36124E-19 1.12731E-18-1.51654E-18
 -1        18-4.55760E-02 1.36728E-02 1.36728E-02 1.49659E-18 7.29479E-19 3.60954E-18
 -1        19-4.55760E-02 1.36728E-02 1.36728E-02 5.64401E-19 7.91158E-19 2.06664E-18
 -1        20-4.55760E-02 1.36728E-02 1.36728E-02 1.15621E-17-3.19614E-19-1.16306E-17
 -1        21-4.55760E-02 1.36728E-02 1.36728E-02-2.97785E-18 9.74129E-19 9.88283E-19
 -1        22-4.55760E-02 1.36728E-02 1.36728E-02-1.08687E-18-9.41482E-19-2.04602E-18
 -1        23-4.55760E-02 1.36728E-02 1.36728E-02-2.36225E-18 1.53198E-18 1.24018E-17
 -1        24-4.55760E-02 1.36728E-02 1.36728E-02-6.52082E-18 2.55841E-18-4.11561E-18
 -1        25-4.55760E-02 1.36728E-02 1.36728E-02-3.32846E-19 1.34853E-18 9.49820E-19
 -1        26-4.55760E-02 1.36728E-02 1.36728E-02 4.76439E-18-6.96195E-19 3.40440E-18
 -1        27-4.55760E-02 1.36728E-02 1.36728E-02-1.01846E-17 1.96042E-18 7.69916E-18
 -1        28-4.55760E-02 1.36728E-02 1.36728E-02 6.51591E-19 1.68366E-18 7.02535E-18
 -1        29-4.55760E-02 1.36728E-02 1.36728E-02-1.06674E-18-2.57361E-18-6.82399E-19
 -1        30-4.55760E-02 1.36728E-02 1.36728E-02 4.53872E-18-8.95297E-19-7.91627E-19
 -1        31-4.55760E-02 1.36728E-02 1.36728E-02-1.37964E-17-1.47450E-18-3.18920E-18
 -1        32-4.55760E-02 1.36728E-02 1.36728E-02 7.82926E-18 5.22041E-18 3.73648E-18
 -3
    1PSTEP                        22           8           1          
  100CL  108 4.00000E-01          32                     0    8           1
 -4  DISP        4    1
 -5  D1          1    2    1    0
 -5  D2          1    2    2    0
 -5  D3          1    2    3    0
 -5  ALL         1    2    0    0    1ALL
 -1         1 0.00000E+00 0.00000E+00 0.00000E+00
 -1         2-2.66667E+01 0.00000E+00 0.00000E+00
 -1         3-5.33333E+01 0.00000E+00 0.00000E+00
 -1         4-8.00000E+01 0.00000E+00 0.00000E+00
 -1         5 0.00000E+00 7.72696E+00 0.00000E+00
 -1         6-2.66667E+01 7.72696E+00 0.00000E+00
 -1         7-5.33333E+01 7.72696E+00 0.00000E+00
 -1         8-8.00000E+01 7.72696E+00 0.00000E+00
 -1         9 0.00000E+00 1.54539E+01 0.00000E+00
 -1        10-2.66667E+01 1.54539E+01 0.00000E+00
 -1        11-5.33333E+01 1.54539E+01 0.00000E+00
 -1        12-8.00000E+01 1.54539E+01 0.00000E+00
 -1        13 0.00000E+00 2.31809E+01 0.00000E+00
 -1        14-2.66667E+01 2.31809E+01 0.00000E+00
 -1        15-5.33333E+01 2.31809E+01 0.00000E+00
 -1        16-8.00000E+01 2.31809E+01 0.00000E+00
 -1        17 0.00000E+00 0.00000E+00 1.08177E+01
 -1        18-2.66667E+01 0.00000E+00 1.08177E+01
 -1        19-5.33333E+01 0.00000E+00 1.08177E+01
 -1        20-8.00000E+01 0.00000E+00 1.08177E+01
 -1        21 0.00000E+00 7.72696E+00 1.08177E+01
 -1        22-2.66667E+01 7.72696E+00 1.08177E+01
 -1        23-5.33333E+01 7.72696E+00 1.08177E+01
 -1        24-8.00000E+01 7.72696E+00 1.08177E+01
 -1        25 0.00000E+00 1.54539E+01 1.08177E+01
 -1        26-2.66667E+01 1.54539E+01 1.08177E+01
 -1        27-5.33333E+01 1.54539E+01 1.08177E+01
 -1        28-8.00000E+01 1.54539E+01 1.08177E+01
 -1        29 0.00000E+00 2.31809E+01 1.08177E+01
 -1        30-2.66667E+01 2.31809E+01 1.08177E+01
 -1        31-5.33333E+01 2.31809E+01 1.08177E+01
 -1        32-8.00000E+01 2.31809E+01 1.08177E+01
 -3
    1PSTEP                        23           8           1          
  100CL  108 4.00000E-01          32                     0    8           1
 -4  STRESS      6    1
 -5  SXX         1    4    1    1
 -5  SYY         1    4    2    2
 -5  SZZ         1    4    3    3
 -5  SXY         1    4    1    2
 -5  SYZ         1    4    2    3
 -5  SZX         1    4    3    1
 -1         1-1.00078E+04-2.23006E-13 1.44102E-12 5.51151E-14-3.64010E-14-2.28035E-14
 -1         2-1.00078E+04 2.31385E-12 2.57759E-12-6.92144E-14-2.45423E-14 1.92733E-12
 -1         3-1.00078E+04 2.05645E-12 1.31236E-12 8.34989E-13 2.26665E-14 1.76371E-12
 -1         4-1.00078E+04 1.31236E-12 1.18366E-12 8.05094E-13 1.05140E-13-6.03373E-12
 -1         5-1.00078E+04-7.67703E-13-9.43537E-13 3.43448E-13-7.28589E-13 3.47014E-15
 -1         6-1.00078E+04-5.36128E-13 4.04190E-13-1.38652E-14-2.14937E-13 1.07697E-12
 -1         7-1.00078E+04 2.34060E-12 1.41206E-12 1.37173E-12-1.25623E-13 1.91640E-12
 -1         8-1.00078E+04 1.76917E-12 1.79273E-12 2.17861E-13 5.96463E-14-2.41007E-13
 -1         9-1.00078E+04 1.20088E-12 9.13562E-13-5.06440E-14 5.73000E-14 1.25878E-13
 -1        10-1.00078E+04 1.83351E-12 2.13804E-12 1.27687E-12-2.19868E-13 1.01082E-12
 -1        11-1.00078E+04 3.72063E-13 2.01252E-12 1.72339E-12-3.60213E-14 3.70702E-13
 -1        12-1.00078E+04 3.24013E-12 1.68759E-12 4.11731E-13 4.80323E-13 2.01419E-12
 -1        13-1.00078E+04-8.32034E-13-1.05500E-12-1.35039E-13-1.41276E-12 7.17900E-14
 -1        14-1.00078E+04-8.72808E-13-1.46466E-12 4.37544E-13-1.49701E-14-3.38538E-14
 -1        15-1.00078E+04-2.79426E-12-7.84900E-13 1.49244E-12 4.07308E-13 1.44225E-12
 -1        16-1.00078E+04 8.66505E-13-7.50410E-13 1.87232E-12 1.23125E-12 2.27242E-12
 -1        17-1.00078E+04 3.71412E-12 5.37815E-12-4.30770E-13 2.83463E-13-2.36304E-13
 -1        18-1.00078E+04 2.12078E-12 1.96852E-12 1.34331E-12-1.99711E-13 1.66166E-12
 -1        19-1.00078E+04-2.35765E-14-3.51667E-13 3.43771E-12 2.33273E-13-1.49800E-12
 -1        20-1.00078E+04-3.51667E-13 1.28700E-13-1.63803E-13-6.69375E-13-2.81189E-13
 -1        21-1.00078E+04 4.30597E-12 4.13014E-12-2.35540E-13-2.84681E-13-4.69128E-14
 -1        22-1.00078E+04 1.05722E-12 2.35781E-12 9.91357E-13-4.53771E-13 1.21348E-12
 -1        23-1.00078E+04-7.79453E-13-5.71454E-13-8.85574E-13 5.43758E-13 6.98255E-13
 -1        24-1.00078E+04-2.05649E-12-2.97641E-12 3.48169E-13-6.53797E-13-1.03180E-12
 -1        25-1.00078E+04 1.72836E-12 1.66399E-12-4.53460E-13 1.28730E-12-8.69408E-14
 -1        26-1.00078E+04-1.31238E-12-4.80386E-13 8.91205E-14-4.02586E-13 1.17650E-12
 -1        27-1.00078E+04 1.17690E-14-5.80062E-13-2.63412E-12-2.05475E-13 1.16673E-12
 -1        28-1.00078E+04-1.94499E-12-9.19922E-13-2.95076E-14 6.34162E-13-3.50712E-13
 -1        29-1.00078E+04-2.22967E-13 2.88212E-12 7.69011E-13-1.11573E-12-2.48223E-13
 -1        30-1.00078E+04 2.95283E-12 3.19300E-12 3.09902E-13-2.88609E-13 4.06198E-13
 -1        31-1.00078E+04 1.41754E-12 1.28719E-13 6.46410E-13 9.99118E-13 1.27042E-12
 -1        32-1.00078E+04-3.23383E-12-5.07367E-12-3.36077E-13 1.86529E-12-1.12711E-13
 -3
    1PSTEP                        24           8           1          
  100CL  108 4.00000E-01          32                     0    8           1
 -4  TOSTRAIN    6    1
 -5  EXX         1    4    1    1
 -5  EYY         1    4    2    2
 -5  EZZ         1    4    3    3
 -5  EXY         1    4    1    2
 -5  EYZ         1    4    2    3
 -5  EZX         1    4    3    1
 -1         1-5.19090E-02 1.55727E-02 1.55727E-02 2.70546E-19-2.13321E-19-1.38586E-19
 -1         2-5.19090E-02 1.55727E-02 1.55727E-02-4.72598E-19-1.43826E-19 1.20875E-17
 -1         3-5.19090E-02 1.55727E-02 1.55727E-02 5.24924E-18 1.32833E-19 1.10570E-17
 -1         4-5.19090E-02 1.55727E-02 1.55727E-02 5.06080E-18 6.16151E-19-3.79281E-17
 -1         5-5.19090E-02 1.55727E-02 1.55727E-02 2.55504E-18-4.26976E-18 1.43183E-20
 -1         6-5.19090E-02 1.55727E-02 1.55727E-02-2.65743E-19-1.25960E-18 6.78004E-18
 -1         7-5.19090E-02 1.55727E-02 1.55727E-02 8.21060E-18-7.36189E-19 1.20509E-17
 -1         8-5.19090E-02 1.55727E-02 1.55727E-02 1.29823E-18 3.49546E-19-1.53421E-18
 -1         9-5.19090E-02 1.55727E-02 1.55727E-02-2.43598E-19 3.35796E-19 7.39240E-19
 -1        10-5.19090E-02 1.55727E-02 1.55727E-02 7.91138E-18-1.28850E-18 6.30829E-18
 -1        11-5.19090E-02 1.55727E-02 1.55727E-02 1.04278E-17-2.11096E-19 2.29736E-18
 -1        12-5.19090E-02 1.55727E-02 1.55727E-02 2.08204E-18 2.81484E-18 1.26353E-17
 -1        13-5.19090E-02 1.55727E-02 1.55727E-02-8.94174E-19-8.27921E-18 4.18086E-19
 -1        14-5.19090E-02 1.55727E-02 1.55727E-02 2.23993E-18-8.77297E-20-2.25288E-19
 -1        15-5.19090E-02 1.55727E-02 1.55727E-02 8.99470E-18 2.38696E-18 9.07777E-18
 -1        16-5.19090E-02 1.55727E-02 1.55727E-02 1.19714E-17 7.21551E-18 1.42997E-17
 -1        17-5.19090E-02 1.55727E-02 1.55727E-02-2.63763E-18 1.66118E-18-1.68281E-18
 -1        18-5.19090E-02 1.55727E-02 1.55727E-02 8.48282E-18-1.17037E-18 1.01837E-17
 -1        19-5.19090E-02 1.55727E-02 1.55727E-02 2.16170E-17 1.36706E-18-9.60115E-18
 -1        20-5.19090E-02 1.55727E-02 1.55727E-02-1.02248E-18-3.92275E-18-1.81057E-18
 -1        21-5.19090E-02 1.55727E-02 1.55727E-02-1.53995E-18-1.66832E-18-4.82295E-19
 -1        22-5.19090E-02 1.55727E-02 1.55727E-02 6.11367E-18-2.65924E-18 7.41014E-18
 -1        23-5.19090E-02 1.55727E-02 1.55727E-02-5.81381E-18 3.18660E-18 4.08159E-18
 -1        24-5.19090E-02 1.55727E-02 1.55727E-02 1.87168E-18-3.83146E-18-6.85299E-18
 -1        25-5.19090E-02 1.55727E-02 1.55727E-02-3.27349E-18 7.54397E-18-6.90331E-19
 -1        26-5.19090E-02 1.55727E-02 1.55727E-02 1.56995E-19-2.35928E-18 7.43986E-18
 -1        27-5.19090E-02 1.55727E-02 1.55727E-02-1.66623E-17-1.20415E-18 7.14631E-18
 -1        28-5.19090E-02 1.55727E-02 1.55727E-02-9.73297E-21 3.71639E-18-2.81265E-18
 -1        29-5.19090E-02 1.55727E-02 1.55727E-02 5.32586E-18-6.53855E-18-1.68427E-18
 -1        30-5.19090E-02 1.55727E-02 1.55727E-02 2.17852E-18-1.69134E-18 2.37046E-18
 -1        31-5.19090E-02 1.55727E-02 1.55727E-02 4.02096E-18 5.85515E-18 7.75698E-18
 -1        32-5.19090E-02 1.55727E-02 1.55727E-02-2.16668E-18 1.09312E-17-9.24600E-19
 -3
    1PSTEP                        25           9           1          
  100CL  109 4.50000E-01          32                     0    9           1
 -4  DISP        4    1
 -5  D1          1    2    1    0
 -5  D2          1    2    2    0
 -5  D3          1    2    3    0
 -5  ALL         1    2    0    0    1ALL
 -1         1 0.00000E+00 0.00000E+00 0.00000E+00
 -1         2-3.00000E+01 0.00000E+00 0.00000E+00
 -1         3-6.00000E+01 0.00000E+00 0.00000E+00
 -1         4-9.00000E+01 0.00000E+00 0.00000E+00
 -1         5 0.00000E+00 8.65509E+00 0.00000E+00
 -1         6-3.00000E+01 8.65509E+00 0.00000E+00
 -1         7-6.00000E+01 8.65509E+00 0.00000E+00
 -1         8-9.00000E+01 8.65509E+00 0.00000E+00
 -1         9 0.00000E+00 1.73102E+01 0.00000E+00
 -1        10-3.00000E+01 1.73102E+01 0.00000E+00
 -1        11-6.00000E+01 1.73102E+01 0.00000E+00
 -1        12-9.00000E+01 1.73102E+01 0.00000E+00
 -1        13 0.00000E+00 2.59653E+01 0.00000E+00
 -1        14-3.00000E+01 2.59653E+01 0.00000E+00
 -1        15-6.00000E+01 2.59653E+01 0.00000E+00
 -1        16-9.00000E+01 2.59653E+01 0.00000E+00
 -1        17 0.00000E+00 0.00000E+00 1.21171E+01
 -1        18-3.00000E+01 0.00000E+00 1.21171E+01
 -1        19-6.00000E+01 0.00000E+00 1.21171E+01
 -1        20-9.00000E+01 0.00000E+00 1.21171E+01
 -1        21 0.00000E+00 8.65509E+00 1.21171E+01
 -1        22-3.00000E+01 8.65509E+00 1.21171E+01
 -1        23-6.00000E+01 8.65509E+00 1.21171E+01
 -1        24-9.00000E+01 8.65509E+00 1.21171E+01
 -1        25 0.00000E+00 1.73102E+01 1.21171E+01
 -1        26-3.00000E+01 1.73102E+01 1.21171E+01
 -1        27-6.00000E+01 1.73102E+01 1.21171E+01
 -1        28-9.00000E+01 1.73102E+01 1.21171E+01
 -1        29 0.00000E+00 2.59653E+01 1.21171E+01
 -1        30-3.00000E+01 2.59653E+01 1.21171E+01
 -1        31-6.00000E+01 2.59653E+01 1.21171E+01
 -1        32-9.00000E+01 2.59653E+01 1.21171E+01
 -3
    1PSTEP                        26           9           1          
  100CL  109 4.50000E-01          32                     0    9           1
 -4  STRESS      6    1
 -5  SXX         1    4    1    1
 -5  SYY         1    4    2    2
 -5  SZZ         1    4    3    3
 -5  SXY         1    4    1    2
 -5  SYZ         1    4    2    3
 -5  SZX         1    4    3    1
 -1         1-1.11006E+04 1.67583E-12 8.37896E-13 2.61420E-14-1.04606E-13-7.93028E-14
 -1         2-1.11006E+04 6.13386E-13-7.32008E-13-1.36457E-12 1.94454E-13 9.17144E-14
 -1         3-1.11006E+04 5.72285E-13 1.67581E-12 1.64596E-12-1.21220E-13 1.12600E-12
 -1         4-1.11006E+04-3.06713E-13-2.72550E-12 2.63081E-12 1.78619E-14-6.41274E-12
 -1         5-1.11006E+04-1.49238E-12 1.12235E-13 2.48748E-13-5.47822E-14 9.31861E-14
 -1         6-1.11006E+04-6.81376E-13-1.41504E-13-5.02395E-13-3.63205E-13 1.55896E-12
 -1         7-1.11006E+04 1.08847E-12-8.94024E-13 1.51176E-12-2.50847E-13 1.12122E-14
 -1         8-1.11006E+04 1.32167E-12 5.07498E-13-1.63849E-12 6.50906E-13-5.12268E-14
 -1         9-1.11006E+04 1.82280E-12 1.64572E-12-6.90596E-14 3.35639E-14 3.22787E-14
 -1        10-1.11006E+04 2.02676E-12 3.04724E-12-2.60906E-13-8.22892E-13 4.17292E-13
 -1        11-1.11006E+04-7.61237E-13-6.57661E-13 6.34456E-14-2.91963E-13 2.62393E-12
 -1        12-1.11006E+04 8.55273E-13-3.77847E-13 8.68199E-13 3.38883E-13-3.50550E-12
 -1        13-1.11006E+04 6.60835E-13 8.37896E-13 1.04464E-12-1.84308E-12-4.08662E-13
 -1        14-1.11006E+04-1.56358E-12-1.27424E-12-4.52466E-13 5.58657E-14 1.42015E-12
 -1        15-1.11006E+04 3.35160E-12 3.87650E-12-1.40043E-12 5.50175E-13 2.85260E-12
 -1        16-1.11006E+04 1.27422E-12 5.31222E-13-9.17755E-14 1.67937E-12 2.49992E-12
 -1        17-1.11006E+04-2.52435E-29 8.37896E-13 4.17037E-15 5.95339E-13 9.55916E-14
 -1        18-1.11006E+04-2.28922E-12 1.28057E-12 2.44570E-13-1.75152E-13 4.97198E-13
 -1        19-1.11006E+04 9.91252E-13-8.37877E-13-1.09173E-12 5.32273E-13-1.46102E-13
 -1        20-1.11006E+04 5.72300E-12 3.30421E-12-2.19717E-12 3.30060E-13-2.25172E-12
 -1        21-1.11006E+04 1.07344E-12 2.79033E-12-6.51300E-13 2.14413E-14-5.73138E-13
 -1        22-1.11006E+04 9.79390E-13 6.81376E-13-4.37103E-13-6.62027E-13-4.69881E-14
 -1        23-1.11006E+04-3.62830E-13 1.31299E-12-4.69675E-13 1.72324E-13 1.18265E-13
 -1        24-1.11006E+04-1.80544E-12-3.03856E-12 9.18278E-14 2.55065E-13 1.21276E-12
 -1        25-1.11006E+04-3.67571E-12-2.17698E-12-1.22448E-13-4.21054E-13 3.10882E-14
 -1        26-1.11006E+04-1.26874E-12-6.52175E-13 1.30192E-12-4.19037E-13 7.90941E-13
 -1        27-1.11006E+04 8.58428E-13-1.81732E-12-1.18884E-12 5.74915E-13 1.69000E-13
 -1        28-1.11006E+04-2.88525E-12-1.10353E-12-7.28771E-13-1.04813E-12 9.55403E-13
 -1        29-1.11006E+04 3.17456E-12 3.12711E-12-7.60590E-13 4.71086E-13-1.05837E-13
 -1        30-1.11006E+04 5.30404E-12 2.77295E-12 1.23010E-12 7.42073E-13 4.21954E-13
 -1        31-1.11006E+04 9.20080E-13 1.25050E-12-1.28757E-13 6.91434E-13 1.56103E-12
 -1        32-1.11006E+04-7.90486E-13-6.56094E-12-6.92736E-14 9.24728E-14 8.33785E-13
 -3
    1PSTEP                        27           9           1          
  100CL  109 4.50000E-01          32                     0    9           1
 -4  TOSTRAIN    6    1
 -5  EXX         1    4    1    1
 -5  EYY         1    4    2    2
 -5  EZZ         1    4    3    3
 -5  EXY         1    4    1    2
 -5  EYZ         1    4    2    3
 -5  EZX         1    4    3    1
 -1         1-5.81977E-02 1.74593E-02 1.74593E-02 1.60085E-19-6.08707E-19-5.46947E-19
 -1         2-5.81977E-02 1.74593E-02 1.74593E-02-8.60594E-18 1.13154E-18 5.85999E-19
 -1         3-5.81977E-02 1.74593E-02 1.74593E-02 1.03633E-17-7.05382E-19 7.08675E-18
 -1         4-5.81977E-02 1.74593E-02 1.74593E-02 1.65833E-17 1.03939E-19-4.04582E-17
 -1         5-5.81977E-02 1.74593E-02 1.74593E-02 1.81174E-18-3.18780E-19 6.63747E-19
 -1         6-5.81977E-02 1.74593E-02 1.74593E-02-2.93967E-18-2.11351E-18 9.91829E-18
 -1         7-5.81977E-02 1.74593E-02 1.74593E-02 9.61124E-18-1.45969E-18 1.56313E-19
 -1         8-5.81977E-02 1.74593E-02 1.74593E-02-1.03404E-17 3.78765E-18-2.75383E-19
 -1         9-5.81977E-02 1.74593E-02 1.74593E-02-5.97916E-19 1.95310E-19 2.17095E-19
 -1        10-5.81977E-02 1.74593E-02 1.74593E-02-1.71365E-18-4.78845E-18 2.62633E-18
 -1        11-5.81977E-02 1.74593E-02 1.74593E-02 6.36994E-19-1.69895E-18 1.65122E-17
 -1        12-5.81977E-02 1.74593E-02 1.74593E-02 5.92058E-18 1.97197E-18-2.20840E-17
 -1        13-5.81977E-02 1.74593E-02 1.74593E-02 7.54176E-18-1.07250E-17-2.63811E-18
 -1        14-5.81977E-02 1.74593E-02 1.74593E-02-2.38295E-18 3.25085E-19 8.82812E-18
 -1        15-5.81977E-02 1.74593E-02 1.74593E-02-8.90519E-18 3.20149E-18 1.78730E-17
 -1        16-5.81977E-02 1.74593E-02 1.74593E-02-7.19649E-19 9.77232E-18 1.57269E-17
 -1        17-5.81977E-02 1.74593E-02 1.74593E-02 3.95186E-20 3.46430E-18 6.82639E-19
 -1        18-5.81977E-02 1.74593E-02 1.74593E-02 1.56945E-18-1.01922E-18 2.99929E-18
 -1        19-5.81977E-02 1.74593E-02 1.74593E-02-6.86281E-18 3.09732E-18-1.16429E-18
 -1        20-5.81977E-02 1.74593E-02 1.74593E-02-1.38572E-17 1.92064E-18-1.43245E-17
 -1        21-5.81977E-02 1.74593E-02 1.74593E-02-4.81528E-18 1.24768E-19-4.28542E-18
 -1        22-5.81977E-02 1.74593E-02 1.74593E-02-2.71257E-18-3.85237E-18-8.53026E-19
 -1        23-5.81977E-02 1.74593E-02 1.74593E-02-2.15795E-18 1.00276E-18 4.65500E-19
 -1        24-5.81977E-02 1.74593E-02 1.74593E-02 1.38415E-18 1.48424E-18 7.51717E-18
 -1        25-5.81977E-02 1.74593E-02 1.74593E-02-6.37645E-19-2.45013E-18 2.55971E-19
 -1        26-5.81977E-02 1.74593E-02 1.74593E-02 8.52319E-18-2.43840E-18 4.49623E-18
 -1        27-5.81977E-02 1.74593E-02 1.74593E-02-6.97050E-18 3.34546E-18 4.65148E-19
 -1        28-5.81977E-02 1.74593E-02 1.74593E-02-4.07156E-18-6.09912E-18 5.84832E-18
 -1        29-5.81977E-02 1.74593E-02 1.74593E-02-5.04795E-18 2.74127E-18-8.42757E-19
 -1        30-5.81977E-02 1.74593E-02 1.74593E-02 7.56185E-18 4.31816E-18 2.43594E-18
 -1        31-5.81977E-02 1.74593E-02 1.74593E-02-5.20586E-19 4.02349E-18 9.20101E-18
 -1        32-5.81977E-02 1.74593E-02 1.74593E-02 2.56024E-19 5.38104E-19 4.25781E-18
 -3
    1PSTEP                        28          10           1          
  100CL  110 5.00000E-01          32                     0   10           1
 -4  DISP        4    1
 -5  D1          1    2    1    0
 -5  D2          1    2    2    0
 -5  D3          1    2    3    0
 -5  ALL         1    2    0    0    1ALL
 -1         1 0.00000E+00 0.00000E+00 0.00000E+00
 -1         2-3.33333E+01 0.00000E+00 0.00000E+00
 -1         3-6.66667E+01 0.00000E+00 0.00000E+00
 -1         4-1.00000E+02 0.00000E+00 0.00000E+00
 -1         5 0.00000E+00 9.57499E+00 0.00000E+00
 -1         6-3.33333E+01 9.57499E+00 0.00000E+00
 -1         7-6.66667E+01 9.57499E+00 0.00000E+00
 -1         8-1.00000E+02 9.57499E+00 0.00000E+00
 -1         9 0.00000E+00 1.91500E+01 0.00000E+00
 -1        10-3.33333E+01 1.91500E+01 0.00000E+00
 -1        11-6.66667E+01 1.91500E+01 0.00000E+00
 -1        12-1.00000E+02 1.91500E+01 0.00000E+00
 -1        13 0.00000E+00 2.87250E+01 0.00000E+00
 -1        14-3.33333E+01 2.87250E+01 0.00000E+00
 -1        15-6.66667E+01 2.87250E+01 0.00000E+00
 -1        16-1.00000E+02 2.87250E+01 0.00000E+00
 -1        17 0.00000E+00 0.00000E+00 1.34050E+01
 -1        18-3.33333E+01 0.00000E+00 1.34050E+01
 -1        19-6.66667E+01 0.00000E+00 1.34050E+01
 -1        20-1.00000E+02 0.00000E+00 1.34050E+01
 -1        21 0.00000E+00 9.57499E+00 1.34050E+01
 -1        22-3.33333E+01 9.57499E+00 1.34050E+01
 -1        23-6.66667E+01 9.57499E+00 1.34050E+01
 -1        24-1.00000E+02 9.57499E+00 1.34050E+01
 -1        25 0.00000E+00 1.91500E+01 1.34050E+01
 -1        26-3.33333E+01 1.91500E+01 1.34050E+01
 -1        27-6.66667E+01 1.91500E+01 1.34050E+01
 -1        28-1.00000E+02 1.91500E+01 1.34050E+01
 -1        29 0.00000E+00 2.87250E+01 1.34050E+01
 -1        30-3.33333E+01 2.87250E+01 1.34050E+01
 -1        31-6.66667E+01 2.87250E+01 1.34050E+01
 -1        32-1.00000E+02 2.87250E+01 1.34050E+01
 -3
    1PSTEP                        29          10           1          
  100CL  110 5.00000E-01          32                     0   10           1
 -4  STRESS      6    1
 -5  SXX         1    4    1    1
 -5  SYY         1    4    2    2
 -5  SZZ         1    4    3    3
 -5  SXY         1    4    1    2
 -5  SYZ         1    4    2    3
 -5  SZX         1    4    3    1
 -1         1-1.21604E+04-3.27999E-12-1.02225E-12 6.50579E-14-1.84746E-13-1.28004E-13
 -1         2-1.21604E+04-2.97105E-12-1.63996E-12 3.39914E-13-6.00336E-14 6.92920E-13
 -1         3-1.21604E+04-2.63829E-12-1.30716E-12-1.80207E-12-9.59183E-15-1.55440E-12
 -1         4-1.21604E+04-1.15278E-12-3.27999E-12-8.18077E-13-2.26580E-13 2.17497E-13
 -1         5-1.21604E+04-1.30558E-13 3.32758E-13 1.95238E-13-2.67301E-13 1.24224E-13
 -1         6-1.21604E+04-2.47194E-12-2.24028E-12-8.34407E-14-3.14307E-13 4.51312E-13
 -1         7-1.21604E+04-3.62468E-12-2.37079E-12 1.21461E-12-3.30021E-13 2.64921E-12
 -1         8-1.21604E+04 6.05536E-12 5.72259E-12 3.12133E-13 9.47515E-13-4.06572E-12
 -1         9-1.21604E+04 7.54699E-13 3.12552E-12 4.85759E-13 3.96394E-13-1.09383E-13
 -1        10-1.21604E+04 1.53889E-12 2.23707E-12-3.58256E-13-4.14980E-13 4.70735E-14
 -1        11-1.21604E+04-2.09777E-12-2.66221E-12 1.28857E-12-1.12989E-12 2.20418E-12
 -1        12-1.21604E+04-5.36584E-12-5.09833E-12 1.13875E-12-4.60735E-13 4.03999E-13
 -1        13-1.21604E+04-2.97112E-12-4.78265E-14 4.04947E-14-1.82836E-12-1.46869E-13
 -1        14-1.21604E+04-6.36419E-12-3.79115E-12 3.08508E-13 8.72434E-13 4.10712E-13
 -1        15-1.21604E+04-3.12556E-12-1.01581E-12-6.22020E-13-2.65237E-13 1.24816E-13
 -1        16-1.21604E+04-2.79276E-12-3.71939E-12 2.29895E-12 9.38897E-13 6.19129E-12
 -1        17-1.21604E+04-2.04445E-12-1.86613E-12-2.87568E-13 9.60094E-13-6.84556E-14
 -1        18-1.21604E+04-2.20992E-12-2.03159E-12 1.98754E-12 5.61342E-13 5.15920E-13
 -1        19-1.21604E+04-2.83410E-12-3.50201E-13-8.77102E-13 1.55793E-13-8.04665E-13
 -1        20-1.21604E+04-3.68447E-12-4.35002E-12 5.21964E-13-1.13899E-13-5.63559E-12
 -1        21-1.21604E+04 1.94888E-12 2.21637E-12-4.56181E-13-3.21857E-13 1.76063E-13
 -1        22-1.21604E+04-9.53712E-13 3.32807E-13 1.49740E-12-3.30885E-13-2.40409E-13
 -1        23-1.21604E+04-1.45841E-12-2.25772E-12-9.01565E-13 4.48382E-13 1.26321E-12
 -1        24-1.21604E+04-9.44114E-13-3.69552E-12 1.45866E-12 3.73636E-13 6.22614E-13
 -1        25-1.21604E+04 2.63833E-12 1.55079E-12 1.73765E-13-4.24016E-13-1.15435E-13
 -1        26-1.21604E+04 5.10031E-14 7.90559E-13-3.30138E-13-3.59729E-13-1.70364E-13
 -1        27-1.21604E+04-8.16762E-13-1.70525E-12-1.76505E-12 4.03593E-13 1.90513E-12
 -1        28-1.21604E+04-8.67755E-13-2.40110E-12 1.12136E-12-1.05117E-12-1.31635E-12
 -1        29-1.21604E+04 4.78946E-12 3.10162E-12 1.02327E-13-9.58272E-13 1.68293E-13
 -1        30-1.21604E+04 2.85807E-12 3.32136E-12 3.86775E-14-1.13179E-12-1.85829E-13
 -1        31-1.21604E+04 7.54777E-13 1.48560E-12-2.73057E-12 6.05698E-13 3.59574E-12
 -1        32-1.21604E+04 2.27064E-12 4.04120E-12 2.35409E-12 2.57765E-12-1.09579E-13
 -3
    1PSTEP                        30          10           1          
  100CL  110 5.00000E-01          32                     0   10           1
 -4  TOSTRAIN    6    1
 -5  EXX         1    4    1    1
 -5  EYY         1    4    2    2
 -5  EZZ         1    4    3    3
 -5  EXY         1    4    1    2
 -5  EYZ         1    4    2    3
 -5  EZX         1    4    3    1
 -1         1-6.44419E-02 1.93326E-02 1.93326E-02 4.10452E-19-1.06742E-18-8.07578E-19
 -1         2-6.44419E-02 1.93326E-02 1.93326E-02 2.18257E-18-3.46861E-19 4.42376E-18
 -1         3-6.44419E-02 1.93326E-02 1.93326E-02-1.13311E-17-5.54195E-20-9.80213E-18
 -1         4-6.44419E-02 1.93326E-02 1.93326E-02-5.16102E-18-1.30913E-18 1.27718E-18
 -1         5-6.44419E-02 1.93326E-02 1.93326E-02 1.31261E-18-1.54441E-18 7.83734E-19
 -1         6-6.44419E-02 1.93326E-02 1.93326E-02-7.00135E-19-1.81600E-18 2.91362E-18
 -1         7-6.44419E-02 1.93326E-02 1.93326E-02 7.44139E-18-1.90679E-18 1.67225E-17
 -1         8-6.44419E-02 1.93326E-02 1.93326E-02 1.95429E-18 5.47453E-18-2.57663E-17
 -1         9-6.44419E-02 1.93326E-02 1.93326E-02 3.45186E-18 2.29028E-18-6.54449E-19
 -1        10-6.44419E-02 1.93326E-02 1.93326E-02-2.61642E-18-2.39766E-18 3.04306E-19
 -1        11-6.44419E-02 1.93326E-02 1.93326E-02 7.60977E-18-6.52828E-18 1.39129E-17
 -1        12-6.44419E-02 1.93326E-02 1.93326E-02 7.24429E-18-2.66203E-18 2.58321E-18
 -1        13-6.44419E-02 1.93326E-02 1.93326E-02 1.33262E-19-1.05638E-17-1.06920E-18
 -1        14-6.44419E-02 1.93326E-02 1.93326E-02 2.05334E-18 5.04073E-18 2.58864E-18
 -1        15-6.44419E-02 1.93326E-02 1.93326E-02-3.79065E-18-1.53248E-18 8.56216E-19
 -1        16-6.44419E-02 1.93326E-02 1.93326E-02 1.44354E-17 5.42474E-18 3.90610E-17
 -1        17-6.44419E-02 1.93326E-02 1.93326E-02-1.81427E-18 5.54721E-18-4.31888E-19
 -1        18-6.44419E-02 1.93326E-02 1.93326E-02 1.25293E-17 3.24331E-18 3.06462E-18
 -1        19-6.44419E-02 1.93326E-02 1.93326E-02-5.55053E-18 9.00136E-19-5.31600E-18
 -1        20-6.44419E-02 1.93326E-02 1.93326E-02 3.27971E-18-6.58082E-19-3.56531E-17
 -1        21-6.44419E-02 1.93326E-02 1.93326E-02-2.96591E-18-1.85962E-18 1.11079E-18
 -1        22-6.44419E-02 1.93326E-02 1.93326E-02 9.43192E-18-1.91178E-18-1.98268E-18
 -1        23-6.44419E-02 1.93326E-02 1.93326E-02-5.27054E-18 2.59065E-18 7.52745E-18
 -1        24-6.44419E-02 1.93326E-02 1.93326E-02 9.98016E-18 2.15878E-18 3.97559E-18
 -1        25-6.44419E-02 1.93326E-02 1.93326E-02 1.48651E-18-2.44987E-18-7.99582E-19
 -1        26-6.44419E-02 1.93326E-02 1.93326E-02-1.96643E-18-2.07844E-18-1.48582E-18
 -1        27-6.44419E-02 1.93326E-02 1.93326E-02-1.10505E-17 2.33187E-18 1.16418E-17
 -1        28-6.44419E-02 1.93326E-02 1.93326E-02 7.40254E-18-6.07344E-18-8.30967E-18
 -1        29-6.44419E-02 1.93326E-02 1.93326E-02 5.45966E-19-5.53668E-18 1.13306E-18
 -1        30-6.44419E-02 1.93326E-02 1.93326E-02-2.45522E-19-6.53924E-18-1.26979E-18
 -1        31-6.44419E-02 1.93326E-02 1.93326E-02-1.68021E-17 3.49959E-18 2.23221E-17
 -1        32-6.44419E-02 1.93326E-02 1.93326E-02 1.65816E-17 1.48931E-17-1.15222E-18
 -3
    1PSTEP                        31          11           1          
  100CL  111 5.50000E-01          32                     0   11           1
 -4  DISP        4    1
 -5  D1          1    2    1    0
 -5  D2          1    2    2    0
 -5  D3          1    2    3    0
 -5  ALL         1    2    0    0    1ALL
 -1         1 0.00000E+00 0.00000E+00 0.00000E+00
 -1         2-3.66667E+01 0.00000E+00 0.00000E+00
 -1         3-7.33333E+01 0.00000E+00 0.00000E+00
 -1         4-1.10000E+02 0.00000E+00 0.00000E+00
 -1         5 0.00000E+00 1.04867E+01 0.00000E+00
 -1         6-3.66667E+01 1.04867E+01 0.00000E+00
 -1         7-7.33333E+01 1.04867E+01 0.00000E+00
 -1         8-1.10000E+02 1.04867E+01 0.00000E+00
 -1         9 0.00000E+00 2.09734E+01 0.00000E+00
 -1        10-3.66667E+01 2.09734E+01 0.00000E+00
 -1        11-7.33333E+01 2.09734E+01 0.00000E+00
 -1        12-1.10000E+02 2.09734E+01 0.00000E+00
 -1        13 0.00000E+00 3.14601E+01 0.00000E+00
 -1        14-3.66667E+01 3.14601E+01 0.00000E+00
 -1        15-7.33333E+01 3.14601E+01 0.00000E+00
 -1        16-1.10000E+02 3.14601E+01 0.00000E+00
 -1        17 0.00000E+00 0.00000E+00 1.46814E+01
 -1        18-3.66667E+01 0.00000E+00 1.46814E+01
 -1        19-7.33333E+01 0.00000E+00 1.46814E+01
 -1        20-1.10000E+02 0.00000E+00 1.46814E+01
 -1        21 0.00000E+00 1.04867E+01 1.46814E+01
 -1        22-3.66667E+01 1.04867E+01 1.46814E+01
 -1        23-7.33333E+01 1.04867E+01 1.46814E+01
 -1        24-1.10000E+02 1.04867E+01 1.46814E+01
 -1        25 0.00000E+00 2.09734E+01 1.46814E+01
 -1        26-3.66667E+01 2.09734E+01 1.46814E+01
 -1        27-7.33333E+01 2.09734E+01 1.46814E+01
 -1        28-1.10000E+02 2.09734E+01 1.46814E+01
 -1        29 0.00000E+00 3.14601E+01 1.46814E+01
 -1        30-3.66667E+01 3.14601E+01 1.46814E+01
 -1        31-7.33333E+01 3.14601E+01 1.46814E+01
 -1        32-1.10000E+02 3.14601E+01 1.46814E+01
 -3
    1PSTEP                        32          11           1          
  100CL  111 5.50000E-01          32                     0   11           1
 -4  STRESS      6    1
 -5  SXX         1    4    1    1
 -5  SYY         1    4    2    2
 -5  SZZ         1    4    3    3
 -5  SXY         1    4    1    2
 -5  SYZ         1    4    2    3
 -5  SZX         1    4    3    1
 -1         1-1.31879E+04-2.22585E-12 1.74807E-12 1.24204E-13-1.02706E-13-2.61985E-13
 -1         2-1.31879E+04 2.57400E-12 1.29905E-12 1.03366E-12 2.02734E-13 5.92487E-14
 -1         3-1.31879E+04-4.24996E-13-1.31497E-13-4.33410E-12 3.43368E-14-2.49127E-12
 -1         4-1.31879E+04-8.01860E-13 3.59218E-13 2.41588E-12-1.01309E-13-3.16201E-12
 -1         5-1.31879E+04 2.69453E-13 1.18516E-12 4.20405E-13-5.43342E-13 3.41237E-13
 -1         6-1.31879E+04 9.18959E-13-2.96305E-14-1.50666E-13-7.99574E-13-1.31586E-12
 -1         7-1.31879E+04 2.36563E-13-2.00455E-13 2.17348E-13 1.62311E-13 3.67674E-13
 -1         8-1.31879E+04 4.82392E-12 6.25441E-12 2.04589E-12 3.20469E-13-1.71603E-12
 -1         9-1.31879E+04-3.28714E-13 1.32312E-12 3.72581E-13-5.59439E-13-2.04941E-13
 -1        10-1.31879E+04 2.04394E-12 7.84263E-13-4.65832E-13-9.01051E-13-5.34485E-13
 -1        11-1.31879E+04 3.45034E-12 2.84574E-12 6.35257E-13-5.70514E-13-3.16043E-12
 -1        12-1.31879E+04-9.15750E-13 2.19062E-12 1.55730E-13 1.34141E-12-3.65444E-12
 -1        13-1.31879E+04-7.27755E-12-6.24795E-12 1.17441E-12 7.77893E-13 7.92995E-13
 -1        14-1.31879E+04 4.00449E-12 1.56849E-12 4.97810E-13 2.61603E-13-2.76909E-12
 -1        15-1.31879E+04 7.39142E-12 1.62773E-12-6.91171E-13 1.07223E-12-4.38046E-13
 -1        16-1.31879E+04 1.42395E-12 1.06474E-12-2.93408E-13 3.67782E-14 4.51410E-12
 -1        17-1.31879E+04-1.43695E-12 1.06482E-12-4.49342E-13 6.40892E-13 1.35580E-14
 -1        18-1.31879E+04-4.42299E-12-1.13701E-12-2.98547E-12 1.13407E-14 1.35463E-12
 -1        19-1.31879E+04-2.66381E-12-3.22026E-12-1.18148E-13 3.43829E-13-8.61868E-13
 -1        20-1.31879E+04 6.55904E-12 4.54801E-12-2.97186E-13-1.49856E-12-5.23369E-12
 -1        21-1.31879E+04-3.55543E-12-4.11190E-12 1.05567E-13-8.12715E-14 8.80449E-14
 -1        22-1.31879E+04-1.95732E-12-1.85871E-12 5.29379E-13-6.80315E-13-2.00234E-12
 -1        23-1.31879E+04-1.30783E-12-5.26843E-13-2.00117E-12 9.49154E-13-1.67208E-12
 -1        24-1.31879E+04-1.29258E-12-1.13703E-12 7.25843E-13-2.83345E-13 9.86063E-13
 -1        25-1.31879E+04-1.32308E-12-2.92674E-12-3.61130E-14-3.41591E-13-2.69271E-13
 -1        26-1.31879E+04-1.01433E-12-2.38788E-12 5.61185E-13 1.45444E-13-1.67018E-12
 -1        27-1.31879E+04-8.82851E-13-4.81931E-13-2.13530E-12-3.80779E-13-3.37360E-13
 -1        28-1.31879E+04-8.32404E-13 1.65175E-12 1.13878E-12 2.27296E-13 1.67749E-12
 -1        29-1.31879E+04 1.32777E-12-8.14737E-13 6.07927E-13 9.10468E-13-3.83822E-13
 -1        30-1.31879E+04-5.56454E-13-1.83138E-12-2.13561E-12 8.46931E-13-1.01245E-12
 -1        31-1.31879E+04 6.52696E-13-2.36385E-12-1.74840E-12-9.26478E-13-5.65654E-13
 -1        32-1.31879E+04-5.03729E-13 4.23684E-12 4.97755E-13 1.83555E-12 1.16712E-12
 -3
    1PSTEP                        33          11           1          
  100CL  111 5.50000E-01          32                     0   11           1
 -4  TOSTRAIN    6    1
 -5  EXX         1    4    1    1
 -5  EYY         1    4    2    2
 -5  EZZ         1    4    3    3
 -5  EXY         1    4    1    2
 -5  EYZ         1    4    2    3
 -5  EZX         1    4    3    1
 -1         1-7.06416E-02 2.11925E-02 2.11925E-02 7.76040E-19-5.89176E-19-1.84303E-18
 -1         2-7.06416E-02 2.11925E-02 2.11925E-02 6.52352E-18 1.16299E-18 1.97709E-19
 -1         3-7.06416E-02 2.11925E-02 2.11925E-02-2.73816E-17 1.96974E-19-1.58379E-17
 -1         4-7.06416E-02 2.11925E-02 2.11925E-02 1.53018E-17-5.81160E-19-2.00032E-17
 -1         5-7.06416E-02 2.11925E-02 2.11925E-02 3.09401E-18-3.11689E-18 2.30135E-18
 -1         6-7.06416E-02 2.11925E-02 2.11925E-02-9.66711E-19-4.58676E-18-8.23820E-18
 -1         7-7.06416E-02 2.11925E-02 2.11925E-02 1.69322E-18 9.31097E-19 2.33445E-18
 -1         8-7.06416E-02 2.11925E-02 2.11925E-02 1.40356E-17 1.83837E-18-1.08368E-17
 -1         9-7.06416E-02 2.11925E-02 2.11925E-02 2.86734E-18-3.20923E-18-1.16886E-18
 -1        10-7.06416E-02 2.11925E-02 2.11925E-02-2.69926E-18-5.16889E-18-3.32975E-18
 -1        11-7.06416E-02 2.11925E-02 2.11925E-02 3.96069E-18-3.27276E-18-2.00263E-17
 -1        12-7.06416E-02 2.11925E-02 2.11925E-02 8.98230E-19 7.69499E-18-2.31702E-17
 -1        13-7.06416E-02 2.11925E-02 2.11925E-02 9.11393E-18 4.46239E-18 4.97297E-18
 -1        14-7.06416E-02 2.11925E-02 2.11925E-02 3.99336E-18 1.50069E-18-1.74367E-17
 -1        15-7.06416E-02 2.11925E-02 2.11925E-02-4.94657E-18 6.15087E-18-2.67489E-18
 -1        16-7.06416E-02 2.11925E-02 2.11925E-02-3.01352E-18 2.10978E-19 2.85493E-17
 -1        17-7.06416E-02 2.11925E-02 2.11925E-02-2.84729E-18 3.67648E-18 2.70986E-19
 -1        18-7.06416E-02 2.11925E-02 2.11925E-02-1.88449E-17 6.50561E-20 9.21227E-18
 -1        19-7.06416E-02 2.11925E-02 2.11925E-02-6.96753E-19 1.97238E-18-4.41390E-18
 -1        20-7.06416E-02 2.11925E-02 2.11925E-02-1.83406E-18-8.59649E-18-3.21277E-17
 -1        21-7.06416E-02 2.11925E-02 2.11925E-02 1.27041E-18-4.66215E-19 5.67179E-19
 -1        22-7.06416E-02 2.11925E-02 2.11925E-02 4.05850E-18-3.90263E-18-1.24653E-17
 -1        23-7.06416E-02 2.11925E-02 2.11925E-02-1.20025E-17 5.44483E-18-1.06168E-17
 -1        24-7.06416E-02 2.11925E-02 2.11925E-02 5.05638E-18-1.62541E-18 5.76525E-18
 -1        25-7.06416E-02 2.11925E-02 2.11925E-02 1.45824E-19-1.95954E-18-1.75386E-18
 -1        26-7.06416E-02 2.11925E-02 2.11925E-02 4.07896E-18 8.34340E-19-1.03144E-17
 -1        27-7.06416E-02 2.11925E-02 2.11925E-02-1.26711E-17-2.18434E-18-1.84819E-18
 -1        28-7.06416E-02 2.11925E-02 2.11925E-02 8.15674E-18 1.30389E-18 1.06351E-17
 -1        29-7.06416E-02 2.11925E-02 2.11925E-02 5.18912E-18 5.22290E-18-2.41542E-18
 -1        30-7.06416E-02 2.11925E-02 2.11925E-02-1.28971E-17 4.85843E-18-7.01118E-18
 -1        31-7.06416E-02 2.11925E-02 2.11925E-02-1.11128E-17-5.31475E-18-3.67264E-18
 -1        32-7.06416E-02 2.11925E-02 2.11925E-02 3.16687E-18 1.05296E-17 8.41639E-18
 -3
    1PSTEP                        34          12           1          
  100CL  112 6.00000E-01          32                     0   12           1
 -4  DISP        4    1
 -5  D1          1    2    1    0
 -5  D2          1    2    2    0
 -5  D3          1    2    3    0
 -5  ALL         1    2    0    0    1ALL
 -1         1 0.00000E+00 0.00000E+00 0.00000E+00
 -1         2-4.00000E+01 0.00000E+00 0.00000E+00
 -1         3-8.00000E+01 0.00000E+00 0.00000E+00
 -1         4-1.20000E+02 0.00000E+00 0.00000E+00
 -1         5 0.00000E+00 1.13903E+01 0.00000E+00
 -1         6-4.00000E+01 1.13903E+01 0.00000E+00
 -1         7-8.00000E+01 1.13903E+01 0.00000E+00
 -1         8-1.20000E+02 1.13903E+01 0.00000E+00
 -1         9 0.00000E+00 2.27805E+01 0.00000E+00
 -1        10-4.00000E+01 2.27805E+01 0.00000E+00
 -1        11-8.00000E+01 2.27805E+01 0.00000E+00
 -1        12-1.20000E+02 2.27805E+01 0.00000E+00
 -1        13 0.00000E+00 3.41708E+01 0.00000E+00
 -1        14-4.00000E+01 3.41708E+01 0.00000E+00
 -1        15-8.00000E+01 3.41708E+01 0.00000E+00
 -1        16-1.20000E+02 3.41708E+01 0.00000E+00
 -1        17 0.00000E+00 0.00000E+00 1.59464E+01
 -1        18-4.00000E+01 0.00000E+00 1.59464E+01
 -1        19-8.00000E+01 0.00000E+00 1.59464E+01
 -1        20-1.20000E+02 0.00000E+00 1.59464E+01
 -1        21 0.00000E+00 1.13903E+01 1.59464E+01
 -1        22-4.00000E+01 1.13903E+01 1.59464E+01
 -1        23-8.00000E+01 1.13903E+01 1.59464E+01
 -1        24-1.20000E+02 1.13903E+01 1.59464E+01
 -1        25 0.00000E+00 2.27805E+01 1.59464E+01
 -1        26-4.00000E+01 2.27805E+01 1.59464E+01
 -1        27-8.00000E+01 2.27805E+01 1.59464E+01
 -1        28-1.20000E+02 2.27805E+01 1.59464E+01
 -1        29 0.00000E+00 3.41708E+01 1.59464E+01
 -1        30-4.00000E+01 3.41708E+01 1.59464E+01
 -1        31-8.00000E+01 3.41708E+01 1.59464E+01
 -1        32-1.20000E+02 3.41708E+01 1.59464E+01
 -3
    1PSTEP                        35          12           1          
  100CL  112 6.00000E-01          32                     0   12           1
 -4  STRESS      6    1
 -5  SXX         1    4    1    1
 -5  SYY         1    4    2    2
 -5  SZZ         1    4    3    3
 -5  SXY         1    4    1    2
 -5  SYZ         1    4    2    3
 -5  SZX         1    4    3    1
 -1         1-1.41836E+04 1.32351E-13 2.51985E-12 5.92183E-14-1.20992E-13-2.90729E-13
 -1         2-1.41836E+04-1.14735E-13-4.94310E-13 1.15334E-12-6.80268E-14-6.83654E-13
 -1         3-1.41836E+04 2.58609E-12 3.35175E-12 4.13391E-13-6.66900E-14 5.68560E-13
 -1         4-1.41836E+04 2.10959E-12 2.73631E-12 3.79850E-12-3.37244E-13-4.75767E-12
 -1         5-1.41836E+04 2.47086E-13 5.84706E-13 3.52559E-13-2.83565E-14 2.36206E-13
 -1         6-1.41836E+04 2.87845E-12 1.48282E-12 1.28217E-12 2.29088E-13-9.28852E-13
 -1         7-1.41836E+04 6.47699E-13-1.53923E-14-1.35331E-12-1.41205E-13-9.67083E-13
 -1         8-1.41836E+04 4.94251E-13 2.61031E-12 6.10163E-13 8.73912E-13 3.94403E-13
 -1         9-1.41836E+04 1.86893E-12 9.22346E-13 7.10745E-13 7.54182E-13 2.83626E-13
 -1        10-1.41836E+04 1.10325E-12 2.47116E-13 4.21496E-13-7.07209E-13-2.23907E-12
 -1        11-1.41836E+04-8.35163E-13 2.10736E-13 1.89055E-12-3.81911E-13 8.51518E-13
 -1        12-1.41836E+04 1.18721E-12 1.27766E-12 6.67325E-13 4.41465E-13-1.05285E-12
 -1        13-1.41836E+04 1.89321E-12 2.33898E-12 2.35262E-14-3.70324E-12-3.08237E-13
 -1        14-1.41836E+04 6.99461E-13 2.33896E-12-2.39217E-12 8.17651E-13-4.93550E-13
 -1        15-1.41836E+04-8.07671E-13 6.61953E-14 3.40752E-12-1.80527E-12 3.81664E-13
 -1        16-1.41836E+04 2.70080E-12 5.91211E-13 3.01281E-12 2.61814E-12 5.44619E-12
 -1        17-1.41836E+04 2.01255E-12 2.91718E-12-2.34160E-13 2.62472E-14-3.72310E-14
 -1        18-1.41836E+04 3.62311E-12 1.84465E-12 1.89462E-13-9.05949E-14 1.22392E-12
 -1        19-1.41836E+04-9.22346E-13-2.71385E-13-3.81466E-12 5.97460E-13 2.88511E-12
 -1        20-1.41836E+04 1.94165E-12 3.65387E-12-2.42461E-12 6.66322E-13-8.41796E-12
 -1        21-1.41836E+04 6.44397E-13-1.24225E-12-3.12770E-13-1.12826E-13 9.89128E-14
 -1        22-1.41836E+04 1.65161E-12 1.63950E-12-7.80967E-14 2.38991E-13 1.73916E-13
 -1        23-1.41836E+04 2.21863E-12 2.51100E-12-5.79259E-13 8.93447E-13-6.89463E-13
 -1        24-1.41836E+04-6.75201E-13 1.32616E-12-1.99324E-12 1.42852E-13 1.43910E-13
 -1        25-1.41836E+04-1.98367E-12-1.10330E-12-2.98807E-13 5.89041E-13-2.58850E-13
 -1        26-1.41836E+04-5.67021E-13 2.89101E-13 7.31373E-14 3.96799E-13-3.10659E-13
 -1        27-1.41836E+04 1.24781E-12 4.24783E-13 1.99468E-13 2.30406E-14 8.01546E-13
 -1        28-1.41836E+04 7.89876E-13 3.10460E-12-1.25891E-12-1.18086E-13-1.95064E-12
 -1        29-1.41836E+04-6.75201E-13-1.71226E-12 7.42186E-13-1.11975E-12 5.64250E-13
 -1        30-1.41836E+04 5.84746E-13-1.98335E-17 1.39323E-12 5.73339E-13-1.74829E-12
 -1        31-1.41836E+04 1.30192E-12 3.57465E-12-1.67603E-12 8.32207E-14-2.32275E-12
 -1        32-1.41836E+04 2.70080E-12 1.32430E-13 4.14843E-13 3.14201E-13 5.43579E-12
 -3
    1PSTEP                        36          12           1          
  100CL  112 6.00000E-01          32                     0   12           1
 -4  TOSTRAIN    6    1
 -5  EXX         1    4    1    1
 -5  EYY         1    4    2    2
 -5  EZZ         1    4    3    3
 -5  EXY         1    4    1    2
 -5  EYZ         1    4    2    3
 -5  EZX         1    4    3    1
 -1         1-7.67969E-02 2.30391E-02 2.30391E-02 3.69268E-19-6.89080E-19-1.88592E-18
 -1         2-7.67969E-02 2.30391E-02 2.30391E-02 7.31700E-18-3.87429E-19-4.37079E-18
 -1         3-7.67969E-02 2.30391E-02 2.30391E-02 2.63486E-18-3.79815E-19 3.61695E-18
 -1         4-7.67969E-02 2.30391E-02 2.30391E-02 2.40502E-17-1.92069E-18-3.00497E-17
 -1         5-7.67969E-02 2.30391E-02 2.30391E-02 2.68995E-18-1.61497E-19 1.63133E-18
 -1         6-7.67969E-02 2.30391E-02 2.30391E-02 7.88711E-18 1.30471E-18-5.82580E-18
 -1         7-7.67969E-02 2.30391E-02 2.30391E-02-9.08252E-18-8.04193E-19-6.21238E-18
 -1         8-7.67969E-02 2.30391E-02 2.30391E-02 3.75478E-18 4.97714E-18 2.34390E-18
 -1         9-7.67969E-02 2.30391E-02 2.30391E-02 5.34239E-18 4.29525E-18 1.93318E-18
 -1        10-7.67969E-02 2.30391E-02 2.30391E-02 2.98148E-18-4.02773E-18-1.41213E-17
 -1        11-7.67969E-02 2.30391E-02 2.30391E-02 1.11177E-17-2.17508E-18 5.37055E-18
 -1        12-7.67969E-02 2.30391E-02 2.30391E-02 2.73730E-18 2.51425E-18-6.68106E-18
 -1        13-7.67969E-02 2.30391E-02 2.30391E-02-2.10892E-19-2.10908E-17-2.01511E-18
 -1        14-7.67969E-02 2.30391E-02 2.30391E-02-1.52549E-17 4.65672E-18-3.07578E-18
 -1        15-7.67969E-02 2.30391E-02 2.30391E-02 2.20389E-17-1.02814E-17 2.58850E-18
 -1        16-7.67969E-02 2.30391E-02 2.30391E-02 1.98618E-17 1.49110E-17 3.46647E-17
 -1        17-7.67969E-02 2.30391E-02 2.30391E-02-1.48107E-18 1.49484E-19-7.69777E-20
 -1        18-7.67969E-02 2.30391E-02 2.30391E-02 1.20619E-18-5.15959E-19 7.82864E-18
 -1        19-7.67969E-02 2.30391E-02 2.30391E-02-2.41467E-17 3.40268E-18 1.84719E-17
 -1        20-7.67969E-02 2.30391E-02 2.30391E-02-1.53514E-17 3.79486E-18-5.28886E-17
 -1        21-7.67969E-02 2.30391E-02 2.30391E-02-2.10296E-18-6.42571E-19 6.43557E-19
 -1        22-7.67969E-02 2.30391E-02 2.30391E-02-9.18308E-19 1.36111E-18 1.39402E-18
 -1        23-7.67969E-02 2.30391E-02 2.30391E-02-4.01819E-18 5.08839E-18-3.80920E-18
 -1        24-7.67969E-02 2.30391E-02 2.30391E-02-1.25964E-17 8.13576E-19 1.45497E-18
 -1        25-7.67969E-02 2.30391E-02 2.30391E-02-2.12813E-18 3.35473E-18-1.70591E-18
 -1        26-7.67969E-02 2.30391E-02 2.30391E-02-2.65564E-19 2.25987E-18-1.71602E-18
 -1        27-7.67969E-02 2.30391E-02 2.30391E-02 1.19802E-18 1.31222E-19 5.61085E-18
 -1        28-7.67969E-02 2.30391E-02 2.30391E-02-6.87958E-18-6.72526E-19-1.18476E-17
 -1        29-7.67969E-02 2.30391E-02 2.30391E-02 5.89016E-18-6.37723E-18 4.68416E-18
 -1        30-7.67969E-02 2.30391E-02 2.30391E-02 9.00756E-18 3.26530E-18-1.06334E-17
 -1        31-7.67969E-02 2.30391E-02 2.30391E-02-1.01495E-17 4.73962E-19-1.54767E-17
 -1        32-7.67969E-02 2.30391E-02 2.30391E-02 4.36935E-18 1.78945E-18 3.31161E-17
 -3
    1PSTEP                        37          13           1          
  100CL  113 6.50000E-01          32                     0   13           1
 -4  DISP        4    1
 -5  D1          1    2    1    0
 -5  D2          1    2    2    0
 -5  D3          1    2    3    0
 -5  ALL         1    2    0    0    1ALL
 -1         1 0.00000E+00 0.00000E+00 0.00000E+00
 -1         2-4.33333E+01 0.00000E+00 0.00000E+00
 -1         3-8.66667E+01 0.00000E+00 0.00000E+00
 -1         4-1.30000E+02 0.00000E+00 0.00000E+00
 -1         5 0.00000E+00 1.22857E+01 0.00000E+00
 -1         6-4.33333E+01 1.22857E+01 0.00000E+00
 -1         7-8.66667E+01 1.22857E+01 0.00000E+00
 -1         8-1.30000E+02 1.22857E+01 0.00000E+00
 -1         9 0.00000E+00 2.45715E+01 0.00000E+00
 -1        10-4.33333E+01 2.45715E+01 0.00000E+00
 -1        11-8.66667E+01 2.45715E+01 0.00000E+00
 -1        12-1.30000E+02 2.45715E+01 0.00000E+00
 -1        13 0.00000E+00 3.68572E+01 0.00000E+00
 -1        14-4.33333E+01 3.68572E+01 0.00000E+00
 -1        15-8.66667E+01 3.68572E+01 0.00000E+00
 -1        16-1.30000E+02 3.68572E+01 0.00000E+00
 -1        17 0.00000E+00 0.00000E+00 1.72000E+01
 -1        18-4.33333E+01 0.00000E+00 1.72000E+01
 -1        19-8.66667E+01 0.00000E+00 1.72000E+01
 -1        20-1.30000E+02 0.00000E+00 1.72000E+01
 -1        21 0.00000E+00 1.22857E+01 1.72000E+01
 -1        22-4.33333E+01 1.22857E+01 1.72000E+01
 -1        23-8.66667E+01 1.22857E+01 1.72000E+01
 -1        24-1.30000E+02 1.22857E+01 1.72000E+01
 -1        25 0.00000E+00 2.45715E+01 1.72000E+01
 -1        26-4.33333E+01 2.45715E+01 1.72000E+01
 -1        27-8.66667E+01 2.45715E+01 1.72000E+01
 -1        28-1.30000E+02 2.45715E+01 1.72000E+01
 -1        29 0.00000E+00 3.68572E+01 1.72000E+01
 -1        30-4.33333E+01 3.68572E+01 1.72000E+01
 -1        31-8.66667E+01 3.68572E+01 1.72000E+01
 -1        32-1.30000E+02 3.68572E+01 1.72000E+01
 -3
    1PSTEP                        38          13           1          
  100CL  113 6.50000E-01          32                     0   13           1
 -4  STRESS      6    1
 -5  SXX         1    4    1    1
 -5  SYY         1    4    2    2
 -5  SZZ         1    4    3    3
 -5  SXY         1    4    1    2
 -5  SYZ         1    4    2    3
 -5  SZX         1    4    3    1
 -1         1-1.51481E+04-2.22274E-12-2.40497E-12 2.43806E-13 5.19344E-14 9.43465E-14
 -1         2-1.51481E+04 1.31140E-12 1.67589E-12 2.19704E-12-4.38682E-15 1.64697E-12
 -1         3-1.51481E+04-4.06783E-13 2.19822E-12-1.08024E-12-8.72234E-14-5.22953E-13
 -1         4-1.51481E+04-2.27149E-12-5.44108E-12 5.45584E-13-1.48657E-13-6.68295E-12
 -1         5-1.51481E+04 3.48515E-12 3.23622E-12 4.05474E-13-8.98095E-13-1.20340E-13
 -1         6-1.51481E+04 2.59274E-12 2.48048E-12 5.37423E-13 1.59866E-13 1.22184E-12
 -1         7-1.51481E+04-3.48855E-12-2.29830E-12 1.61436E-12 1.38698E-13-1.45115E-13
 -1         8-1.51481E+04 1.57822E-12 1.69375E-12 6.69647E-13-3.86567E-13-8.32372E-13
 -1         9-1.51481E+04 3.32736E-12 3.41849E-12 1.88817E-13-3.73359E-13 3.54251E-13
 -1        10-1.51481E+04 4.59084E-12 2.86939E-12-7.56347E-13-6.57306E-13-8.86572E-13
 -1        11-1.51481E+04 6.67921E-13 1.92812E-12 2.34192E-12 9.69510E-13-3.32933E-12
 -1        12-1.51481E+04 1.08960E-13 7.89109E-13 7.86763E-13-6.64019E-13-7.16297E-13
 -1        13-1.51481E+04 4.87541E-14-1.17807E-12-6.00713E-14-1.48636E-12-5.25899E-13
 -1        14-1.51481E+04 1.19589E-12 2.30722E-12-5.83965E-13-2.84009E-13-1.50183E-13
 -1        15-1.51481E+04 5.23441E-12 3.12075E-12-7.19123E-13-2.23564E-13 3.18734E-13
 -1        16-1.51481E+04-1.42224E-12-2.13814E-12-3.53057E-13 5.71181E-13-2.69982E-13
 -1        17-1.51481E+04-3.28812E-13-2.79978E-13-9.64299E-14-3.20835E-13-1.62078E-13
 -1        18-1.51481E+04 6.80090E-13 4.97859E-13-5.30749E-13 5.37197E-13 6.97501E-13
 -1        19-1.51481E+04 3.87415E-12 3.80745E-12 1.13713E-12-5.36398E-14-1.77649E-12
 -1        20-1.51481E+04 3.76515E-12 4.44528E-12-9.26653E-13 4.97332E-14 9.15615E-13
 -1        21-1.51481E+04 2.66714E-13 5.64517E-13 2.46628E-13-1.00157E-12 1.20323E-12
 -1        22-1.51481E+04 3.16626E-12 2.99623E-12 7.66990E-13-5.29897E-13-4.46318E-13
 -1        23-1.51481E+04 3.40631E-12 2.45608E-12-9.97204E-13 5.82524E-13-2.22723E-13
 -1        24-1.51481E+04-4.00231E-13-1.06250E-12-1.15804E-13 1.50290E-13-1.38827E-12
 -1        25-1.51481E+04 8.47061E-12 4.91215E-12 1.03420E-12 1.40573E-13-5.14128E-13
 -1        26-1.51481E+04-1.54583E-12-1.44249E-12-1.59583E-13-7.83759E-13 2.25383E-13
 -1        27-1.51481E+04 3.35509E-12 1.59699E-12-2.03970E-12-7.82806E-13 1.00137E-12
 -1        28-1.51481E+04 1.00233E-12 5.21652E-12-2.02217E-13 7.70663E-13-7.62445E-13
 -1        29-1.51481E+04 3.43638E-12-7.77837E-13-3.09873E-14-4.19388E-13 5.11365E-13
 -1        30-1.51481E+04-6.67583E-14-1.85820E-12-1.98223E-12 1.73109E-12-1.31298E-12
 -1        31-1.51481E+04-4.07424E-12-4.34763E-12-1.06423E-12 1.07703E-12-4.49486E-12
 -1        32-1.51481E+04-4.57872E-12-4.26305E-12 1.43640E-12-6.93101E-13 6.82257E-12
 -3
    1PSTEP                        39          13           1          
  100CL  113 6.50000E-01          32                     0   13           1
 -4  TOSTRAIN    6    1
 -5  EXX         1    4    1    1
 -5  EYY         1    4    2    2
 -5  EZZ         1    4    3    3
 -5  EXY         1    4    1    2
 -5  EYZ         1    4    2    3
 -5  EZX         1    4    3    1
 -1         1-8.29078E-02 2.48723E-02 2.48723E-02 1.62886E-18 2.93636E-19 6.47507E-19
 -1         2-8.29078E-02 2.48723E-02 2.48723E-02 1.39822E-17-2.48029E-20 1.04645E-17
 -1         3-8.29078E-02 2.48723E-02 2.48723E-02-6.76640E-18-4.93159E-19-3.31698E-18
 -1         4-8.29078E-02 2.48723E-02 2.48723E-02 3.61845E-18-8.40503E-19-4.23752E-17
 -1         5-8.29078E-02 2.48723E-02 2.48723E-02 2.88703E-18-5.07780E-18-9.57577E-19
 -1         6-8.29078E-02 2.48723E-02 2.48723E-02 3.21436E-18 9.03879E-19 7.65334E-18
 -1         7-8.29078E-02 2.48723E-02 2.48723E-02 1.01958E-17 7.84195E-19-9.14444E-19
 -1         8-8.29078E-02 2.48723E-02 2.48723E-02 4.86439E-18-2.18564E-18-5.26921E-18
 -1         9-8.29078E-02 2.48723E-02 2.48723E-02 1.43627E-18-2.11096E-18 2.27295E-18
 -1        10-8.29078E-02 2.48723E-02 2.48723E-02-5.43192E-18-3.71639E-18-5.61603E-18
 -1        11-8.29078E-02 2.48723E-02 2.48723E-02 1.47756E-17 5.48158E-18-2.11233E-17
 -1        12-8.29078E-02 2.48723E-02 2.48723E-02 6.34186E-18-3.75434E-18-4.54481E-18
 -1        13-8.29078E-02 2.48723E-02 2.48723E-02-4.16819E-19-8.40381E-18-3.33556E-18
 -1        14-8.29078E-02 2.48723E-02 2.48723E-02-4.14211E-18-1.60578E-18-9.50916E-19
 -1        15-8.29078E-02 2.48723E-02 2.48723E-02-6.23035E-18-1.26402E-18 2.02323E-18
 -1        16-8.29078E-02 2.48723E-02 2.48723E-02-4.73707E-18 3.22944E-18-1.71238E-18
 -1        17-8.29078E-02 2.48723E-02 2.48723E-02-8.14470E-19-1.81399E-18-1.22190E-18
 -1        18-8.29078E-02 2.48723E-02 2.48723E-02-3.46938E-18 3.03730E-18 4.64473E-18
 -1        19-8.29078E-02 2.48723E-02 2.48723E-02 7.18956E-18-3.03278E-19-1.12618E-17
 -1        20-8.29078E-02 2.48723E-02 2.48723E-02-5.91973E-18 2.81190E-19 5.18334E-18
 -1        21-8.29078E-02 2.48723E-02 2.48723E-02 2.46884E-18-5.66285E-18 8.92683E-18
 -1        22-8.29078E-02 2.48723E-02 2.48723E-02 5.37462E-18-2.99602E-18-2.22862E-18
 -1        23-8.29078E-02 2.48723E-02 2.48723E-02-6.34990E-18 3.29357E-18-1.72257E-18
 -1        24-8.29078E-02 2.48723E-02 2.48723E-02-8.99859E-19 8.49735E-19-9.33423E-18
 -1        25-8.29078E-02 2.48723E-02 2.48723E-02 8.22264E-18 7.94795E-19-3.43728E-18
 -1        26-8.29078E-02 2.48723E-02 2.48723E-02-2.67771E-19-4.43135E-18 1.64840E-18
 -1        27-8.29078E-02 2.48723E-02 2.48723E-02-1.32109E-17-4.42596E-18 6.70091E-18
 -1        28-8.29078E-02 2.48723E-02 2.48723E-02-1.65613E-18 4.35731E-18-4.75074E-18
 -1        29-8.29078E-02 2.48723E-02 2.48723E-02-6.95123E-19-2.37120E-18 3.24338E-18
 -1        30-8.29078E-02 2.48723E-02 2.48723E-02-1.32142E-17 9.78753E-18-8.41284E-18
 -1        31-8.29078E-02 2.48723E-02 2.48723E-02-6.21798E-18 6.08950E-18-2.85942E-17
 -1        32-8.29078E-02 2.48723E-02 2.48723E-02 1.09594E-17-3.91877E-18 4.32727E-17
 -3
    1PSTEP                        40          14           1          
  100CL  114 7.00000E-01          32                     0   14           1
 -4  DISP        4    1
 -5  D1          1    2    1    0
 -5  D2          1    2    2    0
 -5  D3          1    2    3    0
 -5  ALL         1    2    0    0    1ALL
 -1         1 0.00000E+00 0.00000E+00 0.00000E+00
 -1         2-4.66667E+01 0.00000E+00 0.00000E+00
 -1         3-9.33333E+01 0.00000E+00 0.00000E+00
 -1         4-1.40000E+02 0.00000E+00 0.00000E+00
 -1         5 0.00000E+00 1.31731E+01 0.00000E+00
 -1         6-4.66667E+01 1.31731E+01 0.00000E+00
 -1         7-9.33333E+01 1.31731E+01 0.00000E+00
 -1         8-1.40000E+02 1.31731E+01 0.00000E+00
 -1         9 0.00000E+00 2.63463E+01 0.00000E+00
 -1        10-4.66667E+01 2.63463E+01 0.00000E+00
 -1        11-9.33333E+01 2.63463E+01 0.00000E+00
 -1        12-1.40000E+02 2.63463E+01 0.00000E+00
 -1        13 0.00000E+00 3.95194E+01 0.00000E+00
 -1        14-4.66667E+01 3.95194E+01 0.00000E+00
 -1        15-9.33333E+01 3.95194E+01 0.00000E+00
 -1        16-1.40000E+02 3.95194E+01 0.00000E+00
 -1        17 0.00000E+00 0.00000E+00 1.84424E+01
 -1        18-4.66667E+01 0.00000E+00 1.84424E+01
 -1        19-9.33333E+01 0.00000E+00 1.84424E+01
 -1        20-1.40000E+02 0.00000E+00 1.84424E+01
 -1        21 0.00000E+00 1.31731E+01 1.84424E+01
 -1        22-4.66667E+01 1.31731E+01 1.84424E+01
 -1        23-9.33333E+01 1.31731E+01 1.84424E+01
 -1        24-1.40000E+02 1.31731E+01 1.84424E+01
 -1        25 0.00000E+00 2.63463E+01 1.84424E+01
 -1        26-4.66667E+01 2.63463E+01 1.84424E+01
 -1        27-9.33333E+01 2.63463E+01 1.84424E+01
 -1        28-1.40000E+02 2.63463E+01 1.84424E+01
 -1        29 0.00000E+00 3.95194E+01 1.84424E+01
 -1        30-4.66667E+01 3.95194E+01 1.84424E+01
 -1        31-9.33333E+01 3.95194E+01 1.84424E+01
 -1        32-1.40000E+02 3.95194E+01 1.84424E+01
 -3
    1PSTEP                        41          14           1          
  100CL  114 7.00000E-01          32                     0   14           1
 -4  STRESS      6    1
 -5  SXX         1    4    1    1
 -5  SYY         1    4    2    2
 -5  SZZ         1    4    3    3
 -5  SXY         1    4    1    2
 -5  SYZ         1    4    2    3
 -5  SZX         1    4    3    1
 -1         1-1.60821E+04-1.50472E-12 2.05535E-12 1.96431E-13 9.94641E-14 1.33595E-13
 -1         2-1.60821E+04 9.60466E-13 1.05227E-12-4.54729E-13 8.42120E-14 2.57864E-12
 -1         3-1.60821E+04-1.20471E-12 1.44405E-12 5.61764E-12-1.36571E-13-1.41942E-13
 -1         4-1.60821E+04 1.45549E-12-4.74672E-12-5.10282E-13-1.98762E-14-1.02064E-11
 -1         5-1.60821E+04-2.19647E-12-3.72573E-12 1.71886E-13-7.10106E-13-3.46963E-14
 -1         6-1.60821E+04 4.45905E-12 4.76801E-12-6.09061E-14-5.56222E-13 2.38402E-12
 -1         7-1.60821E+04 2.96683E-13 9.48218E-13 2.23236E-12 6.41614E-14-7.64281E-13
 -1         8-1.60821E+04-4.26978E-12-3.17489E-12 3.18152E-12 4.60383E-13-3.11603E-13
 -1         9-1.60821E+04 6.60474E-13 1.98152E-12 9.43939E-14 1.13309E-13-1.47298E-13
 -1        10-1.60821E+04-5.25334E-14 1.14644E-12 2.28656E-13-6.82910E-13 1.45393E-12
 -1        11-1.60821E+04-1.82263E-12 5.75349E-13-1.64375E-12-5.56782E-14 1.33980E-12
 -1        12-1.60821E+04 2.09140E-12 9.78523E-13-3.31841E-13-1.61822E-13-7.95446E-13
 -1        13-1.60821E+04-7.25456E-12-2.97341E-12 1.32135E-12-2.36147E-12 7.37856E-14
 -1        14-1.60821E+04 4.12216E-12 2.98464E-12 5.87603E-13 5.74015E-13 1.67731E-12
 -1        15-1.60821E+04 1.12608E-12 1.30309E-12-2.28827E-12-5.28416E-13 5.09277E-12
 -1        16-1.60821E+04 3.81558E-12-1.24908E-12 3.93988E-12 1.93145E-12 4.83617E-12
 -1        17-1.60821E+04 6.88730E-12 5.93341E-12-3.95292E-13 1.08700E-12 1.15185E-13
 -1        18-1.60821E+04 9.29249E-13 1.13744E-12 1.50604E-12-9.48288E-14 1.35441E-12
 -1        19-1.60821E+04 7.88311E-13 1.81603E-12-6.47044E-12-2.84176E-13 2.12157E-12
 -1        20-1.60821E+04-1.95701E-12 1.10151E-12 4.27350E-12-7.99076E-13-4.24619E-12
 -1        21-1.60821E+04 5.90879E-12 6.31855E-12-7.54094E-13-3.35578E-13-8.26889E-13
 -1        22-1.60821E+04 4.80213E-13-9.48259E-13 1.05751E-12 3.67456E-14 1.18241E-12
 -1        23-1.60821E+04-2.01851E-12-2.07672E-12-5.26213E-12 7.43326E-14 2.61138E-13
 -1        24-1.60821E+04 1.14414E-12 1.57189E-12-1.69991E-12 2.97131E-13 1.34957E-12
 -1        25-1.60821E+04 7.81183E-12 7.62822E-12 1.88509E-14 4.90560E-13-2.22021E-13
 -1        26-1.60821E+04-1.10723E-12 1.97255E-12 3.23943E-13 8.89512E-13 2.26824E-12
 -1        27-1.60821E+04 4.31240E-12 1.84723E-12 5.49771E-13 2.08424E-13 6.19997E-13
 -1        28-1.60821E+04-1.40625E-12-2.86830E-12 2.23648E-12-1.72354E-14 9.81952E-14
 -1        29-1.60821E+04 1.53777E-11 1.23683E-11-1.83375E-12 3.98678E-12 1.87340E-13
 -1        30-1.60821E+04-4.70419E-12-2.19643E-12 8.99229E-13-2.29137E-12 8.15931E-13
 -1        31-1.60821E+04 7.57907E-12 9.85103E-13 1.76705E-12 3.27744E-12 1.65058E-12
 -1        32-1.60821E+04-1.25029E-11-1.06802E-11-3.33582E-12-2.82424E-14 1.54032E-12
 -3
    1PSTEP                        42          14           1          
  100CL  114 7.00000E-01          32                     0   14           1
 -4  TOSTRAIN    6    1
 -5  EXX         1    4    1    1
 -5  EYY         1    4    2    2
 -5  EZZ         1    4    3    3
 -5  EXY         1    4    1    2
 -5  EYZ         1    4    2    3
 -5  EZX         1    4    3    1
 -1         1-8.89742E-02 2.66923E-02 2.66923E-02 1.24453E-18 5.58262E-19 8.93949E-19
 -1         2-8.89742E-02 2.66923E-02 2.66923E-02-2.90399E-18 4.72657E-19 1.64287E-17
 -1         3-8.89742E-02 2.66923E-02 2.66923E-02 3.56838E-17-7.66530E-19-8.41729E-19
 -1         4-8.89742E-02 2.66923E-02 2.66923E-02-3.23252E-18-1.11559E-19-6.47718E-17
 -1         5-8.89742E-02 2.66923E-02 2.66923E-02 1.19640E-18-3.98561E-18-2.01233E-19
 -1         6-8.89742E-02 2.66923E-02 2.66923E-02-9.35823E-19-3.12190E-18 1.51662E-17
 -1         7-8.89742E-02 2.66923E-02 2.66923E-02 1.34662E-17 3.60119E-19-4.89465E-18
 -1         8-8.89742E-02 2.66923E-02 2.66923E-02 1.99815E-17 2.58399E-18-2.07637E-18
 -1         9-8.89742E-02 2.66923E-02 2.66923E-02 4.62239E-19 6.35971E-19-9.62290E-19
 -1        10-8.89742E-02 2.66923E-02 2.66923E-02 8.05624E-19-3.83297E-18 9.22895E-18
 -1        11-8.89742E-02 2.66923E-02 2.66923E-02-1.11624E-17-3.12505E-19 8.57200E-18
 -1        12-8.89742E-02 2.66923E-02 2.66923E-02-2.38900E-18-9.08256E-19-4.94397E-18
 -1        13-8.89742E-02 2.66923E-02 2.66923E-02 1.01967E-17-1.32542E-17 4.93245E-19
 -1        14-8.89742E-02 2.66923E-02 2.66923E-02 4.12089E-18 3.22177E-18 1.06735E-17
 -1        15-8.89742E-02 2.66923E-02 2.66923E-02-1.49750E-17-2.96584E-18 3.23826E-17
 -1        16-8.89742E-02 2.66923E-02 2.66923E-02 2.51860E-17 1.08407E-17 3.07688E-17
 -1        17-8.89742E-02 2.66923E-02 2.66923E-02-2.32911E-18 6.10098E-18 7.44064E-19
 -1        18-8.89742E-02 2.66923E-02 2.66923E-02 9.75417E-18-5.32245E-19 8.61758E-18
 -1        19-8.89742E-02 2.66923E-02 2.66923E-02-4.09267E-17-1.59499E-18 1.27983E-17
 -1        20-8.89742E-02 2.66923E-02 2.66923E-02 2.73309E-17-4.48497E-18-2.83531E-17
 -1        21-8.89742E-02 2.66923E-02 2.66923E-02-5.49638E-18-1.88350E-18-6.56796E-18
 -1        22-8.89742E-02 2.66923E-02 2.66923E-02 6.19488E-18 2.06242E-19 6.20129E-18
 -1        23-8.89742E-02 2.66923E-02 2.66923E-02-3.40030E-17 4.17206E-19 1.11484E-18
 -1        24-8.89742E-02 2.66923E-02 2.66923E-02-1.15969E-17 1.66771E-18 8.79410E-18
 -1        25-8.89742E-02 2.66923E-02 2.66923E-02 4.40976E-19 2.75337E-18-1.21600E-18
 -1        26-8.89742E-02 2.66923E-02 2.66923E-02 1.75852E-18 4.99256E-18 1.42740E-17
 -1        27-8.89742E-02 2.66923E-02 2.66923E-02 3.79902E-18 1.16982E-18 3.04735E-18
 -1        28-8.89742E-02 2.66923E-02 2.66923E-02 1.57422E-17-9.67374E-20-6.90370E-19
 -1        29-8.89742E-02 2.66923E-02 2.66923E-02-1.47518E-17 2.23766E-17 5.51851E-19
 -1        30-8.89742E-02 2.66923E-02 2.66923E-02 5.11372E-18-1.28608E-17 4.63849E-18
 -1        31-8.89742E-02 2.66923E-02 2.66923E-02 1.13440E-17 1.83953E-17 9.17279E-18
 -1        32-8.89742E-02 2.66923E-02 2.66923E-02-2.28623E-17-1.58516E-19 7.61077E-18
 -3
    1PSTEP                        43          15           1          
  100CL  115 7.50000E-01          32                     0   15           1
 -4  DISP        4    1
 -5  D1          1    2    1    0
 -5  D2          1    2    2    0
 -5  D3          1    2    3    0
 -5  ALL         1    2    0    0    1ALL
 -1         1 0.00000E+00 0.00000E+00 0.00000E+00
 -1         2-5.00000E+01 0.00000E+00 0.00000E+00
 -1         3-1.00000E+02 0.00000E+00 0.00000E+00
 -1         4-1.50000E+02 0.00000E+00 0.00000E+00
 -1         5 0.00000E+00 1.40525E+01 0.00000E+00
 -1         6-5.00000E+01 1.40525E+01 0.00000E+00
 -1         7-1.00000E+02 1.40525E+01 0.00000E+00
 -1         8-1.50000E+02 1.40525E+01 0.00000E+00
 -1         9 0.00000E+00 2.81051E+01 0.00000E+00
 -1        10-5.00000E+01 2.81051E+01 0.00000E+00
 -1        11-1.00000E+02 2.81051E+01 0.00000E+00
 -1        12-1.50000E+02 2.81051E+01 0.00000E+00
 -1        13 0.00000E+00 4.21576E+01 0.00000E+00
 -1        14-5.00000E+01 4.21576E+01 0.00000E+00
 -1        15-1.00000E+02 4.21576E+01 0.00000E+00
 -1        16-1.50000E+02 4.21576E+01 0.00000E+00
 -1        17 0.00000E+00 0.00000E+00 1.96735E+01
 -1        18-5.00000E+01 0.00000E+00 1.96735E+01
 -1        19-1.00000E+02 0.00000E+00 1.96735E+01
 -1        20-1.50000E+02 0.00000E+00 1.96735E+01
 -1        21 0.00000E+00 1.40525E+01 1.96735E+01
 -1        22-5.00000E+01 1.40525E+01 1.96735E+01
 -1        23-1.00000E+02 1.40525E+01 1.96735E+01
 -1        24-1.50000E+02 1.40525E+01 1.96735E+01
 -1        25 0.00000E+00 2.81051E+01 1.96735E+01
 -1        26-5.00000E+01 2.81051E+01 1.96735E+01
 -1        27-1.00000E+02 2.81051E+01 1.96735E+01
 -1        28-1.50000E+02 2.81051E+01 1.96735E+01
 -1        29 0.00000E+00 4.21576E+01 1.96735E+01
 -1        30-5.00000E+01 4.21576E+01 1.96735E+01
 -1        31-1.00000E+02 4.21576E+01 1.96735E+01
 -1        32-1.50000E+02 4.21576E+01 1.96735E+01
 -3
    1PSTEP                        44          15           1          
  100CL  115 7.50000E-01          32                     0   15           1
 -4  STRESS      6    1
 -5  SXX         1    4    1    1
 -5  SYY         1    4    2    2
 -5  SZZ         1    4    3    3
 -5  SXY         1    4    1    2
 -5  SYZ         1    4    2    3
 -5  SZX         1    4    3    1
 -1         1-1.69861E+04-4.22709E-12-3.53688E-12 3.67400E-13-5.60995E-14 2.48508E-13
 -1         2-1.69861E+04 1.92857E-12-1.17264E-13 3.20354E-14-2.38301E-13-2.81463E-13
 -1         3-1.69861E+04-3.24799E-12-3.38336E-12 6.74240E-13-5.42541E-14-3.18470E-12
 -1         4-1.69861E+04-4.78188E-12 3.63600E-12-4.71584E-13 2.24839E-13-7.56343E-14
 -1         5-1.69861E+04-2.52635E-12-7.82691E-13 4.84637E-13-9.81950E-16-2.13415E-13
 -1         6-1.69861E+04 1.00147E-12 4.62357E-13-5.74869E-13-6.13568E-14 1.14410E-14
 -1         7-1.69861E+04 1.24169E-12 2.31086E-12 1.13716E-12-3.36371E-14 2.63218E-12
 -1         8-1.69861E+04-1.20213E-12-1.17264E-13 1.91171E-14 8.13310E-13-2.66042E-12
 -1         9-1.69861E+04-1.47294E-12-3.69922E-13 1.53029E-13 9.92095E-13 1.43562E-14
 -1        10-1.69861E+04 9.48542E-13 1.41995E-12-5.14232E-13-3.21958E-13 1.33149E-12
 -1        11-1.69861E+04 6.43719E-14 2.98860E-13 1.97367E-12 7.09669E-14-8.62383E-13
 -1        12-1.69861E+04 2.88469E-12-1.76844E-12 5.91153E-13-1.16893E-12 7.18096E-13
 -1        13-1.69861E+04 1.38037E-12 2.07058E-12 8.98023E-14-3.32427E-12-8.69139E-15
 -1        14-1.69861E+04 5.15174E-12 2.61876E-12-4.52653E-13 1.16295E-13-8.91233E-13
 -1        15-1.69861E+04 7.87635E-12 8.95458E-12 1.83899E-13-1.20258E-13 8.75201E-12
 -1        16-1.69861E+04 6.70395E-12 4.17757E-12-1.72455E-13 1.81082E-12 6.04903E-13
 -1        17-1.69861E+04-7.89361E-13-9.74291E-13-5.26281E-13 3.59735E-13 5.02548E-13
 -1        18-1.69861E+04-8.99935E-13 1.07822E-12-2.92105E-13 4.94214E-13-6.29018E-13
 -1        19-1.69861E+04 8.07470E-13 6.72076E-13 1.52216E-12 8.97698E-13-5.11208E-13
 -1        20-1.69861E+04 5.25094E-12 3.63604E-12-5.47097E-13-1.94302E-12-3.16783E-12
 -1        21-1.69861E+04-1.47955E-12-2.97057E-12-7.31042E-13 5.23905E-13-4.21272E-14
 -1        22-1.69861E+04 2.03677E-12 1.38041E-12 8.66397E-13-6.56453E-13 3.14685E-13
 -1        23-1.69861E+04 7.02605E-13 3.12740E-12-2.60886E-12 1.34461E-12-4.67087E-13
 -1        24-1.69861E+04 2.09540E-12-1.39856E-12 1.15285E-12-3.37718E-14-3.65603E-12
 -1        25-1.69861E+04 3.51206E-12 3.53684E-12-4.08953E-13 5.59402E-13-3.10077E-15
 -1        26-1.69861E+04-4.09507E-12-4.17847E-12 1.39567E-12-6.42588E-14 8.79261E-13
 -1        27-1.69861E+04 1.59583E-12-1.97370E-13-2.97429E-12 3.88546E-13-1.47148E-13
 -1        28-1.69861E+04-3.82756E-12 4.73827E-13-1.12674E-12-8.89682E-13-4.29536E-12
 -1        29-1.69861E+04 1.26945E-11 7.72763E-12-2.21228E-13 9.47770E-13-4.59751E-13
 -1        30-1.69861E+04 7.54270E-12 7.19758E-12-2.98011E-13-4.61925E-13-9.22851E-13
 -1        31-1.69861E+04-3.26610E-12 4.37588E-13 1.17780E-12 1.86791E-12 3.34290E-12
 -1        32-1.69861E+04-8.45422E-12-1.38405E-11 3.48332E-12-2.56885E-13 8.24411E-12
 -3
    1PSTEP                        45          15           1          
  100CL  115 7.50000E-01          32                     0   15           1
 -4  TOSTRAIN    6    1
 -5  EXX         1    4    1    1
 -5  EYY         1    4    2    2
 -5  EZZ         1    4    3    3
 -5  EXY         1    4    1    2
 -5  EYZ         1    4    2    3
 -5  EZX         1    4    3    1
 -1         1-9.49962E-02 2.84989E-02 2.84989E-02 2.57410E-18-3.12555E-19 1.76208E-18
 -1         2-9.49962E-02 2.84989E-02 2.84989E-02 2.03644E-19-1.32768E-18-1.67310E-18
 -1         3-9.49962E-02 2.84989E-02 2.84989E-02 4.14524E-18-3.02273E-19-2.02880E-17
 -1         4-9.49962E-02 2.84989E-02 2.84989E-02-3.05696E-18 1.25267E-18-5.75595E-19
 -1         5-9.49962E-02 2.84989E-02 2.84989E-02 3.52446E-18-5.47086E-21-1.38245E-18
 -1         6-9.49962E-02 2.84989E-02 2.84989E-02-3.69733E-18-3.41845E-19-3.61948E-20
 -1         7-9.49962E-02 2.84989E-02 2.84989E-02 7.04146E-18-1.87407E-19 1.67517E-17
 -1         8-9.49962E-02 2.84989E-02 2.84989E-02 2.47010E-19 4.53130E-18-1.67397E-17
 -1         9-9.49962E-02 2.84989E-02 2.84989E-02 9.21853E-19 5.52739E-18 3.90301E-20
 -1        10-9.49962E-02 2.84989E-02 2.84989E-02-3.26072E-18-1.79377E-18 8.33819E-18
 -1        11-9.49962E-02 2.84989E-02 2.84989E-02 1.31706E-17 3.95387E-19-5.50205E-18
 -1        12-9.49962E-02 2.84989E-02 2.84989E-02 4.90451E-18-6.51261E-18 4.76315E-18
 -1        13-9.49962E-02 2.84989E-02 2.84989E-02 5.71543E-19-1.85209E-17 1.79118E-19
 -1        14-9.49962E-02 2.84989E-02 2.84989E-02-2.88089E-18 6.47929E-19-5.43406E-18
 -1        15-9.49962E-02 2.84989E-02 2.84989E-02 1.06528E-18-6.70010E-19 5.58447E-17
 -1        16-9.49962E-02 2.84989E-02 2.84989E-02-1.30785E-18 1.00888E-17 3.89361E-18
 -1        17-9.49962E-02 2.84989E-02 2.84989E-02-3.58018E-18 2.00424E-18 3.87193E-18
 -1        18-9.49962E-02 2.84989E-02 2.84989E-02-1.84606E-18 2.75348E-18-3.77732E-18
 -1        19-9.49962E-02 2.84989E-02 2.84989E-02 9.91375E-18 5.00146E-18-2.26239E-18
 -1        20-9.49962E-02 2.84989E-02 2.84989E-02-3.28662E-18-1.08254E-17-1.79578E-17
 -1        21-9.49962E-02 2.84989E-02 2.84989E-02-5.08316E-18 2.91890E-18-3.58351E-19
 -1        22-9.49962E-02 2.84989E-02 2.84989E-02 5.00728E-18-3.65738E-18 2.64181E-18
 -1        23-9.49962E-02 2.84989E-02 2.84989E-02-1.68342E-17 7.49139E-18-2.93718E-18
 -1        24-9.49962E-02 2.84989E-02 2.84989E-02 7.45998E-18-1.88157E-19-2.45657E-17
 -1        25-9.49962E-02 2.84989E-02 2.84989E-02-2.58881E-18 3.11667E-18 9.74821E-20
 -1        26-9.49962E-02 2.84989E-02 2.84989E-02 8.92782E-18-3.58013E-19 6.33899E-18
 -1        27-9.49962E-02 2.84989E-02 2.84989E-02-1.91785E-17 2.16475E-18-9.10230E-19
 -1        28-9.49962E-02 2.84989E-02 2.84989E-02-7.74485E-18-4.95680E-18-2.86538E-17
 -1        29-9.49962E-02 2.84989E-02 2.84989E-02-1.40800E-18 5.28043E-18-4.38422E-18
 -1        30-9.49962E-02 2.84989E-02 2.84989E-02-1.89668E-18-2.57358E-18-6.51579E-18
 -1        31-9.49962E-02 2.84989E-02 2.84989E-02 9.59302E-18 1.04069E-17 1.88803E-17
 -1        32-9.49962E-02 2.84989E-02 2.84989E-02 2.63634E-17-1.43122E-18 4.75049E-17
 -3
    1PSTEP                        46          16           1          
  100CL  116 8.00000E-01          32                     0   16           1
 -4  DISP        4    1
 -5  D1          1    2    1    0
 -5  D2          1    2    2    0
 -5  D3          1    2    3    0
 -5  ALL         1    2    0    0    1ALL
 -1         1 0.00000E+00 0.00000E+00 0.00000E+00
 -1         2-5.33333E+01 0.00000E+00 0.00000E+00
 -1         3-1.06667E+02 0.00000E+00 0.00000E+00
 -1         4-1.60000E+02 0.00000E+00 0.00000E+00
 -1         5 0.00000E+00 1.49239E+01 0.00000E+00
 -1         6-5.33333E+01 1.49239E+01 0.00000E+00
 -1         7-1.06667E+02 1.49239E+01 0.00000E+00
 -1         8-1.60000E+02 1.49239E+01 0.00000E+00
 -1         9 0.00000E+00 2.98479E+01 0.00000E+00
 -1        10-5.33333E+01 2.98479E+01 0.00000E+00
 -1        11-1.06667E+02 2.98479E+01 0.00000E+00
 -1        12-1.60000E+02 2.98479E+01 0.00000E+00
 -1        13 0.00000E+00 4.47718E+01 0.00000E+00
 -1        14-5.33333E+01 4.47718E+01 0.00000E+00
 -1        15-1.06667E+02 4.47718E+01 0.00000E+00
 -1        16-1.60000E+02 4.47718E+01 0.00000E+00
 -1        17 0.00000E+00 0.00000E+00 2.08935E+01
 -1        18-5.33333E+01 0.00000E+00 2.08935E+01
 -1        19-1.06667E+02 0.00000E+00 2.08935E+01
 -1        20-1.60000E+02 0.00000E+00 2.08935E+01
 -1        21 0.00000E+00 1.49239E+01 2.08935E+01
 -1        22-5.33333E+01 1.49239E+01 2.08935E+01
 -1        23-1.06667E+02 1.49239E+01 2.08935E+01
 -1        24-1.60000E+02 1.49239E+01 2.08935E+01
 -1        25 0.00000E+00 2.98479E+01 2.08935E+01
 -1        26-5.33333E+01 2.98479E+01 2.08935E+01
 -1        27-1.06667E+02 2.98479E+01 2.08935E+01
 -1        28-1.60000E+02 2.98479E+01 2.08935E+01
 -1        29 0.00000E+00 4.47718E+01 2.08935E+01
 -1        30-5.33333E+01 4.47718E+01 2.08935E+01
 -1        31-1.06667E+02 4.47718E+01 2.08935E+01
 -1        32-1.60000E+02 4.47718E+01 2.08935E+01
 -3
    1PSTEP                        47          16           1          
  100CL  116 8.00000E-01          32                     0   16           1
 -4  STRESS      6    1
 -5  SXX         1    4    1    1
 -5  SYY         1    4    2    2
 -5  SZZ         1    4    3    3
 -5  SXY         1    4    1    2
 -5  SYZ         1    4    2    3
 -5  SZX         1    4    3    1
 -1         1-1.78606E+04-4.07228E-12 4.72476E-13 3.21631E-13 1.77387E-13 1.37931E-13
 -1         2-1.78606E+04-2.72767E-13-1.52710E-12 1.57856E-12-8.63751E-14 5.75157E-13
 -1         3-1.78606E+04-2.22245E-12-1.10451E-12 1.24363E-12-4.07716E-14 3.50348E-12
 -1         4-1.78606E+04-2.68157E-12-2.68157E-12-1.07200E-13-2.27099E-13-1.18107E-11
 -1         5-1.78606E+04-3.37693E-12-3.10416E-12 7.93831E-13-1.13376E-13 8.36794E-14
 -1         6-1.78606E+04-1.11400E-13 2.43377E-12-1.91172E-13-5.85626E-13 1.68008E-12
 -1         7-1.78606E+04 1.16119E-12 1.21112E-12 3.42177E-12-2.72102E-13 3.41875E-12
 -1         8-1.78606E+04-1.86311E-13-2.96774E-12 3.39976E-13 4.08446E-13 4.09608E-13
 -1         9-1.78606E+04-2.78142E-12-3.72662E-13-3.04270E-13-1.55689E-13-1.27308E-13
 -1        10-1.78606E+04 4.69949E-12 5.55619E-12-6.50437E-13 1.20881E-13 8.27100E-14
 -1        11-1.78606E+04 2.27242E-12 3.22230E-12-1.14199E-12 2.15950E-13 4.40376E-12
 -1        12-1.78606E+04-4.40833E-12-4.86745E-12 4.57305E-13-2.22534E-16-1.55473E-12
 -1        13-1.78606E+04-4.17214E-12-1.11795E-12 7.20520E-13-9.18066E-13-9.90230E-14
 -1        14-1.78606E+04 4.35849E-12 3.66309E-12 7.67140E-13-4.85952E-13 9.16725E-13
 -1        15-1.78606E+04-1.00443E-11-8.24442E-12-3.00374E-12 3.99153E-13 4.91604E-12
 -1        16-1.78606E+04 2.50874E-12 1.86327E-12 3.25222E-12 2.31094E-12 3.13599E-12
 -1        17-1.78606E+04-1.49057E-12-4.72476E-13-5.44006E-13-2.31291E-13-1.13599E-12
 -1        18-1.78606E+04-1.39071E-12 8.81667E-13 1.33036E-12 6.17259E-13 9.38973E-13
 -1        19-1.78606E+04 2.35888E-12 4.12225E-12-3.90310E-12 3.13139E-13-5.77971E-12
 -1        20-1.78606E+04-3.15405E-12-1.86319E-12 3.53336E-12-4.10233E-13 9.72758E-13
 -1        21-1.78606E+04 8.64971E-14 8.31740E-13-1.06173E-13 3.32498E-13 1.38248E-13
 -1        22-1.78606E+04 9.31758E-14-2.17924E-12 1.27594E-12-1.36697E-13 8.53822E-13
 -1        23-1.78606E+04-4.84062E-13-1.22934E-12-3.61161E-12 5.38785E-13-1.87414E-12
 -1        24-1.78606E+04-3.47678E-12-3.84944E-12 6.39277E-13 2.70428E-13 6.58108E-13
 -1        25-1.78606E+04-3.42685E-12 1.39071E-12-3.47037E-14-5.12538E-13 1.30345E-13
 -1        26-1.78606E+04-3.81778E-12-2.52024E-12 1.59818E-12-5.89499E-13 1.89961E-12
 -1        27-1.78606E+04-3.98581E-12-5.12202E-12-1.93282E-12-9.23824E-14-2.94861E-12
 -1        28-1.78606E+04-5.22676E-12-5.27668E-12 3.58877E-12 1.55749E-12 4.92937E-12
 -1        29-1.78606E+04 2.40880E-12 4.17214E-12 6.70822E-14-5.93287E-13 1.84757E-13
 -1        30-1.78606E+04 1.06802E-12 1.89976E-12-2.51554E-12 4.54315E-13-1.58264E-12
 -1        31-1.78606E+04 3.93594E-12 3.79952E-12-9.98985E-13 6.89824E-13 9.34659E-12
 -1        32-1.78606E+04-5.83554E-12-6.95348E-12-2.72522E-12-1.93202E-13 4.01605E-14
 -3
    1PSTEP                        48          16           1          
  100CL  116 8.00000E-01          32                     0   16           1
 -4  TOSTRAIN    6    1
 -5  EXX         1    4    1    1
 -5  EYY         1    4    2    2
 -5  EZZ         1    4    3    3
 -5  EXY         1    4    1    2
 -5  EYZ         1    4    2    3
 -5  EZX         1    4    3    1
 -1         1-1.00974E-01 3.02921E-02 3.02921E-02 2.23111E-18 9.80977E-19 1.18511E-18
 -1         2-1.00974E-01 3.02921E-02 3.02921E-02 1.00636E-17-4.77668E-19 3.81225E-18
 -1         3-1.00974E-01 3.02921E-02 3.02921E-02 7.94131E-18-2.25473E-19 2.24510E-17
 -1         4-1.00974E-01 3.02921E-02 3.02921E-02-4.76866E-19-1.25589E-18-7.50507E-17
 -1         5-1.00974E-01 3.02921E-02 3.02921E-02 6.52549E-18-6.26987E-19 4.38701E-19
 -1         6-1.00974E-01 3.02921E-02 3.02921E-02-1.25935E-18-3.23860E-18 1.06792E-17
 -1         7-1.00974E-01 3.02921E-02 3.02921E-02 2.10760E-17-1.50477E-18 2.18254E-17
 -1         8-1.00974E-01 3.02921E-02 3.02921E-02 2.23603E-18 2.25877E-18 2.63996E-18
 -1         9-1.00974E-01 3.02921E-02 3.02921E-02-2.70877E-18-8.60984E-19-9.16754E-19
 -1        10-1.00974E-01 3.02921E-02 3.02921E-02-4.41618E-18 6.68493E-19 4.06862E-19
 -1        11-1.00974E-01 3.02921E-02 3.02921E-02-7.80930E-18 1.19424E-18 2.80206E-17
 -1        12-1.00974E-01 3.02921E-02 3.02921E-02 1.62775E-18-1.23065E-21-9.88492E-18
 -1        13-1.00974E-01 3.02921E-02 3.02921E-02 6.66445E-18-5.07705E-18-6.31296E-19
 -1        14-1.00974E-01 3.02921E-02 3.02921E-02 3.83749E-18-2.68739E-18 5.68395E-18
 -1        15-1.00974E-01 3.02921E-02 3.02921E-02-2.02748E-17 2.20738E-18 3.12013E-17
 -1        16-1.00974E-01 3.02921E-02 3.02921E-02 2.26605E-17 1.27798E-17 2.00341E-17
 -1        17-1.00974E-01 3.02921E-02 3.02921E-02-3.53034E-18-1.27908E-18-9.60829E-18
 -1        18-1.00974E-01 3.02921E-02 3.02921E-02 8.48831E-18 3.41354E-18 5.18811E-18
 -1        19-1.00974E-01 3.02921E-02 3.02921E-02-2.48798E-17 1.73171E-18-3.75139E-17
 -1        20-1.00974E-01 3.02921E-02 3.02921E-02 2.24569E-17-2.26865E-18 4.09809E-18
 -1        21-1.00974E-01 3.02921E-02 3.02921E-02-5.34262E-19 1.83876E-18 4.74320E-19
 -1        22-1.00974E-01 3.02921E-02 3.02921E-02 7.67254E-18-7.55959E-19 5.13986E-18
 -1        23-1.00974E-01 3.02921E-02 3.02921E-02-2.31014E-17 2.97957E-18-1.35050E-17
 -1        24-1.00974E-01 3.02921E-02 3.02921E-02 4.98897E-18 1.49551E-18 1.28171E-18
 -1        25-1.00974E-01 3.02921E-02 3.02921E-02 1.40034E-18-2.83442E-18 9.61775E-19
 -1        26-1.00974E-01 3.02921E-02 3.02921E-02 1.11741E-17-3.26003E-18 1.17992E-17
 -1        27-1.00974E-01 3.02921E-02 3.02921E-02-1.20453E-17-5.10889E-19-2.05392E-17
 -1        28-1.00974E-01 3.02921E-02 3.02921E-02 2.30842E-17 8.61318E-18 2.86971E-17
 -1        29-1.00974E-01 3.02921E-02 3.02921E-02 8.91565E-19-3.28097E-18 1.17787E-18
 -1        30-1.00974E-01 3.02921E-02 3.02921E-02-1.60116E-17 2.51243E-18-1.09904E-17
 -1        31-1.00974E-01 3.02921E-02 3.02921E-02-7.54787E-18 3.81483E-18 5.79678E-17
 -1        32-1.00974E-01 3.02921E-02 3.02921E-02-1.93196E-17-1.06844E-18-1.18067E-18
 -3
    1PSTEP                        49          17           1          
  100CL  117 8.50000E-01          32                     0   17           1
 -4  DISP        4    1
 -5  D1          1    2    1    0
 -5  D2          1    2    2    0
 -5  D3          1    2    3    0
 -5  ALL         1    2    0    0    1ALL
 -1         1 0.00000E+00 0.00000E+00 0.00000E+00
 -1         2-5.66667E+01 0.00000E+00 0.00000E+00
 -1         3-1.13333E+02 0.00000E+00 0.00000E+00
 -1         4-1.70000E+02 0.00000E+00 0.00000E+00
 -1         5 0.00000E+00 1.57874E+01 0.00000E+00
 -1         6-5.66667E+01 1.57874E+01 0.00000E+00
 -1         7-1.13333E+02 1.57874E+01 0.00000E+00
 -1         8-1.70000E+02 1.57874E+01 0.00000E+00
 -1         9 0.00000E+00 3.15748E+01 0.00000E+00
 -1        10-5.66667E+01 3.15748E+01 0.00000E+00
 -1        11-1.13333E+02 3.15748E+01 0.00000E+00
 -1        12-1.70000E+02 3.15748E+01 0.00000E+00
 -1        13 0.00000E+00 4.73623E+01 0.00000E+00
 -1        14-5.66667E+01 4.73623E+01 0.00000E+00
 -1        15-1.13333E+02 4.73623E+01 0.00000E+00
 -1        16-1.70000E+02 4.73623E+01 0.00000E+00
 -1        17 0.00000E+00 0.00000E+00 2.21024E+01
 -1        18-5.66667E+01 0.00000E+00 2.21024E+01
 -1        19-1.13333E+02 0.00000E+00 2.21024E+01
 -1        20-1.70000E+02 0.00000E+00 2.21024E+01
 -1        21 0.00000E+00 1.57874E+01 2.21024E+01
 -1        22-5.66667E+01 1.57874E+01 2.21024E+01
 -1        23-1.13333E+02 1.57874E+01 2.21024E+01
 -1        24-1.70000E+02 1.57874E+01 2.21024E+01
 -1        25 0.00000E+00 3.15748E+01 2.21024E+01
 -1        26-5.66667E+01 3.15748E+01 2.21024E+01
 -1        27-1.13333E+02 3.15748E+01 2.21024E+01
 -1        28-1.70000E+02 3.15748E+01 2.21024E+01
 -1        29 0.00000E+00 4.73623E+01 2.21024E+01
 -1        30-5.66667E+01 4.73623E+01 2.21024E+01
 -1        31-1.13333E+02 4.73623E+01 2.21024E+01
 -1        32-1.70000E+02 4.73623E+01 2.21024E+01
 -3
    1PSTEP                        50          17           1          
  100CL  117 8.50000E-01          32                     0   17           1
 -4  STRESS      6    1
 -5  SXX         1    4    1    1
 -5  SYY         1    4    2    2
 -5  SZZ         1    4    3    3
 -5  SXY         1    4    1    2
 -5  SYZ         1    4    2    3
 -5  SZX         1    4    3    1
 -1         1-1.87061E+04 2.52744E-12 5.60468E-12 2.65067E-13-1.32062E-13-1.48370E-13
 -1         2-1.87061E+04 4.56547E-12 8.71473E-14-1.09861E-13-1.71044E-13-6.18315E-13
 -1         3-1.87061E+04 2.24515E-13 1.91400E-12-2.94663E-12 4.30985E-14-4.25153E-12
 -1         4-1.87061E+04-1.77659E-12-1.40117E-12 1.74291E-12-1.06515E-13-3.45518E-13
 -1         5-1.87061E+04-3.21461E-12-4.94094E-12 1.89533E-13-9.14509E-13 6.37173E-14
 -1         6-1.87061E+04 4.00554E-13 2.59620E-12 4.27310E-14-4.51149E-13-1.72584E-13
 -1         7-1.87061E+04-3.00031E-13-4.78510E-12-9.08904E-13-5.49378E-13 1.14563E-12
 -1         8-1.87061E+04-3.55318E-12 3.50296E-12 2.29971E-12-1.90594E-13-1.33749E-12
 -1         9-1.87061E+04 3.87843E-12 6.20470E-12 5.72508E-13 2.15142E-13 5.97781E-14
 -1        10-1.87061E+04-2.12924E-13-5.03437E-14 4.05164E-13 3.06407E-14-1.29565E-12
 -1        11-1.87061E+04-3.62872E-12-1.54537E-12 9.22413E-13-5.64237E-13 2.47196E-12
 -1        12-1.87061E+04 5.92980E-12 1.91404E-12-8.31497E-13-1.43417E-13 2.55004E-13
 -1        13-1.87061E+04 1.45885E-11 9.90887E-12 8.60823E-13-2.56116E-12 1.12773E-13
 -1        14-1.87061E+04 4.29065E-12 3.26487E-12-2.19592E-12-1.44596E-12-3.60815E-13
 -1        15-1.87061E+04 3.87835E-12 7.33101E-12-4.24200E-13 1.05921E-12 2.70931E-12
 -1        16-1.87061E+04 5.70536E-12 4.30419E-12-2.72647E-13 6.38298E-13 9.21712E-12
 -1        17-1.87061E+04-6.83171E-12-6.35560E-12-4.88186E-13 1.31747E-12-1.48370E-13
 -1        18-1.87061E+04-4.42815E-12-1.62577E-12-3.49076E-13 1.02608E-12 4.24632E-13
 -1        19-1.87061E+04-1.87711E-13 1.37450E-13 3.08096E-12 7.41317E-14-4.91979E-12
 -1        20-1.87061E+04 4.76110E-13 1.23358E-11-1.66023E-12-3.29925E-13-5.65347E-12
 -1        21-1.87061E+04 4.24031E-12 9.75402E-13-3.46910E-13-2.24699E-13 3.21207E-13
 -1        22-1.87061E+04 6.43594E-12 3.09560E-12-6.10245E-13 5.10572E-14-1.35482E-12
 -1        23-1.87061E+04 2.89623E-12 1.52018E-12-6.36266E-13 2.16856E-13 3.02765E-12
 -1        24-1.87061E+04 4.67962E-12 6.16793E-12-5.39151E-13-1.29441E-12-4.13627E-12
 -1        25-1.87061E+04-1.86374E-12-8.38034E-13 7.02588E-13 7.51802E-13-2.58859E-14
 -1        26-1.87061E+04-4.21032E-12-4.57903E-12 2.52067E-12-2.79675E-13-4.18114E-13
 -1        27-1.87061E+04 1.82010E-12-2.55271E-12-3.98635E-12 2.20646E-12 2.02497E-12
 -1        28-1.87061E+04-7.56902E-12-6.49301E-12 8.76286E-13-1.72464E-12-3.49360E-12
 -1        29-1.87061E+04 1.18598E-11 1.12094E-11-2.20817E-12 1.76395E-12-1.09748E-12
 -1        30-1.87061E+04-6.30534E-12-1.82698E-12 1.54233E-12-1.00362E-13 1.06687E-12
 -1        31-1.87061E+04-4.11644E-12 4.62529E-13-2.41216E-12 1.73127E-13 2.37699E-12
 -1        32-1.87061E+04 1.10351E-11-1.85028E-12 3.63749E-12 2.58325E-12 4.55061E-12
 -3
    1PSTEP                        51          17           1          
  100CL  117 8.50000E-01          32                     0   17           1
 -4  TOSTRAIN    6    1
 -5  EXX         1    4    1    1
 -5  EYY         1    4    2    2
 -5  EZZ         1    4    3    3
 -5  EXY         1    4    1    2
 -5  EYZ         1    4    2    3
 -5  EZX         1    4    3    1
 -1         1-1.06907E-01 3.20720E-02 3.20720E-02 1.69270E-18-7.24872E-19-9.47483E-19
 -1         2-1.06907E-01 3.20720E-02 3.20720E-02-5.84844E-19-9.38840E-19-3.97592E-18
 -1         3-1.06907E-01 3.20720E-02 3.20720E-02-1.87004E-17 2.36563E-19-2.70546E-17
 -1         4-1.06907E-01 3.20720E-02 3.20720E-02 1.11298E-17-5.84651E-19-1.96073E-18
 -1         5-1.06907E-01 3.20720E-02 3.20720E-02 1.47564E-18-5.01964E-18 4.06895E-19
 -1         6-1.06907E-01 3.20720E-02 3.20720E-02-1.32059E-19-2.47631E-18-1.10459E-18
 -1         7-1.06907E-01 3.20720E-02 3.20720E-02-6.32653E-18-3.01547E-18 7.28581E-18
 -1         8-1.06907E-01 3.20720E-02 3.20720E-02 1.47163E-17-1.04615E-18-8.59641E-18
 -1         9-1.06907E-01 3.20720E-02 3.20720E-02 4.78537E-18 1.18089E-18 3.83560E-19
 -1        10-1.06907E-01 3.20720E-02 3.20720E-02 3.35549E-18 1.68184E-19-8.24917E-18
 -1        11-1.06907E-01 3.20720E-02 3.20720E-02 5.31978E-18-3.09704E-18 1.58122E-17
 -1        12-1.06907E-01 3.20720E-02 3.20720E-02-6.85819E-18-7.87200E-19 1.63363E-18
 -1        13-1.06907E-01 3.20720E-02 3.20720E-02 6.84103E-18-1.40579E-17 7.33727E-19
 -1        14-1.06907E-01 3.20720E-02 3.20720E-02-1.42233E-17-7.93671E-18-2.31406E-18
 -1        15-1.06907E-01 3.20720E-02 3.20720E-02-3.41006E-18 5.81390E-18 1.72264E-17
 -1        16-1.06907E-01 3.20720E-02 3.20720E-02-1.39893E-18 3.50355E-18 5.87432E-17
 -1        17-1.06907E-01 3.20720E-02 3.20720E-02-3.11753E-18 7.23145E-18-9.47483E-19
 -1        18-1.06907E-01 3.20720E-02 3.20720E-02-2.25318E-18 5.63202E-18 2.72629E-18
 -1        19-1.06907E-01 3.20720E-02 3.20720E-02 1.96581E-17 4.06900E-19-3.07419E-17
 -1        20-1.06907E-01 3.20720E-02 3.20720E-02-1.05875E-17-1.81092E-18-3.47808E-17
 -1        21-1.06907E-01 3.20720E-02 3.20720E-02-2.51792E-18-1.23335E-18 2.05121E-18
 -1        22-1.06907E-01 3.20720E-02 3.20720E-02-4.29548E-18 2.80248E-19-9.03872E-18
 -1        23-1.06907E-01 3.20720E-02 3.20720E-02-4.69842E-18 1.19030E-18 1.94400E-17
 -1        24-1.06907E-01 3.20720E-02 3.20720E-02-4.21912E-18-7.10490E-18-2.54288E-17
 -1        25-1.06907E-01 3.20720E-02 3.20720E-02 6.58775E-18 4.12656E-18-2.59727E-19
 -1        26-1.06907E-01 3.20720E-02 3.20720E-02 1.71471E-17-1.53510E-18-3.06431E-18
 -1        27-1.06907E-01 3.20720E-02 3.20720E-02-2.59922E-17 1.21110E-17 1.25006E-17
 -1        28-1.06907E-01 3.20720E-02 3.20720E-02 4.52518E-18-9.46636E-18-2.24774E-17
 -1        29-1.06907E-01 3.20720E-02 3.20720E-02-1.79168E-17 9.68210E-18-7.71322E-18
 -1        30-1.06907E-01 3.20720E-02 3.20720E-02 8.17517E-18-5.50874E-19 6.95121E-18
 -1        31-1.06907E-01 3.20720E-02 3.20720E-02-1.34883E-17 9.50276E-19 1.34465E-17
 -1        32-1.06907E-01 3.20720E-02 3.20720E-02 2.65925E-17 1.41792E-17 2.46131E-17
 -3
    1PSTEP                        52          18           1          
  100CL  118 9.00000E-01          32                     0   18           1
 -4  DISP        4    1
 -5  D1          1    2    1    0
 -5  D2          1    2    2    0
 -5  D3          1    2    3    0
 -5  ALL         1    2    0    0    1ALL
 -1         1 0.00000E+00 0.00000E+00 0.00000E+00
 -1         2-6.00000E+01 0.00000E+00 0.00000E+00
 -1         3-1.20000E+02 0.00000E+00 0.00000E+00
 -1         4-1.80000E+02 0.00000E+00 0.00000E+00
 -1         5 0.00000E+00 1.66430E+01 0.00000E+00
 -1         6-6.00000E+01 1.66430E+01 0.00000E+00
 -1         7-1.20000E+02 1.66430E+01 0.00000E+00
 -1         8-1.80000E+02 1.66430E+01 0.00000E+00
 -1         9 0.00000E+00 3.32860E+01 0.00000E+00
 -1        10-6.00000E+01 3.32860E+01 0.00000E+00
 -1        11-1.20000E+02 3.32860E+01 0.00000E+00
 -1        12-1.80000E+02 3.32860E+01 0.00000E+00
 -1        13 0.00000E+00 4.99290E+01 0.00000E+00
 -1        14-6.00000E+01 4.99290E+01 0.00000E+00
 -1        15-1.20000E+02 4.99290E+01 0.00000E+00
 -1        16-1.80000E+02 4.99290E+01 0.00000E+00
 -1        17 0.00000E+00 0.00000E+00 2.33002E+01
 -1        18-6.00000E+01 0.00000E+00 2.33002E+01
 -1        19-1.20000E+02 0.00000E+00 2.33002E+01
 -1        20-1.80000E+02 0.00000E+00 2.33002E+01
 -1        21 0.00000E+00 1.66430E+01 2.33002E+01
 -1        22-6.00000E+01 1.66430E+01 2.33002E+01
 -1        23-1.20000E+02 1.66430E+01 2.33002E+01
 -1        24-1.80000E+02 1.66430E+01 2.33002E+01
 -1        25 0.00000E+00 3.32860E+01 2.33002E+01
 -1        26-6.00000E+01 3.32860E+01 2.33002E+01
 -1        27-1.20000E+02 3.32860E+01 2.33002E+01
 -1        28-1.80000E+02 3.32860E+01 2.33002E+01
 -1        29 0.00000E+00 4.99290E+01 2.33002E+01
 -1        30-6.00000E+01 4.99290E+01 2.33002E+01
 -1        31-1.20000E+02 4.99290E+01 2.33002E+01
 -1        32-1.80000E+02 4.99290E+01 2.33002E+01
 -3
    1PSTEP                        53          18           1          
  100CL  118 9.00000E-01          32                     0   18           1
 -4  STRESS      6    1
 -5  SXX         1    4    1    1
 -5  SYY         1    4    2    2
 -5  SZZ         1    4    3    3
 -5  SXY         1    4    1    2
 -5  SYZ         1    4    2    3
 -5  SZX         1    4    3    1
 -1         1-1.95233E+04-2.16840E-12-6.55250E-13 1.16950E-13 1.18957E-13 4.42935E-14
 -1         2-1.95233E+04 1.13484E-12-1.44887E-12-4.58613E-13-7.11759E-14-1.44664E-14
 -1         3-1.95233E+04 2.68512E-12-3.64666E-13-1.73663E-12-1.08254E-13-2.77235E-12
 -1         4-1.95233E+04-2.16840E-12-2.06695E-12-1.20307E-13-5.67452E-13 7.78196E-13
 -1         5-1.95233E+04 1.18553E-12 1.51315E-12 1.93118E-13-6.17197E-13 1.81626E-14
 -1         6-1.95233E+04 3.78308E-13 3.09084E-13-7.70512E-14-2.87043E-13-6.94125E-13
 -1         7-1.95233E+04-1.89134E-13-6.61967E-13 8.31272E-13-6.84573E-13-1.42339E-12
 -1         8-1.95233E+04 7.14673E-12 8.28161E-12 3.81378E-12 1.45833E-12-1.53977E-12
 -1         9-1.95233E+04-3.27542E-13-3.78226E-13 5.77565E-14-6.83072E-13-1.62630E-13
 -1        10-1.95233E+04 5.05443E-12 4.44311E-12-5.04429E-13-5.71003E-13-1.50065E-12
 -1        11-1.95233E+04-3.03126E-12 2.14496E-13-1.78912E-14-1.76638E-12 7.42266E-13
 -1        12-1.95233E+04-7.56576E-13 7.05892E-13 5.00530E-12-1.27251E-12 3.06657E-12
 -1        13-1.95233E+04-3.27600E-12-2.99910E-12-2.68004E-13 6.15065E-13 2.07647E-13
 -1        14-1.95233E+04-3.28960E-12-3.61723E-12-1.79630E-12 1.17686E-13-7.85889E-13
 -1        15-1.95233E+04-2.34389E-12 4.28992E-13-3.05777E-12 8.07799E-13-5.27752E-13
 -1        16-1.95233E+04 2.06703E-12-7.56534E-13-3.55281E-12 2.52072E-12 3.02951E-12
 -1        17-1.95233E+04 9.32067E-13 1.75532E-13-3.33301E-13 1.62381E-12 6.96554E-13
 -1        18-1.95233E+04-1.13488E-12 3.61727E-12 1.36094E-13 6.53944E-13 1.43206E-12
 -1        19-1.95233E+04 3.34033E-12 1.36114E-12-5.59649E-12 6.06466E-13 1.62374E-12
 -1        20-1.95233E+04 4.51225E-12 2.82357E-12 4.74932E-12-7.83386E-13-1.26750E-11
 -1        21-1.95233E+04-6.68809E-13-1.01367E-13 4.84009E-13 1.72126E-13-2.70088E-13
 -1        22-1.95233E+04-1.89154E-13-2.37605E-12-9.63179E-13-6.89067E-13-4.80141E-13
 -1        23-1.95233E+04 7.05892E-13-2.09235E-12-4.23365E-12-2.53421E-13 2.09229E-12
 -1        24-1.95233E+04-3.04983E-12-6.62997E-12-2.71222E-12 8.15619E-13-9.21224E-13
 -1        25-1.95233E+04-1.87786E-12-2.34393E-12 2.93881E-13-1.39255E-12 8.04968E-13
 -1        26-1.95233E+04-6.48470E-12-5.09826E-12-1.95646E-13-7.46538E-13 3.29615E-13
 -1        27-1.95233E+04-1.72083E-12-3.81318E-12-1.62347E-12-9.74376E-13-1.37604E-13
 -1        28-1.95233E+04-5.64718E-12-3.76932E-12 9.68726E-13 9.29708E-13-3.29588E-12
 -1        29-1.95233E+04 3.75580E-12 2.72228E-12 7.53941E-13-1.10349E-12-1.27427E-12
 -1        30-1.95233E+04 7.05933E-13 1.38491E-13 1.95726E-12 9.86508E-13-1.61724E-12
 -1        31-1.95233E+04 1.41183E-12-1.60092E-12-1.74237E-12 6.63796E-13 1.18173E-12
 -1        32-1.95233E+04-7.71417E-12-2.06703E-12 4.09251E-12 5.24894E-13 7.83890E-12
 -3
    1PSTEP                        54          18           1          
  100CL  118 9.00000E-01          32                     0   18           1
 -4  TOSTRAIN    6    1
 -5  EXX         1    4    1    1
 -5  EYY         1    4    2    2
 -5  EZZ         1    4    3    3
 -5  EXY         1    4    1    2
 -5  EYZ         1    4    2    3
 -5  EZX         1    4    3    1
 -1         1-1.12795E-01 3.38386E-02 3.38386E-02 6.66196E-19 6.48030E-19-4.09014E-20
 -1         2-1.12795E-01 3.38386E-02 3.38386E-02-3.13658E-18-3.87739E-19-3.53287E-19
 -1         3-1.12795E-01 3.38386E-02 3.38386E-02-1.11330E-17-5.89726E-19-1.78428E-17
 -1         4-1.12795E-01 3.38386E-02 3.38386E-02-4.94495E-19-3.09126E-18 4.95627E-18
 -1         5-1.12795E-01 3.38386E-02 3.38386E-02 2.27219E-18-3.36225E-18 2.39847E-19
 -1         6-1.12795E-01 3.38386E-02 3.38386E-02 9.65784E-19-1.56370E-18-4.41073E-18
 -1         7-1.12795E-01 3.38386E-02 3.38386E-02 4.92684E-18-3.72929E-18-9.00953E-18
 -1         8-1.12795E-01 3.38386E-02 3.38386E-02 2.17337E-17 7.94445E-18-9.59363E-18
 -1         9-1.12795E-01 3.38386E-02 3.38386E-02 7.70049E-19-3.72112E-18-1.18235E-18
 -1        10-1.12795E-01 3.38386E-02 3.38386E-02-3.27357E-18-3.11060E-18-9.71763E-18
 -1        11-1.12795E-01 3.38386E-02 3.38386E-02-1.88134E-20-9.62258E-18 4.57085E-18
 -1        12-1.12795E-01 3.38386E-02 3.38386E-02 3.27024E-17-6.93216E-18 1.93566E-17
 -1        13-1.12795E-01 3.38386E-02 3.38386E-02-2.80890E-18 3.35064E-18 1.65907E-18
 -1        14-1.12795E-01 3.38386E-02 3.38386E-02-1.22264E-17 6.41107E-19-4.72527E-18
 -1        15-1.12795E-01 3.38386E-02 3.38386E-02-1.98053E-17 4.40058E-18-3.24172E-18
 -1        16-1.12795E-01 3.38386E-02 3.38386E-02-2.28399E-17 1.37319E-17 1.93739E-17
 -1        17-1.12795E-01 3.38386E-02 3.38386E-02-1.91216E-18 8.84591E-18 6.24800E-18
 -1        18-1.12795E-01 3.38386E-02 3.38386E-02 1.13047E-18 3.56244E-18 9.24542E-18
 -1        19-1.12795E-01 3.38386E-02 3.38386E-02-3.56849E-17 3.30380E-18 1.01341E-17
 -1        20-1.12795E-01 3.38386E-02 3.38386E-02 3.03055E-17-4.26759E-18-7.99585E-17
 -1        21-1.12795E-01 3.38386E-02 3.38386E-02 3.81169E-18 9.37675E-19-2.11119E-18
 -1        22-1.12795E-01 3.38386E-02 3.38386E-02-6.16830E-18-3.75378E-18-3.74341E-18
 -1        23-1.12795E-01 3.38386E-02 3.38386E-02-2.67771E-17-1.38054E-18 1.15649E-17
 -1        24-1.12795E-01 3.38386E-02 3.38386E-02-1.60115E-17 4.44318E-18-8.56897E-18
 -1        25-1.12795E-01 3.38386E-02 3.38386E-02 3.21893E-18-7.58609E-18 6.88708E-18
 -1        26-1.12795E-01 3.38386E-02 3.38386E-02-1.41026E-18-4.06685E-18 2.48577E-18
 -1        27-1.12795E-01 3.38386E-02 3.38386E-02-1.05816E-17-5.30803E-18-1.57791E-18
 -1        28-1.12795E-01 3.38386E-02 3.38386E-02 7.45919E-18 5.06470E-18-2.14943E-17
 -1        29-1.12795E-01 3.38386E-02 3.38386E-02 7.84155E-18-6.01141E-18-1.10836E-17
 -1        30-1.12795E-01 3.38386E-02 3.38386E-02 1.35698E-17 5.37412E-18-1.13640E-17
 -1        31-1.12795E-01 3.38386E-02 3.38386E-02-1.02264E-17 3.61611E-18 8.12085E-18
 -1        32-1.12795E-01 3.38386E-02 3.38386E-02 2.89342E-17 2.85942E-18 5.03715E-17
 -3
    1PSTEP                        55          19           1          
  100CL  119 9.50000E-01          32                     0   19           1
 -4  DISP        4    1
 -5  D1          1    2    1    0
 -5  D2          1    2    2    0
 -5  D3          1    2    3    0
 -5  ALL         1    2    0    0    1ALL
 -1         1 0.00000E+00 0.00000E+00 0.00000E+00
 -1         2-6.33333E+01 0.00000E+00 0.00000E+00
 -1         3-1.26667E+02 0.00000E+00 0.00000E+00
 -1         4-1.90000E+02 0.00000E+00 0.00000E+00
 -1         5 0.00000E+00 1.74907E+01 0.00000E+00
 -1         6-6.33333E+01 1.74907E+01 0.00000E+00
 -1         7-1.26667E+02 1.74907E+01 0.00000E+00
 -1         8-1.90000E+02 1.74907E+01 0.00000E+00
 -1         9 0.00000E+00 3.49815E+01 0.00000E+00
 -1        10-6.33333E+01 3.49815E+01 0.00000E+00
 -1        11-1.26667E+02 3.49815E+01 0.00000E+00
 -1        12-1.90000E+02 3.49815E+01 0.00000E+00
 -1        13 0.00000E+00 5.24722E+01 0.00000E+00
 -1        14-6.33333E+01 5.24722E+01 0.00000E+00
 -1        15-1.26667E+02 5.24722E+01 0.00000E+00
 -1        16-1.90000E+02 5.24722E+01 0.00000E+00
 -1        17 0.00000E+00 0.00000E+00 2.44870E+01
 -1        18-6.33333E+01 0.00000E+00 2.44870E+01
 -1        19-1.26667E+02 0.00000E+00 2.44870E+01
 -1        20-1.90000E+02 0.00000E+00 2.44870E+01
 -1        21 0.00000E+00 1.74907E+01 2.44870E+01
 -1        22-6.33333E+01 1.74907E+01 2.44870E+01
 -1        23-1.26667E+02 1.74907E+01 2.44870E+01
 -1        24-1.90000E+02 1.74907E+01 2.44870E+01
 -1        25 0.00000E+00 3.49815E+01 2.44870E+01
 -1        26-6.33333E+01 3.49815E+01 2.44870E+01
 -1        27-1.26667E+02 3.49815E+01 2.44870E+01
 -1        28-1.90000E+02 3.49815E+01 2.44870E+01
 -1        29 0.00000E+00 5.24722E+01 2.44870E+01
 -1        30-6.33333E+01 5.24722E+01 2.44870E+01
 -1        31-1.26667E+02 5.24722E+01 2.44870E+01
 -1        32-1.90000E+02 5.24722E+01 2.44870E+01
 -3
    1PSTEP                        56          19           1          
  100CL  119 9.50000E-01          32                     0   19           1
 -4  STRESS      6    1
 -5  SXX         1    4    1    1
 -5  SYY         1    4    2    2
 -5  SZZ         1    4    3    3
 -5  SXY         1    4    1    2
 -5  SYZ         1    4    2    3
 -5  SZX         1    4    3    1
 -1         1-2.03125E+04-1.98067E-12-3.78439E-12-1.28872E-13 1.13419E-13-2.14850E-13
 -1         2-2.03125E+04 3.03570E-12 4.31875E-12 3.36516E-12 9.47521E-14 5.17436E-12
 -1         3-2.03125E+04-1.33417E-12-2.89619E-12-2.67985E-12 6.63798E-14 1.19210E-12
 -1         4-2.03125E+04-6.75906E-12-4.75098E-12 2.15773E-12-3.52288E-13-1.42084E-11
 -1         5-2.03125E+04-1.61314E-12 3.69591E-12-4.24190E-13-1.40169E-12 4.19581E-15
 -1         6-2.03125E+04 1.67608E-12 2.27964E-13 3.94313E-12-4.03908E-13 2.37681E-12
 -1         7-2.03125E+04-2.55353E-14-7.81034E-13-2.77280E-12 4.68701E-14 1.62008E-13
 -1         8-2.03125E+04 4.35616E-12-1.90535E-13 3.05555E-12-1.48799E-13-1.59464E-12
 -1         9-2.03125E+04-9.75364E-12-2.79014E-13 4.63653E-13 3.48371E-13-2.76076E-14
 -1        10-2.03125E+04-2.10831E-12 2.21043E-12-2.10233E-13-1.37208E-12-2.29452E-12
 -1        11-2.03125E+04-3.82858E-12-5.41617E-12 4.66388E-14-1.70111E-12 6.67690E-12
 -1        12-2.03125E+04 2.04366E-13 2.85895E-12 2.07054E-12-7.79022E-14-4.93891E-12
 -1        13-2.03125E+04-1.61042E-11-7.28984E-12 2.32755E-12 1.55292E-12 2.54562E-13
 -1        14-2.03125E+04 5.19324E-12 3.58010E-12-3.35481E-12 1.41744E-12 4.69426E-12
 -1        15-2.03125E+04-1.19458E-12 4.35620E-12 3.83043E-12 6.11428E-13-8.72311E-13
 -1        16-2.03125E+04-8.33108E-12-1.21154E-11 2.60436E-12 2.34106E-12 2.51308E-12
 -1        17-2.03125E+04 5.10481E-12 1.05160E-11 4.96697E-13 5.44814E-13-1.89435E-13
 -1        18-2.03125E+04-5.74140E-12-6.26206E-12-4.13574E-12 1.00563E-13 6.62690E-12
 -1        19-2.03125E+04-1.75269E-12-8.50787E-13 2.62121E-12 5.69500E-13-6.03680E-12
 -1        20-2.03125E+04 9.12088E-12 5.23444E-12-2.07721E-12-1.91222E-12-3.15842E-12
 -1        21-2.03125E+04-4.97896E-12-3.93760E-12 4.77065E-13-1.46842E-12-1.03814E-12
 -1        22-2.03125E+04-3.21949E-12-2.08283E-12-2.35252E-12 8.38683E-13 1.68537E-13
 -1        23-2.03125E+04 6.67062E-13-1.68289E-12 1.97361E-12 7.54148E-13 3.10851E-12
 -1        24-2.03125E+04-6.57840E-12-5.53699E-12-7.57114E-14-1.23432E-13-3.38409E-12
 -1        25-2.03125E+04 1.17618E-11 1.07203E-11-2.97271E-14 2.10941E-13 1.08162E-13
 -1        26-2.03125E+04 3.18214E-12 3.41008E-12 2.53200E-12-1.77102E-13-2.55435E-12
 -1        27-2.03125E+04 5.75323E-12 3.95632E-12-3.04781E-12-9.55505E-13 5.63160E-12
 -1        28-2.03125E+04 1.04145E-12-3.93751E-12 1.22177E-12 8.13349E-13-3.35214E-13
 -1        29-2.03125E+04 1.97117E-11 7.84779E-12-8.08834E-13 1.08434E-12-9.02674E-13
 -1        30-2.03125E+04-9.04240E-12-7.28980E-12 1.97392E-12-3.17309E-12 1.56520E-12
 -1        31-2.03125E+04-9.66525E-12-1.62573E-11-8.69610E-12-2.41599E-12-1.48974E-12
 -1        32-2.03125E+04-7.62309E-13-5.02999E-12 3.24769E-12 1.49305E-12 1.09042E-11
 -3
    1PSTEP                        57          19           1          
  100CL  119 9.50000E-01          32                     0   19           1
 -4  TOSTRAIN    6    1
 -5  EXX         1    4    1    1
 -5  EYY         1    4    2    2
 -5  EZZ         1    4    3    3
 -5  EXY         1    4    1    2
 -5  EYZ         1    4    2    3
 -5  EZX         1    4    3    1
 -1         1-1.18640E-01 3.55919E-02 3.55919E-02-7.47762E-19 6.13185E-19-1.73090E-18
 -1         2-1.18640E-01 3.55919E-02 3.55919E-02 2.15351E-17 5.12263E-19 3.29578E-17
 -1         3-1.18640E-01 3.55919E-02 3.55919E-02-1.72430E-17 3.58873E-19 7.44361E-18
 -1         4-1.18640E-01 3.55919E-02 3.55919E-02 1.38073E-17-1.90459E-18-9.13874E-17
 -1         5-1.18640E-01 3.55919E-02 3.55919E-02-3.69241E-18-7.57803E-18 2.53100E-19
 -1         6-1.18640E-01 3.55919E-02 3.55919E-02 2.51045E-17-2.18367E-18 1.54034E-17
 -1         7-1.18640E-01 3.55919E-02 3.55919E-02-1.70529E-17 2.53396E-19 1.17503E-18
 -1         8-1.18640E-01 3.55919E-02 3.55919E-02 2.03459E-17-8.04459E-19-1.00669E-17
 -1         9-1.18640E-01 3.55919E-02 3.55919E-02 4.51875E-18 1.88341E-18-2.81078E-19
 -1        10-1.18640E-01 3.55919E-02 3.55919E-02-1.00048E-19-7.41792E-18-1.47351E-17
 -1        11-1.18640E-01 3.55919E-02 3.55919E-02-3.81783E-19-9.19680E-18 4.28743E-17
 -1        12-1.18640E-01 3.55919E-02 3.55919E-02 1.09591E-17-4.21167E-19-3.14894E-17
 -1        13-1.18640E-01 3.55919E-02 3.55919E-02 2.18000E-17 8.39562E-18 1.69794E-18
 -1        14-1.18640E-01 3.55919E-02 3.55919E-02-1.82676E-17 7.66318E-18 3.00370E-17
 -1        15-1.18640E-01 3.55919E-02 3.55919E-02 2.49756E-17 3.30560E-18-5.75742E-18
 -1        16-1.18640E-01 3.55919E-02 3.55919E-02 1.79880E-17 1.26566E-17 1.59098E-17
 -1        17-1.18640E-01 3.55919E-02 3.55919E-02 3.14540E-18 2.94545E-18-1.50220E-18
 -1        18-1.18640E-01 3.55919E-02 3.55919E-02-2.63951E-17 5.43678E-19 4.15436E-17
 -1        19-1.18640E-01 3.55919E-02 3.55919E-02 1.69177E-17 3.07892E-18-3.81621E-17
 -1        20-1.18640E-01 3.55919E-02 3.55919E-02-1.33041E-17-1.03381E-17-1.76626E-17
 -1        21-1.18640E-01 3.55919E-02 3.55919E-02 4.18323E-18-7.93879E-18-9.66636E-18
 -1        22-1.18640E-01 3.55919E-02 3.55919E-02-1.44275E-17 4.53421E-18-5.32080E-19
 -1        23-1.18640E-01 3.55919E-02 3.55919E-02 1.28477E-17 4.07719E-18 1.90302E-17
 -1        24-1.18640E-01 3.55919E-02 3.55919E-02-2.43344E-19-6.67317E-19-2.32454E-17
 -1        25-1.18640E-01 3.55919E-02 3.55919E-02 1.70217E-19 1.14042E-18 1.32081E-18
 -1        26-1.18640E-01 3.55919E-02 3.55919E-02 1.84090E-17-9.57474E-19-1.77117E-17
 -1        27-1.18640E-01 3.55919E-02 3.55919E-02-1.66167E-17-5.16580E-18 3.43655E-17
 -1        28-1.18640E-01 3.55919E-02 3.55919E-02 9.63716E-18 4.39725E-18-2.26081E-18
 -1        29-1.18640E-01 3.55919E-02 3.55919E-02-7.50766E-18 5.86232E-18-7.59243E-18
 -1        30-1.18640E-01 3.55919E-02 3.55919E-02 1.27335E-17-1.71548E-17 7.50442E-18
 -1        31-1.18640E-01 3.55919E-02 3.55919E-02-5.33302E-17-1.30617E-17-1.24218E-17
 -1        32-1.18640E-01 3.55919E-02 3.55919E-02 2.30815E-17 8.07196E-18 6.73484E-17
 -3
    1PSTEP                        58          20           1          
  100CL  120 1.000000000          32                     0   20           1
 -4  DISP        4    1
 -5  D1          1    2    1    0
 -5  D2          1    2    2    0
 -5  D3          1    2    3    0
 -5  ALL         1    2    0    0    1ALL
 -1         1 0.00000E+00 0.00000E+00 0.00000E+00
 -1         2-6.66667E+01 0.00000E+00 0.00000E+00
 -1         3-1.33333E+02 0.00000E+00 0.00000E+00
 -1         4-2.00000E+02 0.00000E+00 0.00000E+00
 -1         5 0.00000E+00 1.83307E+01 0.00000E+00
 -1         6-6.66667E+01 1.83307E+01 0.00000E+00
 -1         7-1.33333E+02 1.83307E+01 0.00000E+00
 -1         8-2.00000E+02 1.83307E+01 0.00000E+00
 -1         9 0.00000E+00 3.66613E+01 0.00000E+00
 -1        10-6.66667E+01 3.66613E+01 0.00000E+00
 -1        11-1.33333E+02 3.66613E+01 0.00000E+00
 -1        12-2.00000E+02 3.66613E+01 0.00000E+00
 -1        13 0.00000E+00 5.49920E+01 0.00000E+00
 -1        14-6.66667E+01 5.49920E+01 0.00000E+00
 -1        15-1.33333E+02 5.49920E+01 0.00000E+00
 -1        16-2.00000E+02 5.49920E+01 0.00000E+00
 -1        17 0.00000E+00 0.00000E+00 2.56629E+01
 -1        18-6.66667E+01 0.00000E+00 2.56629E+01
 -1        19-1.33333E+02 0.00000E+00 2.56629E+01
 -1        20-2.00000E+02 0.00000E+00 2.56629E+01
 -1        21 0.00000E+00 1.83307E+01 2.56629E+01
 -1        22-6.66667E+01 1.83307E+01 2.56629E+01
 -1        23-1.33333E+02 1.83307E+01 2.56629E+01
 -1        24-2.00000E+02 1.83307E+01 2.56629E+01
 -1        25 0.00000E+00 3.66613E+01 2.56629E+01
 -1        26-6.66667E+01 3.66613E+01 2.56629E+01
 -1        27-1.33333E+02 3.66613E+01 2.56629E+01
 -1        28-2.00000E+02 3.66613E+01 2.56629E+01
 -1        29 0.00000E+00 5.49920E+01 2.56629E+01
 -1        30-6.66667E+01 5.49920E+01 2.56629E+01
 -1        31-1.33333E+02 5.49920E+01 2.56629E+01
 -1        32-2.00000E+02 5.49920E+01 2.56629E+01
 -3
    1PSTEP                        59          20           1          
  100CL  120 1.000000000          32                     0   20           1
 -4  STRESS      6    1
 -5  SXX         1    4    1    1
 -5  SYY         1    4    2    2
 -5  SZZ         1    4    3    3
 -5  SXY         1    4    1    2
 -5  SYZ         1    4    2    3
 -5  SZX         1    4    3    1
 -1         1-2.10744E+04 1.02843E-13-1.22765E-12 1.10231E-13 8.00535E-14-9.20170E-14
 -1         2-2.10744E+04 1.10088E-12-8.05826E-13 1.23165E-12 1.29018E-13-2.52177E-13
 -1         3-2.10744E+04-9.11192E-12-6.82108E-12-2.25740E-12-3.96870E-13 9.52333E-13
 -1         4-2.10744E+04 8.71184E-13 4.78752E-12 2.88656E-12 1.78854E-13-6.97148E-12
 -1         5-2.10744E+04-5.24793E-13-5.77171E-12 2.06859E-13-1.51755E-12 2.41133E-13
 -1         6-2.10744E+04-1.43355E-12-2.84128E-12 1.44466E-12-5.57092E-13-1.25574E-12
 -1         7-2.10744E+04-3.05905E-12-2.00968E-12 3.56818E-12 1.15879E-14-8.98318E-14
 -1         8-2.10744E+04 7.48646E-12 1.03019E-11 3.37144E-12 7.83158E-13 2.76659E-12
 -1         9-2.10744E+04 7.20517E-12 5.82321E-12 1.55453E-13 1.48903E-12-6.34005E-13
 -1        10-2.10744E+04 4.96582E-12 5.22822E-12 1.07967E-12 2.10124E-13-1.88385E-12
 -1        11-2.10744E+04 2.34927E-12 3.78275E-12 2.45061E-12-7.33325E-13-6.55526E-12
 -1        12-2.10744E+04-1.49866E-11-9.30405E-12-1.02922E-13-3.18270E-12 6.85877E-12
 -1        13-2.10744E+04 4.78761E-12 4.40352E-12-1.02482E-12-6.01837E-15 6.06041E-14
 -1        14-2.10744E+04 1.72852E-12-5.19554E-12-1.32724E-13 6.78937E-13-1.83105E-12
 -1        15-2.10744E+04 5.87472E-12 8.69022E-12-9.99430E-13-1.08720E-12 3.44811E-12
 -1        16-2.10744E+04 1.62281E-11 1.18247E-11-3.37144E-12 1.24781E-12 3.00745E-12
 -1        17-2.10744E+04 3.60756E-12 2.27707E-12-4.17030E-13-1.10954E-12-3.36189E-13
 -1        18-2.10744E+04 1.34439E-12-1.47111E-12-3.25559E-13-4.68677E-13 1.16283E-12
 -1        19-2.10744E+04 6.20734E-12 1.18899E-11-1.32449E-12 2.07319E-12-1.75008E-12
 -1        20-2.10744E+04 3.04532E-12 6.96166E-12 4.62246E-12-1.05604E-12-1.03229E-11
 -1        21-2.10744E+04 2.13636E-12-1.77998E-12-1.32064E-12-1.84735E-13 8.42880E-13
 -1        22-2.10744E+04 2.04731E-12-2.29774E-12-1.26889E-12-5.96495E-13-5.05542E-13
 -1        23-2.10744E+04-3.72434E-12-8.57353E-13-4.82625E-12 2.15021E-12 1.06408E-12
 -1        24-2.10744E+04-1.38857E-11-8.83084E-12-2.07230E-12 2.84642E-13-1.51272E-12
 -1        25-2.10744E+04-1.57417E-12-9.49609E-12-1.15742E-12 1.61498E-12 4.04458E-13
 -1        26-2.10744E+04-4.63322E-12-4.70349E-12-7.96534E-13-7.24946E-13-3.73012E-12
 -1        27-2.10744E+04 8.31663E-13 3.17396E-12-2.40977E-12 2.75363E-13-3.24678E-12
 -1        28-2.10744E+04 5.29851E-12 5.77171E-12 1.60192E-12-2.03390E-12-2.26892E-12
 -1        29-2.10744E+04 1.29016E-11 7.06468E-12-3.51681E-13-2.17982E-12 2.08742E-13
 -1        30-2.10744E+04-1.54390E-13-3.93023E-12 6.72082E-12-1.58222E-13-2.87795E-12
 -1        31-2.10744E+04-1.28363E-11-1.27472E-11 3.48447E-12 3.71913E-13 4.91393E-12
 -1        32-2.10744E+04-1.62280E-11-9.72583E-12 3.88206E-12 2.49834E-12 4.42816E-12
 -3
    1PSTEP                        60          20           1          
  100CL  120 1.000000000          32                     0   20           1
 -4  TOSTRAIN    6    1
 -5  EXX         1    4    1    1
 -5  EYY         1    4    2    2
 -5  EZZ         1    4    3    3
 -5  EXY         1    4    1    2
 -5  EYZ         1    4    2    3
 -5  EZX         1    4    3    1
 -1         1-1.24439E-01 3.73318E-02 3.73318E-02 6.88314E-19 4.29493E-19-4.54521E-19
 -1         2-1.24439E-01 3.73318E-02 3.73318E-02 7.81726E-18 6.92194E-19-1.55001E-18
 -1         3-1.24439E-01 3.73318E-02 3.73318E-02-1.44445E-17-2.12924E-18 6.41881E-18
 -1         4-1.24439E-01 3.73318E-02 3.73318E-02 1.87629E-17 9.59566E-19-4.41250E-17
 -1         5-1.24439E-01 3.73318E-02 3.73318E-02 2.42846E-18-8.14176E-18 1.24168E-18
 -1         6-1.24439E-01 3.73318E-02 3.73318E-02 7.29542E-18-2.98884E-18-8.26497E-18
 -1         7-1.24439E-01 3.73318E-02 3.73318E-02 1.91877E-17 6.21701E-20-7.96740E-19
 -1         8-1.24439E-01 3.73318E-02 3.73318E-02 1.92664E-17 4.20170E-18 1.74208E-17
 -1         9-1.24439E-01 3.73318E-02 3.73318E-02 1.06953E-18 7.98874E-18-4.13151E-18
 -1        10-1.24439E-01 3.73318E-02 3.73318E-02 3.48087E-18 1.12733E-18-1.17784E-17
 -1        11-1.24439E-01 3.73318E-02 3.73318E-02 1.26730E-17-3.93435E-18-4.17275E-17
 -1        12-1.24439E-01 3.73318E-02 3.73318E-02 1.99994E-19-1.70754E-17 4.40115E-17
 -1        13-1.24439E-01 3.73318E-02 3.73318E-02-1.15075E-17-3.22890E-20 9.30342E-19
 -1        14-1.24439E-01 3.73318E-02 3.73318E-02-4.61505E-18 3.64255E-18-1.21350E-17
 -1        15-1.24439E-01 3.73318E-02 3.73318E-02-7.85677E-18-5.83294E-18 2.14572E-17
 -1        16-1.24439E-01 3.73318E-02 3.73318E-02-2.19261E-17 6.69458E-18 1.92686E-17
 -1        17-1.24439E-01 3.73318E-02 3.73318E-02-2.62064E-18-5.95275E-18-2.69647E-18
 -1        18-1.24439E-01 3.73318E-02 3.73318E-02-1.99862E-18-2.51449E-18 7.17598E-18
 -1        19-1.24439E-01 3.73318E-02 3.73318E-02-8.45211E-18 1.11228E-17-1.06437E-17
 -1        20-1.24439E-01 3.73318E-02 3.73318E-02 2.96340E-17-5.66572E-18-6.50380E-17
 -1        21-1.24439E-01 3.73318E-02 3.73318E-02-1.17068E-17-9.91120E-19 7.36659E-18
 -1        22-1.24439E-01 3.73318E-02 3.73318E-02-1.10629E-17-3.20024E-18-1.23605E-18
 -1        23-1.24439E-01 3.73318E-02 3.73318E-02-3.26138E-17 1.15360E-17 8.24608E-18
 -1        24-1.24439E-01 3.73318E-02 3.73318E-02-1.39740E-17 1.52712E-18-8.93191E-18
 -1        25-1.24439E-01 3.73318E-02 3.73318E-02-9.28880E-18 8.66452E-18 2.59557E-18
 -1        26-1.24439E-01 3.73318E-02 3.73318E-02-9.77620E-18-3.88939E-18-2.35484E-17
 -1        27-1.24439E-01 3.73318E-02 3.73318E-02-2.10636E-17 1.47734E-18-2.03372E-17
 -1        28-1.24439E-01 3.73318E-02 3.73318E-02 6.54982E-18-1.09120E-17-1.43419E-17
 -1        29-1.24439E-01 3.73318E-02 3.73318E-02-1.81831E-19-1.16949E-17 1.06887E-18
 -1        30-1.24439E-01 3.73318E-02 3.73318E-02 4.05224E-17-8.48875E-19-1.50547E-17
 -1        31-1.24439E-01 3.73318E-02 3.73318E-02 1.92573E-17 1.99534E-18 3.59008E-17
 -1        32-1.24439E-01 3.73318E-02 3.73318E-02 2.59957E-17 1.34038E-17 3.00501E-17
 -3
 9999
