
 displacements (vx,vy,vz) for set NALL and time  0.1000000E-02

         1  0.000000E+00  0.000000E+00  0.000000E+00
         2 -2.857143E-10  0.000000E+00  0.000000E+00
         3 -1.500000E-02  0.000000E+00  0.000000E+00
         4 -1.500000E-02  0.000000E+00  0.000000E+00
         5 -3.000000E-02  0.000000E+00  0.000000E+00
         6 -3.000000E-02  0.000000E+00  0.000000E+00
         7  0.000000E+00 -2.857143E-10  0.000000E+00
         8 -2.857143E-10 -2.857143E-10  0.000000E+00
         9 -1.500000E-02 -2.857143E-10  0.000000E+00
        10 -1.500000E-02 -2.857143E-10  0.000000E+00
        11 -3.000000E-02 -2.857143E-10  0.000000E+00
        12 -3.000000E-02 -2.857143E-10  0.000000E+00
        13  0.000000E+00 -1.500000E-02  0.000000E+00
        14 -2.857143E-10 -1.500000E-02  0.000000E+00
        15 -1.500000E-02 -1.500000E-02  0.000000E+00
        16 -1.500000E-02 -1.500000E-02  0.000000E+00
        17 -3.000000E-02 -1.500000E-02  0.000000E+00
        18 -3.000000E-02 -1.500000E-02  0.000000E+00
        19  0.000000E+00 -1.500000E-02  0.000000E+00
        20 -2.857143E-10 -1.500000E-02  0.000000E+00
        21 -1.500000E-02 -1.500000E-02  0.000000E+00
        22 -1.500000E-02 -1.500000E-02  0.000000E+00
        23 -3.000000E-02 -1.500000E-02  0.000000E+00
        24 -3.000000E-02 -1.500000E-02  0.000000E+00
        25  0.000000E+00 -3.000000E-02  0.000000E+00
        26 -2.857143E-10 -3.000000E-02  0.000000E+00
        27 -1.500000E-02 -3.000000E-02  0.000000E+00
        28 -1.500000E-02 -3.000000E-02  0.000000E+00
        29 -3.000000E-02 -3.000000E-02  0.000000E+00
        30 -3.000000E-02 -3.000000E-02  0.000000E+00
        31  0.000000E+00 -3.000000E-02  0.000000E+00
        32 -2.857143E-10 -3.000000E-02  0.000000E+00
        33 -1.500000E-02 -3.000000E-02  0.000000E+00
        34 -1.500000E-02 -3.000000E-02  0.000000E+00
        35 -3.000000E-02 -3.000000E-02  0.000000E+00
        36 -3.000000E-02 -3.000000E-02  0.000000E+00
        37  0.000000E+00  0.000000E+00  3.428571E-10
        38 -2.857143E-10  0.000000E+00  3.428571E-10
        39 -1.500000E-02  0.000000E+00  3.428571E-10
        40 -1.500000E-02  0.000000E+00  3.428571E-10
        41 -3.000000E-02  0.000000E+00  3.428571E-10
        42 -3.000000E-02  0.000000E+00  3.428571E-10
        43  0.000000E+00 -2.857143E-10  3.428571E-10
        44 -2.857143E-10 -2.857143E-10  3.428571E-10
        45 -1.500000E-02 -2.857143E-10  3.428571E-10
        46 -1.500000E-02 -2.857143E-10  3.428571E-10
        47 -3.000000E-02 -2.857143E-10  3.428571E-10
        48 -3.000000E-02 -2.857143E-10  3.428571E-10
        49  0.000000E+00 -1.500000E-02  3.428571E-10
        50 -2.857143E-10 -1.500000E-02  3.428571E-10
        51 -1.500000E-02 -1.500000E-02  3.428571E-10
        52 -1.500000E-02 -1.500000E-02  3.428571E-10
        53 -3.000000E-02 -1.500000E-02  3.428571E-10
        54 -3.000000E-02 -1.500000E-02  3.428571E-10
        55  0.000000E+00 -1.500000E-02  3.428571E-10
        56 -2.857143E-10 -1.500000E-02  3.428571E-10
        57 -1.500000E-02 -1.500000E-02  3.428571E-10
        58 -1.500000E-02 -1.500000E-02  3.428571E-10
        59 -3.000000E-02 -1.500000E-02  3.428571E-10
        60 -3.000000E-02 -1.500000E-02  3.428571E-10
        61  0.000000E+00 -3.000000E-02  3.428571E-10
        62 -2.857143E-10 -3.000000E-02  3.428571E-10
        63 -1.500000E-02 -3.000000E-02  3.428571E-10
        64 -1.500000E-02 -3.000000E-02  3.428571E-10
        65 -3.000000E-02 -3.000000E-02  3.428571E-10
        66 -3.000000E-02 -3.000000E-02  3.428571E-10
        67  0.000000E+00 -3.000000E-02  3.428571E-10
        68 -2.857143E-10 -3.000000E-02  3.428571E-10
        69 -1.500000E-02 -3.000000E-02  3.428571E-10
        70 -1.500000E-02 -3.000000E-02  3.428571E-10
        71 -3.000000E-02 -3.000000E-02  3.428571E-10
        72 -3.000000E-02 -3.000000E-02  3.428571E-10

 stresses (elem, integ.pnt.,sxx,syy,szz,sxy,sxz,syz) for set EALL and time  0.1000000E-02

         1   1 -1.714286E-07 -1.714286E-07 -2.646978E-23 -1.019451E-24  1.784039E-24  1.733067E-23
         1   2 -1.714286E-07 -1.714286E-07 -7.940934E-23 -1.784039E-24  2.140847E-23  2.089875E-23
         1   3 -1.714286E-07 -1.714286E-07 -1.588187E-22 -2.293765E-24  1.019451E-24  1.039840E-22
         1   4 -1.714286E-07 -1.714286E-07 -1.588187E-22 -3.058353E-24  1.223341E-23  1.014354E-22
         1   5 -1.714286E-07 -1.714286E-07  2.117582E-22 -4.077804E-24 -1.146882E-23 -1.733067E-23
         1   6 -1.714286E-07 -1.714286E-07  1.058791E-22 -6.116706E-24  8.155608E-24 -1.936957E-23
         1   7 -1.714286E-07 -1.714286E-07  2.646978E-23 -1.427231E-23 -1.121396E-23  6.932267E-23
         1   8 -1.714286E-07 -1.714286E-07 -7.720368E-50 -1.631122E-23  1.730986E-35  6.116706E-23
         2   1 -1.714286E-07 -1.714286E-07  1.973628E-16  5.513961E-17  1.484835E-16 -1.759878E-18
         2   2 -1.714286E-07 -1.714286E-07  2.225685E-16 -2.014136E-16 -9.096618E-17 -3.296068E-18
         2   3 -1.714286E-07 -1.714286E-07  2.007157E-16  1.887276E-17  3.979863E-16 -4.895763E-17
         2   4 -1.714286E-07 -1.714286E-07  6.094598E-17 -1.521627E-16  2.269508E-16  1.129937E-17
         2   5 -1.714286E-07 -1.714286E-07 -2.096164E-16  1.839044E-17  1.803259E-16  4.062980E-17
         2   6 -1.714286E-07 -1.714286E-07 -5.464498E-17  2.920472E-16  6.060105E-17 -2.689654E-17
         2   7 -1.714286E-07 -1.714286E-07  4.094643E-16  6.863406E-17 -1.834751E-16 -6.567948E-18
         2   8 -1.714286E-07 -1.714286E-07  3.994603E-16  1.370483E-16  1.928030E-16 -1.230110E-17
         3   1 -1.714286E-07 -1.714286E-07 -3.653333E-17 -5.559193E-16  6.215316E-16  1.261423E-18
         3   2 -1.714286E-07 -1.714286E-07 -3.215914E-17  1.624298E-16 -4.730956E-16  1.576603E-17
         3   3 -1.714286E-07 -1.714286E-07  5.877803E-16 -5.794304E-16 -2.276436E-17 -8.082369E-17
         3   4 -1.714286E-07 -1.714286E-07  3.970301E-16 -3.211680E-17 -2.280070E-16  5.135801E-17
         3   5 -1.714286E-07 -1.714286E-07 -4.141547E-16 -1.042931E-15 -1.835824E-16  8.679280E-17
         3   6 -1.714286E-07 -1.714286E-07 -1.626586E-16 -2.219605E-16 -1.151682E-16  2.324766E-17
         3   7 -1.714286E-07 -1.714286E-07  4.154016E-16 -9.016941E-16 -3.586146E-16  4.707686E-18
         3   8 -1.714286E-07 -1.714286E-07  4.717733E-16  1.929331E-16  1.202848E-16  5.883964E-17
         4   1 -1.714286E-07 -1.714286E-07 -7.292469E-17 -1.843805E-16 -4.404777E-18  1.603188E-16
         4   2 -1.714286E-07 -1.714286E-07 -1.453502E-16 -1.741120E-16 -7.992909E-18  2.389763E-16
         4   3 -1.714286E-07 -1.714286E-07 -1.307181E-16 -2.014841E-16  2.470277E-18 -1.071667E-17
         4   4 -1.714286E-07 -1.714286E-07 -1.331808E-16 -1.912155E-16 -1.032000E-17  7.520828E-16
         4   5 -1.714286E-07 -1.714286E-07 -3.883237E-16  6.745724E-17 -1.285072E-17 -5.788051E-18
         4   6 -1.714286E-07 -1.714286E-07  1.036680E-16  6.484277E-17 -1.643886E-17  1.692688E-16
         4   7 -1.714286E-07 -1.714286E-07 -4.654416E-16 -9.569627E-19  2.200948E-17  9.683325E-17
         4   8 -1.714286E-07 -1.714286E-07  9.651289E-17 -3.571431E-18  9.219197E-18  2.376830E-16
         5   1 -1.714286E-07 -1.714286E-07 -3.786412E-16  1.539319E-16 -2.966630E-16 -3.963443E-16
         5   2 -1.714286E-07 -1.714286E-07  8.543301E-17  4.275887E-16 -1.085240E-16  2.206580E-16
         5   3 -1.714286E-07 -1.714286E-07  3.134974E-16  1.368284E-16 -4.628181E-18 -5.427326E-17
         5   4 -1.714286E-07 -1.714286E-07  1.536098E-16  4.960029E-16 -2.782850E-16  1.009332E-16
         5   5 -1.714286E-07 -1.714286E-07 -1.477433E-16  8.893846E-16 -3.436416E-16  1.370645E-16
         5   6 -1.714286E-07 -1.714286E-07  2.650203E-16  8.893846E-16  3.918110E-16  1.555696E-16
         5   7 -1.714286E-07 -1.714286E-07  6.213613E-16  2.736568E-16 -1.541010E-16  3.444318E-17
         5   8 -1.714286E-07 -1.714286E-07  3.845077E-16  3.420710E-16 -3.251365E-16  1.874119E-17
         6   1 -1.714286E-07 -1.714286E-07 -2.913086E-16  7.183491E-16 -3.306073E-16 -4.932402E-17
         6   2 -1.714286E-07 -1.714286E-07  4.081997E-16  4.446923E-16 -8.437138E-16  2.132311E-16
         6   3 -1.714286E-07 -1.714286E-07 -7.482518E-16  7.525562E-16 -2.903983E-16 -3.571879E-16
         6   4 -1.714286E-07 -1.714286E-07 -8.369430E-16  4.446923E-16  5.989863E-16  9.350627E-17
         6   5 -1.714286E-07 -1.714286E-07 -1.317522E-15  6.841420E-16  5.717652E-16 -1.431628E-16
         6   6 -1.714286E-07 -1.714286E-07 -3.614601E-16  2.736568E-16  5.865874E-17 -4.011301E-16
         6   7 -1.714286E-07 -1.714286E-07 -7.482518E-16  2.736568E-16  4.848335E-16 -7.474864E-17
         6   8 -1.714286E-07 -1.714286E-07 -6.573557E-16  6.841420E-16 -1.993085E-16  1.461835E-16
         7   1 -1.714286E-07 -1.714286E-07  8.513087E-16 -1.587810E-16 -2.299712E-17  4.995771E-16
         7   2 -1.714286E-07 -1.714286E-07  8.483881E-16 -2.187565E-16 -2.308536E-17  4.249386E-16
         7   3 -1.714286E-07 -1.714286E-07  4.352993E-16 -2.195256E-17  6.586128E-18  2.259203E-16
         7   4 -1.714286E-07 -1.714286E-07  6.235045E-16 -8.192806E-17  1.087050E-17 -1.565821E-16
         7   5 -1.714286E-07 -1.714286E-07  6.458808E-16 -5.670255E-16 -8.573817E-17 -1.781549E-16
         7   6 -1.714286E-07 -1.714286E-07  8.995134E-16 -6.208793E-16 -8.582641E-17 -3.473786E-16
         7   7 -1.714286E-07 -1.714286E-07 -1.402887E-15 -1.971187E-17  2.029539E-17 -4.518117E-16
         7   8 -1.714286E-07 -1.714286E-07  6.838123E-16 -7.356571E-17  2.457977E-17 -2.105502E-16
         8   1 -1.714286E-07 -1.714286E-07  7.969080E-16  4.104852E-16  2.276671E-16  1.084283E-16
         8   2 -1.714286E-07 -1.714286E-07  1.104002E-15  7.012455E-16  5.663160E-17  9.272166E-17
         8   3 -1.714286E-07 -1.714286E-07  5.259660E-16 -2.736568E-16  2.461675E-16 -2.840006E-17
         8   4 -1.714286E-07 -1.714286E-07 -7.227446E-17  1.026213E-16 -2.748927E-17  1.953430E-16
         8   5 -1.714286E-07 -1.714286E-07  3.094568E-16 -1.424554E-36 -5.313902E-17 -6.533041E-16
         8   6 -1.714286E-07 -1.714286E-07  5.213382E-17  3.420710E-16  4.948228E-17 -3.264783E-16
         8   7 -1.714286E-07 -1.714286E-07  3.207234E-16 -5.473136E-16 -1.025914E-16  1.676663E-16
         8   8 -1.714286E-07 -1.714286E-07 -7.227444E-17 -1.368284E-16 -6.838426E-17 -2.238570E-16
         9   1 -1.714286E-07 -1.714286E-07 -3.795359E-16  1.368284E-16  8.677649E-17 -9.818958E-16
         9   2 -1.714286E-07 -1.714286E-07 -3.109116E-16  2.736568E-16 -2.552945E-16  2.420329E-16
         9   3 -1.714286E-07 -1.714286E-07 -2.820865E-16  3.917165E-36 -3.312356E-16 -5.029964E-16
         9   4 -1.714286E-07 -1.714286E-07 -5.727355E-16 -3.420710E-17  7.924962E-17  1.052045E-16
         9   5 -1.714286E-07 -1.714286E-07  2.361919E-16 -5.473136E-16 -1.183821E-16 -3.819196E-16
         9   6 -1.714286E-07 -1.714286E-07 -1.131882E-15  2.736568E-16 -4.996786E-17  1.373034E-16
         9   7 -1.714286E-07 -1.714286E-07  3.336414E-16 -1.094627E-15 -2.148869E-16 -6.555764E-16
         9   8 -1.714286E-07 -1.714286E-07 -6.753568E-16  3.149615E-37 -9.644329E-18  2.741318E-16

 strains (elem, integ.pnt.,exx,eyy,ezz,exy,exz,eyz) forset EALL and time  0.1000000E-02

         1   1 -5.714286E-13 -5.714286E-13  4.897959E-13 -6.310887E-30  1.104405E-29  1.072851E-28
         1   2 -5.714286E-13 -5.714286E-13  4.897959E-13 -1.104405E-29  1.325286E-28  1.293732E-28
         1   3 -5.714286E-13 -5.714286E-13  4.897959E-13 -1.419950E-29  6.310887E-30  6.437105E-28
         1   4 -5.714286E-13 -5.714286E-13  4.897959E-13 -1.893266E-29  7.573065E-29  6.279333E-28
         1   5 -5.714286E-13 -5.714286E-13  4.897959E-13 -2.524355E-29 -7.099748E-29 -1.072851E-28
         1   6 -5.714286E-13 -5.714286E-13  4.897959E-13 -3.786532E-29  5.048710E-29 -1.199069E-28
         1   7 -5.714286E-13 -5.714286E-13  4.897959E-13 -8.835242E-29 -6.941976E-29  4.291403E-28
         1   8 -5.714286E-13 -5.714286E-13  4.897959E-13 -1.009742E-28 -1.071563E-40  3.786532E-28
         2   1 -5.714286E-13 -5.714286E-13  4.897959E-13  3.413405E-22  9.191837E-22 -1.089448E-23
         2   2 -5.714286E-13 -5.714286E-13  4.897959E-13 -1.246846E-21 -5.631240E-22 -2.040423E-23
         2   3 -5.714286E-13 -5.714286E-13  4.897959E-13  1.168314E-22  2.463724E-21 -3.030710E-22
         2   4 -5.714286E-13 -5.714286E-13  4.897959E-13 -9.419598E-22  1.404933E-21  6.994848E-23
         2   5 -5.714286E-13 -5.714286E-13  4.897959E-13  1.138456E-22  1.116303E-21  2.515178E-22
         2   6 -5.714286E-13 -5.714286E-13  4.897959E-13  1.807911E-21  3.751494E-22 -1.665024E-22
         2   7 -5.714286E-13 -5.714286E-13  4.897959E-13  4.248775E-22 -1.135798E-21 -4.065872E-23
         2   8 -5.714286E-13 -5.714286E-13  4.897959E-13  8.483940E-22  1.193542E-21 -7.614966E-23
         3   1 -5.714286E-13 -5.714286E-13  4.897959E-13 -3.441405E-21  3.847577E-21  7.808808E-24
         3   2 -5.714286E-13 -5.714286E-13  4.897959E-13  1.005518E-21 -2.928687E-21  9.759925E-23
         3   3 -5.714286E-13 -5.714286E-13  4.897959E-13 -3.586950E-21 -1.409223E-22 -5.003371E-22
         3   4 -5.714286E-13 -5.714286E-13  4.897959E-13 -1.988183E-22 -1.411472E-21  3.179305E-22
         3   5 -5.714286E-13 -5.714286E-13  4.897959E-13 -6.456239E-21 -1.136463E-21  5.372888E-22
         3   6 -5.714286E-13 -5.714286E-13  4.897959E-13 -1.374041E-21 -7.129461E-22  1.439141E-22
         3   7 -5.714286E-13 -5.714286E-13  4.897959E-13 -5.581916E-21 -2.219995E-21  2.914282E-23
         3   8 -5.714286E-13 -5.714286E-13  4.897959E-13  1.194348E-21  7.446204E-22  3.642454E-22
         4   1 -5.714286E-13 -5.714286E-13  4.897959E-13 -1.141403E-21 -2.726767E-23  9.924499E-22
         4   2 -5.714286E-13 -5.714286E-13  4.897959E-13 -1.077836E-21 -4.947992E-23  1.479377E-21
         4   3 -5.714286E-13 -5.714286E-13  4.897959E-13 -1.247282E-21  1.529219E-23 -6.634128E-23
         4   4 -5.714286E-13 -5.714286E-13  4.897959E-13 -1.183715E-21 -6.388573E-23  4.655751E-21
         4   5 -5.714286E-13 -5.714286E-13  4.897959E-13  4.175924E-22 -7.955209E-23 -3.583079E-23
         4   6 -5.714286E-13 -5.714286E-13  4.897959E-13  4.014076E-22 -1.017644E-22  1.047854E-21
         4   7 -5.714286E-13 -5.714286E-13  4.897959E-13 -5.924055E-24  1.362491E-22  5.994439E-22
         4   8 -5.714286E-13 -5.714286E-13  4.897959E-13 -2.210886E-23  5.707122E-23  1.471371E-21
         5   1 -5.714286E-13 -5.714286E-13  4.897959E-13  9.529121E-22 -1.836485E-21 -2.453560E-21
         5   2 -5.714286E-13 -5.714286E-13  4.897959E-13  2.646978E-21 -6.718151E-22  1.365978E-21
         5   3 -5.714286E-13 -5.714286E-13  4.897959E-13  8.470329E-22 -2.865065E-23 -3.359773E-22
         5   4 -5.714286E-13 -5.714286E-13  4.897959E-13  3.070494E-21 -1.722717E-21  6.248244E-22
         5   5 -5.714286E-13 -5.714286E-13  4.897959E-13  5.505714E-21 -2.127305E-21  8.484944E-22
         5   6 -5.714286E-13 -5.714286E-13  4.897959E-13  5.505714E-21  2.425497E-21  9.630498E-22
         5   7 -5.714286E-13 -5.714286E-13  4.897959E-13  1.694066E-21 -9.539586E-22  2.132197E-22
         5   8 -5.714286E-13 -5.714286E-13  4.897959E-13  2.117582E-21 -2.012750E-21  1.160169E-22
         6   1 -5.714286E-13 -5.714286E-13  4.897959E-13  4.446923E-21 -2.046617E-21 -3.053392E-22
         6   2 -5.714286E-13 -5.714286E-13  4.897959E-13  2.752857E-21 -5.222990E-21  1.320002E-21
         6   3 -5.714286E-13 -5.714286E-13  4.897959E-13  4.658681E-21 -1.797704E-21 -2.211163E-21
         6   4 -5.714286E-13 -5.714286E-13  4.897959E-13  2.752857E-21  3.708010E-21  5.788483E-22
         6   5 -5.714286E-13 -5.714286E-13  4.897959E-13  4.235165E-21  3.539499E-21 -8.862462E-22
         6   6 -5.714286E-13 -5.714286E-13  4.897959E-13  1.694066E-21  3.631255E-22 -2.483186E-21
         6   7 -5.714286E-13 -5.714286E-13  4.897959E-13  1.694066E-21  3.001350E-21 -4.627297E-22
         6   8 -5.714286E-13 -5.714286E-13  4.897959E-13  4.235165E-21 -1.233815E-21  9.049455E-22
         7   1 -5.714286E-13 -5.714286E-13  4.897959E-13 -9.829297E-22 -1.423631E-22  3.092620E-21
         7   2 -5.714286E-13 -5.714285E-13  4.897959E-13 -1.354207E-21 -1.429094E-22  2.630572E-21
         7   3 -5.714286E-13 -5.714286E-13  4.897959E-13 -1.358968E-22  4.077127E-23  1.398554E-21
         7   4 -5.714286E-13 -5.714285E-13  4.897959E-13 -5.071737E-22  6.729360E-23 -9.693178E-22
         7   5 -5.714286E-13 -5.714286E-13  4.897959E-13 -3.510158E-21 -5.307601E-22 -1.102864E-21
         7   6 -5.714286E-13 -5.714285E-13  4.897959E-13 -3.843539E-21 -5.313064E-22 -2.150439E-21
         7   7 -5.714286E-13 -5.714286E-13  4.897959E-13 -1.220259E-22  1.256381E-22 -2.796929E-21
         7   8 -5.714286E-13 -5.714285E-13  4.897959E-13 -4.554068E-22  1.521605E-22 -1.303406E-21
         8   1 -5.714286E-13 -5.714286E-13  4.897959E-13  2.541099E-21  1.409368E-21  6.712230E-22
         8   2 -5.714286E-13 -5.714285E-13  4.897959E-13  4.341044E-21  3.505766E-22  5.739912E-22
         8   3 -5.714286E-13 -5.714286E-13  4.897959E-13 -1.694066E-21  1.523894E-21 -1.758099E-22
         8   4 -5.714286E-13 -5.714286E-13  4.897959E-13  6.352747E-22 -1.701717E-22  1.209266E-21
         8   5 -5.714286E-13 -5.714286E-13  4.897959E-13  1.653930E-41 -3.289558E-22 -4.044263E-21
         8   6 -5.714286E-13 -5.714286E-13  4.897959E-13  2.117582E-21  3.063189E-22 -2.021056E-21
         8   7 -5.714286E-13 -5.714286E-13  4.897959E-13 -3.388132E-21 -6.350893E-22  1.037934E-21
         8   8 -5.714286E-13 -5.714286E-13  4.897959E-13 -8.470329E-22 -4.233311E-22 -1.385782E-21
         9   1 -5.714286E-13 -5.714286E-13  4.897959E-13  8.470329E-22  5.371878E-22 -6.078403E-21
         9   2 -5.714286E-13 -5.714286E-13  4.897959E-13  1.694066E-21 -1.580395E-21  1.498299E-21
         9   3 -5.714286E-13 -5.714286E-13  4.897959E-13 -1.955748E-43 -2.050506E-21 -3.113787E-21
         9   4 -5.714286E-13 -5.714286E-13  4.897959E-13 -2.117582E-22  4.905929E-22  6.512661E-22
         9   5 -5.714286E-13 -5.714286E-13  4.897959E-13 -3.388132E-21 -7.328413E-22 -2.364264E-21
         9   6 -5.714286E-13 -5.714286E-13  4.897959E-13  1.694066E-21 -3.093249E-22  8.499732E-22
         9   7 -5.714286E-13 -5.714286E-13  4.897959E-13 -6.776264E-21 -1.330252E-21 -4.058330E-21
         9   8 -5.714286E-13 -5.714286E-13  4.897959E-13 -2.261358E-42 -5.970299E-23  1.697006E-21

 displacements (vx,vy,vz) for set NALL and time  0.2000000E-02

         1  0.000000E+00  0.000000E+00  0.000000E+00
         2 -5.714286E-10  0.000000E+00  0.000000E+00
         3 -3.000000E-02  0.000000E+00  0.000000E+00
         4 -3.000000E-02  0.000000E+00  0.000000E+00
         5 -6.000000E-02  0.000000E+00  0.000000E+00
         6 -6.000000E-02  0.000000E+00  0.000000E+00
         7  0.000000E+00 -5.714286E-10  0.000000E+00
         8 -5.714286E-10 -5.714286E-10  0.000000E+00
         9 -3.000000E-02 -5.714286E-10  0.000000E+00
        10 -3.000000E-02 -5.714286E-10  0.000000E+00
        11 -6.000000E-02 -5.714286E-10  0.000000E+00
        12 -6.000000E-02 -5.714286E-10  0.000000E+00
        13  0.000000E+00 -3.000000E-02  0.000000E+00
        14 -5.714286E-10 -3.000000E-02  0.000000E+00
        15 -3.000000E-02 -3.000000E-02  0.000000E+00
        16 -3.000000E-02 -3.000000E-02  0.000000E+00
        17 -6.000000E-02 -3.000000E-02  0.000000E+00
        18 -6.000000E-02 -3.000000E-02  0.000000E+00
        19  0.000000E+00 -3.000000E-02  0.000000E+00
        20 -5.714286E-10 -3.000000E-02  0.000000E+00
        21 -3.000000E-02 -3.000000E-02  0.000000E+00
        22 -3.000000E-02 -3.000000E-02  0.000000E+00
        23 -6.000000E-02 -3.000000E-02  0.000000E+00
        24 -6.000000E-02 -3.000000E-02  0.000000E+00
        25  0.000000E+00 -6.000000E-02  0.000000E+00
        26 -5.714286E-10 -6.000000E-02  0.000000E+00
        27 -3.000000E-02 -6.000000E-02  0.000000E+00
        28 -3.000000E-02 -6.000000E-02  0.000000E+00
        29 -6.000000E-02 -6.000000E-02  0.000000E+00
        30 -6.000000E-02 -6.000000E-02  0.000000E+00
        31  0.000000E+00 -6.000000E-02  0.000000E+00
        32 -5.714286E-10 -6.000000E-02  0.000000E+00
        33 -3.000000E-02 -6.000000E-02  0.000000E+00
        34 -3.000000E-02 -6.000000E-02  0.000000E+00
        35 -6.000000E-02 -6.000000E-02  0.000000E+00
        36 -6.000000E-02 -6.000000E-02  0.000000E+00
        37  0.000000E+00  0.000000E+00  6.857143E-10
        38 -5.714286E-10  0.000000E+00  6.857143E-10
        39 -3.000000E-02  0.000000E+00  6.857143E-10
        40 -3.000000E-02  0.000000E+00  6.857143E-10
        41 -6.000000E-02  0.000000E+00  6.857143E-10
        42 -6.000000E-02  0.000000E+00  6.857143E-10
        43  0.000000E+00 -5.714286E-10  6.857143E-10
        44 -5.714286E-10 -5.714286E-10  6.857143E-10
        45 -3.000000E-02 -5.714286E-10  6.857143E-10
        46 -3.000000E-02 -5.714286E-10  6.857143E-10
        47 -6.000000E-02 -5.714286E-10  6.857143E-10
        48 -6.000000E-02 -5.714286E-10  6.857143E-10
        49  0.000000E+00 -3.000000E-02  6.857143E-10
        50 -5.714286E-10 -3.000000E-02  6.857143E-10
        51 -3.000000E-02 -3.000000E-02  6.857143E-10
        52 -3.000000E-02 -3.000000E-02  6.857143E-10
        53 -6.000000E-02 -3.000000E-02  6.857143E-10
        54 -6.000000E-02 -3.000000E-02  6.857143E-10
        55  0.000000E+00 -3.000000E-02  6.857143E-10
        56 -5.714286E-10 -3.000000E-02  6.857143E-10
        57 -3.000000E-02 -3.000000E-02  6.857143E-10
        58 -3.000000E-02 -3.000000E-02  6.857143E-10
        59 -6.000000E-02 -3.000000E-02  6.857143E-10
        60 -6.000000E-02 -3.000000E-02  6.857143E-10
        61  0.000000E+00 -6.000000E-02  6.857143E-10
        62 -5.714286E-10 -6.000000E-02  6.857143E-10
        63 -3.000000E-02 -6.000000E-02  6.857143E-10
        64 -3.000000E-02 -6.000000E-02  6.857143E-10
        65 -6.000000E-02 -6.000000E-02  6.857143E-10
        66 -6.000000E-02 -6.000000E-02  6.857143E-10
        67  0.000000E+00 -6.000000E-02  6.857143E-10
        68 -5.714286E-10 -6.000000E-02  6.857143E-10
        69 -3.000000E-02 -6.000000E-02  6.857143E-10
        70 -3.000000E-02 -6.000000E-02  6.857143E-10
        71 -6.000000E-02 -6.000000E-02  6.857143E-10
        72 -6.000000E-02 -6.000000E-02  6.857143E-10

 stresses (elem, integ.pnt.,sxx,syy,szz,sxy,sxz,syz) for set EALL and time  0.2000000E-02

         1   1 -3.428571E-07 -3.428571E-07 -2.316111E-52  7.645883E-24  4.587530E-24  1.730986E-35
         1   2 -3.428571E-07 -3.428571E-07 -5.293956E-23  3.670024E-23  2.242792E-23 -3.058353E-24
         1   3 -3.428571E-07 -3.428571E-07 -1.058791E-22  1.529177E-24  2.038902E-24  2.446682E-23
         1   4 -3.428571E-07 -3.428571E-07 -5.293956E-23  3.058353E-23  1.223341E-23  2.140847E-23
         1   5 -3.428571E-07 -3.428571E-07  5.293956E-23  4.077804E-24 -1.784039E-23 -2.446682E-23
         1   6 -3.428571E-07 -3.428571E-07  5.293956E-23  1.427231E-23  5.192958E-35 -1.223341E-23
         1   7 -3.428571E-07 -3.428571E-07  4.117530E-51  6.116706E-24 -1.019451E-23  6.923945E-35
         1   8 -3.428571E-07 -3.428571E-07 -5.293956E-23  2.446682E-23  8.155608E-24  1.223341E-23
         2   1 -3.428571E-07 -3.428571E-07 -5.138505E-16 -2.486611E-17  2.299204E-16  2.089707E-17
         2   2 -3.428571E-07 -3.428571E-07 -4.472012E-16 -5.907321E-17  1.615062E-16 -1.185116E-17
         2   3 -3.428571E-07 -3.428571E-07 -8.147847E-16 -9.280156E-17  1.057934E-15 -2.740431E-17
         2   4 -3.428571E-07 -3.428571E-07 -1.167310E-15 -9.280156E-17 -5.840072E-16  1.804751E-17
         2   5 -3.428571E-07 -3.428571E-07  5.175504E-17 -5.321072E-16  2.973414E-16  1.262903E-16
         2   6 -3.428571E-07 -3.428571E-07  2.826245E-16 -3.952788E-16  1.015691E-15 -7.412779E-17
         2   7 -3.428571E-07 -3.428571E-07 -7.109749E-16 -4.905626E-16 -1.369425E-16  7.798894E-17
         2   8 -3.428571E-07 -3.428571E-07 -8.992802E-16 -2.169058E-16 -1.369425E-16 -4.422913E-17
         3   1 -3.428571E-07 -3.428571E-07 -9.391912E-17 -1.087036E-15  1.245529E-15  3.004681E-17
         3   2 -3.428571E-07 -3.428571E-07  3.331412E-17  3.496624E-16 -9.437254E-16 -1.673631E-17
         3   3 -3.428571E-07 -3.428571E-07  1.069087E-15 -1.066296E-15 -5.074330E-17 -2.467795E-17
         3   4 -3.428571E-07 -3.428571E-07  7.536133E-16  2.833135E-17 -4.612285E-16 -2.219225E-17
         3   5 -3.428571E-07 -3.428571E-07 -6.193264E-16 -2.156416E-15 -3.579624E-16  1.668610E-16
         3   6 -3.428571E-07 -3.428571E-07 -3.886285E-16 -5.144751E-16 -2.211340E-16 -5.700481E-17
         3   7 -3.428571E-07 -3.428571E-07  9.541646E-16 -2.066700E-15 -7.366902E-16  1.121362E-16
         3   8 -3.428571E-07 -3.428571E-07  7.421558E-16  1.225548E-16  2.211086E-16 -6.246076E-17
         4   1 -3.428571E-07 -3.428571E-07  1.015004E-15 -2.546658E-17  3.510424E-18 -6.852786E-16
         4   2 -3.428571E-07 -3.428571E-07  1.063428E-15 -1.587043E-18  1.425572E-17  3.774148E-16
         4   3 -3.428571E-07 -3.428571E-07  1.043060E-15 -1.280879E-16 -6.702670E-18 -2.747934E-16
         4   4 -3.428571E-07 -3.428571E-07  1.107011E-15 -1.042083E-16 -3.007095E-17 -2.725201E-16
         4   5 -3.428571E-07 -3.428571E-07  8.323267E-16  4.017447E-16  2.355788E-18 -4.242034E-18
         4   6 -3.428571E-07 -3.428571E-07  2.137123E-16  3.778652E-16  1.310108E-17  2.436919E-16
         4   7 -3.428571E-07 -3.428571E-07  7.887440E-16 -5.560541E-16 -1.646424E-18 -4.242034E-18
         4   8 -3.428571E-07 -3.428571E-07  1.856568E-16 -5.799335E-16 -2.501469E-17 -2.010004E-16
         5   1 -3.428571E-07 -3.428571E-07 -1.268770E-15  3.420710E-16 -5.905789E-17 -8.093471E-16
         5   2 -3.428571E-07 -3.428571E-07 -3.325839E-16 -5.815207E-16  1.803918E-16 -7.410615E-16
         5   3 -3.428571E-07 -3.428571E-07 -1.902248E-15  5.473136E-16  2.144703E-16 -7.409329E-16
         5   4 -3.428571E-07 -3.428571E-07 -1.177665E-15 -2.052426E-16 -1.276007E-16 -6.042331E-16
         5   5 -3.428571E-07 -3.428571E-07  1.399653E-17  5.473136E-16 -3.349598E-17 -6.590946E-16
         5   6 -3.428571E-07 -3.428571E-07 -3.325839E-16  2.736568E-16 -1.019102E-16 -4.702077E-16
         5   7 -3.428571E-07 -3.428571E-07  3.554205E-16 -8.973202E-34  5.276963E-17  2.987042E-16
         5   8 -3.428571E-07 -3.428571E-07 -2.540737E-16 -1.368284E-16 -8.405877E-17 -3.675864E-16
         6   1 -3.428571E-07 -3.428571E-07 -9.502282E-16  2.736568E-16 -1.322637E-15  5.098461E-16
         6   2 -3.428571E-07 -3.428571E-07 -3.305890E-16  2.736568E-16 -1.801536E-15 -6.638736E-16
         6   3 -3.428571E-07 -3.428571E-07 -1.559829E-15  4.104852E-16 -5.807590E-16  8.519171E-16
         6   4 -3.428571E-07 -3.428571E-07 -1.121227E-15  3.420710E-16  1.198010E-15  4.307536E-16
         6   5 -3.428571E-07 -3.428571E-07  2.812274E-16  1.231456E-15  1.703572E-16 -2.949906E-16
         6   6 -3.428571E-07 -3.428571E-07  1.413973E-15 -6.841420E-16 -3.085422E-16 -6.927891E-16
         6   7 -3.428571E-07 -3.428571E-07  8.211196E-17  5.473136E-16  9.698072E-16  6.628082E-16
         6   8 -3.428571E-07 -3.428571E-07  2.641608E-16  2.736568E-16 -3.984768E-16  6.412878E-16
         7   1 -3.428571E-07 -3.428571E-07  9.373728E-16  1.086944E-15  1.378154E-17  1.345153E-15
         7   2 -3.428571E-07 -3.428571E-07 -2.161280E-16  1.065952E-15 -2.079703E-17  2.530878E-16
         7   3 -3.428571E-07 -3.428571E-07  7.478958E-16 -7.683447E-18 -2.736831E-17  5.241823E-16
         7   4 -3.428571E-07 -3.428571E-07 -8.553820E-16 -2.867502E-17  5.540451E-18 -3.626400E-16
         7   5 -3.428571E-07 -3.428571E-07 -2.419124E-15  2.689946E-17  8.601200E-17 -8.632707E-17
         7   6 -3.428571E-07 -3.428571E-07 -1.417577E-15  1.003902E-16  5.143342E-17 -3.320899E-16
         7   7 -3.428571E-07 -3.428571E-07 -2.466877E-15  2.689946E-17 -1.350487E-16 -6.336407E-16
         7   8 -3.428571E-07 -3.428571E-07 -1.915108E-15  1.003902E-16 -1.021399E-16  4.888805E-16
         8   1 -3.428571E-07 -3.428571E-07 -1.650306E-16  1.368284E-16  2.061671E-16 -8.718909E-16
         8   2 -3.428571E-07 -3.428571E-07 -3.181301E-16  3.762781E-16  4.456168E-16  2.622674E-16
         8   3 -3.428571E-07 -3.428571E-07 -7.180669E-16  1.368284E-16  4.509408E-16  1.043707E-15
         8   4 -3.428571E-07 -3.428571E-07 -5.553352E-16  6.318885E-36  4.509408E-16  4.675100E-16
         8   5 -3.428571E-07 -3.428571E-07 -2.422699E-15 -5.473136E-16 -6.623603E-16 -1.900380E-16
         8   6 -3.428571E-07 -3.428571E-07 -4.207514E-16  5.473136E-16  5.598878E-17 -3.662454E-16
         8   7 -3.428571E-07 -3.428571E-07 -2.360008E-15 -5.473136E-16  4.613021E-16  3.572756E-16
         8   8 -3.428571E-07 -3.428571E-07 -1.786791E-15  5.473136E-16 -2.912541E-16 -1.610028E-16
         9   1 -3.428571E-07 -3.428571E-07 -1.382733E-15 -5.980504E-36  2.551169E-16 -8.660054E-16
         9   2 -3.428571E-07 -3.428571E-07 -6.883924E-16  2.736568E-16 -4.290251E-16  4.427624E-16
         9   3 -3.428571E-07 -3.428571E-07 -1.166258E-15  1.518210E-35 -6.253697E-16 -1.002834E-15
         9   4 -3.428571E-07 -3.428571E-07 -1.494148E-15 -6.841420E-17  1.956007E-16  1.691056E-16
         9   5 -3.428571E-07 -3.428571E-07 -3.024673E-15 -2.189254E-15  6.763638E-17  3.425775E-16
         9   6 -3.428571E-07 -3.428571E-07 -1.919848E-15 -5.473136E-16  2.044648E-16  1.204600E-16
         9   7 -3.428571E-07 -3.428571E-07 -2.808198E-15 -2.189254E-15 -2.913095E-16 -2.047361E-16
         9   8 -3.428571E-07 -3.428571E-07 -2.930846E-15  1.972301E-36  1.191757E-16  3.941168E-16

 strains (elem, integ.pnt.,exx,eyy,ezz,exy,exz,eyz) forset EALL and time  0.2000000E-02

         1   1 -1.142857E-12 -1.142857E-12  9.795918E-13  4.733165E-29  2.839899E-29 -1.071563E-40
         1   2 -1.142857E-12 -1.142857E-12  9.795918E-13  2.271919E-28  1.388395E-28 -1.893266E-29
         1   3 -1.142857E-12 -1.142857E-12  9.795918E-13  9.466331E-30  1.262177E-29  1.514613E-28
         1   4 -1.142857E-12 -1.142857E-12  9.795918E-13  1.893266E-28  7.573065E-29  1.325286E-28
         1   5 -1.142857E-12 -1.142857E-12  9.795918E-13  2.524355E-29 -1.104405E-28 -1.514613E-28
         1   6 -1.142857E-12 -1.142857E-12  9.795918E-13  8.835242E-29 -3.214689E-40 -7.573065E-29
         1   7 -1.142857E-12 -1.142857E-12  9.795918E-13  3.786532E-29 -6.310887E-29 -4.286251E-40
         1   8 -1.142857E-12 -1.142857E-12  9.795918E-13  1.514613E-28  5.048710E-29  7.573065E-29
         2   1 -1.142857E-12 -1.142857E-12  9.795918E-13 -1.539330E-22  1.423317E-21  1.293628E-22
         2   2 -1.142857E-12 -1.142857E-12  9.795918E-13 -3.656913E-22  9.998003E-22 -7.336432E-23
         2   3 -1.142857E-12 -1.142857E-12  9.795918E-13 -5.744859E-22  6.549113E-21 -1.696457E-22
         2   4 -1.142857E-12 -1.142857E-12  9.795918E-13 -5.744859E-22 -3.615283E-21  1.117227E-22
         2   5 -1.142857E-12 -1.142857E-12  9.795918E-13 -3.293997E-21  1.840685E-21  7.817972E-22
         2   6 -1.142857E-12 -1.142857E-12  9.795918E-13 -2.446964E-21  6.287608E-21 -4.588863E-22
         2   7 -1.142857E-12 -1.142857E-12  9.795918E-13 -3.036816E-21 -8.477393E-22  4.827887E-22
         2   8 -1.142857E-12 -1.142857E-12  9.795918E-13 -1.342750E-21 -8.477393E-22 -2.737994E-22
         3   1 -1.142857E-12 -1.142857E-12  9.795918E-13 -6.729269E-21  7.710418E-21  1.860040E-22
         3   2 -1.142857E-12 -1.142857E-12  9.795918E-13  2.164577E-21 -5.842109E-21 -1.036057E-22
         3   3 -1.142857E-12 -1.142857E-12  9.795918E-13 -6.600879E-21 -3.141252E-22 -1.527683E-22
         3   4 -1.142857E-12 -1.142857E-12  9.795918E-13  1.753845E-22 -2.855224E-21 -1.373806E-22
         3   5 -1.142857E-12 -1.142857E-12  9.795918E-13 -1.334924E-20 -2.215958E-21  1.032949E-21
         3   6 -1.142857E-12 -1.142857E-12  9.795918E-13 -3.184846E-21 -1.368925E-21 -3.528869E-22
         3   7 -1.142857E-12 -1.142857E-12  9.795918E-13 -1.279385E-20 -4.560463E-21  6.941765E-22
         3   8 -1.142857E-12 -1.142857E-12  9.795918E-13  7.586723E-22  1.368768E-21 -3.866618E-22
         4   1 -1.142857E-12 -1.142857E-12  9.795918E-13 -1.576503E-22  2.173120E-23 -4.242201E-21
         4   2 -1.142857E-12 -1.142857E-12  9.795918E-13 -9.824549E-24  8.824971E-23  2.336377E-21
         4   3 -1.142857E-12 -1.142857E-12  9.795918E-13 -7.929250E-22 -4.149272E-23 -1.701102E-21
         4   4 -1.142857E-12 -1.142857E-12  9.795918E-13 -6.450993E-22 -1.861535E-22 -1.687029E-21
         4   5 -1.142857E-12 -1.142857E-12  9.795918E-13  2.486991E-21  1.458345E-23 -2.626021E-23
         4   6 -1.142857E-12 -1.142857E-12  9.795918E-13  2.339166E-21  8.110194E-23  1.508569E-21
         4   7 -1.142857E-12 -1.142857E-12  9.795918E-13 -3.442240E-21 -1.019215E-23 -2.626021E-23
         4   8 -1.142857E-12 -1.142857E-12  9.795918E-13 -3.590065E-21 -1.548529E-22 -1.244288E-21
         5   1 -1.142857E-12 -1.142857E-12  9.795918E-13  2.117582E-21 -3.655965E-22 -5.010244E-21
         5   2 -1.142857E-12 -1.142857E-12  9.795918E-13 -3.599890E-21  1.116711E-21 -4.587524E-21
         5   3 -1.142857E-12 -1.142857E-12  9.795918E-13  3.388132E-21  1.327673E-21 -4.586727E-21
         5   4 -1.142857E-12 -1.142857E-12  9.795918E-13 -1.270549E-21 -7.899093E-22 -3.740491E-21
         5   5 -1.142857E-12 -1.142857E-12  9.795918E-13  3.388132E-21 -2.073561E-22 -4.080109E-21
         5   6 -1.142857E-12 -1.142857E-12  9.795918E-13  1.694066E-21 -6.308725E-22 -2.910810E-21
         5   7 -1.142857E-12 -1.142857E-12  9.795918E-13  5.550991E-39  3.266691E-22  1.849121E-21
         5   8 -1.142857E-12 -1.142857E-12  9.795918E-13 -8.470329E-22 -5.203638E-22 -2.275535E-21
         6   1 -1.142857E-12 -1.142857E-12  9.795918E-13  1.694066E-21 -8.187752E-21  3.156190E-21
         6   2 -1.142857E-12 -1.142857E-12  9.795918E-13  1.694066E-21 -1.115237E-20 -4.109694E-21
         6   3 -1.142857E-12 -1.142857E-12  9.795918E-13  2.541099E-21 -3.595175E-21  5.273772E-21
         6   4 -1.142857E-12 -1.142857E-12  9.795918E-13  2.117582E-21  7.416253E-21  2.666570E-21
         6   5 -1.142857E-12 -1.142857E-12  9.795918E-13  7.623297E-21  1.054592E-21 -1.826132E-21
         6   6 -1.142857E-12 -1.142857E-12  9.795918E-13 -4.235165E-21 -1.910023E-21 -4.288694E-21
         6   7 -1.142857E-12 -1.142857E-12  9.795918E-13  3.388132E-21  6.003568E-21  4.103099E-21
         6   8 -1.142857E-12 -1.142857E-12  9.795918E-13  1.694066E-21 -2.466761E-21  3.969877E-21
         7   1 -1.142857E-12 -1.142857E-12  9.795918E-13  6.728699E-21  8.531431E-23  8.327136E-21
         7   2 -1.142857E-12 -1.142857E-12  9.795918E-13  6.598752E-21 -1.287435E-22  1.566734E-21
         7   3 -1.142857E-12 -1.142857E-12  9.795918E-13 -4.756419E-23 -1.694229E-22  3.244938E-21
         7   4 -1.142857E-12 -1.142857E-12  9.795918E-13 -1.775120E-22  3.429803E-23 -2.244914E-21
         7   5 -1.142857E-12 -1.142857E-12  9.795918E-13  1.665205E-22  5.324552E-22 -5.344057E-22
         7   6 -1.142857E-12 -1.142857E-12  9.795918E-13  6.214630E-22  3.183974E-22 -2.055794E-21
         7   7 -1.142857E-12 -1.142857E-12  9.795918E-13  1.665205E-22 -8.360158E-22 -3.922537E-21
         7   8 -1.142857E-12 -1.142857E-12  9.795918E-13  6.214630E-22 -6.322949E-22  3.026403E-21
         8   1 -1.142857E-12 -1.142857E-12  9.795918E-13  8.470329E-22  1.276272E-21 -5.397420E-21
         8   2 -1.142857E-12 -1.142857E-12  9.795918E-13  2.329341E-21  2.758580E-21  1.623560E-21
         8   3 -1.142857E-12 -1.142857E-12  9.795918E-13  8.470329E-22  2.791538E-21  6.461041E-21
         8   4 -1.142857E-12 -1.142857E-12  9.795918E-13  5.894614E-43  2.791538E-21  2.894109E-21
         8   5 -1.142857E-12 -1.142857E-12  9.795918E-13 -3.388132E-21 -4.100326E-21 -1.176426E-21
         8   6 -1.142857E-12 -1.142857E-12  9.795918E-13  3.388132E-21  3.465972E-22 -2.267233E-21
         8   7 -1.142857E-12 -1.142857E-12  9.795918E-13 -3.388132E-21  2.855680E-21  2.211706E-21
         8   8 -1.142857E-12 -1.142857E-12  9.795918E-13  3.388132E-21 -1.803002E-21 -9.966839E-22
         9   1 -1.142857E-12 -1.142857E-12  9.795918E-13 -1.304361E-43  1.579295E-21 -5.360986E-21
         9   2 -1.142857E-12 -1.142857E-12  9.795918E-13  1.694066E-21 -2.655870E-21  2.740910E-21
         9   3 -1.142857E-12 -1.142857E-12  9.795918E-13 -5.491569E-43 -3.871336E-21 -6.208019E-21
         9   4 -1.142857E-12 -1.142857E-12  9.795918E-13 -4.235165E-22  1.210861E-21  1.046844E-21
         9   5 -1.142857E-12 -1.142857E-12  9.795918E-13 -1.355253E-20  4.187014E-22  2.120718E-21
         9   6 -1.142857E-12 -1.142857E-12  9.795918E-13 -3.388132E-21  1.265734E-21  7.457049E-22
         9   7 -1.142857E-12 -1.142857E-12  9.795918E-13 -1.355253E-20 -1.803344E-21 -1.267414E-21
         9   8 -1.142857E-12 -1.142857E-12  9.795918E-13 -2.689525E-42  7.377546E-22  2.439771E-21

 displacements (vx,vy,vz) for set NALL and time  0.3500000E-02

         1  0.000000E+00  0.000000E+00  0.000000E+00
         2 -1.000000E-09  0.000000E+00  0.000000E+00
         3 -5.250000E-02  0.000000E+00  0.000000E+00
         4 -5.250000E-02  0.000000E+00  0.000000E+00
         5 -1.050000E-01  0.000000E+00  0.000000E+00
         6 -1.050000E-01  0.000000E+00  0.000000E+00
         7  0.000000E+00 -1.000000E-09  0.000000E+00
         8 -1.000000E-09 -1.000000E-09  0.000000E+00
         9 -5.250000E-02 -1.000000E-09  0.000000E+00
        10 -5.250000E-02 -1.000000E-09  0.000000E+00
        11 -1.050000E-01 -1.000000E-09  0.000000E+00
        12 -1.050000E-01 -1.000000E-09  0.000000E+00
        13  0.000000E+00 -5.250000E-02  0.000000E+00
        14 -1.000000E-09 -5.250000E-02  0.000000E+00
        15 -5.250000E-02 -5.250000E-02  0.000000E+00
        16 -5.250000E-02 -5.250000E-02  0.000000E+00
        17 -1.050000E-01 -5.250000E-02  0.000000E+00
        18 -1.050000E-01 -5.250000E-02  0.000000E+00
        19  0.000000E+00 -5.250000E-02  0.000000E+00
        20 -1.000000E-09 -5.250000E-02  0.000000E+00
        21 -5.250000E-02 -5.250000E-02  0.000000E+00
        22 -5.250000E-02 -5.250000E-02  0.000000E+00
        23 -1.050000E-01 -5.250000E-02  0.000000E+00
        24 -1.050000E-01 -5.250000E-02  0.000000E+00
        25  0.000000E+00 -1.050000E-01  0.000000E+00
        26 -1.000000E-09 -1.050000E-01  0.000000E+00
        27 -5.250000E-02 -1.050000E-01  0.000000E+00
        28 -5.250000E-02 -1.050000E-01  0.000000E+00
        29 -1.050000E-01 -1.050000E-01  0.000000E+00
        30 -1.050000E-01 -1.050000E-01  0.000000E+00
        31  0.000000E+00 -1.050000E-01  0.000000E+00
        32 -1.000000E-09 -1.050000E-01  0.000000E+00
        33 -5.250000E-02 -1.050000E-01  0.000000E+00
        34 -5.250000E-02 -1.050000E-01  0.000000E+00
        35 -1.050000E-01 -1.050000E-01  0.000000E+00
        36 -1.050000E-01 -1.050000E-01  0.000000E+00
        37  0.000000E+00  0.000000E+00  1.200000E-09
        38 -1.000000E-09  0.000000E+00  1.200000E-09
        39 -5.250000E-02  0.000000E+00  1.200000E-09
        40 -5.250000E-02  0.000000E+00  1.200000E-09
        41 -1.050000E-01  0.000000E+00  1.200000E-09
        42 -1.050000E-01  0.000000E+00  1.200000E-09
        43  0.000000E+00 -1.000000E-09  1.200000E-09
        44 -1.000000E-09 -1.000000E-09  1.200000E-09
        45 -5.250000E-02 -1.000000E-09  1.200000E-09
        46 -5.250000E-02 -1.000000E-09  1.200000E-09
        47 -1.050000E-01 -1.000000E-09  1.200000E-09
        48 -1.050000E-01 -1.000000E-09  1.200000E-09
        49  0.000000E+00 -5.250000E-02  1.200000E-09
        50 -1.000000E-09 -5.250000E-02  1.200000E-09
        51 -5.250000E-02 -5.250000E-02  1.200000E-09
        52 -5.250000E-02 -5.250000E-02  1.200000E-09
        53 -1.050000E-01 -5.250000E-02  1.200000E-09
        54 -1.050000E-01 -5.250000E-02  1.200000E-09
        55  0.000000E+00 -5.250000E-02  1.200000E-09
        56 -1.000000E-09 -5.250000E-02  1.200000E-09
        57 -5.250000E-02 -5.250000E-02  1.200000E-09
        58 -5.250000E-02 -5.250000E-02  1.200000E-09
        59 -1.050000E-01 -5.250000E-02  1.200000E-09
        60 -1.050000E-01 -5.250000E-02  1.200000E-09
        61  0.000000E+00 -1.050000E-01  1.200000E-09
        62 -1.000000E-09 -1.050000E-01  1.200000E-09
        63 -5.250000E-02 -1.050000E-01  1.200000E-09
        64 -5.250000E-02 -1.050000E-01  1.200000E-09
        65 -1.050000E-01 -1.050000E-01  1.200000E-09
        66 -1.050000E-01 -1.050000E-01  1.200000E-09
        67  0.000000E+00 -1.050000E-01  1.200000E-09
        68 -1.000000E-09 -1.050000E-01  1.200000E-09
        69 -5.250000E-02 -1.050000E-01  1.200000E-09
        70 -5.250000E-02 -1.050000E-01  1.200000E-09
        71 -1.050000E-01 -1.050000E-01  1.200000E-09
        72 -1.050000E-01 -1.050000E-01  1.200000E-09

 stresses (elem, integ.pnt.,sxx,syy,szz,sxy,sxz,syz) for set EALL and time  0.3500000E-02

         1   1 -6.000000E-07 -6.000000E-07 -2.341845E-51  1.121396E-23  1.325286E-23 -1.223341E-23
         1   2 -6.000000E-07 -6.000000E-07 -1.176069E-50  3.771969E-23  6.626432E-23 -2.038902E-24
         1   3 -6.000000E-07 -6.000000E-07  1.058791E-22  5.505035E-23  4.077804E-24 -4.077804E-23
         1   4 -6.000000E-07 -6.000000E-07 -1.140041E-50  8.155608E-23  3.670024E-23 -1.121396E-23
         1   5 -6.000000E-07 -6.000000E-07  2.058765E-50  1.223341E-23 -2.038902E-23 -1.223341E-23
         1   6 -6.000000E-07 -6.000000E-07  2.117582E-22 -1.223341E-23  3.262243E-23 -7.136157E-24
         1   7 -6.000000E-07 -6.000000E-07  4.446932E-50  8.971169E-23 -3.670024E-23 -4.077804E-23
         1   8 -6.000000E-07 -6.000000E-07 -8.235060E-51  6.524487E-23  8.155608E-24 -1.631122E-23
         2   1 -6.000000E-07 -6.000000E-07  2.432971E-15  1.060138E-15 -5.486685E-16  1.351859E-17
         2   2 -6.000000E-07 -6.000000E-07  2.282379E-15  1.402209E-15 -1.354914E-18 -1.729962E-17
         2   3 -6.000000E-07 -6.000000E-07  1.334259E-15  9.659129E-16  4.991918E-16 -4.369383E-17
         2   4 -6.000000E-07 -6.000000E-07  8.642430E-16  2.817709E-16 -7.322638E-16 -3.093939E-17
         2   5 -6.000000E-07 -6.000000E-07  5.682632E-16 -1.106788E-15 -5.523702E-16  1.076645E-16
         2   6 -6.000000E-07 -6.000000E-07  5.091734E-16  1.082466E-15 -1.715412E-15 -5.092334E-17
         2   7 -6.000000E-07 -6.000000E-07  8.036278E-16 -1.140012E-15  3.677205E-16  5.045206E-17
         2   8 -6.000000E-07 -6.000000E-07  4.251143E-16  1.049243E-15  2.308921E-16 -6.456311E-17
         3   1 -6.000000E-07 -6.000000E-07 -1.223757E-15 -6.709956E-17 -1.115083E-15 -8.090331E-18
         3   2 -6.000000E-07 -6.000000E-07  2.306576E-16  3.353610E-15  1.621485E-15  7.700766E-17
         3   3 -6.000000E-07 -6.000000E-07 -9.943084E-16 -2.504190E-16 -1.997208E-15 -3.987591E-17
         3   4 -6.000000E-07 -6.000000E-07  4.241708E-17 -2.504190E-16  1.286674E-15  4.447898E-16
         3   5 -6.000000E-07 -6.000000E-07 -2.642938E-16  1.376531E-16  3.976447E-16  1.592097E-18
         3   6 -6.000000E-07 -6.000000E-07  2.029213E-15  2.874221E-15 -4.917399E-16 -8.038558E-17
         3   7 -6.000000E-07 -6.000000E-07 -2.400879E-16  5.137285E-16 -3.778985E-16 -3.019348E-17
         3   8 -6.000000E-07 -6.000000E-07  1.635730E-15 -5.808987E-16  9.903855E-16  2.873965E-16
         4   1 -6.000000E-07 -6.000000E-07 -1.282294E-15  6.498432E-17  1.712018E-17  1.443191E-15
         4   2 -6.000000E-07 -6.000000E-07 -1.483946E-15  5.561371E-17 -1.963994E-17  1.216774E-15
         4   3 -6.000000E-07 -6.000000E-07 -7.847279E-16  2.702269E-16 -2.103111E-17 -4.724069E-16
         4   4 -6.000000E-07 -6.000000E-07 -1.130999E-15  2.608563E-16 -1.041750E-16 -6.304090E-16
         4   5 -6.000000E-07 -6.000000E-07 -1.359490E-15  2.464582E-16  1.006535E-16  1.100526E-15
         4   6 -6.000000E-07 -6.000000E-07  9.017689E-16  1.721504E-16  6.389336E-17  1.089919E-15
         4   7 -6.000000E-07 -6.000000E-07 -9.593300E-16  1.067429E-15  4.654695E-18 -8.150716E-16
         4   8 -6.000000E-07 -6.000000E-07 -4.846303E-16  9.931207E-16 -7.848918E-17  2.005344E-16
         5   1 -6.000000E-07 -6.000000E-07 -1.139868E-15 -1.505112E-15  7.814441E-16  3.533683E-17
         5   2 -6.000000E-07 -6.000000E-07 -1.101973E-15 -8.209704E-16 -3.952626E-17 -1.832831E-16
         5   3 -6.000000E-07 -6.000000E-07 -8.985129E-16 -1.368284E-15 -8.711065E-17  3.533683E-17
         5   4 -6.000000E-07 -6.000000E-07 -1.083004E-15 -4.104852E-16  5.970313E-16 -9.700464E-16
         5   5 -6.000000E-07 -6.000000E-07 -2.371323E-15 -5.473136E-16 -1.475140E-16 -1.646890E-15
         5   6 -6.000000E-07 -6.000000E-07 -3.462263E-15 -8.209704E-16  1.603499E-16  2.279483E-16
         5   7 -6.000000E-07 -6.000000E-07 -7.754248E-17 -1.094627E-15 -3.251014E-16  1.318788E-16
         5   8 -6.000000E-07 -6.000000E-07 -2.724945E-15 -1.094627E-15 -8.724150E-16 -5.930221E-16
         6   1 -6.000000E-07 -6.000000E-07  3.301751E-15  2.531325E-15 -8.548920E-16 -5.990124E-16
         6   2 -6.000000E-07 -6.000000E-07  3.502474E-15  8.893846E-16 -2.428419E-15 -1.474339E-16
         6   3 -6.000000E-07 -6.000000E-07  8.045572E-16  1.915598E-15 -9.164200E-16  8.512957E-17
         6   4 -6.000000E-07 -6.000000E-07  7.902797E-16 -4.104852E-16 -9.164200E-16  5.709152E-16
         6   5 -6.000000E-07 -6.000000E-07  1.865052E-15 -1.915598E-15 -1.568207E-15 -2.296057E-16
         6   6 -6.000000E-07 -6.000000E-07  4.323444E-15  2.736568E-16 -1.294551E-15 -3.908169E-16
         6   7 -6.000000E-07 -6.000000E-07  8.045572E-16 -1.094627E-15 -4.295487E-16  3.177079E-16
         6   8 -6.000000E-07 -6.000000E-07  6.947558E-15 -5.473136E-16  6.650785E-16  8.808250E-17
         7   1 -6.000000E-07 -6.000000E-07 -9.735951E-16 -2.044927E-15  2.287870E-17 -9.753820E-16
         7   2 -6.000000E-07 -6.000000E-07 -3.741525E-16 -1.650617E-15  3.381896E-16 -7.410336E-16
         7   3 -6.000000E-07 -6.000000E-07  4.323291E-16  1.443273E-16  2.497073E-17 -9.753820E-16
         7   4 -6.000000E-07 -6.000000E-07  2.165123E-15  5.386370E-16 -1.073435E-16  5.588362E-16
         7   5 -6.000000E-07 -6.000000E-07  5.095281E-16  2.104203E-15 -2.299265E-16 -3.112509E-15
         7   6 -6.000000E-07 -6.000000E-07 -3.406366E-15  1.871837E-15  8.538445E-17  1.816860E-15
         7   7 -6.000000E-07 -6.000000E-07  9.754398E-16 -8.505168E-17  2.255062E-16  1.539656E-15
         7   8 -6.000000E-07 -6.000000E-07  1.476778E-15 -3.174172E-16  9.319205E-17 -8.512935E-16
         8   1 -6.000000E-07 -6.000000E-07 -2.666322E-15 -3.797354E-37 -2.079975E-16  1.474582E-16
         8   2 -6.000000E-07 -6.000000E-07 -3.562901E-15  3.215467E-15  9.892510E-16 -3.103788E-15
         8   3 -6.000000E-07 -6.000000E-07 -1.722314E-17  1.254157E-36 -1.069474E-16 -9.471690E-16
         8   4 -6.000000E-07 -6.000000E-07 -1.319600E-16  2.120840E-15 -3.806042E-16 -1.619770E-16
         8   5 -6.000000E-07 -6.000000E-07 -2.255837E-15  1.370187E-35 -4.024351E-16 -1.912590E-15
         8   6 -6.000000E-07 -6.000000E-07  5.419509E-16 -1.094627E-15  1.478955E-15 -1.156732E-15
         8   7 -6.000000E-07 -6.000000E-07 -2.890619E-15  2.899941E-35  6.954939E-16  1.644949E-15
         8   8 -6.000000E-07 -6.000000E-07 -3.372025E-16 -8.209704E-16  5.586655E-16 -6.778324E-16
         9   1 -6.000000E-07 -6.000000E-07 -2.430439E-15  9.163511E-35 -2.607217E-15 -1.258988E-15
         9   2 -6.000000E-07 -6.000000E-07  1.169150E-16  1.368284E-16  7.450791E-16  1.617608E-16
         9   3 -6.000000E-07 -6.000000E-07 -2.094420E-15  4.311857E-37  3.186446E-16  1.092959E-16
         9   4 -6.000000E-07 -6.000000E-07 -2.175705E-15 -5.473136E-16 -1.323296E-15  2.493237E-17
         9   5 -6.000000E-07 -6.000000E-07 -1.198983E-15  2.189254E-15 -1.506178E-15 -9.603862E-16
         9   6 -6.000000E-07 -6.000000E-07  1.553613E-15  2.736568E-15  1.230390E-15  7.771909E-16
         9   7 -6.000000E-07 -6.000000E-07 -2.915390E-15  2.189254E-15 -1.000057E-15  4.078977E-16
         9   8 -6.000000E-07 -6.000000E-07 -2.380948E-15 -5.473136E-16  6.418843E-16  9.304885E-17

 strains (elem, integ.pnt.,exx,eyy,ezz,exy,exz,eyz) forset EALL and time  0.3500000E-02

         1   1 -2.000000E-12 -2.000000E-12  1.714286E-12  6.941976E-29  8.204153E-29 -7.573065E-29
         1   2 -2.000000E-12 -2.000000E-12  1.714286E-12  2.335028E-28  4.102077E-28 -1.262177E-29
         1   3 -2.000000E-12 -2.000000E-12  1.714286E-12  3.407879E-28  2.524355E-29 -2.524355E-28
         1   4 -2.000000E-12 -2.000000E-12  1.714286E-12  5.048710E-28  2.271919E-28 -6.941976E-29
         1   5 -2.000000E-12 -2.000000E-12  1.714286E-12  7.573065E-29 -1.262177E-28 -7.573065E-29
         1   6 -2.000000E-12 -2.000000E-12  1.714286E-12 -7.573065E-29  2.019484E-28 -4.417621E-29
         1   7 -2.000000E-12 -2.000000E-12  1.714286E-12  5.553581E-28 -2.271919E-28 -2.524355E-28
         1   8 -2.000000E-12 -2.000000E-12  1.714286E-12  4.038968E-28  5.048710E-29 -1.009742E-28
         2   1 -2.000000E-12 -2.000000E-12  1.714286E-12  6.562761E-21 -3.396519E-21  8.368648E-23
         2   2 -2.000000E-12 -2.000000E-12  1.714286E-12  8.680343E-21 -8.387560E-24 -1.070929E-22
         2   3 -2.000000E-12 -2.000000E-12  1.714286E-12  5.979461E-21  3.090235E-21 -2.704856E-22
         2   4 -2.000000E-12 -2.000000E-12  1.714286E-12  1.744296E-21 -4.533062E-21 -1.915296E-22
         2   5 -2.000000E-12 -2.000000E-12  1.714286E-12 -6.851544E-21 -3.419435E-21  6.664944E-22
         2   6 -2.000000E-12 -2.000000E-12  1.714286E-12  6.700983E-21 -1.061921E-20 -3.152397E-22
         2   7 -2.000000E-12 -2.000000E-12  1.714286E-12 -7.057215E-21  2.276365E-21  3.123223E-22
         2   8 -2.000000E-12 -2.000000E-12  1.714286E-12  6.495313E-21  1.429332E-21 -3.996764E-22
         3   1 -2.000000E-12 -2.000000E-12  1.714286E-12 -4.153782E-22 -6.902896E-21 -5.008300E-23
         3   2 -2.000000E-12 -2.000000E-12  1.714286E-12  2.076045E-20  1.003776E-20  4.767141E-22
         3   3 -2.000000E-12 -2.000000E-12  1.714286E-12 -1.550213E-21 -1.236367E-20 -2.468509E-22
         3   4 -2.000000E-12 -2.000000E-12  1.714286E-12 -1.550213E-21  7.965125E-21  2.753460E-21
         3   5 -2.000000E-12 -2.000000E-12  1.714286E-12  8.521384E-22  2.461610E-21  9.855839E-24
         3   6 -2.000000E-12 -2.000000E-12  1.714286E-12  1.779280E-20 -3.044104E-21 -4.976250E-22
         3   7 -2.000000E-12 -2.000000E-12  1.714286E-12  3.180224E-21 -2.339372E-21 -1.869120E-22
         3   8 -2.000000E-12 -2.000000E-12  1.714286E-12 -3.596040E-21  6.130958E-21  1.779121E-21
         4   1 -2.000000E-12 -2.000000E-12  1.714286E-12  4.022839E-22  1.059820E-22  8.934038E-21
         4   2 -2.000000E-12 -2.000000E-12  1.714286E-12  3.442754E-22 -1.215806E-22  7.532413E-21
         4   3 -2.000000E-12 -2.000000E-12  1.714286E-12  1.672833E-21 -1.301926E-22 -2.924424E-21
         4   4 -2.000000E-12 -2.000000E-12  1.714286E-12  1.614825E-21 -6.448928E-22 -3.902532E-21
         4   5 -2.000000E-12 -2.000000E-12  1.714286E-12  1.525694E-21  6.230930E-22  6.812780E-21
         4   6 -2.000000E-12 -2.000000E-12  1.714286E-12  1.065693E-21  3.955303E-22  6.747118E-21
         4   7 -2.000000E-12 -2.000000E-12  1.714286E-12  6.607892E-21  2.881478E-23 -5.045682E-21
         4   8 -2.000000E-12 -2.000000E-12  1.714286E-12  6.147890E-21 -4.858854E-22  1.241403E-21
         5   1 -2.000000E-12 -2.000000E-12  1.714286E-12 -9.317362E-21  4.837511E-21  2.187518E-22
         5   2 -2.000000E-12 -2.000000E-12  1.714286E-12 -5.082198E-21 -2.446864E-22 -1.134609E-21
         5   3 -2.000000E-12 -2.000000E-12  1.714286E-12 -8.470329E-21 -5.392564E-22  2.187518E-22
         5   4 -2.000000E-12 -2.000000E-12  1.714286E-12 -2.541099E-21  3.695908E-21 -6.005049E-21
         5   5 -2.000000E-12 -2.000000E-12  1.714286E-12 -3.388132E-21 -9.131820E-22 -1.019504E-20
         5   6 -2.000000E-12 -2.000000E-12  1.714286E-12 -5.082198E-21  9.926422E-22  1.411108E-21
         5   7 -2.000000E-12 -2.000000E-12  1.714286E-12 -6.776264E-21 -2.012532E-21  8.163927E-22
         5   8 -2.000000E-12 -2.000000E-12  1.714286E-12 -6.776264E-21 -5.400664E-21 -3.671089E-21
         6   1 -2.000000E-12 -2.000000E-12  1.714286E-12  1.567011E-20 -5.292189E-21 -3.708172E-21
         6   2 -2.000000E-12 -2.000000E-12  1.714286E-12  5.505714E-21 -1.503307E-20 -9.126859E-22
         6   3 -2.000000E-12 -2.000000E-12  1.714286E-12  1.185846E-20 -5.673076E-21  5.269926E-22
         6   4 -2.000000E-12 -2.000000E-12  1.714286E-12 -2.541099E-21 -5.673076E-21  3.534237E-21
         6   5 -2.000000E-12 -2.000000E-12  1.714286E-12 -1.185846E-20 -9.707950E-21 -1.421369E-21
         6   6 -2.000000E-12 -2.000000E-12  1.714286E-12  1.694066E-21 -8.013884E-21 -2.419343E-21
         6   7 -2.000000E-12 -2.000000E-12  1.714286E-12 -6.776264E-21 -2.659111E-21  1.966763E-21
         6   8 -2.000000E-12 -2.000000E-12  1.714286E-12 -3.388132E-21  4.117152E-21  5.452726E-22
         7   1 -2.000000E-12 -2.000000E-12  1.714286E-12 -1.265907E-20  1.416300E-22 -6.038079E-21
         7   2 -2.000000E-12 -2.000000E-12  1.714286E-12 -1.021811E-20  2.093555E-21 -4.587351E-21
         7   3 -2.000000E-12 -2.000000E-12  1.714286E-12  8.934550E-22  1.545807E-22 -6.038079E-21
         7   4 -2.000000E-12 -2.000000E-12  1.714286E-12  3.334420E-21 -6.645071E-22  3.459462E-21
         7   5 -2.000000E-12 -2.000000E-12  1.714286E-12  1.302602E-20 -1.423354E-21 -1.926791E-20
         7   6 -2.000000E-12 -2.000000E-12  1.714286E-12  1.158756E-20  5.285704E-22  1.124723E-20
         7   7 -2.000000E-12 -2.000000E-12  1.714286E-12 -5.265104E-22  1.395991E-21  9.531206E-21
         7   8 -2.000000E-12 -2.000000E-12  1.714286E-12 -1.964963E-21  5.769031E-22 -5.269912E-21
         8   1 -2.000000E-12 -2.000000E-12  1.714286E-12 -8.043378E-43 -1.287604E-21  9.128363E-22
         8   2 -2.000000E-12 -2.000000E-12  1.714286E-12  1.990527E-20  6.123935E-21 -1.921392E-20
         8   3 -2.000000E-12 -2.000000E-12  1.714286E-12 -1.208697E-42 -6.620556E-22 -5.863427E-21
         8   4 -2.000000E-12 -2.000000E-12  1.714286E-12  1.312901E-20 -2.356122E-21 -1.002715E-21
         8   5 -2.000000E-12 -2.000000E-12  1.714286E-12 -1.120298E-41 -2.491265E-21 -1.183984E-20
         8   6 -2.000000E-12 -2.000000E-12  1.714286E-12 -6.776264E-21  9.155438E-21 -7.160720E-21
         8   7 -2.000000E-12 -2.000000E-12  1.714286E-12 -1.683498E-41  4.305438E-21  1.018302E-20
         8   8 -2.000000E-12 -2.000000E-12  1.714286E-12 -5.082198E-21  3.458405E-21 -4.196105E-21
         9   1 -2.000000E-12 -2.000000E-12  1.714286E-12  3.375947E-42 -1.613991E-20 -7.793736E-21
         9   2 -2.000000E-12 -2.000000E-12  1.714286E-12  8.470329E-22  4.612394E-21  1.001376E-21
         9   3 -2.000000E-12 -2.000000E-12  1.714286E-12  2.669245E-42  1.972562E-21  6.765935E-22
         9   4 -2.000000E-12 -2.000000E-12  1.714286E-12 -3.388132E-21 -8.191834E-21  1.543432E-22
         9   5 -2.000000E-12 -2.000000E-12  1.714286E-12  1.355253E-20 -9.323959E-21 -5.945248E-21
         9   6 -2.000000E-12 -2.000000E-12  1.714286E-12  1.694066E-20  7.616700E-21  4.811182E-21
         9   7 -2.000000E-12 -2.000000E-12  1.714286E-12  1.355253E-20 -6.190826E-21  2.525081E-21
         9   8 -2.000000E-12 -2.000000E-12  1.714286E-12 -3.388132E-21  3.973569E-21  5.760167E-22

 displacements (vx,vy,vz) for set NALL and time  0.5750000E-02

         1  0.000000E+00  0.000000E+00  0.000000E+00
         2 -1.642857E-09  0.000000E+00  0.000000E+00
         3 -8.625000E-02  0.000000E+00  0.000000E+00
         4 -8.625000E-02  0.000000E+00  0.000000E+00
         5 -1.725000E-01  0.000000E+00  0.000000E+00
         6 -1.725000E-01  0.000000E+00  0.000000E+00
         7  0.000000E+00 -1.642857E-09  0.000000E+00
         8 -1.642857E-09 -1.642857E-09  0.000000E+00
         9 -8.625000E-02 -1.642857E-09  0.000000E+00
        10 -8.625000E-02 -1.642857E-09  0.000000E+00
        11 -1.725000E-01 -1.642857E-09  0.000000E+00
        12 -1.725000E-01 -1.642857E-09  0.000000E+00
        13  0.000000E+00 -8.625000E-02  0.000000E+00
        14 -1.642857E-09 -8.625000E-02  0.000000E+00
        15 -8.625000E-02 -8.625000E-02  0.000000E+00
        16 -8.625000E-02 -8.625000E-02  0.000000E+00
        17 -1.725000E-01 -8.625000E-02  0.000000E+00
        18 -1.725000E-01 -8.625000E-02  0.000000E+00
        19  0.000000E+00 -8.625000E-02  0.000000E+00
        20 -1.642857E-09 -8.625000E-02  0.000000E+00
        21 -8.625000E-02 -8.625000E-02  0.000000E+00
        22 -8.625000E-02 -8.625000E-02  0.000000E+00
        23 -1.725000E-01 -8.625000E-02  0.000000E+00
        24 -1.725000E-01 -8.625000E-02  0.000000E+00
        25  0.000000E+00 -1.725000E-01  0.000000E+00
        26 -1.642857E-09 -1.725000E-01  0.000000E+00
        27 -8.625000E-02 -1.725000E-01  0.000000E+00
        28 -8.625000E-02 -1.725000E-01  0.000000E+00
        29 -1.725000E-01 -1.725000E-01  0.000000E+00
        30 -1.725000E-01 -1.725000E-01  0.000000E+00
        31  0.000000E+00 -1.725000E-01  0.000000E+00
        32 -1.642857E-09 -1.725000E-01  0.000000E+00
        33 -8.625000E-02 -1.725000E-01  0.000000E+00
        34 -8.625000E-02 -1.725000E-01  0.000000E+00
        35 -1.725000E-01 -1.725000E-01  0.000000E+00
        36 -1.725000E-01 -1.725000E-01  0.000000E+00
        37  0.000000E+00  0.000000E+00  1.971429E-09
        38 -1.642857E-09  0.000000E+00  1.971429E-09
        39 -8.625000E-02  0.000000E+00  1.971429E-09
        40 -8.625000E-02  0.000000E+00  1.971429E-09
        41 -1.725000E-01  0.000000E+00  1.971429E-09
        42 -1.725000E-01  0.000000E+00  1.971429E-09
        43  0.000000E+00 -1.642857E-09  1.971429E-09
        44 -1.642857E-09 -1.642857E-09  1.971429E-09
        45 -8.625000E-02 -1.642857E-09  1.971429E-09
        46 -8.625000E-02 -1.642857E-09  1.971429E-09
        47 -1.725000E-01 -1.642857E-09  1.971429E-09
        48 -1.725000E-01 -1.642857E-09  1.971429E-09
        49  0.000000E+00 -8.625000E-02  1.971429E-09
        50 -1.642857E-09 -8.625000E-02  1.971429E-09
        51 -8.625000E-02 -8.625000E-02  1.971429E-09
        52 -8.625000E-02 -8.625000E-02  1.971429E-09
        53 -1.725000E-01 -8.625000E-02  1.971429E-09
        54 -1.725000E-01 -8.625000E-02  1.971429E-09
        55  0.000000E+00 -8.625000E-02  1.971429E-09
        56 -1.642857E-09 -8.625000E-02  1.971429E-09
        57 -8.625000E-02 -8.625000E-02  1.971429E-09
        58 -8.625000E-02 -8.625000E-02  1.971429E-09
        59 -1.725000E-01 -8.625000E-02  1.971429E-09
        60 -1.725000E-01 -8.625000E-02  1.971429E-09
        61  0.000000E+00 -1.725000E-01  1.971429E-09
        62 -1.642857E-09 -1.725000E-01  1.971429E-09
        63 -8.625000E-02 -1.725000E-01  1.971429E-09
        64 -8.625000E-02 -1.725000E-01  1.971429E-09
        65 -1.725000E-01 -1.725000E-01  1.971429E-09
        66 -1.725000E-01 -1.725000E-01  1.971429E-09
        67  0.000000E+00 -1.725000E-01  1.971429E-09
        68 -1.642857E-09 -1.725000E-01  1.971429E-09
        69 -8.625000E-02 -1.725000E-01  1.971429E-09
        70 -8.625000E-02 -1.725000E-01  1.971429E-09
        71 -1.725000E-01 -1.725000E-01  1.971429E-09
        72 -1.725000E-01 -1.725000E-01  1.971429E-09

 stresses (elem, integ.pnt.,sxx,syy,szz,sxy,sxz,syz) for set EALL and time  0.5750000E-02

         1   1 -9.857143E-07 -9.857143E-07  3.088147E-51  1.631122E-23 -2.344737E-23  8.155608E-24
         1   2 -9.857143E-07 -9.857143E-07  1.152908E-50  4.689475E-23 -5.708926E-23  6.116706E-24
         1   3 -9.857143E-07 -9.857143E-07 -8.235060E-51  5.912816E-23  2.446682E-23  4.077804E-23
         1   4 -9.857143E-07 -9.857143E-07  0.000000E+00  8.971169E-23  8.155608E-23  3.670024E-23
         1   5 -9.857143E-07 -9.857143E-07  5.188088E-50  5.708926E-23 -4.791420E-23 -1.631122E-23
         1   6 -9.857143E-07 -9.857143E-07  6.588048E-50  2.283570E-22 -8.155608E-23  6.116706E-24
         1   7 -9.857143E-07 -9.857143E-07  1.058791E-22  5.708926E-23  2.854463E-23  3.262243E-23
         1   8 -9.857143E-07 -9.857143E-07  1.058791E-22  2.283570E-22  8.155608E-23  3.670024E-23
         2   1 -9.857143E-07 -9.857143E-07  2.768061E-15  2.181117E-15 -2.315349E-16  7.966312E-18
         2   2 -9.857143E-07 -9.857143E-07  3.022409E-15  2.317945E-15 -6.420201E-16  3.813837E-17
         2   3 -9.857143E-07 -9.857143E-07  2.513400E-15  2.158884E-15  1.008894E-16  4.949791E-17
         2   4 -9.857143E-07 -9.857143E-07  3.169139E-15  1.064578E-16 -1.541051E-15  1.545579E-18
         2   5 -9.857143E-07 -9.857143E-07  5.976084E-16  2.141083E-15 -1.164559E-16 -1.180088E-17
         2   6 -9.857143E-07 -9.857143E-07  6.878959E-16  1.867426E-15 -7.321837E-16  1.789271E-16
         2   7 -9.857143E-07 -9.857143E-07  1.779646E-15  2.009476E-15  1.471152E-15  2.973071E-17
         2   8 -9.857143E-07 -9.857143E-07  2.271323E-15  2.009476E-15 -9.917595E-16  1.423343E-16
         3   1 -9.857143E-07 -9.857143E-07  9.166091E-16  2.037175E-15  5.376766E-16 -1.549060E-16
         3   2 -9.857143E-07 -9.857143E-07  2.275544E-16  1.216205E-15  1.271914E-16  2.583991E-16
         3   3 -9.857143E-07 -9.857143E-07  4.213363E-16  1.621687E-15  2.382881E-16 -2.158140E-16
         3   4 -9.857143E-07 -9.857143E-07  1.425642E-15  8.007163E-16 -8.563391E-16  6.493177E-16
         3   5 -9.857143E-07 -9.857143E-07  1.199187E-15 -4.299056E-15 -1.130593E-15 -5.172091E-16
         3   6 -9.857143E-07 -9.857143E-07  1.458969E-15 -3.751742E-15  2.563774E-15  5.734400E-16
         3   7 -9.857143E-07 -9.857143E-07 -2.169482E-15 -4.081987E-15  8.893033E-16 -5.781171E-16
         3   8 -9.857143E-07 -9.857143E-07 -2.163403E-16 -2.507921E-16  2.531244E-15  9.643586E-16
         4   1 -9.857143E-07 -9.857143E-07  2.392945E-15 -1.488932E-16  2.281318E-17  1.529537E-15
         4   2 -9.857143E-07 -9.857143E-07  1.468286E-15 -1.818549E-16 -3.757872E-17  1.993194E-17
         4   3 -9.857143E-07 -9.857143E-07  1.575771E-15 -2.857216E-16 -3.900586E-17  2.076851E-15
         4   4 -9.857143E-07 -9.857143E-07 -3.141297E-16 -3.186833E-16  1.178063E-16  1.993194E-17
         4   5 -9.857143E-07 -9.857143E-07  6.241809E-16 -1.744185E-16  1.455319E-16 -2.882407E-15
         4   6 -9.857143E-07 -9.857143E-07  2.572918E-15  9.670551E-17  8.513995E-17 -1.288985E-15
         4   7 -9.857143E-07 -9.857143E-07  2.631362E-16 -9.953889E-16 -3.023841E-16 -1.514123E-15
         4   8 -9.857143E-07 -9.857143E-07  1.246631E-15 -7.242649E-16 -1.455719E-16 -1.494228E-15
         5   1 -9.857142E-07 -9.857142E-07  6.681278E-15 -1.368284E-16  6.777096E-16  1.107807E-15
         5   2 -9.857143E-07 -9.857143E-07  1.803179E-15  3.694367E-15  7.461238E-16 -5.840544E-16
         5   3 -9.857142E-07 -9.857142E-07  6.976542E-15 -2.736568E-15  1.996073E-15 -1.081447E-15
         5   4 -9.857143E-07 -9.857143E-07  1.962720E-15 -9.577988E-16  1.175102E-15  7.842296E-16
         5   5 -9.857143E-07 -9.857143E-07  1.960699E-15 -2.736568E-16  2.863137E-16  3.228452E-16
         5   6 -9.857143E-07 -9.857143E-07  1.392694E-15  2.736568E-15 -1.013556E-15 -1.231746E-15
         5   7 -9.857143E-07 -9.857143E-07  2.871690E-15 -1.094627E-15  3.736634E-16  1.143816E-15
         5   8 -9.857143E-07 -9.857143E-07  2.373205E-15  2.736568E-16 -1.815591E-15 -6.844322E-16
         6   1 -9.857143E-07 -9.857143E-07 -2.299055E-15 -9.577988E-16 -1.858117E-15 -1.333029E-15
         6   2 -9.857143E-07 -9.857143E-07 -4.916836E-16  1.778769E-15  7.416226E-16  2.461451E-16
         6   3 -9.857143E-07 -9.857143E-07 -3.289714E-15 -2.736568E-16  2.115554E-15 -2.153999E-15
         6   4 -9.857143E-07 -9.857143E-07 -9.196999E-16 -2.736568E-16 -3.357582E-15  1.272358E-15
         6   5 -9.857143E-07 -9.857143E-07  1.805797E-15  5.473136E-16 -2.448721E-15 -2.057681E-15
         6   6 -9.857143E-07 -9.857143E-07  2.381713E-15  4.378509E-15  8.351603E-16  1.073786E-15
         6   7 -9.857143E-07 -9.857143E-07 -4.163174E-16 -3.011800E-35 -2.750534E-16  1.315736E-16
         6   8 -9.857143E-07 -9.857143E-07  3.117556E-16  1.094627E-15  2.722602E-16  1.757928E-15
         7   1 -9.857143E-07 -9.857143E-07 -3.326751E-15 -6.414788E-16 -9.475850E-18 -4.025332E-15
         7   2 -9.857143E-07 -9.857143E-07 -1.758449E-15 -8.987431E-16 -5.908915E-18 -3.071055E-15
         7   3 -9.857143E-07 -9.857143E-07 -1.300408E-15 -6.414788E-16  1.228722E-16 -1.836078E-15
         7   4 -9.857143E-07 -9.857143E-07  2.438428E-16 -8.987431E-16  4.976410E-16 -2.386913E-15
         7   5 -9.857143E-07 -9.857143E-07 -5.782172E-15 -2.093203E-15 -3.893130E-17 -2.513123E-15
         7   6 -9.857143E-07 -9.857142E-07  2.353894E-15 -1.830784E-15 -3.536434E-17  1.578587E-15
         7   7 -9.857143E-07 -9.857143E-07 -2.976305E-15  9.605179E-17  8.379630E-17  1.318072E-15
         7   8 -9.857143E-07 -9.857142E-07  5.135710E-15  3.584702E-16  4.585651E-16  7.576167E-16
         8   1 -9.857143E-07 -9.857143E-07 -7.948210E-16  5.473136E-16 -8.086602E-16 -3.044930E-15
         8   2 -9.857143E-07 -9.857143E-07 -7.107408E-16  1.368284E-15 -8.086602E-16 -2.981613E-15
         8   3 -9.857143E-07 -9.857143E-07  1.042492E-15 -1.641941E-15  2.124557E-16 -1.950303E-15
         8   4 -9.857143E-07 -9.857143E-07  2.904077E-15 -2.736568E-16  4.861125E-16 -2.844784E-15
         8   5 -9.857143E-07 -9.857143E-07  1.462847E-15 -1.094627E-15 -5.013713E-16 -4.581356E-15
         8   6 -9.857143E-07 -9.857143E-07 -3.378895E-15  8.209704E-16 -1.322342E-15 -2.876604E-15
         8   7 -9.857143E-07 -9.857143E-07  4.326374E-15 -3.283882E-15  7.928956E-16  5.270289E-15
         8   8 -9.857143E-07 -9.857143E-07  1.672622E-15 -1.094627E-15  1.613866E-15 -5.505210E-16
         9   1 -9.857143E-07 -9.857143E-07 -3.493141E-15 -3.831195E-15 -1.812121E-15 -3.899595E-15
         9   2 -9.857143E-07 -9.857143E-07 -5.067890E-16 -1.094627E-15  5.139615E-16 -3.179104E-15
         9   3 -9.857143E-07 -9.857143E-07 -1.453554E-15  5.473136E-16  2.055423E-15 -1.710340E-15
         9   4 -9.857143E-07 -9.857143E-07 -6.062005E-15  5.473136E-16  9.607960E-16  1.609890E-15
         9   5 -9.857143E-07 -9.857143E-07  1.022196E-15 -2.189254E-15  3.128528E-16 -1.496550E-15
         9   6 -9.857143E-07 -9.857143E-07 -5.067889E-16 -1.641941E-15  2.502107E-15  1.932812E-15
         9   7 -9.857143E-07 -9.857143E-07 -4.737435E-15  2.485434E-36 -4.994650E-16 -4.019233E-16
         9   8 -9.857143E-07 -9.857143E-07 -4.009579E-15 -5.473136E-16 -1.594092E-15  3.164268E-15

 strains (elem, integ.pnt.,exx,eyy,ezz,exy,exz,eyz) forset EALL and time  0.5750000E-02

         1   1 -3.285714E-12 -3.285714E-12  2.816326E-12  1.009742E-28 -1.451504E-28  5.048710E-29
         1   2 -3.285714E-12 -3.285714E-12  2.816326E-12  2.903008E-28 -3.534097E-28  3.786532E-29
         1   3 -3.285714E-12 -3.285714E-12  2.816326E-12  3.660315E-28  1.514613E-28  2.524355E-28
         1   4 -3.285714E-12 -3.285714E-12  2.816326E-12  5.553581E-28  5.048710E-28  2.271919E-28
         1   5 -3.285714E-12 -3.285714E-12  2.816326E-12  3.534097E-28 -2.966117E-28 -1.009742E-28
         1   6 -3.285714E-12 -3.285714E-12  2.816326E-12  1.413639E-27 -5.048710E-28  3.786532E-29
         1   7 -3.285714E-12 -3.285714E-12  2.816326E-12  3.534097E-28  1.767048E-28  2.019484E-28
         1   8 -3.285714E-12 -3.285714E-12  2.816326E-12  1.413639E-27  5.048710E-28  2.271919E-28
         2   1 -3.285714E-12 -3.285714E-12  2.816326E-12  1.350215E-20 -1.433311E-21  4.931527E-23
         2   2 -3.285714E-12 -3.285714E-12  2.816326E-12  1.434918E-20 -3.974410E-21  2.360947E-22
         2   3 -3.285714E-12 -3.285714E-12  2.816326E-12  1.336452E-20  6.245535E-22  3.064156E-22
         2   4 -3.285714E-12 -3.285714E-12  2.816326E-12  6.590246E-22 -9.539842E-21  9.567873E-24
         2   5 -3.285714E-12 -3.285714E-12  2.816326E-12  1.325432E-20 -7.209173E-22 -7.305309E-23
         2   6 -3.285714E-12 -3.285714E-12  2.816326E-12  1.156026E-20 -4.532566E-21  1.107644E-21
         2   7 -3.285714E-12 -3.285714E-12  2.816326E-12  1.243961E-20  9.107129E-21  1.840473E-22
         2   8 -3.285714E-12 -3.285714E-12  2.816326E-12  1.243961E-20 -6.139464E-21  8.811173E-22
         3   1 -3.285714E-12 -3.285714E-12  2.816326E-12  1.261108E-20  3.328474E-21 -9.589419E-22
         3   2 -3.285714E-12 -3.285714E-12  2.816326E-12  7.528886E-21  7.873753E-22  1.599614E-21
         3   3 -3.285714E-12 -3.285714E-12  2.816326E-12  1.003901E-20  1.475117E-21 -1.335991E-21
         3   4 -3.285714E-12 -3.285714E-12  2.816326E-12  4.956815E-21 -5.301147E-21  4.019586E-21
         3   5 -3.285714E-12 -3.285714E-12  2.816326E-12 -2.661320E-20 -6.998909E-21 -3.201771E-21
         3   6 -3.285714E-12 -3.285714E-12  2.816326E-12 -2.322507E-20  1.587098E-20  3.549867E-21
         3   7 -3.285714E-12 -3.285714E-12  2.816326E-12 -2.526945E-20  5.505211E-21 -3.578820E-21
         3   8 -3.285714E-12 -3.285714E-12  2.816326E-12 -1.552522E-21  1.566961E-20  5.969839E-21
         4   1 -3.285714E-12 -3.285714E-12  2.816326E-12 -9.217199E-22  1.412244E-22  9.468564E-21
         4   2 -3.285714E-12 -3.285714E-12  2.816326E-12 -1.125769E-21 -2.326302E-22  1.233882E-22
         4   3 -3.285714E-12 -3.285714E-12  2.816326E-12 -1.768753E-21 -2.414648E-22  1.285670E-20
         4   4 -3.285714E-12 -3.285714E-12  2.816326E-12 -1.972802E-21  7.292774E-22  1.233882E-22
         4   5 -3.285714E-12 -3.285714E-12  2.816326E-12 -1.079734E-21  9.009115E-22 -1.784347E-20
         4   6 -3.285714E-12 -3.285714E-12  2.816326E-12  5.986532E-22  5.270569E-22 -7.979431E-21
         4   7 -3.285714E-12 -3.285714E-12  2.816326E-12 -6.161931E-21 -1.871901E-21 -9.373143E-21
         4   8 -3.285714E-12 -3.285714E-12  2.816326E-12 -4.483544E-21 -9.011592E-22 -9.249981E-21
         5   1 -3.285714E-12 -3.285714E-12  2.816326E-12 -8.470329E-22  4.195345E-21  6.857854E-21
         5   2 -3.285714E-12 -3.285714E-12  2.816326E-12  2.286989E-20  4.618861E-21 -3.615575E-21
         5   3 -3.285714E-12 -3.285714E-12  2.816326E-12 -1.694066E-20  1.235664E-20 -6.694673E-21
         5   4 -3.285714E-12 -3.285714E-12  2.816326E-12 -5.929231E-21  7.274443E-21  4.854755E-21
         5   5 -3.285714E-12 -3.285714E-12  2.816326E-12 -1.694066E-21  1.772418E-21  1.998566E-21
         5   6 -3.285714E-12 -3.285714E-12  2.816326E-12  1.694066E-20 -6.274395E-21 -7.625093E-21
         5   7 -3.285714E-12 -3.285714E-12  2.816326E-12 -6.776264E-21  2.313154E-21  7.080763E-21
         5   8 -3.285714E-12 -3.285714E-12  2.816326E-12  1.694066E-21 -1.123937E-20 -4.236961E-21
         6   1 -3.285714E-12 -3.285714E-12  2.816326E-12 -5.929231E-21 -1.150263E-20 -8.252084E-21
         6   2 -3.285714E-12 -3.285714E-12  2.816326E-12  1.101143E-20  4.590997E-21  1.523755E-21
         6   3 -3.285714E-12 -3.285714E-12  2.816326E-12 -1.694066E-21  1.309629E-20 -1.333428E-20
         6   4 -3.285714E-12 -3.285714E-12  2.816326E-12 -1.694066E-21 -2.078503E-20  7.876502E-21
         6   5 -3.285714E-12 -3.285714E-12  2.816326E-12  3.388132E-21 -1.515875E-20 -1.273802E-20
         6   6 -3.285714E-12 -3.285714E-12  2.816326E-12  2.710505E-20  5.170040E-21  6.647246E-21
         6   7 -3.285714E-12 -3.285714E-12  2.816326E-12  1.808973E-40 -1.702712E-21  8.145033E-22
         6   8 -3.285714E-12 -3.285714E-12  2.816326E-12  6.776264E-21  1.685420E-21  1.088241E-20
         7   1 -3.285714E-12 -3.285714E-12  2.816326E-12 -3.971059E-21 -5.866003E-23 -2.491872E-20
         7   2 -3.285714E-12 -3.285714E-12  2.816326E-12 -5.563648E-21 -3.657900E-23 -1.901129E-20
         7   3 -3.285714E-12 -3.285714E-12  2.816326E-12 -3.971059E-21  7.606371E-22 -1.136620E-20
         7   4 -3.285714E-12 -3.285714E-12  2.816326E-12 -5.563648E-21  3.080635E-21 -1.477613E-20
         7   5 -3.285714E-12 -3.285714E-12  2.816326E-12 -1.295792E-20 -2.410033E-22 -1.555743E-20
         7   6 -3.285714E-12 -3.285714E-12  2.816326E-12 -1.133343E-20 -2.189221E-22  9.772206E-21
         7   7 -3.285714E-12 -3.285714E-12  2.816326E-12  5.946063E-22  5.187390E-22  8.159493E-21
         7   8 -3.285714E-12 -3.285714E-12  2.816326E-12  2.219101E-21  2.838737E-21  4.690008E-21
         8   1 -3.285714E-12 -3.285714E-12  2.816326E-12  3.388132E-21 -5.005992E-21 -1.884957E-20
         8   2 -3.285714E-12 -3.285714E-12  2.816326E-12  8.470329E-21 -5.005992E-21 -1.845760E-20
         8   3 -3.285714E-12 -3.285714E-12  2.816326E-12 -1.016440E-20  1.315202E-21 -1.207330E-20
         8   4 -3.285714E-12 -3.285714E-12  2.816326E-12 -1.694066E-21  3.009268E-21 -1.761057E-20
         8   5 -3.285714E-12 -3.285714E-12  2.816326E-12 -6.776264E-21 -3.103727E-21 -2.836077E-20
         8   6 -3.285714E-12 -3.285714E-12  2.816326E-12  5.082198E-21 -8.185925E-21 -1.780755E-20
         8   7 -3.285714E-12 -3.285714E-12  2.816326E-12 -2.032879E-20  4.908402E-21  3.262560E-20
         8   8 -3.285714E-12 -3.285714E-12  2.816326E-12 -6.776264E-21  9.990599E-21 -3.407987E-21
         9   1 -3.285714E-12 -3.285714E-12  2.816326E-12 -2.371692E-20 -1.121789E-20 -2.414035E-20
         9   2 -3.285714E-12 -3.285714E-12  2.816326E-12 -6.776264E-21  3.181667E-21 -1.968017E-20
         9   3 -3.285714E-12 -3.285714E-12  2.816326E-12  3.388132E-21  1.272405E-20 -1.058782E-20
         9   4 -3.285714E-12 -3.285714E-12  2.816326E-12  3.388132E-21  5.947784E-21  9.965988E-21
         9   5 -3.285714E-12 -3.285714E-12  2.816326E-12 -1.355253E-20  1.936708E-21 -9.264360E-21
         9   6 -3.285714E-12 -3.285714E-12  2.816326E-12 -1.016440E-20  1.548924E-20  1.196503E-20
         9   7 -3.285714E-12 -3.285714E-12  2.816326E-12 -6.842080E-41 -3.091926E-21 -2.488096E-21
         9   8 -3.285714E-12 -3.285714E-12  2.816326E-12 -3.388132E-21 -9.868190E-21  1.958832E-20

 displacements (vx,vy,vz) for set NALL and time  0.9125000E-02

         1  0.000000E+00  0.000000E+00  0.000000E+00
         2 -2.607143E-09  0.000000E+00  0.000000E+00
         3 -1.368750E-01  0.000000E+00  0.000000E+00
         4 -1.368750E-01  0.000000E+00  0.000000E+00
         5 -2.737500E-01  0.000000E+00  0.000000E+00
         6 -2.737500E-01  0.000000E+00  0.000000E+00
         7  0.000000E+00 -2.607143E-09  0.000000E+00
         8 -2.607143E-09 -2.607143E-09  0.000000E+00
         9 -1.368750E-01 -2.607143E-09  0.000000E+00
        10 -1.368750E-01 -2.607143E-09  0.000000E+00
        11 -2.737500E-01 -2.607143E-09  0.000000E+00
        12 -2.737500E-01 -2.607143E-09  0.000000E+00
        13  0.000000E+00 -1.368750E-01  0.000000E+00
        14 -2.607143E-09 -1.368750E-01  0.000000E+00
        15 -1.368750E-01 -1.368750E-01  0.000000E+00
        16 -1.368750E-01 -1.368750E-01  0.000000E+00
        17 -2.737500E-01 -1.368750E-01  0.000000E+00
        18 -2.737500E-01 -1.368750E-01  0.000000E+00
        19  0.000000E+00 -1.368750E-01  0.000000E+00
        20 -2.607143E-09 -1.368750E-01  0.000000E+00
        21 -1.368750E-01 -1.368750E-01  0.000000E+00
        22 -1.368750E-01 -1.368750E-01  0.000000E+00
        23 -2.737500E-01 -1.368750E-01  0.000000E+00
        24 -2.737500E-01 -1.368750E-01  0.000000E+00
        25  0.000000E+00 -2.737500E-01  0.000000E+00
        26 -2.607143E-09 -2.737500E-01  0.000000E+00
        27 -1.368750E-01 -2.737500E-01  0.000000E+00
        28 -1.368750E-01 -2.737500E-01  0.000000E+00
        29 -2.737500E-01 -2.737500E-01  0.000000E+00
        30 -2.737500E-01 -2.737500E-01  0.000000E+00
        31  0.000000E+00 -2.737500E-01  0.000000E+00
        32 -2.607143E-09 -2.737500E-01  0.000000E+00
        33 -1.368750E-01 -2.737500E-01  0.000000E+00
        34 -1.368750E-01 -2.737500E-01  0.000000E+00
        35 -2.737500E-01 -2.737500E-01  0.000000E+00
        36 -2.737500E-01 -2.737500E-01  0.000000E+00
        37  0.000000E+00  0.000000E+00  3.128571E-09
        38 -2.607143E-09  0.000000E+00  3.128571E-09
        39 -1.368750E-01  0.000000E+00  3.128571E-09
        40 -1.368750E-01  0.000000E+00  3.128571E-09
        41 -2.737500E-01  0.000000E+00  3.128571E-09
        42 -2.737500E-01  0.000000E+00  3.128571E-09
        43  0.000000E+00 -2.607143E-09  3.128571E-09
        44 -2.607143E-09 -2.607143E-09  3.128571E-09
        45 -1.368750E-01 -2.607143E-09  3.128571E-09
        46 -1.368750E-01 -2.607143E-09  3.128571E-09
        47 -2.737500E-01 -2.607143E-09  3.128571E-09
        48 -2.737500E-01 -2.607143E-09  3.128571E-09
        49  0.000000E+00 -1.368750E-01  3.128571E-09
        50 -2.607143E-09 -1.368750E-01  3.128571E-09
        51 -1.368750E-01 -1.368750E-01  3.128571E-09
        52 -1.368750E-01 -1.368750E-01  3.128571E-09
        53 -2.737500E-01 -1.368750E-01  3.128571E-09
        54 -2.737500E-01 -1.368750E-01  3.128571E-09
        55  0.000000E+00 -1.368750E-01  3.128571E-09
        56 -2.607143E-09 -1.368750E-01  3.128571E-09
        57 -1.368750E-01 -1.368750E-01  3.128571E-09
        58 -1.368750E-01 -1.368750E-01  3.128571E-09
        59 -2.737500E-01 -1.368750E-01  3.128571E-09
        60 -2.737500E-01 -1.368750E-01  3.128571E-09
        61  0.000000E+00 -2.737500E-01  3.128571E-09
        62 -2.607143E-09 -2.737500E-01  3.128571E-09
        63 -1.368750E-01 -2.737500E-01  3.128571E-09
        64 -1.368750E-01 -2.737500E-01  3.128571E-09
        65 -2.737500E-01 -2.737500E-01  3.128571E-09
        66 -2.737500E-01 -2.737500E-01  3.128571E-09
        67  0.000000E+00 -2.737500E-01  3.128571E-09
        68 -2.607143E-09 -2.737500E-01  3.128571E-09
        69 -1.368750E-01 -2.737500E-01  3.128571E-09
        70 -1.368750E-01 -2.737500E-01  3.128571E-09
        71 -2.737500E-01 -2.737500E-01  3.128571E-09
        72 -2.737500E-01 -2.737500E-01  3.128571E-09

 stresses (elem, integ.pnt.,sxx,syy,szz,sxy,sxz,syz) for set EALL and time  0.9125000E-02

         1   1 -1.564286E-06 -1.564286E-06 -2.117582E-22  7.747828E-23  4.077804E-24  1.631122E-23
         1   2 -1.564286E-06 -1.564286E-06  1.235259E-50  2.202014E-22 -8.155608E-24 -3.466133E-23
         1   3 -1.564286E-06 -1.564286E-06 -9.223267E-50  1.916568E-22  1.631122E-23  1.304897E-22
         1   4 -1.564286E-06 -1.564286E-06  2.117582E-22  3.343799E-22 -3.262243E-23 -1.060229E-22
         1   5 -1.564286E-06 -1.564286E-06 -2.117582E-22 -4.893365E-23  2.854463E-23 -1.631122E-23
         1   6 -1.564286E-06 -1.564286E-06  5.435139E-50  2.446682E-23  1.631122E-23 -5.097255E-23
         1   7 -1.564286E-06 -1.564286E-06 -1.185849E-49 -2.365126E-22  5.708926E-23  1.304897E-22
         1   8 -1.564286E-06 -1.564286E-06 -4.235165E-22 -1.631122E-22 -6.318100E-34 -1.223341E-22
         2   1 -1.564286E-06 -1.564286E-06  1.123394E-16  2.639509E-15  1.178964E-15  9.943406E-17
         2   2 -1.564286E-06 -1.564286E-06  2.906149E-16  1.544882E-15 -4.629770E-16 -8.029328E-17
         2   3 -1.564286E-06 -1.564286E-06 -3.796919E-15  2.374340E-15 -1.335405E-15 -1.997267E-16
         2   4 -1.564286E-06 -1.564286E-06 -5.839215E-15  1.963855E-15 -7.880912E-16  1.775025E-17
         2   5 -1.564286E-06 -1.564286E-06 -1.054135E-16  2.295737E-15  1.409376E-15  6.702538E-16
         2   6 -1.564286E-06 -1.564286E-06  9.069914E-16 -4.408307E-16 -1.190364E-15 -3.977022E-16
         2   7 -1.564286E-06 -1.564286E-06 -3.604186E-15  2.586654E-15 -8.985943E-16  3.710930E-16
         2   8 -1.564286E-06 -1.564286E-06 -4.812353E-15  3.973996E-16 -1.445908E-15 -2.996587E-16
         3   1 -1.564286E-06 -1.564286E-06  2.003662E-15 -2.470051E-16 -1.774884E-15 -9.566535E-17
         3   2 -1.564286E-06 -1.564286E-06  3.821621E-15  2.215906E-15 -7.795333E-15  2.262891E-16
         3   3 -1.564286E-06 -1.564286E-06  5.679820E-15 -9.218356E-16  1.603880E-16 -8.423267E-16
         3   4 -1.564286E-06 -1.564286E-06  5.763044E-15  4.464484E-16 -9.342392E-16  1.053117E-15
         3   5 -1.564286E-06 -1.564286E-06  2.898584E-15 -3.819202E-15  4.518253E-16  3.896335E-16
         3   6 -1.564286E-06 -1.564286E-06  8.020871E-15 -1.629947E-15  1.781685E-16  1.769426E-17
         3   7 -1.564286E-06 -1.564286E-06  8.279493E-16 -2.291147E-15  5.985761E-16 -3.570278E-16
         3   8 -1.564286E-06 -1.564286E-06  4.215502E-15 -2.291147E-15 -1.590678E-15  8.445226E-16
         4   1 -1.564286E-06 -1.564286E-06  3.261988E-15 -7.783488E-17  2.007844E-17 -2.192096E-15
         4   2 -1.564286E-06 -1.564286E-06  5.761267E-15 -2.904837E-16 -2.680016E-16 -4.489315E-16
         4   3 -1.564286E-06 -1.564286E-06  2.923605E-15 -7.783488E-17 -1.086965E-17 -2.192096E-15
         4   4 -1.564286E-06 -1.564286E-06  4.245146E-15 -2.904837E-16  8.759387E-17 -1.817215E-15
         4   5 -1.564286E-06 -1.564286E-06 -1.447832E-15  1.202438E-16  3.630137E-16 -1.060575E-17
         4   6 -1.564286E-06 -1.564286E-06  1.051447E-15  4.487559E-16  7.493377E-17 -1.201448E-15
         4   7 -1.564286E-06 -1.564286E-06 -9.744737E-16  1.202438E-16 -1.390298E-16 -1.105233E-15
         4   8 -1.564286E-06 -1.564286E-06  3.470669E-16  4.487559E-16 -4.056616E-17 -1.748761E-15
         5   1 -1.564286E-06 -1.564286E-06  6.236190E-15  9.577988E-16  5.484842E-16 -1.458649E-15
         5   2 -1.564286E-06 -1.564286E-06  6.449428E-15 -1.641941E-15 -1.914427E-15  1.981574E-15
         5   3 -1.564286E-06 -1.564286E-06  3.793731E-15  1.426998E-34  9.784823E-16  5.656428E-15
         5   4 -1.564286E-06 -1.564286E-06  3.410932E-15 -1.778769E-15 -2.305399E-15 -1.028651E-15
         5   5 -1.564286E-06 -1.564286E-06  2.541823E-15  1.641941E-15 -1.090259E-15 -9.578855E-16
         5   6 -1.564286E-06 -1.564286E-06 -2.376004E-15  2.189254E-15  1.235824E-15  1.067199E-15
         5   7 -1.564286E-06 -1.564286E-06  5.435672E-15 -2.189254E-15  6.611686E-16  2.873310E-15
         5   8 -1.564286E-06 -1.564286E-06  1.358506E-15 -1.094627E-15 -2.075399E-15  7.935417E-16
         6   1 -1.564286E-06 -1.564286E-06 -2.244238E-15  3.010225E-15  4.091761E-15 -2.394665E-15
         6   2 -1.564286E-06 -1.564286E-06 -3.792278E-15  1.915598E-15 -7.949138E-15 -2.162691E-16
         6   3 -1.564286E-06 -1.564286E-06 -7.299649E-16  4.378509E-15 -2.897346E-15  1.436530E-15
         6   4 -1.564286E-06 -1.564286E-06 -5.976809E-15  3.010225E-15 -3.991974E-15  2.109814E-15
         6   5 -1.564286E-06 -1.564286E-06 -4.707149E-15 -3.831195E-15  6.592232E-15 -1.460568E-15
         6   6 -1.564286E-06 -1.564286E-06 -1.739852E-15  6.020450E-15 -3.259413E-15  2.508366E-16
         6   7 -1.564286E-06 -1.564286E-06  9.119758E-16  4.378509E-15 -4.533812E-16  2.370628E-15
         6   8 -1.564286E-06 -1.564286E-06  2.643380E-15  3.283882E-15  1.735873E-15  3.534718E-15
         7   1 -1.564286E-06 -1.564286E-06  4.514198E-15  2.610553E-16  1.040037E-16 -2.137480E-15
         7   2 -1.564286E-06 -1.564286E-06  2.302078E-15  9.742717E-16  1.236367E-16 -1.943972E-15
         7   3 -1.564286E-06 -1.564286E-06  5.937647E-15  2.610553E-16  1.284852E-16  6.619538E-15
         7   4 -1.564286E-06 -1.564286E-06  3.178100E-15  9.742717E-16  4.339735E-16  2.160880E-15
         7   5 -1.564286E-06 -1.564286E-06  1.271545E-15  4.075378E-16  3.685143E-16  2.382479E-15
         7   6 -1.564286E-06 -1.564286E-06  2.908809E-16  1.520952E-15  3.881473E-16  9.887323E-16
         7   7 -1.564286E-06 -1.564286E-06  3.295291E-15  4.075378E-16  1.740252E-16 -1.996030E-15
         7   8 -1.564286E-06 -1.564286E-06  1.767200E-15  1.520952E-15  4.795134E-16  4.272614E-15
         8   1 -1.564286E-06 -1.564286E-06  3.342430E-15  2.189254E-15 -7.185742E-16 -6.187527E-15
         8   2 -1.564286E-06 -1.564286E-06 -3.530240E-15  1.641941E-15 -3.080890E-16 -6.321523E-15
         8   3 -1.564286E-06 -1.564286E-06  6.144733E-15 -2.189254E-15  4.346909E-15  2.569490E-15
         8   4 -1.564286E-06 -1.564286E-06 -1.459833E-15 -2.052426E-15  2.704968E-15  1.067210E-15
         8   5 -1.564286E-06 -1.564286E-06 -5.571793E-16 -2.189254E-15  1.403449E-15  3.608315E-15
         8   6 -1.564286E-06 -1.564286E-06  3.693690E-16 -1.094627E-15  1.719932E-16 -8.585682E-15
         8   7 -1.564286E-06 -1.564286E-06  2.039881E-15 -2.189254E-15  4.260576E-15 -7.701941E-16
         8   8 -1.564286E-06 -1.564286E-06  1.824049E-15 -5.473136E-16  9.766943E-16 -3.386203E-15
         9   1 -1.564286E-06 -1.564286E-06  5.929070E-15  8.757018E-15 -5.223327E-15 -5.946408E-16
         9   2 -1.564286E-06 -1.564286E-06 -6.321201E-15  9.851645E-15 -3.581386E-15 -5.386597E-15
         9   3 -1.564286E-06 -1.564286E-06  1.180695E-14 -1.194573E-34 -1.805580E-15  2.689241E-15
         9   4 -1.564286E-06 -1.564286E-06  4.986340E-15 -2.736568E-16  2.572929E-15 -4.607749E-16
         9   5 -1.564286E-06 -1.564286E-06  5.108099E-15 -4.378509E-15  3.121554E-15  2.960602E-15
         9   6 -1.564286E-06 -1.564286E-06  6.814326E-15 -2.189254E-15 -2.077925E-15 -6.446556E-16
         9   7 -1.564286E-06 -1.564286E-06  5.239188E-15 -4.378509E-15 -7.573603E-16  4.055229E-15
         9   8 -1.564286E-06 -1.564286E-06  4.575855E-15 -4.378509E-15 -7.573603E-16  2.365569E-15

 strains (elem, integ.pnt.,exx,eyy,ezz,exy,exz,eyz) forset EALL and time  0.9125000E-02

         1   1 -5.214286E-12 -5.214286E-12  4.469388E-12  4.796274E-28  2.524355E-29  1.009742E-28
         1   2 -5.214286E-12 -5.214286E-12  4.469388E-12  1.363152E-27 -5.048710E-29 -2.145702E-28
         1   3 -5.214286E-12 -5.214286E-12  4.469388E-12  1.186447E-27  1.009742E-28  8.077936E-28
         1   4 -5.214286E-12 -5.214286E-12  4.469388E-12  2.069971E-27 -2.019484E-28 -6.563323E-28
         1   5 -5.214286E-12 -5.214286E-12  4.469388E-12 -3.029226E-28  1.767048E-28 -1.009742E-28
         1   6 -5.214286E-12 -5.214286E-12  4.469388E-12  1.514613E-28  1.009742E-28 -3.155444E-28
         1   7 -5.214286E-12 -5.214286E-12  4.469388E-12 -1.464126E-27  3.534097E-28  8.077936E-28
         1   8 -5.214286E-12 -5.214286E-12  4.469388E-12 -1.009742E-27  3.911204E-39 -7.573065E-28
         2   1 -5.214286E-12 -5.214286E-12  4.469388E-12  1.633982E-20  7.298347E-21  6.155442E-22
         2   2 -5.214286E-12 -5.214286E-12  4.469388E-12  9.563555E-21 -2.866048E-21 -4.970537E-22
         2   3 -5.214286E-12 -5.214286E-12  4.469388E-12  1.469829E-20 -8.266792E-21 -1.236404E-21
         2   4 -5.214286E-12 -5.214286E-12  4.469388E-12  1.215719E-20 -4.878660E-21  1.098825E-22
         2   5 -5.214286E-12 -5.214286E-12  4.469388E-12  1.421171E-20  8.724707E-21  4.149190E-21
         2   6 -5.214286E-12 -5.214286E-12  4.469388E-12 -2.728952E-21 -7.368919E-21 -2.461966E-21
         2   7 -5.214286E-12 -5.214286E-12  4.469388E-12  1.601262E-20 -5.562727E-21  2.297242E-21
         2   8 -5.214286E-12 -5.214286E-12  4.469388E-12  2.460092E-21 -8.950858E-21 -1.855030E-21
         3   1 -5.214286E-12 -5.214286E-12  4.469388E-12 -1.529079E-21 -1.098738E-20 -5.922141E-22
         3   2 -5.214286E-12 -5.214286E-12  4.469388E-12  1.371751E-20 -4.825683E-20  1.400838E-21
         3   3 -5.214286E-12 -5.214286E-12  4.469388E-12 -5.706602E-21  9.928781E-22 -5.214403E-21
         3   4 -5.214286E-12 -5.214286E-12  4.469388E-12  2.763728E-21 -5.783386E-21  6.519298E-21
         3   5 -5.214286E-12 -5.214286E-12  4.469388E-12 -2.364268E-20  2.797013E-21  2.412017E-21
         3   6 -5.214286E-12 -5.214286E-12  4.469388E-12 -1.009015E-20  1.102948E-21  1.095359E-22
         3   7 -5.214286E-12 -5.214286E-12  4.469388E-12 -1.418329E-20  3.705471E-21 -2.210172E-21
         3   8 -5.214286E-12 -5.214286E-12  4.469388E-12 -1.418329E-20 -9.847056E-21  5.227997E-21
         4   1 -5.214286E-12 -5.214286E-12  4.469388E-12 -4.818350E-22  1.242951E-22 -1.357012E-20
         4   2 -5.214286E-12 -5.214286E-12  4.469388E-12 -1.798233E-21 -1.659057E-21 -2.779100E-21
         4   3 -5.214286E-12 -5.214286E-12  4.469388E-12 -4.818350E-22 -6.728830E-23 -1.357012E-20
         4   4 -5.214286E-12 -5.214286E-12  4.469388E-12 -1.798233E-21  5.422478E-22 -1.124943E-20
         4   5 -5.214286E-12 -5.214286E-12  4.469388E-12  7.443662E-22  2.247228E-21 -6.565463E-23
         4   6 -5.214286E-12 -5.214286E-12  4.469388E-12  2.778013E-21  4.638757E-22 -7.437533E-21
         4   7 -5.214286E-12 -5.214286E-12  4.469388E-12  7.443662E-22 -8.606604E-22 -6.841918E-21
         4   8 -5.214286E-12 -5.214286E-12  4.469388E-12  2.778013E-21 -2.511238E-22 -1.082566E-20
         5   1 -5.214286E-12 -5.214286E-12  4.469388E-12  5.929231E-21  3.395378E-21 -9.029730E-21
         5   2 -5.214286E-12 -5.214286E-12  4.469388E-12 -1.016440E-20 -1.185121E-20  1.226689E-20
         5   3 -5.214286E-12 -5.214286E-12  4.469388E-12 -1.631630E-42  6.057272E-21  3.501598E-20
         5   4 -5.214286E-12 -5.214286E-12  4.469388E-12 -1.101143E-20 -1.427152E-20 -6.367837E-21
         5   5 -5.214286E-12 -5.214286E-12  4.469388E-12  1.016440E-20 -6.749220E-21 -5.929767E-21
         5   6 -5.214286E-12 -5.214286E-12  4.469388E-12  1.355253E-20  7.650340E-21  6.606467E-21
         5   7 -5.214286E-12 -5.214286E-12  4.469388E-12 -1.355253E-20  4.092949E-21  1.778716E-20
         5   8 -5.214286E-12 -5.214286E-12  4.469388E-12 -6.776264E-21 -1.284771E-20  4.912401E-21
         6   1 -5.214286E-12 -5.214286E-12  4.469388E-12  1.863472E-20  2.532995E-20 -1.482411E-20
         6   2 -5.214286E-12 -5.214286E-12  4.469388E-12  1.185846E-20 -4.920895E-20 -1.338809E-21
         6   3 -5.214286E-12 -5.214286E-12  4.469388E-12  2.710505E-20 -1.793595E-20  8.892808E-21
         6   4 -5.214286E-12 -5.214286E-12  4.469388E-12  1.863472E-20 -2.471222E-20  1.306075E-20
         6   5 -5.214286E-12 -5.214286E-12  4.469388E-12 -2.371692E-20  4.080906E-20 -9.041608E-21
         6   6 -5.214286E-12 -5.214286E-12  4.469388E-12  3.726945E-20 -2.017732E-20  1.552798E-21
         6   7 -5.214286E-12 -5.214286E-12  4.469388E-12  2.710505E-20 -2.806645E-21  1.467531E-20
         6   8 -5.214286E-12 -5.214286E-12  4.469388E-12  2.032879E-20  1.074588E-20  2.188159E-20
         7   1 -5.214286E-12 -5.214286E-12  4.469388E-12  1.616057E-21  6.438327E-22 -1.323202E-20
         7   2 -5.214286E-12 -5.214286E-12  4.469388E-12  6.031206E-21  7.653701E-22 -1.203411E-20
         7   3 -5.214286E-12 -5.214286E-12  4.469388E-12  1.616057E-21  7.953847E-22  4.097809E-20
         7   4 -5.214286E-12 -5.214286E-12  4.469388E-12  6.031206E-21  2.686503E-21  1.337688E-20
         7   5 -5.214286E-12 -5.214286E-12  4.469388E-12  2.522853E-21  2.281279E-21  1.474868E-20
         7   6 -5.214286E-12 -5.214286E-12  4.469388E-12  9.415415E-21  2.402817E-21  6.120724E-21
         7   7 -5.214286E-12 -5.214286E-12  4.469388E-12  2.522853E-21  1.077299E-21 -1.235638E-20
         7   8 -5.214286E-12 -5.214286E-12  4.469388E-12  9.415415E-21  2.968416E-21  2.644951E-20
         8   1 -5.214286E-12 -5.214286E-12  4.469388E-12  1.355253E-20 -4.448317E-21 -3.830374E-20
         8   2 -5.214286E-12 -5.214286E-12  4.469388E-12  1.016440E-20 -1.907218E-21 -3.913324E-20
         8   3 -5.214286E-12 -5.214286E-12  4.469388E-12 -1.355253E-20  2.690944E-20  1.590637E-20
         8   4 -5.214286E-12 -5.214286E-12  4.469388E-12 -1.270549E-20  1.674504E-20  6.606540E-21
         8   5 -5.214286E-12 -5.214286E-12  4.469388E-12 -1.355253E-20  8.688017E-21  2.233719E-20
         8   6 -5.214286E-12 -5.214286E-12  4.469388E-12 -6.776264E-21  1.064720E-21 -5.314946E-20
         8   7 -5.214286E-12 -5.214286E-12  4.469388E-12 -1.355253E-20  2.637499E-20 -4.767868E-21
         8   8 -5.214286E-12 -5.214286E-12  4.469388E-12 -3.388132E-21  6.046203E-21 -2.096221E-20
         9   1 -5.214286E-12 -5.214286E-12  4.469388E-12  5.421011E-20 -3.233488E-20 -3.681110E-21
         9   2 -5.214286E-12 -5.214286E-12  4.469388E-12  6.098637E-20 -2.217049E-20 -3.334560E-20
         9   3 -5.214286E-12 -5.214286E-12  4.469388E-12  1.470279E-41 -1.117740E-20  1.664768E-20
         9   4 -5.214286E-12 -5.214286E-12  4.469388E-12 -1.694066E-21  1.592766E-20 -2.852416E-21
         9   5 -5.214286E-12 -5.214286E-12  4.469388E-12 -2.710505E-20  1.932390E-20  1.832753E-20
         9   6 -5.214286E-12 -5.214286E-12  4.469388E-12 -1.355253E-20 -1.286335E-20 -3.990725E-21
         9   7 -5.214286E-12 -5.214286E-12  4.469388E-12 -2.710505E-20 -4.688421E-21  2.510380E-20
         9   8 -5.214286E-12 -5.214286E-12  4.469388E-12 -2.710505E-20 -4.688421E-21  1.464400E-20

 displacements (vx,vy,vz) for set NALL and time  0.1418750E-01

         1  0.000000E+00  0.000000E+00  0.000000E+00
         2 -4.053571E-09  0.000000E+00  0.000000E+00
         3 -2.128125E-01  0.000000E+00  0.000000E+00
         4 -2.128125E-01  0.000000E+00  0.000000E+00
         5 -4.256250E-01  0.000000E+00  0.000000E+00
         6 -4.256250E-01  0.000000E+00  0.000000E+00
         7  0.000000E+00 -4.053571E-09  0.000000E+00
         8 -4.053571E-09 -4.053571E-09  0.000000E+00
         9 -2.128125E-01 -4.053571E-09  0.000000E+00
        10 -2.128125E-01 -4.053571E-09  0.000000E+00
        11 -4.256250E-01 -4.053571E-09  0.000000E+00
        12 -4.256250E-01 -4.053571E-09  0.000000E+00
        13  0.000000E+00 -2.128125E-01  0.000000E+00
        14 -4.053571E-09 -2.128125E-01  0.000000E+00
        15 -2.128125E-01 -2.128125E-01  0.000000E+00
        16 -2.128125E-01 -2.128125E-01  0.000000E+00
        17 -4.256250E-01 -2.128125E-01  0.000000E+00
        18 -4.256250E-01 -2.128125E-01  0.000000E+00
        19  0.000000E+00 -2.128125E-01  0.000000E+00
        20 -4.053571E-09 -2.128125E-01  0.000000E+00
        21 -2.128125E-01 -2.128125E-01  0.000000E+00
        22 -2.128125E-01 -2.128125E-01  0.000000E+00
        23 -4.256250E-01 -2.128125E-01  0.000000E+00
        24 -4.256250E-01 -2.128125E-01  0.000000E+00
        25  0.000000E+00 -4.256250E-01  0.000000E+00
        26 -4.053571E-09 -4.256250E-01  0.000000E+00
        27 -2.128125E-01 -4.256250E-01  0.000000E+00
        28 -2.128125E-01 -4.256250E-01  0.000000E+00
        29 -4.256250E-01 -4.256250E-01  0.000000E+00
        30 -4.256250E-01 -4.256250E-01  0.000000E+00
        31  0.000000E+00 -4.256250E-01  0.000000E+00
        32 -4.053571E-09 -4.256250E-01  0.000000E+00
        33 -2.128125E-01 -4.256250E-01  0.000000E+00
        34 -2.128125E-01 -4.256250E-01  0.000000E+00
        35 -4.256250E-01 -4.256250E-01  0.000000E+00
        36 -4.256250E-01 -4.256250E-01  0.000000E+00
        37  0.000000E+00  0.000000E+00  4.864286E-09
        38 -4.053571E-09  0.000000E+00  4.864286E-09
        39 -2.128125E-01  0.000000E+00  4.864286E-09
        40 -2.128125E-01  0.000000E+00  4.864286E-09
        41 -4.256250E-01  0.000000E+00  4.864286E-09
        42 -4.256250E-01  0.000000E+00  4.864286E-09
        43  0.000000E+00 -4.053571E-09  4.864286E-09
        44 -4.053571E-09 -4.053571E-09  4.864286E-09
        45 -2.128125E-01 -4.053571E-09  4.864286E-09
        46 -2.128125E-01 -4.053571E-09  4.864286E-09
        47 -4.256250E-01 -4.053571E-09  4.864286E-09
        48 -4.256250E-01 -4.053571E-09  4.864286E-09
        49  0.000000E+00 -2.128125E-01  4.864286E-09
        50 -4.053571E-09 -2.128125E-01  4.864286E-09
        51 -2.128125E-01 -2.128125E-01  4.864286E-09
        52 -2.128125E-01 -2.128125E-01  4.864286E-09
        53 -4.256250E-01 -2.128125E-01  4.864286E-09
        54 -4.256250E-01 -2.128125E-01  4.864286E-09
        55  0.000000E+00 -2.128125E-01  4.864286E-09
        56 -4.053571E-09 -2.128125E-01  4.864286E-09
        57 -2.128125E-01 -2.128125E-01  4.864286E-09
        58 -2.128125E-01 -2.128125E-01  4.864286E-09
        59 -4.256250E-01 -2.128125E-01  4.864286E-09
        60 -4.256250E-01 -2.128125E-01  4.864286E-09
        61  0.000000E+00 -4.256250E-01  4.864286E-09
        62 -4.053571E-09 -4.256250E-01  4.864286E-09
        63 -2.128125E-01 -4.256250E-01  4.864286E-09
        64 -2.128125E-01 -4.256250E-01  4.864286E-09
        65 -4.256250E-01 -4.256250E-01  4.864286E-09
        66 -4.256250E-01 -4.256250E-01  4.864286E-09
        67  0.000000E+00 -4.256250E-01  4.864286E-09
        68 -4.053571E-09 -4.256250E-01  4.864286E-09
        69 -2.128125E-01 -4.256250E-01  4.864286E-09
        70 -2.128125E-01 -4.256250E-01  4.864286E-09
        71 -4.256250E-01 -4.256250E-01  4.864286E-09
        72 -4.256250E-01 -4.256250E-01  4.864286E-09

 stresses (elem, integ.pnt.,sxx,syy,szz,sxy,sxz,syz) for set EALL and time  0.1418750E-01

         1   1 -2.432143E-06 -2.432143E-06  4.235165E-22  1.631122E-23 -8.155608E-23  1.141785E-22
         1   2 -2.432143E-06 -2.432143E-06  8.470329E-22 -1.060229E-22 -2.772907E-22 -1.631122E-23
         1   3 -2.432143E-06 -2.432143E-06 -4.235165E-22  3.180687E-22  3.262243E-23  4.240916E-22
         1   4 -2.432143E-06 -2.432143E-06  4.235165E-22  1.957346E-22  1.957346E-22 -3.262243E-23
         1   5 -2.432143E-06 -2.432143E-06  8.470329E-22  6.524487E-23 -8.155608E-23 -1.631122E-23
         1   6 -2.432143E-06 -2.432143E-06  5.336319E-49  4.077804E-22 -2.772907E-22 -1.468009E-22
         1   7 -2.432143E-06 -2.432143E-06  4.235165E-22 -8.155608E-23  4.893365E-23  2.609795E-22
         1   8 -2.432143E-06 -2.432143E-06  4.235165E-22  2.609795E-22  1.957346E-22 -1.631122E-22
         2   1 -2.432143E-06 -2.432143E-06  6.366151E-15  1.147788E-15 -3.518987E-15 -1.613058E-16
         2   2 -2.432143E-06 -2.432143E-06  4.978208E-15 -2.204962E-16 -2.698016E-15  1.884150E-16
         2   3 -2.432143E-06 -2.432143E-06  2.656808E-16  1.293025E-15  2.456853E-15  3.205149E-17
         2   4 -2.432143E-06 -2.432143E-06  2.311273E-15 -4.453768E-15  8.149127E-16 -3.618674E-17
         2   5 -2.432143E-06 -2.432143E-06  7.182686E-15 -1.610164E-16 -4.161307E-15 -7.953588E-16
         2   6 -2.432143E-06 -2.432143E-06  4.917030E-15  2.028238E-15 -3.613993E-15  9.277760E-16
         2   7 -2.432143E-06 -2.432143E-06  7.239494E-15 -6.009215E-16 -1.190561E-15 -6.020015E-16
         2   8 -2.432143E-06 -2.432143E-06  8.407373E-15 -1.695549E-15  2.093321E-15  7.031743E-16
         3   1 -2.432143E-06 -2.432143E-06 -5.085188E-15 -4.163622E-16  1.146635E-15  3.316486E-16
         3   2 -2.432143E-06 -2.432143E-06  1.040194E-15  5.056774E-15 -7.689623E-16 -3.595756E-16
         3   3 -2.432143E-06 -2.432143E-06 -1.282576E-15 -1.553885E-15 -2.192658E-17 -2.833152E-16
         3   4 -2.432143E-06 -2.432143E-06 -3.138622E-15 -1.006571E-15 -2.192658E-17  3.295716E-16
         3   5 -2.432143E-06 -2.432143E-06 -1.294437E-14 -8.505107E-15 -9.920744E-17  1.852693E-15
         3   6 -2.432143E-06 -2.432143E-06 -4.080361E-15 -6.315853E-15 -1.193835E-15 -2.031102E-15
         3   7 -2.432143E-06 -2.432143E-06 -5.857882E-15 -7.816874E-15 -4.460340E-15  1.237729E-15
         3   8 -2.432143E-06 -2.432143E-06 -4.975295E-15 -1.249111E-15 -2.271086E-15 -1.341954E-15
         4   1 -2.432143E-06 -2.432143E-06  7.068706E-16  2.308556E-16  3.219547E-17  1.243398E-16
         4   2 -2.432143E-06 -2.432143E-06  1.545610E-15  1.139206E-16  1.130476E-16  2.068270E-15
         4   3 -2.432143E-06 -2.432143E-06  1.380724E-15 -4.280119E-17  7.466038E-17 -2.064915E-15
         4   4 -2.432143E-06 -2.432143E-06  2.412980E-15 -1.597362E-16  1.941227E-16  6.999860E-16
         4   5 -2.432143E-06 -2.432143E-06 -5.691103E-15  1.071611E-15  3.930302E-17 -6.305848E-16
         4   6 -2.432143E-06 -2.432143E-06 -7.475121E-16  1.008731E-15  1.201551E-16  1.253923E-15
         4   7 -2.432143E-06 -2.432143E-06 -4.936168E-15 -2.301596E-17  1.591741E-16  4.640424E-16
         4   8 -2.432143E-06 -2.432143E-06  2.009391E-16 -8.589676E-17  2.786364E-16  1.664408E-15
         5   1 -2.432143E-06 -2.432143E-06 -4.902816E-15 -1.733426E-31 -6.544190E-16  3.634536E-15
         5   2 -2.432143E-06 -2.432143E-06 -4.402904E-15 -1.387105E-31 -9.280758E-16  3.618644E-15
         5   3 -2.432143E-06 -2.432143E-06 -2.097320E-15 -3.283882E-15 -3.966534E-16  3.506540E-16
         5   4 -2.432143E-06 -2.432143E-06 -1.522632E-15 -1.915598E-15 -4.775162E-15 -1.033521E-15
         5   5 -2.432143E-06 -2.432143E-06 -1.270203E-14 -3.283882E-15 -2.041664E-15 -1.975223E-15
         5   6 -2.432143E-06 -2.432143E-06 -5.223875E-15 -2.189254E-15  5.580759E-16  1.185850E-15
         5   7 -2.432143E-06 -2.432143E-06 -2.097320E-15 -4.378509E-15 -5.858839E-15  1.308658E-15
         5   8 -2.432143E-06 -2.432143E-06 -8.090395E-15 -2.189254E-15 -6.406153E-15  5.153873E-15
         6   1 -2.432143E-06 -2.432143E-06 -1.209232E-15  1.368284E-15  3.136867E-15 -3.876470E-15
         6   2 -2.432143E-06 -2.432143E-06  6.084050E-15  1.915598E-15 -8.356719E-15 -4.173832E-15
         6   3 -2.432143E-06 -2.432143E-06  1.398787E-15  2.189254E-15  9.407267E-15  2.691293E-15
         6   4 -2.432143E-06 -2.432143E-06 -2.369629E-15 -2.736568E-15 -4.443776E-16  5.130499E-15
         6   5 -2.432143E-06 -2.432143E-06 -1.516573E-14 -2.189254E-15  4.631164E-15  4.062890E-15
         6   6 -2.432143E-06 -2.432143E-06 -3.767595E-15  6.567763E-15 -3.852197E-15 -4.675930E-16
         6   7 -2.432143E-06 -2.432143E-06 -1.173674E-14 -4.378509E-15 -1.951744E-15 -3.156192E-16
         6   8 -2.432143E-06 -2.432143E-06  9.142522E-16 -2.760537E-34  1.332137E-15  3.500431E-15
         7   1 -2.432143E-06 -2.432143E-06 -2.184290E-16 -2.168914E-15  2.095170E-16 -1.882900E-15
         7   2 -2.432143E-06 -2.432143E-06  7.495056E-17 -2.113342E-15  9.929646E-16 -6.071133E-15
         7   3 -2.432143E-06 -2.432143E-06  1.957371E-15  2.034067E-17  7.061189E-17 -4.072154E-15
         7   4 -2.432143E-06 -2.432143E-06  1.681244E-15  7.591242E-17  7.023661E-16 -5.250163E-15
         7   5 -2.432143E-06 -2.432143E-06 -5.140952E-15 -8.814410E-15 -1.519320E-18 -2.140550E-15
         7   6 -2.432143E-06 -2.432143E-06  2.060251E-14 -8.971209E-15  7.819282E-16 -7.103899E-15
         7   7 -2.432143E-06 -2.432143E-06 -3.283708E-15 -5.739238E-17 -3.682272E-16  5.521841E-15
         7   8 -2.432143E-06 -2.432143E-06  8.754721E-15 -2.141913E-16  2.635271E-16  8.494538E-15
         8   1 -2.432143E-06 -2.432143E-06 -4.241254E-15  1.204090E-14  2.427575E-15  1.249686E-15
         8   2 -2.432143E-06 -2.432143E-06 -2.701205E-15  1.039896E-14  9.953137E-15 -4.338364E-15
         8   3 -2.432143E-06 -2.432143E-06  3.473291E-15  1.094627E-15  4.228258E-15  1.249686E-15
         8   4 -2.432143E-06 -2.432143E-06  8.051175E-16  8.209704E-16 -2.886819E-15 -4.612021E-15
         8   5 -2.432143E-06 -2.432143E-06 -6.704165E-15 -1.751404E-14  6.354142E-16 -2.998498E-15
         8   6 -2.432143E-06 -2.432143E-06 -1.255285E-14 -1.204090E-14  1.593213E-15  7.572586E-15
         8   7 -2.432143E-06 -2.432143E-06  1.831351E-15 -1.751404E-14  1.628510E-15  2.853840E-16
         8   8 -2.432143E-06 -2.432143E-06  8.051179E-16 -1.094627E-14  6.554333E-15  1.825794E-15
         9   1 -2.432143E-06 -2.432143E-06 -7.373676E-15  4.378509E-15 -1.129199E-14  3.469289E-15
         9   2 -2.432143E-06 -2.432143E-06 -6.165976E-16  3.283882E-15  3.211819E-15 -8.540218E-15
         9   3 -2.432143E-06 -2.432143E-06  8.845565E-15  4.378509E-15 -4.145522E-15 -2.003847E-15
         9   4 -2.432143E-06 -2.432143E-06  1.782563E-14  2.637170E-33 -1.180791E-14 -7.992904E-15
         9   5 -2.432143E-06 -2.432143E-06 -1.065756E-14  8.757018E-15  1.700336E-15 -3.178541E-15
         9   6 -2.432143E-06 -2.432143E-06 -5.542420E-15 -6.567763E-15  3.068620E-15 -5.651299E-15
         9   7 -2.432143E-06 -2.432143E-06 -4.289961E-15  9.391507E-34 -7.887499E-15  1.053408E-16
         9   8 -2.432143E-06 -2.432143E-06 -9.266394E-15 -2.189254E-15 -2.414363E-15  5.842287E-15

 strains (elem, integ.pnt.,exx,eyy,ezz,exy,exz,eyz) forset EALL and time  0.1418750E-01

         1   1 -8.107143E-12 -8.107143E-12  6.948979E-12  1.009742E-28 -5.048710E-28  7.068194E-28
         1   2 -8.107143E-12 -8.107143E-12  6.948979E-12 -6.563323E-28 -1.716561E-27 -1.009742E-28
         1   3 -8.107143E-12 -8.107143E-12  6.948979E-12  1.968997E-27  2.019484E-28  2.625329E-27
         1   4 -8.107143E-12 -8.107143E-12  6.948979E-12  1.211690E-27  1.211690E-27 -2.019484E-28
         1   5 -8.107143E-12 -8.107143E-12  6.948979E-12  4.038968E-28 -5.048710E-28 -1.009742E-28
         1   6 -8.107143E-12 -8.107143E-12  6.948979E-12  2.524355E-27 -1.716561E-27 -9.087678E-28
         1   7 -8.107143E-12 -8.107143E-12  6.948979E-12 -5.048710E-28  3.029226E-28  1.615587E-27
         1   8 -8.107143E-12 -8.107143E-12  6.948979E-12  1.615587E-27  1.211690E-27 -1.009742E-27
         2   1 -8.107143E-12 -8.107143E-12  6.948979E-12  7.105353E-21 -2.178420E-20 -9.985596E-22
         2   2 -8.107143E-12 -8.107143E-12  6.948979E-12 -1.364976E-21 -1.670201E-20  1.166379E-21
         2   3 -8.107143E-12 -8.107143E-12  6.948979E-12  8.004442E-21  1.520909E-20  1.984140E-22
         2   4 -8.107143E-12 -8.107143E-12  6.948979E-12 -2.757094E-20  5.044698E-21 -2.240131E-22
         2   5 -8.107143E-12 -8.107143E-12  6.948979E-12 -9.967685E-22 -2.576047E-20 -4.923650E-21
         2   6 -8.107143E-12 -8.107143E-12  6.948979E-12  1.255576E-20 -2.237234E-20  5.743375E-21
         2   7 -8.107143E-12 -8.107143E-12  6.948979E-12 -3.719990E-21 -7.370139E-21 -3.726676E-21
         2   8 -8.107143E-12 -8.107143E-12  6.948979E-12 -1.049625E-20  1.295865E-20  4.352984E-21
         3   1 -8.107143E-12 -8.107143E-12  6.948979E-12 -2.577480E-21  7.098219E-21  2.053063E-21
         3   2 -8.107143E-12 -8.107143E-12  6.948979E-12  3.130384E-20 -4.760243E-21 -2.225944E-21
         3   3 -8.107143E-12 -8.107143E-12  6.948979E-12 -9.619288E-21 -1.357360E-22 -1.753856E-21
         3   4 -8.107143E-12 -8.107143E-12  6.948979E-12 -6.231156E-21 -1.357360E-22  2.040205E-21
         3   5 -8.107143E-12 -8.107143E-12  6.948979E-12 -5.265066E-20 -6.141413E-22  1.146905E-20
         3   6 -8.107143E-12 -8.107143E-12  6.948979E-12 -3.909813E-20 -7.390405E-21 -1.257349E-20
         3   7 -8.107143E-12 -8.107143E-12  6.948979E-12 -4.839017E-20 -2.761163E-20  7.662134E-21
         3   8 -8.107143E-12 -8.107143E-12  6.948979E-12 -7.732593E-21 -1.405910E-20 -8.307337E-21
         4   1 -8.107143E-12 -8.107143E-12  6.948979E-12  1.429106E-21  1.993053E-22  7.697225E-22
         4   2 -8.107143E-12 -8.107143E-12  6.948979E-12  7.052226E-22  6.998186E-22  1.280358E-20
         4   3 -8.107143E-12 -8.107143E-12  6.948979E-12 -2.649598E-22  4.621833E-22 -1.278280E-20
         4   4 -8.107143E-12 -8.107143E-12  6.948979E-12 -9.888433E-22  1.201712E-21  4.333247E-21
         4   5 -8.107143E-12 -8.107143E-12  6.948979E-12  6.633784E-21  2.433044E-22 -3.903620E-21
         4   6 -8.107143E-12 -8.107143E-12  6.948979E-12  6.244522E-21  7.438175E-22  7.762381E-21
         4   7 -8.107143E-12 -8.107143E-12  6.948979E-12 -1.424797E-22  9.853636E-22  2.872644E-21
         4   8 -8.107143E-12 -8.107143E-12  6.948979E-12 -5.317418E-22  1.724892E-21  1.030348E-20
         5   1 -8.107143E-12 -8.107143E-12  6.948979E-12  1.072751E-36 -4.051165E-21  2.249951E-20
         5   2 -8.107143E-12 -8.107143E-12  6.948979E-12  8.582022E-37 -5.745231E-21  2.240113E-20
         5   3 -8.107143E-12 -8.107143E-12  6.948979E-12 -2.032879E-20 -2.455474E-21  2.170715E-21
         5   4 -8.107143E-12 -8.107143E-12  6.948979E-12 -1.185846E-20 -2.956053E-20 -6.397988E-21
         5   5 -8.107143E-12 -8.107143E-12  6.948979E-12 -2.032879E-20 -1.263887E-20 -1.222757E-20
         5   6 -8.107143E-12 -8.107143E-12  6.948979E-12 -1.355253E-20  3.454756E-21  7.340973E-21
         5   7 -8.107143E-12 -8.107143E-12  6.948979E-12 -2.710505E-20 -3.626901E-20  8.101219E-21
         5   8 -8.107143E-12 -8.107143E-12  6.948979E-12 -1.355253E-20 -3.965714E-20  3.190493E-20
         6   1 -8.107143E-12 -8.107143E-12  6.948979E-12  8.470329E-21  1.941870E-20 -2.399719E-20
         6   2 -8.107143E-12 -8.107143E-12  6.948979E-12  1.185846E-20 -5.173207E-20 -2.583801E-20
         6   3 -8.107143E-12 -8.107143E-12  6.948979E-12  1.355253E-20  5.823546E-20  1.666039E-20
         6   4 -8.107143E-12 -8.107143E-12  6.948979E-12 -1.694066E-20 -2.750909E-21  3.176023E-20
         6   5 -8.107143E-12 -8.107143E-12  6.948979E-12 -1.355253E-20  2.866911E-20  2.515122E-20
         6   6 -8.107143E-12 -8.107143E-12  6.948979E-12  4.065758E-20 -2.384693E-20 -2.894623E-21
         6   7 -8.107143E-12 -8.107143E-12  6.948979E-12 -2.710505E-20 -1.208223E-20 -1.953833E-21
         6   8 -8.107143E-12 -8.107143E-12  6.948979E-12  1.978786E-39  8.246564E-21  2.166933E-20
         7   1 -8.107143E-12 -8.107143E-12  6.948979E-12 -1.342661E-20  1.297010E-21 -1.165604E-20
         7   2 -8.107143E-12 -8.107143E-12  6.948979E-12 -1.308259E-20  6.146924E-21 -3.758320E-20
         7   3 -8.107143E-12 -8.107143E-12  6.948979E-12  1.259185E-22  4.371212E-22 -2.520857E-20
         7   4 -8.107143E-12 -8.107143E-12  6.948979E-12  4.699340E-22  4.347981E-21 -3.250101E-20
         7   5 -8.107143E-12 -8.107143E-12  6.948979E-12 -5.456539E-20 -9.405317E-24 -1.325102E-20
         7   6 -8.107143E-12 -8.107142E-12  6.948979E-12 -5.553605E-20  4.840508E-21 -4.397652E-20
         7   7 -8.107143E-12 -8.107143E-12  6.948979E-12 -3.552862E-22 -2.279501E-21  3.418282E-20
         7   8 -8.107143E-12 -8.107143E-12  6.948979E-12 -1.325946E-21  1.631358E-21  5.258524E-20
         8   1 -8.107143E-12 -8.107143E-12  6.948979E-12  7.453890E-20  1.502784E-20  7.736153E-21
         8   2 -8.107143E-12 -8.107143E-12  6.948979E-12  6.437450E-20  6.161466E-20 -2.685654E-20
         8   3 -8.107143E-12 -8.107143E-12  6.948979E-12  6.776264E-21  2.617493E-20  7.736153E-21
         8   4 -8.107143E-12 -8.107143E-12  6.948979E-12  5.082198E-21 -1.787078E-20 -2.855061E-20
         8   5 -8.107143E-12 -8.107143E-12  6.948979E-12 -1.084202E-19  3.933516E-21 -1.856213E-20
         8   6 -8.107143E-12 -8.107143E-12  6.948979E-12 -7.453890E-20  9.862747E-21  4.687791E-20
         8   7 -8.107143E-12 -8.107143E-12  6.948979E-12 -1.084202E-19  1.008125E-20  1.766663E-21
         8   8 -8.107143E-12 -8.107143E-12  6.948979E-12 -6.776264E-20  4.057444E-20  1.130253E-20
         9   1 -8.107143E-12 -8.107143E-12  6.948979E-12  2.710505E-20 -6.990280E-20  2.147655E-20
         9   2 -8.107143E-12 -8.107143E-12  6.948979E-12  2.032879E-20  1.988269E-20 -5.286802E-20
         9   3 -8.107143E-12 -8.107143E-12  6.948979E-12  2.710505E-20 -2.566275E-20 -1.240477E-20
         9   4 -8.107143E-12 -8.107143E-12  6.948979E-12  3.319162E-41 -7.309660E-20 -4.947988E-20
         9   5 -8.107143E-12 -8.107143E-12  6.948979E-12  5.421011E-20  1.052589E-20 -1.967668E-20
         9   6 -8.107143E-12 -8.107143E-12  6.948979E-12 -4.065758E-20  1.899622E-20 -3.498423E-20
         9   7 -8.107143E-12 -8.107143E-12  6.948979E-12  5.906178E-40 -4.882737E-20  6.521099E-22
         9   8 -8.107143E-12 -8.107143E-12  6.948979E-12 -1.355253E-20 -1.494605E-20  3.616654E-20

 displacements (vx,vy,vz) for set NALL and time  0.2178125E-01

         1  0.000000E+00  0.000000E+00  0.000000E+00
         2 -6.223214E-09  0.000000E+00  0.000000E+00
         3 -3.267187E-01  0.000000E+00  0.000000E+00
         4 -3.267188E-01  0.000000E+00  0.000000E+00
         5 -6.534375E-01  0.000000E+00  0.000000E+00
         6 -6.534375E-01  0.000000E+00  0.000000E+00
         7  0.000000E+00 -6.223214E-09  0.000000E+00
         8 -6.223214E-09 -6.223214E-09  0.000000E+00
         9 -3.267187E-01 -6.223214E-09  0.000000E+00
        10 -3.267188E-01 -6.223214E-09  0.000000E+00
        11 -6.534375E-01 -6.223214E-09  0.000000E+00
        12 -6.534375E-01 -6.223214E-09  0.000000E+00
        13  0.000000E+00 -3.267187E-01  0.000000E+00
        14 -6.223214E-09 -3.267187E-01  0.000000E+00
        15 -3.267187E-01 -3.267187E-01  0.000000E+00
        16 -3.267188E-01 -3.267187E-01  0.000000E+00
        17 -6.534375E-01 -3.267187E-01  0.000000E+00
        18 -6.534375E-01 -3.267187E-01  0.000000E+00
        19  0.000000E+00 -3.267188E-01  0.000000E+00
        20 -6.223214E-09 -3.267188E-01  0.000000E+00
        21 -3.267187E-01 -3.267188E-01  0.000000E+00
        22 -3.267188E-01 -3.267188E-01  0.000000E+00
        23 -6.534375E-01 -3.267188E-01  0.000000E+00
        24 -6.534375E-01 -3.267188E-01  0.000000E+00
        25  0.000000E+00 -6.534375E-01  0.000000E+00
        26 -6.223214E-09 -6.534375E-01  0.000000E+00
        27 -3.267187E-01 -6.534375E-01  0.000000E+00
        28 -3.267188E-01 -6.534375E-01  0.000000E+00
        29 -6.534375E-01 -6.534375E-01  0.000000E+00
        30 -6.534375E-01 -6.534375E-01  0.000000E+00
        31  0.000000E+00 -6.534375E-01  0.000000E+00
        32 -6.223214E-09 -6.534375E-01  0.000000E+00
        33 -3.267187E-01 -6.534375E-01  0.000000E+00
        34 -3.267188E-01 -6.534375E-01  0.000000E+00
        35 -6.534375E-01 -6.534375E-01  0.000000E+00
        36 -6.534375E-01 -6.534375E-01  0.000000E+00
        37  0.000000E+00  0.000000E+00  7.467857E-09
        38 -6.223214E-09  0.000000E+00  7.467857E-09
        39 -3.267187E-01  0.000000E+00  7.467857E-09
        40 -3.267188E-01  0.000000E+00  7.467857E-09
        41 -6.534375E-01  0.000000E+00  7.467857E-09
        42 -6.534375E-01  0.000000E+00  7.467857E-09
        43  0.000000E+00 -6.223214E-09  7.467857E-09
        44 -6.223214E-09 -6.223214E-09  7.467857E-09
        45 -3.267187E-01 -6.223214E-09  7.467857E-09
        46 -3.267188E-01 -6.223214E-09  7.467857E-09
        47 -6.534375E-01 -6.223214E-09  7.467857E-09
        48 -6.534375E-01 -6.223214E-09  7.467857E-09
        49  0.000000E+00 -3.267187E-01  7.467857E-09
        50 -6.223214E-09 -3.267187E-01  7.467857E-09
        51 -3.267187E-01 -3.267187E-01  7.467857E-09
        52 -3.267188E-01 -3.267187E-01  7.467857E-09
        53 -6.534375E-01 -3.267187E-01  7.467857E-09
        54 -6.534375E-01 -3.267187E-01  7.467857E-09
        55  0.000000E+00 -3.267188E-01  7.467857E-09
        56 -6.223214E-09 -3.267188E-01  7.467857E-09
        57 -3.267187E-01 -3.267188E-01  7.467857E-09
        58 -3.267188E-01 -3.267188E-01  7.467857E-09
        59 -6.534375E-01 -3.267188E-01  7.467857E-09
        60 -6.534375E-01 -3.267188E-01  7.467857E-09
        61  0.000000E+00 -6.534375E-01  7.467857E-09
        62 -6.223214E-09 -6.534375E-01  7.467857E-09
        63 -3.267187E-01 -6.534375E-01  7.467857E-09
        64 -3.267188E-01 -6.534375E-01  7.467857E-09
        65 -6.534375E-01 -6.534375E-01  7.467857E-09
        66 -6.534375E-01 -6.534375E-01  7.467857E-09
        67  0.000000E+00 -6.534375E-01  7.467857E-09
        68 -6.223214E-09 -6.534375E-01  7.467857E-09
        69 -3.267187E-01 -6.534375E-01  7.467857E-09
        70 -3.267188E-01 -6.534375E-01  7.467857E-09
        71 -6.534375E-01 -6.534375E-01  7.467857E-09
        72 -6.534375E-01 -6.534375E-01  7.467857E-09

 stresses (elem, integ.pnt.,sxx,syy,szz,sxy,sxz,syz) for set EALL and time  0.2178125E-01

         1   1 -3.733928E-06 -3.733928E-06  4.235165E-22  1.966941E-46  6.524487E-23  1.631122E-23
         1   2 -3.733928E-06 -3.733928E-06 -4.235165E-22  1.468009E-22  3.017575E-22 -8.155608E-24
         1   3 -3.733928E-06 -3.733928E-06 -1.054088E-49 -1.468009E-22  2.262183E-33 -6.524487E-23
         1   4 -3.733928E-06 -3.733928E-06  4.235165E-22  7.876723E-46  2.936019E-22  8.155608E-23
         1   5 -3.733928E-06 -3.733928E-06  1.390078E-48  1.304897E-22 -8.155608E-24  2.120458E-22
         1   6 -3.733928E-06 -3.733928E-06 -3.755187E-49  3.262243E-22  2.283570E-22 -7.340047E-23
         1   7 -3.733928E-06 -3.733928E-06  8.470329E-22  1.957346E-22 -3.099131E-22  1.304897E-22
         1   8 -3.733928E-06 -3.733928E-06  4.235165E-22  3.914692E-22  9.048730E-33  1.631122E-23
         2   1 -3.733928E-06 -3.733928E-06  1.308385E-14  5.253869E-15  1.100970E-15  1.537666E-16
         2   2 -3.733928E-06 -3.733928E-06  1.222859E-14  3.064614E-15  2.469254E-15  8.593769E-17
         2   3 -3.733928E-06 -3.733928E-06  1.663220E-14  4.654819E-15 -2.777196E-16 -3.528940E-16
         2   4 -3.733928E-06 -3.733928E-06  1.383676E-14  2.739221E-15 -7.940110E-15  1.700368E-16
         2   5 -3.733928E-06 -3.733928E-06  8.325492E-15 -4.295050E-15  1.118297E-15  1.080525E-15
         2   6 -3.733928E-06 -3.733928E-06  8.710833E-15 -1.011168E-15 -1.618271E-15  2.366245E-16
         2   7 -3.733928E-06 -3.733928E-06  7.358507E-15 -4.067036E-15 -5.414973E-15  5.738646E-16
         2   8 -3.733928E-06 -3.733928E-06  5.803668E-15  3.114730E-16 -7.604227E-15  3.207238E-16
         3   1 -3.733928E-06 -3.733928E-06  7.426361E-18  5.559128E-15  1.948132E-15 -1.632331E-16
         3   2 -3.733928E-06 -3.733928E-06  9.179949E-15 -7.029085E-15 -2.430377E-15  6.038884E-16
         3   3 -3.733928E-06 -3.733928E-06  1.217763E-15  2.803484E-15  1.175816E-15 -2.078494E-15
         3   4 -3.733928E-06 -3.733928E-06  5.115270E-15  7.729306E-15 -3.202693E-15  2.894449E-15
         3   5 -3.733928E-06 -3.733928E-06 -9.761414E-15 -1.636746E-14 -1.486490E-15  1.306066E-15
         3   6 -3.733928E-06 -3.733928E-06  8.243333E-15 -7.610441E-15  3.986646E-15 -3.681804E-17
         3   7 -3.733928E-06 -3.733928E-06 -6.088166E-15 -1.323495E-14 -4.368812E-15 -6.091940E-16
         3   8 -3.733928E-06 -3.733928E-06  6.641565E-15 -6.667189E-15 -4.368812E-15  2.253742E-15
         4   1 -3.733928E-06 -3.733928E-06 -7.945757E-15 -4.262624E-15 -1.852589E-16 -9.079246E-15
         4   2 -3.733928E-06 -3.733928E-06 -8.185078E-15 -3.946022E-15 -5.956676E-16  3.916987E-16
         4   3 -3.733928E-06 -3.733928E-06 -9.671717E-15  1.158845E-16  2.787195E-16  4.056280E-15
         4   4 -3.733928E-06 -3.733928E-06 -8.773044E-15  4.324869E-16  6.807263E-16  3.128267E-15
         4   5 -3.733928E-06 -3.733928E-06 -5.979112E-16  5.321950E-16 -2.809871E-16  3.175935E-15
         4   6 -3.733928E-06 -3.733928E-06 -4.121113E-15  1.986179E-15 -6.913958E-16  7.875211E-16
         4   7 -3.733928E-06 -3.733928E-06 -6.177992E-16  5.321950E-16  6.381886E-16  3.175935E-15
         4   8 -3.733928E-06 -3.733928E-06 -3.003008E-15  1.986179E-15  1.040195E-15  3.797746E-15
         5   1 -3.733928E-06 -3.733928E-06 -6.865271E-15 -1.094627E-15 -6.317388E-15 -4.063145E-15
         5   2 -3.733928E-06 -3.733928E-06 -6.398415E-16  5.746793E-15  2.439629E-15  6.887906E-15
         5   3 -3.733928E-06 -3.733928E-06 -3.479842E-15  2.189254E-15 -1.850273E-17  3.153637E-16
         5   4 -3.733928E-06 -3.733928E-06 -1.181592E-14  8.209704E-16  2.170752E-15  5.519622E-15
         5   5 -3.733928E-06 -3.733928E-06  5.859770E-15 -7.662390E-15 -7.822606E-15 -6.485437E-15
         5   6 -3.733928E-06 -3.733928E-06  4.285980E-15 -8.228947E-33 -3.444097E-15 -3.931364E-15
         5   7 -3.733928E-06 -3.733928E-06  1.293957E-14 -8.757018E-15  4.309456E-15  9.933971E-15
         5   8 -3.733928E-06 -3.733928E-06  1.281319E-14  1.458747E-34  1.025574E-15  5.646624E-15
         6   1 -3.733928E-06 -3.733928E-06 -1.101551E-14 -1.915598E-15  9.002399E-15 -6.393703E-16
         6   2 -3.733928E-06 -3.733928E-06  1.094967E-14  9.030674E-15 -8.492454E-16  2.180790E-15
         6   3 -3.733928E-06 -3.733928E-06 -1.036896E-14 -1.094627E-15  1.149945E-15 -3.923252E-15
         6   4 -3.733928E-06 -3.733928E-06  1.595714E-14  7.662390E-15 -3.228564E-15 -1.924062E-15
         6   5 -3.733928E-06 -3.733928E-06 -1.984840E-15  5.473136E-15  3.291685E-16 -7.057976E-15
         6   6 -3.733928E-06 -3.733928E-06  1.956986E-14  3.283882E-15 -2.181451E-16 -3.095492E-15
         6   7 -3.733928E-06 -3.733928E-06  1.124622E-15 -1.313553E-14  4.291652E-15  1.699042E-15
         6   8 -3.733928E-06 -3.733928E-06  1.226277E-14 -2.189254E-15 -8.843874E-15  1.883899E-16
         7   1 -3.733928E-06 -3.733928E-06 -1.545773E-14 -1.713539E-14  3.064868E-16 -7.607788E-15
         7   2 -3.733928E-06 -3.733928E-06  1.991538E-14 -1.610091E-14  7.868803E-16 -1.043269E-14
         7   3 -3.733928E-06 -3.733928E-06 -6.056638E-15  3.786449E-16  9.030178E-17 -7.607788E-15
         7   4 -3.733928E-06 -3.733928E-06  2.497492E-14  1.413122E-15  1.716690E-15  5.135809E-16
         7   5 -3.733928E-06 -3.733928E-06  8.538264E-15  9.658934E-16  6.634311E-16 -1.322505E-14
         7   6 -3.733928E-06 -3.733928E-06  2.862861E-15  3.604763E-15  1.143825E-15  3.558651E-15
         7   7 -3.733928E-06 -3.733928E-06  2.034595E-14  9.658934E-16 -1.289378E-15  4.288982E-15
         7   8 -3.733928E-06 -3.733928E-06  1.032899E-14  3.604763E-15  3.370107E-16  1.067373E-14
         8   1 -3.733928E-06 -3.733928E-06  2.426915E-14  1.532478E-14 -1.813366E-15 -6.504855E-15
         8   2 -3.733928E-06 -3.733928E-06  2.100202E-14  6.841420E-15  4.754397E-15 -1.838577E-15
         8   3 -3.733928E-06 -3.733928E-06  1.115281E-14  6.567763E-15  3.947539E-15  6.290822E-17
         8   4 -3.733928E-06 -3.733928E-06 -1.559890E-14 -1.641941E-15  3.947539E-15 -1.838577E-15
         8   5 -3.733928E-06 -3.733928E-06  1.564897E-14  8.757018E-15 -1.587742E-15  2.424031E-15
         8   6 -3.733928E-06 -3.733929E-06 -2.209893E-14  1.204090E-14 -3.776997E-15 -5.259017E-15
         8   7 -3.733928E-06 -3.733928E-06 -1.183436E-14  1.732544E-33  2.770109E-15  8.991794E-15
         8   8 -3.733928E-06 -3.733929E-06 -1.806182E-14  5.473136E-15 -3.797654E-15 -5.259017E-15
         9   1 -3.733929E-06 -3.733929E-06 -3.704619E-14 -6.567763E-15  1.065180E-15 -4.590512E-16
         9   2 -3.733929E-06 -3.733928E-06 -2.074019E-14  5.473136E-16  6.538316E-15 -1.199660E-16
         9   3 -3.733928E-06 -3.733928E-06 -7.167330E-15 -6.567763E-15  3.096385E-16 -7.026814E-15
         9   4 -3.733928E-06 -3.733928E-06  6.943328E-16 -1.641941E-15  9.066656E-15 -1.214593E-15
         9   5 -3.733928E-06 -3.733928E-06 -1.570096E-14  1.751404E-14 -1.134947E-14 -1.105683E-14
         9   6 -3.733928E-06 -3.733928E-06 -1.170952E-14 -6.567763E-15  1.273232E-14 -2.930278E-15
         9   7 -3.733928E-06 -3.733928E-06  2.684315E-15  1.751404E-14 -7.601431E-15 -1.105683E-14
         9   8 -3.733928E-06 -3.733928E-06 -1.768578E-15  8.757018E-15 -9.790685E-15  1.448231E-15

 strains (elem, integ.pnt.,exx,eyy,ezz,exy,exz,eyz) forset EALL and time  0.2178125E-01

         1   1 -1.244643E-11 -1.244643E-11  1.066837E-11 -1.219702E-51  4.038968E-28  1.009742E-28
         1   2 -1.244643E-11 -1.244643E-11  1.066837E-11  9.087678E-28  1.868023E-27 -5.048710E-29
         1   3 -1.244643E-11 -1.244643E-11  1.066837E-11 -9.087678E-28 -1.400399E-38 -4.038968E-28
         1   4 -1.244643E-11 -1.244643E-11  1.066837E-11 -4.872853E-51  1.817536E-27  5.048710E-28
         1   5 -1.244643E-11 -1.244643E-11  1.066837E-11  8.077936E-28 -5.048710E-29  1.312665E-27
         1   6 -1.244643E-11 -1.244643E-11  1.066837E-11  2.019484E-27  1.413639E-27 -4.543839E-28
         1   7 -1.244643E-11 -1.244643E-11  1.066837E-11  1.211690E-27 -1.918510E-27  8.077936E-28
         1   8 -1.244643E-11 -1.244643E-11  1.066837E-11  2.423381E-27 -5.601595E-38  1.009742E-28
         2   1 -1.244643E-11 -1.244643E-11  1.066837E-11  3.252395E-20  6.815526E-21  9.518882E-22
         2   2 -1.244643E-11 -1.244643E-11  1.066837E-11  1.897142E-20  1.528586E-20  5.319952E-22
         2   3 -1.244643E-11 -1.244643E-11  1.066837E-11  2.881555E-20 -1.719217E-21 -2.184582E-21
         2   4 -1.244643E-11 -1.244643E-11  1.066837E-11  1.695708E-20 -4.915306E-20  1.052609E-21
         2   5 -1.244643E-11 -1.244643E-11  1.066837E-11 -2.658840E-20  6.922792E-21  6.688966E-21
         2   6 -1.244643E-11 -1.244643E-11  1.066837E-11 -6.259613E-21 -1.001787E-20  1.464818E-21
         2   7 -1.244643E-11 -1.244643E-11  1.066837E-11 -2.517689E-20 -3.352126E-20  3.552495E-21
         2   8 -1.244643E-11 -1.244643E-11  1.066837E-11  1.928166E-21 -4.707379E-20  1.985433E-21
         3   1 -1.244643E-11 -1.244643E-11  1.066837E-11  3.441365E-20  1.205986E-20 -1.010490E-21
         3   2 -1.244643E-11 -1.244643E-11  1.066837E-11 -4.351338E-20 -1.504519E-20  3.738357E-21
         3   3 -1.244643E-11 -1.244643E-11  1.066837E-11  1.735490E-20  7.278861E-21 -1.286687E-20
         3   4 -1.244643E-11 -1.244643E-11  1.066837E-11  4.784809E-20 -1.982619E-20  1.791802E-20
         3   5 -1.244643E-11 -1.244643E-11  1.066837E-11 -1.013224E-19 -9.202082E-21  8.085174E-21
         3   6 -1.244643E-11 -1.244643E-11  1.066837E-11 -4.711225E-20  2.467924E-20 -2.279212E-22
         3   7 -1.244643E-11 -1.244643E-11  1.066837E-11 -8.193066E-20 -2.704503E-20 -3.771201E-21
         3   8 -1.244643E-11 -1.244643E-11  1.066837E-11 -4.127308E-20 -2.704503E-20  1.395174E-20
         4   1 -1.244643E-11 -1.244643E-11  1.066837E-11 -2.638767E-20 -1.146841E-21 -5.620486E-20
         4   2 -1.244643E-11 -1.244643E-11  1.066837E-11 -2.442775E-20 -3.687466E-21  2.424801E-21
         4   3 -1.244643E-11 -1.244643E-11  1.066837E-11  7.173803E-22  1.725407E-21  2.511031E-20
         4   4 -1.244643E-11 -1.244643E-11  1.066837E-11  2.677300E-21  4.214020E-21  1.936546E-20
         4   5 -1.244643E-11 -1.244643E-11  1.066837E-11  3.294540E-21 -1.739444E-21  1.966055E-20
         4   6 -1.244643E-11 -1.244643E-11  1.066837E-11  1.229539E-20 -4.280069E-21  4.875131E-21
         4   7 -1.244643E-11 -1.244643E-11  1.066837E-11  3.294540E-21  3.950691E-21  1.966055E-20
         4   8 -1.244643E-11 -1.244643E-11  1.066837E-11  1.229539E-20  6.439304E-21  2.350986E-20
         5   1 -1.244643E-11 -1.244643E-11  1.066837E-11 -6.776264E-21 -3.910764E-20 -2.515280E-20
         5   2 -1.244643E-11 -1.244643E-11  1.066837E-11  3.557538E-20  1.510247E-20  4.263942E-20
         5   3 -1.244643E-11 -1.244643E-11  1.066837E-11  1.355253E-20 -1.145407E-22  1.952251E-21
         5   4 -1.244643E-11 -1.244643E-11  1.066837E-11  5.082198E-21  1.343799E-20  3.416909E-20
         5   5 -1.244643E-11 -1.244643E-11  1.066837E-11 -4.743385E-20 -4.842566E-20 -4.014794E-20
         5   6 -1.244643E-11 -1.244643E-11  1.066837E-11  5.336885E-38 -2.132060E-20 -2.433701E-20
         5   7 -1.244643E-11 -1.244643E-11  1.066837E-11 -5.421011E-20  2.667758E-20  6.149601E-20
         5   8 -1.244643E-11 -1.244643E-11  1.066837E-11 -9.181884E-43  6.348792E-21  3.495529E-20
         6   1 -1.244643E-11 -1.244643E-11  1.066837E-11 -1.185846E-20  5.572914E-20 -3.958007E-21
         6   2 -1.244643E-11 -1.244643E-11  1.066837E-11  5.590417E-20 -5.257233E-21  1.350013E-20
         6   3 -1.244643E-11 -1.244643E-11  1.066837E-11 -6.776264E-21  7.118706E-21 -2.428680E-20
         6   4 -1.244643E-11 -1.244643E-11  1.066837E-11  4.743385E-20 -1.998635E-20 -1.191086E-20
         6   5 -1.244643E-11 -1.244643E-11  1.066837E-11  3.388132E-20  2.037710E-21 -4.369223E-20
         6   6 -1.244643E-11 -1.244643E-11  1.066837E-11  2.032879E-20 -1.350422E-21 -1.916257E-20
         6   7 -1.244643E-11 -1.244643E-11  1.066837E-11 -8.131516E-20  2.656737E-20  1.051788E-20
         6   8 -1.244643E-11 -1.244643E-11  1.066837E-11 -1.355253E-20 -5.474779E-20  1.166223E-21
         7   1 -1.244643E-11 -1.244643E-11  1.066837E-11 -1.060762E-19  1.897300E-21 -4.709583E-20
         7   2 -1.244643E-11 -1.244643E-11  1.066837E-11 -9.967232E-20  4.871164E-21 -6.458333E-20
         7   3 -1.244643E-11 -1.244643E-11  1.066837E-11  2.343992E-21  5.590110E-22 -4.709583E-20
         7   4 -1.244643E-11 -1.244643E-11  1.066837E-11  8.747897E-21  1.062713E-20  3.179310E-21
         7   5 -1.244643E-11 -1.244643E-11  1.066837E-11  5.979340E-21  4.106954E-21 -8.186938E-20
         7   6 -1.244643E-11 -1.244643E-11  1.066837E-11  2.231520E-20  7.080818E-21  2.202974E-20
         7   7 -1.244643E-11 -1.244643E-11  1.066837E-11  5.979340E-21 -7.981862E-21  2.655084E-20
         7   8 -1.244643E-11 -1.244643E-11  1.066837E-11  2.231520E-20  2.086257E-21  6.607546E-20
         8   1 -1.244643E-11 -1.244643E-11  1.066837E-11  9.486769E-20 -1.122560E-20 -4.026815E-20
         8   2 -1.244643E-11 -1.244643E-11  1.066837E-11  4.235165E-20  2.943198E-20 -1.138167E-20
         8   3 -1.244643E-11 -1.244643E-11  1.066837E-11  4.065758E-20  2.443715E-20  3.894318E-22
         8   4 -1.244643E-11 -1.244643E-11  1.066837E-11 -1.016440E-20  2.443715E-20 -1.138167E-20
         8   5 -1.244643E-11 -1.244643E-11  1.066837E-11  5.421011E-20 -9.828882E-21  1.500591E-20
         8   6 -1.244643E-11 -1.244643E-11  1.066837E-11  7.453890E-20 -2.338141E-20 -3.255582E-20
         8   7 -1.244643E-11 -1.244643E-11  1.066837E-11 -5.906414E-39  1.714829E-20  5.566349E-20
         8   8 -1.244643E-11 -1.244643E-11  1.066837E-11  3.388132E-20 -2.350929E-20 -3.255582E-20
         9   1 -1.244643E-11 -1.244643E-11  1.066837E-11 -4.065758E-20  6.593974E-21 -2.841745E-21
         9   2 -1.244643E-11 -1.244643E-11  1.066837E-11  3.388132E-21  4.047529E-20 -7.426464E-22
         9   3 -1.244643E-11 -1.244643E-11  1.066837E-11 -4.065758E-20  1.916810E-21 -4.349933E-20
         9   4 -1.244643E-11 -1.244643E-11  1.066837E-11 -1.016440E-20  5.612692E-20 -7.518910E-21
         9   5 -1.244643E-11 -1.244643E-11  1.066837E-11  1.084202E-19 -7.025864E-20 -6.844704E-20
         9   6 -1.244643E-11 -1.244643E-11  1.066837E-11 -4.065758E-20  7.881915E-20 -1.813982E-20
         9   7 -1.244643E-11 -1.244643E-11  1.066837E-11  1.084202E-19 -4.705648E-20 -6.844704E-20
         9   8 -1.244643E-11 -1.244643E-11  1.066837E-11  5.421011E-20 -6.060900E-20  8.965240E-21

 displacements (vx,vy,vz) for set NALL and time  0.3078125E-01

         1  0.000000E+00  0.000000E+00  0.000000E+00
         2 -8.794643E-09  0.000000E+00  0.000000E+00
         3 -4.617187E-01  0.000000E+00  0.000000E+00
         4 -4.617188E-01  0.000000E+00  0.000000E+00
         5 -9.234375E-01  0.000000E+00  0.000000E+00
         6 -9.234375E-01  0.000000E+00  0.000000E+00
         7  0.000000E+00 -8.794643E-09  0.000000E+00
         8 -8.794643E-09 -8.794643E-09  0.000000E+00
         9 -4.617187E-01 -8.794643E-09  0.000000E+00
        10 -4.617188E-01 -8.794643E-09  0.000000E+00
        11 -9.234375E-01 -8.794643E-09  0.000000E+00
        12 -9.234375E-01 -8.794643E-09  0.000000E+00
        13  0.000000E+00 -4.617187E-01  0.000000E+00
        14 -8.794643E-09 -4.617187E-01  0.000000E+00
        15 -4.617187E-01 -4.617187E-01  0.000000E+00
        16 -4.617188E-01 -4.617187E-01  0.000000E+00
        17 -9.234375E-01 -4.617187E-01  0.000000E+00
        18 -9.234375E-01 -4.617187E-01  0.000000E+00
        19  0.000000E+00 -4.617188E-01  0.000000E+00
        20 -8.794643E-09 -4.617188E-01  0.000000E+00
        21 -4.617187E-01 -4.617188E-01  0.000000E+00
        22 -4.617188E-01 -4.617188E-01  0.000000E+00
        23 -9.234375E-01 -4.617188E-01  0.000000E+00
        24 -9.234375E-01 -4.617188E-01  0.000000E+00
        25  0.000000E+00 -9.234375E-01  0.000000E+00
        26 -8.794643E-09 -9.234375E-01  0.000000E+00
        27 -4.617187E-01 -9.234375E-01  0.000000E+00
        28 -4.617188E-01 -9.234375E-01  0.000000E+00
        29 -9.234375E-01 -9.234375E-01  0.000000E+00
        30 -9.234375E-01 -9.234375E-01  0.000000E+00
        31  0.000000E+00 -9.234375E-01  0.000000E+00
        32 -8.794643E-09 -9.234375E-01  0.000000E+00
        33 -4.617187E-01 -9.234375E-01  0.000000E+00
        34 -4.617188E-01 -9.234375E-01  0.000000E+00
        35 -9.234375E-01 -9.234375E-01  0.000000E+00
        36 -9.234375E-01 -9.234375E-01  0.000000E+00
        37  0.000000E+00  0.000000E+00  1.055357E-08
        38 -8.794643E-09  0.000000E+00  1.055357E-08
        39 -4.617187E-01  0.000000E+00  1.055357E-08
        40 -4.617188E-01  0.000000E+00  1.055357E-08
        41 -9.234375E-01  0.000000E+00  1.055357E-08
        42 -9.234375E-01  0.000000E+00  1.055357E-08
        43  0.000000E+00 -8.794643E-09  1.055357E-08
        44 -8.794643E-09 -8.794643E-09  1.055357E-08
        45 -4.617187E-01 -8.794643E-09  1.055357E-08
        46 -4.617188E-01 -8.794643E-09  1.055357E-08
        47 -9.234375E-01 -8.794643E-09  1.055357E-08
        48 -9.234375E-01 -8.794643E-09  1.055357E-08
        49  0.000000E+00 -4.617187E-01  1.055357E-08
        50 -8.794643E-09 -4.617187E-01  1.055357E-08
        51 -4.617187E-01 -4.617187E-01  1.055357E-08
        52 -4.617188E-01 -4.617187E-01  1.055357E-08
        53 -9.234375E-01 -4.617187E-01  1.055357E-08
        54 -9.234375E-01 -4.617187E-01  1.055357E-08
        55  0.000000E+00 -4.617188E-01  1.055357E-08
        56 -8.794643E-09 -4.617188E-01  1.055357E-08
        57 -4.617187E-01 -4.617188E-01  1.055357E-08
        58 -4.617188E-01 -4.617188E-01  1.055357E-08
        59 -9.234375E-01 -4.617188E-01  1.055357E-08
        60 -9.234375E-01 -4.617188E-01  1.055357E-08
        61  0.000000E+00 -9.234375E-01  1.055357E-08
        62 -8.794643E-09 -9.234375E-01  1.055357E-08
        63 -4.617187E-01 -9.234375E-01  1.055357E-08
        64 -4.617188E-01 -9.234375E-01  1.055357E-08
        65 -9.234375E-01 -9.234375E-01  1.055357E-08
        66 -9.234375E-01 -9.234375E-01  1.055357E-08
        67  0.000000E+00 -9.234375E-01  1.055357E-08
        68 -8.794643E-09 -9.234375E-01  1.055357E-08
        69 -4.617187E-01 -9.234375E-01  1.055357E-08
        70 -4.617188E-01 -9.234375E-01  1.055357E-08
        71 -9.234375E-01 -9.234375E-01  1.055357E-08
        72 -9.234375E-01 -9.234375E-01  1.055357E-08

 stresses (elem, integ.pnt.,sxx,syy,szz,sxy,sxz,syz) for set EALL and time  0.3078125E-01

         1   1 -5.276786E-06 -5.276786E-06  8.470329E-22  4.159360E-22  1.631122E-23  1.304897E-22
         1   2 -5.276786E-06 -5.276786E-06  8.470329E-22  6.524487E-22  3.914692E-22 -8.155608E-23
         1   3 -5.276786E-06 -5.276786E-06 -8.470329E-22  1.166252E-21 -3.262243E-23  2.283570E-22
         1   4 -5.276786E-06 -5.276786E-06 -1.021147E-48  1.402765E-21  2.609795E-22 -4.404028E-22
         1   5 -5.276786E-06 -5.276786E-06  8.470329E-22  1.631122E-22 -1.141785E-22  2.936019E-22
         1   6 -5.276786E-06 -5.276786E-06 -8.470329E-22  3.262243E-22  2.609795E-22 -3.196915E-33
         1   7 -5.276786E-06 -5.276786E-06  8.470329E-22  3.588468E-22 -2.609795E-22  3.914692E-22
         1   8 -5.276786E-06 -5.276786E-06 -8.696223E-49  5.219589E-22  1.278766E-32 -3.588468E-22
         2   1 -5.276786E-06 -5.276786E-06  1.550482E-15 -3.845025E-16 -8.338275E-15  4.182522E-19
         2   2 -5.276786E-06 -5.276786E-06  2.834825E-15  3.994006E-15  1.109136E-14  1.322708E-16
         2   3 -5.276786E-06 -5.276786E-06  8.751176E-15 -1.434983E-15  4.638305E-15 -5.799999E-16
         2   4 -5.276786E-06 -5.276786E-06  8.949900E-15 -3.076924E-15 -1.725424E-14  3.463280E-16
         2   5 -5.276786E-06 -5.276786E-06 -3.773248E-15 -8.734403E-15 -7.194250E-15  5.819790E-16
         2   6 -5.276786E-06 -5.276786E-06 -8.205056E-16  4.401124E-15  7.309561E-15  2.795838E-16
         2   7 -5.276786E-06 -5.276786E-06  4.248417E-15 -8.672617E-15  1.410510E-14  1.560918E-18
         2   8 -5.276786E-06 -5.276786E-06  6.115540E-15 -2.104854E-15 -2.314307E-15  4.936409E-16
         3   1 -5.276786E-06 -5.276786E-06  3.816688E-16 -3.599289E-15  1.103878E-14  9.753497E-17
         3   2 -5.276786E-06 -5.276786E-06  4.206782E-15  2.968474E-15 -3.191378E-15  3.936502E-16
         3   3 -5.276786E-06 -5.276786E-06  9.715349E-16 -1.470420E-15 -9.261755E-15 -1.842271E-15
         3   4 -5.276786E-06 -5.276786E-06  7.174157E-16  1.275973E-14  1.919855E-14  8.945396E-16
         3   5 -5.276786E-06 -5.276786E-06 -2.049983E-15 -3.299815E-14  2.534482E-15  2.303811E-15
         3   6 -5.276786E-06 -5.276786E-06  6.900591E-15 -1.986262E-14 -1.826343E-14  9.682331E-16
         3   7 -5.276786E-06 -5.276786E-06  1.660123E-14 -2.745231E-14 -1.064072E-14  3.640054E-16
         3   8 -5.276786E-06 -5.276786E-06  2.147257E-14 -5.559766E-15 -4.072961E-15  1.469123E-15
         4   1 -5.276786E-06 -5.276786E-06  7.944491E-17  3.685183E-15  2.380161E-17 -1.532252E-15
         4   2 -5.276786E-06 -5.276786E-06 -1.461878E-15  3.286269E-15  1.033746E-15  6.654810E-15
         4   3 -5.276786E-06 -5.276786E-06 -3.507956E-15  6.421751E-15  5.351961E-17  8.319393E-15
         4   4 -5.276786E-06 -5.276786E-06 -1.465708E-15  6.022837E-15 -2.887731E-16  3.370928E-15
         4   5 -5.276786E-06 -5.276786E-06 -4.367437E-15  5.728816E-15 -9.211153E-16 -9.295627E-15
         4   6 -5.276786E-06 -5.276786E-06  3.121915E-15  3.436771E-15  8.882876E-17  4.703371E-15
         4   7 -5.276786E-06 -5.276786E-06 -1.079453E-14  7.918071E-15  5.420304E-16  2.745272E-15
         4   8 -5.276786E-06 -5.276786E-06  2.783875E-16  5.626026E-15  1.997378E-16  3.248626E-16
         5   1 -5.276786E-06 -5.276786E-06 -2.062905E-14 -4.378509E-15 -2.534563E-15 -2.191524E-15
         5   2 -5.276786E-06 -5.276786E-06 -9.031056E-15  4.925822E-15  7.864395E-15  4.096399E-15
         5   3 -5.276786E-06 -5.276786E-06 -1.900261E-14  2.189254E-15 -7.783579E-17 -4.380778E-15
         5   4 -5.276786E-06 -5.276786E-06 -2.293859E-15  5.473136E-15 -5.550972E-15 -1.924051E-15
         5   5 -5.276786E-06 -5.276786E-06  4.000062E-15  2.189254E-15 -2.383337E-15 -9.860114E-15
         5   6 -5.276786E-06 -5.276786E-06  1.806097E-14 -4.378509E-15  1.721515E-15 -1.048741E-16
         5   7 -5.276786E-06 -5.276786E-06 -2.583203E-15 -4.082740E-31 -2.904872E-16  4.370039E-15
         5   8 -5.276786E-06 -5.276786E-06  1.658846E-14 -4.378509E-15  1.175041E-14 -1.105115E-14
         6   1 -5.276786E-06 -5.276786E-06  1.466770E-14  9.304331E-15  2.995712E-15 -4.571699E-15
         6   2 -5.276786E-06 -5.276786E-06  1.425370E-14  7.115077E-15 -8.354828E-16 -8.626970E-15
         6   3 -5.276786E-06 -5.276786E-06  3.496539E-15  4.378509E-15 -9.816577E-15 -1.931904E-16
         6   4 -5.276786E-06 -5.276786E-06  1.185440E-15  1.313553E-14 -5.438068E-15 -4.248462E-15
         6   5 -5.276786E-06 -5.276786E-06 -5.035591E-15  4.378509E-15  1.407097E-15 -7.288760E-15
         6   6 -5.276786E-06 -5.276786E-06 -1.344739E-15  7.947636E-34 -8.991862E-15 -6.356078E-15
         6   7 -5.276786E-06 -5.276786E-06 -1.292287E-14  8.757018E-15 -3.954328E-15 -5.099505E-15
         6   8 -5.276786E-06 -5.276786E-06 -1.359203E-14 -4.378509E-15  4.241809E-16 -7.177048E-15
         7   1 -5.276786E-06 -5.276786E-06 -3.127998E-14  4.397288E-15  3.527852E-16 -2.579834E-14
         7   2 -5.276786E-06 -5.276786E-06 -4.746413E-14  4.448593E-15  1.879286E-15 -6.382551E-15
         7   3 -5.276786E-06 -5.276786E-06 -1.302146E-14  1.877901E-17  2.328496E-16 -6.095051E-15
         7   4 -5.276786E-06 -5.276786E-06 -2.743105E-14  7.008424E-17  7.218559E-16 -1.456729E-15
         7   5 -5.276786E-06 -5.276786E-06 -1.493881E-14  1.700117E-14 -2.098886E-16 -2.290422E-14
         7   6 -5.276786E-06 -5.276786E-06 -1.634549E-14  1.559998E-14  1.316612E-15 -3.873236E-15
         7   7 -5.276786E-06 -5.276786E-06  1.140980E-15 -5.128700E-16  3.800003E-16  9.934593E-15
         7   8 -5.276786E-06 -5.276786E-06  1.508857E-15 -1.914057E-15  8.690067E-16 -2.231295E-15
         8   1 -5.276786E-06 -5.276786E-06  2.021792E-14 -1.751404E-14  6.021152E-15  1.643594E-14
         8   2 -5.276786E-06 -5.276786E-06  1.575123E-14  6.020450E-15  6.021152E-15  7.616036E-15
         8   3 -5.276785E-06 -5.276785E-06  4.751060E-14 -1.751404E-14  3.221693E-15  1.111163E-15
         8   4 -5.276785E-06 -5.276785E-06  3.960940E-14  1.025695E-34 -1.156816E-15 -7.161432E-15
         8   5 -5.276786E-06 -5.276786E-06  7.082397E-15  1.156883E-33 -8.901050E-15 -2.420845E-15
         8   6 -5.276786E-06 -5.276786E-06  3.709646E-14 -1.094627E-14 -3.427914E-15 -5.736599E-16
         8   7 -5.276786E-06 -5.276786E-06 -1.159927E-14  4.527526E-34  8.818230E-15  4.146918E-15
         8   8 -5.276786E-06 -5.276786E-06 -1.293271E-14 -8.757018E-15 -3.222669E-15 -6.594110E-15
         9   1 -5.276785E-06 -5.276785E-06  5.683410E-14  1.751404E-14 -9.146191E-16  1.143014E-15
         9   2 -5.276785E-06 -5.276785E-06  5.058713E-14  1.532478E-14  2.261987E-14  9.110671E-15
         9   3 -5.276786E-06 -5.276786E-06  1.356545E-14  1.751404E-14 -8.271743E-15 -1.046240E-15
         9   4 -5.276786E-06 -5.276786E-06  8.670233E-15  8.757018E-15  1.581006E-14  4.732163E-15
         9   5 -5.276786E-06 -5.276786E-06 -5.559651E-15  7.065640E-34 -7.791914E-15 -6.093876E-15
         9   6 -5.276786E-06 -5.276786E-06 -5.238851E-15 -1.751404E-14  2.231033E-14  3.509108E-15
         9   7 -5.276786E-06 -5.276786E-06 -1.927337E-14  4.360522E-33 -1.570296E-14 -1.266164E-14
         9   8 -5.276786E-06 -5.276786E-06  3.744411E-15 -8.757018E-15 -3.781835E-16 -1.181567E-14

 strains (elem, integ.pnt.,exx,eyy,ezz,exy,exz,eyz) forset EALL and time  0.3078125E-01

         1   1 -1.758929E-11 -1.758929E-11  1.507653E-11  2.574842E-27  1.009742E-28  8.077936E-28
         1   2 -1.758929E-11 -1.758929E-11  1.507653E-11  4.038968E-27  2.423381E-27 -5.048710E-28
         1   3 -1.758929E-11 -1.758929E-11  1.507653E-11  7.219655E-27 -2.019484E-28  1.413639E-27
         1   4 -1.758929E-11 -1.758929E-11  1.507653E-11  8.683781E-27  1.615587E-27 -2.726303E-27
         1   5 -1.758929E-11 -1.758929E-11  1.507653E-11  1.009742E-27 -7.068194E-28  1.817536E-27
         1   6 -1.758929E-11 -1.758929E-11  1.507653E-11  2.019484E-27  1.615587E-27  1.979043E-38
         1   7 -1.758929E-11 -1.758929E-11  1.507653E-11  2.221432E-27 -1.615587E-27  2.423381E-27
         1   8 -1.758929E-11 -1.758929E-11  1.507653E-11  3.231174E-27 -7.916171E-38 -2.221432E-27
         2   1 -1.758929E-11 -1.758929E-11  1.507653E-11 -2.380254E-21 -5.161789E-20  2.589180E-24
         2   2 -1.758929E-11 -1.758929E-11  1.507653E-11  2.472480E-20  6.866078E-20  8.188192E-22
         2   3 -1.758929E-11 -1.758929E-11  1.507653E-11 -8.883228E-21  2.871332E-20 -3.590475E-21
         2   4 -1.758929E-11 -1.758929E-11  1.507653E-11 -1.904762E-20 -1.068120E-19  2.143936E-21
         2   5 -1.758929E-11 -1.758929E-11  1.507653E-11 -5.407011E-20 -4.453583E-20  3.602727E-21
         2   6 -1.758929E-11 -1.758929E-11  1.507653E-11  2.724505E-20  4.524966E-20  1.730757E-21
         2   7 -1.758929E-11 -1.758929E-11  1.507653E-11 -5.368763E-20  8.731729E-20  9.662827E-24
         2   8 -1.758929E-11 -1.758929E-11  1.507653E-11 -1.303005E-20 -1.432666E-20  3.055872E-21
         3   1 -1.758929E-11 -1.758929E-11  1.507653E-11 -2.228131E-20  6.833528E-20  6.037879E-22
         3   2 -1.758929E-11 -1.758929E-11  1.507653E-11  1.837627E-20 -1.975615E-20  2.436882E-21
         3   3 -1.758929E-11 -1.758929E-11  1.507653E-11 -9.102600E-21 -5.733467E-20 -1.140453E-20
         3   4 -1.758929E-11 -1.758929E-11  1.507653E-11  7.898883E-20  1.188482E-19  5.537626E-21
         3   5 -1.758929E-11 -1.758929E-11  1.507653E-11 -2.042743E-19  1.568965E-20  1.426169E-20
         3   6 -1.758929E-11 -1.758929E-11  1.507653E-11 -1.229591E-19 -1.130594E-19  5.993824E-21
         3   7 -1.758929E-11 -1.758929E-11  1.507653E-11 -1.699429E-19 -6.587115E-20  2.253367E-21
         3   8 -1.758929E-11 -1.758929E-11  1.507653E-11 -3.441760E-20 -2.521357E-20  9.094569E-21
         4   1 -1.758929E-11 -1.758929E-11  1.507653E-11  2.281304E-20  1.473433E-22 -9.485367E-21
         4   2 -1.758929E-11 -1.758929E-11  1.507653E-11  2.034357E-20  6.399378E-21  4.119644E-20
         4   3 -1.758929E-11 -1.758929E-11  1.507653E-11  3.975369E-20  3.313119E-22  5.150101E-20
         4   4 -1.758929E-11 -1.758929E-11  1.507653E-11  3.728423E-20 -1.787643E-21  2.086765E-20
         4   5 -1.758929E-11 -1.758929E-11  1.507653E-11  3.546410E-20 -5.702142E-21 -5.754436E-20
         4   6 -1.758929E-11 -1.758929E-11  1.507653E-11  2.127525E-20  5.498923E-22  2.911611E-20
         4   7 -1.758929E-11 -1.758929E-11  1.507653E-11  4.901663E-20  3.355426E-21  1.699454E-20
         4   8 -1.758929E-11 -1.758929E-11  1.507653E-11  3.482778E-20  1.236472E-21  2.011054E-21
         5   1 -1.758929E-11 -1.758929E-11  1.507653E-11 -2.710505E-20 -1.569015E-20 -1.356658E-20
         5   2 -1.758929E-11 -1.758929E-11  1.507653E-11  3.049319E-20  4.868435E-20  2.535866E-20
         5   3 -1.758929E-11 -1.758929E-11  1.507653E-11  1.355253E-20 -4.818406E-22 -2.711910E-20
         5   4 -1.758929E-11 -1.758929E-11  1.507653E-11  3.388132E-20 -3.436316E-20 -1.191079E-20
         5   5 -1.758929E-11 -1.758929E-11  1.507653E-11  1.355253E-20 -1.475399E-20 -6.103880E-20
         5   6 -1.758929E-11 -1.758929E-11  1.507653E-11 -2.710505E-20  1.065700E-20 -6.492207E-22
         5   7 -1.758929E-11 -1.758929E-11  1.507653E-11  2.527313E-36 -1.798254E-21  2.705262E-20
         5   8 -1.758929E-11 -1.758929E-11  1.507653E-11 -2.710505E-20  7.274065E-20 -6.841186E-20
         6   1 -1.758929E-11 -1.758929E-11  1.507653E-11  5.759824E-20  1.854489E-20 -2.830099E-20
         6   2 -1.758929E-11 -1.758929E-11  1.507653E-11  4.404571E-20 -5.172037E-21 -5.340506E-20
         6   3 -1.758929E-11 -1.758929E-11  1.507653E-11  2.710505E-20 -6.076928E-20 -1.195941E-21
         6   4 -1.758929E-11 -1.758929E-11  1.507653E-11  8.131516E-20 -3.366423E-20 -2.630000E-20
         6   5 -1.758929E-11 -1.758929E-11  1.507653E-11  2.710505E-20  8.710599E-21 -4.512089E-20
         6   6 -1.758929E-11 -1.758929E-11  1.507653E-11  1.277398E-39 -5.566391E-20 -3.934715E-20
         6   7 -1.758929E-11 -1.758929E-11  1.507653E-11  5.421011E-20 -2.447917E-20 -3.156837E-20
         6   8 -1.758929E-11 -1.758929E-11  1.507653E-11 -2.710505E-20  2.625882E-21 -4.442934E-20
         7   1 -1.758929E-11 -1.758929E-11  1.507653E-11  2.722131E-20  2.183908E-21 -1.597040E-19
         7   2 -1.758929E-11 -1.758929E-11  1.507653E-11  2.753891E-20  1.163367E-20 -3.951103E-20
         7   3 -1.758929E-11 -1.758929E-11  1.507653E-11  1.162510E-22  1.441450E-21 -3.773127E-20
         7   4 -1.758929E-11 -1.758929E-11  1.507653E-11  4.338548E-22  4.468632E-21 -9.017845E-21
         7   5 -1.758929E-11 -1.758929E-11  1.507653E-11  1.052453E-19 -1.299310E-21 -1.417880E-19
         7   6 -1.758929E-11 -1.758929E-11  1.507653E-11  9.657129E-20  8.150456E-21 -2.397717E-20
         7   7 -1.758929E-11 -1.758929E-11  1.507653E-11 -3.174910E-21  2.352383E-21  6.149986E-20
         7   8 -1.758929E-11 -1.758929E-11  1.507653E-11 -1.184892E-20  5.379565E-21 -1.381278E-20
         8   1 -1.758929E-11 -1.758929E-11  1.507653E-11 -1.084202E-19  3.727380E-20  1.017463E-19
         8   2 -1.758929E-11 -1.758929E-11  1.507653E-11  3.726945E-20  3.727380E-20  4.714689E-20
         8   3 -1.758929E-11 -1.758929E-11  1.507653E-11 -1.084202E-19  1.994381E-20  6.878629E-21
         8   4 -1.758929E-11 -1.758929E-11  1.507653E-11  5.263643E-41 -7.161242E-21 -4.433267E-20
         8   5 -1.758929E-11 -1.758929E-11  1.507653E-11  6.500459E-40 -5.510174E-20 -1.498619E-20
         8   6 -1.758929E-11 -1.758929E-11  1.507653E-11 -6.776264E-20 -2.122042E-20 -3.551228E-21
         8   7 -1.758929E-11 -1.758929E-11  1.507653E-11 -1.372194E-39  5.458904E-20  2.567140E-20
         8   8 -1.758929E-11 -1.758929E-11  1.507653E-11 -5.421011E-20 -1.994986E-20 -4.082068E-20
         9   1 -1.758928E-11 -1.758929E-11  1.507653E-11  1.084202E-19 -5.661928E-21  7.075802E-21
         9   2 -1.758928E-11 -1.758929E-11  1.507653E-11  9.486769E-20  1.400277E-19  5.639939E-20
         9   3 -1.758929E-11 -1.758929E-11  1.507653E-11  1.084202E-19 -5.120603E-20 -6.476726E-21
         9   4 -1.758929E-11 -1.758929E-11  1.507653E-11  5.421011E-20  9.787177E-20  2.929434E-20
         9   5 -1.758929E-11 -1.758929E-11  1.507653E-11  1.021515E-39 -4.823566E-20 -3.772400E-20
         9   6 -1.758929E-11 -1.758929E-11  1.507653E-11 -1.084202E-19  1.381116E-19  2.172305E-20
         9   7 -1.758929E-11 -1.758929E-11  1.507653E-11 -5.419916E-40 -9.720883E-20 -7.838158E-20
         9   8 -1.758929E-11 -1.758929E-11  1.507653E-11 -5.421011E-20 -2.341136E-21 -7.314464E-20

 displacements (vx,vy,vz) for set NALL and time  0.3978125E-01

         1  0.000000E+00  0.000000E+00  0.000000E+00
         2 -1.136607E-08  0.000000E+00  0.000000E+00
         3 -5.967187E-01  0.000000E+00  0.000000E+00
         4 -5.967188E-01  0.000000E+00  0.000000E+00
         5 -1.193437E+00  0.000000E+00  0.000000E+00
         6 -1.193438E+00  0.000000E+00  0.000000E+00
         7  0.000000E+00 -1.136607E-08  0.000000E+00
         8 -1.136607E-08 -1.136607E-08  0.000000E+00
         9 -5.967187E-01 -1.136607E-08  0.000000E+00
        10 -5.967188E-01 -1.136607E-08  0.000000E+00
        11 -1.193437E+00 -1.136607E-08  0.000000E+00
        12 -1.193438E+00 -1.136607E-08  0.000000E+00
        13  0.000000E+00 -5.967187E-01  0.000000E+00
        14 -1.136607E-08 -5.967187E-01  0.000000E+00
        15 -5.967187E-01 -5.967187E-01  0.000000E+00
        16 -5.967188E-01 -5.967187E-01  0.000000E+00
        17 -1.193437E+00 -5.967187E-01  0.000000E+00
        18 -1.193438E+00 -5.967187E-01  0.000000E+00
        19  0.000000E+00 -5.967188E-01  0.000000E+00
        20 -1.136607E-08 -5.967188E-01  0.000000E+00
        21 -5.967187E-01 -5.967188E-01  0.000000E+00
        22 -5.967188E-01 -5.967188E-01  0.000000E+00
        23 -1.193437E+00 -5.967188E-01  0.000000E+00
        24 -1.193438E+00 -5.967188E-01  0.000000E+00
        25  0.000000E+00 -1.193437E+00  0.000000E+00
        26 -1.136607E-08 -1.193437E+00  0.000000E+00
        27 -5.967187E-01 -1.193437E+00  0.000000E+00
        28 -5.967188E-01 -1.193437E+00  0.000000E+00
        29 -1.193437E+00 -1.193437E+00  0.000000E+00
        30 -1.193438E+00 -1.193437E+00  0.000000E+00
        31  0.000000E+00 -1.193438E+00  0.000000E+00
        32 -1.136607E-08 -1.193438E+00  0.000000E+00
        33 -5.967187E-01 -1.193438E+00  0.000000E+00
        34 -5.967188E-01 -1.193438E+00  0.000000E+00
        35 -1.193437E+00 -1.193438E+00  0.000000E+00
        36 -1.193438E+00 -1.193438E+00  0.000000E+00
        37  0.000000E+00  0.000000E+00  1.363929E-08
        38 -1.136607E-08  0.000000E+00  1.363929E-08
        39 -5.967187E-01  0.000000E+00  1.363929E-08
        40 -5.967188E-01  0.000000E+00  1.363929E-08
        41 -1.193437E+00  0.000000E+00  1.363929E-08
        42 -1.193438E+00  0.000000E+00  1.363929E-08
        43  0.000000E+00 -1.136607E-08  1.363929E-08
        44 -1.136607E-08 -1.136607E-08  1.363929E-08
        45 -5.967187E-01 -1.136607E-08  1.363929E-08
        46 -5.967188E-01 -1.136607E-08  1.363929E-08
        47 -1.193437E+00 -1.136607E-08  1.363929E-08
        48 -1.193438E+00 -1.136607E-08  1.363929E-08
        49  0.000000E+00 -5.967187E-01  1.363929E-08
        50 -1.136607E-08 -5.967187E-01  1.363929E-08
        51 -5.967187E-01 -5.967187E-01  1.363929E-08
        52 -5.967188E-01 -5.967187E-01  1.363929E-08
        53 -1.193437E+00 -5.967187E-01  1.363929E-08
        54 -1.193438E+00 -5.967187E-01  1.363929E-08
        55  0.000000E+00 -5.967188E-01  1.363929E-08
        56 -1.136607E-08 -5.967188E-01  1.363929E-08
        57 -5.967187E-01 -5.967188E-01  1.363929E-08
        58 -5.967188E-01 -5.967188E-01  1.363929E-08
        59 -1.193437E+00 -5.967188E-01  1.363929E-08
        60 -1.193438E+00 -5.967188E-01  1.363929E-08
        61  0.000000E+00 -1.193437E+00  1.363929E-08
        62 -1.136607E-08 -1.193437E+00  1.363929E-08
        63 -5.967187E-01 -1.193437E+00  1.363929E-08
        64 -5.967188E-01 -1.193437E+00  1.363929E-08
        65 -1.193437E+00 -1.193437E+00  1.363929E-08
        66 -1.193438E+00 -1.193437E+00  1.363929E-08
        67  0.000000E+00 -1.193438E+00  1.363929E-08
        68 -1.136607E-08 -1.193438E+00  1.363929E-08
        69 -5.967187E-01 -1.193438E+00  1.363929E-08
        70 -5.967188E-01 -1.193438E+00  1.363929E-08
        71 -1.193437E+00 -1.193438E+00  1.363929E-08
        72 -1.193438E+00 -1.193438E+00  1.363929E-08

 stresses (elem, integ.pnt.,sxx,syy,szz,sxy,sxz,syz) for set EALL and time  0.3978125E-01

         1   1 -6.819643E-06 -6.819643E-06  8.470329E-22 -9.786730E-23 -1.468009E-22 -9.786730E-23
         1   2 -6.819643E-06 -6.819643E-06  2.305817E-49 -2.283570E-22 -5.708926E-22  3.099131E-22
         1   3 -6.819643E-06 -6.819643E-06  8.470329E-22 -5.219589E-22  3.262243E-23 -6.524487E-23
         1   4 -6.819643E-06 -6.819643E-06  0.000000E+00 -6.524487E-22  1.304897E-22  1.109163E-21
         1   5 -6.819643E-06 -6.819643E-06 -1.694066E-21  5.219589E-22  1.304897E-22  2.283570E-22
         1   6 -6.819643E-06 -6.819643E-06  8.470329E-22  1.109163E-21 -2.936019E-22  1.794234E-22
         1   7 -6.819643E-06 -6.819643E-06 -8.470329E-22  1.370142E-21 -2.283570E-22  3.914692E-22
         1   8 -6.819643E-06 -6.819643E-06 -2.318993E-48  1.957346E-21 -1.304897E-22  9.786730E-22
         2   1 -6.819643E-06 -6.819643E-06 -8.657015E-15 -9.435330E-15  1.193693E-14  3.347466E-16
         2   2 -6.819643E-06 -6.819643E-06 -4.670468E-15  8.626019E-15  4.274540E-15 -2.701700E-17
         2   3 -6.819643E-06 -6.819643E-06  1.867270E-14 -1.128851E-14  4.222889E-17 -4.877253E-16
         2   4 -6.819643E-06 -6.819643E-06  1.618135E-14  1.169866E-14  4.222889E-17  7.533116E-16
         2   5 -6.819643E-06 -6.819643E-06  9.319083E-15 -8.613998E-15  1.464346E-14  2.071763E-15
         2   6 -6.819643E-06 -6.819643E-06  1.667151E-14 -1.518176E-14  7.528382E-15 -8.811573E-16
         2   7 -6.819643E-06 -6.819643E-06  2.351327E-14 -8.223260E-15  1.576005E-16  1.249291E-15
         2   8 -6.819643E-06 -6.819643E-06  2.438780E-14 -1.041251E-14 -1.297793E-14 -1.008287E-16
         3   1 -6.819643E-06 -6.819643E-06  1.745538E-14 -1.167115E-14 -2.169614E-14  2.466932E-15
         3   2 -6.819643E-06 -6.819643E-06  2.479799E-14  1.569453E-14  3.480290E-15 -2.065093E-15
         3   3 -6.819643E-06 -6.819643E-06 -4.360349E-15 -7.670405E-15  1.331798E-14  2.827151E-15
         3   4 -6.819643E-06 -6.819643E-06 -2.701880E-14  1.086613E-15  3.083202E-14 -2.086170E-15
         3   5 -6.819643E-06 -6.819643E-06 -1.298504E-14  3.629706E-14 -1.678103E-14  8.846498E-15
         3   6 -6.819643E-06 -6.819643E-06 -6.443144E-15  5.647494E-15  4.016889E-15 -7.685954E-15
         3   7 -6.819643E-06 -6.819643E-06 -3.603889E-15  2.224995E-14  1.936819E-14  9.206717E-15
         3   8 -6.819643E-06 -6.819643E-06 -2.706306E-14  4.735917E-15  6.232663E-15 -7.707031E-15
         4   1 -6.819643E-06 -6.819643E-06  4.283451E-15 -2.297091E-17  3.234568E-16 -1.368215E-16
         4   2 -6.819643E-06 -6.819643E-06  8.059833E-15 -8.572869E-17 -3.033962E-16 -1.637517E-15
         4   3 -6.819643E-06 -6.819643E-06  3.254805E-15 -2.297091E-17 -3.884316E-16 -1.368215E-16
         4   4 -6.819643E-06 -6.819643E-06  5.194692E-16 -8.572869E-17 -3.555120E-16 -1.090203E-15
         4   5 -6.819643E-06 -6.819643E-06 -3.600704E-15  3.151200E-16  1.834010E-15  3.867884E-15
         4   6 -6.819643E-06 -6.819643E-06  3.459561E-15  1.176044E-15  1.207157E-15 -7.848129E-16
         4   7 -6.819643E-06 -6.819643E-06 -3.243828E-15  3.151200E-16 -1.482566E-15  8.246392E-15
         4   8 -6.819643E-06 -6.819643E-06 -2.695283E-15  1.176044E-15 -1.449646E-15 -1.063646E-14
         5   1 -6.819643E-06 -6.819643E-06 -3.050118E-14  1.587209E-14  2.129989E-15 -6.423489E-15
         5   2 -6.819643E-06 -6.819643E-06 -3.518624E-14  1.039896E-14  9.792380E-15 -3.556829E-15
         5   3 -6.819643E-06 -6.819643E-06 -3.197868E-14  1.751404E-14 -8.138876E-15  1.442739E-16
         5   4 -6.819643E-06 -6.819643E-06 -1.626311E-14  1.696672E-14 -1.689589E-14  8.216800E-16
         5   5 -6.819643E-06 -6.819643E-06 -2.968021E-14 -1.094627E-14  6.933192E-15 -1.040783E-14
         5   6 -6.819643E-06 -6.819643E-06 -3.518624E-14  2.189254E-15 -1.276511E-15  2.906883E-16
         5   7 -6.819643E-06 -6.819643E-06 -2.869480E-14 -8.757018E-15 -6.450083E-15  5.384379E-16
         5   8 -6.819643E-06 -6.819643E-06 -2.447282E-14 -2.189254E-15  1.176798E-16 -8.466329E-15
         6   1 -6.819643E-06 -6.819643E-06 -6.116533E-14 -2.079792E-14  1.058217E-14  1.103162E-14
         6   2 -6.819643E-06 -6.819643E-06 -2.242822E-14 -2.517643E-14 -2.882440E-14 -2.157902E-14
         6   3 -6.819643E-06 -6.819643E-06 -4.580491E-14 -1.532478E-14  2.011468E-14  8.535027E-17
         6   4 -6.819643E-06 -6.819643E-06 -2.592115E-15  9.851645E-15  2.600641E-15 -7.896183E-15
         6   5 -6.819643E-06 -6.819643E-06 -2.011681E-14 -2.189254E-15 -1.508097E-14 -1.281699E-14
         6   6 -6.819643E-06 -6.819643E-06  8.768656E-15 -1.970329E-14 -3.587888E-14 -7.733595E-15
         6   7 -6.819643E-06 -6.819643E-06  1.694354E-16  5.803974E-33  2.721976E-14  3.185314E-16
         6   8 -6.819643E-06 -6.819643E-06  4.796617E-15 -4.378509E-15 -1.218682E-14 -7.733595E-15
         7   1 -6.819643E-06 -6.819643E-06  2.676105E-14  8.019664E-15  3.625597E-16  8.759087E-15
         7   2 -6.819643E-06 -6.819643E-06  1.834746E-14  6.005176E-15  3.404976E-15  2.233029E-15
         7   3 -6.819643E-06 -6.819643E-06  2.375345E-14 -7.373537E-16 -1.364705E-15 -1.751197E-14
         7   4 -6.819643E-06 -6.819643E-06  1.562471E-14 -2.751841E-15 -3.155205E-15  4.377500E-17
         7   5 -6.819643E-06 -6.819643E-06  2.001460E-14  1.430012E-14 -1.689325E-15  7.724470E-18
         7   6 -6.819643E-06 -6.819643E-06  2.145265E-14  5.519552E-15  1.353091E-15  1.001502E-14
         7   7 -6.819643E-06 -6.819643E-06  6.857878E-15  1.430012E-14 -3.302650E-15  7.724470E-18
         7   8 -6.819643E-06 -6.819643E-06  8.580782E-15  5.519552E-15 -5.093149E-15  1.633705E-16
         8   1 -6.819643E-06 -6.819643E-06  2.314360E-14  1.970329E-14  8.562924E-16  1.019648E-14
         8   2 -6.819643E-06 -6.819643E-06 -5.627492E-16  1.860866E-14  1.403606E-15 -1.517570E-14
         8   3 -6.819643E-06 -6.819643E-06  2.804949E-14  1.532478E-14 -4.340904E-16  1.439463E-15
         8   4 -6.819643E-06 -6.819643E-06 -2.828393E-15  1.532478E-14 -1.794813E-14 -4.229428E-15
         8   5 -6.819643E-06 -6.819643E-06  1.798370E-15  2.627105E-14 -3.372037E-15 -1.214188E-14
         8   6 -6.819643E-06 -6.819643E-06  1.421472E-14  2.627105E-14 -6.354685E-16 -6.011387E-15
         8   7 -6.819643E-06 -6.819643E-06  1.163009E-14  8.757018E-15 -1.913408E-14  5.372150E-15
         8   8 -6.819643E-06 -6.819643E-06  2.180072E-14  2.189254E-15 -1.475557E-14 -8.200642E-15
         9   1 -6.819643E-06 -6.819643E-06 -5.496077E-15 -1.313553E-14 -3.196181E-14  1.743959E-14
         9   2 -6.819643E-06 -6.819643E-06 -2.923635E-14 -1.751404E-14  1.948567E-14  5.996218E-15
         9   3 -6.819643E-06 -6.819643E-06  8.772886E-15 -4.378509E-15  1.789395E-14  1.743959E-14
         9   4 -6.819643E-06 -6.819643E-06 -9.977491E-15  2.079792E-14  4.758422E-15 -1.589633E-14
         9   5 -6.819643E-06 -6.819643E-06  2.713628E-15 -4.689397E-34 -1.803290E-14  8.479167E-15
         9   6 -6.819643E-06 -6.819643E-06  6.886346E-15 -1.313553E-14  4.954276E-15 -1.804443E-14
         9   7 -6.819643E-06 -6.819643E-06 -4.362640E-15  1.163557E-32  1.893189E-14  1.723618E-14
         9   8 -6.819643E-06 -6.819643E-06 -2.803884E-14 -1.751404E-14  1.417854E-15  1.658863E-15

 strains (elem, integ.pnt.,exx,eyy,ezz,exy,exz,eyz) forset EALL and time  0.3978125E-01

         1   1 -2.273214E-11 -2.273214E-11  1.948469E-11 -6.058452E-28 -9.087678E-28 -6.058452E-28
         1   2 -2.273214E-11 -2.273214E-11  1.948469E-11 -1.413639E-27 -3.534097E-27  1.918510E-27
         1   3 -2.273214E-11 -2.273214E-11  1.948469E-11 -3.231174E-27  2.019484E-28 -4.038968E-28
         1   4 -2.273214E-11 -2.273214E-11  1.948469E-11 -4.038968E-27  8.077936E-28  6.866245E-27
         1   5 -2.273214E-11 -2.273214E-11  1.948469E-11  3.231174E-27  8.077936E-28  1.413639E-27
         1   6 -2.273214E-11 -2.273214E-11  1.948469E-11  6.866245E-27 -1.817536E-27  1.110716E-27
         1   7 -2.273214E-11 -2.273214E-11  1.948469E-11  8.481832E-27 -1.413639E-27  2.423381E-27
         1   8 -2.273214E-11 -2.273214E-11  1.948469E-11  1.211690E-26 -8.077936E-28  6.058452E-27
         2   1 -2.273214E-11 -2.273214E-11  1.948469E-11 -5.840918E-20  7.389528E-20  2.072241E-21
         2   2 -2.273214E-11 -2.273214E-11  1.948469E-11  5.339917E-20  2.646144E-20 -1.672481E-22
         2   3 -2.273214E-11 -2.273214E-11  1.948469E-11 -6.988127E-20  2.614169E-22 -3.019252E-21
         2   4 -2.273214E-11 -2.273214E-11  1.948469E-11  7.242027E-20  2.614169E-22  4.663358E-21
         2   5 -2.273214E-11 -2.273214E-11  1.948469E-11 -5.332475E-20  9.064998E-20  1.282520E-20
         2   6 -2.273214E-11 -2.273214E-11  1.948469E-11 -9.398233E-20  4.660427E-20 -5.454783E-21
         2   7 -2.273214E-11 -2.273214E-11  1.948469E-11 -5.090589E-20  9.756224E-22  7.733708E-21
         2   8 -2.273214E-11 -2.273214E-11  1.948469E-11 -6.445842E-20 -8.033954E-20 -6.241776E-22
         3   1 -2.273214E-11 -2.273214E-11  1.948469E-11 -7.224999E-20 -1.343094E-19  1.527149E-20
         3   2 -2.273214E-11 -2.273214E-11  1.948469E-11  9.715660E-20  2.154465E-20 -1.278391E-20
         3   3 -2.273214E-11 -2.273214E-11  1.948469E-11 -4.748346E-20  8.244466E-20  1.750141E-20
         3   4 -2.273214E-11 -2.273214E-11  1.948469E-11  6.726649E-21  1.908649E-19 -1.291438E-20
         3   5 -2.273214E-11 -2.273214E-11  1.948469E-11  2.246961E-19 -1.038826E-19  5.476404E-20
         3   6 -2.273214E-11 -2.273214E-11  1.948469E-11  3.496068E-20  2.486645E-20 -4.757971E-20
         3   7 -2.273214E-11 -2.273214E-11  1.948469E-11  1.377378E-19  1.198983E-19  5.699396E-20
         3   8 -2.273214E-11 -2.273214E-11  1.948469E-11  2.931758E-20  3.858315E-20 -4.771019E-20
         4   1 -2.273214E-11 -2.273214E-11  1.948469E-11 -1.422008E-22  2.002351E-21 -8.469905E-22
         4   2 -2.273214E-11 -2.273214E-11  1.948469E-11 -5.307014E-22 -1.878167E-21 -1.013701E-20
         4   3 -2.273214E-11 -2.273214E-11  1.948469E-11 -1.422008E-22 -2.404576E-21 -8.469905E-22
         4   4 -2.273214E-11 -2.273214E-11  1.948469E-11 -5.307014E-22 -2.200789E-21 -6.748879E-21
         4   5 -2.273214E-11 -2.273214E-11  1.948469E-11  1.950743E-21  1.135339E-20  2.394404E-20
         4   6 -2.273214E-11 -2.273214E-11  1.948469E-11  7.280272E-21  7.472876E-21 -4.858366E-21
         4   7 -2.273214E-11 -2.273214E-11  1.948469E-11  1.950743E-21 -9.177790E-21  5.104910E-20
         4   8 -2.273214E-11 -2.273214E-11  1.948469E-11  7.280272E-21 -8.974002E-21 -6.584474E-20
         5   1 -2.273214E-11 -2.273214E-11  1.948469E-11  9.825582E-20  1.318565E-20 -3.976446E-20
         5   2 -2.273214E-11 -2.273214E-11  1.948469E-11  6.437450E-20  6.061949E-20 -2.201846E-20
         5   3 -2.273214E-11 -2.273214E-11  1.948469E-11  1.084202E-19 -5.038352E-20  8.931244E-22
         5   4 -2.273214E-11 -2.273214E-11  1.948469E-11  1.050321E-19 -1.045936E-19  5.086591E-21
         5   5 -2.273214E-11 -2.273214E-11  1.948469E-11 -6.776264E-20  4.291976E-20 -6.442945E-20
         5   6 -2.273214E-11 -2.273214E-11  1.948469E-11  1.355253E-20 -7.902214E-21  1.799499E-21
         5   7 -2.273214E-11 -2.273214E-11  1.948469E-11 -5.421011E-20 -3.992909E-20  3.333187E-21
         5   8 -2.273214E-11 -2.273214E-11  1.948469E-11 -1.355253E-20  7.284941E-22 -5.241061E-20
         6   1 -2.273214E-11 -2.273214E-11  1.948469E-11 -1.287490E-19  6.550870E-20  6.829099E-20
         6   2 -2.273214E-11 -2.273214E-11  1.948469E-11 -1.558541E-19 -1.784368E-19 -1.335844E-19
         6   3 -2.273214E-11 -2.273214E-11  1.948469E-11 -9.486769E-20  1.245194E-19  5.283588E-22
         6   4 -2.273214E-11 -2.273214E-11  1.948469E-11  6.098637E-20  1.609921E-20 -4.888114E-20
         6   5 -2.273214E-11 -2.273214E-11  1.948469E-11 -1.355253E-20 -9.335836E-20 -7.934330E-20
         6   6 -2.273214E-11 -2.273214E-11  1.948469E-11 -1.219727E-19 -2.221074E-19 -4.787464E-20
         6   7 -2.273214E-11 -2.273214E-11  1.948469E-11 -3.502788E-38  1.685033E-19  1.971861E-21
         6   8 -2.273214E-11 -2.273214E-11  1.948469E-11 -2.710505E-20 -7.544222E-20 -4.787464E-20
         7   1 -2.273214E-11 -2.273214E-11  1.948469E-11  4.964554E-20  2.244417E-21  5.422292E-20
         7   2 -2.273214E-11 -2.273214E-11  1.948469E-11  3.717490E-20  2.107843E-20  1.382352E-20
         7   3 -2.273214E-11 -2.273214E-11  1.948469E-11 -4.564570E-21 -8.448175E-21 -1.084074E-19
         7   4 -2.273214E-11 -2.273214E-11  1.948469E-11 -1.703521E-20 -1.953222E-20  2.709881E-22
         7   5 -2.273214E-11 -2.273214E-11  1.948469E-11  8.852457E-20 -1.045773E-20  4.781815E-23
         7   6 -2.273214E-11 -2.273214E-11  1.948469E-11  3.416866E-20  8.376280E-21  6.199771E-20
         7   7 -2.273214E-11 -2.273214E-11  1.948469E-11  8.852457E-20 -2.044497E-20  4.781815E-23
         7   8 -2.273214E-11 -2.273214E-11  1.948469E-11  3.416865E-20 -3.152902E-20  1.011341E-21
         8   1 -2.273214E-11 -2.273214E-11  1.948469E-11  1.219727E-19  5.300858E-21  6.312107E-20
         8   2 -2.273214E-11 -2.273214E-11  1.948469E-11  1.151965E-19  8.688990E-21 -9.394481E-20
         8   3 -2.273214E-11 -2.273214E-11  1.948469E-11  9.486769E-20 -2.687226E-21  8.910963E-21
         8   4 -2.273214E-11 -2.273214E-11  1.948469E-11  9.486769E-20 -1.111074E-19 -2.618218E-20
         8   5 -2.273214E-11 -2.273214E-11  1.948469E-11  1.626303E-19 -2.087451E-20 -7.516405E-20
         8   6 -2.273214E-11 -2.273214E-11  1.948469E-11  1.626303E-19 -3.933853E-21 -3.721335E-20
         8   7 -2.273214E-11 -2.273214E-11  1.948469E-11  5.421011E-20 -1.184491E-19  3.325617E-20
         8   8 -2.273214E-11 -2.273214E-11  1.948469E-11  1.355253E-20 -9.134403E-20 -5.076588E-20
         9   1 -2.273214E-11 -2.273214E-11  1.948469E-11 -8.131516E-20 -1.978588E-19  1.079593E-19
         9   2 -2.273214E-11 -2.273214E-11  1.948469E-11 -1.084202E-19  1.206256E-19  3.711944E-20
         9   3 -2.273214E-11 -2.273214E-11  1.948469E-11 -2.710505E-20  1.107721E-19  1.079593E-19
         9   4 -2.273214E-11 -2.273214E-11  1.948469E-11  1.287490E-19  2.945690E-20 -9.840583E-20
         9   5 -2.273214E-11 -2.273214E-11  1.948469E-11 -1.752812E-38 -1.116322E-19  5.249008E-20
         9   6 -2.273214E-11 -2.273214E-11  1.948469E-11 -8.131516E-20  3.066933E-20 -1.117036E-19
         9   7 -2.273214E-11 -2.273214E-11  1.948469E-11 -2.354008E-38  1.171974E-19  1.067002E-19
         9   8 -2.273214E-11 -2.273214E-11  1.948469E-11 -1.084202E-19  8.777189E-21  1.026915E-20

 displacements (vx,vy,vz) for set NALL and time  0.4878125E-01

         1  0.000000E+00  0.000000E+00  0.000000E+00
         2 -1.393750E-08  0.000000E+00  0.000000E+00
         3 -7.317187E-01  0.000000E+00  0.000000E+00
         4 -7.317188E-01  0.000000E+00  0.000000E+00
         5 -1.463437E+00  0.000000E+00  0.000000E+00
         6 -1.463438E+00  0.000000E+00  0.000000E+00
         7  0.000000E+00 -1.393750E-08  0.000000E+00
         8 -1.393750E-08 -1.393750E-08  0.000000E+00
         9 -7.317187E-01 -1.393750E-08  0.000000E+00
        10 -7.317188E-01 -1.393750E-08  0.000000E+00
        11 -1.463437E+00 -1.393750E-08  0.000000E+00
        12 -1.463438E+00 -1.393750E-08  0.000000E+00
        13  0.000000E+00 -7.317187E-01  0.000000E+00
        14 -1.393750E-08 -7.317187E-01  0.000000E+00
        15 -7.317187E-01 -7.317187E-01  0.000000E+00
        16 -7.317188E-01 -7.317187E-01  0.000000E+00
        17 -1.463437E+00 -7.317187E-01  0.000000E+00
        18 -1.463438E+00 -7.317187E-01  0.000000E+00
        19  0.000000E+00 -7.317188E-01  0.000000E+00
        20 -1.393750E-08 -7.317188E-01  0.000000E+00
        21 -7.317187E-01 -7.317188E-01  0.000000E+00
        22 -7.317188E-01 -7.317188E-01  0.000000E+00
        23 -1.463437E+00 -7.317188E-01  0.000000E+00
        24 -1.463438E+00 -7.317188E-01  0.000000E+00
        25  0.000000E+00 -1.463437E+00  0.000000E+00
        26 -1.393750E-08 -1.463437E+00  0.000000E+00
        27 -7.317187E-01 -1.463437E+00  0.000000E+00
        28 -7.317188E-01 -1.463437E+00  0.000000E+00
        29 -1.463437E+00 -1.463437E+00  0.000000E+00
        30 -1.463438E+00 -1.463437E+00  0.000000E+00
        31  0.000000E+00 -1.463438E+00  0.000000E+00
        32 -1.393750E-08 -1.463438E+00  0.000000E+00
        33 -7.317187E-01 -1.463438E+00  0.000000E+00
        34 -7.317188E-01 -1.463438E+00  0.000000E+00
        35 -1.463437E+00 -1.463438E+00  0.000000E+00
        36 -1.463438E+00 -1.463438E+00  0.000000E+00
        37  0.000000E+00  0.000000E+00  1.672500E-08
        38 -1.393750E-08  0.000000E+00  1.672500E-08
        39 -7.317187E-01  0.000000E+00  1.672500E-08
        40 -7.317188E-01  0.000000E+00  1.672500E-08
        41 -1.463437E+00  0.000000E+00  1.672500E-08
        42 -1.463438E+00  0.000000E+00  1.672500E-08
        43  0.000000E+00 -1.393750E-08  1.672500E-08
        44 -1.393750E-08 -1.393750E-08  1.672500E-08
        45 -7.317187E-01 -1.393750E-08  1.672500E-08
        46 -7.317188E-01 -1.393750E-08  1.672500E-08
        47 -1.463437E+00 -1.393750E-08  1.672500E-08
        48 -1.463438E+00 -1.393750E-08  1.672500E-08
        49  0.000000E+00 -7.317187E-01  1.672500E-08
        50 -1.393750E-08 -7.317187E-01  1.672500E-08
        51 -7.317187E-01 -7.317187E-01  1.672500E-08
        52 -7.317188E-01 -7.317187E-01  1.672500E-08
        53 -1.463437E+00 -7.317187E-01  1.672500E-08
        54 -1.463438E+00 -7.317187E-01  1.672500E-08
        55  0.000000E+00 -7.317188E-01  1.672500E-08
        56 -1.393750E-08 -7.317188E-01  1.672500E-08
        57 -7.317187E-01 -7.317188E-01  1.672500E-08
        58 -7.317188E-01 -7.317188E-01  1.672500E-08
        59 -1.463437E+00 -7.317188E-01  1.672500E-08
        60 -1.463438E+00 -7.317188E-01  1.672500E-08
        61  0.000000E+00 -1.463437E+00  1.672500E-08
        62 -1.393750E-08 -1.463437E+00  1.672500E-08
        63 -7.317187E-01 -1.463437E+00  1.672500E-08
        64 -7.317188E-01 -1.463437E+00  1.672500E-08
        65 -1.463437E+00 -1.463437E+00  1.672500E-08
        66 -1.463438E+00 -1.463437E+00  1.672500E-08
        67  0.000000E+00 -1.463438E+00  1.672500E-08
        68 -1.393750E-08 -1.463438E+00  1.672500E-08
        69 -7.317187E-01 -1.463438E+00  1.672500E-08
        70 -7.317188E-01 -1.463438E+00  1.672500E-08
        71 -1.463437E+00 -1.463438E+00  1.672500E-08
        72 -1.463438E+00 -1.463438E+00  1.672500E-08

 stresses (elem, integ.pnt.,sxx,syy,szz,sxy,sxz,syz) for set EALL and time  0.4878125E-01

         1   1 -8.362500E-06 -8.362500E-06  1.732657E-48  2.772907E-22 -1.549566E-22  2.283570E-22
         1   2 -8.362500E-06 -8.362500E-06  1.284669E-49  1.631122E-23 -1.304897E-22 -8.971169E-23
         1   3 -8.362500E-06 -8.362500E-06 -1.694066E-21  1.174408E-21  6.524487E-23  4.567141E-22
         1   4 -8.362500E-06 -8.362500E-06 -4.802687E-48  9.134281E-22  5.219589E-22 -7.013823E-22
         1   5 -8.362500E-06 -8.362500E-06  9.737135E-48  1.304897E-22 -3.180687E-22  5.545814E-22
         1   6 -8.362500E-06 -8.362500E-06 -8.470329E-22  7.176935E-22 -2.936019E-22  5.708926E-23
         1   7 -8.362500E-06 -8.362500E-06  1.096251E-47 -6.524487E-23 -3.262243E-22  5.219589E-22
         1   8 -8.362500E-06 -8.362500E-06 -8.470329E-22  5.219589E-22  1.304897E-22 -5.545814E-22
         2   1 -8.362500E-06 -8.362500E-06 -1.305343E-14  1.483572E-15 -1.337748E-14  8.697008E-16
         2   2 -8.362500E-06 -8.362500E-06 -2.645040E-15 -6.178818E-15 -1.447210E-14 -6.021540E-16
         2   3 -8.362500E-06 -8.362500E-06 -4.872396E-15 -4.443883E-16 -8.693128E-15 -2.664744E-17
         2   4 -8.362500E-06 -8.362500E-06 -7.327963E-15 -2.633643E-15 -1.088238E-14 -3.741007E-16
         2   5 -8.362500E-06 -8.362500E-06  1.483643E-15 -8.886516E-15 -8.057343E-15  4.142116E-15
         2   6 -8.362500E-06 -8.362500E-06  1.425328E-14 -2.318753E-15 -1.900362E-14 -2.475323E-15
         2   7 -8.362500E-06 -8.362500E-06  3.096918E-15 -9.240314E-15 -8.518579E-15  3.245768E-15
         2   8 -8.362500E-06 -8.362500E-06  3.002595E-15 -4.832964E-16  8.995456E-15 -2.247270E-15
         3   1 -8.362500E-06 -8.362500E-06  7.949547E-15  1.397934E-14  3.818591E-15  8.063074E-16
         3   2 -8.362500E-06 -8.362500E-06  7.583261E-15 -5.723947E-15 -9.316935E-15  4.653185E-17
         3   3 -8.362500E-06 -8.362500E-06  1.682057E-14  1.628469E-14 -2.029025E-14 -5.392281E-16
         3   4 -8.362500E-06 -8.362500E-06  1.316692E-15 -7.797108E-15  2.349484E-14  2.680286E-15
         3   5 -8.362500E-06 -8.362500E-06 -1.443841E-15 -3.214513E-14  1.980290E-14  4.354715E-15
         3   6 -8.362500E-06 -8.362500E-06  6.546378E-15 -1.495564E-15 -8.657405E-15 -2.460095E-15
         3   7 -8.362500E-06 -8.362500E-06  7.427178E-15 -2.426877E-14 -1.036097E-14  3.009180E-15
         3   8 -8.362500E-06 -8.362500E-06  2.798123E-16  2.002280E-15  2.466710E-14  1.736590E-16
         4   1 -8.362500E-06 -8.362500E-06 -5.387877E-15  2.281914E-15 -1.795812E-17  7.172573E-15
         4   2 -8.362500E-06 -8.362500E-06 -3.711553E-15  2.535066E-15  1.232778E-15 -4.306235E-15
         4   3 -8.362500E-06 -8.362500E-06 -1.583011E-14  8.849677E-15  9.206161E-17  1.592959E-14
         4   4 -8.362500E-06 -8.362500E-06 -1.031463E-14  9.102829E-15  1.077161E-16  1.868094E-14
         4   5 -8.362500E-06 -8.362500E-06  2.350972E-14 -5.402397E-16 -1.317757E-15 -1.467025E-14
         4   6 -8.362500E-06 -8.362500E-06  2.026022E-14 -2.016202E-15 -6.702057E-17 -1.257249E-14
         4   7 -8.362500E-06 -8.362500E-06  1.047382E-14 -5.402397E-16  3.279240E-16  2.843790E-15
         4   8 -8.362500E-06 -8.362500E-06  1.106347E-14 -2.016202E-15  3.435787E-16 -8.193985E-15
         5   1 -8.362500E-06 -8.362500E-06 -2.248884E-14  4.378509E-15 -6.865194E-15 -8.667200E-16
         5   2 -8.362500E-06 -8.362500E-06 -3.912238E-14  1.313553E-14  4.628392E-15 -1.365142E-14
         5   3 -8.362500E-06 -8.362500E-06 -1.345577E-14 -2.189254E-14  8.810410E-15  1.322534E-15
         5   4 -8.362500E-06 -8.362500E-06 -3.607826E-14 -7.662390E-15  1.756743E-14  1.261963E-14
         5   5 -8.362500E-06 -8.362500E-06 -1.263720E-14 -1.970329E-14  1.143889E-14  1.588204E-14
         5   6 -8.362500E-06 -8.362500E-06  1.341973E-14 -4.378509E-15  7.607696E-15  2.639007E-16
         5   7 -8.362500E-06 -8.362500E-06  6.247524E-15 -1.751404E-14 -8.557754E-15  4.935765E-15
         5   8 -8.362500E-06 -8.362500E-06  2.631549E-14  2.189254E-15  6.767027E-15  9.020918E-15
         6   1 -8.362500E-06 -8.362500E-06 -1.926310E-14  1.313553E-14  2.014855E-14 -1.782171E-14
         6   2 -8.362500E-06 -8.362500E-06  1.350844E-14  2.189254E-15  4.452597E-16  1.444045E-14
         6   3 -8.362500E-06 -8.362500E-06 -6.411646E-15  6.567763E-15 -1.773342E-15 -6.875434E-15
         6   4 -8.362500E-06 -8.362500E-06  1.267308E-14 -2.189254E-14  6.983676E-15  6.230745E-15
         6   5 -8.362500E-06 -8.362500E-06  2.342736E-14  8.757018E-15 -1.206040E-14 -1.268113E-14
         6   6 -8.362500E-06 -8.362500E-06 -1.112068E-14  3.502807E-14 -3.303386E-15 -1.599594E-14
         6   7 -8.362500E-06 -8.362500E-06  3.627882E-14 -8.757018E-15  2.840987E-14  1.577918E-14
         6   8 -8.362500E-06 -8.362500E-06 -5.388270E-15 -4.378509E-15  1.965285E-14 -2.037445E-14
         7   1 -8.362500E-06 -8.362500E-06 -2.603898E-14 -7.369211E-16 -5.210774E-16 -2.782902E-14
         7   2 -8.362500E-06 -8.362500E-06 -3.753840E-14 -2.750227E-15  2.655081E-15 -2.788479E-14
         7   3 -8.362500E-06 -8.362500E-06 -9.794298E-15 -7.369211E-16  1.271898E-15  2.820539E-15
         7   4 -8.362500E-06 -8.362500E-06 -6.721716E-15 -2.750227E-15  3.517754E-15 -1.256001E-14
         7   5 -8.362500E-06 -8.362500E-06 -2.593681E-14 -1.213641E-15 -5.120846E-15 -2.012316E-14
         7   6 -8.362500E-06 -8.362500E-06 -2.430070E-14 -4.529370E-15 -1.944688E-15 -3.403856E-15
         7   7 -8.362500E-06 -8.362500E-06 -1.164576E-14 -1.213641E-15  2.500931E-15 -6.987639E-15
         7   8 -8.362500E-06 -8.362500E-06  4.562347E-15 -4.529370E-15  4.746787E-15 -1.653938E-14
         8   1 -8.362500E-06 -8.362500E-06 -4.220785E-14 -1.532478E-14 -5.405619E-15 -2.675139E-14
         8   2 -8.362500E-06 -8.362500E-06 -4.922314E-14 -4.378509E-15 -1.574424E-15 -1.160772E-14
         8   3 -8.362500E-06 -8.362500E-06 -8.054038E-16 -1.532478E-14  1.630581E-14  3.898167E-15
         8   4 -8.362500E-06 -8.362500E-06  7.361695E-15 -4.378509E-15  3.170287E-15  1.247407E-14
         8   5 -8.362500E-06 -8.362500E-06 -4.384979E-14 -5.030307E-34 -1.643973E-15 -1.610140E-14
         8   6 -8.362500E-06 -8.362500E-06 -3.772955E-14 -6.567763E-15  1.751200E-14 -1.020956E-14
         8   7 -8.362500E-06 -8.362500E-06 -1.722481E-14 -1.751404E-14  2.176191E-14  3.206219E-14
         8   8 -8.362500E-06 -8.362500E-06 -5.773831E-15 -4.378509E-15  2.176191E-14 -2.115583E-14
         9   1 -8.362500E-06 -8.362500E-06 -6.880091E-14  2.189254E-14 -1.890857E-14  1.516554E-14
         9   2 -8.362500E-06 -8.362500E-06 -3.200062E-14  4.597434E-14  1.174099E-14 -1.744011E-14
         9   3 -8.362500E-06 -8.362500E-06 -2.393564E-15 -1.313553E-14 -1.977003E-14  2.030012E-15
         9   4 -8.362500E-06 -8.362500E-06 -2.765394E-14 -6.567763E-15  2.839357E-14  2.743961E-14
         9   5 -8.362500E-06 -8.362500E-06 -2.939433E-14 -3.502807E-14 -6.377711E-15 -9.937926E-15
         9   6 -8.362500E-06 -8.362500E-06  1.068984E-14 -4.378509E-15 -7.472338E-15 -3.606150E-14
         9   7 -8.362500E-06 -8.362500E-06 -1.552909E-14 -3.502807E-14 -8.419488E-15  2.509014E-14
         9   8 -8.362500E-06 -8.362500E-06 -1.780230E-14 -8.757018E-15  2.223007E-14  1.866986E-14

 strains (elem, integ.pnt.,exx,eyy,ezz,exy,exz,eyz) forset EALL and time  0.4878125E-01

         1   1 -2.787500E-11 -2.787500E-11  2.389286E-11  1.716561E-27 -9.592549E-28  1.413639E-27
         1   2 -2.787500E-11 -2.787500E-11  2.389286E-11  1.009742E-28 -8.077936E-28 -5.553581E-28
         1   3 -2.787500E-11 -2.787500E-11  2.389286E-11  7.270142E-27  4.038968E-28  2.827277E-27
         1   4 -2.787500E-11 -2.787500E-11  2.389286E-11  5.654555E-27  3.231174E-27 -4.341890E-27
         1   5 -2.787500E-11 -2.787500E-11  2.389286E-11  8.077936E-28 -1.968997E-27  3.433123E-27
         1   6 -2.787500E-11 -2.787500E-11  2.389286E-11  4.442865E-27 -1.817536E-27  3.534097E-28
         1   7 -2.787500E-11 -2.787500E-11  2.389286E-11 -4.038968E-28 -2.019484E-27  3.231174E-27
         1   8 -2.787500E-11 -2.787500E-11  2.389286E-11  3.231174E-27  8.077936E-28 -3.433123E-27
         2   1 -2.787500E-11 -2.787500E-11  2.389286E-11  9.184017E-21 -8.281295E-20  5.383862E-21
         2   2 -2.787500E-11 -2.787500E-11  2.389286E-11 -3.824983E-20 -8.958922E-20 -3.727620E-21
         2   3 -2.787500E-11 -2.787500E-11  2.389286E-11 -2.750975E-21 -5.381460E-20 -1.649603E-22
         2   4 -2.787500E-11 -2.787500E-11  2.389286E-11 -1.630350E-20 -6.736713E-20 -2.315862E-21
         2   5 -2.787500E-11 -2.787500E-11  2.389286E-11 -5.501177E-20 -4.987879E-20  2.564167E-20
         2   6 -2.787500E-11 -2.787500E-11  2.389286E-11 -1.435419E-20 -1.176414E-19 -1.532343E-20
         2   7 -2.787500E-11 -2.787500E-11  2.389286E-11 -5.720194E-20 -5.273406E-20  2.009285E-20
         2   8 -2.787500E-11 -2.787500E-11  2.389286E-11 -2.991835E-21  5.568616E-20 -1.391167E-20
         3   1 -2.787500E-11 -2.787500E-11  2.389286E-11  8.653879E-20  2.363890E-20  4.991427E-21
         3   2 -2.787500E-11 -2.787500E-11  2.389286E-11 -3.543396E-20 -5.767627E-20  2.880543E-22
         3   3 -2.787500E-11 -2.787500E-11  2.389286E-11  1.008100E-19 -1.256063E-19 -3.338078E-21
         3   4 -2.787500E-11 -2.787500E-11  2.389286E-11 -4.826781E-20  1.454442E-19  1.659225E-20
         3   5 -2.787500E-11 -2.787500E-11  2.389286E-11 -1.989936E-19  1.225894E-19  2.695776E-20
         3   6 -2.787500E-11 -2.787500E-11  2.389286E-11 -9.258251E-21 -5.359346E-20 -1.522916E-20
         3   7 -2.787500E-11 -2.787500E-11  2.389286E-11 -1.502353E-19 -6.413935E-20  1.862825E-20
         3   8 -2.787500E-11 -2.787500E-11  2.389286E-11  1.239507E-20  1.527011E-19  1.075032E-21
         4   1 -2.787500E-11 -2.787500E-11  2.389286E-11  1.412614E-20 -1.111693E-22  4.440164E-20
         4   2 -2.787500E-11 -2.787500E-11  2.389286E-11  1.569326E-20  7.631480E-21 -2.665765E-20
         4   3 -2.787500E-11 -2.787500E-11  2.389286E-11  5.478372E-20  5.699052E-22  9.861175E-20
         4   4 -2.787500E-11 -2.787500E-11  2.389286E-11  5.635084E-20  6.668142E-22  1.156439E-19
         4   5 -2.787500E-11 -2.787500E-11  2.389286E-11 -3.344341E-21 -8.157540E-21 -9.081580E-20
         4   6 -2.787500E-11 -2.787500E-11  2.389286E-11 -1.248125E-20 -4.148892E-22 -7.782972E-20
         4   7 -2.787500E-11 -2.787500E-11  2.389286E-11 -3.344341E-21  2.030006E-21  1.760441E-20
         4   8 -2.787500E-11 -2.787500E-11  2.389286E-11 -1.248125E-20  2.126916E-21 -5.072467E-20
         5   1 -2.787500E-11 -2.787500E-11  2.389286E-11  2.710505E-20 -4.249882E-20 -5.365410E-21
         5   2 -2.787500E-11 -2.787500E-11  2.389286E-11  8.131516E-20  2.865195E-20 -8.450881E-20
         5   3 -2.787500E-11 -2.787500E-11  2.389286E-11 -1.355253E-19  5.454063E-20  8.187117E-21
         5   4 -2.787500E-11 -2.787500E-11  2.389286E-11 -4.743385E-20  1.087507E-19  7.812152E-20
         5   5 -2.787500E-11 -2.787500E-11  2.389286E-11 -1.219727E-19  7.081219E-20  9.831737E-20
         5   6 -2.787500E-11 -2.787500E-11  2.389286E-11 -2.710505E-20  4.709526E-20  1.633671E-21
         5   7 -2.787500E-11 -2.787500E-11  2.389286E-11 -1.084202E-19 -5.297657E-20  3.055474E-20
         5   8 -2.787500E-11 -2.787500E-11  2.389286E-11  1.355253E-20  4.189112E-20  5.584378E-20
         6   1 -2.787500E-11 -2.787500E-11  2.389286E-11  8.131516E-20  1.247291E-19 -1.103248E-19
         6   2 -2.787500E-11 -2.787500E-11  2.389286E-11  1.355253E-20  2.756369E-21  8.939325E-20
         6   3 -2.787500E-11 -2.787500E-11  2.389286E-11  4.065758E-20 -1.097783E-20 -4.256221E-20
         6   4 -2.787500E-11 -2.787500E-11  2.389286E-11 -1.355253E-19  4.323228E-20  3.857128E-20
         6   5 -2.787500E-11 -2.787500E-11  2.389286E-11  5.421011E-20 -7.465964E-20 -7.850220E-20
         6   6 -2.787500E-11 -2.787500E-11  2.389286E-11  2.168404E-19 -2.044953E-20 -9.902249E-20
         6   7 -2.787500E-11 -2.787500E-11  2.389286E-11 -5.421011E-20  1.758706E-19  9.768065E-20
         6   8 -2.787500E-11 -2.787500E-11  2.389286E-11 -2.710505E-20  1.216605E-19 -1.261275E-19
         7   1 -2.787500E-11 -2.787500E-11  2.389286E-11 -4.561893E-21 -3.225718E-21 -1.722749E-19
         7   2 -2.787500E-11 -2.787500E-11  2.389286E-11 -1.702522E-20  1.643622E-20 -1.726201E-19
         7   3 -2.787500E-11 -2.787500E-11  2.389286E-11 -4.561893E-21  7.873653E-21  1.746048E-20
         7   4 -2.787500E-11 -2.787500E-11  2.389286E-11 -1.702522E-20  2.177657E-20 -7.775242E-20
         7   5 -2.787500E-11 -2.787500E-11  2.389286E-11 -7.513016E-21 -3.170047E-20 -1.245720E-19
         7   6 -2.787500E-11 -2.787500E-11  2.389286E-11 -2.803896E-20 -1.203854E-20 -2.107149E-20
         7   7 -2.787500E-11 -2.787500E-11  2.389286E-11 -7.513016E-21  1.548195E-20 -4.325681E-20
         7   8 -2.787500E-11 -2.787500E-11  2.389286E-11 -2.803896E-20  2.938487E-20 -1.023867E-19
         8   1 -2.787500E-11 -2.787500E-11  2.389286E-11 -9.486769E-20 -3.346336E-20 -1.656039E-19
         8   2 -2.787500E-11 -2.787500E-11  2.389286E-11 -2.710505E-20 -9.746434E-21 -7.185734E-20
         8   3 -2.787500E-11 -2.787500E-11  2.389286E-11 -9.486769E-20  1.009407E-19  2.413151E-20
         8   4 -2.787500E-11 -2.787500E-11  2.389286E-11 -2.710505E-20  1.962559E-20  7.722045E-20
         8   5 -2.787500E-11 -2.787500E-11  2.389286E-11 -4.274160E-39 -1.017698E-20 -9.967536E-20
         8   6 -2.787500E-11 -2.787500E-11  2.389286E-11 -4.065758E-20  1.084076E-19 -6.320202E-20
         8   7 -2.787500E-11 -2.787500E-11  2.389286E-11 -1.084202E-19  1.347166E-19  1.984802E-19
         8   8 -2.787500E-11 -2.787500E-11  2.389286E-11 -2.710505E-20  1.347166E-19 -1.309647E-19
         9   1 -2.787500E-11 -2.787500E-11  2.389286E-11  1.355253E-19 -1.170531E-19  9.388191E-20
         9   2 -2.787500E-11 -2.787500E-11  2.389286E-11  2.846031E-19  7.268230E-20 -1.079626E-19
         9   3 -2.787500E-11 -2.787500E-11  2.389286E-11 -8.131516E-20 -1.223859E-19  1.256674E-20
         9   4 -2.787500E-11 -2.787500E-11  2.389286E-11 -4.065758E-20  1.757697E-19  1.698643E-19
         9   5 -2.787500E-11 -2.787500E-11  2.389286E-11 -2.168404E-19 -3.948107E-20 -6.152049E-20
         9   6 -2.787500E-11 -2.787500E-11  2.389286E-11 -2.710505E-20 -4.625733E-20 -2.232379E-19
         9   7 -2.787500E-11 -2.787500E-11  2.389286E-11 -2.168404E-19 -5.212064E-20  1.553199E-19
         9   8 -2.787500E-11 -2.787500E-11  2.389286E-11 -5.421011E-20  1.376147E-19  1.155753E-19

 displacements (vx,vy,vz) for set NALL and time  0.5778125E-01

         1  0.000000E+00  0.000000E+00  0.000000E+00
         2 -1.650893E-08  0.000000E+00  0.000000E+00
         3 -8.667187E-01  0.000000E+00  0.000000E+00
         4 -8.667188E-01  0.000000E+00  0.000000E+00
         5 -1.733437E+00  0.000000E+00  0.000000E+00
         6 -1.733438E+00  0.000000E+00  0.000000E+00
         7  0.000000E+00 -1.650893E-08  0.000000E+00
         8 -1.650893E-08 -1.650893E-08  0.000000E+00
         9 -8.667187E-01 -1.650893E-08  0.000000E+00
        10 -8.667188E-01 -1.650893E-08  0.000000E+00
        11 -1.733437E+00 -1.650893E-08  0.000000E+00
        12 -1.733438E+00 -1.650893E-08  0.000000E+00
        13  0.000000E+00 -8.667187E-01  0.000000E+00
        14 -1.650893E-08 -8.667187E-01  0.000000E+00
        15 -8.667187E-01 -8.667187E-01  0.000000E+00
        16 -8.667188E-01 -8.667187E-01  0.000000E+00
        17 -1.733437E+00 -8.667187E-01  0.000000E+00
        18 -1.733438E+00 -8.667187E-01  0.000000E+00
        19  0.000000E+00 -8.667188E-01  0.000000E+00
        20 -1.650893E-08 -8.667188E-01  0.000000E+00
        21 -8.667187E-01 -8.667188E-01  0.000000E+00
        22 -8.667188E-01 -8.667188E-01  0.000000E+00
        23 -1.733437E+00 -8.667188E-01  0.000000E+00
        24 -1.733438E+00 -8.667188E-01  0.000000E+00
        25  0.000000E+00 -1.733437E+00  0.000000E+00
        26 -1.650893E-08 -1.733437E+00  0.000000E+00
        27 -8.667187E-01 -1.733437E+00  0.000000E+00
        28 -8.667188E-01 -1.733437E+00  0.000000E+00
        29 -1.733437E+00 -1.733437E+00  0.000000E+00
        30 -1.733438E+00 -1.733437E+00  0.000000E+00
        31  0.000000E+00 -1.733438E+00  0.000000E+00
        32 -1.650893E-08 -1.733438E+00  0.000000E+00
        33 -8.667187E-01 -1.733438E+00  0.000000E+00
        34 -8.667188E-01 -1.733438E+00  0.000000E+00
        35 -1.733437E+00 -1.733438E+00  0.000000E+00
        36 -1.733438E+00 -1.733438E+00  0.000000E+00
        37  0.000000E+00  0.000000E+00  1.981071E-08
        38 -1.650893E-08  0.000000E+00  1.981071E-08
        39 -8.667187E-01  0.000000E+00  1.981071E-08
        40 -8.667188E-01  0.000000E+00  1.981071E-08
        41 -1.733437E+00  0.000000E+00  1.981071E-08
        42 -1.733438E+00  0.000000E+00  1.981071E-08
        43  0.000000E+00 -1.650893E-08  1.981071E-08
        44 -1.650893E-08 -1.650893E-08  1.981071E-08
        45 -8.667187E-01 -1.650893E-08  1.981071E-08
        46 -8.667188E-01 -1.650893E-08  1.981071E-08
        47 -1.733437E+00 -1.650893E-08  1.981071E-08
        48 -1.733438E+00 -1.650893E-08  1.981071E-08
        49  0.000000E+00 -8.667187E-01  1.981071E-08
        50 -1.650893E-08 -8.667187E-01  1.981071E-08
        51 -8.667187E-01 -8.667187E-01  1.981071E-08
        52 -8.667188E-01 -8.667187E-01  1.981071E-08
        53 -1.733437E+00 -8.667187E-01  1.981071E-08
        54 -1.733438E+00 -8.667187E-01  1.981071E-08
        55  0.000000E+00 -8.667188E-01  1.981071E-08
        56 -1.650893E-08 -8.667188E-01  1.981071E-08
        57 -8.667187E-01 -8.667188E-01  1.981071E-08
        58 -8.667188E-01 -8.667188E-01  1.981071E-08
        59 -1.733437E+00 -8.667188E-01  1.981071E-08
        60 -1.733438E+00 -8.667188E-01  1.981071E-08
        61  0.000000E+00 -1.733437E+00  1.981071E-08
        62 -1.650893E-08 -1.733437E+00  1.981071E-08
        63 -8.667187E-01 -1.733437E+00  1.981071E-08
        64 -8.667188E-01 -1.733437E+00  1.981071E-08
        65 -1.733437E+00 -1.733437E+00  1.981071E-08
        66 -1.733438E+00 -1.733437E+00  1.981071E-08
        67  0.000000E+00 -1.733438E+00  1.981071E-08
        68 -1.650893E-08 -1.733438E+00  1.981071E-08
        69 -8.667187E-01 -1.733438E+00  1.981071E-08
        70 -8.667188E-01 -1.733438E+00  1.981071E-08
        71 -1.733437E+00 -1.733438E+00  1.981071E-08
        72 -1.733438E+00 -1.733438E+00  1.981071E-08

 stresses (elem, integ.pnt.,sxx,syy,szz,sxy,sxz,syz) for set EALL and time  0.5778125E-01

         1   1 -9.905357E-06 -9.905357E-06 -5.533960E-49  9.786730E-23  1.141785E-22 -1.200223E-32
         1   2 -9.905357E-06 -9.905357E-06 -1.694066E-21 -5.382701E-22  1.043918E-21 -1.141785E-22
         1   3 -9.905357E-06 -9.905357E-06 -1.897358E-48  1.027607E-21  1.957346E-22 -6.524487E-23
         1   4 -9.905357E-06 -9.905357E-06 -1.589037E-47  3.914692E-22  1.761611E-21 -6.850711E-22
         1   5 -9.905357E-06 -9.905357E-06  3.109559E-47  3.262243E-22 -4.730253E-22  8.481832E-22
         1   6 -9.905357E-06 -9.905357E-06  1.694066E-21  5.219589E-22  4.567141E-22 -1.631122E-23
         1   7 -9.905357E-06 -9.905357E-06  2.529810E-47  1.109163E-21 -4.567141E-22  5.219589E-22
         1   8 -9.905357E-06 -9.905357E-06 -2.983068E-47  1.304897E-21  1.043918E-21 -5.872038E-22
         2   1 -9.905357E-06 -9.905357E-06 -5.048489E-15 -3.544771E-14  3.184903E-16  2.823655E-16
         2   2 -9.905357E-06 -9.905357E-06 -4.592875E-15 -4.798148E-15  2.166372E-14 -4.918314E-16
         2   3 -9.905357E-06 -9.905357E-06  4.272283E-15 -3.659419E-14 -8.613228E-16 -4.740163E-17
         2   4 -9.905357E-06 -9.905357E-06 -3.330373E-15 -4.714882E-16 -2.056461E-14  2.865648E-16
         2   5 -9.905357E-06 -9.905357E-06  8.267618E-16  1.482232E-16  1.188622E-15  1.383570E-15
         2   6 -9.905357E-06 -9.905357E-06  3.609524E-15 -1.298730E-14  1.268221E-14 -2.613936E-15
         2   7 -9.905357E-06 -9.905357E-06 -2.987992E-15  5.531765E-16  5.542517E-15  1.053802E-15
         2   8 -9.905357E-06 -9.905357E-06 -8.263504E-15 -8.203841E-15 -3.214500E-15 -1.835540E-15
         3   1 -9.905357E-06 -9.905357E-06  2.694258E-14  9.001165E-15  1.046668E-14 -1.153525E-16
         3   2 -9.905357E-06 -9.905357E-06  9.714572E-15 -8.512870E-15  2.804292E-15 -3.645962E-16
         3   3 -9.905357E-06 -9.905357E-06 -6.158260E-15  9.668190E-15  3.192745E-14 -1.639246E-15
         3   4 -9.905357E-06 -9.905357E-06 -2.633533E-14  2.499297E-14 -7.479125E-15 -1.389811E-15
         3   5 -9.905357E-06 -9.905357E-06 -1.238030E-14  4.996884E-16 -2.309579E-14  1.093392E-15
         3   6 -9.905357E-06 -9.905357E-06 -2.856108E-14  4.996884E-16 -1.203242E-15 -3.354768E-16
         3   7 -9.905357E-06 -9.905357E-06 -4.876501E-14  1.864862E-15  2.345641E-14 -4.305015E-16
         3   8 -9.905357E-06 -9.905357E-06 -6.789486E-14  1.937890E-14  1.032089E-14 -1.360692E-15
         4   1 -9.905357E-06 -9.905357E-06  5.252575E-14  1.201974E-16 -1.388646E-16 -1.524922E-15
         4   2 -9.905357E-06 -9.905357E-06  3.322161E-14  4.485826E-16  1.292419E-15  6.897242E-15
         4   3 -9.905357E-06 -9.905357E-06  4.260291E-14  1.201974E-16  7.550266E-17 -1.524922E-15
         4   4 -9.905357E-06 -9.905357E-06  2.848813E-14  4.485826E-16  1.670882E-17  1.674889E-14
         4   5 -9.905357E-06 -9.905357E-06  2.926039E-14 -6.433711E-16 -1.949533E-15  8.766770E-16
         4   6 -9.905357E-06 -9.905357E-06  1.816596E-14 -2.401094E-15 -5.182503E-16 -2.308260E-15
         4   7 -9.905357E-06 -9.905357E-06  1.620839E-14 -6.433711E-16  3.405739E-16  1.182295E-14
         4   8 -9.905357E-06 -9.905357E-06  1.030331E-14 -2.401094E-15  2.817800E-16  1.684772E-14
         5   1 -9.905357E-06 -9.905357E-06 -1.472117E-14 -6.567763E-15 -2.060169E-14 -1.830220E-14
         5   2 -9.905357E-06 -9.905357E-06  8.697551E-15  1.423015E-14  8.953241E-15  4.940241E-15
         5   3 -9.905357E-06 -9.905357E-06 -2.649677E-14  4.378509E-15 -1.104209E-14  1.891513E-14
         5   4 -9.905357E-06 -9.905357E-06 -4.339497E-15  1.313553E-14 -1.104209E-14  8.771436E-15
         5   5 -9.905357E-06 -9.905357E-06  2.304347E-14  8.757018E-15 -3.352888E-15 -1.666360E-14
         5   6 -9.905357E-06 -9.905357E-06  1.033949E-14  4.378509E-15  1.361383E-14  9.905454E-15
         5   7 -9.905357E-06 -9.905357E-06  2.604534E-14  6.879746E-31  8.986011E-15  5.228946E-15
         5   8 -9.905357E-06 -9.905357E-06  1.043797E-14  1.751404E-14  6.796757E-15 -1.964948E-14
         6   1 -9.905357E-06 -9.905357E-06  5.880030E-14  2.627105E-14 -1.526034E-14  1.521678E-14
         6   2 -9.905357E-06 -9.905357E-06 -3.328753E-15  4.159583E-14  8.821455E-15 -2.456610E-14
         6   3 -9.905357E-06 -9.905357E-06 -7.614982E-15 -1.428360E-32  3.143233E-14 -1.079992E-16
         6   4 -9.905357E-06 -9.905357E-06 -8.964228E-14  2.846031E-14 -7.974251E-15  7.178094E-15
         6   5 -9.905357E-06 -9.905357E-06 -3.095685E-16 -2.597717E-35  5.205601E-15 -4.030580E-16
         6   6 -9.905357E-06 -9.905357E-06 -2.795786E-14  2.627105E-14 -6.835298E-15 -1.629158E-14
         6   7 -9.905357E-06 -9.905357E-06 -1.047216E-15 -1.751404E-14  4.094544E-15 -4.030580E-16
         6   8 -9.905357E-06 -9.905357E-06  6.644618E-16  2.627105E-14 -2.839647E-16 -1.246039E-14
         7   1 -9.905357E-06 -9.905357E-06 -4.795919E-14  1.193802E-15 -1.286920E-15 -1.684062E-14
         7   2 -9.905357E-06 -9.905357E-06 -3.965290E-14  4.455329E-15 -2.440506E-16  2.249705E-14
         7   3 -9.905357E-06 -9.905357E-06 -6.837317E-14  1.193802E-15  1.589689E-15 -2.121913E-14
         7   4 -9.905357E-06 -9.905357E-06 -3.810820E-14  4.455329E-15  1.708133E-15 -4.868630E-15
         7   5 -9.905357E-06 -9.905357E-06 -4.576917E-14  7.200929E-16 -5.845721E-15 -2.696313E-14
         7   6 -9.905357E-06 -9.905357E-06 -1.775959E-14  2.687423E-15 -4.802852E-15  1.021174E-14
         7   7 -9.905357E-06 -9.905357E-06 -6.812443E-14  7.200929E-16  5.814358E-15  3.871451E-14
         7   8 -9.905357E-06 -9.905357E-06 -1.815618E-14  2.687423E-15  5.932801E-15  1.130637E-14
         8   1 -9.905357E-06 -9.905357E-06 -7.974557E-14 -2.627105E-14  6.639232E-16 -2.265365E-14
         8   2 -9.905357E-06 -9.905357E-06 -2.965489E-15 -5.473136E-15  9.968254E-15  3.724743E-14
         8   3 -9.905357E-06 -9.905357E-06 -5.703101E-14  3.335918E-33  6.928268E-15  1.675293E-14
         8   4 -9.905357E-06 -9.905357E-06 -3.339891E-14  8.757018E-15 -1.277502E-14  1.863877E-14
         8   5 -9.905357E-06 -9.905357E-06 -5.183257E-14  1.751404E-14 -1.503624E-14 -2.473302E-14
         8   6 -9.905357E-06 -9.905357E-06 -7.891311E-15  1.751404E-14  7.403617E-15  1.522242E-14
         8   7 -9.905357E-06 -9.905357E-06 -6.359878E-14 -1.751404E-14  1.068905E-14  1.467355E-14
         8   8 -9.905357E-06 -9.905357E-06 -7.608937E-14 -1.313553E-14 -3.090678E-14 -1.652177E-14
         9   1 -9.905357E-06 -9.905357E-06  7.119443E-14 -2.627105E-14  1.484072E-14  2.508796E-14
         9   2 -9.905357E-06 -9.905357E-06  7.955726E-14  6.567763E-15 -1.143033E-14  2.684446E-15
         9   3 -9.905357E-06 -9.905357E-06  3.684269E-14 -5.254211E-14 -9.950254E-16  1.633094E-14
         9   4 -9.905357E-06 -9.905357E-06 -3.234721E-14  1.094627E-14  2.965454E-14 -1.264033E-14
         9   5 -9.905357E-06 -9.905357E-06  4.492338E-14 -7.005614E-14 -2.393135E-15  4.374823E-14
         9   6 -9.905357E-06 -9.905357E-06  4.027989E-15 -3.502807E-14 -2.393135E-15 -2.106050E-14
         9   7 -9.905357E-06 -9.905357E-06  3.684269E-14 -3.502807E-14  1.380055E-14 -4.415370E-15
         9   8 -9.905357E-06 -9.905357E-06 -4.876662E-14  8.757018E-15 -3.713485E-15  1.615682E-14

 strains (elem, integ.pnt.,exx,eyy,ezz,exy,exz,eyz) forset EALL and time  0.5778125E-01

         1   1 -3.301786E-11 -3.301786E-11  2.830102E-11  6.058452E-28  7.068194E-28  7.429949E-38
         1   2 -3.301786E-11 -3.301786E-11  2.830102E-11 -3.332148E-27  6.462349E-27 -7.068194E-28
         1   3 -3.301786E-11 -3.301786E-11  2.830102E-11  6.361374E-27  1.211690E-27 -4.038968E-28
         1   4 -3.301786E-11 -3.301786E-11  2.830102E-11  2.423381E-27  1.090521E-26 -4.240916E-27
         1   5 -3.301786E-11 -3.301786E-11  2.830102E-11  2.019484E-27 -2.928252E-27  5.250658E-27
         1   6 -3.301786E-11 -3.301786E-11  2.830102E-11  3.231174E-27  2.827277E-27 -1.009742E-28
         1   7 -3.301786E-11 -3.301786E-11  2.830102E-11  6.866245E-27 -2.827277E-27  3.231174E-27
         1   8 -3.301786E-11 -3.301786E-11  2.830102E-11  8.077936E-27  6.462349E-27 -3.635071E-27
         2   1 -3.301786E-11 -3.301786E-11  2.830102E-11 -2.194382E-19  1.971606E-21  1.747977E-21
         2   2 -3.301786E-11 -3.301786E-11  2.830102E-11 -2.970282E-20  1.341087E-19 -3.044670E-21
         2   3 -3.301786E-11 -3.301786E-11  2.830102E-11 -2.265354E-19 -5.331999E-21 -2.934387E-22
         2   4 -3.301786E-11 -3.301786E-11  2.830102E-11 -2.918736E-21 -1.273047E-19  1.773973E-21
         2   5 -3.301786E-11 -3.301786E-11  2.830102E-11  9.175719E-22  7.358135E-21  8.564954E-21
         2   6 -3.301786E-11 -3.301786E-11  2.830102E-11 -8.039759E-20  7.850890E-20 -1.618151E-20
         2   7 -3.301786E-11 -3.301786E-11  2.830102E-11  3.424426E-21  3.431082E-20  6.523539E-21
         2   8 -3.301786E-11 -3.301786E-11  2.830102E-11 -5.078568E-20 -1.989929E-20 -1.136287E-20
         3   1 -3.301786E-11 -3.301786E-11  2.830102E-11  5.572150E-20  6.479375E-20 -7.140871E-22
         3   2 -3.301786E-11 -3.301786E-11  2.830102E-11 -5.269872E-20  1.735990E-20 -2.257024E-21
         3   3 -3.301786E-11 -3.301786E-11  2.830102E-11  5.985070E-20  1.976461E-19 -1.014771E-20
         3   4 -3.301786E-11 -3.301786E-11  2.830102E-11  1.547184E-19 -4.629935E-20 -8.603593E-21
         3   5 -3.301786E-11 -3.301786E-11  2.830102E-11  3.093309E-21 -1.429739E-19  6.768616E-21
         3   6 -3.301786E-11 -3.301786E-11  2.830102E-11  3.093309E-21 -7.448643E-21 -2.076761E-21
         3   7 -3.301786E-11 -3.301786E-11  2.830102E-11  1.154439E-20  1.452064E-19 -2.665010E-21
         3   8 -3.301786E-11 -3.301786E-11  2.830102E-11  1.199646E-19  6.389120E-20 -8.423330E-21
         4   1 -3.301786E-11 -3.301786E-11  2.830102E-11  7.440792E-22 -8.596379E-22 -9.439993E-21
         4   2 -3.301786E-11 -3.301786E-11  2.830102E-11  2.776940E-21  8.000687E-21  4.269721E-20
         4   3 -3.301786E-11 -3.301786E-11  2.830102E-11  7.440792E-22  4.673974E-22 -9.439993E-21
         4   4 -3.301786E-11 -3.301786E-11  2.830102E-11  2.776940E-21  1.034355E-22  1.036836E-19
         4   5 -3.301786E-11 -3.301786E-11  2.830102E-11 -3.982774E-21 -1.206854E-20  5.427048E-21
         4   6 -3.301786E-11 -3.301786E-11  2.830102E-11 -1.486391E-20 -3.208216E-21 -1.428923E-20
         4   7 -3.301786E-11 -3.301786E-11  2.830102E-11 -3.982774E-21  2.108315E-21  7.318968E-20
         4   8 -3.301786E-11 -3.301786E-11  2.830102E-11 -1.486391E-20  1.744353E-21  1.042954E-19
         5   1 -3.301786E-11 -3.301786E-11  2.830102E-11 -4.065758E-20 -1.275343E-19 -1.132993E-19
         5   2 -3.301786E-11 -3.301786E-11  2.830102E-11  8.809143E-20  5.542483E-20  3.058244E-20
         5   3 -3.301786E-11 -3.301786E-11  2.830102E-11  2.710505E-20 -6.835582E-20  1.170936E-19
         5   4 -3.301786E-11 -3.301786E-11  2.830102E-11  8.131516E-20 -6.835582E-20  5.429936E-20
         5   5 -3.301786E-11 -3.301786E-11  2.830102E-11  5.421011E-20 -2.075597E-20 -1.031556E-19
         5   6 -3.301786E-11 -3.301786E-11  2.830102E-11  2.710505E-20  8.427611E-20  6.131948E-20
         5   7 -3.301786E-11 -3.301786E-11  2.830102E-11 -4.258707E-36  5.562769E-20  3.236966E-20
         5   8 -3.301786E-11 -3.301786E-11  2.830102E-11  1.084202E-19  4.207516E-20 -1.216396E-19
         6   1 -3.301786E-11 -3.301786E-11  2.830102E-11  1.626303E-19 -9.446879E-20  9.419912E-20
         6   2 -3.301786E-11 -3.301786E-11  2.830102E-11  2.574980E-19  5.460901E-20 -1.520758E-19
         6   3 -3.301786E-11 -3.301786E-11  2.830102E-11  8.819184E-38  1.945811E-19 -6.685663E-22
         6   4 -3.301786E-11 -3.301786E-11  2.830102E-11  1.761829E-19 -4.936441E-20  4.443582E-20
         6   5 -3.301786E-11 -3.301786E-11  2.830102E-11  2.449710E-40  3.222515E-20 -2.495121E-21
         6   6 -3.301786E-11 -3.301786E-11  2.830102E-11  1.626303E-19 -4.231375E-20 -1.008527E-19
         6   7 -3.301786E-11 -3.301786E-11  2.830102E-11 -1.084202E-19  2.534718E-20 -2.495121E-21
         6   8 -3.301786E-11 -3.301786E-11  2.830102E-11  1.626303E-19 -1.757877E-21 -7.713573E-20
         7   1 -3.301786E-11 -3.301786E-11  2.830102E-11  7.390201E-21 -7.966649E-21 -1.042515E-19
         7   2 -3.301786E-11 -3.301786E-11  2.830102E-11  2.758061E-20 -1.510789E-21  1.392675E-19
         7   3 -3.301786E-11 -3.301786E-11  2.830102E-11  7.390201E-21  9.840934E-21 -1.313565E-19
         7   4 -3.301786E-11 -3.301786E-11  2.830102E-11  2.758061E-20  1.057416E-20 -3.013914E-20
         7   5 -3.301786E-11 -3.301786E-11  2.830102E-11  4.457718E-21 -3.618780E-20 -1.669146E-19
         7   6 -3.301786E-11 -3.301786E-11  2.830102E-11  1.663643E-20 -2.973194E-20  6.321555E-20
         7   7 -3.301786E-11 -3.301786E-11  2.830102E-11  4.457718E-21  3.599364E-20  2.396612E-19
         7   8 -3.301786E-11 -3.301786E-11  2.830102E-11  1.663643E-20  3.672687E-20  6.999181E-20
         8   1 -3.301786E-11 -3.301786E-11  2.830102E-11 -1.626303E-19  4.110001E-21 -1.402369E-19
         8   2 -3.301786E-11 -3.301786E-11  2.830102E-11 -3.388132E-20  6.170824E-20  2.305793E-19
         8   3 -3.301786E-11 -3.301786E-11  2.830102E-11  1.066784E-40  4.288928E-20  1.037086E-19
         8   4 -3.301786E-11 -3.301786E-11  2.830102E-11  5.421011E-20 -7.908346E-20  1.153828E-19
         8   5 -3.301786E-11 -3.301786E-11  2.830102E-11  1.084202E-19 -9.308149E-20 -1.531092E-19
         8   6 -3.301786E-11 -3.301786E-11  2.830102E-11  1.084202E-19  4.583192E-20  9.423402E-20
         8   7 -3.301786E-11 -3.301786E-11  2.830102E-11 -1.084202E-19  6.617031E-20  9.083629E-20
         8   8 -3.301786E-11 -3.301786E-11  2.830102E-11 -8.131516E-20 -1.913277E-19 -1.022776E-19
         9   1 -3.301786E-11 -3.301786E-11  2.830102E-11 -1.626303E-19  9.187115E-20  1.553064E-19
         9   2 -3.301786E-11 -3.301786E-11  2.830102E-11  4.065758E-20 -7.075918E-20  1.661800E-20
         9   3 -3.301786E-11 -3.301786E-11  2.830102E-11 -3.252607E-19 -6.159681E-21  1.010963E-19
         9   4 -3.301786E-11 -3.301786E-11  2.830102E-11  6.776264E-20  1.835757E-19 -7.824969E-20
         9   5 -3.301786E-11 -3.301786E-11  2.830102E-11 -4.336809E-19 -1.481465E-20  2.708224E-19
         9   6 -3.301786E-11 -3.301786E-11  2.830102E-11 -2.168404E-19 -1.481465E-20 -1.303745E-19
         9   7 -3.301786E-11 -3.301786E-11  2.830102E-11 -2.168404E-19  8.543197E-20 -2.733324E-20
         9   8 -3.301786E-11 -3.301786E-11  2.830102E-11  5.421011E-20 -2.298824E-20  1.000184E-19

 displacements (vx,vy,vz) for set NALL and time  0.6678125E-01

         1  0.000000E+00  0.000000E+00  0.000000E+00
         2 -1.908036E-08  0.000000E+00  0.000000E+00
         3 -1.001719E+00  0.000000E+00  0.000000E+00
         4 -1.001719E+00  0.000000E+00  0.000000E+00
         5 -2.003437E+00  0.000000E+00  0.000000E+00
         6 -2.003437E+00  0.000000E+00  0.000000E+00
         7  0.000000E+00 -1.908036E-08  0.000000E+00
         8 -1.908036E-08 -1.908036E-08  0.000000E+00
         9 -1.001719E+00 -1.908036E-08  0.000000E+00
        10 -1.001719E+00 -1.908036E-08  0.000000E+00
        11 -2.003437E+00 -1.908036E-08  0.000000E+00
        12 -2.003437E+00 -1.908036E-08  0.000000E+00
        13  0.000000E+00 -1.001719E+00  0.000000E+00
        14 -1.908036E-08 -1.001719E+00  0.000000E+00
        15 -1.001719E+00 -1.001719E+00  0.000000E+00
        16 -1.001719E+00 -1.001719E+00  0.000000E+00
        17 -2.003437E+00 -1.001719E+00  0.000000E+00
        18 -2.003437E+00 -1.001719E+00  0.000000E+00
        19  0.000000E+00 -1.001719E+00  0.000000E+00
        20 -1.908036E-08 -1.001719E+00  0.000000E+00
        21 -1.001719E+00 -1.001719E+00  0.000000E+00
        22 -1.001719E+00 -1.001719E+00  0.000000E+00
        23 -2.003437E+00 -1.001719E+00  0.000000E+00
        24 -2.003437E+00 -1.001719E+00  0.000000E+00
        25  0.000000E+00 -2.003437E+00  0.000000E+00
        26 -1.908036E-08 -2.003437E+00  0.000000E+00
        27 -1.001719E+00 -2.003437E+00  0.000000E+00
        28 -1.001719E+00 -2.003437E+00  0.000000E+00
        29 -2.003437E+00 -2.003437E+00  0.000000E+00
        30 -2.003437E+00 -2.003437E+00  0.000000E+00
        31  0.000000E+00 -2.003437E+00  0.000000E+00
        32 -1.908036E-08 -2.003437E+00  0.000000E+00
        33 -1.001719E+00 -2.003437E+00  0.000000E+00
        34 -1.001719E+00 -2.003437E+00  0.000000E+00
        35 -2.003437E+00 -2.003437E+00  0.000000E+00
        36 -2.003437E+00 -2.003437E+00  0.000000E+00
        37  0.000000E+00  0.000000E+00  2.289643E-08
        38 -1.908036E-08  0.000000E+00  2.289643E-08
        39 -1.001719E+00  0.000000E+00  2.289643E-08
        40 -1.001719E+00  0.000000E+00  2.289643E-08
        41 -2.003437E+00  0.000000E+00  2.289643E-08
        42 -2.003437E+00  0.000000E+00  2.289643E-08
        43  0.000000E+00 -1.908036E-08  2.289643E-08
        44 -1.908036E-08 -1.908036E-08  2.289643E-08
        45 -1.001719E+00 -1.908036E-08  2.289643E-08
        46 -1.001719E+00 -1.908036E-08  2.289643E-08
        47 -2.003437E+00 -1.908036E-08  2.289643E-08
        48 -2.003437E+00 -1.908036E-08  2.289643E-08
        49  0.000000E+00 -1.001719E+00  2.289643E-08
        50 -1.908036E-08 -1.001719E+00  2.289643E-08
        51 -1.001719E+00 -1.001719E+00  2.289643E-08
        52 -1.001719E+00 -1.001719E+00  2.289643E-08
        53 -2.003437E+00 -1.001719E+00  2.289643E-08
        54 -2.003437E+00 -1.001719E+00  2.289643E-08
        55  0.000000E+00 -1.001719E+00  2.289643E-08
        56 -1.908036E-08 -1.001719E+00  2.289643E-08
        57 -1.001719E+00 -1.001719E+00  2.289643E-08
        58 -1.001719E+00 -1.001719E+00  2.289643E-08
        59 -2.003437E+00 -1.001719E+00  2.289643E-08
        60 -2.003437E+00 -1.001719E+00  2.289643E-08
        61  0.000000E+00 -2.003437E+00  2.289643E-08
        62 -1.908036E-08 -2.003437E+00  2.289643E-08
        63 -1.001719E+00 -2.003437E+00  2.289643E-08
        64 -1.001719E+00 -2.003437E+00  2.289643E-08
        65 -2.003437E+00 -2.003437E+00  2.289643E-08
        66 -2.003437E+00 -2.003437E+00  2.289643E-08
        67  0.000000E+00 -2.003437E+00  2.289643E-08
        68 -1.908036E-08 -2.003437E+00  2.289643E-08
        69 -1.001719E+00 -2.003437E+00  2.289643E-08
        70 -1.001719E+00 -2.003437E+00  2.289643E-08
        71 -2.003437E+00 -2.003437E+00  2.289643E-08
        72 -2.003437E+00 -2.003437E+00  2.289643E-08

 stresses (elem, integ.pnt.,sxx,syy,szz,sxy,sxz,syz) for set EALL and time  0.6678125E-01

         1   1 -1.144821E-05 -1.144821E-05  5.082198E-21 -5.056477E-22 -1.631122E-22 -6.524487E-23
         1   2 -1.144821E-05 -1.144821E-05  3.388132E-21 -1.631122E-21 -4.240916E-22  8.155608E-23
         1   3 -1.144821E-05 -1.144821E-05  3.388132E-21 -4.404028E-22  2.609795E-22 -1.043918E-21
         1   4 -1.144821E-05 -1.144821E-05  1.694066E-21 -1.565877E-21  1.957346E-21  2.936019E-22
         1   5 -1.144821E-05 -1.144821E-05  2.066012E-47  1.109163E-21 -3.262243E-22  7.176935E-22
         1   6 -1.144821E-05 -1.144821E-05  4.374464E-48  2.870774E-21 -5.872038E-22  1.794234E-22
         1   7 -1.144821E-05 -1.144821E-05  1.694066E-21  2.153081E-21 -6.524487E-22 -5.219589E-22
         1   8 -1.144821E-05 -1.144821E-05 -3.246590E-47  3.914692E-21  1.043918E-21  3.914692E-22
         2   1 -1.144821E-05 -1.144821E-05 -1.399576E-15 -6.595688E-16 -1.556740E-15  6.569584E-16
         2   2 -1.144821E-05 -1.144821E-05  2.176095E-16  7.002822E-15  1.157879E-14 -2.710942E-16
         2   3 -1.144821E-05 -1.144821E-05  3.312661E-14 -2.461544E-15  2.525399E-14 -8.502515E-16
         2   4 -1.144821E-05 -1.144821E-05  2.347701E-14  6.295473E-15  2.525399E-14  1.929229E-16
         2   5 -1.144821E-05 -1.144821E-05  2.003045E-15 -1.716348E-14  1.713193E-16  3.959013E-15
         2   6 -1.144821E-05 -1.144821E-05  7.759809E-15  9.107576E-15  3.455201E-15 -1.475755E-15
         2   7 -1.144821E-05 -1.144821E-05  1.682594E-14 -1.620573E-14  3.998937E-14  2.451803E-15
         2   8 -1.144821E-05 -1.144821E-05  1.131592E-14 -3.070208E-15  4.961304E-15 -1.011738E-15
         3   1 -1.144821E-05 -1.144821E-05  1.827171E-14  3.135796E-14  1.135183E-14  1.977725E-15
         3   2 -1.144821E-05 -1.144821E-05  5.085999E-14  2.479020E-14  2.448736E-14 -9.380706E-16
         3   3 -1.144821E-05 -1.144821E-05  4.671766E-14  2.133104E-14 -3.455196E-14 -2.683860E-15
         3   4 -1.144821E-05 -1.144821E-05  3.492914E-14  3.817002E-15  9.233123E-15  4.184965E-15
         3   5 -1.144821E-05 -1.144821E-05  3.803731E-14  1.343879E-15 -2.651732E-14  1.204255E-14
         3   6 -1.144821E-05 -1.144821E-05  9.117329E-14  1.010090E-14 -4.624775E-15 -8.623963E-15
         3   7 -1.144821E-05 -1.144821E-05  3.692833E-14  5.015423E-15 -3.325122E-14  7.380968E-15
         3   8 -1.144821E-05 -1.144821E-05  4.568751E-14 -3.741594E-15  1.776851E-15 -3.500927E-15
         4   1 -1.144821E-05 -1.144821E-05  1.902172E-14  3.893909E-14  1.051969E-16 -1.276084E-15
         4   2 -1.144821E-05 -1.144821E-05 -1.409000E-14  3.766188E-14 -8.117914E-16  4.663716E-15
         4   3 -1.144821E-05 -1.144821E-05  8.390090E-15 -4.674903E-16 -2.226158E-16  2.499497E-14
         4   4 -1.144821E-05 -1.144821E-05 -3.648714E-14 -1.744697E-15  2.670999E-15  7.947597E-15
         4   5 -1.144821E-05 -1.144821E-05 -9.175008E-15  3.651327E-14  1.309589E-15 -3.839029E-16
         4   6 -1.144821E-05 -1.144821E-05 -1.929955E-14  4.057091E-14  3.926000E-16  9.606711E-15
         4   7 -1.144821E-05 -1.144821E-05 -1.180437E-14  1.485198E-15 -3.724428E-15  3.994606E-15
         4   8 -1.144821E-05 -1.144821E-05 -3.369443E-14  5.542836E-15 -8.308132E-16  1.945836E-14
         5   1 -1.144821E-05 -1.144821E-05  2.950576E-14  1.423015E-14 -7.519706E-15  2.907306E-15
         5   2 -1.144821E-05 -1.144821E-05  1.332764E-14  4.378509E-15  4.173852E-14  1.949275E-14
         5   3 -1.144821E-05 -1.144821E-05  4.607914E-14 -4.378509E-15  2.329589E-14  1.166432E-14
         5   4 -1.144821E-05 -1.144821E-05  9.338991E-15 -2.627105E-14  2.329589E-14  1.620887E-14
         5   5 -1.144821E-05 -1.144821E-05  3.278964E-14 -8.757018E-15  1.337473E-14 -6.663822E-15
         5   6 -1.144821E-05 -1.144821E-05  2.810511E-14 -4.378509E-14  2.391997E-16  6.075315E-15
         5   7 -1.144821E-05 -1.144821E-05 -1.303073E-14 -1.751404E-14  1.516759E-14  1.960723E-14
         5   8 -1.144821E-05 -1.144821E-05 -3.991923E-14 -4.816360E-14  4.221319E-15 -1.581723E-14
         6   1 -1.144821E-05 -1.144821E-05 -4.166000E-14  1.532478E-14 -3.586168E-15 -5.688054E-15
         6   2 -1.144821E-05 -1.144821E-05 -1.455214E-14  2.846031E-14  3.144190E-14 -1.540905E-14
         6   3 -1.144821E-05 -1.144821E-05 -3.711799E-14  1.313553E-14  1.734239E-14  3.068964E-15
         6   4 -1.144821E-05 -1.144821E-05 -2.843867E-14  2.408180E-14 -1.716406E-16 -8.841289E-15
         6   5 -1.144821E-05 -1.144821E-05 -4.494388E-14  2.189254E-14 -2.010871E-14 -1.481752E-14
         6   6 -1.144821E-05 -1.144821E-05 -2.276185E-14  4.378509E-15 -1.573020E-14 -1.724193E-14
         6   7 -1.144821E-05 -1.144821E-05 -2.398247E-14  1.751404E-14 -6.405712E-16  2.696511E-15
         6   8 -1.144821E-05 -1.144821E-05 -2.515479E-14  1.751404E-14 -1.377610E-14 -4.106406E-15
         7   1 -1.144821E-05 -1.144821E-05  2.228989E-14  1.613274E-14  1.390552E-15 -1.464778E-14
         7   2 -1.144821E-05 -1.144821E-05  2.353150E-14  1.235897E-14  2.065860E-15  2.458609E-14
         7   3 -1.144821E-05 -1.144821E-05  3.620610E-14  7.375722E-15 -2.914631E-15  2.038029E-14
         7   4 -1.144821E-05 -1.144821E-05  6.362310E-15  3.601954E-15 -1.567142E-15  4.647863E-14
         7   5 -1.144821E-05 -1.144821E-05 -1.569854E-14  3.399122E-14  4.514301E-15  2.383252E-14
         7   6 -1.144821E-05 -1.144821E-05  1.838188E-14  3.115851E-14  5.189610E-15  4.406447E-14
         7   7 -1.144821E-05 -1.144821E-05 -3.707514E-16 -1.036846E-15 -1.222504E-14 -6.817037E-15
         7   8 -1.144821E-05 -1.144821E-05  2.624274E-15 -3.869561E-15 -1.087755E-14 -1.066689E-14
         8   1 -1.144821E-05 -1.144821E-05 -9.792683E-16  1.751404E-14  5.196827E-15 -1.842532E-14
         8   2 -1.144821E-05 -1.144821E-05 -1.509334E-14  2.298717E-14  2.161623E-14 -4.191492E-14
         8   3 -1.144821E-05 -1.144821E-05  6.081776E-14  1.751404E-14  1.235680E-14  2.535976E-14
         8   4 -1.144821E-05 -1.144821E-05  9.173743E-15  1.094627E-14 -2.967986E-15  6.248679E-15
         8   5 -1.144821E-05 -1.144821E-05 -5.187943E-14  3.502807E-14  8.647501E-16 -4.515399E-14
         8   6 -1.144821E-05 -1.144821E-05 -2.001916E-14  3.064956E-14  1.728416E-14  2.011510E-14
         8   7 -1.144821E-05 -1.144821E-05  8.275653E-15  2.793688E-33 -1.733047E-15  4.679469E-14
         8   8 -1.144821E-05 -1.144821E-05  1.245762E-14 -1.763244E-32  2.015950E-14 -1.929148E-14
         9   1 -1.144821E-05 -1.144821E-05 -7.288798E-14  8.757018E-15 -4.961741E-14 -4.939409E-14
         9   2 -1.144821E-05 -1.144821E-05 -1.678927E-14  2.189254E-14 -2.991413E-14 -4.093166E-14
         9   3 -1.144821E-05 -1.144821E-05 -3.790027E-14  8.757018E-15  1.357637E-14 -9.987511E-15
         9   4 -1.144821E-05 -1.144821E-05 -3.195619E-14  1.970329E-14  4.408465E-16 -8.092847E-15
         9   5 -1.144821E-05 -1.144821E-05 -4.990080E-14  3.502807E-14 -5.038403E-14 -3.758826E-14
         9   6 -1.144821E-05 -1.144821E-05  9.481780E-15  2.627105E-14  3.499689E-14  1.780350E-14
         9   7 -1.144821E-05 -1.144821E-05  1.506306E-15 -3.502807E-14  2.818479E-15  1.057533E-14
         9   8 -1.144821E-05 -1.144821E-05 -1.225290E-14  8.757018E-15 -4.096661E-14 -1.899790E-15

 strains (elem, integ.pnt.,exx,eyy,ezz,exy,exz,eyz) forset EALL and time  0.6678125E-01

         1   1 -3.816071E-11 -3.816071E-11  3.270918E-11 -3.130200E-27 -1.009742E-27 -4.038968E-28
         1   2 -3.816071E-11 -3.816071E-11  3.270918E-11 -1.009742E-26 -2.625329E-27  5.048710E-28
         1   3 -3.816071E-11 -3.816071E-11  3.270918E-11 -2.726303E-27  1.615587E-27 -6.462349E-27
         1   4 -3.816071E-11 -3.816071E-11  3.270918E-11 -9.693523E-27  1.211690E-26  1.817536E-27
         1   5 -3.816071E-11 -3.816071E-11  3.270918E-11  6.866245E-27 -2.019484E-27  4.442865E-27
         1   6 -3.816071E-11 -3.816071E-11  3.270918E-11  1.777146E-26 -3.635071E-27  1.110716E-27
         1   7 -3.816071E-11 -3.816071E-11  3.270918E-11  1.332859E-26 -4.038968E-27 -3.231174E-27
         1   8 -3.816071E-11 -3.816071E-11  3.270918E-11  2.423381E-26  6.462349E-27  2.423381E-27
         2   1 -3.816071E-11 -3.816071E-11  3.270918E-11 -4.083045E-21 -9.636965E-21  4.066886E-21
         2   2 -3.816071E-11 -3.816071E-11  3.270918E-11  4.335080E-20  7.167820E-20 -1.678202E-21
         2   3 -3.816071E-11 -3.816071E-11  3.270918E-11 -1.523813E-20  1.563343E-19 -5.263462E-21
         2   4 -3.816071E-11 -3.816071E-11  3.270918E-11  3.897198E-20  1.563343E-19  1.194285E-21
         2   5 -3.816071E-11 -3.816071E-11  3.270918E-11 -1.062501E-19  1.060548E-21  2.450817E-20
         2   6 -3.816071E-11 -3.816071E-11  3.270918E-11  5.638023E-20  2.138934E-20 -9.135625E-21
         2   7 -3.816071E-11 -3.816071E-11  3.270918E-11 -1.003212E-19  2.475533E-19  1.517783E-20
         2   8 -3.816071E-11 -3.816071E-11  3.270918E-11 -1.900605E-20  3.071284E-20 -6.263139E-21
         3   1 -3.816071E-11 -3.816071E-11  3.270918E-11  1.941207E-19  7.027323E-20  1.224306E-20
         3   2 -3.816071E-11 -3.816071E-11  3.270918E-11  1.534631E-19  1.515884E-19 -5.807104E-21
         3   3 -3.816071E-11 -3.816071E-11  3.270918E-11  1.320493E-19 -2.138931E-19 -1.661437E-20
         3   4 -3.816071E-11 -3.816071E-11  3.270918E-11  2.362906E-20  5.715743E-20  2.590693E-20
         3   5 -3.816071E-11 -3.816071E-11  3.270918E-11  8.319249E-21 -1.641548E-19  7.454914E-20
         3   6 -3.816071E-11 -3.816071E-11  3.270918E-11  6.252936E-20 -2.862956E-20 -5.338643E-20
         3   7 -3.816071E-11 -3.816071E-11  3.270918E-11  3.104786E-20 -2.058409E-19  4.569171E-20
         3   8 -3.816071E-11 -3.816071E-11  3.270918E-11 -2.316225E-20  1.099955E-20 -2.167241E-20
         4   1 -3.816071E-11 -3.816071E-11  3.270918E-11  2.410515E-19  6.512188E-22 -7.899569E-21
         4   2 -3.816071E-11 -3.816071E-11  3.270918E-11  2.331450E-19 -5.025375E-21  2.887062E-20
         4   3 -3.816071E-11 -3.816071E-11  3.270918E-11 -2.893988E-21 -1.378098E-21  1.547308E-19
         4   4 -3.816071E-11 -3.816071E-11  3.270918E-11 -1.080051E-20  1.653476E-20  4.919941E-20
         4   5 -3.816071E-11 -3.816071E-11  3.270918E-11  2.260345E-19  8.106977E-21 -2.376542E-21
         4   6 -3.816071E-11 -3.816071E-11  3.270918E-11  2.511532E-19  2.430381E-21  5.947012E-20
         4   7 -3.816071E-11 -3.816071E-11  3.270918E-11  9.194085E-21 -2.305598E-20  2.472851E-20
         4   8 -3.816071E-11 -3.816071E-11  3.270918E-11  3.431279E-20 -5.143130E-21  1.204565E-19
         5   1 -3.816071E-11 -3.816071E-11  3.270918E-11  8.809143E-20 -4.655056E-20  1.799761E-20
         5   2 -3.816071E-11 -3.816071E-11  3.270918E-11  2.710505E-20  2.583813E-19  1.206694E-19
         5   3 -3.816071E-11 -3.816071E-11  3.270918E-11 -2.710505E-20  1.442126E-19  7.220772E-20
         5   4 -3.816071E-11 -3.816071E-11  3.270918E-11 -1.626303E-19  1.442126E-19  1.003406E-19
         5   5 -3.816071E-11 -3.816071E-11  3.270918E-11 -5.421011E-20  8.279592E-20 -4.125223E-20
         5   6 -3.816071E-11 -3.816071E-11  3.270918E-11 -2.710505E-19  1.480760E-21  3.760909E-20
         5   7 -3.816071E-11 -3.816071E-11  3.270918E-11 -1.084202E-19  9.389461E-20  1.213781E-19
         5   8 -3.816071E-11 -3.816071E-11  3.270918E-11 -2.981556E-19  2.613198E-20 -9.791618E-20
         6   1 -3.816071E-11 -3.816071E-11  3.270918E-11  9.486769E-20 -2.220009E-20 -3.521176E-20
         6   2 -3.816071E-11 -3.816071E-11  3.270918E-11  1.761829E-19  1.946403E-19 -9.538937E-20
         6   3 -3.816071E-11 -3.816071E-11  3.270918E-11  8.131516E-20  1.073577E-19  1.899835E-20
         6   4 -3.816071E-11 -3.816071E-11  3.270918E-11  1.490778E-19 -1.062537E-21 -5.473179E-20
         6   5 -3.816071E-11 -3.816071E-11  3.270918E-11  1.355253E-19 -1.244825E-19 -9.172753E-20
         6   6 -3.816071E-11 -3.816071E-11  3.270918E-11  2.710505E-20 -9.737741E-20 -1.067358E-19
         6   7 -3.816071E-11 -3.816071E-11  3.270918E-11  1.084202E-19 -3.965441E-21  1.669269E-20
         6   8 -3.816071E-11 -3.816071E-11  3.270918E-11  1.084202E-19 -8.528060E-20 -2.542061E-20
         7   1 -3.816071E-11 -3.816071E-11  3.270918E-11  9.986934E-20  8.608178E-21 -9.067675E-20
         7   2 -3.816071E-11 -3.816071E-11  3.270918E-11  7.650792E-20  1.278866E-20  1.521996E-19
         7   3 -3.816071E-11 -3.816071E-11  3.270918E-11  4.565923E-20 -1.804296E-20  1.261637E-19
         7   4 -3.816071E-11 -3.816071E-11  3.270918E-11  2.229781E-20 -9.701353E-21  2.877249E-19
         7   5 -3.816071E-11 -3.816071E-11  3.270918E-11  2.104219E-19  2.794568E-20  1.475347E-19
         7   6 -3.816071E-11 -3.816071E-11  3.270918E-11  1.928860E-19  3.212615E-20  2.727801E-19
         7   7 -3.816071E-11 -3.816071E-11  3.270918E-11 -6.418569E-21 -7.567883E-20 -4.220070E-20
         7   8 -3.816071E-11 -3.816071E-11  3.270918E-11 -2.395442E-20 -6.733723E-20 -6.603312E-20
         8   1 -3.816071E-11 -3.816071E-11  3.270918E-11  1.084202E-19  3.217083E-20 -1.140615E-19
         8   2 -3.816071E-11 -3.816071E-11  3.270918E-11  1.423015E-19  1.338148E-19 -2.594733E-19
         8   3 -3.816071E-11 -3.816071E-11  3.270918E-11  1.084202E-19  7.649445E-20  1.569890E-19
         8   4 -3.816071E-11 -3.816071E-11  3.270918E-11  6.776264E-20 -1.837324E-20  3.868230E-20
         8   5 -3.816071E-11 -3.816071E-11  3.270918E-11  2.168404E-19  5.353215E-21 -2.795247E-19
         8   6 -3.816071E-11 -3.816071E-11  3.270918E-11  1.897354E-19  1.069972E-19  1.245220E-19
         8   7 -3.816071E-11 -3.816071E-11  3.270918E-11 -4.319404E-38 -1.072839E-20  2.896814E-19
         8   8 -3.816071E-11 -3.816071E-11  3.270918E-11 -1.029608E-38  1.247969E-19 -1.194235E-19
         9   1 -3.816071E-11 -3.816071E-11  3.270918E-11  5.421011E-20 -3.071554E-19 -3.057729E-19
         9   2 -3.816071E-11 -3.816071E-11  3.270918E-11  1.355253E-19 -1.851827E-19 -2.533865E-19
         9   3 -3.816071E-11 -3.816071E-11  3.270918E-11  5.421011E-20  8.404421E-20 -6.182745E-20
         9   4 -3.816071E-11 -3.816071E-11  3.270918E-11  1.219727E-19  2.729050E-21 -5.009858E-20
         9   5 -3.816071E-11 -3.816071E-11  3.270918E-11  2.168404E-19 -3.119011E-19 -2.326892E-19
         9   6 -3.816071E-11 -3.816071E-11  3.270918E-11  1.626303E-19  2.166474E-19  1.102121E-19
         9   7 -3.816071E-11 -3.816071E-11  3.270918E-11 -2.168404E-19  1.744773E-20  6.546635E-20
         9   8 -3.816071E-11 -3.816071E-11  3.270918E-11  5.421011E-20 -2.536028E-19 -1.176060E-20

 displacements (vx,vy,vz) for set NALL and time  0.7578125E-01

         1  0.000000E+00  0.000000E+00  0.000000E+00
         2 -2.165179E-08  0.000000E+00  0.000000E+00
         3 -1.136719E+00  0.000000E+00  0.000000E+00
         4 -1.136719E+00  0.000000E+00  0.000000E+00
         5 -2.273437E+00  0.000000E+00  0.000000E+00
         6 -2.273438E+00  0.000000E+00  0.000000E+00
         7  0.000000E+00 -2.165179E-08  0.000000E+00
         8 -2.165179E-08 -2.165179E-08  0.000000E+00
         9 -1.136719E+00 -2.165179E-08  0.000000E+00
        10 -1.136719E+00 -2.165179E-08  0.000000E+00
        11 -2.273437E+00 -2.165179E-08  0.000000E+00
        12 -2.273438E+00 -2.165179E-08  0.000000E+00
        13  0.000000E+00 -1.136719E+00  0.000000E+00
        14 -2.165179E-08 -1.136719E+00  0.000000E+00
        15 -1.136719E+00 -1.136719E+00  0.000000E+00
        16 -1.136719E+00 -1.136719E+00  0.000000E+00
        17 -2.273437E+00 -1.136719E+00  0.000000E+00
        18 -2.273438E+00 -1.136719E+00  0.000000E+00
        19  0.000000E+00 -1.136719E+00  0.000000E+00
        20 -2.165179E-08 -1.136719E+00  0.000000E+00
        21 -1.136719E+00 -1.136719E+00  0.000000E+00
        22 -1.136719E+00 -1.136719E+00  0.000000E+00
        23 -2.273437E+00 -1.136719E+00  0.000000E+00
        24 -2.273438E+00 -1.136719E+00  0.000000E+00
        25  0.000000E+00 -2.273437E+00  0.000000E+00
        26 -2.165179E-08 -2.273437E+00  0.000000E+00
        27 -1.136719E+00 -2.273437E+00  0.000000E+00
        28 -1.136719E+00 -2.273437E+00  0.000000E+00
        29 -2.273437E+00 -2.273437E+00  0.000000E+00
        30 -2.273438E+00 -2.273437E+00  0.000000E+00
        31  0.000000E+00 -2.273438E+00  0.000000E+00
        32 -2.165179E-08 -2.273438E+00  0.000000E+00
        33 -1.136719E+00 -2.273438E+00  0.000000E+00
        34 -1.136719E+00 -2.273438E+00  0.000000E+00
        35 -2.273437E+00 -2.273438E+00  0.000000E+00
        36 -2.273438E+00 -2.273438E+00  0.000000E+00
        37  0.000000E+00  0.000000E+00  2.598214E-08
        38 -2.165179E-08  0.000000E+00  2.598214E-08
        39 -1.136719E+00  0.000000E+00  2.598214E-08
        40 -1.136719E+00  0.000000E+00  2.598214E-08
        41 -2.273437E+00  0.000000E+00  2.598214E-08
        42 -2.273438E+00  0.000000E+00  2.598214E-08
        43  0.000000E+00 -2.165179E-08  2.598214E-08
        44 -2.165179E-08 -2.165179E-08  2.598214E-08
        45 -1.136719E+00 -2.165179E-08  2.598214E-08
        46 -1.136719E+00 -2.165179E-08  2.598214E-08
        47 -2.273437E+00 -2.165179E-08  2.598214E-08
        48 -2.273438E+00 -2.165179E-08  2.598214E-08
        49  0.000000E+00 -1.136719E+00  2.598214E-08
        50 -2.165179E-08 -1.136719E+00  2.598214E-08
        51 -1.136719E+00 -1.136719E+00  2.598214E-08
        52 -1.136719E+00 -1.136719E+00  2.598214E-08
        53 -2.273437E+00 -1.136719E+00  2.598214E-08
        54 -2.273438E+00 -1.136719E+00  2.598214E-08
        55  0.000000E+00 -1.136719E+00  2.598214E-08
        56 -2.165179E-08 -1.136719E+00  2.598214E-08
        57 -1.136719E+00 -1.136719E+00  2.598214E-08
        58 -1.136719E+00 -1.136719E+00  2.598214E-08
        59 -2.273437E+00 -1.136719E+00  2.598214E-08
        60 -2.273438E+00 -1.136719E+00  2.598214E-08
        61  0.000000E+00 -2.273437E+00  2.598214E-08
        62 -2.165179E-08 -2.273437E+00  2.598214E-08
        63 -1.136719E+00 -2.273437E+00  2.598214E-08
        64 -1.136719E+00 -2.273437E+00  2.598214E-08
        65 -2.273437E+00 -2.273437E+00  2.598214E-08
        66 -2.273438E+00 -2.273437E+00  2.598214E-08
        67  0.000000E+00 -2.273438E+00  2.598214E-08
        68 -2.165179E-08 -2.273438E+00  2.598214E-08
        69 -1.136719E+00 -2.273438E+00  2.598214E-08
        70 -1.136719E+00 -2.273438E+00  2.598214E-08
        71 -2.273437E+00 -2.273438E+00  2.598214E-08
        72 -2.273438E+00 -2.273438E+00  2.598214E-08

 stresses (elem, integ.pnt.,sxx,syy,szz,sxy,sxz,syz) for set EALL and time  0.7578125E-01

         1   1 -1.299107E-05 -1.299107E-05  1.694066E-21 -1.957346E-22  3.588468E-22 -1.304897E-22
         1   2 -1.299107E-05 -1.299107E-05 -1.694066E-21 -3.262243E-23  1.141785E-21  1.631122E-22
         1   3 -1.299107E-05 -1.299107E-05 -9.908424E-48 -1.272275E-21 -6.524487E-23 -1.565877E-21
         1   4 -1.299107E-05 -1.299107E-05 -1.694066E-21 -1.109163E-21 -1.304897E-22  5.872038E-22
         1   5 -1.299107E-05 -1.299107E-05  2.318993E-47  1.304897E-22  6.524487E-22  6.524487E-22
         1   6 -1.299107E-05 -1.299107E-05  1.694066E-21 -3.914692E-22  1.435387E-21  3.588468E-22
         1   7 -1.299107E-05 -1.299107E-05 -3.388132E-21  1.631122E-21 -4.567141E-22 -1.043918E-21
         1   8 -1.299107E-05 -1.299107E-05  8.432701E-48  1.043918E-21 -2.609795E-22  7.829384E-22
         2   1 -1.299107E-05 -1.299107E-05 -2.954239E-14 -1.207060E-15  1.552698E-14  7.162335E-16
         2   2 -1.299107E-05 -1.299107E-05 -1.815505E-14  2.076822E-15  4.580713E-15 -7.300069E-16
         2   3 -1.299107E-05 -1.299107E-05 -1.266028E-14 -4.504808E-15 -6.553925E-17 -1.391659E-16
         2   4 -1.299107E-05 -1.299107E-05 -1.805454E-14 -1.262997E-16  4.312970E-15  1.176034E-15
         2   5 -1.299107E-05 -1.299107E-05 -3.462261E-14 -1.730603E-14  2.206057E-14  3.528419E-15
         2   6 -1.299107E-05 -1.299107E-05 -1.743624E-14  2.080005E-16  2.534445E-14 -4.630463E-15
         2   7 -1.299107E-05 -1.299107E-05 -2.102438E-14 -1.673777E-14  1.726944E-14  2.673020E-15
         2   8 -1.299107E-05 -1.299107E-05 -2.061962E-14  5.154777E-15 -2.213714E-14 -2.724423E-15
         3   1 -1.299107E-05 -1.299107E-05  2.271899E-14  2.201506E-16  7.033283E-14  1.663163E-15
         3   2 -1.299107E-05 -1.299107E-05  2.551102E-14  2.649120E-14  2.654774E-14  7.630836E-16
         3   3 -1.299107E-05 -1.299107E-05  1.132725E-13  8.216132E-16  3.253170E-14 -2.429773E-15
         3   4 -1.299107E-05 -1.299107E-05  9.712412E-14  1.833565E-14 -2.876742E-14  1.787233E-15
         3   5 -1.299107E-05 -1.299107E-05 -8.863351E-15 -3.218574E-14  1.032629E-15  1.029995E-14
         3   6 -1.299107E-05 -1.299107E-05  4.674565E-15  2.842327E-15  3.824995E-14  1.823717E-15
         3   7 -1.299107E-05 -1.299107E-05 -1.354245E-14 -2.442036E-14 -9.316583E-15  6.207010E-15
         3   8 -1.299107E-05 -1.299107E-05 -1.894490E-14 -6.906327E-15  5.198254E-14  2.847867E-15
         4   1 -1.299107E-05 -1.299107E-05 -3.303244E-14 -3.447256E-14 -1.724841E-16 -9.543759E-15
         4   2 -1.299107E-05 -1.299107E-05  2.249468E-14 -3.295488E-14  1.446159E-15 -1.226966E-14
         4   3 -1.299107E-05 -1.299107E-05 -3.612947E-14  5.555086E-16  6.731497E-16 -7.867416E-16
         4   4 -1.299107E-05 -1.299107E-05  3.068517E-14  2.073187E-15  8.709837E-17  9.622884E-15
         4   5 -1.299107E-05 -1.299107E-05 -1.649776E-14 -5.742553E-16 -2.262363E-15 -4.234274E-14
         4   6 -1.299107E-05 -1.299107E-05  1.111636E-14 -2.143150E-15 -6.437193E-16 -2.085034E-14
         4   7 -1.299107E-05 -1.299107E-05 -2.422465E-14 -5.742553E-16  3.098280E-15 -2.936159E-15
         4   8 -1.299107E-05 -1.299107E-05  1.467699E-14 -2.143150E-15  2.512229E-15  1.198847E-14
         5   1 -1.299107E-05 -1.299107E-05  1.827181E-14  2.627105E-14 -2.981408E-15 -1.841463E-14
         5   2 -1.299107E-05 -1.299107E-05 -4.642398E-14  4.925822E-14  1.234337E-14 -3.753957E-14
         5   3 -1.299107E-05 -1.299107E-05  2.197225E-14 -3.064956E-14 -1.308424E-15 -1.841463E-14
         5   4 -1.299107E-05 -1.299107E-05 -2.965491E-14 -1.970329E-14  2.496263E-14  5.150895E-15
         5   5 -1.299107E-05 -1.299107E-05  4.125898E-14  3.064956E-14 -1.550528E-14 -2.963213E-14
         5   6 -1.299107E-05 -1.299107E-05 -1.851100E-14  3.502807E-14  1.186040E-14 -5.874433E-15
         5   7 -1.299107E-05 -1.299107E-05  1.540449E-14 -1.751404E-14  1.263093E-14 -3.361078E-15
         5   8 -1.299107E-05 -1.299107E-05 -5.264208E-14 -8.757018E-15  3.873913E-15 -1.463145E-14
         6   1 -1.299107E-05 -1.299107E-05 -3.164711E-14  1.094627E-15 -1.534700E-14 -1.894360E-14
         6   2 -1.299107E-05 -1.299107E-05  7.783111E-15  1.641941E-14 -3.067178E-14  3.196574E-15
         6   3 -1.299107E-05 -1.299107E-05 -4.762813E-14  4.378509E-15 -4.153104E-15  2.948947E-15
         6   4 -1.299107E-05 -1.299107E-05 -2.673613E-14  2.189254E-15  3.963198E-14  5.385828E-15
         6   5 -1.299107E-05 -1.299107E-05  8.328874E-14  7.443465E-14  8.087477E-15 -6.508413E-15
         6   6 -1.299107E-05 -1.299107E-05  8.495433E-14  3.064956E-14 -1.380507E-14 -5.405510E-16
         6   7 -1.299107E-05 -1.299107E-05  2.461727E-14  5.254211E-14  1.952848E-14 -2.402245E-14
         6   8 -1.299107E-05 -1.299107E-05 -5.629106E-14  2.627105E-14 -1.549959E-14  9.311094E-15
         7   1 -1.299107E-05 -1.299107E-05  6.639827E-15 -3.474408E-14 -2.154413E-16 -8.441185E-14
         7   2 -1.299107E-05 -1.299107E-05  5.372532E-14 -3.396820E-14  2.692160E-15 -3.951848E-14
         7   3 -1.299107E-05 -1.299107E-05  2.937540E-14  2.839905E-16  9.835429E-16  3.818639E-14
         7   4 -1.299107E-05 -1.299107E-05  8.403060E-14  1.059867E-15  4.138944E-15  6.556573E-14
         7   5 -1.299107E-05 -1.299107E-05  2.588131E-14  4.109718E-16 -3.711639E-15 -2.324104E-14
         7   6 -1.299107E-05 -1.299107E-05  3.027635E-14  1.533768E-15 -8.040382E-16 -3.880816E-14
         7   7 -1.299107E-05 -1.299107E-05 -5.594695E-14  4.109718E-16  5.152310E-16  1.178703E-14
         7   8 -1.299107E-05 -1.299107E-05  6.110201E-14  1.533768E-15  3.670632E-15 -2.786189E-14
         8   1 -1.299107E-05 -1.299107E-05 -9.351857E-15  8.757018E-15  2.358870E-14 -7.438006E-14
         8   2 -1.299107E-05 -1.299107E-05  1.882256E-15  3.283882E-15  2.577795E-14 -4.045976E-14
         8   3 -1.299107E-05 -1.299107E-05  4.507332E-15 -8.757018E-15  1.372392E-14  7.448924E-14
         8   4 -1.299107E-05 -1.299107E-05 -2.794742E-14 -8.757018E-15 -1.254714E-14 -1.418870E-14
         8   5 -1.299107E-05 -1.299107E-05  4.997867E-16  2.974121E-32 -1.438919E-14 -9.726518E-15
         8   6 -1.299107E-05 -1.299107E-05 -4.685508E-15  3.940658E-14  1.407112E-14 -5.103733E-15
         8   7 -1.299107E-05 -1.299107E-05 -6.773806E-14 -3.502807E-14 -1.414491E-14 -1.848354E-14
         8   8 -1.299107E-05 -1.299107E-05 -6.735400E-14 -8.757018E-15 -1.414491E-14  1.241030E-14
         9   1 -1.299107E-05 -1.299107E-05  3.603118E-14 -2.627105E-14  1.748986E-14 -1.227594E-14
         9   2 -1.299107E-05 -1.299107E-05 -2.324379E-14  6.786689E-14  2.624688E-14 -4.019920E-14
         9   3 -1.299107E-05 -1.299107E-05  1.407696E-13 -3.502807E-14  6.619051E-14  5.238098E-15
         9   4 -1.299107E-05 -1.299107E-05  2.898587E-14  4.159583E-14  4.867647E-14  2.766769E-14
         9   5 -1.299107E-05 -1.299107E-05 -7.890467E-14  7.005614E-14  8.666804E-15 -6.722206E-15
         9   6 -1.299107E-05 -1.299107E-05 -1.053408E-13  1.050842E-13 -2.198276E-14 -1.449097E-14
         9   7 -1.299107E-05 -1.299107E-05 -1.685675E-14 -3.502807E-14  5.562940E-14  1.954885E-14
         9   8 -1.299107E-05 -1.299107E-05 -4.325952E-14 -1.751404E-14 -5.669726E-15 -1.230172E-14

 strains (elem, integ.pnt.,exx,eyy,ezz,exy,exz,eyz) forset EALL and time  0.7578125E-01

         1   1 -4.330357E-11 -4.330357E-11  3.711735E-11 -1.211690E-27  2.221432E-27 -8.077936E-28
         1   2 -4.330357E-11 -4.330357E-11  3.711735E-11 -2.019484E-28  7.068194E-27  1.009742E-27
         1   3 -4.330357E-11 -4.330357E-11  3.711735E-11 -7.875987E-27 -4.038968E-28 -9.693523E-27
         1   4 -4.330357E-11 -4.330357E-11  3.711735E-11 -6.866245E-27 -8.077936E-28  3.635071E-27
         1   5 -4.330357E-11 -4.330357E-11  3.711735E-11  8.077936E-28  4.038968E-27  4.038968E-27
         1   6 -4.330357E-11 -4.330357E-11  3.711735E-11 -2.423381E-27  8.885729E-27  2.221432E-27
         1   7 -4.330357E-11 -4.330357E-11  3.711735E-11  1.009742E-26 -2.827277E-27 -6.462349E-27
         1   8 -4.330357E-11 -4.330357E-11  3.711735E-11  6.462349E-27 -1.615587E-27  4.846761E-27
         2   1 -4.330357E-11 -4.330357E-11  3.711735E-11 -7.472275E-21  9.611943E-20  4.433827E-21
         2   2 -4.330357E-11 -4.330357E-11  3.711735E-11  1.285652E-20  2.835679E-20 -4.519090E-21
         2   3 -4.330357E-11 -4.330357E-11  3.711735E-11 -2.788691E-20 -4.057192E-22 -8.615030E-22
         2   4 -4.330357E-11 -4.330357E-11  3.711735E-11 -7.818553E-22  2.669934E-20  7.280208E-21
         2   5 -4.330357E-11 -4.330357E-11  3.711735E-11 -1.071326E-19  1.365654E-19  2.184260E-20
         2   6 -4.330357E-11 -4.330357E-11  3.711735E-11  1.287622E-21  1.568942E-19 -2.866477E-20
         2   7 -4.330357E-11 -4.330357E-11  3.711735E-11 -1.036147E-19  1.069061E-19  1.654727E-20
         2   8 -4.330357E-11 -4.330357E-11  3.711735E-11  3.191052E-20 -1.370394E-19 -1.686548E-20
         3   1 -4.330357E-11 -4.330357E-11  3.711735E-11  1.362837E-21  4.353937E-19  1.029577E-20
         3   2 -4.330357E-11 -4.330357E-11  3.711735E-11  1.639932E-19  1.643432E-19  4.723851E-21
         3   3 -4.330357E-11 -4.330357E-11  3.711735E-11  5.086177E-21  2.013867E-19 -1.504145E-20
         3   4 -4.330357E-11 -4.330357E-11  3.711735E-11  1.135064E-19 -1.780840E-19  1.106382E-20
         3   5 -4.330357E-11 -4.330357E-11  3.711735E-11 -1.992451E-19  6.392464E-21  6.376157E-20
         3   6 -4.330357E-11 -4.330357E-11  3.711735E-11  1.759536E-20  2.367854E-19  1.128968E-20
         3   7 -4.330357E-11 -4.330357E-11  3.711735E-11 -1.511737E-19 -5.767408E-20  3.842435E-20
         3   8 -4.330357E-11 -4.330357E-11  3.711735E-11 -4.275345E-20  3.217967E-19  1.762965E-20
         4   1 -4.330357E-11 -4.330357E-11  3.711735E-11 -2.134016E-19 -1.067759E-21 -5.908041E-20
         4   2 -4.330357E-11 -4.330357E-11  3.711735E-11 -2.040064E-19  8.952415E-21 -7.595504E-20
         4   3 -4.330357E-11 -4.330357E-11  3.711735E-11  3.438863E-21  4.167117E-21 -4.870305E-21
         4   4 -4.330357E-11 -4.330357E-11  3.711735E-11  1.283401E-20  5.391804E-22  5.957023E-20
         4   5 -4.330357E-11 -4.330357E-11  3.711735E-11 -3.554914E-21 -1.400510E-20 -2.621217E-19
         4   6 -4.330357E-11 -4.330357E-11  3.711735E-11 -1.326712E-20 -3.984929E-21 -1.290735E-19
         4   7 -4.330357E-11 -4.330357E-11  3.711735E-11 -3.554914E-21  1.917983E-20 -1.817622E-20
         4   8 -4.330357E-11 -4.330357E-11  3.711735E-11 -1.326712E-20  1.555189E-20  7.421436E-20
         5   1 -4.330357E-11 -4.330357E-11  3.711735E-11  1.626303E-19 -1.845634E-20 -1.139953E-19
         5   2 -4.330357E-11 -4.330357E-11  3.711735E-11  3.049319E-19  7.641135E-20 -2.323878E-19
         5   3 -4.330357E-11 -4.330357E-11  3.711735E-11 -1.897354E-19 -8.099767E-21 -1.139953E-19
         5   4 -4.330357E-11 -4.330357E-11  3.711735E-11 -1.219727E-19  1.545306E-19  3.188649E-20
         5   5 -4.330357E-11 -4.330357E-11  3.711735E-11  1.897354E-19 -9.598504E-20 -1.834370E-19
         5   6 -4.330357E-11 -4.330357E-11  3.711735E-11  2.168404E-19  7.342155E-20 -3.636554E-20
         5   7 -4.330357E-11 -4.330357E-11  3.711735E-11 -1.084202E-19  7.819147E-20 -2.080667E-20
         5   8 -4.330357E-11 -4.330357E-11  3.711735E-11 -5.421011E-20  2.398137E-20 -9.057565E-20
         6   1 -4.330357E-11 -4.330357E-11  3.711735E-11  6.776264E-21 -9.500525E-20 -1.172699E-19
         6   2 -4.330357E-11 -4.330357E-11  3.711735E-11  1.016440E-19 -1.898729E-19  1.978831E-20
         6   3 -4.330357E-11 -4.330357E-11  3.711735E-11  2.710505E-20 -2.570969E-20  1.825539E-20
         6   4 -4.330357E-11 -4.330357E-11  3.711735E-11  1.355253E-20  2.453409E-19  3.334084E-20
         6   5 -4.330357E-11 -4.330357E-11  3.711735E-11  4.607859E-19  5.006534E-20 -4.029018E-20
         6   6 -4.330357E-11 -4.330357E-11  3.711735E-11  1.897354E-19 -8.545994E-20 -3.346268E-21
         6   7 -4.330357E-11 -4.330357E-11  3.711735E-11  3.252607E-19  1.208906E-19 -1.487104E-19
         6   8 -4.330357E-11 -4.330357E-11  3.711735E-11  1.626303E-19 -9.594987E-20  5.764010E-20
         7   1 -4.330357E-11 -4.330357E-11  3.711735E-11 -2.150824E-19 -1.333684E-21 -5.225496E-19
         7   2 -4.330357E-11 -4.330357E-11  3.711735E-11 -2.102794E-19  1.666575E-20 -2.446382E-19
         7   3 -4.330357E-11 -4.330357E-11  3.711735E-11  1.758036E-21  6.088599E-21  2.363920E-19
         7   4 -4.330357E-11 -4.330357E-11  3.711735E-11  6.561082E-21  2.562203E-20  4.058831E-19
         7   5 -4.330357E-11 -4.330357E-11  3.711735E-11  2.544111E-21 -2.297681E-20 -1.438731E-19
         7   6 -4.330357E-11 -4.330357E-11  3.711735E-11  9.494752E-21 -4.977380E-21 -2.402410E-19
         7   7 -4.330357E-11 -4.330357E-11  3.711735E-11  2.544111E-21  3.189525E-21  7.296731E-20
         7   8 -4.330357E-11 -4.330357E-11  3.711735E-11  9.494752E-21  2.272296E-20 -1.724784E-19
         8   1 -4.330357E-11 -4.330357E-11  3.711735E-11  5.421011E-20  1.460253E-19 -4.604480E-19
         8   2 -4.330357E-11 -4.330357E-11  3.711735E-11  2.032879E-20  1.595778E-19 -2.504652E-19
         8   3 -4.330357E-11 -4.330357E-11  3.711735E-11 -5.421011E-20  8.495758E-20  4.611238E-19
         8   4 -4.330357E-11 -4.330357E-11  3.711735E-11 -5.421011E-20 -7.767275E-20 -8.783484E-20
         8   5 -4.330357E-11 -4.330357E-11  3.711735E-11 -1.772631E-37 -8.907594E-20 -6.021178E-20
         8   6 -4.330357E-11 -4.330357E-11  3.711735E-11  2.439455E-19  8.710691E-20 -3.159454E-20
         8   7 -4.330357E-11 -4.330357E-11  3.711735E-11 -2.168404E-19 -8.756376E-20 -1.144219E-19
         8   8 -4.330357E-11 -4.330357E-11  3.711735E-11 -5.421011E-20 -8.756376E-20  7.682568E-20
         9   1 -4.330357E-11 -4.330357E-11  3.711735E-11 -1.626303E-19  1.082706E-19 -7.599390E-20
         9   2 -4.330357E-11 -4.330357E-11  3.711735E-11  4.201283E-19  1.624807E-19 -2.488522E-19
         9   3 -4.330357E-11 -4.330357E-11  3.711735E-11 -2.168404E-19  4.097508E-19  3.242632E-20
         9   4 -4.330357E-11 -4.330357E-11  3.711735E-11  2.574980E-19  3.013305E-19  1.712762E-19
         9   5 -4.330357E-11 -4.330357E-11  3.711735E-11  4.336809E-19  5.365165E-20 -4.161365E-20
         9   6 -4.330357E-11 -4.330357E-11  3.711735E-11  6.505213E-19 -1.360837E-19 -8.970602E-20
         9   7 -4.330357E-11 -4.330357E-11  3.711735E-11 -2.168404E-19  3.443725E-19  1.210167E-19
         9   8 -4.330357E-11 -4.330357E-11  3.711735E-11 -1.084202E-19 -3.509830E-20 -7.615349E-20

 displacements (vx,vy,vz) for set NALL and time  0.8478125E-01

         1  0.000000E+00  0.000000E+00  0.000000E+00
         2 -2.422321E-08  0.000000E+00  0.000000E+00
         3 -1.271719E+00  0.000000E+00  0.000000E+00
         4 -1.271719E+00  0.000000E+00  0.000000E+00
         5 -2.543437E+00  0.000000E+00  0.000000E+00
         6 -2.543437E+00  0.000000E+00  0.000000E+00
         7  0.000000E+00 -2.422321E-08  0.000000E+00
         8 -2.422321E-08 -2.422321E-08  0.000000E+00
         9 -1.271719E+00 -2.422321E-08  0.000000E+00
        10 -1.271719E+00 -2.422321E-08  0.000000E+00
        11 -2.543437E+00 -2.422321E-08  0.000000E+00
        12 -2.543437E+00 -2.422321E-08  0.000000E+00
        13  0.000000E+00 -1.271719E+00  0.000000E+00
        14 -2.422321E-08 -1.271719E+00  0.000000E+00
        15 -1.271719E+00 -1.271719E+00  0.000000E+00
        16 -1.271719E+00 -1.271719E+00  0.000000E+00
        17 -2.543437E+00 -1.271719E+00  0.000000E+00
        18 -2.543437E+00 -1.271719E+00  0.000000E+00
        19  0.000000E+00 -1.271719E+00  0.000000E+00
        20 -2.422321E-08 -1.271719E+00  0.000000E+00
        21 -1.271719E+00 -1.271719E+00  0.000000E+00
        22 -1.271719E+00 -1.271719E+00  0.000000E+00
        23 -2.543437E+00 -1.271719E+00  0.000000E+00
        24 -2.543437E+00 -1.271719E+00  0.000000E+00
        25  0.000000E+00 -2.543437E+00  0.000000E+00
        26 -2.422321E-08 -2.543437E+00  0.000000E+00
        27 -1.271719E+00 -2.543437E+00  0.000000E+00
        28 -1.271719E+00 -2.543437E+00  0.000000E+00
        29 -2.543437E+00 -2.543437E+00  0.000000E+00
        30 -2.543437E+00 -2.543437E+00  0.000000E+00
        31  0.000000E+00 -2.543437E+00  0.000000E+00
        32 -2.422321E-08 -2.543437E+00  0.000000E+00
        33 -1.271719E+00 -2.543437E+00  0.000000E+00
        34 -1.271719E+00 -2.543437E+00  0.000000E+00
        35 -2.543437E+00 -2.543437E+00  0.000000E+00
        36 -2.543437E+00 -2.543437E+00  0.000000E+00
        37  0.000000E+00  0.000000E+00  2.906786E-08
        38 -2.422321E-08  0.000000E+00  2.906786E-08
        39 -1.271719E+00  0.000000E+00  2.906786E-08
        40 -1.271719E+00  0.000000E+00  2.906786E-08
        41 -2.543437E+00  0.000000E+00  2.906786E-08
        42 -2.543437E+00  0.000000E+00  2.906786E-08
        43  0.000000E+00 -2.422321E-08  2.906786E-08
        44 -2.422321E-08 -2.422321E-08  2.906786E-08
        45 -1.271719E+00 -2.422321E-08  2.906786E-08
        46 -1.271719E+00 -2.422321E-08  2.906786E-08
        47 -2.543437E+00 -2.422321E-08  2.906786E-08
        48 -2.543437E+00 -2.422321E-08  2.906786E-08
        49  0.000000E+00 -1.271719E+00  2.906786E-08
        50 -2.422321E-08 -1.271719E+00  2.906786E-08
        51 -1.271719E+00 -1.271719E+00  2.906786E-08
        52 -1.271719E+00 -1.271719E+00  2.906786E-08
        53 -2.543437E+00 -1.271719E+00  2.906786E-08
        54 -2.543437E+00 -1.271719E+00  2.906786E-08
        55  0.000000E+00 -1.271719E+00  2.906786E-08
        56 -2.422321E-08 -1.271719E+00  2.906786E-08
        57 -1.271719E+00 -1.271719E+00  2.906786E-08
        58 -1.271719E+00 -1.271719E+00  2.906786E-08
        59 -2.543437E+00 -1.271719E+00  2.906786E-08
        60 -2.543437E+00 -1.271719E+00  2.906786E-08
        61  0.000000E+00 -2.543437E+00  2.906786E-08
        62 -2.422321E-08 -2.543437E+00  2.906786E-08
        63 -1.271719E+00 -2.543437E+00  2.906786E-08
        64 -1.271719E+00 -2.543437E+00  2.906786E-08
        65 -2.543437E+00 -2.543437E+00  2.906786E-08
        66 -2.543437E+00 -2.543437E+00  2.906786E-08
        67  0.000000E+00 -2.543437E+00  2.906786E-08
        68 -2.422321E-08 -2.543437E+00  2.906786E-08
        69 -1.271719E+00 -2.543437E+00  2.906786E-08
        70 -1.271719E+00 -2.543437E+00  2.906786E-08
        71 -2.543437E+00 -2.543437E+00  2.906786E-08
        72 -2.543437E+00 -2.543437E+00  2.906786E-08

 stresses (elem, integ.pnt.,sxx,syy,szz,sxy,sxz,syz) for set EALL and time  0.8478125E-01

         1   1 -1.453393E-05 -1.453393E-05  1.694066E-21 -1.957346E-22 -1.631122E-23  1.304897E-22
         1   2 -1.453393E-05 -1.453393E-05  1.694066E-21  9.786730E-23 -6.198262E-22  2.446682E-22
         1   3 -1.453393E-05 -1.453393E-05  1.694066E-21 -6.850711E-22  3.262243E-22  1.957346E-21
         1   4 -1.453393E-05 -1.453393E-05  1.694066E-21 -3.914692E-22  3.914692E-22  9.134281E-22
         1   5 -1.453393E-05 -1.453393E-05  1.694066E-21 -3.914692E-22  2.772907E-22 -1.043918E-21
         1   6 -1.453393E-05 -1.453393E-05 -4.216351E-49  7.829384E-22 -3.262243E-22 -2.120458E-22
         1   7 -1.453393E-05 -1.453393E-05  1.694066E-21 -2.218325E-21  1.500632E-21  7.829384E-22
         1   8 -1.453393E-05 -1.453393E-05  1.694066E-21 -1.043918E-21  1.565877E-21  4.567141E-22
         2   1 -1.453393E-05 -1.453393E-05 -1.375253E-14 -2.329712E-14  6.260144E-15 -3.421793E-17
         2   2 -1.453393E-05 -1.453393E-05 -6.656784E-15 -3.752727E-14 -5.780755E-15 -9.460466E-17
         2   3 -1.453393E-05 -1.453393E-05 -8.006272E-15 -2.713449E-14  1.832771E-14 -1.769433E-15
         2   4 -1.453393E-05 -1.453393E-05 -8.204825E-15 -4.027001E-14  8.136742E-16  9.229236E-16
         2   5 -1.453393E-05 -1.453393E-05 -1.575455E-14 -3.502204E-14  1.140087E-14  1.607512E-15
         2   6 -1.453393E-05 -1.453393E-05 -2.878035E-15  2.627708E-14 -3.923915E-15 -1.370598E-15
         2   7 -1.453393E-05 -1.453393E-05 -5.082460E-15 -3.500557E-14  2.055071E-14 -1.277030E-16
         2   8 -1.453393E-05 -1.453393E-05  4.997477E-16  3.067206E-14  7.415182E-15 -3.530698E-16
         3   1 -1.453393E-05 -1.453393E-05  6.246070E-14  4.348053E-14  5.778550E-14 -7.778388E-17
         3   2 -1.453393E-05 -1.453393E-05  3.721411E-14  3.472352E-14 -1.324371E-15  2.397792E-15
         3   3 -1.453393E-05 -1.453393E-05  2.779731E-14  4.264847E-14 -3.899699E-14 -3.501121E-15
         3   4 -1.453393E-05 -1.453393E-05 -5.590316E-16  2.294518E-14 -3.968923E-15  6.981751E-15
         3   5 -1.453393E-05 -1.453393E-05  1.258123E-14  3.798668E-15  2.191504E-14  3.133043E-15
         3   6 -1.453393E-05 -1.453393E-05  4.149962E-15 -3.998642E-14 -8.734519E-15  4.364722E-15
         3   7 -1.453393E-05 -1.453393E-05 -1.879828E-14 -5.587932E-14 -4.984029E-14 -2.902940E-16
         3   8 -1.453393E-05 -1.453393E-05 -3.033930E-14  2.293384E-14 -6.055205E-15  8.948681E-15
         4   1 -1.453393E-05 -1.453393E-05 -2.413454E-15  1.479232E-15  1.631993E-16 -6.366908E-15
         4   2 -1.453393E-05 -1.453393E-05  1.213844E-14 -4.605836E-16  4.251992E-17 -1.015621E-14
         4   3 -1.453393E-05 -1.453393E-05  1.100157E-14  3.668487E-15 -5.491086E-17 -3.263796E-14
         4   4 -1.453393E-05 -1.453393E-05  2.210139E-14  1.728671E-15  6.093534E-16  2.815574E-14
         4   5 -1.453393E-05 -1.453393E-05 -3.550570E-14  4.070720E-15  7.297475E-16  4.541502E-15
         4   6 -1.453393E-05 -1.453393E-05 -1.250510E-15  3.229825E-15  6.090677E-16  1.907466E-14
         4   7 -1.453393E-05 -1.453393E-05 -2.044229E-14  1.720625E-14 -8.691944E-16 -8.594024E-15
         4   8 -1.453393E-05 -1.453393E-05  1.036082E-14  1.636535E-14 -2.049299E-16 -1.923729E-14
         5   1 -1.453393E-05 -1.453393E-05 -4.845291E-15 -1.970329E-14 -2.504902E-14 -3.573804E-14
         5   2 -1.453393E-05 -1.453393E-05 -3.461413E-14 -2.079792E-14  2.092532E-14 -9.365518E-15
         5   3 -1.453393E-05 -1.453393E-05 -6.410574E-15 -8.757018E-15 -8.657564E-16 -7.099664E-16
         5   4 -1.453393E-05 -1.453393E-05 -5.756033E-15  1.094627E-15 -1.837979E-14 -2.797755E-15
         5   5 -1.453393E-05 -1.453393E-05 -8.129175E-15  3.064956E-14 -2.053715E-14 -1.140665E-14
         5   6 -1.453393E-05 -1.453393E-05 -2.968831E-14  1.751404E-14  3.544651E-15 -1.380384E-14
         5   7 -1.453393E-05 -1.453393E-05  1.571907E-16 -1.751404E-14  1.428299E-14 -2.016367E-14
         5   8 -1.453393E-05 -1.453393E-05  8.117286E-16  8.757018E-15  1.428299E-14  1.465647E-14
         6   1 -1.453393E-05 -1.453393E-05  7.275715E-15  4.816360E-14  1.866060E-14 -2.954398E-14
         6   2 -1.453393E-05 -1.453393E-05 -1.280611E-14  2.627105E-14  5.525071E-15  7.138668E-15
         6   3 -1.453393E-05 -1.453393E-05  2.042315E-15  3.502807E-14 -1.577373E-15  5.484095E-15
         6   4 -1.453393E-05 -1.453393E-05  1.589777E-14  1.313553E-14  3.345070E-14  3.340972E-14
         6   5 -1.453393E-05 -1.453393E-05 -9.143692E-15  1.751404E-14  7.433517E-14 -2.769668E-14
         6   6 -1.453393E-05 -1.453393E-05 -3.415134E-14  5.832678E-33  1.960381E-14  2.638665E-15
         6   7 -1.453393E-05 -1.453393E-05 -1.109321E-14  1.061284E-33 -5.886835E-15 -1.456115E-14
         6   8 -1.453393E-05 -1.453393E-05 -6.127344E-14  3.502807E-14 -1.464385E-14  5.922546E-15
         7   1 -1.453393E-05 -1.453393E-05  4.824011E-14  9.115383E-16  2.921015E-15 -3.113463E-14
         7   2 -1.453393E-05 -1.453393E-05  3.058384E-14  3.401908E-15  1.008257E-14  1.357968E-14
         7   3 -1.453393E-05 -1.453393E-05  7.856835E-14  9.115383E-16 -2.704334E-15  7.394958E-14
         7   4 -1.453393E-05 -1.453393E-05  5.230588E-14  3.401908E-15 -7.469036E-15  3.766147E-14
         7   5 -1.453393E-05 -1.453393E-05 -8.121142E-14 -5.199899E-15  3.739823E-15  1.453052E-14
         7   6 -1.453393E-05 -1.453393E-05 -6.602887E-14 -1.940629E-14  1.090137E-14 -3.614634E-14
         7   7 -1.453393E-05 -1.453393E-05 -7.592831E-14 -5.199899E-15 -5.328009E-15  1.453052E-14
         7   8 -1.453393E-05 -1.453393E-05 -6.935197E-14 -1.940629E-14 -1.009271E-14  9.827998E-15
         8   1 -1.453393E-05 -1.453393E-05  5.996673E-14  2.189254E-14 -1.420021E-14 -3.154545E-14
         8   2 -1.453393E-05 -1.453393E-05 -7.209272E-14  3.283882E-15 -1.638947E-14 -8.706699E-14
         8   3 -1.453393E-05 -1.453393E-05  1.222198E-13 -1.313553E-14  4.630873E-14  4.726771E-14
         8   4 -1.453393E-05 -1.453393E-05 -1.558755E-14 -3.064956E-14  2.003767E-14 -1.686069E-15
         8   5 -1.453393E-05 -1.453393E-05  1.891821E-14  1.580332E-32 -3.462303E-14  1.893873E-15
         8   6 -1.453393E-05 -1.453393E-05  2.478178E-14  4.378509E-15  6.972804E-15 -5.023476E-14
         8   7 -1.453393E-05 -1.453393E-05  4.997440E-14 -1.363960E-32  1.176478E-14  1.065089E-14
         8   8 -1.453393E-05 -1.453393E-05  3.367068E-14 -2.627105E-14  1.614329E-14  1.180871E-16
         9   1 -1.453393E-05 -1.453393E-05 -2.023914E-13 -4.378509E-14  1.507541E-14 -9.037650E-14
         9   2 -1.453393E-05 -1.453393E-05 -4.430008E-14  1.094627E-14  4.134646E-14 -5.564852E-14
         9   3 -1.453393E-05 -1.453393E-05 -8.950199E-14 -8.757018E-15 -6.841635E-14  5.950692E-15
         9   4 -1.453393E-05 -1.453393E-05  1.417181E-13  4.597434E-14  1.639793E-15 -7.484927E-15
         9   5 -1.453393E-05 -1.453393E-05  1.434481E-14 -1.751404E-13 -2.020452E-14 -9.163294E-14
         9   6 -1.453393E-05 -1.453393E-05  8.377130E-14 -8.757018E-14  1.688026E-15 -7.406565E-14
         9   7 -1.453393E-05 -1.453393E-05  1.075309E-13 -1.401123E-13 -6.393635E-14 -4.784785E-14
         9   8 -1.453393E-05 -1.453393E-05  1.187309E-13 -1.987565E-32 -3.766530E-14  2.226154E-14

 strains (elem, integ.pnt.,exx,eyy,ezz,exy,exz,eyz) forset EALL and time  0.8478125E-01

         1   1 -4.844643E-11 -4.844643E-11  4.152551E-11 -1.211690E-27 -1.009742E-28  8.077936E-28
         1   2 -4.844643E-11 -4.844643E-11  4.152551E-11  6.058452E-28 -3.837019E-27  1.514613E-27
         1   3 -4.844643E-11 -4.844643E-11  4.152551E-11 -4.240916E-27  2.019484E-27  1.211690E-26
         1   4 -4.844643E-11 -4.844643E-11  4.152551E-11 -2.423381E-27  2.423381E-27  5.654555E-27
         1   5 -4.844643E-11 -4.844643E-11  4.152551E-11 -2.423381E-27  1.716561E-27 -6.462349E-27
         1   6 -4.844643E-11 -4.844643E-11  4.152551E-11  4.846761E-27 -2.019484E-27 -1.312665E-27
         1   7 -4.844643E-11 -4.844643E-11  4.152551E-11 -1.373249E-26  9.289626E-27  4.846761E-27
         1   8 -4.844643E-11 -4.844643E-11  4.152551E-11 -6.462349E-27  9.693523E-27  2.827277E-27
         2   1 -4.844643E-11 -4.844643E-11  4.152551E-11 -1.442203E-19  3.875327E-20 -2.118253E-22
         2   2 -4.844643E-11 -4.844643E-11  4.152551E-11 -2.323117E-19 -3.578563E-20 -5.856479E-22
         2   3 -4.844643E-11 -4.844643E-11  4.152551E-11 -1.679754E-19  1.134572E-19 -1.095363E-20
         2   4 -4.844643E-11 -4.844643E-11  4.152551E-11 -2.492906E-19  5.037031E-21  5.713336E-21
         2   5 -4.844643E-11 -4.844643E-11  4.152551E-11 -2.168031E-19  7.057679E-20  9.951266E-21
         2   6 -4.844643E-11 -4.844643E-11  4.152551E-11  1.626677E-19 -2.429090E-20 -8.484652E-21
         2   7 -4.844643E-11 -4.844643E-11  4.152551E-11 -2.167011E-19  1.272187E-19 -7.905423E-22
         2   8 -4.844643E-11 -4.844643E-11  4.152551E-11  1.898747E-19  4.590351E-20 -2.185670E-21
         3   1 -4.844643E-11 -4.844643E-11  4.152551E-11  2.691652E-19  3.577197E-19 -4.815193E-22
         3   2 -4.844643E-11 -4.844643E-11  4.152551E-11  2.149551E-19 -8.198486E-21  1.484347E-20
         3   3 -4.844643E-11 -4.844643E-11  4.152551E-11  2.640144E-19 -2.414100E-19 -2.167361E-20
         3   4 -4.844643E-11 -4.844643E-11  4.152551E-11  1.420416E-19 -2.456952E-20  4.322036E-20
         3   5 -4.844643E-11 -4.844643E-11  4.152551E-11  2.351557E-20  1.356645E-19  1.939503E-20
         3   6 -4.844643E-11 -4.844643E-11  4.152551E-11 -2.475350E-19 -5.407083E-20  2.701971E-20
         3   7 -4.844643E-11 -4.844643E-11  4.152551E-11 -3.459196E-19 -3.085351E-19 -1.797058E-21
         3   8 -4.844643E-11 -4.844643E-11  4.152551E-11  1.419714E-19 -3.748460E-20  5.539660E-20
         4   1 -4.844643E-11 -4.844643E-11  4.152551E-11  9.157153E-21  1.010281E-21 -3.941419E-20
         4   2 -4.844643E-11 -4.844643E-11  4.152551E-11 -2.851232E-21  2.632185E-22 -6.287177E-20
         4   3 -4.844643E-11 -4.844643E-11  4.152551E-11  2.270968E-20 -3.399244E-22 -2.020445E-19
         4   4 -4.844643E-11 -4.844643E-11  4.152551E-11  1.070130E-20  3.772188E-21  1.742975E-19
         4   5 -4.844643E-11 -4.844643E-11  4.152551E-11  2.519969E-20  4.517485E-21  2.811406E-20
         4   6 -4.844643E-11 -4.844643E-11  4.152551E-11  1.999416E-20  3.770419E-21  1.180812E-19
         4   7 -4.844643E-11 -4.844643E-11  4.152551E-11  1.065149E-19 -5.380727E-21 -5.320110E-20
         4   8 -4.844643E-11 -4.844643E-11  4.152551E-11  1.013093E-19 -1.268614E-21 -1.190880E-19
         5   1 -4.844643E-11 -4.844643E-11  4.152551E-11 -1.219727E-19 -1.550654E-19 -2.212355E-19
         5   2 -4.844643E-11 -4.844643E-11  4.152551E-11 -1.287490E-19  1.295377E-19 -5.797702E-20
         5   3 -4.844643E-11 -4.844643E-11  4.152551E-11 -5.421011E-20 -5.359445E-21 -4.395030E-21
         5   4 -4.844643E-11 -4.844643E-11  4.152551E-11  6.776264E-21 -1.137797E-19 -1.731944E-20
         5   5 -4.844643E-11 -4.844643E-11  4.152551E-11  1.897354E-19 -1.271347E-19 -7.061259E-20
         5   6 -4.844643E-11 -4.844643E-11  4.152551E-11  1.084202E-19  2.194308E-20 -8.545233E-20
         5   7 -4.844643E-11 -4.844643E-11  4.152551E-11 -1.084202E-19  8.841850E-20 -1.248227E-19
         5   8 -4.844643E-11 -4.844643E-11  4.152551E-11  5.421011E-20  8.841850E-20  9.073053E-20
         6   1 -4.844643E-11 -4.844643E-11  4.152551E-11  2.981556E-19  1.155180E-19 -1.828913E-19
         6   2 -4.844643E-11 -4.844643E-11  4.152551E-11  1.626303E-19  3.420282E-20  4.419176E-20
         6   3 -4.844643E-11 -4.844643E-11  4.152551E-11  2.168404E-19 -9.764689E-21  3.394916E-20
         6   4 -4.844643E-11 -4.844643E-11  4.152551E-11  8.131516E-20  2.070757E-19  2.068221E-19
         6   5 -4.844643E-11 -4.844643E-11  4.152551E-11  1.084202E-19  4.601701E-19 -1.714556E-19
         6   6 -4.844643E-11 -4.844643E-11  4.152551E-11 -3.776395E-38  1.213569E-19  1.633459E-20
         6   7 -4.844643E-11 -4.844643E-11  4.152551E-11 -9.234480E-39 -3.644231E-20 -9.014045E-20
         6   8 -4.844643E-11 -4.844643E-11  4.152551E-11  2.168404E-19 -9.065242E-20  3.666338E-20
         7   1 -4.844643E-11 -4.844643E-11  4.152551E-11  5.642856E-21  1.808247E-20 -1.927382E-19
         7   2 -4.844643E-11 -4.844643E-11  4.152551E-11  2.105943E-20  6.241589E-20  8.406466E-20
         7   3 -4.844643E-11 -4.844643E-11  4.152551E-11  5.642856E-21 -1.674111E-20  4.577831E-19
         7   4 -4.844643E-11 -4.844643E-11  4.152551E-11  2.105943E-20 -4.623689E-20  2.331425E-19
         7   5 -4.844643E-11 -4.844643E-11  4.152551E-11 -3.218985E-20  2.315128E-20  8.995083E-20
         7   6 -4.844643E-11 -4.844643E-11  4.152551E-11 -1.201341E-19  6.748470E-20 -2.237631E-19
         7   7 -4.844643E-11 -4.844643E-11  4.152551E-11 -3.218985E-20 -3.298291E-20  8.995083E-20
         7   8 -4.844643E-11 -4.844643E-11  4.152551E-11 -1.201342E-19 -6.247869E-20  6.083999E-20
         8   1 -4.844643E-11 -4.844643E-11  4.152551E-11  1.355253E-19 -8.790609E-20 -1.952813E-19
         8   2 -4.844643E-11 -4.844643E-11  4.152551E-11  2.032879E-20 -1.014586E-19 -5.389861E-19
         8   3 -4.844643E-11 -4.844643E-11  4.152551E-11 -8.131516E-20  2.866731E-19  2.926096E-19
         8   4 -4.844643E-11 -4.844643E-11  4.152551E-11 -1.897354E-19  1.240427E-19 -1.043757E-20
         8   5 -4.844643E-11 -4.844643E-11  4.152551E-11 -1.391118E-38 -2.143330E-19  1.172397E-20
         8   6 -4.844643E-11 -4.844643E-11  4.152551E-11  2.710505E-20  4.316498E-20 -3.109771E-19
         8   7 -4.844643E-11 -4.844643E-11  4.152551E-11 -8.144519E-38  7.282960E-20  6.593408E-20
         8   8 -4.844643E-11 -4.844643E-11  4.152551E-11 -1.626303E-19  9.993466E-20  7.310152E-22
         9   1 -4.844643E-11 -4.844643E-11  4.152551E-11 -2.710505E-19  9.332398E-20 -5.594736E-19
         9   2 -4.844643E-11 -4.844643E-11  4.152551E-11  6.776264E-20  2.559543E-19 -3.444909E-19
         9   3 -4.844643E-11 -4.844643E-11  4.152551E-11 -5.421011E-20 -4.235298E-19  3.683762E-20
         9   4 -4.844643E-11 -4.844643E-11  4.152551E-11  2.846031E-19  1.015110E-20 -4.633526E-20
         9   5 -4.844643E-11 -4.844643E-11  4.152551E-11 -1.084202E-18 -1.250756E-19 -5.672515E-19
         9   6 -4.844643E-11 -4.844643E-11  4.152551E-11 -5.421011E-19  1.044968E-20 -4.585016E-19
         9   7 -4.844643E-11 -4.844643E-11  4.152551E-11 -8.673617E-19 -3.957964E-19 -2.962010E-19
         9   8 -4.844643E-11 -4.844643E-11  4.152551E-11  2.226796E-39 -2.331661E-19  1.378095E-19

 displacements (vx,vy,vz) for set NALL and time  0.9378125E-01

         1  0.000000E+00  0.000000E+00  0.000000E+00
         2 -2.679464E-08  0.000000E+00  0.000000E+00
         3 -1.406719E+00  0.000000E+00  0.000000E+00
         4 -1.406719E+00  0.000000E+00  0.000000E+00
         5 -2.813437E+00  0.000000E+00  0.000000E+00
         6 -2.813437E+00  0.000000E+00  0.000000E+00
         7  0.000000E+00 -2.679464E-08  0.000000E+00
         8 -2.679464E-08 -2.679464E-08  0.000000E+00
         9 -1.406719E+00 -2.679464E-08  0.000000E+00
        10 -1.406719E+00 -2.679464E-08  0.000000E+00
        11 -2.813437E+00 -2.679464E-08  0.000000E+00
        12 -2.813437E+00 -2.679464E-08  0.000000E+00
        13  0.000000E+00 -1.406719E+00  0.000000E+00
        14 -2.679464E-08 -1.406719E+00  0.000000E+00
        15 -1.406719E+00 -1.406719E+00  0.000000E+00
        16 -1.406719E+00 -1.406719E+00  0.000000E+00
        17 -2.813437E+00 -1.406719E+00  0.000000E+00
        18 -2.813437E+00 -1.406719E+00  0.000000E+00
        19  0.000000E+00 -1.406719E+00  0.000000E+00
        20 -2.679464E-08 -1.406719E+00  0.000000E+00
        21 -1.406719E+00 -1.406719E+00  0.000000E+00
        22 -1.406719E+00 -1.406719E+00  0.000000E+00
        23 -2.813437E+00 -1.406719E+00  0.000000E+00
        24 -2.813437E+00 -1.406719E+00  0.000000E+00
        25  0.000000E+00 -2.813437E+00  0.000000E+00
        26 -2.679464E-08 -2.813437E+00  0.000000E+00
        27 -1.406719E+00 -2.813437E+00  0.000000E+00
        28 -1.406719E+00 -2.813437E+00  0.000000E+00
        29 -2.813437E+00 -2.813437E+00  0.000000E+00
        30 -2.813437E+00 -2.813437E+00  0.000000E+00
        31  0.000000E+00 -2.813437E+00  0.000000E+00
        32 -2.679464E-08 -2.813437E+00  0.000000E+00
        33 -1.406719E+00 -2.813437E+00  0.000000E+00
        34 -1.406719E+00 -2.813437E+00  0.000000E+00
        35 -2.813437E+00 -2.813437E+00  0.000000E+00
        36 -2.813437E+00 -2.813437E+00  0.000000E+00
        37  0.000000E+00  0.000000E+00  3.215357E-08
        38 -2.679464E-08  0.000000E+00  3.215357E-08
        39 -1.406719E+00  0.000000E+00  3.215357E-08
        40 -1.406719E+00  0.000000E+00  3.215357E-08
        41 -2.813437E+00  0.000000E+00  3.215357E-08
        42 -2.813437E+00  0.000000E+00  3.215357E-08
        43  0.000000E+00 -2.679464E-08  3.215357E-08
        44 -2.679464E-08 -2.679464E-08  3.215357E-08
        45 -1.406719E+00 -2.679464E-08  3.215357E-08
        46 -1.406719E+00 -2.679464E-08  3.215357E-08
        47 -2.813437E+00 -2.679464E-08  3.215357E-08
        48 -2.813437E+00 -2.679464E-08  3.215357E-08
        49  0.000000E+00 -1.406719E+00  3.215357E-08
        50 -2.679464E-08 -1.406719E+00  3.215357E-08
        51 -1.406719E+00 -1.406719E+00  3.215357E-08
        52 -1.406719E+00 -1.406719E+00  3.215357E-08
        53 -2.813437E+00 -1.406719E+00  3.215357E-08
        54 -2.813437E+00 -1.406719E+00  3.215357E-08
        55  0.000000E+00 -1.406719E+00  3.215357E-08
        56 -2.679464E-08 -1.406719E+00  3.215357E-08
        57 -1.406719E+00 -1.406719E+00  3.215357E-08
        58 -1.406719E+00 -1.406719E+00  3.215357E-08
        59 -2.813437E+00 -1.406719E+00  3.215357E-08
        60 -2.813437E+00 -1.406719E+00  3.215357E-08
        61  0.000000E+00 -2.813437E+00  3.215357E-08
        62 -2.679464E-08 -2.813437E+00  3.215357E-08
        63 -1.406719E+00 -2.813437E+00  3.215357E-08
        64 -1.406719E+00 -2.813437E+00  3.215357E-08
        65 -2.813437E+00 -2.813437E+00  3.215357E-08
        66 -2.813437E+00 -2.813437E+00  3.215357E-08
        67  0.000000E+00 -2.813437E+00  3.215357E-08
        68 -2.679464E-08 -2.813437E+00  3.215357E-08
        69 -1.406719E+00 -2.813437E+00  3.215357E-08
        70 -1.406719E+00 -2.813437E+00  3.215357E-08
        71 -2.813437E+00 -2.813437E+00  3.215357E-08
        72 -2.813437E+00 -2.813437E+00  3.215357E-08

 stresses (elem, integ.pnt.,sxx,syy,szz,sxy,sxz,syz) for set EALL and time  0.9378125E-01

         1   1 -1.607679E-05 -1.607679E-05  1.686540E-48 -2.283570E-22 -2.283570E-22  2.609795E-22
         1   2 -1.607679E-05 -1.607679E-05  1.449371E-49 -1.370142E-21 -7.829384E-22  1.631122E-23
         1   3 -1.607679E-05 -1.607679E-05  1.686540E-48  8.808057E-22  3.262243E-22  2.609795E-22
         1   4 -1.607679E-05 -1.607679E-05 -4.927860E-48 -2.609795E-22  1.043918E-21 -5.545814E-22
         1   5 -1.607679E-05 -1.607679E-05 -3.388132E-21  1.304897E-22 -2.283570E-22  5.219589E-22
         1   6 -1.607679E-05 -1.607679E-05 -3.388132E-21  5.219589E-22 -7.829384E-22  3.099131E-22
         1   7 -1.607679E-05 -1.607679E-05 -1.694066E-21 -3.914692E-22  3.262243E-22  5.219589E-22
         1   8 -1.607679E-05 -1.607679E-05 -3.388132E-21 -4.086887E-47  1.304897E-21 -2.609795E-22
         2   1 -1.607679E-05 -1.607679E-05  1.491283E-14 -1.213158E-14  1.975601E-14  1.538111E-16
         2   2 -1.607679E-05 -1.607679E-05  4.434314E-15  5.382458E-15 -3.231158E-15 -1.350826E-16
         2   3 -1.607679E-05 -1.607679E-05  5.312025E-15 -9.388735E-15  1.488571E-14 -8.398587E-16
         2   4 -1.607679E-05 -1.607679E-05 -8.525483E-15  1.031455E-14 -1.576385E-14 -5.744271E-16
         2   5 -1.607679E-05 -1.607679E-05  6.258361E-15  1.288006E-15  1.391890E-14  1.567700E-15
         2   6 -1.607679E-05 -1.607679E-05 -3.056068E-15  1.288006E-15 -6.879014E-15 -6.479138E-17
         2   7 -1.607679E-05 -1.607679E-05 -3.342445E-15  4.806904E-15  7.705005E-15  5.740303E-16
         2   8 -1.607679E-05 -1.607679E-05 -1.601587E-14  9.185413E-15  1.646202E-14 -5.041355E-16
         3   1 -1.607679E-05 -1.607679E-05  2.879627E-14  3.512229E-15 -2.664614E-14 -1.281002E-15
         3   2 -1.607679E-05 -1.607679E-05  4.062772E-14  1.664776E-14  2.589596E-14  2.102780E-15
         3   3 -1.607679E-05 -1.607679E-05 -2.739636E-14  1.310782E-14  3.848409E-14 -6.934558E-16
         3   4 -1.607679E-05 -1.607679E-05  1.060208E-14 -8.784727E-15 -1.405801E-14  1.468199E-15
         3   5 -1.607679E-05 -1.607679E-05  1.032682E-14  2.885967E-15 -1.891390E-14 -5.368312E-15
         3   6 -1.607679E-05 -1.607679E-05  1.959181E-14  2.885967E-15  2.924970E-14  8.482264E-15
         3   7 -1.607679E-05 -1.607679E-05  1.085439E-16  1.077058E-14 -2.213003E-14 -4.780766E-15
         3   8 -1.607679E-05 -1.607679E-05  3.554052E-14 -3.301451E-14 -3.088705E-14  7.847683E-15
         4   1 -1.607679E-05 -1.607679E-05 -1.005016E-14  8.599916E-17  1.434157E-16 -1.329826E-14
         4   2 -1.607679E-05 -1.607679E-05 -1.419441E-14  3.209533E-16  2.192930E-15 -3.041988E-15
         4   3 -1.607679E-05 -1.607679E-05 -1.080921E-14  8.599916E-17  4.117218E-16 -1.627314E-16
         4   4 -1.607679E-05 -1.607679E-05 -1.218981E-14  3.209533E-16  2.088806E-15  2.651295E-14
         4   5 -1.607679E-05 -1.607679E-05 -3.201724E-14 -1.048471E-16 -1.514280E-15 -9.364339E-15
         4   6 -1.607679E-05 -1.607679E-05  2.294839E-14 -3.912943E-16  5.352339E-16 -1.223277E-14
         4   7 -1.607679E-05 -1.607679E-05 -3.355839E-14 -1.048471E-16 -1.405181E-16 -6.073216E-16
         4   8 -1.607679E-05 -1.607679E-05  2.417088E-14 -3.912938E-16  1.536567E-15 -3.475750E-15
         5   1 -1.607679E-05 -1.607679E-05 -4.061210E-14 -3.502807E-14 -3.153496E-15 -2.728338E-14
         5   2 -1.607679E-05 -1.607679E-05 -1.582569E-14 -2.189254E-14 -1.191051E-14  9.413067E-15
         5   3 -1.607679E-05 -1.607679E-05 -2.747230E-14 -3.940658E-14  3.354295E-14 -1.414785E-14
         5   4 -1.607679E-05 -1.607679E-05 -5.731913E-14 -1.751404E-14  2.893391E-15 -3.722459E-15
         5   5 -1.607679E-05 -1.607679E-05 -9.643808E-14 -3.064956E-14 -1.294222E-14 -2.684382E-14
         5   6 -1.607679E-05 -1.607679E-05 -1.582569E-14  1.313553E-14  1.287930E-15 -9.592488E-15
         5   7 -1.607679E-05 -1.607679E-05 -7.769012E-15 -1.751404E-14 -5.542536E-15 -4.951277E-15
         5   8 -1.607679E-05 -1.607679E-05  8.358497E-15  3.064956E-14 -5.542536E-15  1.120543E-14
         6   1 -1.607679E-05 -1.607679E-05  9.496961E-15  2.189254E-14 -3.466165E-14 -1.958367E-14
         6   2 -1.607679E-05 -1.607679E-05  1.856745E-14 -1.751404E-14 -2.809388E-14 -3.265829E-14
         6   3 -1.607679E-05 -1.607679E-05 -2.727522E-14 -8.757018E-15  3.217151E-14  2.308878E-15
         6   4 -1.607679E-05 -1.607679E-05 -4.021809E-14  1.313553E-14  2.341450E-14  2.973546E-14
         6   5 -1.607679E-05 -1.607679E-05  1.606473E-14 -1.928951E-32  4.515260E-14 -1.327569E-14
         6   6 -1.607679E-05 -1.607679E-05 -2.083913E-14  1.117425E-32 -1.614652E-14 -2.858790E-14
         6   7 -1.607679E-05 -1.607679E-05 -7.571926E-15 -1.751404E-14  2.436726E-14  2.613089E-14
         6   8 -1.607679E-05 -1.607679E-05 -2.051480E-14  4.378509E-14  6.853224E-15  5.345544E-15
         7   1 -1.607679E-05 -1.607679E-05  3.962151E-14 -8.000228E-15  1.164283E-15 -2.612582E-14
         7   2 -1.607679E-05 -1.607679E-05  2.155686E-14 -5.932642E-15 -1.564506E-15 -2.896381E-14
         7   3 -1.607679E-05 -1.607679E-05  4.371483E-14  7.567892E-16 -7.369600E-16  7.020137E-14
         7   4 -1.607679E-05 -1.607679E-05  6.266377E-15  2.824376E-15 -9.065178E-16 -2.692755E-15
         7   5 -1.607679E-05 -1.607679E-05  7.620000E-15 -3.295984E-14  7.073951E-15 -2.572904E-14
         7   6 -1.607679E-05 -1.607679E-05  9.258643E-15 -2.730933E-14  4.345163E-15 -1.223875E-14
         7   7 -1.607679E-05 -1.607679E-05 -8.799650E-14  2.068230E-15 -2.580814E-15  5.420100E-16
         7   8 -1.607679E-05 -1.607679E-05 -6.574534E-16  7.718738E-15 -2.750372E-15 -4.507757E-14
         8   1 -1.607679E-05 -1.607679E-05  3.099604E-14  2.189254E-14 -1.897218E-14 -1.807464E-14
         8   2 -1.607679E-05 -1.607679E-05  1.810370E-14  4.159583E-14  2.152903E-14 -2.577004E-14
         8   3 -1.607679E-05 -1.607679E-05  9.026248E-14  2.189254E-14 -4.775041E-15  7.825256E-14
         8   4 -1.607679E-05 -1.607679E-05  5.108059E-14  5.035285E-14  1.273899E-14  5.304311E-14
         8   5 -1.607679E-05 -1.607679E-05  3.427992E-14  1.751404E-14  2.403449E-14 -3.070968E-14
         8   6 -1.607679E-05 -1.607679E-05  4.109087E-14  3.064956E-14  1.637210E-14 -6.887226E-15
         8   7 -1.607679E-05 -1.607679E-05  6.399143E-14  1.751404E-14 -3.533473E-14 -4.438625E-15
         8   8 -1.607679E-05 -1.607679E-05  3.137730E-14 -6.152686E-34 -2.657771E-14  1.869791E-15
         9   1 -1.607679E-05 -1.607679E-05  2.971288E-14  8.757018E-15 -7.430782E-14 -4.454568E-14
         9   2 -1.607679E-05 -1.607679E-05  5.391715E-14  2.627105E-14 -4.251678E-15 -1.784049E-14
         9   3 -1.607679E-05 -1.607679E-05  7.776169E-14 -1.751404E-14 -3.446710E-14 -2.703165E-14
         9   4 -1.607679E-05 -1.607679E-05  6.188991E-14 -8.757018E-15  1.807501E-14 -4.704964E-15
         9   5 -1.607679E-05 -1.607679E-05 -3.125938E-15 -3.502807E-14 -6.199900E-14 -5.185018E-15
         9   6 -1.607679E-05 -1.607678E-05  1.327303E-13 -3.502807E-14 -1.164615E-14  6.365453E-15
         9   7 -1.607679E-05 -1.607679E-05  5.149064E-14  7.735451E-34  2.093574E-15  2.984305E-14
         9   8 -1.607679E-05 -1.607679E-05  9.472872E-14 -4.378509E-14 -1.542046E-14 -2.391564E-15

 strains (elem, integ.pnt.,exx,eyy,ezz,exy,exz,eyz) forset EALL and time  0.9378125E-01

         1   1 -5.358928E-11 -5.358928E-11  4.593367E-11 -1.413639E-27 -1.413639E-27  1.615587E-27
         1   2 -5.358928E-11 -5.358928E-11  4.593367E-11 -8.481832E-27 -4.846761E-27  1.009742E-28
         1   3 -5.358928E-11 -5.358928E-11  4.593367E-11  5.452607E-27  2.019484E-27  1.615587E-27
         1   4 -5.358928E-11 -5.358928E-11  4.593367E-11 -1.615587E-27  6.462349E-27 -3.433123E-27
         1   5 -5.358928E-11 -5.358928E-11  4.593367E-11  8.077936E-28 -1.413639E-27  3.231174E-27
         1   6 -5.358928E-11 -5.358928E-11  4.593367E-11  3.231174E-27 -4.846761E-27  1.918510E-27
         1   7 -5.358928E-11 -5.358928E-11  4.593367E-11 -2.423381E-27  2.019484E-27  3.231174E-27
         1   8 -5.358928E-11 -5.358928E-11  4.593367E-11  6.264292E-53  8.077936E-27 -1.615587E-27
         2   1 -5.358928E-11 -5.358928E-11  4.593367E-11 -7.510024E-20  1.222991E-19  9.521640E-22
         2   2 -5.358928E-11 -5.358928E-11  4.593367E-11  3.331998E-20 -2.000241E-20 -8.362258E-22
         2   3 -5.358928E-11 -5.358928E-11  4.593367E-11 -5.812074E-20  9.214965E-20 -5.199125E-21
         2   4 -5.358928E-11 -5.358928E-11  4.593367E-11  6.385200E-20 -9.758573E-20 -3.555977E-21
         2   5 -5.358928E-11 -5.358928E-11  4.593367E-11  7.973371E-21  8.616463E-20  9.704812E-21
         2   6 -5.358928E-11 -5.358928E-11  4.593367E-11  7.973371E-21 -4.258437E-20 -4.010895E-22
         2   7 -5.358928E-11 -5.358928E-11  4.593367E-11  2.975702E-20  4.769765E-20  3.553521E-21
         2   8 -5.358928E-11 -5.358928E-11  4.593367E-11  5.686208E-20  1.019078E-19 -3.120839E-21
         3   1 -5.358928E-11 -5.358928E-11  4.593367E-11  2.174237E-20 -1.649523E-19 -7.930014E-21
         3   2 -5.358928E-11 -5.358928E-11  4.593367E-11  1.030575E-19  1.603083E-19  1.301721E-20
         3   3 -5.358928E-11 -5.358928E-11  4.593367E-11  8.114363E-20  2.382348E-19 -4.292822E-21
         3   4 -5.358928E-11 -5.358928E-11  4.593367E-11 -5.438164E-20 -8.702581E-20  9.088851E-21
         3   5 -5.358928E-11 -5.358928E-11  4.593367E-11  1.786551E-20 -1.170860E-19 -3.323241E-20
         3   6 -5.358928E-11 -5.358928E-11  4.593367E-11  1.786551E-20  1.810696E-19  5.250925E-20
         3   7 -5.358928E-11 -5.358928E-11  4.593367E-11  6.667500E-20 -1.369954E-19 -2.959522E-20
         3   8 -5.358928E-11 -5.358928E-11  4.593367E-11 -2.043755E-19 -1.912055E-19  4.858089E-20
         4   1 -5.358928E-11 -5.358928E-11  4.593367E-11  5.323757E-22  8.878113E-22 -8.232255E-20
         4   2 -5.358928E-11 -5.358928E-11  4.593367E-11  1.986854E-21  1.357528E-20 -1.883135E-20
         4   3 -5.358928E-11 -5.358928E-11  4.593367E-11  5.323757E-22  2.548754E-21 -1.007385E-21
         4   4 -5.358928E-11 -5.358928E-11  4.593367E-11  1.986854E-21  1.293071E-20  1.641278E-19
         4   5 -5.358928E-11 -5.358928E-11  4.593367E-11 -6.490532E-22 -9.374116E-21 -5.796972E-20
         4   6 -5.358928E-11 -5.358928E-11  4.593367E-11 -2.422298E-21  3.313353E-21 -7.572665E-20
         4   7 -5.358928E-11 -5.358928E-11  4.593367E-11 -6.490532E-22 -8.698737E-22 -3.759610E-21
         4   8 -5.358928E-11 -5.358928E-11  4.593367E-11 -2.422295E-21  9.512081E-21 -2.151654E-20
         5   1 -5.358928E-11 -5.358928E-11  4.593367E-11 -2.168404E-19 -1.952164E-20 -1.688971E-19
         5   2 -5.358928E-11 -5.358928E-11  4.593367E-11 -1.355253E-19 -7.373175E-20  5.827137E-20
         5   3 -5.358928E-11 -5.358928E-11  4.593367E-11 -2.439455E-19  2.076468E-19 -8.758195E-20
         5   4 -5.358928E-11 -5.358928E-11  4.593367E-11 -1.084202E-19  1.791147E-20 -2.304379E-20
         5   5 -5.358928E-11 -5.358928E-11  4.593367E-11 -1.897354E-19 -8.011853E-20 -1.661760E-19
         5   6 -5.358928E-11 -5.358928E-11  4.593367E-11  8.131516E-20  7.972897E-21 -5.938207E-20
         5   7 -5.358928E-11 -5.358928E-11  4.593367E-11 -1.084202E-19 -3.431094E-20 -3.065076E-20
         5   8 -5.358928E-11 -5.358928E-11  4.593367E-11  1.897354E-19 -3.431094E-20  6.936694E-20
         6   1 -5.358928E-11 -5.358928E-11  4.593367E-11  1.355253E-19 -2.145721E-19 -1.212322E-19
         6   2 -5.358928E-11 -5.358928E-11  4.593367E-11 -1.084202E-19 -1.739145E-19 -2.021704E-19
         6   3 -5.358928E-11 -5.358928E-11  4.593367E-11 -5.421011E-20  1.991570E-19  1.429305E-20
         6   4 -5.358928E-11 -5.358928E-11  4.593367E-11  8.131516E-20  1.449469E-19  1.840767E-19
         6   5 -5.358928E-11 -5.358928E-11  4.593367E-11  9.031453E-40  2.795161E-19 -8.218287E-20
         6   6 -5.358928E-11 -5.358928E-11  4.593367E-11 -3.575617E-40 -9.995467E-20 -1.769727E-19
         6   7 -5.358928E-11 -5.358928E-11  4.593367E-11 -1.084202E-19  1.508449E-19  1.617626E-19
         6   8 -5.358928E-11 -5.358928E-11  4.593367E-11  2.710505E-19  4.242472E-20  3.309146E-20
         7   1 -5.358928E-11 -5.358928E-11  4.593367E-11 -4.952522E-20  7.207465E-21 -1.617313E-19
         7   2 -5.358928E-11 -5.358928E-11  4.593367E-11 -3.672588E-20 -9.685036E-21 -1.792998E-19
         7   3 -5.358928E-11 -5.358928E-11  4.593367E-11  4.684885E-21 -4.562133E-21  4.345799E-19
         7   4 -5.358928E-11 -5.358928E-11  4.593367E-11  1.748423E-20 -5.611777E-21 -1.666944E-20
         7   5 -5.358928E-11 -5.358928E-11  4.593367E-11 -2.040371E-19  4.379112E-20 -1.592750E-19
         7   6 -5.358928E-11 -5.358928E-11  4.593367E-11 -1.690578E-19  2.689863E-20 -7.576371E-20
         7   7 -5.358928E-11 -5.358928E-11  4.593367E-11  1.280333E-20 -1.597647E-20  3.355300E-21
         7   8 -5.358928E-11 -5.358928E-11  4.593367E-11  4.778267E-20 -1.702611E-20 -2.790516E-19
         8   1 -5.358928E-11 -5.358928E-11  4.593367E-11  1.355253E-19 -1.174468E-19 -1.118906E-19
         8   2 -5.358928E-11 -5.358928E-11  4.593367E-11  2.574980E-19  1.332749E-19 -1.595288E-19
         8   3 -5.358928E-11 -5.358928E-11  4.593367E-11  1.355253E-19 -2.955977E-20  4.844206E-19
         8   4 -5.358928E-11 -5.358928E-11  4.593367E-11  3.117081E-19  7.886044E-20  3.283621E-19
         8   5 -5.358928E-11 -5.358928E-11  4.593367E-11  1.084202E-19  1.487849E-19 -1.901075E-19
         8   6 -5.358928E-11 -5.358928E-11  4.593367E-11  1.897354E-19  1.013511E-19 -4.263521E-20
         8   7 -5.358928E-11 -5.358928E-11  4.593367E-11  1.084202E-19 -2.187388E-19 -2.747720E-20
         8   8 -5.358928E-11 -5.358928E-11  4.593367E-11 -2.553853E-39 -1.645287E-19  1.157490E-20
         9   1 -5.358928E-11 -5.358928E-11  4.593367E-11  5.421011E-20 -4.600008E-19 -2.757590E-19
         9   2 -5.358928E-11 -5.358928E-11  4.593367E-11  1.626303E-19 -2.631991E-20 -1.104411E-19
         9   3 -5.358928E-11 -5.358928E-11  4.593367E-11 -1.084202E-19 -2.133678E-19 -1.673388E-19
         9   4 -5.358928E-11 -5.358928E-11  4.593367E-11 -5.421011E-20  1.118929E-19 -2.912597E-20
         9   5 -5.358928E-11 -5.358928E-11  4.593367E-11 -2.168404E-19 -3.838033E-19 -3.209773E-20
         9   6 -5.358928E-11 -5.358928E-11  4.593367E-11 -2.168404E-19 -7.209523E-20  3.940519E-20
         9   7 -5.358928E-11 -5.358928E-11  4.593367E-11  4.788612E-39  1.296022E-20  1.847427E-19
         9   8 -5.358928E-11 -5.358928E-11  4.593367E-11 -2.710505E-19 -9.546000E-20 -1.480492E-20

 displacements (vx,vy,vz) for set NALL and time  0.1027812E+00

         1  0.000000E+00  0.000000E+00  0.000000E+00
         2 -2.936607E-08  0.000000E+00  0.000000E+00
         3 -1.541719E+00  0.000000E+00  0.000000E+00
         4 -1.541719E+00  0.000000E+00  0.000000E+00
         5 -3.083437E+00  0.000000E+00  0.000000E+00
         6 -3.083437E+00  0.000000E+00  0.000000E+00
         7  0.000000E+00 -2.936607E-08  0.000000E+00
         8 -2.936607E-08 -2.936607E-08  0.000000E+00
         9 -1.541719E+00 -2.936607E-08  0.000000E+00
        10 -1.541719E+00 -2.936607E-08  0.000000E+00
        11 -3.083437E+00 -2.936607E-08  0.000000E+00
        12 -3.083437E+00 -2.936607E-08  0.000000E+00
        13  0.000000E+00 -1.541719E+00  0.000000E+00
        14 -2.936607E-08 -1.541719E+00  0.000000E+00
        15 -1.541719E+00 -1.541719E+00  0.000000E+00
        16 -1.541719E+00 -1.541719E+00  0.000000E+00
        17 -3.083437E+00 -1.541719E+00  0.000000E+00
        18 -3.083437E+00 -1.541719E+00  0.000000E+00
        19  0.000000E+00 -1.541719E+00  0.000000E+00
        20 -2.936607E-08 -1.541719E+00  0.000000E+00
        21 -1.541719E+00 -1.541719E+00  0.000000E+00
        22 -1.541719E+00 -1.541719E+00  0.000000E+00
        23 -3.083437E+00 -1.541719E+00  0.000000E+00
        24 -3.083437E+00 -1.541719E+00  0.000000E+00
        25  0.000000E+00 -3.083437E+00  0.000000E+00
        26 -2.936607E-08 -3.083437E+00  0.000000E+00
        27 -1.541719E+00 -3.083437E+00  0.000000E+00
        28 -1.541719E+00 -3.083437E+00  0.000000E+00
        29 -3.083437E+00 -3.083437E+00  0.000000E+00
        30 -3.083437E+00 -3.083437E+00  0.000000E+00
        31  0.000000E+00 -3.083437E+00  0.000000E+00
        32 -2.936607E-08 -3.083437E+00  0.000000E+00
        33 -1.541719E+00 -3.083437E+00  0.000000E+00
        34 -1.541719E+00 -3.083437E+00  0.000000E+00
        35 -3.083437E+00 -3.083437E+00  0.000000E+00
        36 -3.083437E+00 -3.083437E+00  0.000000E+00
        37  0.000000E+00  0.000000E+00  3.523928E-08
        38 -2.936607E-08  0.000000E+00  3.523928E-08
        39 -1.541719E+00  0.000000E+00  3.523928E-08
        40 -1.541719E+00  0.000000E+00  3.523928E-08
        41 -3.083437E+00  0.000000E+00  3.523928E-08
        42 -3.083437E+00  0.000000E+00  3.523928E-08
        43  0.000000E+00 -2.936607E-08  3.523928E-08
        44 -2.936607E-08 -2.936607E-08  3.523928E-08
        45 -1.541719E+00 -2.936607E-08  3.523928E-08
        46 -1.541719E+00 -2.936607E-08  3.523928E-08
        47 -3.083437E+00 -2.936607E-08  3.523928E-08
        48 -3.083437E+00 -2.936607E-08  3.523928E-08
        49  0.000000E+00 -1.541719E+00  3.523928E-08
        50 -2.936607E-08 -1.541719E+00  3.523928E-08
        51 -1.541719E+00 -1.541719E+00  3.523928E-08
        52 -1.541719E+00 -1.541719E+00  3.523928E-08
        53 -3.083437E+00 -1.541719E+00  3.523928E-08
        54 -3.083437E+00 -1.541719E+00  3.523928E-08
        55  0.000000E+00 -1.541719E+00  3.523928E-08
        56 -2.936607E-08 -1.541719E+00  3.523928E-08
        57 -1.541719E+00 -1.541719E+00  3.523928E-08
        58 -1.541719E+00 -1.541719E+00  3.523928E-08
        59 -3.083437E+00 -1.541719E+00  3.523928E-08
        60 -3.083437E+00 -1.541719E+00  3.523928E-08
        61  0.000000E+00 -3.083437E+00  3.523928E-08
        62 -2.936607E-08 -3.083437E+00  3.523928E-08
        63 -1.541719E+00 -3.083437E+00  3.523928E-08
        64 -1.541719E+00 -3.083437E+00  3.523928E-08
        65 -3.083437E+00 -3.083437E+00  3.523928E-08
        66 -3.083437E+00 -3.083437E+00  3.523928E-08
        67  0.000000E+00 -3.083437E+00  3.523928E-08
        68 -2.936607E-08 -3.083437E+00  3.523928E-08
        69 -1.541719E+00 -3.083437E+00  3.523928E-08
        70 -1.541719E+00 -3.083437E+00  3.523928E-08
        71 -3.083437E+00 -3.083437E+00  3.523928E-08
        72 -3.083437E+00 -3.083437E+00  3.523928E-08

 stresses (elem, integ.pnt.,sxx,syy,szz,sxy,sxz,syz) for set EALL and time  0.1027812E+00

         1   1 -1.761964E-05 -1.761964E-05  1.694066E-21  2.936019E-22  1.304897E-22  4.567141E-22
         1   2 -1.761964E-05 -1.761964E-05  1.694066E-21  9.134281E-22  4.893365E-22  3.914692E-22
         1   3 -1.761964E-05 -1.761964E-05  6.113708E-48  4.240916E-22 -3.262243E-22  7.829384E-22
         1   4 -1.761964E-05 -1.761964E-05  3.162263E-48  1.043918E-21 -3.914692E-22  1.174408E-21
         1   5 -1.761964E-05 -1.761964E-05  1.694066E-21  1.577989E-45  3.262243E-23  7.176935E-22
         1   6 -1.761964E-05 -1.761964E-05  1.694066E-21 -6.524487E-22  3.914692E-22  1.957346E-22
         1   7 -1.761964E-05 -1.761964E-05  3.879043E-47  1.174408E-21 -1.109163E-21  7.829384E-22
         1   8 -1.761964E-05 -1.761964E-05  2.382238E-47  5.219589E-22 -1.043918E-21  9.786730E-22
         2   1 -1.761964E-05 -1.761964E-05 -2.882028E-15  1.714778E-14  2.243392E-14  8.337196E-16
         2   2 -1.761964E-05 -1.761964E-05 -6.852971E-16  1.714778E-14 -6.026388E-15 -4.550572E-16
         2   3 -1.761964E-05 -1.761964E-05 -2.129970E-14  1.614717E-14  1.517463E-14 -1.343424E-15
         2   4 -1.761964E-05 -1.761964E-05 -3.877908E-14  1.833642E-14  1.079612E-14  1.717243E-15
         2   5 -1.761964E-05 -1.761964E-05 -2.387344E-14  1.862559E-15  2.391298E-14  5.288629E-15
         2   6 -1.761964E-05 -1.761964E-05 -1.254287E-14  1.937659E-14  3.157537E-14 -3.870596E-15
         2   7 -1.761964E-05 -1.761964E-05 -3.900722E-14 -2.807691E-14  8.783242E-15  3.111485E-15
         2   8 -1.761964E-05 -1.761964E-05 -4.735277E-14  2.446520E-14 -4.375886E-14 -1.698296E-15
         3   1 -1.761964E-05 -1.761964E-05 -8.718864E-15  2.716852E-14  4.364517E-14 -4.138370E-15
         3   2 -1.761964E-05 -1.761964E-05 -4.188355E-14 -7.859554E-15 -4.173575E-14  4.948334E-15
         3   3 -1.761964E-05 -1.761964E-05  1.840394E-14  5.695814E-15 -3.343689E-14 -1.315820E-14
         3   4 -1.761964E-05 -1.761964E-05 -2.937171E-15  6.699494E-14  1.591177E-15  1.602441E-14
         3   5 -1.761964E-05 -1.761964E-05  8.399146E-14  2.438304E-15 -2.679322E-14 -6.424776E-15
         3   6 -1.761964E-05 -1.761964E-05  9.302819E-14 -6.761784E-14  6.045597E-15  7.391359E-15
         3   7 -1.761964E-05 -1.761964E-05 -5.307982E-14  9.099877E-15 -9.914586E-14 -1.544461E-14
         3   8 -1.761964E-05 -1.761964E-05 -3.221952E-14  6.164198E-14  5.848046E-14  1.846744E-14
         4   1 -1.761964E-05 -1.761964E-05 -1.386815E-14 -7.381413E-15 -3.895004E-16  1.573400E-14
         4   2 -1.761964E-05 -1.761964E-05 -7.880530E-15 -3.623192E-15  1.405527E-15 -1.750057E-14
         4   3 -1.761964E-05 -1.761964E-05 -2.038868E-14  1.375605E-15  3.571871E-16  3.324804E-14
         4   4 -1.761964E-05 -1.761964E-05 -9.627666E-15  5.133826E-15  2.282846E-15  2.081138E-14
         4   5 -1.761964E-05 -1.761964E-05 -3.636965E-14 -3.358553E-14 -3.248663E-15 -6.643178E-15
         4   6 -1.761964E-05 -1.761964E-05  2.216008E-14 -2.964442E-14 -1.453635E-15 -3.030600E-14
         4   7 -1.761964E-05 -1.761964E-05 -4.261585E-14  1.442545E-15 -5.926200E-16 -6.643178E-15
         4   8 -1.761964E-05 -1.761964E-05  2.068727E-14  5.383651E-15  1.333039E-15 -1.279197E-14
         5   1 -1.761964E-05 -1.761964E-05 -1.892646E-14 -2.846031E-14 -3.160068E-14 -1.563795E-14
         5   2 -1.761964E-05 -1.761964E-05 -4.840990E-14 -9.587868E-31  5.616644E-15 -1.625614E-14
         5   3 -1.761964E-05 -1.761964E-05  1.687461E-14 -5.254211E-14  3.236414E-14  1.939012E-14
         5   4 -1.761964E-05 -1.761964E-05 -7.888155E-15 -1.313553E-14  6.093084E-15 -4.215237E-15
         5   5 -1.761964E-05 -1.761964E-05  3.033176E-14 -2.627105E-14 -7.928134E-15 -3.678344E-14
         5   6 -1.761964E-05 -1.761964E-05  5.010655E-14  2.627105E-14  1.615366E-14 -1.909395E-14
         5   7 -1.761964E-05 -1.761964E-05  1.350943E-13 -3.502807E-14 -2.745597E-14  2.451568E-14
         5   8 -1.761964E-05 -1.761964E-05  1.037638E-13 -8.757018E-15 -1.184916E-15 -8.147679E-15
         6   1 -1.761964E-05 -1.761964E-05 -6.846880E-14  4.816360E-14  6.418896E-14  5.186430E-15
         6   2 -1.761964E-05 -1.761964E-05 -6.585195E-14  4.378509E-14 -1.065729E-13 -2.057485E-14
         6   3 -1.761964E-05 -1.761964E-05 -3.840724E-15  4.378509E-14 -8.088668E-14 -1.670611E-14
         6   4 -1.761964E-05 -1.761964E-05 -2.527261E-14 -1.751404E-14 -1.083054E-14  1.773711E-14
         6   5 -1.761964E-05 -1.761964E-05 -9.358928E-15 -2.627105E-14  7.443056E-14 -2.763436E-14
         6   6 -1.761964E-05 -1.761964E-05 -1.002596E-14  6.129912E-14 -3.941066E-14 -2.535995E-14
         6   7 -1.761964E-05 -1.761964E-05 -3.011178E-14 -1.751404E-14 -5.392068E-15 -1.449883E-14
         6   8 -1.761964E-05 -1.761964E-05 -5.154366E-14  1.751404E-14  2.963600E-14  6.384238E-15
         7   1 -1.761964E-05 -1.761964E-05 -1.084451E-14 -1.707316E-14  8.256698E-16 -9.416483E-14
         7   2 -1.761964E-05 -1.761964E-05 -4.127699E-14 -1.586865E-14  7.373118E-15 -1.073972E-13
         7   3 -1.761964E-05 -1.761964E-05  6.554298E-14  4.408786E-16  4.698836E-15 -2.410869E-14
         7   4 -1.761964E-05 -1.761964E-05  4.940203E-14  1.645381E-15  1.611136E-14 -2.201627E-14
         7   5 -1.761964E-05 -1.761964E-05 -2.336593E-14 -3.209415E-14 -3.466007E-15 -1.081176E-13
         7   6 -1.761964E-05 -1.761964E-05 -6.036617E-14 -2.407855E-14  3.081442E-15 -8.498380E-14
         7   7 -1.761964E-05 -1.761964E-05  6.323822E-14 -3.209415E-14  6.123772E-15  7.577974E-14
         7   8 -1.761964E-05 -1.761964E-05  4.052951E-14 -2.407855E-14  1.753630E-14  1.353264E-14
         8   1 -1.761964E-05 -1.761964E-05  2.029748E-14 -2.627105E-14 -1.081117E-14 -9.263941E-14
         8   2 -1.761964E-05 -1.761964E-05  1.283512E-14 -2.627105E-14  1.229730E-15 -3.729039E-14
         8   3 -1.761964E-05 -1.761964E-05  1.315681E-13 -8.757018E-15 -1.895053E-14  4.747287E-14
         8   4 -1.761964E-05 -1.761964E-05  1.086211E-13  2.189254E-15 -1.436498E-15  3.933351E-14
         8   5 -1.761964E-05 -1.761964E-05  7.161952E-15 -1.751404E-14 -1.642322E-14 -1.024247E-13
         8   6 -1.761964E-05 -1.761964E-05 -3.313922E-14 -1.751404E-14  4.374700E-15 -5.414520E-14
         8   7 -1.761964E-05 -1.761964E-05  6.589049E-14 -1.751404E-14  2.966699E-14  8.147271E-14
         8   8 -1.761964E-05 -1.761964E-05  5.607903E-14 -8.757018E-15  2.090997E-14 -2.130638E-14
         9   1 -1.761964E-05 -1.761964E-05 -1.498462E-13 -1.751404E-14  6.457934E-15 -9.702506E-14
         9   2 -1.761964E-05 -1.761964E-05  3.875312E-14 -2.189254E-14 -3.513790E-14  1.810810E-14
         9   3 -1.761964E-05 -1.761964E-05 -3.569126E-14  5.254211E-14 -7.544181E-14 -2.696892E-14
         9   4 -1.761964E-05 -1.761964E-05  5.887922E-14 -8.757018E-15  3.371352E-15  5.751468E-14
         9   5 -1.761964E-05 -1.761964E-05 -3.819420E-14 -4.802520E-32  2.410134E-14 -1.100351E-13
         9   6 -1.761964E-05 -1.761964E-05 -9.916990E-14  2.290742E-32  3.285835E-14 -4.696256E-14
         9   7 -1.761964E-05 -1.761964E-05 -9.420209E-15 -3.502807E-14 -5.512765E-14 -4.950899E-15
         9   8 -1.761964E-05 -1.761964E-05 -4.620499E-14  1.751404E-14  5.871358E-14  4.717538E-14

 strains (elem, integ.pnt.,exx,eyy,ezz,exy,exz,eyz) forset EALL and time  0.1027812E+00

         1   1 -5.873214E-11 -5.873214E-11  5.034184E-11  1.817536E-27  8.077936E-28  2.827277E-27
         1   2 -5.873214E-11 -5.873214E-11  5.034184E-11  5.654555E-27  3.029226E-27  2.423381E-27
         1   3 -5.873214E-11 -5.873214E-11  5.034184E-11  2.625329E-27 -2.019484E-27  4.846761E-27
         1   4 -5.873214E-11 -5.873214E-11  5.034184E-11  6.462349E-27 -2.423381E-27  7.270142E-27
         1   5 -5.873214E-11 -5.873214E-11  5.034184E-11 -9.777516E-51  2.019484E-28  4.442865E-27
         1   6 -5.873214E-11 -5.873214E-11  5.034184E-11 -4.038968E-27  2.423381E-27  1.211690E-27
         1   7 -5.873214E-11 -5.873214E-11  5.034184E-11  7.270142E-27 -6.866245E-27  4.846761E-27
         1   8 -5.873214E-11 -5.873214E-11  5.034184E-11  3.231174E-27 -6.462349E-27  6.058452E-27
         2   1 -5.873214E-11 -5.873214E-11  5.034184E-11  1.061530E-19  1.388766E-19  5.161122E-21
         2   2 -5.873214E-11 -5.873214E-11  5.034184E-11  1.061530E-19 -3.730621E-20 -2.817021E-21
         2   3 -5.873214E-11 -5.873214E-11  5.034184E-11  9.995866E-20  9.393816E-20 -8.316435E-21
         2   4 -5.873214E-11 -5.873214E-11  5.034184E-11  1.135112E-19  6.683311E-20  1.063055E-20
         2   5 -5.873214E-11 -5.873214E-11  5.034184E-11  1.153013E-20  1.480327E-19  3.273913E-20
         2   6 -5.873214E-11 -5.873214E-11  5.034184E-11  1.199503E-19  1.954666E-19 -2.396083E-20
         2   7 -5.873214E-11 -5.873214E-11  5.034184E-11 -1.738094E-19  5.437245E-20  1.926157E-20
         2   8 -5.873214E-11 -5.873214E-11  5.034184E-11  1.514512E-19 -2.708882E-19 -1.051326E-20
         3   1 -5.873214E-11 -5.873214E-11  5.034184E-11  1.681861E-19  2.701844E-19 -2.561848E-20
         3   2 -5.873214E-11 -5.873214E-11  5.034184E-11 -4.865438E-20 -2.583642E-19  3.063255E-20
         3   3 -5.873214E-11 -5.873214E-11  5.034184E-11  3.525980E-20 -2.069903E-19 -8.145555E-20
         3   4 -5.873214E-11 -5.873214E-11  5.034184E-11  4.147306E-19  9.850144E-21  9.919873E-20
         3   5 -5.873214E-11 -5.873214E-11  5.034184E-11  1.509427E-20 -1.658628E-19 -3.977242E-20
         3   6 -5.873214E-11 -5.873214E-11  5.034184E-11 -4.185866E-19  3.742512E-20  4.575603E-20
         3   7 -5.873214E-11 -5.873214E-11  5.034184E-11  5.633257E-20 -6.137601E-19 -9.560948E-20
         3   8 -5.873214E-11 -5.873214E-11  5.034184E-11  3.815932E-19  3.620219E-19  1.143222E-19
         4   1 -5.873214E-11 -5.873214E-11  5.034184E-11 -4.569446E-20 -2.411193E-21  9.740096E-20
         4   2 -5.873214E-11 -5.873214E-11  5.034184E-11 -2.242928E-20  8.700882E-21 -1.083369E-19
         4   3 -5.873214E-11 -5.873214E-11  5.034184E-11  8.515647E-21  2.211158E-21  2.058212E-19
         4   4 -5.873214E-11 -5.873214E-11  5.034184E-11  3.178083E-20  1.413191E-20  1.288324E-19
         4   5 -5.873214E-11 -5.873214E-11  5.034184E-11 -2.079104E-19 -2.011077E-20 -4.112443E-20
         4   6 -5.873214E-11 -5.873214E-11  5.034184E-11 -1.835131E-19 -8.998694E-21 -1.876086E-19
         4   7 -5.873214E-11 -5.873214E-11  5.034184E-11  8.930040E-21 -3.668600E-21 -4.112443E-20
         4   8 -5.873214E-11 -5.873214E-11  5.034184E-11  3.332736E-20  8.252146E-21 -7.918837E-20
         5   1 -5.873214E-11 -5.873214E-11  5.034184E-11 -1.761829E-19 -1.956233E-19 -9.680635E-20
         5   2 -5.873214E-11 -5.873214E-11  5.034184E-11  5.920072E-36  3.476970E-20 -1.006332E-19
         5   3 -5.873214E-11 -5.873214E-11  5.034184E-11 -3.252607E-19  2.003494E-19  1.200341E-19
         5   4 -5.873214E-11 -5.873214E-11  5.034184E-11 -8.131516E-20  3.771909E-20 -2.609432E-20
         5   5 -5.873214E-11 -5.873214E-11  5.034184E-11 -1.626303E-19 -4.907893E-20 -2.277070E-19
         5   6 -5.873214E-11 -5.873214E-11  5.034184E-11  1.626303E-19  9.999887E-20 -1.182006E-19
         5   7 -5.873214E-11 -5.873214E-11  5.034184E-11 -2.168404E-19 -1.699655E-19  1.517637E-19
         5   8 -5.873214E-11 -5.873214E-11  5.034184E-11 -5.421011E-20 -7.335195E-21 -5.043801E-20
         6   1 -5.873214E-11 -5.873214E-11  5.034184E-11  2.981556E-19  3.973602E-19  3.210647E-20
         6   2 -5.873214E-11 -5.873214E-11  5.034184E-11  2.710505E-19 -6.597369E-19 -1.273681E-19
         6   3 -5.873214E-11 -5.873214E-11  5.034184E-11  2.710505E-19 -5.007271E-19 -1.034188E-19
         6   4 -5.873214E-11 -5.873214E-11  5.034184E-11 -1.084202E-19 -6.704622E-20  1.098011E-19
         6   5 -5.873214E-11 -5.873214E-11  5.034184E-11 -1.626303E-19  4.607606E-19 -1.710698E-19
         6   6 -5.873214E-11 -5.873214E-11  5.034184E-11  3.794708E-19 -2.439708E-19 -1.569902E-19
         6   7 -5.873214E-11 -5.873214E-11  5.034184E-11 -1.084202E-19 -3.337947E-20 -8.975466E-20
         6   8 -5.873214E-11 -5.873214E-11  5.034184E-11  1.084202E-19  1.834610E-19  3.952147E-20
         7   1 -5.873214E-11 -5.873214E-11  5.034184E-11 -1.056910E-19  5.111289E-21 -5.829252E-19
         7   2 -5.873214E-11 -5.873214E-11  5.034184E-11 -9.823452E-20  4.564311E-20 -6.648397E-19
         7   3 -5.873214E-11 -5.873214E-11  5.034184E-11  2.729249E-21  2.908803E-20 -1.492443E-19
         7   4 -5.873214E-11 -5.873214E-11  5.034184E-11  1.018569E-20  9.973698E-20 -1.362912E-19
         7   5 -5.873214E-11 -5.873214E-11  5.034184E-11 -1.986781E-19 -2.145623E-20 -6.692996E-19
         7   6 -5.873214E-11 -5.873214E-11  5.034184E-11 -1.490577E-19  1.907559E-20 -5.260902E-19
         7   7 -5.873214E-11 -5.873214E-11  5.034184E-11 -1.986781E-19  3.790907E-20  4.691127E-19
         7   8 -5.873214E-11 -5.873214E-11  5.034184E-11 -1.490577E-19  1.085580E-19  8.377350E-20
         8   1 -5.873214E-11 -5.873214E-11  5.034184E-11 -1.626303E-19 -6.692629E-20 -5.734820E-19
         8   2 -5.873214E-11 -5.873214E-11  5.034184E-11 -1.626303E-19  7.612612E-21 -2.308453E-19
         8   3 -5.873214E-11 -5.873214E-11  5.034184E-11 -5.421011E-20 -1.173128E-19  2.938797E-19
         8   4 -5.873214E-11 -5.873214E-11  5.034184E-11  1.355253E-20 -8.892605E-21  2.434932E-19
         8   5 -5.873214E-11 -5.873214E-11  5.034184E-11 -1.084202E-19 -1.016675E-19 -6.340574E-19
         8   6 -5.873214E-11 -5.873214E-11  5.034184E-11 -1.084202E-19  2.708147E-20 -3.351846E-19
         8   7 -5.873214E-11 -5.873214E-11  5.034184E-11 -1.084202E-19  1.836528E-19  5.043549E-19
         8   8 -5.873214E-11 -5.873214E-11  5.034184E-11 -5.421011E-20  1.294427E-19 -1.318966E-19
         9   1 -5.873214E-11 -5.873214E-11  5.034184E-11 -1.084202E-19  3.997768E-20 -6.006313E-19
         9   2 -5.873214E-11 -5.873214E-11  5.034184E-11 -1.355253E-19 -2.175203E-19  1.120978E-19
         9   3 -5.873214E-11 -5.873214E-11  5.034184E-11  3.252607E-19 -4.670207E-19 -1.669504E-19
         9   4 -5.873214E-11 -5.873214E-11  5.034184E-11 -5.421011E-20  2.087027E-20  3.560432E-19
         9   5 -5.873214E-11 -5.873214E-11  5.034184E-11  1.495988E-37  1.491987E-19 -6.811697E-19
         9   6 -5.873214E-11 -5.873214E-11  5.034184E-11 -3.082083E-37  2.034089E-19 -2.907206E-19
         9   7 -5.873214E-11 -5.873214E-11  5.034184E-11 -2.168404E-19 -3.412664E-19 -3.064842E-20
         9   8 -5.873214E-11 -5.873214E-11  5.034184E-11  1.084202E-19  3.634650E-19  2.920381E-19

 displacements (vx,vy,vz) for set NALL and time  0.1117812E+00

         1  0.000000E+00  0.000000E+00  0.000000E+00
         2 -3.193750E-08  0.000000E+00  0.000000E+00
         3 -1.676719E+00  0.000000E+00  0.000000E+00
         4 -1.676719E+00  0.000000E+00  0.000000E+00
         5 -3.353437E+00  0.000000E+00  0.000000E+00
         6 -3.353437E+00  0.000000E+00  0.000000E+00
         7  0.000000E+00 -3.193750E-08  0.000000E+00
         8 -3.193750E-08 -3.193750E-08  0.000000E+00
         9 -1.676719E+00 -3.193750E-08  0.000000E+00
        10 -1.676719E+00 -3.193750E-08  0.000000E+00
        11 -3.353437E+00 -3.193750E-08  0.000000E+00
        12 -3.353437E+00 -3.193750E-08  0.000000E+00
        13  0.000000E+00 -1.676719E+00  0.000000E+00
        14 -3.193750E-08 -1.676719E+00  0.000000E+00
        15 -1.676719E+00 -1.676719E+00  0.000000E+00
        16 -1.676719E+00 -1.676719E+00  0.000000E+00
        17 -3.353437E+00 -1.676719E+00  0.000000E+00
        18 -3.353437E+00 -1.676719E+00  0.000000E+00
        19  0.000000E+00 -1.676719E+00  0.000000E+00
        20 -3.193750E-08 -1.676719E+00  0.000000E+00
        21 -1.676719E+00 -1.676719E+00  0.000000E+00
        22 -1.676719E+00 -1.676719E+00  0.000000E+00
        23 -3.353437E+00 -1.676719E+00  0.000000E+00
        24 -3.353437E+00 -1.676719E+00  0.000000E+00
        25  0.000000E+00 -3.353437E+00  0.000000E+00
        26 -3.193750E-08 -3.353437E+00  0.000000E+00
        27 -1.676719E+00 -3.353437E+00  0.000000E+00
        28 -1.676719E+00 -3.353437E+00  0.000000E+00
        29 -3.353437E+00 -3.353437E+00  0.000000E+00
        30 -3.353437E+00 -3.353437E+00  0.000000E+00
        31  0.000000E+00 -3.353437E+00  0.000000E+00
        32 -3.193750E-08 -3.353437E+00  0.000000E+00
        33 -1.676719E+00 -3.353437E+00  0.000000E+00
        34 -1.676719E+00 -3.353437E+00  0.000000E+00
        35 -3.353437E+00 -3.353437E+00  0.000000E+00
        36 -3.353437E+00 -3.353437E+00  0.000000E+00
        37  0.000000E+00  0.000000E+00  3.832500E-08
        38 -3.193750E-08  0.000000E+00  3.832500E-08
        39 -1.676719E+00  0.000000E+00  3.832500E-08
        40 -1.676719E+00  0.000000E+00  3.832500E-08
        41 -3.353437E+00  0.000000E+00  3.832500E-08
        42 -3.353437E+00  0.000000E+00  3.832500E-08
        43  0.000000E+00 -3.193750E-08  3.832500E-08
        44 -3.193750E-08 -3.193750E-08  3.832500E-08
        45 -1.676719E+00 -3.193750E-08  3.832500E-08
        46 -1.676719E+00 -3.193750E-08  3.832500E-08
        47 -3.353437E+00 -3.193750E-08  3.832500E-08
        48 -3.353437E+00 -3.193750E-08  3.832500E-08
        49  0.000000E+00 -1.676719E+00  3.832500E-08
        50 -3.193750E-08 -1.676719E+00  3.832500E-08
        51 -1.676719E+00 -1.676719E+00  3.832500E-08
        52 -1.676719E+00 -1.676719E+00  3.832500E-08
        53 -3.353437E+00 -1.676719E+00  3.832500E-08
        54 -3.353437E+00 -1.676719E+00  3.832500E-08
        55  0.000000E+00 -1.676719E+00  3.832500E-08
        56 -3.193750E-08 -1.676719E+00  3.832500E-08
        57 -1.676719E+00 -1.676719E+00  3.832500E-08
        58 -1.676719E+00 -1.676719E+00  3.832500E-08
        59 -3.353437E+00 -1.676719E+00  3.832500E-08
        60 -3.353437E+00 -1.676719E+00  3.832500E-08
        61  0.000000E+00 -3.353437E+00  3.832500E-08
        62 -3.193750E-08 -3.353437E+00  3.832500E-08
        63 -1.676719E+00 -3.353437E+00  3.832500E-08
        64 -1.676719E+00 -3.353437E+00  3.832500E-08
        65 -3.353437E+00 -3.353437E+00  3.832500E-08
        66 -3.353437E+00 -3.353437E+00  3.832500E-08
        67  0.000000E+00 -3.353437E+00  3.832500E-08
        68 -3.193750E-08 -3.353437E+00  3.832500E-08
        69 -1.676719E+00 -3.353437E+00  3.832500E-08
        70 -1.676719E+00 -3.353437E+00  3.832500E-08
        71 -3.353437E+00 -3.353437E+00  3.832500E-08
        72 -3.353437E+00 -3.353437E+00  3.832500E-08

 stresses (elem, integ.pnt.,sxx,syy,szz,sxy,sxz,syz) for set EALL and time  0.1117812E+00

         1   1 -1.916250E-05 -1.916250E-05 -6.776264E-21  7.503159E-22  6.524487E-23  2.609795E-22
         1   2 -1.916250E-05 -1.916250E-05 -4.400816E-48  1.043918E-21  5.545814E-22  1.631122E-22
         1   3 -1.916250E-05 -1.916250E-05 -3.388132E-21  2.707662E-21  2.609795E-22  2.609795E-22
         1   4 -1.916250E-05 -1.916250E-05 -1.602213E-47  3.001264E-21  1.696366E-21  1.304897E-22
         1   5 -1.916250E-05 -1.916250E-05  1.106792E-47  9.134281E-22 -4.893365E-22 -1.291257E-47
         1   6 -1.916250E-05 -1.916250E-05  7.167796E-48  1.696366E-21  1.083554E-31  5.545814E-22
         1   7 -1.916250E-05 -1.916250E-05  1.011924E-47  2.870774E-21 -3.914692E-22  2.609795E-22
         1   8 -1.916250E-05 -1.916250E-05  3.388132E-21  3.653712E-21  1.304897E-21  5.219589E-22
         2   1 -1.916250E-05 -1.916250E-05 -3.916970E-14 -1.708434E-15  7.390071E-15  5.818281E-16
         2   2 -1.916250E-05 -1.916250E-05 -2.560164E-14  3.331964E-14 -3.420576E-14 -4.114904E-16
         2   3 -1.916250E-05 -1.916250E-05 -1.573479E-14 -6.375961E-15  3.429343E-14 -4.575448E-15
         2   4 -1.916250E-05 -1.916250E-05 -2.775379E-14 -4.186707E-15  8.022373E-15  1.952266E-15
         2   5 -1.916250E-05 -1.916250E-05 -1.091098E-13  2.145611E-15  1.561781E-14  7.328687E-15
         2   6 -1.916250E-05 -1.916250E-05 -7.974761E-14  2.841666E-14  2.328020E-14 -3.899460E-15
         2   7 -1.916250E-05 -1.916250E-05 -5.283612E-14 -2.702054E-14 -2.025577E-14  2.171411E-15
         2   8 -1.916250E-05 -1.916250E-05 -4.906096E-14  3.427858E-14 -2.901278E-14 -1.535704E-15
         3   1 -1.916250E-05 -1.916250E-05  1.188388E-14 -5.158773E-16 -2.753306E-14  6.660039E-16
         3   2 -1.916250E-05 -1.916250E-05  1.150071E-15 -5.158773E-16 -4.285785E-14 -3.089213E-16
         3   3 -1.916250E-05 -1.916250E-05  4.770920E-15 -1.925280E-15 -6.738129E-15 -7.804783E-15
         3   4 -1.916250E-05 -1.916250E-05 -4.336546E-14  4.185981E-14 -1.549515E-14  3.517776E-15
         3   5 -1.916250E-05 -1.916250E-05  1.379852E-14  5.785791E-15  7.410326E-14  1.095635E-14
         3   6 -1.916250E-05 -1.916250E-05  2.888942E-14 -1.172824E-14 -7.476603E-14 -4.979607E-15
         3   7 -1.916250E-05 -1.916250E-05  1.325332E-14  2.159287E-14  9.881031E-15  2.485560E-15
         3   8 -1.916250E-05 -1.916250E-05 -9.058343E-15 -3.094924E-14  9.881031E-15 -1.152909E-15
         4   1 -1.916250E-05 -1.916250E-05  3.996443E-14 -1.809366E-15  1.281648E-15 -1.723507E-14
         4   2 -1.916250E-05 -1.916250E-05  5.578073E-14 -6.752645E-15 -2.297902E-16 -7.318980E-15
         4   3 -1.916250E-05 -1.916250E-05  6.436064E-14 -1.809366E-15 -3.895634E-16 -3.037060E-14
         4   4 -1.916250E-05 -1.916250E-05  5.818780E-14 -6.752645E-15  2.328820E-15 -1.169749E-14
         4   5 -1.916250E-05 -1.916250E-05 -6.829380E-14  3.581456E-16  6.294616E-15 -4.510622E-15
         4   6 -1.916250E-05 -1.916250E-05 -2.949033E-14  1.336618E-15  4.783177E-15 -1.324183E-14
         4   7 -1.916250E-05 -1.916250E-05 -3.501497E-14  3.581456E-16 -4.172255E-15 -3.516018E-14
         4   8 -1.916250E-05 -1.916250E-05 -1.820064E-14  1.336618E-15 -1.453871E-15 -2.090422E-14
         5   1 -1.916250E-05 -1.916250E-05  1.210636E-14 -1.532478E-14  1.410835E-14 -1.104881E-14
         5   2 -1.916250E-05 -1.916250E-05 -2.393958E-14  2.627105E-14 -1.763584E-14 -5.742112E-16
         5   3 -1.916250E-05 -1.916250E-05  6.655629E-15 -3.502807E-14  5.011485E-16  2.086720E-15
         5   4 -1.916250E-05 -1.916250E-05 -1.619251E-14  8.757018E-15 -1.701289E-14 -2.763466E-15
         5   5 -1.916250E-05 -1.916250E-05 -4.700351E-14 -1.751404E-14  1.676616E-14 -5.347781E-15
         5   6 -1.916250E-05 -1.916250E-05 -1.191721E-13  1.751404E-14  3.428020E-14  1.806832E-14
         5   7 -1.916250E-05 -1.916250E-05  6.655626E-15 -7.005614E-14  3.689838E-14  7.787746E-15
         5   8 -1.916250E-05 -1.916250E-05 -5.559909E-14 -3.502807E-14  3.251987E-14 -2.729594E-15
         6   1 -1.916250E-05 -1.916250E-05  7.018114E-14  3.502807E-14  4.917376E-14  3.567712E-14
         6   2 -1.916250E-05 -1.916250E-05 -6.776096E-14 -4.378509E-15 -1.106418E-13 -2.109032E-14
         6   3 -1.916250E-05 -1.916250E-05  4.177544E-14  3.133483E-32  3.181290E-14 -1.686498E-14
         6   4 -1.916250E-05 -1.916250E-05 -9.739537E-15 -4.816360E-14  2.305588E-14  2.269477E-14
         6   5 -1.916250E-05 -1.916250E-05 -6.774189E-14 -1.050842E-13  3.121424E-14  4.620739E-14
         6   6 -1.916250E-05 -1.916250E-05 -5.134156E-14 -7.005614E-14 -1.624576E-15  5.183212E-15
         6   7 -1.916250E-05 -1.916250E-05 -8.957983E-14 -7.005614E-14 -1.199919E-14  2.422301E-15
         6   8 -1.916250E-05 -1.916250E-05 -4.586224E-14  2.726866E-33  1.427186E-14  7.372466E-15
         7   1 -1.916250E-05 -1.916250E-05 -1.041663E-13 -6.847483E-14  3.327496E-15 -1.504467E-13
         7   2 -1.916250E-05 -1.916250E-05  5.752536E-14 -6.415461E-14  8.165147E-15  2.175457E-14
         7   3 -1.916250E-05 -1.916250E-05 -1.084601E-13  1.581309E-15 -1.790676E-15 -1.577438E-15
         7   4 -1.916250E-05 -1.916250E-05  3.315754E-14  5.901526E-15 -2.906512E-15 -4.516482E-15
         7   5 -1.916250E-05 -1.916250E-05  1.161612E-13  6.858667E-14  7.580732E-15 -8.470023E-14
         7   6 -1.916250E-05 -1.916250E-05 -4.560967E-15  6.457200E-14  1.241838E-14 -1.028798E-14
         7   7 -1.916250E-05 -1.916250E-05  9.936511E-14 -1.469470E-15 -5.567059E-15 -5.887077E-15
         7   8 -1.916250E-05 -1.916250E-05 -4.143112E-14 -5.484136E-15 -6.682896E-15 -8.691188E-14
         8   1 -1.916250E-05 -1.916250E-05 -9.029862E-14  2.627105E-14 -8.249534E-15 -1.507337E-13
         8   2 -1.916250E-05 -1.916250E-05 -7.076387E-14  4.159583E-14  3.115704E-14 -4.163937E-14
         8   3 -1.916250E-05 -1.916250E-05 -8.989725E-14  8.757018E-15  5.268120E-14 -1.864409E-15
         8   4 -1.916250E-05 -1.916250E-05 -1.152182E-13 -8.757018E-15 -2.175345E-14 -1.536832E-14
         8   5 -1.916250E-05 -1.916250E-05  1.198698E-13  7.005614E-14 -3.633941E-14 -8.577123E-14
         8   6 -1.916250E-05 -1.916250E-05 -3.792505E-14  4.378509E-14  1.182419E-14 -6.204823E-14
         8   7 -1.916250E-05 -1.916250E-05  5.459354E-14 -4.472091E-35  5.191200E-16 -6.958071E-15
         8   8 -1.916250E-05 -1.916250E-05 -7.581166E-14 -2.627105E-14  4.897629E-15 -2.702016E-14
         9   1 -1.916250E-05 -1.916250E-05  1.148013E-13  7.005614E-14 -1.836728E-14 -1.239050E-14
         9   2 -1.916250E-05 -1.916250E-05  5.643142E-14  3.064956E-14 -7.421011E-15 -4.346967E-14
         9   3 -1.916250E-05 -1.916250E-05  1.169569E-13  7.005614E-14  2.498819E-14  5.123539E-15
         9   4 -1.916250E-05 -1.916250E-05 -4.356540E-14  2.189254E-14  9.504433E-14  9.226410E-14
         9   5 -1.916250E-05 -1.916250E-05 -7.566382E-14 -2.493119E-32 -5.572647E-14  2.787832E-14
         9   6 -1.916250E-05 -1.916250E-05 -1.077627E-13 -1.751404E-14 -3.821243E-14 -1.297440E-14
         9   7 -1.916250E-05 -1.916250E-05 -6.694046E-14  7.379243E-33 -3.746933E-14 -1.590676E-14
         9   8 -1.916250E-05 -1.916250E-05 -1.092430E-13 -5.254211E-14  6.761488E-14  1.110739E-14

 strains (elem, integ.pnt.,exx,eyy,ezz,exy,exz,eyz) forset EALL and time  0.1117812E+00

         1   1 -6.387500E-11 -6.387500E-11  5.475000E-11  4.644813E-27  4.038968E-28  1.615587E-27
         1   2 -6.387500E-11 -6.387500E-11  5.475000E-11  6.462349E-27  3.433123E-27  1.009742E-27
         1   3 -6.387500E-11 -6.387500E-11  5.475000E-11  1.676172E-26  1.615587E-27  1.615587E-27
         1   4 -6.387500E-11 -6.387500E-11  5.475000E-11  1.857925E-26  1.050132E-26  8.077936E-28
         1   5 -6.387500E-11 -6.387500E-11  5.475000E-11  5.654555E-27 -3.029226E-27  8.482896E-54
         1   6 -6.387500E-11 -6.387500E-11  5.475000E-11  1.050132E-26 -6.707716E-37  3.433123E-27
         1   7 -6.387500E-11 -6.387500E-11  5.475000E-11  1.777146E-26 -2.423381E-27  1.615587E-27
         1   8 -6.387500E-11 -6.387500E-11  5.475000E-11  2.261822E-26  8.077936E-27  3.231174E-27
         2   1 -6.387500E-11 -6.387500E-11  5.475000E-11 -1.057602E-20  4.574806E-20  3.601793E-21
         2   2 -6.387500E-11 -6.387500E-11  5.475000E-11  2.062644E-19 -2.117500E-19 -2.547321E-21
         2   3 -6.387500E-11 -6.387500E-11  5.475000E-11 -3.947023E-20  2.122926E-19 -2.832420E-20
         2   4 -6.387500E-11 -6.387500E-11  5.475000E-11 -2.591771E-20  4.966231E-20  1.208546E-20
         2   5 -6.387500E-11 -6.387500E-11  5.475000E-11  1.328235E-20  9.668169E-20  4.536806E-20
         2   6 -6.387500E-11 -6.387500E-11  5.475000E-11  1.759127E-19  1.441155E-19 -2.413951E-20
         2   7 -6.387500E-11 -6.387500E-11  5.475000E-11 -1.672700E-19 -1.253928E-19  1.344207E-20
         2   8 -6.387500E-11 -6.387500E-11  5.475000E-11  2.122007E-19 -1.796030E-19 -9.506738E-21
         3   1 -6.387500E-11 -6.387500E-11  5.475000E-11 -3.193526E-21 -1.704428E-19  4.122881E-21
         3   2 -6.387500E-11 -6.387500E-11  5.475000E-11 -3.193526E-21 -2.653105E-19 -1.912370E-21
         3   3 -6.387500E-11 -6.387500E-11  5.475000E-11 -1.191840E-20 -4.171223E-20 -4.831532E-20
         3   4 -6.387500E-11 -6.387500E-11  5.475000E-11  2.591321E-19 -9.592233E-20  2.177671E-20
         3   5 -6.387500E-11 -6.387500E-11  5.475000E-11  3.581680E-20  4.587345E-19  6.782500E-20
         3   6 -6.387500E-11 -6.387500E-11  5.475000E-11 -7.260342E-20 -4.628374E-19 -3.082614E-20
         3   7 -6.387500E-11 -6.387500E-11  5.475000E-11  1.336701E-19  6.116829E-20  1.538680E-20
         3   8 -6.387500E-11 -6.387500E-11  5.475000E-11 -1.915905E-19  6.116829E-20 -7.137057E-21
         4   1 -6.387500E-11 -6.387500E-11  5.475000E-11 -1.120084E-20  7.934014E-21 -1.066933E-19
         4   2 -6.387500E-11 -6.387500E-11  5.475000E-11 -4.180209E-20 -1.422511E-21 -4.530797E-20
         4   3 -6.387500E-11 -6.387500E-11  5.475000E-11 -1.120084E-20 -2.411583E-21 -1.880085E-19
         4   4 -6.387500E-11 -6.387500E-11  5.475000E-11 -4.180209E-20  1.441651E-20 -7.241303E-20
         4   5 -6.387500E-11 -6.387500E-11  5.475000E-11  2.217092E-21  3.896667E-20 -2.792290E-20
         4   6 -6.387500E-11 -6.387500E-11  5.475000E-11  8.274304E-21  2.961014E-20 -8.197325E-20
         4   7 -6.387500E-11 -6.387500E-11  5.475000E-11  2.217092E-21 -2.582824E-20 -2.176583E-19
         4   8 -6.387500E-11 -6.387500E-11  5.475000E-11  8.274304E-21 -9.000156E-21 -1.294071E-19
         5   1 -6.387500E-11 -6.387500E-11  5.475000E-11 -9.486769E-20  8.733742E-20 -6.839737E-20
         5   2 -6.387500E-11 -6.387500E-11  5.475000E-11  1.626303E-19 -1.091742E-19 -3.554641E-21
         5   3 -6.387500E-11 -6.387500E-11  5.475000E-11 -2.168404E-19  3.102348E-21  1.291779E-20
         5   4 -6.387500E-11 -6.387500E-11  5.475000E-11  5.421011E-20 -1.053179E-19 -1.710717E-20
         5   5 -6.387500E-11 -6.387500E-11  5.475000E-11 -1.084202E-19  1.037905E-19 -3.310531E-20
         5   6 -6.387500E-11 -6.387500E-11  5.475000E-11  1.084202E-19  2.122107E-19  1.118515E-19
         5   7 -6.387500E-11 -6.387500E-11  5.475000E-11 -4.336809E-19  2.284186E-19  4.820985E-20
         5   8 -6.387500E-11 -6.387500E-11  5.475000E-11 -2.168404E-19  2.013135E-19 -1.689749E-20
         6   1 -6.387500E-11 -6.387500E-11  5.475000E-11  2.168404E-19  3.044090E-19  2.208584E-19
         6   2 -6.387500E-11 -6.387500E-11  5.475000E-11 -2.710505E-20 -6.849255E-19 -1.305591E-19
         6   3 -6.387500E-11 -6.387500E-11  5.475000E-11 -2.822786E-37  1.969370E-19 -1.044023E-19
         6   4 -6.387500E-11 -6.387500E-11  5.475000E-11 -2.981556E-19  1.427269E-19  1.404914E-19
         6   5 -6.387500E-11 -6.387500E-11  5.475000E-11 -6.505213E-19  1.932310E-19  2.860457E-19
         6   6 -6.387500E-11 -6.387500E-11  5.475000E-11 -4.336809E-19 -1.005690E-20  3.208655E-20
         6   7 -6.387500E-11 -6.387500E-11  5.475000E-11 -4.336809E-19 -7.428071E-20  1.499519E-20
         6   8 -6.387500E-11 -6.387500E-11  5.475000E-11 -2.753440E-39  8.834962E-20  4.563907E-20
         7   1 -6.387500E-11 -6.387500E-11  5.475000E-11 -4.238918E-19  2.059878E-20 -9.313369E-19
         7   2 -6.387500E-11 -6.387500E-11  5.475000E-11 -3.971476E-19  5.054615E-20  1.346712E-19
         7   3 -6.387500E-11 -6.387500E-11  5.475000E-11  9.789057E-21 -1.108514E-20 -9.765090E-21
         7   4 -6.387500E-11 -6.387500E-11  5.475000E-11  3.653326E-20 -1.799270E-20 -2.795917E-20
         7   5 -6.387500E-11 -6.387500E-11  5.475000E-11  4.245842E-19  4.692834E-20 -5.243348E-19
         7   6 -6.387500E-11 -6.387500E-11  5.475000E-11  3.997315E-19  7.687571E-20 -6.368748E-20
         7   7 -6.387500E-11 -6.387500E-11  5.475000E-11 -9.096718E-21 -3.446275E-20 -3.644381E-20
         7   8 -6.387500E-11 -6.387500E-11  5.475000E-11 -3.394941E-20 -4.137031E-20 -5.380259E-19
         8   1 -6.387500E-11 -6.387500E-11  5.475000E-11  1.626303E-19 -5.106854E-20 -9.331134E-19
         8   2 -6.387500E-11 -6.387500E-11  5.475000E-11  2.574980E-19  1.928769E-19 -2.577676E-19
         8   3 -6.387500E-11 -6.387500E-11  5.475000E-11  5.421011E-20  3.261217E-19 -1.154158E-20
         8   4 -6.387500E-11 -6.387500E-11  5.475000E-11 -5.421011E-20 -1.346642E-19 -9.513723E-20
         8   5 -6.387500E-11 -6.387500E-11  5.475000E-11  4.336809E-19 -2.249582E-19 -5.309648E-19
         8   6 -6.387500E-11 -6.387500E-11  5.475000E-11  2.710505E-19  7.319736E-20 -3.841081E-19
         8   7 -6.387500E-11 -6.387500E-11  5.475000E-11 -2.768437E-40  3.213600E-21 -4.307377E-20
         8   8 -6.387500E-11 -6.387500E-11  5.475000E-11 -1.626303E-19  3.031865E-20 -1.672676E-19
         9   1 -6.387500E-11 -6.387500E-11  5.475000E-11  4.336809E-19 -1.137022E-19 -7.670307E-20
         9   2 -6.387500E-11 -6.387500E-11  5.475000E-11  1.897354E-19 -4.593959E-20 -2.690980E-19
         9   3 -6.387500E-11 -6.387500E-11  5.475000E-11  4.336809E-19  1.546888E-19  3.171714E-20
         9   4 -6.387500E-11 -6.387500E-11  5.475000E-11  1.355253E-19  5.883697E-19  5.711587E-19
         9   5 -6.387500E-11 -6.387500E-11  5.475000E-11 -4.666790E-39 -3.449734E-19  1.725801E-19
         9   6 -6.387500E-11 -6.387500E-11  5.475000E-11 -1.084202E-19 -2.365532E-19 -8.031774E-20
         9   7 -6.387500E-11 -6.387500E-11  5.475000E-11 -5.491254E-38 -2.319530E-19 -9.847045E-20
         9   8 -6.387500E-11 -6.387500E-11  5.475000E-11 -3.252607E-19  4.185683E-19  6.876006E-20

 displacements (vx,vy,vz) for set NALL and time  0.1207812E+00

         1  0.000000E+00  0.000000E+00  0.000000E+00
         2 -3.450893E-08  0.000000E+00  0.000000E+00
         3 -1.811719E+00  0.000000E+00  0.000000E+00
         4 -1.811719E+00  0.000000E+00  0.000000E+00
         5 -3.623437E+00  0.000000E+00  0.000000E+00
         6 -3.623437E+00  0.000000E+00  0.000000E+00
         7  0.000000E+00 -3.450893E-08  0.000000E+00
         8 -3.450893E-08 -3.450893E-08  0.000000E+00
         9 -1.811719E+00 -3.450893E-08  0.000000E+00
        10 -1.811719E+00 -3.450893E-08  0.000000E+00
        11 -3.623437E+00 -3.450893E-08  0.000000E+00
        12 -3.623437E+00 -3.450893E-08  0.000000E+00
        13  0.000000E+00 -1.811719E+00  0.000000E+00
        14 -3.450893E-08 -1.811719E+00  0.000000E+00
        15 -1.811719E+00 -1.811719E+00  0.000000E+00
        16 -1.811719E+00 -1.811719E+00  0.000000E+00
        17 -3.623437E+00 -1.811719E+00  0.000000E+00
        18 -3.623437E+00 -1.811719E+00  0.000000E+00
        19  0.000000E+00 -1.811719E+00  0.000000E+00
        20 -3.450893E-08 -1.811719E+00  0.000000E+00
        21 -1.811719E+00 -1.811719E+00  0.000000E+00
        22 -1.811719E+00 -1.811719E+00  0.000000E+00
        23 -3.623437E+00 -1.811719E+00  0.000000E+00
        24 -3.623437E+00 -1.811719E+00  0.000000E+00
        25  0.000000E+00 -3.623437E+00  0.000000E+00
        26 -3.450893E-08 -3.623437E+00  0.000000E+00
        27 -1.811719E+00 -3.623437E+00  0.000000E+00
        28 -1.811719E+00 -3.623437E+00  0.000000E+00
        29 -3.623437E+00 -3.623437E+00  0.000000E+00
        30 -3.623437E+00 -3.623437E+00  0.000000E+00
        31  0.000000E+00 -3.623437E+00  0.000000E+00
        32 -3.450893E-08 -3.623437E+00  0.000000E+00
        33 -1.811719E+00 -3.623437E+00  0.000000E+00
        34 -1.811719E+00 -3.623437E+00  0.000000E+00
        35 -3.623437E+00 -3.623437E+00  0.000000E+00
        36 -3.623437E+00 -3.623437E+00  0.000000E+00
        37  0.000000E+00  0.000000E+00  4.141071E-08
        38 -3.450893E-08  0.000000E+00  4.141071E-08
        39 -1.811719E+00  0.000000E+00  4.141071E-08
        40 -1.811719E+00  0.000000E+00  4.141071E-08
        41 -3.623437E+00  0.000000E+00  4.141071E-08
        42 -3.623437E+00  0.000000E+00  4.141071E-08
        43  0.000000E+00 -3.450893E-08  4.141071E-08
        44 -3.450893E-08 -3.450893E-08  4.141071E-08
        45 -1.811719E+00 -3.450893E-08  4.141071E-08
        46 -1.811719E+00 -3.450893E-08  4.141071E-08
        47 -3.623437E+00 -3.450893E-08  4.141071E-08
        48 -3.623437E+00 -3.450893E-08  4.141071E-08
        49  0.000000E+00 -1.811719E+00  4.141071E-08
        50 -3.450893E-08 -1.811719E+00  4.141071E-08
        51 -1.811719E+00 -1.811719E+00  4.141071E-08
        52 -1.811719E+00 -1.811719E+00  4.141071E-08
        53 -3.623437E+00 -1.811719E+00  4.141071E-08
        54 -3.623437E+00 -1.811719E+00  4.141071E-08
        55  0.000000E+00 -1.811719E+00  4.141071E-08
        56 -3.450893E-08 -1.811719E+00  4.141071E-08
        57 -1.811719E+00 -1.811719E+00  4.141071E-08
        58 -1.811719E+00 -1.811719E+00  4.141071E-08
        59 -3.623437E+00 -1.811719E+00  4.141071E-08
        60 -3.623437E+00 -1.811719E+00  4.141071E-08
        61  0.000000E+00 -3.623437E+00  4.141071E-08
        62 -3.450893E-08 -3.623437E+00  4.141071E-08
        63 -1.811719E+00 -3.623437E+00  4.141071E-08
        64 -1.811719E+00 -3.623437E+00  4.141071E-08
        65 -3.623437E+00 -3.623437E+00  4.141071E-08
        66 -3.623437E+00 -3.623437E+00  4.141071E-08
        67  0.000000E+00 -3.623437E+00  4.141071E-08
        68 -3.450893E-08 -3.623437E+00  4.141071E-08
        69 -1.811719E+00 -3.623437E+00  4.141071E-08
        70 -1.811719E+00 -3.623437E+00  4.141071E-08
        71 -3.623437E+00 -3.623437E+00  4.141071E-08
        72 -3.623437E+00 -3.623437E+00  4.141071E-08

 stresses (elem, integ.pnt.,sxx,syy,szz,sxy,sxz,syz) for set EALL and time  0.1207812E+00

         1   1 -2.070536E-05 -2.070536E-05 -3.388132E-21  3.914692E-22  1.304897E-22  3.914692E-22
         1   2 -2.070536E-05 -2.070536E-05 -3.388132E-21  1.207030E-21 -1.672565E-32  5.219589E-22
         1   3 -2.070536E-05 -2.070536E-05  3.388132E-21  1.402765E-21 -5.219589E-22  1.565877E-21
         1   4 -2.070536E-05 -2.070536E-05  6.776264E-21  2.218325E-21 -2.740284E-21  1.370142E-21
         1   5 -2.070536E-05 -2.070536E-05  1.686540E-48 -9.134281E-22  2.609795E-22  3.914692E-22
         1   6 -2.070536E-05 -2.070536E-05  5.354765E-47 -3.523223E-21  1.304897E-22  1.631122E-21
         1   7 -2.070536E-05 -2.070536E-05 -3.388132E-21 -5.219589E-22  7.829384E-22  1.043918E-21
         1   8 -2.070536E-05 -2.070536E-05  3.963370E-47 -3.131754E-21 -1.043918E-21  2.479305E-21
         2   1 -2.070536E-05 -2.070536E-05 -1.282340E-14 -9.363655E-15 -1.515414E-14 -1.048444E-15
         2   2 -2.070536E-05 -2.070536E-05  8.089368E-16  3.879994E-14  2.315781E-14  7.119230E-16
         2   3 -2.070536E-05 -2.070536E-05  4.559176E-14 -1.102102E-14  3.867625E-15 -1.007858E-15
         2   4 -2.070536E-05 -2.070536E-05  6.952209E-14  4.589960E-14 -5.108840E-16  1.442727E-15
         2   5 -2.070536E-05 -2.070536E-05  2.666841E-14 -7.030909E-14 -8.706787E-15 -3.953431E-15
         2   6 -2.070536E-05 -2.070536E-05  4.175021E-14 -4.403803E-14  4.492995E-14  1.926130E-15
         2   7 -2.070536E-05 -2.070536E-05 -2.000064E-14 -7.100014E-14  3.194821E-14 -3.912845E-15
         2   8 -2.070536E-05 -2.070536E-05  5.379144E-15 -3.597207E-14 -2.497241E-14  2.656933E-15
         3   1 -2.070536E-05 -2.070536E-05 -2.354855E-14  1.093349E-13  1.010661E-13 -1.294939E-15
         3   2 -2.070536E-05 -2.070536E-05 -4.553503E-14 -1.277798E-16 -3.904615E-14  2.014106E-15
         3   3 -2.070536E-05 -2.070536E-05  1.158753E-13  7.309891E-14 -3.822081E-14 -1.856865E-14
         3   4 -2.070536E-05 -2.070536E-05  3.971446E-14  9.499146E-14 -3.192743E-15  1.545064E-14
         3   5 -2.070536E-05 -2.070536E-05  1.240740E-13 -6.758243E-14  5.271404E-14  1.244093E-14
         3   6 -2.070536E-05 -2.070536E-05  1.665791E-13  2.473715E-15 -5.237017E-14 -5.919783E-15
         3   7 -2.070536E-05 -2.070536E-05 -5.175473E-14 -6.082411E-14  2.311259E-14 -4.832781E-15
         3   8 -2.070536E-05 -2.070536E-05 -6.342409E-14  4.426010E-14  4.062663E-14  7.516746E-15
         4   1 -2.070536E-05 -2.070536E-05  4.795053E-14  9.519590E-15 -8.450034E-16  4.280660E-14
         4   2 -2.070536E-05 -2.070536E-05  3.425330E-14  1.160298E-14 -3.018092E-16  2.569356E-14
         4   3 -2.070536E-05 -2.070536E-05  4.439238E-14  7.625728E-16  5.482278E-16 -1.849253E-14
         4   4 -2.070536E-05 -2.070536E-05  4.838692E-14  2.845961E-15 -2.178904E-15  3.663983E-14
         4   5 -2.070536E-05 -2.070536E-05 -3.450870E-15  3.411481E-14 -3.696790E-15 -1.678731E-14
         4   6 -2.070536E-05 -2.070536E-05 -1.058034E-14  3.161974E-14 -3.153596E-15 -1.368811E-14
         4   7 -2.070536E-05 -2.070536E-05  9.120751E-14 -9.132585E-16  4.773145E-15 -2.116582E-14
         4   8 -2.070536E-05 -2.070536E-05  4.922770E-14 -3.408327E-15  2.046014E-15 -7.120351E-15
         5   1 -2.070536E-05 -2.070536E-05 -5.088862E-15 -4.378509E-14 -1.630932E-15  2.256861E-14
         5   2 -2.070536E-05 -2.070536E-05 -1.657918E-14 -1.094627E-14  2.792400E-14  3.631412E-14
         5   3 -2.070536E-05 -2.070536E-05 -2.709314E-14 -3.502807E-14 -1.020948E-15 -3.702443E-15
         5   4 -2.070536E-05 -2.070536E-05  1.190800E-14  8.757018E-15 -1.415647E-14  4.069263E-14
         5   5 -2.070536E-05 -2.070536E-05 -2.807604E-14 -3.502807E-14 -5.349958E-16 -4.884577E-14
         5   6 -2.070536E-05 -2.070536E-05 -4.285023E-14  1.751404E-14  2.573606E-14  1.902976E-14
         5   7 -2.070536E-05 -2.070536E-05 -1.395761E-14 -3.502807E-14  3.121784E-14  2.121037E-14
         5   8 -2.070536E-05 -2.070536E-05  1.847576E-14  1.751404E-14 -3.810230E-15  9.178114E-15
         6   1 -2.070536E-05 -2.070536E-05 -6.249455E-14  1.970329E-14  2.077636E-14 -2.823448E-14
         6   2 -2.070536E-05 -2.070536E-05  4.915401E-14  1.160305E-13 -8.868636E-14 -3.127173E-15
         6   3 -2.070536E-05 -2.070536E-05  6.271970E-14 -2.627105E-14 -6.686294E-14 -2.823448E-14
         6   4 -2.070536E-05 -2.070536E-05  1.075169E-13 -6.129912E-14  3.822127E-14  1.986000E-14
         6   5 -2.070536E-05 -2.070536E-05  9.513177E-14  8.757018E-15  6.237083E-14 -3.594510E-14
         6   6 -2.070536E-05 -2.070536E-05  2.166320E-13  6.129912E-14 -3.833488E-14 -1.853184E-14
         6   7 -2.070536E-05 -2.070536E-05  3.644864E-14  5.352210E-33 -2.311087E-14  7.839990E-15
         6   8 -2.070536E-05 -2.070536E-05  7.139416E-14 -5.254211E-14  2.067422E-14  1.171453E-15
         7   1 -2.070536E-05 -2.070536E-05 -7.449349E-14  1.665092E-14  1.412694E-15 -5.029785E-14
         7   2 -2.070536E-05 -2.070536E-05 -5.175003E-14  1.429283E-14  9.310390E-15 -4.580958E-14
         7   3 -2.070536E-05 -2.070536E-05  5.692103E-14 -8.631182E-16  1.955806E-16  1.975829E-14
         7   4 -2.070536E-05 -2.070536E-05  9.536706E-14 -3.221201E-15 -1.512967E-15  2.205731E-14
         7   5 -2.070536E-05 -2.070536E-05 -1.104504E-13  6.427044E-14 -2.625449E-15 -8.388736E-14
         7   6 -2.070536E-05 -2.070536E-05 -6.800369E-14  4.846362E-14  5.272246E-15 -7.440429E-15
         7   7 -2.070536E-05 -2.070536E-05  7.909831E-16 -5.785699E-15  2.438465E-15 -3.134525E-14
         7   8 -2.070536E-05 -2.070536E-05  5.894030E-14 -2.159252E-14  7.299173E-16 -5.779328E-14
         8   1 -2.070536E-05 -2.070536E-05 -4.858638E-14  3.502807E-14 -1.574850E-15 -1.791385E-14
         8   2 -2.070536E-05 -2.070536E-05 -1.315882E-13  1.007057E-13  1.709031E-15 -5.156107E-14
         8   3 -2.070536E-05 -2.070536E-05  1.175641E-13 -3.502807E-14  1.513078E-14  8.717036E-14
         8   4 -2.070536E-05 -2.070536E-05  3.560856E-14  3.064956E-14 -6.761767E-15  7.760494E-14
         8   5 -2.070536E-05 -2.070536E-05 -1.306834E-13  1.025701E-31 -4.966251E-14 -5.872710E-14
         8   6 -2.070536E-05 -2.070536E-05 -8.889773E-14 -8.757018E-15 -4.637863E-14 -3.328382E-14
         8   7 -2.070536E-05 -2.070536E-05 -6.555933E-16 -5.858561E-33  2.613363E-14  2.884307E-14
         8   8 -2.070536E-05 -2.070536E-05  1.669638E-13 -2.844007E-33 -8.894438E-15  2.582605E-14
         9   1 -2.070536E-05 -2.070536E-05 -1.947931E-13  5.254211E-14  4.421571E-14 -6.880489E-14
         9   2 -2.070536E-05 -2.070536E-05 -1.261743E-13  7.881316E-14 -8.326396E-15 -6.039115E-14
         9   3 -2.070536E-05 -2.070536E-05  8.373302E-14  5.254211E-14 -1.465927E-13 -6.004788E-14
         9   4 -2.070536E-05 -2.070536E-05  1.773940E-13 -3.502807E-14 -3.275147E-14 -4.068786E-14
         9   5 -2.070536E-05 -2.070536E-05 -3.716681E-14 -7.005614E-14  3.663517E-14 -5.021882E-14
         9   6 -2.070536E-05 -2.070536E-05  4.458754E-14  7.314030E-32 -3.342097E-14 -8.038966E-14
         9   7 -2.070536E-05 -2.070536E-05 -7.389330E-14 -7.005614E-14 -9.424137E-14  3.735135E-14
         9   8 -2.070536E-05 -2.070536E-05  1.319992E-14  3.502807E-14  2.835687E-14 -2.346905E-14

 strains (elem, integ.pnt.,exx,eyy,ezz,exy,exz,eyz) forset EALL and time  0.1207812E+00

         1   1 -6.901786E-11 -6.901786E-11  5.915816E-11  2.423381E-27  8.077936E-28  2.423381E-27
         1   2 -6.901786E-11 -6.901786E-11  5.915816E-11  7.472090E-27  1.035398E-37  3.231174E-27
         1   3 -6.901786E-11 -6.901786E-11  5.915816E-11  8.683781E-27 -3.231174E-27  9.693523E-27
         1   4 -6.901786E-11 -6.901786E-11  5.915816E-11  1.373249E-26 -1.696366E-26  8.481832E-27
         1   5 -6.901786E-11 -6.901786E-11  5.915816E-11 -5.654555E-27  1.615587E-27  2.423381E-27
         1   6 -6.901786E-11 -6.901786E-11  5.915816E-11 -2.181043E-26  8.077936E-28  1.009742E-26
         1   7 -6.901786E-11 -6.901786E-11  5.915816E-11 -3.231174E-27  4.846761E-27  6.462349E-27
         1   8 -6.901786E-11 -6.901786E-11  5.915816E-11 -1.938705E-26 -6.462349E-27  1.534808E-26
         2   1 -6.901786E-11 -6.901786E-11  5.915816E-11 -5.796548E-20 -9.381134E-20 -6.490367E-21
         2   2 -6.901786E-11 -6.901786E-11  5.915816E-11  2.401901E-19  1.433579E-19  4.407142E-21
         2   3 -6.901785E-11 -6.901786E-11  5.915816E-11 -6.822535E-20  2.394244E-20 -6.239120E-21
         2   4 -6.901785E-11 -6.901786E-11  5.915816E-11  2.841404E-19 -3.162615E-21  8.931169E-21
         2   5 -6.901785E-11 -6.901786E-11  5.915816E-11 -4.352467E-19 -5.389916E-20 -2.447362E-20
         2   6 -6.901785E-11 -6.901786E-11  5.915816E-11 -2.726164E-19  2.781378E-19  1.192366E-20
         2   7 -6.901786E-11 -6.901786E-11  5.915816E-11 -4.395247E-19  1.977746E-19 -2.422238E-20
         2   8 -6.901786E-11 -6.901786E-11  5.915816E-11 -2.226843E-19 -1.545911E-19  1.644768E-20
         3   1 -6.901786E-11 -6.901785E-11  5.915816E-11  6.768353E-19  6.256475E-19 -8.016292E-21
         3   2 -6.901786E-11 -6.901786E-11  5.915816E-11 -7.910177E-22 -2.417142E-19  1.246828E-20
         3   3 -6.901785E-11 -6.901785E-11  5.915816E-11  4.525171E-19 -2.366050E-19 -1.149488E-19
         3   4 -6.901785E-11 -6.901786E-11  5.915816E-11  5.880424E-19 -1.976460E-20  9.564680E-20
         3   5 -6.901785E-11 -6.901786E-11  5.915816E-11 -4.183674E-19  3.263250E-19  7.701530E-20
         3   6 -6.901785E-11 -6.901786E-11  5.915816E-11  1.531347E-20 -3.241963E-19 -3.664628E-20
         3   7 -6.901786E-11 -6.901786E-11  5.915816E-11 -3.765302E-19  1.430779E-19 -2.991722E-20
         3   8 -6.901786E-11 -6.901786E-11  5.915816E-11  2.739911E-19  2.514982E-19  4.653224E-20
         4   1 -6.901786E-11 -6.901785E-11  5.915816E-11  5.893080E-20 -5.230974E-21  2.649932E-19
         4   2 -6.901786E-11 -6.901785E-11  5.915816E-11  7.182796E-20 -1.868343E-21  1.590554E-19
         4   3 -6.901786E-11 -6.901785E-11  5.915816E-11  4.720689E-21  3.393791E-21 -1.144775E-19
         4   4 -6.901786E-11 -6.901785E-11  5.915816E-11  1.761785E-20 -1.348845E-20  2.268180E-19
         4   5 -6.901786E-11 -6.901786E-11  5.915816E-11  2.111869E-19 -2.288489E-20 -1.039214E-19
         4   6 -6.901786E-11 -6.901786E-11  5.915816E-11  1.957413E-19 -1.952226E-20 -8.473595E-20
         4   7 -6.901786E-11 -6.901785E-11  5.915816E-11 -5.653505E-21  2.954804E-20 -1.310265E-19
         4   8 -6.901786E-11 -6.901785E-11  5.915816E-11 -2.109917E-20  1.266580E-20 -4.407837E-20
         5   1 -6.901785E-11 -6.901786E-11  5.915816E-11 -2.710505E-19 -1.009625E-20  1.397104E-19
         5   2 -6.901785E-11 -6.901786E-11  5.915816E-11 -6.776264E-20  1.728629E-19  2.248017E-19
         5   3 -6.901785E-11 -6.901786E-11  5.915816E-11 -2.168404E-19 -6.320153E-21 -2.291988E-20
         5   4 -6.901785E-11 -6.901786E-11  5.915816E-11  5.421011E-20 -8.763532E-20  2.519068E-19
         5   5 -6.901786E-11 -6.901786E-11  5.915816E-11 -2.168404E-19 -3.311879E-21 -3.023786E-19
         5   6 -6.901786E-11 -6.901786E-11  5.915816E-11  1.084202E-19  1.593184E-19  1.178033E-19
         5   7 -6.901786E-11 -6.901786E-11  5.915816E-11 -2.168404E-19  1.932533E-19  1.313023E-19
         5   8 -6.901786E-11 -6.901785E-11  5.915816E-11  1.084202E-19 -2.358714E-20  5.681690E-20
         6   1 -6.901786E-11 -6.901786E-11  5.915816E-11  1.219727E-19  1.286156E-19 -1.747849E-19
         6   2 -6.901786E-11 -6.901785E-11  5.915816E-11  7.182839E-19 -5.490108E-19 -1.935869E-20
         6   3 -6.901785E-11 -6.901786E-11  5.915816E-11 -1.626303E-19 -4.139134E-19 -1.747849E-19
         6   4 -6.901785E-11 -6.901786E-11  5.915816E-11 -3.794708E-19  2.366079E-19  1.229428E-19
         6   5 -6.901785E-11 -6.901786E-11  5.915816E-11  5.421011E-20  3.861051E-19 -2.225173E-19
         6   6 -6.901785E-11 -6.901785E-11  5.915816E-11  3.794708E-19 -2.373111E-19 -1.147209E-19
         6   7 -6.901785E-11 -6.901786E-11  5.915816E-11  2.315791E-38 -1.430673E-19  4.853327E-20
         6   8 -6.901785E-11 -6.901786E-11  5.915816E-11 -3.252607E-19  1.279833E-19  7.251854E-21
         7   1 -6.901786E-11 -6.901786E-11  5.915816E-11  1.030771E-19  8.745250E-21 -3.113676E-19
         7   2 -6.901786E-11 -6.901785E-11  5.915816E-11  8.847945E-20  5.763575E-20 -2.835831E-19
         7   3 -6.901786E-11 -6.901786E-11  5.915816E-11 -5.343113E-21  1.210737E-21  1.223132E-19
         7   4 -6.901786E-11 -6.901785E-11  5.915816E-11 -1.994077E-20 -9.365988E-21  1.365452E-19
         7   5 -6.901786E-11 -6.901786E-11  5.915816E-11  3.978646E-19 -1.625278E-20 -5.193027E-19
         7   6 -6.901786E-11 -6.901786E-11  5.915816E-11  3.000129E-19  3.263771E-20 -4.605980E-20
         7   7 -6.901786E-11 -6.901786E-11  5.915816E-11 -3.581623E-20  1.509526E-20 -1.940420E-19
         7   8 -6.901786E-11 -6.901786E-11  5.915816E-11 -1.336680E-19  4.518535E-21 -3.577679E-19
         8   1 -6.901786E-11 -6.901786E-11  5.915816E-11  2.168404E-19 -9.749072E-21 -1.108953E-19
         8   2 -6.901786E-11 -6.901786E-11  5.915816E-11  6.234162E-19  1.057972E-20 -3.191876E-19
         8   3 -6.901785E-11 -6.901786E-11  5.915816E-11 -2.168404E-19  9.366672E-20  5.396260E-19
         8   4 -6.901785E-11 -6.901786E-11  5.915816E-11  1.897354E-19 -4.185855E-20  4.804115E-19
         8   5 -6.901786E-11 -6.901786E-11  5.915816E-11 -2.877197E-38 -3.074346E-19 -3.635487E-19
         8   6 -6.901786E-11 -6.901786E-11  5.915816E-11 -5.421011E-20 -2.871058E-19 -2.060427E-19
         8   7 -6.901786E-11 -6.901786E-11  5.915816E-11 -4.354129E-38  1.617796E-19  1.785523E-19
         8   8 -6.901786E-11 -6.901785E-11  5.915816E-11 -4.148458E-38 -5.506081E-20  1.598756E-19
         9   1 -6.901786E-11 -6.901786E-11  5.915816E-11  3.252607E-19  2.737163E-19 -4.259350E-19
         9   2 -6.901786E-11 -6.901785E-11  5.915816E-11  4.878910E-19 -5.154436E-20 -3.738500E-19
         9   3 -6.901785E-11 -6.901786E-11  5.915816E-11  3.252607E-19 -9.074786E-19 -3.717249E-19
         9   4 -6.901785E-11 -6.901785E-11  5.915816E-11 -2.168404E-19 -2.027472E-19 -2.518772E-19
         9   5 -6.901785E-11 -6.901786E-11  5.915816E-11 -4.336809E-19  2.267891E-19 -3.108784E-19
         9   6 -6.901785E-11 -6.901786E-11  5.915816E-11  1.423777E-39 -2.068917E-19 -4.976503E-19
         9   7 -6.901786E-11 -6.901786E-11  5.915816E-11 -4.336809E-19 -5.833990E-19  2.312227E-19
         9   8 -6.901786E-11 -6.901785E-11  5.915816E-11  2.168404E-19  1.755425E-19 -1.452846E-19

 displacements (vx,vy,vz) for set NALL and time  0.1297812E+00

         1  0.000000E+00  0.000000E+00  0.000000E+00
         2 -3.708036E-08  0.000000E+00  0.000000E+00
         3 -1.946719E+00  0.000000E+00  0.000000E+00
         4 -1.946719E+00  0.000000E+00  0.000000E+00
         5 -3.893437E+00  0.000000E+00  0.000000E+00
         6 -3.893437E+00  0.000000E+00  0.000000E+00
         7  0.000000E+00 -3.708036E-08  0.000000E+00
         8 -3.708036E-08 -3.708036E-08  0.000000E+00
         9 -1.946719E+00 -3.708036E-08  0.000000E+00
        10 -1.946719E+00 -3.708036E-08  0.000000E+00
        11 -3.893437E+00 -3.708036E-08  0.000000E+00
        12 -3.893437E+00 -3.708036E-08  0.000000E+00
        13  0.000000E+00 -1.946719E+00  0.000000E+00
        14 -3.708036E-08 -1.946719E+00  0.000000E+00
        15 -1.946719E+00 -1.946719E+00  0.000000E+00
        16 -1.946719E+00 -1.946719E+00  0.000000E+00
        17 -3.893437E+00 -1.946719E+00  0.000000E+00
        18 -3.893437E+00 -1.946719E+00  0.000000E+00
        19  0.000000E+00 -1.946719E+00  0.000000E+00
        20 -3.708036E-08 -1.946719E+00  0.000000E+00
        21 -1.946719E+00 -1.946719E+00  0.000000E+00
        22 -1.946719E+00 -1.946719E+00  0.000000E+00
        23 -3.893437E+00 -1.946719E+00  0.000000E+00
        24 -3.893437E+00 -1.946719E+00  0.000000E+00
        25  0.000000E+00 -3.893437E+00  0.000000E+00
        26 -3.708036E-08 -3.893437E+00  0.000000E+00
        27 -1.946719E+00 -3.893437E+00  0.000000E+00
        28 -1.946719E+00 -3.893437E+00  0.000000E+00
        29 -3.893437E+00 -3.893437E+00  0.000000E+00
        30 -3.893437E+00 -3.893437E+00  0.000000E+00
        31  0.000000E+00 -3.893437E+00  0.000000E+00
        32 -3.708036E-08 -3.893437E+00  0.000000E+00
        33 -1.946719E+00 -3.893437E+00  0.000000E+00
        34 -1.946719E+00 -3.893437E+00  0.000000E+00
        35 -3.893437E+00 -3.893437E+00  0.000000E+00
        36 -3.893437E+00 -3.893437E+00  0.000000E+00
        37  0.000000E+00  0.000000E+00  4.449643E-08
        38 -3.708036E-08  0.000000E+00  4.449643E-08
        39 -1.946719E+00  0.000000E+00  4.449643E-08
        40 -1.946719E+00  0.000000E+00  4.449643E-08
        41 -3.893437E+00  0.000000E+00  4.449643E-08
        42 -3.893437E+00  0.000000E+00  4.449643E-08
        43  0.000000E+00 -3.708036E-08  4.449643E-08
        44 -3.708036E-08 -3.708036E-08  4.449643E-08
        45 -1.946719E+00 -3.708036E-08  4.449643E-08
        46 -1.946719E+00 -3.708036E-08  4.449643E-08
        47 -3.893437E+00 -3.708036E-08  4.449643E-08
        48 -3.893437E+00 -3.708036E-08  4.449643E-08
        49  0.000000E+00 -1.946719E+00  4.449643E-08
        50 -3.708036E-08 -1.946719E+00  4.449643E-08
        51 -1.946719E+00 -1.946719E+00  4.449643E-08
        52 -1.946719E+00 -1.946719E+00  4.449643E-08
        53 -3.893437E+00 -1.946719E+00  4.449643E-08
        54 -3.893437E+00 -1.946719E+00  4.449643E-08
        55  0.000000E+00 -1.946719E+00  4.449643E-08
        56 -3.708036E-08 -1.946719E+00  4.449643E-08
        57 -1.946719E+00 -1.946719E+00  4.449643E-08
        58 -1.946719E+00 -1.946719E+00  4.449643E-08
        59 -3.893437E+00 -1.946719E+00  4.449643E-08
        60 -3.893437E+00 -1.946719E+00  4.449643E-08
        61  0.000000E+00 -3.893437E+00  4.449643E-08
        62 -3.708036E-08 -3.893437E+00  4.449643E-08
        63 -1.946719E+00 -3.893437E+00  4.449643E-08
        64 -1.946719E+00 -3.893437E+00  4.449643E-08
        65 -3.893437E+00 -3.893437E+00  4.449643E-08
        66 -3.893437E+00 -3.893437E+00  4.449643E-08
        67  0.000000E+00 -3.893437E+00  4.449643E-08
        68 -3.708036E-08 -3.893437E+00  4.449643E-08
        69 -1.946719E+00 -3.893437E+00  4.449643E-08
        70 -1.946719E+00 -3.893437E+00  4.449643E-08
        71 -3.893437E+00 -3.893437E+00  4.449643E-08
        72 -3.893437E+00 -3.893437E+00  4.449643E-08

 stresses (elem, integ.pnt.,sxx,syy,szz,sxy,sxz,syz) for set EALL and time  0.1297812E+00

         1   1 -2.224821E-05 -2.224821E-05  3.388132E-21  6.198262E-22 -9.786730E-23  7.829384E-22
         1   2 -2.224821E-05 -2.224821E-05  6.776264E-21 -1.043918E-21 -3.914692E-22 -4.567141E-22
         1   3 -2.224821E-05 -2.224821E-05 -6.776264E-21  3.490600E-21  5.219589E-22  1.826856E-21
         1   4 -2.224821E-05 -2.224821E-05  6.776264E-21  1.826856E-21  2.087836E-21 -1.696366E-21
         1   5 -2.224821E-05 -2.224821E-05  3.388132E-21 -1.304897E-22 -9.786730E-23  5.219589E-22
         1   6 -2.224821E-05 -2.224821E-05  3.388132E-21 -2.609795E-22 -3.914692E-22 -4.567141E-22
         1   7 -2.224821E-05 -2.224821E-05  6.776264E-21 -9.134281E-22  3.914692E-22  1.565877E-21
         1   8 -2.224821E-05 -2.224821E-05  0.000000E+00 -1.043918E-21  2.087836E-21 -1.696366E-21
         2   1 -2.224821E-05 -2.224821E-05 -5.966744E-15  1.790098E-14  1.408358E-14  5.981722E-16
         2   2 -2.224821E-05 -2.224821E-05  2.094316E-15  2.446875E-14  7.515816E-15 -4.419738E-16
         2   3 -2.224821E-05 -2.224821E-05  2.991524E-15  1.895814E-14  1.772708E-14 -1.350900E-15
         2   4 -2.224821E-05 -2.224821E-05  6.032362E-15  1.444109E-15 -1.292249E-14 -3.224687E-15
         2   5 -2.224821E-05 -2.224821E-05 -1.005979E-14 -4.023873E-17  1.667371E-14  4.181481E-15
         2   6 -2.224821E-05 -2.224821E-05 -3.749378E-15 -4.023873E-17 -9.597346E-15  1.133245E-15
         2   7 -2.224821E-05 -2.224821E-05 -6.677916E-14 -1.501733E-16  3.582315E-14  2.232409E-15
         2   8 -2.224821E-05 -2.224821E-05 -6.548896E-14  8.606844E-15 -1.234045E-14 -1.649468E-15
         3   1 -2.224821E-05 -2.224821E-05  5.490480E-14  4.879425E-14  5.962813E-14  1.614366E-15
         3   2 -2.224821E-05 -2.224821E-05  8.794429E-14  3.128022E-14 -1.670989E-15 -2.003347E-15
         3   3 -2.224821E-05 -2.224821E-05  9.799638E-14  3.855493E-14  7.096144E-14 -3.330418E-15
         3   4 -2.224821E-05 -2.224821E-05  8.882070E-14 -5.230159E-15  7.971846E-14  5.415833E-17
         3   5 -2.224821E-05 -2.224821E-05 -4.086016E-14 -1.596311E-16 -4.361072E-14  1.096968E-14
         3   6 -2.224821E-05 -2.224821E-05  6.884125E-15 -1.767367E-14  5.709498E-14 -9.534098E-15
         3   7 -2.224821E-05 -2.224821E-05 -1.747188E-14 -5.957519E-16  3.378626E-15  6.024894E-15
         3   8 -2.224821E-05 -2.224821E-05 -1.194275E-14  1.691828E-14 -5.378392E-15 -7.476592E-15
         4   1 -2.224821E-05 -2.224821E-05  2.448096E-14  1.801073E-14  4.738263E-16  3.504383E-14
         4   2 -2.224821E-05 -2.224821E-05 -4.246338E-14  1.936772E-14  9.614743E-16  3.729407E-15
         4   3 -2.224821E-05 -2.224821E-05  2.662409E-14 -3.453138E-14 -7.928236E-16  1.752980E-14
         4   4 -2.224821E-05 -2.224821E-05 -4.486134E-14 -3.317438E-14 -1.949290E-15 -5.027611E-15
         4   5 -2.224821E-05 -2.224821E-05 -6.644367E-14 -3.537388E-14  1.280696E-15  4.437328E-15
         4   6 -2.224821E-05 -2.224821E-05  6.692877E-14 -3.631864E-14  1.768344E-15 -6.800989E-15
         4   7 -2.224821E-05 -2.224821E-05 -6.775317E-14 -3.458082E-16 -1.802393E-15  5.881903E-17
         4   8 -2.224821E-05 -2.224821E-05  6.107817E-14 -1.290574E-15 -2.958859E-15 -3.745055E-14
         5   1 -2.224821E-05 -2.224821E-05 -2.062650E-14  1.313553E-14  1.793703E-14 -7.407016E-14
         5   2 -2.224821E-05 -2.224821E-05 -3.122375E-14  2.189254E-15  3.326181E-14  5.028945E-15
         5   3 -2.224821E-05 -2.224821E-05 -5.754356E-14  4.378509E-14 -1.480315E-15  3.644923E-16
         5   4 -2.224821E-05 -2.224821E-05 -3.481548E-14  6.567763E-15 -4.088689E-14 -2.780987E-14
         5   5 -2.224821E-05 -2.224821E-05 -8.630414E-14 -2.627105E-14 -1.476218E-14 -4.680329E-14
         5   6 -2.224821E-05 -2.224821E-05 -3.450764E-14  5.286010E-31  2.751858E-15 -6.916164E-15
         5   7 -2.224821E-05 -2.224821E-05 -1.232212E-13 -3.502807E-14 -5.524609E-15  1.360304E-15
         5   8 -2.224821E-05 -2.224821E-05 -9.392534E-14  5.187198E-31 -3.179566E-14  2.811191E-14
         6   1 -2.224821E-05 -2.224821E-05  7.510140E-15 -3.502807E-14  8.979348E-14 -2.736165E-14
         6   2 -2.224821E-05 -2.224821E-05  1.383331E-13 -4.378509E-14 -5.907582E-14 -1.402107E-15
         6   3 -2.224821E-05 -2.224821E-05  6.937356E-14 -2.137190E-32  3.475061E-14  3.287909E-15
         6   4 -2.224821E-05 -2.224821E-05  1.200206E-13 -3.064956E-14  3.475061E-14  9.544165E-15
         6   5 -2.224821E-05 -2.224821E-05 -8.443855E-14  4.378509E-14  5.849314E-14 -9.621898E-15
         6   6 -2.224821E-05 -2.224821E-05  3.693948E-15  6.129912E-14  5.849314E-14 -1.441918E-14
         6   7 -2.224821E-05 -2.224821E-05 -8.825276E-14  3.502807E-14  3.399257E-14  2.978468E-14
         6   8 -2.224821E-05 -2.224821E-05 -1.032834E-13  1.751404E-14  7.721516E-15  9.662619E-15
         7   1 -2.224821E-05 -2.224821E-05  5.001872E-15  5.277932E-14 -1.013776E-15 -7.778253E-14
         7   2 -2.224821E-05 -2.224821E-05 -5.258785E-14  5.342739E-14 -4.391522E-15  1.580306E-15
         7   3 -2.224821E-05 -2.224821E-05  1.301331E-14  2.372104E-16  2.868188E-15  1.061148E-13
         7   4 -2.224821E-05 -2.224821E-05 -4.082205E-14  8.852816E-16  8.594418E-15  3.660838E-14
         7   5 -2.224821E-05 -2.224821E-05 -1.334467E-13 -6.515373E-14 -4.057187E-16  3.846360E-15
         7   6 -2.224821E-05 -2.224821E-05  2.569980E-14 -5.176009E-14 -3.783464E-15 -8.605090E-14
         7   7 -2.224821E-05 -2.224821E-05 -1.063169E-13  4.902411E-15  4.977993E-15 -3.118171E-14
         7   8 -2.224821E-05 -2.224821E-05  5.658395E-14  1.829605E-14  1.070422E-14  5.897784E-15
         8   1 -2.224821E-05 -2.224821E-05  1.651748E-14  6.129912E-14 -2.656685E-14 -7.957857E-14
         8   2 -2.224821E-05 -2.224821E-05  9.037724E-14  6.348838E-14 -1.343133E-14  7.572486E-16
         8   3 -2.224821E-05 -2.224821E-05  1.785738E-14  8.757018E-15  5.814747E-14  1.043188E-13
         8   4 -2.224821E-05 -2.224821E-05  2.987170E-14  2.189254E-14  5.605369E-15  1.827128E-14
         8   5 -2.224821E-05 -2.224821E-05 -1.608121E-13 -7.005614E-14 -5.044076E-14 -2.856556E-15
         8   6 -2.224821E-05 -2.224821E-05  2.469960E-14 -1.751404E-14 -1.541269E-14 -2.344496E-14
         8   7 -2.224821E-05 -2.224821E-05 -1.529045E-13  2.290412E-32  3.843356E-14  3.217151E-14
         8   8 -2.224821E-05 -2.224821E-05  6.927829E-14  2.627105E-14 -9.730041E-15 -4.095900E-14
         9   1 -2.224821E-05 -2.224821E-05 -6.286770E-15 -3.502807E-14 -7.784715E-15 -1.061065E-13
         9   2 -2.224821E-05 -2.224821E-05  1.317094E-13 -4.378509E-14 -4.719129E-14  3.970054E-14
         9   3 -2.224821E-05 -2.224821E-05  8.594873E-14  3.502807E-14  9.861579E-14  7.734691E-15
         9   4 -2.224821E-05 -2.224821E-05  1.402850E-13  4.378509E-15  3.731666E-14 -8.463052E-15
         9   5 -2.224821E-05 -2.224821E-05  1.907461E-13  7.005614E-14 -1.388535E-14 -2.367585E-14
         9   6 -2.224821E-05 -2.224821E-05  6.603182E-14  3.502807E-14 -7.498266E-16  1.423262E-14
         9   7 -2.224821E-05 -2.224821E-05  1.122198E-13 -3.388487E-32  4.591566E-14 -6.161810E-15
         9   8 -2.224821E-05 -2.224821E-05 -1.077352E-14  3.857818E-34  2.840162E-14  1.097096E-15

 strains (elem, integ.pnt.,exx,eyy,ezz,exy,exz,eyz) forset EALL and time  0.1297812E+00

         1   1 -7.416071E-11 -7.416071E-11  6.356632E-11  3.837019E-27 -6.058452E-28  4.846761E-27
         1   2 -7.416071E-11 -7.416071E-11  6.356632E-11 -6.462349E-27 -2.423381E-27 -2.827277E-27
         1   3 -7.416071E-11 -7.416071E-11  6.356632E-11  2.160848E-26  3.231174E-27  1.130911E-26
         1   4 -7.416071E-11 -7.416071E-11  6.356632E-11  1.130911E-26  1.292470E-26 -1.050132E-26
         1   5 -7.416071E-11 -7.416071E-11  6.356632E-11 -8.077936E-28 -6.058452E-28  3.231174E-27
         1   6 -7.416071E-11 -7.416071E-11  6.356632E-11 -1.615587E-27 -2.423381E-27 -2.827277E-27
         1   7 -7.416071E-11 -7.416071E-11  6.356632E-11 -5.654555E-27  2.423381E-27  9.693523E-27
         1   8 -7.416071E-11 -7.416071E-11  6.356632E-11 -6.462349E-27  1.292470E-26 -1.050132E-26
         2   1 -7.416071E-11 -7.416071E-11  6.356632E-11  1.108156E-19  8.718406E-20  3.702971E-21
         2   2 -7.416071E-11 -7.416071E-11  6.356632E-11  1.514732E-19  4.652648E-20 -2.736028E-21
         2   3 -7.416071E-11 -7.416071E-11  6.356632E-11  1.173599E-19  1.097390E-19 -8.362715E-21
         2   4 -7.416071E-11 -7.416071E-11  6.356632E-11  8.939723E-21 -7.999634E-20 -1.996235E-20
         2   5 -7.416071E-11 -7.416071E-11  6.356632E-11 -2.490969E-22  1.032182E-19  2.588536E-20
         2   6 -7.416071E-11 -7.416071E-11  6.356632E-11 -2.490969E-22 -5.941214E-20  7.015328E-21
         2   7 -7.416071E-11 -7.416071E-11  6.356632E-11 -9.296444E-22  2.217623E-19  1.381967E-20
         2   8 -7.416071E-11 -7.416071E-11  6.356632E-11  5.328046E-20 -7.639325E-20 -1.021099E-20
         3   1 -7.416071E-11 -7.416071E-11  6.356632E-11  3.020597E-19  3.691265E-19  9.993692E-21
         3   2 -7.416071E-11 -7.416071E-11  6.356632E-11  1.936394E-19 -1.034422E-20 -1.240167E-20
         3   3 -7.416071E-11 -7.416071E-11  6.356632E-11  2.386734E-19  4.392851E-19 -2.061687E-20
         3   4 -7.416071E-11 -7.416071E-11  6.356632E-11 -3.237718E-20  4.934952E-19  3.352658E-22
         3   5 -7.416071E-11 -7.416071E-11  6.356632E-11 -9.881924E-22 -2.699711E-19  6.790753E-20
         3   6 -7.416071E-11 -7.416071E-11  6.356632E-11 -1.094084E-19  3.534451E-19 -5.902061E-20
         3   7 -7.416071E-11 -7.416071E-11  6.356632E-11 -3.687988E-21  2.091530E-20  3.729696E-20
         3   8 -7.416071E-11 -7.416071E-11  6.356632E-11  1.047322E-19 -3.329480E-20 -4.628367E-20
         4   1 -7.416071E-11 -7.416071E-11  6.356632E-11  1.114950E-19  2.933211E-21  2.169380E-19
         4   2 -7.416071E-11 -7.416071E-11  6.356632E-11  1.198954E-19  5.951984E-21  2.308681E-20
         4   3 -7.416071E-11 -7.416071E-11  6.356632E-11 -2.137657E-19 -4.907956E-21  1.085178E-19
         4   4 -7.416071E-11 -7.416071E-11  6.356632E-11 -2.053652E-19 -1.206703E-20 -3.112330E-20
         4   5 -7.416071E-11 -7.416071E-11  6.356632E-11 -2.189812E-19  7.928117E-21  2.746917E-20
         4   6 -7.416071E-11 -7.416071E-11  6.356632E-11 -2.248297E-19  1.094689E-20 -4.210136E-20
         4   7 -7.416071E-11 -7.416071E-11  6.356632E-11 -2.140718E-21 -1.115767E-20  3.641178E-22
         4   8 -7.416071E-11 -7.416071E-11  6.356632E-11 -7.989266E-21 -1.831675E-20 -2.318367E-19
         5   1 -7.416071E-11 -7.416071E-11  6.356632E-11  8.131516E-20  1.110388E-19 -4.585295E-19
         5   2 -7.416071E-11 -7.416071E-11  6.356632E-11  1.355253E-20  2.059064E-19  3.113157E-20
         5   3 -7.416071E-11 -7.416071E-11  6.356632E-11  2.710505E-19 -9.163853E-21  2.256381E-21
         5   4 -7.416071E-11 -7.416071E-11  6.356632E-11  4.065758E-20 -2.531093E-19 -1.721563E-19
         5   5 -7.416071E-11 -7.416071E-11  6.356632E-11 -1.626303E-19 -9.138491E-20 -2.897347E-19
         5   6 -7.416071E-11 -7.416071E-11  6.356632E-11 -3.309252E-36  1.703531E-20 -4.281435E-20
         5   7 -7.416071E-11 -7.416071E-11  6.356632E-11 -2.168404E-19 -3.419996E-20  8.420928E-21
         5   8 -7.416071E-11 -7.416071E-11  6.356632E-11 -3.319382E-36 -1.968303E-19  1.740261E-19
         6   1 -7.416071E-11 -7.416071E-11  6.356632E-11 -2.168404E-19  5.558644E-19 -1.693817E-19
         6   2 -7.416071E-11 -7.416071E-11  6.356632E-11 -2.710505E-19 -3.657075E-19 -8.679710E-21
         6   3 -7.416071E-11 -7.416071E-11  6.356632E-11  1.409894E-37  2.151228E-19  2.035372E-20
         6   4 -7.416071E-11 -7.416071E-11  6.356632E-11 -1.897354E-19  2.151228E-19  5.908293E-20
         6   5 -7.416071E-11 -7.416071E-11  6.356632E-11  2.710505E-19  3.621004E-19 -5.956413E-20
         6   6 -7.416071E-11 -7.416071E-11  6.356632E-11  3.794708E-19  3.621004E-19 -8.926159E-20
         6   7 -7.416071E-11 -7.416071E-11  6.356632E-11  2.168404E-19  2.104302E-19  1.843814E-19
         6   8 -7.416071E-11 -7.416071E-11  6.356632E-11  1.084202E-19  4.779986E-20  5.981621E-20
         7   1 -7.416071E-11 -7.416071E-11  6.356632E-11  3.267291E-19 -6.275758E-21 -4.815109E-19
         7   2 -7.416071E-11 -7.416071E-11  6.356632E-11  3.307410E-19 -2.718561E-20  9.782849E-21
         7   3 -7.416071E-11 -7.416071E-11  6.356632E-11  1.468446E-21  1.775545E-20  6.569014E-19
         7   4 -7.416071E-11 -7.416071E-11  6.356632E-11  5.480315E-21  5.320354E-20  2.266233E-19
         7   5 -7.416071E-11 -7.416071E-11  6.356632E-11 -4.033326E-19 -2.511592E-21  2.381080E-20
         7   6 -7.416071E-11 -7.416071E-11  6.356632E-11 -3.204196E-19 -2.342144E-20 -5.326960E-19
         7   7 -7.416071E-11 -7.416071E-11  6.356632E-11  3.034826E-20  3.081615E-20 -1.930296E-19
         7   8 -7.416071E-11 -7.416071E-11  6.356632E-11  1.132612E-19  6.626424E-20  3.651009E-20
         8   1 -7.416071E-11 -7.416071E-11  6.356632E-11  3.794708E-19 -1.644615E-19 -4.926292E-19
         8   2 -7.416071E-11 -7.416071E-11  6.356632E-11  3.930233E-19 -8.314631E-20  4.687729E-21
         8   3 -7.416071E-11 -7.416071E-11  6.356632E-11  5.421011E-20  3.599606E-19  6.457830E-19
         8   4 -7.416071E-11 -7.416071E-11  6.356632E-11  1.355253E-19  3.469990E-20  1.131079E-19
         8   5 -7.416071E-11 -7.416071E-11  6.356632E-11 -4.336809E-19 -3.122523E-19 -1.768344E-20
         8   6 -7.416071E-11 -7.416071E-11  6.356632E-11 -1.084202E-19 -9.541187E-20 -1.451355E-19
         8   7 -7.416071E-11 -7.416071E-11  6.356632E-11 -4.580076E-39  2.379220E-19  1.991570E-19
         8   8 -7.416071E-11 -7.416071E-11  6.356632E-11  1.626303E-19 -6.023359E-20 -2.535557E-19
         9   1 -7.416071E-11 -7.416071E-11  6.356632E-11 -2.168404E-19 -4.819109E-20 -6.568500E-19
         9   2 -7.416071E-11 -7.416071E-11  6.356632E-11 -2.710505E-19 -2.921366E-19  2.457653E-19
         9   3 -7.416071E-11 -7.416071E-11  6.356632E-11  2.168404E-19  6.104787E-19  4.788142E-20
         9   4 -7.416071E-11 -7.416071E-11  6.356632E-11  2.710505E-20  2.310079E-19 -5.239032E-20
         9   5 -7.416071E-11 -7.416071E-11  6.356632E-11  4.336809E-19 -8.595695E-20 -1.465648E-19
         9   6 -7.416071E-11 -7.416071E-11  6.356632E-11  2.168404E-19 -4.641784E-21  8.810671E-20
         9   7 -7.416071E-11 -7.416071E-11  6.356632E-11 -5.340902E-38  2.842398E-19 -3.814454E-20
         9   8 -7.416071E-11 -7.416071E-11  6.356632E-11 -2.029872E-39  1.758196E-19  6.791545E-21

 displacements (vx,vy,vz) for set NALL and time  0.1387812E+00

         1  0.000000E+00  0.000000E+00  0.000000E+00
         2 -3.965178E-08  0.000000E+00  0.000000E+00
         3 -2.081719E+00  0.000000E+00  0.000000E+00
         4 -2.081719E+00  0.000000E+00  0.000000E+00
         5 -4.163437E+00  0.000000E+00  0.000000E+00
         6 -4.163437E+00  0.000000E+00  0.000000E+00
         7  0.000000E+00 -3.965178E-08  0.000000E+00
         8 -3.965178E-08 -3.965178E-08  0.000000E+00
         9 -2.081719E+00 -3.965178E-08  0.000000E+00
        10 -2.081719E+00 -3.965178E-08  0.000000E+00
        11 -4.163437E+00 -3.965178E-08  0.000000E+00
        12 -4.163437E+00 -3.965178E-08  0.000000E+00
        13  0.000000E+00 -2.081719E+00  0.000000E+00
        14 -3.965178E-08 -2.081719E+00  0.000000E+00
        15 -2.081719E+00 -2.081719E+00  0.000000E+00
        16 -2.081719E+00 -2.081719E+00  0.000000E+00
        17 -4.163437E+00 -2.081719E+00  0.000000E+00
        18 -4.163437E+00 -2.081719E+00  0.000000E+00
        19  0.000000E+00 -2.081719E+00  0.000000E+00
        20 -3.965178E-08 -2.081719E+00  0.000000E+00
        21 -2.081719E+00 -2.081719E+00  0.000000E+00
        22 -2.081719E+00 -2.081719E+00  0.000000E+00
        23 -4.163437E+00 -2.081719E+00  0.000000E+00
        24 -4.163437E+00 -2.081719E+00  0.000000E+00
        25  0.000000E+00 -4.163437E+00  0.000000E+00
        26 -3.965178E-08 -4.163437E+00  0.000000E+00
        27 -2.081719E+00 -4.163437E+00  0.000000E+00
        28 -2.081719E+00 -4.163437E+00  0.000000E+00
        29 -4.163437E+00 -4.163437E+00  0.000000E+00
        30 -4.163437E+00 -4.163437E+00  0.000000E+00
        31  0.000000E+00 -4.163437E+00  0.000000E+00
        32 -3.965178E-08 -4.163437E+00  0.000000E+00
        33 -2.081719E+00 -4.163437E+00  0.000000E+00
        34 -2.081719E+00 -4.163437E+00  0.000000E+00
        35 -4.163437E+00 -4.163437E+00  0.000000E+00
        36 -4.163437E+00 -4.163437E+00  0.000000E+00
        37  0.000000E+00  0.000000E+00  4.758214E-08
        38 -3.965178E-08  0.000000E+00  4.758214E-08
        39 -2.081719E+00  0.000000E+00  4.758214E-08
        40 -2.081719E+00  0.000000E+00  4.758214E-08
        41 -4.163437E+00  0.000000E+00  4.758214E-08
        42 -4.163437E+00  0.000000E+00  4.758214E-08
        43  0.000000E+00 -3.965178E-08  4.758214E-08
        44 -3.965178E-08 -3.965178E-08  4.758214E-08
        45 -2.081719E+00 -3.965178E-08  4.758214E-08
        46 -2.081719E+00 -3.965178E-08  4.758214E-08
        47 -4.163437E+00 -3.965178E-08  4.758214E-08
        48 -4.163437E+00 -3.965178E-08  4.758214E-08
        49  0.000000E+00 -2.081719E+00  4.758214E-08
        50 -3.965178E-08 -2.081719E+00  4.758214E-08
        51 -2.081719E+00 -2.081719E+00  4.758214E-08
        52 -2.081719E+00 -2.081719E+00  4.758214E-08
        53 -4.163437E+00 -2.081719E+00  4.758214E-08
        54 -4.163437E+00 -2.081719E+00  4.758214E-08
        55  0.000000E+00 -2.081719E+00  4.758214E-08
        56 -3.965178E-08 -2.081719E+00  4.758214E-08
        57 -2.081719E+00 -2.081719E+00  4.758214E-08
        58 -2.081719E+00 -2.081719E+00  4.758214E-08
        59 -4.163437E+00 -2.081719E+00  4.758214E-08
        60 -4.163437E+00 -2.081719E+00  4.758214E-08
        61  0.000000E+00 -4.163437E+00  4.758214E-08
        62 -3.965178E-08 -4.163437E+00  4.758214E-08
        63 -2.081719E+00 -4.163437E+00  4.758214E-08
        64 -2.081719E+00 -4.163437E+00  4.758214E-08
        65 -4.163437E+00 -4.163437E+00  4.758214E-08
        66 -4.163437E+00 -4.163437E+00  4.758214E-08
        67  0.000000E+00 -4.163437E+00  4.758214E-08
        68 -3.965178E-08 -4.163437E+00  4.758214E-08
        69 -2.081719E+00 -4.163437E+00  4.758214E-08
        70 -2.081719E+00 -4.163437E+00  4.758214E-08
        71 -4.163437E+00 -4.163437E+00  4.758214E-08
        72 -4.163437E+00 -4.163437E+00  4.758214E-08

 stresses (elem, integ.pnt.,sxx,syy,szz,sxy,sxz,syz) for set EALL and time  0.1387812E+00

         1   1 -2.379107E-05 -2.379107E-05 -3.388132E-21  1.468009E-21 -6.524487E-23  5.219589E-22
         1   2 -2.379107E-05 -2.379107E-05  3.162263E-49  3.196998E-21 -4.567141E-22  1.631122E-22
         1   3 -2.379107E-05 -2.379107E-05 -3.388132E-21  4.012559E-21 -5.219589E-22  1.565877E-21
         1   4 -2.379107E-05 -2.379107E-05  3.388132E-21  5.741548E-21 -2.609795E-21 -1.304897E-22
         1   5 -2.379107E-05 -2.379107E-05 -3.388132E-21  2.627435E-46  1.304897E-22  5.219589E-22
         1   6 -2.379107E-05 -2.379107E-05 -3.388132E-21  1.304897E-22 -2.609795E-22  9.460505E-22
         1   7 -2.379107E-05 -2.379107E-05  1.011924E-47  3.914692E-22  3.914692E-22  1.043918E-21
         1   8 -2.379107E-05 -2.379107E-05 -1.011924E-47  5.219589E-22 -1.043918E-21  6.524487E-22
         2   1 -2.379107E-05 -2.379107E-05  8.852679E-14 -2.870336E-14 -4.278394E-15  1.363816E-16
         2   2 -2.379107E-05 -2.379107E-05  1.091486E-13 -1.994634E-14  4.478623E-15  1.328640E-17
         2   3 -2.379107E-05 -2.379107E-05  1.233974E-13 -3.534853E-14  2.018264E-14 -4.244411E-15
         2   4 -2.379107E-05 -2.379107E-05  1.316566E-13 -6.888226E-15 -1.484543E-14  2.412579E-16
         2   5 -2.379107E-05 -2.379107E-05  8.917877E-14 -3.509868E-14  7.957434E-15  4.889775E-15
         2   6 -2.379107E-05 -2.379107E-05  1.194790E-13  3.495746E-14 -7.367347E-15 -1.783869E-16
         2   7 -2.379107E-05 -2.379107E-05  7.479120E-14 -3.529159E-14  9.959365E-15  5.089835E-16
         2   8 -2.379107E-05 -2.379107E-05  9.272874E-14  1.725052E-14 -7.554671E-15  4.958558E-17
         3   1 -2.379107E-05 -2.379107E-05  1.161759E-14 -3.867211E-14 -6.065366E-14  2.105648E-15
         3   2 -2.379107E-05 -2.379107E-05  6.090416E-14  2.262701E-14  2.253801E-14 -1.390250E-15
         3   3 -2.379107E-05 -2.379107E-05  4.286019E-14 -4.862782E-14 -2.963472E-14  3.242657E-15
         3   4 -2.379107E-05 -2.379107E-05  6.476391E-14  8.292789E-15 -1.212068E-14  1.148928E-15
         3   5 -2.379107E-05 -2.379107E-05 -1.883351E-14 -2.925522E-15  5.260457E-14  6.721375E-15
         3   6 -2.379107E-05 -2.379107E-05  3.339762E-14 -2.043956E-14 -7.437218E-14 -7.727665E-15
         3   7 -2.379107E-05 -2.379107E-05  1.897686E-14 -1.091820E-14  5.515634E-14  7.858384E-15
         3   8 -2.379107E-05 -2.379107E-05  4.382513E-14  6.595838E-15 -1.489980E-14 -5.188485E-15
         4   1 -2.379107E-05 -2.379107E-05 -2.995177E-14 -1.431668E-14 -1.172408E-15  2.261587E-14
         4   2 -2.379107E-05 -2.379107E-05 -2.270213E-14 -5.581354E-15  5.860178E-15  4.103082E-14
         4   3 -2.379107E-05 -2.379107E-05 -4.181414E-14 -5.559665E-15  1.701725E-15 -3.655182E-15
         4   4 -2.379107E-05 -2.379107E-05  1.644751E-14  3.175663E-15 -3.818210E-15 -1.370054E-14
         4   5 -2.379107E-05 -2.379107E-05 -1.071320E-13 -3.826308E-14 -1.140807E-14  2.138674E-14
         4   6 -2.379107E-05 -2.379107E-05 -6.704356E-14 -4.710128E-14 -4.375487E-15  4.050320E-14
         4   7 -2.379107E-05 -2.379107E-05 -1.453547E-13 -3.235007E-15  1.187086E-14  3.872709E-15
         4   8 -2.379107E-05 -2.379107E-05 -5.425422E-14 -1.207321E-14  6.350926E-15  5.475131E-15
         5   1 -2.379107E-05 -2.379107E-05 -1.039510E-14  2.408180E-14 -2.306325E-14  1.487879E-14
         5   2 -2.379107E-05 -2.379107E-05  2.793398E-14  4.211902E-31 -3.400953E-14  2.405209E-15
         5   3 -2.379107E-05 -2.379107E-05 -2.769250E-14  1.751404E-14 -5.087630E-16 -1.139226E-14
         5   4 -2.379107E-05 -2.379107E-05 -1.146413E-14 -4.378509E-15 -5.087630E-16 -3.262286E-14
         5   5 -2.379107E-05 -2.379107E-05  9.308184E-15  6.129912E-14 -4.932745E-14 -1.218131E-14
         5   6 -2.379107E-05 -2.379107E-05  4.946805E-15  1.751404E-14  2.510720E-14  3.305816E-14
         5   7 -2.379107E-05 -2.379107E-05 -2.769250E-14  1.160092E-32  1.561531E-14  4.036080E-14
         5   8 -2.379107E-05 -2.379107E-05 -9.684505E-14 -3.502807E-14 -2.816978E-14  1.773338E-14
         6   1 -2.379107E-05 -2.379107E-05 -1.414774E-13 -8.757018E-15  2.992665E-14 -1.956978E-15
         6   2 -2.379107E-05 -2.379107E-05 -4.684596E-14 -4.378509E-15  4.744069E-14  1.280323E-14
         6   3 -2.379107E-05 -2.379107E-05 -6.805950E-14 -8.574928E-33 -5.665986E-15  6.809916E-14
         6   4 -2.379107E-05 -2.379107E-05 -1.133267E-13 -1.239550E-31 -5.820809E-14  8.504863E-14
         6   5 -2.379107E-05 -2.379107E-05 -1.349096E-13 -3.502807E-14 -6.217589E-15  4.930271E-14
         6   6 -2.379107E-05 -2.379107E-05  2.412265E-15 -1.488005E-32 -7.627373E-14 -2.842775E-15
         6   7 -2.379107E-05 -2.379107E-05 -1.074661E-13  8.675200E-32  4.891039E-14  9.308780E-14
         6   8 -2.379107E-05 -2.379107E-05 -1.198944E-13  6.914698E-32  3.139636E-14  6.064560E-14
         7   1 -2.379107E-05 -2.379107E-05 -4.273977E-14  3.489632E-14  5.212249E-15  1.334429E-14
         7   2 -2.379107E-05 -2.379107E-05 -4.783780E-14  3.453635E-14  1.098317E-14 -6.294976E-14
         7   3 -2.379107E-05 -2.379107E-05  4.786351E-14 -1.317551E-16 -4.009803E-15  8.340043E-14
         7   4 -2.379107E-05 -2.379107E-05  1.597470E-16 -4.917169E-16 -6.391705E-15 -6.294976E-14
         7   5 -2.379107E-05 -2.379107E-05 -4.349778E-15  6.574659E-14  1.368146E-14 -3.776859E-14
         7   6 -2.379107E-05 -2.379107E-05 -6.198992E-14  5.397267E-14  1.945238E-14  7.468498E-14
         7   7 -2.379107E-05 -2.379107E-05  6.913257E-14  6.574659E-14 -1.258289E-14 -2.025456E-14
         7   8 -2.379107E-05 -2.379107E-05 -3.111329E-14  5.397267E-14 -1.496479E-14 -8.506689E-15
         8   1 -2.379107E-05 -2.379107E-05  2.764938E-14  2.627105E-14 -1.919471E-14  1.351743E-14
         8   2 -2.379107E-05 -2.379107E-05 -1.010088E-14  3.064956E-14  5.961845E-14 -6.254877E-14
         8   3 -2.379107E-05 -2.379107E-05  1.101235E-13 -8.757018E-15  2.733734E-14  1.351743E-14
         8   4 -2.379107E-05 -2.379107E-05  4.445927E-14  6.567763E-15  9.823303E-15  6.004947E-14
         8   5 -2.379107E-05 -2.379107E-05  8.347536E-14  3.502807E-14 -2.378639E-14 -3.712245E-14
         8   6 -2.379107E-05 -2.379107E-05  9.826721E-14  4.378509E-14  2.484661E-15  8.055998E-14
         8   7 -2.379107E-05 -2.379107E-05  1.758011E-13 -3.502807E-14 -1.118817E-14  5.044773E-14
         8   8 -2.379107E-05 -2.379107E-05  7.073032E-14 -5.254211E-14 -2.431150E-15 -5.955230E-14
         9   1 -2.379107E-05 -2.379107E-05  3.735790E-14  7.735429E-32 -5.435328E-14 -5.004887E-14
         9   2 -2.379107E-05 -2.379107E-05  1.185185E-14  3.940658E-14 -9.375985E-14 -6.218670E-14
         9   3 -2.379107E-05 -2.379107E-05  7.409031E-14 -3.502807E-14 -8.134748E-16  2.493236E-15
         9   4 -2.379107E-05 -2.379107E-05  4.883088E-14 -2.153551E-32  1.670056E-14 -4.905117E-14
         9   5 -2.379107E-05 -2.379107E-05  3.079014E-14  7.005614E-14 -6.759379E-15 -6.075126E-14
         9   6 -2.379107E-05 -2.379107E-05 -3.412248E-14  5.254211E-14  5.016124E-14 -8.864213E-15
         9   7 -2.379107E-05 -2.379107E-05  7.409031E-14  7.005614E-14 -3.035930E-15  9.304882E-15
         9   8 -2.379107E-05 -2.379107E-05 -3.655004E-14  8.757018E-14  3.199214E-14  4.805640E-14

 strains (elem, integ.pnt.,exx,eyy,ezz,exy,exz,eyz) forset EALL and time  0.1387812E+00

         1   1 -7.930357E-11 -7.930357E-11  6.797449E-11  9.087678E-27 -4.038968E-28  3.231174E-27
         1   2 -7.930357E-11 -7.930357E-11  6.797449E-11  1.979094E-26 -2.827277E-27  1.009742E-27
         1   3 -7.930357E-11 -7.930357E-11  6.797449E-11  2.483965E-26 -3.231174E-27  9.693523E-27
         1   4 -7.930357E-11 -7.930357E-11  6.797449E-11  3.554292E-26 -1.615587E-26 -8.077936E-28
         1   5 -7.930357E-11 -7.930357E-11  6.797449E-11 -1.597395E-51  8.077936E-28  3.231174E-27
         1   6 -7.930357E-11 -7.930357E-11  6.797449E-11  8.077936E-28 -1.615587E-27  5.856503E-27
         1   7 -7.930357E-11 -7.930357E-11  6.797449E-11  2.423381E-27  2.423381E-27  6.462349E-27
         1   8 -7.930357E-11 -7.930357E-11  6.797449E-11  3.231174E-27 -6.462349E-27  4.038968E-27
         2   1 -7.930357E-11 -7.930357E-11  6.797449E-11 -1.776874E-19 -2.648530E-20  8.442671E-22
         2   2 -7.930357E-11 -7.930357E-11  6.797449E-11 -1.234773E-19  2.772481E-20  8.224914E-23
         2   3 -7.930357E-11 -7.930357E-11  6.797449E-11 -2.188243E-19  1.249401E-19 -2.627492E-20
         2   4 -7.930357E-11 -7.930357E-11  6.797449E-11 -4.264140E-20 -9.190029E-20  1.493501E-21
         2   5 -7.930357E-11 -7.930357E-11  6.797449E-11 -2.172775E-19  4.926031E-20  3.027004E-20
         2   6 -7.930357E-11 -7.930357E-11  6.797449E-11  2.164033E-19 -4.560738E-20 -1.104300E-21
         2   7 -7.930357E-11 -7.930357E-11  6.797449E-11 -2.184717E-19  6.165321E-20  3.150851E-21
         2   8 -7.930357E-11 -7.930357E-11  6.797449E-11  1.067889E-19 -4.676701E-20  3.069583E-22
         3   1 -7.930357E-11 -7.930357E-11  6.797449E-11 -2.393988E-19 -3.754750E-19  1.303496E-20
         3   2 -7.930357E-11 -7.930357E-11  6.797449E-11  1.400720E-19  1.395210E-19 -8.606312E-21
         3   3 -7.930357E-11 -7.930357E-11  6.797449E-11 -3.010294E-19 -1.834530E-19  2.007359E-20
         3   4 -7.930357E-11 -7.930357E-11  6.797449E-11  5.133631E-20 -7.503279E-20  7.112410E-21
         3   5 -7.930357E-11 -7.930357E-11  6.797449E-11 -1.811038E-20  3.256473E-19  4.160851E-20
         3   6 -7.930357E-11 -7.930357E-11  6.797449E-11 -1.265306E-19 -4.603992E-19 -4.783792E-20
         3   7 -7.930357E-11 -7.930357E-11  6.797449E-11 -6.758884E-20  3.414440E-19  4.864714E-20
         3   8 -7.930357E-11 -7.930357E-11  6.797449E-11  4.083138E-20 -9.223687E-20 -3.211920E-20
         4   1 -7.930357E-11 -7.930357E-11  6.797449E-11 -8.862708E-20 -7.257764E-21  1.400030E-19
         4   2 -7.930357E-11 -7.930357E-11  6.797449E-11 -3.455124E-20  3.627729E-20  2.540003E-19
         4   3 -7.930357E-11 -7.930357E-11  6.797449E-11 -3.441698E-20  1.053449E-20 -2.262732E-20
         4   4 -7.930357E-11 -7.930357E-11  6.797449E-11  1.965887E-20 -2.363654E-20 -8.481288E-20
         4   5 -7.930357E-11 -7.930357E-11  6.797449E-11 -2.368667E-19 -7.062140E-20  1.323941E-19
         4   6 -7.930357E-11 -7.930357E-11  6.797449E-11 -2.915793E-19 -2.708635E-20  2.507341E-19
         4   7 -7.930357E-11 -7.930357E-11  6.797449E-11 -2.002623E-20  7.348628E-20  2.397391E-20
         4   8 -7.930357E-11 -7.930357E-11  6.797449E-11 -7.473891E-20  3.931526E-20  3.389367E-20
         5   1 -7.930357E-11 -7.930357E-11  6.797449E-11  1.490778E-19 -1.427725E-19  9.210679E-20
         5   2 -7.930357E-11 -7.930357E-11  6.797449E-11 -2.613047E-36 -2.105352E-19  1.488939E-20
         5   3 -7.930357E-11 -7.930357E-11  6.797449E-11  1.084202E-19 -3.149485E-21 -7.052354E-20
         5   4 -7.930357E-11 -7.930357E-11  6.797449E-11 -2.710505E-20 -3.149485E-21 -2.019510E-19
         5   5 -7.930357E-11 -7.930357E-11  6.797449E-11  3.794708E-19 -3.053604E-19 -7.540810E-20
         5   6 -7.930357E-11 -7.930357E-11  6.797449E-11  1.084202E-19  1.554255E-19  2.046457E-19
         5   7 -7.930357E-11 -7.930357E-11  6.797449E-11 -3.324803E-39  9.666617E-20  2.498525E-19
         5   8 -7.930357E-11 -7.930357E-11  6.797449E-11 -2.168404E-19 -1.743844E-19  1.097781E-19
         6   1 -7.930357E-11 -7.930357E-11  6.797449E-11 -5.421011E-20  1.852602E-19 -1.211463E-20
         6   2 -7.930357E-11 -7.930357E-11  6.797449E-11 -2.710505E-20  2.936804E-19  7.925812E-20
         6   3 -7.930357E-11 -7.930357E-11  6.797449E-11  1.675402E-38 -3.507515E-20  4.215662E-19
         6   4 -7.930357E-11 -7.930357E-11  6.797449E-11  3.635985E-38 -3.603358E-19  5.264915E-19
         6   5 -7.930357E-11 -7.930357E-11  6.797449E-11 -2.168404E-19 -3.848984E-20  3.052072E-19
         6   6 -7.930357E-11 -7.930357E-11  6.797449E-11  1.360770E-38 -4.721707E-19 -1.759813E-20
         6   7 -7.930357E-11 -7.930357E-11  6.797449E-11 -9.409708E-38  3.027786E-19  5.762578E-19
         6   8 -7.930357E-11 -7.930357E-11  6.797449E-11  1.525161E-38  1.943584E-19  3.754252E-19
         7   1 -7.930357E-11 -7.930357E-11  6.797449E-11  2.160248E-19  3.226631E-20  8.260753E-20
         7   2 -7.930357E-11 -7.930357E-11  6.797449E-11  2.137965E-19  6.799106E-20 -3.896890E-19
         7   3 -7.930357E-11 -7.930357E-11  6.797449E-11 -8.156269E-22 -2.482259E-20  5.162884E-19
         7   4 -7.930357E-11 -7.930357E-11  6.797449E-11 -3.043962E-21 -3.956770E-20 -3.896890E-19
         7   5 -7.930357E-11 -7.930357E-11  6.797449E-11  4.070027E-19  8.469474E-20 -2.338056E-19
         7   6 -7.930357E-11 -7.930357E-11  6.797449E-11  3.341165E-19  1.204195E-19  4.623356E-19
         7   7 -7.930357E-11 -7.930357E-11  6.797449E-11  4.070027E-19 -7.789405E-20 -1.253853E-19
         7   8 -7.930357E-11 -7.930357E-11  6.797449E-11  3.341165E-19 -9.263916E-20 -5.266045E-20
         8   1 -7.930357E-11 -7.930357E-11  6.797449E-11  1.626303E-19 -1.188244E-19  8.367931E-20
         8   2 -7.930357E-11 -7.930357E-11  6.797449E-11  1.897354E-19  3.690666E-19 -3.872067E-19
         8   3 -7.930357E-11 -7.930357E-11  6.797449E-11 -5.421011E-20  1.692311E-19  8.367931E-20
         8   4 -7.930357E-11 -7.930357E-11  6.797449E-11  4.065758E-20  6.081092E-20  3.717348E-19
         8   5 -7.930357E-11 -7.930357E-11  6.797449E-11  2.168404E-19 -1.472491E-19 -2.298056E-19
         8   6 -7.930357E-11 -7.930357E-11  6.797449E-11  2.710505E-19  1.538124E-20  4.987047E-19
         8   7 -7.930357E-11 -7.930357E-11  6.797449E-11 -2.168404E-19 -6.926008E-20  3.122954E-19
         8   8 -7.930357E-11 -7.930357E-11  6.797449E-11 -3.252607E-19 -1.504998E-20 -3.686571E-19
         9   1 -7.930357E-11 -7.930357E-11  6.797449E-11 -5.912082E-38 -3.364727E-19 -3.098263E-19
         9   2 -7.930357E-11 -7.930357E-11  6.797449E-11  2.439455E-19 -5.804181E-19 -3.849653E-19
         9   3 -7.930357E-11 -7.930357E-11  6.797449E-11 -2.168404E-19 -5.035796E-21  1.543432E-20
         9   4 -7.930357E-11 -7.930357E-11  6.797449E-11 -2.176524E-40  1.033844E-19 -3.036501E-19
         9   5 -7.930357E-11 -7.930357E-11  6.797449E-11  4.336809E-19 -4.184377E-20 -3.760792E-19
         9   6 -7.930357E-11 -7.930357E-11  6.797449E-11  3.252607E-19  3.105219E-19 -5.487370E-20
         9   7 -7.930357E-11 -7.930357E-11  6.797449E-11  4.336809E-19 -1.879385E-20  5.760165E-20
         9   8 -7.930357E-11 -7.930357E-11  6.797449E-11  5.421011E-19  1.980466E-19  2.974920E-19

 displacements (vx,vy,vz) for set NALL and time  0.1477812E+00

         1  0.000000E+00  0.000000E+00  0.000000E+00
         2 -4.222321E-08  0.000000E+00  0.000000E+00
         3 -2.216719E+00  0.000000E+00  0.000000E+00
         4 -2.216719E+00  0.000000E+00  0.000000E+00
         5 -4.433437E+00  0.000000E+00  0.000000E+00
         6 -4.433437E+00  0.000000E+00  0.000000E+00
         7  0.000000E+00 -4.222321E-08  0.000000E+00
         8 -4.222321E-08 -4.222321E-08  0.000000E+00
         9 -2.216719E+00 -4.222321E-08  0.000000E+00
        10 -2.216719E+00 -4.222321E-08  0.000000E+00
        11 -4.433437E+00 -4.222321E-08  0.000000E+00
        12 -4.433437E+00 -4.222321E-08  0.000000E+00
        13  0.000000E+00 -2.216719E+00  0.000000E+00
        14 -4.222321E-08 -2.216719E+00  0.000000E+00
        15 -2.216719E+00 -2.216719E+00  0.000000E+00
        16 -2.216719E+00 -2.216719E+00  0.000000E+00
        17 -4.433437E+00 -2.216719E+00  0.000000E+00
        18 -4.433437E+00 -2.216719E+00  0.000000E+00
        19  0.000000E+00 -2.216719E+00  0.000000E+00
        20 -4.222321E-08 -2.216719E+00  0.000000E+00
        21 -2.216719E+00 -2.216719E+00  0.000000E+00
        22 -2.216719E+00 -2.216719E+00  0.000000E+00
        23 -4.433437E+00 -2.216719E+00  0.000000E+00
        24 -4.433437E+00 -2.216719E+00  0.000000E+00
        25  0.000000E+00 -4.433437E+00  0.000000E+00
        26 -4.222321E-08 -4.433437E+00  0.000000E+00
        27 -2.216719E+00 -4.433437E+00  0.000000E+00
        28 -2.216719E+00 -4.433437E+00  0.000000E+00
        29 -4.433437E+00 -4.433437E+00  0.000000E+00
        30 -4.433437E+00 -4.433437E+00  0.000000E+00
        31  0.000000E+00 -4.433437E+00  0.000000E+00
        32 -4.222321E-08 -4.433437E+00  0.000000E+00
        33 -2.216719E+00 -4.433437E+00  0.000000E+00
        34 -2.216719E+00 -4.433437E+00  0.000000E+00
        35 -4.433437E+00 -4.433437E+00  0.000000E+00
        36 -4.433437E+00 -4.433437E+00  0.000000E+00
        37  0.000000E+00  0.000000E+00  5.066786E-08
        38 -4.222321E-08  0.000000E+00  5.066786E-08
        39 -2.216719E+00  0.000000E+00  5.066786E-08
        40 -2.216719E+00  0.000000E+00  5.066786E-08
        41 -4.433437E+00  0.000000E+00  5.066786E-08
        42 -4.433437E+00  0.000000E+00  5.066786E-08
        43  0.000000E+00 -4.222321E-08  5.066786E-08
        44 -4.222321E-08 -4.222321E-08  5.066786E-08
        45 -2.216719E+00 -4.222321E-08  5.066786E-08
        46 -2.216719E+00 -4.222321E-08  5.066786E-08
        47 -4.433437E+00 -4.222321E-08  5.066786E-08
        48 -4.433437E+00 -4.222321E-08  5.066786E-08
        49  0.000000E+00 -2.216719E+00  5.066786E-08
        50 -4.222321E-08 -2.216719E+00  5.066786E-08
        51 -2.216719E+00 -2.216719E+00  5.066786E-08
        52 -2.216719E+00 -2.216719E+00  5.066786E-08
        53 -4.433437E+00 -2.216719E+00  5.066786E-08
        54 -4.433437E+00 -2.216719E+00  5.066786E-08
        55  0.000000E+00 -2.216719E+00  5.066786E-08
        56 -4.222321E-08 -2.216719E+00  5.066786E-08
        57 -2.216719E+00 -2.216719E+00  5.066786E-08
        58 -2.216719E+00 -2.216719E+00  5.066786E-08
        59 -4.433437E+00 -2.216719E+00  5.066786E-08
        60 -4.433437E+00 -2.216719E+00  5.066786E-08
        61  0.000000E+00 -4.433437E+00  5.066786E-08
        62 -4.222321E-08 -4.433437E+00  5.066786E-08
        63 -2.216719E+00 -4.433437E+00  5.066786E-08
        64 -2.216719E+00 -4.433437E+00  5.066786E-08
        65 -4.433437E+00 -4.433437E+00  5.066786E-08
        66 -4.433437E+00 -4.433437E+00  5.066786E-08
        67  0.000000E+00 -4.433437E+00  5.066786E-08
        68 -4.222321E-08 -4.433437E+00  5.066786E-08
        69 -2.216719E+00 -4.433437E+00  5.066786E-08
        70 -2.216719E+00 -4.433437E+00  5.066786E-08
        71 -4.433437E+00 -4.433437E+00  5.066786E-08
        72 -4.433437E+00 -4.433437E+00  5.066786E-08

 stresses (elem, integ.pnt.,sxx,syy,szz,sxy,sxz,syz) for set EALL and time  0.1477812E+00

         1   1 -2.533393E-05 -2.533393E-05  3.388132E-21  8.481832E-22  6.524487E-23 -8.185834E-32
         1   2 -2.533393E-05 -2.533393E-05 -6.271821E-48  1.957346E-21  4.567141E-22 -2.283570E-22
         1   3 -2.533393E-05 -2.533393E-05 -1.855194E-47  2.022591E-21  2.609795E-22 -1.565877E-21
         1   4 -2.533393E-05 -2.533393E-05  3.388132E-21  3.131754E-21  2.609795E-22 -2.805529E-21
         1   5 -2.533393E-05 -2.533393E-05  9.107317E-47 -3.914692E-22 -5.219589E-22  1.565877E-21
         1   6 -2.533393E-05 -2.533393E-05 -3.388132E-21 -1.304897E-21 -1.304897E-22  1.924724E-21
         1   7 -2.533393E-05 -2.533393E-05  8.095393E-47 -7.829384E-22  1.043918E-21  1.043918E-21
         1   8 -2.533393E-05 -2.533393E-05 -1.939521E-47 -1.565877E-21  1.043918E-21 -6.524487E-22
         2   1 -2.533393E-05 -2.533393E-05  1.124981E-14 -1.614937E-14  2.177323E-14 -5.871933E-16
         2   2 -2.533393E-05 -2.533393E-05 -1.387841E-14  3.553915E-15  3.053025E-14  1.306320E-15
         2   3 -2.533393E-05 -2.533393E-05  1.159446E-14 -1.242105E-14  3.400714E-14  1.611360E-15
         2   4 -2.533393E-05 -2.533393E-05  1.021389E-14  9.471493E-15 -1.853496E-14 -8.210102E-16
         2   5 -2.533393E-05 -2.533393E-05 -5.526382E-16 -7.090822E-14  9.484944E-15 -4.389988E-15
         2   6 -2.533393E-05 -2.533393E-05 -3.476522E-14 -3.588015E-14  1.167420E-14  7.002585E-15
         2   7 -2.533393E-05 -2.533393E-05 -2.319515E-14 -7.323613E-14 -3.810154E-15 -2.191435E-15
         2   8 -2.533393E-05 -2.533393E-05 -3.366009E-14 -2.945104E-14 -3.883822E-14  4.875255E-15
         3   1 -2.533393E-05 -2.533393E-05  1.041052E-13 -4.831907E-15  1.069778E-13 -1.599551E-16
         3   2 -2.533393E-05 -2.533393E-05  9.723682E-14 -4.831907E-15 -4.189154E-14  8.847625E-16
         3   3 -2.533393E-05 -2.533393E-05  1.461376E-13 -1.803292E-14 -2.735585E-15 -6.901518E-15
         3   4 -2.533393E-05 -2.533393E-05  1.076517E-13  1.261664E-14  8.483459E-14  9.644455E-15
         3   5 -2.533393E-05 -2.533393E-05 -1.202206E-13 -6.694465E-14  1.121510E-13  6.144602E-15
         3   6 -2.533393E-05 -2.533393E-05 -9.453625E-14 -1.440255E-14 -1.920423E-14 -5.457714E-15
         3   7 -2.533393E-05 -2.533393E-05 -1.307302E-13 -5.844391E-14  5.984680E-14 -5.969618E-16
         3   8 -2.533393E-05 -2.533393E-05 -1.366635E-13  2.912627E-14  2.481873E-14  3.301979E-15
         4   1 -2.533393E-05 -2.533393E-05  1.338671E-15  2.536129E-14  2.771815E-16 -7.283673E-16
         4   2 -2.533393E-05 -2.533393E-05 -4.806606E-14  2.287579E-14 -1.534048E-15 -4.498399E-14
         4   3 -2.533393E-05 -2.533393E-05 -7.364433E-15 -9.097576E-16 -3.827854E-16 -7.283673E-16
         4   4 -2.533393E-05 -2.533393E-05 -7.493587E-14 -3.395262E-15  3.269607E-15 -1.214518E-14
         4   5 -2.533393E-05 -2.533393E-05 -8.127807E-14 -3.313807E-14  2.845683E-15  1.479573E-14
         4   6 -2.533393E-05 -2.533393E-05 -2.231470E-14 -2.797451E-14  1.034455E-15 -6.077015E-15
         4   7 -2.533393E-05 -2.533393E-05 -7.850756E-14  1.889996E-15 -5.080967E-15  3.230977E-14
         4   8 -2.533393E-05 -2.533393E-05 -3.771091E-14  7.053561E-15 -1.428575E-15 -2.140180E-14
         5   1 -2.533393E-05 -2.533393E-05  6.477120E-14  5.035285E-14 -5.387347E-14  2.882241E-14
         5   2 -2.533393E-05 -2.533393E-05  2.283898E-14  7.005614E-14  2.493969E-14  2.988156E-15
         5   3 -2.533393E-05 -2.533393E-05  7.891339E-14 -3.502807E-14 -4.030115E-14  2.551355E-15
         5   4 -2.533393E-05 -2.533393E-05  1.334269E-14 -4.378509E-15 -5.273075E-15 -3.641842E-14
         5   5 -2.533393E-05 -2.533393E-05 -4.359689E-14 -7.005614E-14  3.005934E-14 -1.674927E-14
         5   6 -2.533393E-05 -2.533393E-05  1.298733E-14 -5.254211E-14  4.538412E-14  1.451442E-14
         5   7 -2.533393E-05 -2.533393E-05 -3.930634E-14 -7.005614E-14  1.534869E-14 -6.053435E-14
         5   8 -2.533393E-05 -2.533393E-05  3.491046E-15 -3.502807E-14 -6.346447E-14 -1.394588E-14
         6   1 -2.533393E-05 -2.533393E-05  4.868674E-15 -1.050842E-13  2.474736E-15 -4.036944E-14
         6   2 -2.533393E-05 -2.533393E-05  1.465589E-13 -5.692061E-14 -1.941781E-14 -7.534634E-14
         6   3 -2.533393E-05 -2.533393E-05  1.926902E-15 -3.502807E-14 -8.420359E-15  7.347178E-14
         6   4 -2.533393E-05 -2.533393E-05  5.606676E-14  7.881316E-14  9.093676E-15  6.257669E-14
         6   5 -2.533393E-05 -2.533393E-05  1.230884E-13  3.502807E-14  4.426391E-14  1.274736E-14
         6   6 -2.533393E-05 -2.533393E-05  1.662622E-13 -7.005614E-14 -6.519881E-14 -1.696742E-14
         6   7 -2.533393E-05 -2.533393E-05 -3.747968E-14  7.005614E-14  3.863093E-14  4.777543E-14
         6   8 -2.533393E-05 -2.533393E-05 -9.499180E-14  1.512621E-31  1.086871E-13  3.338543E-14
         7   1 -2.533393E-05 -2.533393E-05 -1.078262E-13 -1.060680E-13  3.408222E-15 -1.085459E-13
         7   2 -2.533393E-05 -2.533393E-05  5.264761E-14 -1.087558E-13  3.699357E-15  3.139191E-14
         7   3 -2.533393E-05 -2.533393E-05 -1.587865E-14 -5.352591E-14  3.376333E-16 -5.600381E-14
         7   4 -2.533393E-05 -2.533393E-05  1.134978E-13 -5.621371E-14  4.678689E-15 -4.304274E-14
         7   5 -2.533393E-05 -2.533393E-05 -8.094373E-14  1.412038E-13  1.242852E-14 -8.766826E-14
         7   6 -2.533393E-05 -2.533393E-05 -8.466404E-14  1.441859E-13  1.271966E-14  3.545213E-14
         7   7 -2.533393E-05 -2.533393E-05  1.950862E-14  1.091521E-15 -3.080990E-15  5.244402E-14
         7   8 -2.533393E-05 -2.533393E-05 -1.530900E-14  4.073613E-15  1.260065E-15 -1.708998E-14
         8   1 -2.533393E-05 -2.533393E-05 -1.356772E-13 -4.378509E-14  3.124361E-15 -1.129178E-13
         8   2 -2.533393E-05 -2.533393E-05 -1.865828E-13 -1.532478E-14  4.909870E-14  2.569366E-14
         8   3 -2.533393E-05 -2.533393E-05 -1.373257E-14 -6.129912E-14 -3.778304E-14  9.680444E-15
         8   4 -2.533393E-05 -2.533393E-05 -6.538818E-14 -3.064956E-14 -2.026900E-14  3.801114E-15
         8   5 -2.533393E-05 -2.533393E-05 -4.044464E-14  9.868231E-32 -5.853761E-15 -1.039844E-13
         8   6 -2.533393E-05 -2.533393E-05 -4.537592E-14  3.502807E-14  4.887760E-14 -5.149168E-14
         8   7 -2.533393E-05 -2.533393E-05 -2.686809E-14 -7.005614E-14 -1.028168E-14  3.612791E-14
         8   8 -2.533393E-05 -2.533393E-05 -1.244980E-13 -5.254211E-14 -1.028168E-14  4.921402E-14
         9   1 -2.533393E-05 -2.533393E-05  1.014069E-13 -7.005614E-14  5.190747E-14 -7.839196E-14
         9   2 -2.533393E-05 -2.533393E-05  9.050450E-14  4.378509E-15  2.125791E-14 -1.004742E-13
         9   3 -2.533393E-05 -2.533393E-05  1.772308E-13 -7.005614E-14 -6.650198E-14 -6.087793E-14
         9   4 -2.533393E-05 -2.533393E-05  1.883706E-13  7.005614E-14  2.106819E-14  3.088104E-14
         9   5 -2.533393E-05 -2.533393E-05  1.933556E-13 -7.005614E-14  5.017362E-14  1.673953E-14
         9   6 -2.533393E-05 -2.533393E-05  1.102078E-13 -5.254211E-14 -6.746992E-15 -1.579128E-14
         9   7 -2.533393E-05 -2.533393E-05  2.823150E-13 -7.005614E-14 -5.679184E-14 -3.580258E-14
         9   8 -2.533393E-05 -2.533393E-05  3.854035E-13  3.984857E-32 -4.249731E-15 -1.077400E-13

 strains (elem, integ.pnt.,exx,eyy,ezz,exy,exz,eyz) forset EALL and time  0.1477812E+00

         1   1 -8.444643E-11 -8.444643E-11  7.238265E-11  5.250658E-27  4.038968E-28  5.067421E-37
         1   2 -8.444643E-11 -8.444643E-11  7.238265E-11  1.211690E-26  2.827277E-27 -1.413639E-27
         1   3 -8.444643E-11 -8.444643E-11  7.238265E-11  1.252080E-26  1.615587E-27 -9.693523E-27
         1   4 -8.444643E-11 -8.444643E-11  7.238265E-11  1.938705E-26  1.615587E-27 -1.736756E-26
         1   5 -8.444643E-11 -8.444643E-11  7.238265E-11 -2.423381E-27 -3.231174E-27  9.693523E-27
         1   6 -8.444643E-11 -8.444643E-11  7.238265E-11 -8.077936E-27 -8.077936E-28  1.191496E-26
         1   7 -8.444643E-11 -8.444643E-11  7.238265E-11 -4.846761E-27  6.462349E-27  6.462349E-27
         1   8 -8.444643E-11 -8.444643E-11  7.238265E-11 -9.693523E-27  6.462349E-27 -4.038968E-27
         2   1 -8.444643E-11 -8.444643E-11  7.238265E-11 -9.997232E-20  1.347867E-19 -3.635006E-21
         2   2 -8.444643E-11 -8.444643E-11  7.238265E-11  2.200043E-20  1.889968E-19  8.086745E-21
         2   3 -8.444643E-11 -8.444643E-11  7.238265E-11 -7.689222E-20  2.105204E-19  9.975084E-21
         2   4 -8.444643E-11 -8.444643E-11  7.238265E-11  5.863305E-20 -1.147402E-19 -5.082444E-21
         2   5 -8.444643E-11 -8.444643E-11  7.238265E-11 -4.389556E-19  5.871632E-20 -2.717611E-20
         2   6 -8.444643E-11 -8.444643E-11  7.238265E-11 -2.221152E-19  7.226885E-20  4.334934E-20
         2   7 -8.444643E-11 -8.444643E-11  7.238265E-11 -4.533665E-19 -2.358667E-20 -1.356603E-20
         2   8 -8.444643E-11 -8.444643E-11  7.238265E-11 -1.823160E-19 -2.404271E-19  3.018015E-20
         3   1 -8.444643E-11 -8.444643E-11  7.238265E-11 -2.991181E-20  6.622433E-19 -9.901982E-22
         3   2 -8.444643E-11 -8.444643E-11  7.238265E-11 -2.991181E-20 -2.593286E-19  5.477101E-21
         3   3 -8.444643E-11 -8.444643E-11  7.238265E-11 -1.116324E-19 -1.693458E-20 -4.272368E-20
         3   4 -8.444643E-11 -8.444643E-11  7.238265E-11  7.810299E-20  5.251665E-19  5.970377E-20
         3   5 -8.444643E-11 -8.444643E-11  7.238265E-11 -4.144193E-19  6.942683E-19  3.803801E-20
         3   6 -8.444643E-11 -8.444643E-11  7.238265E-11 -8.915863E-20 -1.188833E-19 -3.378585E-20
         3   7 -8.444643E-11 -8.444643E-11  7.238265E-11 -3.617956E-19  3.704802E-19 -3.695478E-21
         3   8 -8.444643E-11 -8.444643E-11  7.238265E-11  1.803055E-19  1.536397E-19  2.044082E-20
         4   1 -8.444643E-11 -8.444643E-11  7.238265E-11  1.569985E-19  1.715886E-21 -4.508941E-21
         4   2 -8.444643E-11 -8.444643E-11  7.238265E-11  1.416120E-19 -9.496486E-21 -2.784723E-19
         4   3 -8.444643E-11 -8.444643E-11  7.238265E-11 -5.631833E-21 -2.369624E-21 -4.508941E-21
         4   4 -8.444643E-11 -8.444643E-11  7.238265E-11 -2.101829E-20  2.024042E-20 -7.518442E-20
         4   5 -8.444643E-11 -8.444643E-11  7.238265E-11 -2.051405E-19  1.761613E-20  9.159262E-20
         4   6 -8.444643E-11 -8.444643E-11  7.238265E-11 -1.731755E-19  6.403768E-21 -3.761961E-20
         4   7 -8.444643E-11 -8.444643E-11  7.238265E-11  1.169997E-20 -3.145361E-20  2.000128E-19
         4   8 -8.444643E-11 -8.444643E-11  7.238265E-11  4.366490E-20 -8.843562E-21 -1.324873E-19
         5   1 -8.444643E-11 -8.444643E-11  7.238265E-11  3.117081E-19 -3.335024E-19  1.784244E-19
         5   2 -8.444643E-11 -8.444643E-11  7.238265E-11  4.336809E-19  1.543885E-19  1.849811E-20
         5   3 -8.444643E-11 -8.444643E-11  7.238265E-11 -2.168404E-19 -2.494833E-19  1.579410E-20
         5   4 -8.444643E-11 -8.444643E-11  7.238265E-11 -2.710505E-20 -3.264284E-20 -2.254474E-19
         5   5 -8.444643E-11 -8.444643E-11  7.238265E-11 -4.336809E-19  1.860816E-19 -1.036859E-19
         5   6 -8.444643E-11 -8.444643E-11  7.238265E-11 -3.252607E-19  2.809493E-19  8.985120E-20
         5   7 -8.444643E-11 -8.444643E-11  7.238265E-11 -4.336809E-19  9.501568E-20 -3.747365E-19
         5   8 -8.444643E-11 -8.444643E-11  7.238265E-11 -2.168404E-19 -3.928753E-19 -8.633166E-20
         6   1 -8.444642E-11 -8.444643E-11  7.238265E-11 -6.505213E-19  1.531979E-20 -2.499061E-19
         6   2 -8.444642E-11 -8.444643E-11  7.238265E-11 -3.523657E-19 -1.202055E-19 -4.664297E-19
         6   3 -8.444643E-11 -8.444643E-11  7.238265E-11 -2.168404E-19 -5.212603E-20  4.548253E-19
         6   4 -8.444643E-11 -8.444643E-11  7.238265E-11  4.878910E-19  5.629419E-20  3.873795E-19
         6   5 -8.444643E-11 -8.444643E-11  7.238265E-11  2.168404E-19  2.740147E-19  7.891220E-20
         6   6 -8.444643E-11 -8.444643E-11  7.238265E-11 -4.336809E-19 -4.036117E-19 -1.050364E-19
         6   7 -8.444643E-11 -8.444643E-11  7.238265E-11  4.336809E-19  2.391439E-19  2.957526E-19
         6   8 -8.444643E-11 -8.444643E-11  7.238265E-11  6.723161E-38  6.728247E-19  2.066717E-19
         7   1 -8.444643E-11 -8.444643E-11  7.238265E-11 -6.566115E-19  2.109852E-20 -6.719509E-19
         7   2 -8.444643E-11 -8.444643E-11  7.238265E-11 -6.732503E-19  2.290078E-20  1.943309E-19
         7   3 -8.444643E-11 -8.444643E-11  7.238265E-11 -3.313509E-19  2.090111E-21 -3.466902E-19
         7   4 -8.444643E-11 -8.444643E-11  7.238265E-11 -3.479896E-19  2.896331E-20 -2.664550E-19
         7   5 -8.444643E-11 -8.444643E-11  7.238265E-11  8.741188E-19  7.693848E-20 -5.427083E-19
         7   6 -8.444643E-11 -8.444643E-11  7.238265E-11  8.925793E-19  7.874074E-20  2.194656E-19
         7   7 -8.444643E-11 -8.444643E-11  7.238265E-11  6.757036E-21 -1.907280E-20  3.246534E-19
         7   8 -8.444643E-11 -8.444643E-11  7.238265E-11  2.521760E-20  7.800404E-21 -1.057951E-19
         8   1 -8.444643E-11 -8.444643E-11  7.238265E-11 -2.710505E-19  1.934128E-20 -6.990150E-19
         8   2 -8.444643E-11 -8.444643E-11  7.238265E-11 -9.486769E-20  3.039444E-19  1.590560E-19
         8   3 -8.444643E-11 -8.444643E-11  7.238265E-11 -3.794708E-19 -2.338950E-19  5.992656E-20
         8   4 -8.444643E-11 -8.444643E-11  7.238265E-11 -1.897354E-19 -1.254748E-19  2.353071E-20
         8   5 -8.444643E-11 -8.444643E-11  7.238265E-11 -3.438710E-37 -3.623757E-20 -6.437128E-19
         8   6 -8.444643E-11 -8.444643E-11  7.238265E-11  2.168404E-19  3.025756E-19 -3.187580E-19
         8   7 -8.444643E-11 -8.444643E-11  7.238265E-11 -4.336809E-19 -6.364852E-20  2.236490E-19
         8   8 -8.444643E-11 -8.444643E-11  7.238265E-11 -3.252607E-19 -6.364852E-20  3.046582E-19
         9   1 -8.444642E-11 -8.444643E-11  7.238265E-11 -4.336809E-19  3.213320E-19 -4.852836E-19
         9   2 -8.444642E-11 -8.444643E-11  7.238265E-11  2.710505E-20  1.315966E-19 -6.219833E-19
         9   3 -8.444642E-11 -8.444643E-11  7.238265E-11 -4.336809E-19 -4.116789E-19 -3.768633E-19
         9   4 -8.444642E-11 -8.444643E-11  7.238265E-11  4.336809E-19  1.304222E-19  1.911684E-19
         9   5 -8.444642E-11 -8.444643E-11  7.238265E-11 -4.336809E-19  3.105986E-19  1.036257E-19
         9   6 -8.444642E-11 -8.444643E-11  7.238265E-11 -3.252607E-19 -4.176709E-20 -9.775554E-20
         9   7 -8.444642E-11 -8.444643E-11  7.238265E-11 -4.336809E-19 -3.515685E-19 -2.216350E-19
         9   8 -8.444642E-11 -8.444642E-11  7.238265E-11  5.071592E-38 -2.630786E-20 -6.669617E-19

 displacements (vx,vy,vz) for set NALL and time  0.1567812E+00

         1  0.000000E+00  0.000000E+00  0.000000E+00
         2 -4.479464E-08  0.000000E+00  0.000000E+00
         3 -2.351719E+00  0.000000E+00  0.000000E+00
         4 -2.351719E+00  0.000000E+00  0.000000E+00
         5 -4.703437E+00  0.000000E+00  0.000000E+00
         6 -4.703437E+00  0.000000E+00  0.000000E+00
         7  0.000000E+00 -4.479464E-08  0.000000E+00
         8 -4.479464E-08 -4.479464E-08  0.000000E+00
         9 -2.351719E+00 -4.479464E-08  0.000000E+00
        10 -2.351719E+00 -4.479464E-08  0.000000E+00
        11 -4.703437E+00 -4.479464E-08  0.000000E+00
        12 -4.703437E+00 -4.479464E-08  0.000000E+00
        13  0.000000E+00 -2.351719E+00  0.000000E+00
        14 -4.479464E-08 -2.351719E+00  0.000000E+00
        15 -2.351719E+00 -2.351719E+00  0.000000E+00
        16 -2.351719E+00 -2.351719E+00  0.000000E+00
        17 -4.703437E+00 -2.351719E+00  0.000000E+00
        18 -4.703437E+00 -2.351719E+00  0.000000E+00
        19  0.000000E+00 -2.351719E+00  0.000000E+00
        20 -4.479464E-08 -2.351719E+00  0.000000E+00
        21 -2.351719E+00 -2.351719E+00  0.000000E+00
        22 -2.351719E+00 -2.351719E+00  0.000000E+00
        23 -4.703437E+00 -2.351719E+00  0.000000E+00
        24 -4.703437E+00 -2.351719E+00  0.000000E+00
        25  0.000000E+00 -4.703437E+00  0.000000E+00
        26 -4.479464E-08 -4.703437E+00  0.000000E+00
        27 -2.351719E+00 -4.703437E+00  0.000000E+00
        28 -2.351719E+00 -4.703437E+00  0.000000E+00
        29 -4.703437E+00 -4.703437E+00  0.000000E+00
        30 -4.703437E+00 -4.703437E+00  0.000000E+00
        31  0.000000E+00 -4.703437E+00  0.000000E+00
        32 -4.479464E-08 -4.703437E+00  0.000000E+00
        33 -2.351719E+00 -4.703437E+00  0.000000E+00
        34 -2.351719E+00 -4.703437E+00  0.000000E+00
        35 -4.703437E+00 -4.703437E+00  0.000000E+00
        36 -4.703437E+00 -4.703437E+00  0.000000E+00
        37  0.000000E+00  0.000000E+00  5.375357E-08
        38 -4.479464E-08  0.000000E+00  5.375357E-08
        39 -2.351719E+00  0.000000E+00  5.375357E-08
        40 -2.351719E+00  0.000000E+00  5.375357E-08
        41 -4.703437E+00  0.000000E+00  5.375357E-08
        42 -4.703437E+00  0.000000E+00  5.375357E-08
        43  0.000000E+00 -4.479464E-08  5.375357E-08
        44 -4.479464E-08 -4.479464E-08  5.375357E-08
        45 -2.351719E+00 -4.479464E-08  5.375357E-08
        46 -2.351719E+00 -4.479464E-08  5.375357E-08
        47 -4.703437E+00 -4.479464E-08  5.375357E-08
        48 -4.703437E+00 -4.479464E-08  5.375357E-08
        49  0.000000E+00 -2.351719E+00  5.375357E-08
        50 -4.479464E-08 -2.351719E+00  5.375357E-08
        51 -2.351719E+00 -2.351719E+00  5.375357E-08
        52 -2.351719E+00 -2.351719E+00  5.375357E-08
        53 -4.703437E+00 -2.351719E+00  5.375357E-08
        54 -4.703437E+00 -2.351719E+00  5.375357E-08
        55  0.000000E+00 -2.351719E+00  5.375357E-08
        56 -4.479464E-08 -2.351719E+00  5.375357E-08
        57 -2.351719E+00 -2.351719E+00  5.375357E-08
        58 -2.351719E+00 -2.351719E+00  5.375357E-08
        59 -4.703437E+00 -2.351719E+00  5.375357E-08
        60 -4.703437E+00 -2.351719E+00  5.375357E-08
        61  0.000000E+00 -4.703437E+00  5.375357E-08
        62 -4.479464E-08 -4.703437E+00  5.375357E-08
        63 -2.351719E+00 -4.703437E+00  5.375357E-08
        64 -2.351719E+00 -4.703437E+00  5.375357E-08
        65 -4.703437E+00 -4.703437E+00  5.375357E-08
        66 -4.703437E+00 -4.703437E+00  5.375357E-08
        67  0.000000E+00 -4.703437E+00  5.375357E-08
        68 -4.479464E-08 -4.703437E+00  5.375357E-08
        69 -2.351719E+00 -4.703437E+00  5.375357E-08
        70 -2.351719E+00 -4.703437E+00  5.375357E-08
        71 -4.703437E+00 -4.703437E+00  5.375357E-08
        72 -4.703437E+00 -4.703437E+00  5.375357E-08

 stresses (elem, integ.pnt.,sxx,syy,szz,sxy,sxz,syz) for set EALL and time  0.1567812E+00

         1   1 -2.687678E-05 -2.687678E-05  6.776264E-21 -2.087836E-21 -8.155608E-22  2.609795E-22
         1   2 -2.687678E-05 -2.687678E-05  3.388132E-21 -6.524486E-21 -6.459242E-21 -3.588468E-22
         1   3 -2.687678E-05 -2.687678E-05 -3.388132E-21 -3.131754E-21  1.043918E-21  7.829384E-22
         1   4 -2.687678E-05 -2.687678E-05 -3.388132E-21 -7.568404E-21  3.653712E-21  9.134281E-22
         1   5 -2.687678E-05 -2.687678E-05 -6.776264E-21  2.609795E-21  1.076540E-21  4.406086E-47
         1   6 -2.687678E-05 -2.687678E-05 -1.834113E-46  8.612322E-21 -4.567141E-21 -2.185703E-21
         1   7 -2.687678E-05 -2.687678E-05  0.000000E+00  3.392733E-21  9.134281E-22  3.836879E-47
         1   8 -2.687678E-05 -2.687678E-05  5.902891E-47  9.395261E-21  3.653712E-21 -9.134281E-22
         2   1 -2.687678E-05 -2.687678E-05  4.229759E-14 -2.744787E-14  6.661633E-15 -4.854595E-16
         2   2 -2.687678E-05 -2.687678E-05  2.316316E-14 -6.466519E-14  3.074343E-14 -1.452350E-16
         2   3 -2.687678E-05 -2.687678E-05 -1.671297E-14 -3.066300E-14  6.832154E-14 -5.379314E-16
         2   4 -2.687679E-05 -2.687678E-05 -3.338316E-14 -6.569107E-14 -1.049161E-14 -2.538903E-16
         2   5 -2.687678E-05 -2.687678E-05  3.890352E-14  3.382246E-14  9.369358E-16 -1.759287E-15
         2   6 -2.687678E-05 -2.687678E-05  1.965110E-14 -2.747666E-14 -7.820082E-15 -4.333692E-16
         2   7 -2.687678E-05 -2.687678E-05  2.258341E-14  3.052868E-14  2.855447E-14 -1.811759E-15
         2   8 -2.687678E-05 -2.687678E-05  5.795233E-15 -2.201342E-14  3.731149E-14 -5.420246E-16
         3   1 -2.687678E-05 -2.687678E-05  3.552040E-14  5.226208E-14 -8.080801E-14  4.682644E-15
         3   2 -2.687678E-05 -2.687678E-05  8.055925E-14  6.101910E-14  1.337389E-13 -3.012375E-15
         3   3 -2.687679E-05 -2.687678E-05 -3.432665E-14  5.149703E-14 -6.437646E-15 -4.500315E-15
         3   4 -2.687679E-05 -2.687679E-05 -7.944418E-14 -1.418060E-14  4.610446E-14  2.844028E-15
         3   5 -2.687678E-05 -2.687678E-05 -3.467106E-15  7.426677E-15 -1.323896E-13  2.665882E-14
         3   6 -2.687678E-05 -2.687678E-05  7.315440E-14  5.996878E-14  1.647971E-14 -1.709874E-14
         3   7 -2.687678E-05 -2.687678E-05  1.302865E-13  2.771674E-14 -2.402562E-14  1.747587E-14
         3   8 -2.687678E-05 -2.687678E-05  1.167516E-13 -2.482537E-14 -6.511588E-15 -1.124234E-14
         4   1 -2.687678E-05 -2.687678E-05  4.103923E-14  3.507397E-14 -2.289959E-16 -8.625394E-15
         4   2 -2.687678E-05 -2.687678E-05  4.735797E-14  3.519939E-14 -7.550137E-16 -3.655732E-14
         4   3 -2.687678E-05 -2.687678E-05  4.212635E-14  4.590394E-17  9.918198E-17  1.316234E-16
         4   4 -2.687678E-05 -2.687678E-05  5.205403E-14  1.713163E-16 -9.738148E-16  9.417026E-15
         4   5 -2.687678E-05 -2.687678E-05  1.366355E-14 -2.343872E-16 -3.286080E-16 -8.265793E-15
         4   6 -2.687678E-05 -2.687678E-05  1.341452E-14 -8.747457E-16 -8.546253E-16 -5.445743E-14
         4   7 -2.687678E-05 -2.687678E-05  1.360201E-14 -2.343872E-16  1.443148E-15 -3.453685E-14
         4   8 -2.687678E-05 -2.687678E-05  1.696192E-14 -8.747457E-16  3.701519E-16 -1.505085E-14
         5   1 -2.687679E-05 -2.687679E-05 -7.285064E-14  4.378509E-15  1.844459E-14 -3.896424E-14
         5   2 -2.687679E-05 -2.687679E-05 -1.059014E-13 -1.751404E-14 -2.534049E-14  1.652576E-15
         5   3 -2.687679E-05 -2.687679E-05 -8.589799E-14 -8.757018E-15 -3.507653E-14  7.487699E-14
         5   4 -2.687679E-05 -2.687679E-05 -1.486227E-13 -2.846031E-14 -3.507653E-14  3.841830E-15
         5   5 -2.687678E-05 -2.687678E-05 -2.687630E-14  1.751404E-14  3.472892E-15  4.776070E-16
         5   6 -2.687679E-05 -2.687679E-05 -7.306257E-14  1.751404E-14  3.631171E-14 -7.554638E-15
         5   7 -2.687679E-05 -2.687678E-05 -5.962694E-14 -7.005614E-14 -3.520891E-14  5.301971E-14
         5   8 -2.687679E-05 -2.687679E-05 -1.519066E-13 -9.632719E-14  2.609021E-14  4.060896E-14
         6   1 -2.687678E-05 -2.687678E-05  2.443757E-14  1.751404E-14 -8.604697E-15 -4.695080E-14
         6   2 -2.687678E-05 -2.687678E-05  6.558619E-14 -1.313553E-14  1.523206E-16  1.357200E-14
         6   3 -2.687679E-05 -2.687679E-05 -1.219721E-13  6.295382E-32  8.256766E-14  3.186236E-14
         6   4 -2.687679E-05 -2.687679E-05 -5.622016E-14  3.502807E-14 -5.002516E-15  1.795051E-14
         6   5 -2.687678E-05 -2.687679E-05 -2.153677E-14  3.502807E-14 -5.432007E-14  5.699444E-15
         6   6 -2.687678E-05 -2.687678E-05  3.931514E-14 -7.005614E-14 -9.372665E-14 -1.150660E-14
         6   7 -2.687678E-05 -2.687678E-05  1.407384E-13  1.050842E-13  4.669362E-14  2.321348E-14
         6   8 -2.687678E-05 -2.687678E-05  1.079739E-13  3.502807E-14 -5.839059E-14 -2.464212E-14
         7   1 -2.687679E-05 -2.687679E-05 -3.367263E-14  2.063059E-15 -1.542280E-15 -2.572553E-14
         7   2 -2.687678E-05 -2.687679E-05 -3.435315E-14  7.699439E-15 -2.294511E-16  9.327952E-14
         7   3 -2.687679E-05 -2.687679E-05 -8.130361E-14  2.063059E-15 -2.072186E-15  6.184465E-14
         7   4 -2.687678E-05 -2.687679E-05 -7.662036E-14  7.699439E-15 -4.352593E-15  2.760189E-14
         7   5 -2.687679E-05 -2.687679E-05 -5.718673E-14  2.217566E-16 -7.068698E-15 -1.313168E-14
         7   6 -2.687678E-05 -2.687679E-05 -1.846067E-14  8.276066E-16 -5.755869E-15 -4.085042E-14
         7   7 -2.687679E-05 -2.687679E-05 -1.123635E-13  2.217566E-16 -5.453095E-15  3.941042E-14
         7   8 -2.687678E-05 -2.687679E-05 -6.827369E-14  8.276066E-16 -7.733502E-15  7.313172E-15
         8   1 -2.687678E-05 -2.687679E-05 -1.987399E-14 -9.736743E-32  5.085036E-14 -8.528485E-14
         8   2 -2.687678E-05 -2.687679E-05 -1.829330E-14  4.378509E-15 -1.044876E-14  9.284142E-14
         8   3 -2.687678E-05 -2.687679E-05  8.870556E-15 -1.751404E-14  2.318672E-14  2.285321E-15
         8   4 -2.687678E-05 -2.687678E-05  6.805818E-15 -1.094627E-14 -2.935538E-14  9.649755E-15
         8   5 -2.687679E-05 -2.687679E-05 -8.555162E-14  1.760786E-32  1.995738E-14 -4.401317E-14
         8   6 -2.687678E-05 -2.687678E-05  6.051986E-14  6.129912E-14  4.622843E-14 -3.372840E-14
         8   7 -2.687678E-05 -2.687679E-05 -4.367154E-14 -7.005614E-14 -9.164435E-15  8.528934E-15
         8   8 -2.687678E-05 -2.687678E-05 -4.573628E-14 -3.502807E-14 -9.164435E-15  4.070625E-14
         9   1 -2.687678E-05 -2.687678E-05  1.809286E-13  1.401123E-13 -4.534284E-14  1.810189E-14
         9   2 -2.687678E-05 -2.687679E-05 -2.087789E-14  1.444908E-13  4.660584E-14 -1.000590E-13
         9   3 -2.687678E-05 -2.687678E-05  1.126983E-13  1.168973E-31  6.417873E-14  7.064400E-14
         9   4 -2.687678E-05 -2.687679E-05 -6.536817E-14  7.005614E-14 -5.877406E-15 -3.000285E-14
         9   5 -2.687678E-05 -2.687678E-05  1.874963E-13  7.005614E-14 -3.849525E-14  2.193903E-15
         9   6 -2.687678E-05 -2.687678E-05  9.077409E-14  1.225982E-13 -2.535972E-14 -6.005878E-14
         9   7 -2.687678E-05 -2.687678E-05  2.703246E-13  1.038097E-31  4.812136E-14  7.225004E-14
         9   8 -2.687678E-05 -2.687678E-05  1.513680E-13 -5.254211E-14  3.060733E-14 -3.378773E-14

 strains (elem, integ.pnt.,exx,eyy,ezz,exy,exz,eyz) forset EALL and time  0.1567812E+00

         1   1 -8.958928E-11 -8.958928E-11  7.679081E-11 -1.292470E-26 -5.048710E-27  1.615587E-27
         1   2 -8.958928E-11 -8.958928E-11  7.679081E-11 -4.038968E-26 -3.998578E-26 -2.221432E-27
         1   3 -8.958928E-11 -8.958928E-11  7.679081E-11 -1.938705E-26  6.462349E-27  4.846761E-27
         1   4 -8.958928E-11 -8.958928E-11  7.679081E-11 -4.685203E-26  2.261822E-26  5.654555E-27
         1   5 -8.958928E-11 -8.958928E-11  7.679081E-11  1.615587E-26  6.664297E-27 -3.230026E-52
         1   6 -8.958928E-11 -8.958928E-11  7.679081E-11  5.331438E-26 -2.827277E-26 -1.353054E-26
         1   7 -8.958928E-11 -8.958928E-11  7.679081E-11  2.100263E-26  5.654555E-27  1.644377E-52
         1   8 -8.958928E-11 -8.958928E-11  7.679081E-11  5.816114E-26  2.261822E-26 -5.654555E-27
         2   1 -8.958928E-11 -8.958928E-11  7.679081E-11 -1.699154E-19  4.123868E-20 -3.005226E-21
         2   2 -8.958928E-11 -8.958928E-11  7.679081E-11 -4.003083E-19  1.903165E-19 -8.990736E-22
         2   3 -8.958928E-11 -8.958928E-11  7.679081E-11 -1.898185E-19  4.229429E-19 -3.330051E-21
         2   4 -8.958928E-11 -8.958928E-11  7.679081E-11 -4.066590E-19 -6.494808E-20 -1.571702E-21
         2   5 -8.958928E-11 -8.958928E-11  7.679081E-11  2.093772E-19  5.800079E-21 -1.089082E-20
         2   6 -8.958928E-11 -8.958928E-11  7.679081E-11 -1.700936E-19 -4.841003E-20 -2.682762E-21
         2   7 -8.958928E-11 -8.958928E-11  7.679081E-11  1.889871E-19  1.767658E-19 -1.121565E-20
         2   8 -8.958928E-11 -8.958928E-11  7.679081E-11 -1.362736E-19  2.309759E-19 -3.355390E-21
         3   1 -8.958928E-11 -8.958928E-11  7.679081E-11  3.235272E-19 -5.002401E-19  2.898779E-20
         3   2 -8.958928E-11 -8.958928E-11  7.679081E-11  3.777373E-19  8.279076E-19 -1.864803E-20
         3   3 -8.958928E-11 -8.958928E-11  7.679081E-11  3.187911E-19 -3.985209E-20 -2.785909E-20
         3   4 -8.958928E-11 -8.958928E-11  7.679081E-11 -8.778467E-20  2.854086E-19  1.760589E-20
         3   5 -8.958928E-11 -8.958928E-11  7.679081E-11  4.597467E-20 -8.195546E-19  1.650308E-19
         3   6 -8.958928E-11 -8.958928E-11  7.679081E-11  3.712353E-19  1.020173E-19 -1.058493E-19
         3   7 -8.958928E-11 -8.958928E-11  7.679081E-11  1.715798E-19 -1.487300E-19  1.081839E-19
         3   8 -8.958928E-11 -8.958928E-11  7.679081E-11 -1.536809E-19 -4.030983E-20 -6.959542E-20
         4   1 -8.958928E-11 -8.958928E-11  7.679081E-11  2.171246E-19 -1.417594E-21 -5.339530E-20
         4   2 -8.958928E-11 -8.958928E-11  7.679081E-11  2.179010E-19 -4.673894E-21 -2.263072E-19
         4   3 -8.958928E-11 -8.958928E-11  7.679081E-11  2.841672E-22  6.139837E-22  8.148117E-22
         4   4 -8.958928E-11 -8.958928E-11  7.679081E-11  1.060530E-21 -6.028378E-21  5.829588E-20
         4   5 -8.958928E-11 -8.958928E-11  7.679081E-11 -1.450968E-21 -2.034240E-21 -5.116919E-20
         4   6 -8.958928E-11 -8.958928E-11  7.679081E-11 -5.415093E-21 -5.290537E-21 -3.371174E-19
         4   7 -8.958928E-11 -8.958928E-11  7.679081E-11 -1.450968E-21  8.933771E-21 -2.137995E-19
         4   8 -8.958928E-11 -8.958928E-11  7.679081E-11 -5.415093E-21  2.291416E-21 -9.317191E-20
         5   1 -8.958928E-11 -8.958928E-11  7.679081E-11  2.710505E-20  1.141808E-19 -2.412072E-19
         5   2 -8.958928E-11 -8.958928E-11  7.679081E-11 -1.084202E-19 -1.568697E-19  1.023023E-20
         5   3 -8.958928E-11 -8.958928E-11  7.679081E-11 -5.421011E-20 -2.171404E-19  4.635242E-19
         5   4 -8.958928E-11 -8.958928E-11  7.679081E-11 -1.761829E-19 -2.171404E-19  2.378276E-20
         5   5 -8.958928E-11 -8.958928E-11  7.679081E-11  1.084202E-19  2.149886E-20  2.956615E-21
         5   6 -8.958928E-11 -8.958928E-11  7.679081E-11  1.084202E-19  2.247868E-19 -4.676680E-20
         5   7 -8.958928E-11 -8.958928E-11  7.679081E-11 -4.336809E-19 -2.179599E-19  3.282173E-19
         5   8 -8.958928E-11 -8.958928E-11  7.679081E-11 -5.963112E-19  1.615108E-19  2.513888E-19
         6   1 -8.958928E-11 -8.958928E-11  7.679081E-11  1.084202E-19 -5.326717E-20 -2.906478E-19
         6   2 -8.958928E-11 -8.958928E-11  7.679081E-11 -8.131516E-20  9.429370E-22  8.401712E-20
         6   3 -8.958928E-11 -8.958928E-11  7.679081E-11 -3.035703E-39  5.111331E-19  1.972432E-19
         6   4 -8.958928E-11 -8.958928E-11  7.679081E-11  2.168404E-19 -3.096796E-20  1.111222E-19
         6   5 -8.958928E-11 -8.958928E-11  7.679081E-11  2.168404E-19 -3.362671E-19  3.528227E-20
         6   6 -8.958928E-11 -8.958928E-11  7.679081E-11 -4.336809E-19 -5.802126E-19 -7.123131E-20
         6   7 -8.958928E-11 -8.958928E-11  7.679081E-11  6.505213E-19  2.890558E-19  1.437025E-19
         6   8 -8.958928E-11 -8.958928E-11  7.679081E-11  2.168404E-19 -3.614655E-19 -1.525465E-19
         7   1 -8.958928E-11 -8.958928E-11  7.679081E-11  1.277132E-20 -9.547451E-21 -1.592533E-19
         7   2 -8.958928E-11 -8.958928E-11  7.679081E-11  4.766319E-20 -1.420411E-21  5.774446E-19
         7   3 -8.958928E-11 -8.958928E-11  7.679081E-11  1.277132E-20 -1.282782E-20  3.828478E-19
         7   4 -8.958928E-11 -8.958928E-11  7.679081E-11  4.766319E-20 -2.694462E-20  1.708688E-19
         7   5 -8.958928E-11 -8.958928E-11  7.679081E-11  1.372779E-21 -4.375861E-20 -8.129136E-20
         7   6 -8.958928E-11 -8.958928E-11  7.679081E-11  5.123279E-21 -3.563157E-20 -2.528836E-19
         7   7 -8.958928E-11 -8.958928E-11  7.679081E-11  1.372779E-21 -3.375726E-20  2.439693E-19
         7   8 -8.958928E-11 -8.958928E-11  7.679081E-11  5.123279E-21 -4.787406E-20  4.527202E-20
         8   1 -8.958928E-11 -8.958928E-11  7.679081E-11 -8.258092E-38  3.147879E-19 -5.279539E-19
         8   2 -8.958928E-11 -8.958928E-11  7.679081E-11  2.710505E-20 -6.468281E-20  5.747326E-19
         8   3 -8.958928E-11 -8.958928E-11  7.679081E-11 -1.084202E-19  1.435369E-19  1.414722E-20
         8   4 -8.958928E-11 -8.958928E-11  7.679081E-11 -6.776264E-20 -1.817238E-19  5.973658E-20
         8   5 -8.958928E-11 -8.958928E-11  7.679081E-11 -2.862458E-37  1.235457E-19 -2.724625E-19
         8   6 -8.958928E-11 -8.958928E-11  7.679081E-11  3.794708E-19  2.861760E-19 -2.087949E-19
         8   7 -8.958928E-11 -8.958928E-11  7.679081E-11 -4.336809E-19 -5.673221E-20  5.279816E-20
         8   8 -8.958928E-11 -8.958928E-11  7.679081E-11 -2.168404E-19 -5.673221E-20  2.519911E-19
         9   1 -8.958928E-11 -8.958928E-11  7.679081E-11  8.673617E-19 -2.806938E-19  1.120593E-19
         9   2 -8.958928E-11 -8.958928E-11  7.679081E-11  8.944668E-19  2.885124E-19 -6.194128E-19
         9   3 -8.958928E-11 -8.958928E-11  7.679081E-11 -2.648096E-40  3.972969E-19  4.373200E-19
         9   4 -8.958928E-11 -8.958928E-11  7.679081E-11  4.336809E-19 -3.638394E-20 -1.857319E-19
         9   5 -8.958928E-11 -8.958928E-11  7.679081E-11  4.336809E-19 -2.383039E-19  1.358130E-20
         9   6 -8.958928E-11 -8.958928E-11  7.679081E-11  7.589415E-19 -1.569888E-19 -3.717925E-19
         9   7 -8.958928E-11 -8.958928E-11  7.679081E-11 -3.688321E-39  2.978942E-19  4.472622E-19
         9   8 -8.958928E-11 -8.958928E-11  7.679081E-11 -3.252607E-19  1.894739E-19 -2.091621E-19

 displacements (vx,vy,vz) for set NALL and time  0.1657812E+00

         1  0.000000E+00  0.000000E+00  0.000000E+00
         2 -4.736607E-08  0.000000E+00  0.000000E+00
         3 -2.486719E+00  0.000000E+00  0.000000E+00
         4 -2.486719E+00  0.000000E+00  0.000000E+00
         5 -4.973437E+00  0.000000E+00  0.000000E+00
         6 -4.973437E+00  0.000000E+00  0.000000E+00
         7  0.000000E+00 -4.736607E-08  0.000000E+00
         8 -4.736607E-08 -4.736607E-08  0.000000E+00
         9 -2.486719E+00 -4.736607E-08  0.000000E+00
        10 -2.486719E+00 -4.736607E-08  0.000000E+00
        11 -4.973437E+00 -4.736607E-08  0.000000E+00
        12 -4.973437E+00 -4.736607E-08  0.000000E+00
        13  0.000000E+00 -2.486719E+00  0.000000E+00
        14 -4.736607E-08 -2.486719E+00  0.000000E+00
        15 -2.486719E+00 -2.486719E+00  0.000000E+00
        16 -2.486719E+00 -2.486719E+00  0.000000E+00
        17 -4.973437E+00 -2.486719E+00  0.000000E+00
        18 -4.973437E+00 -2.486719E+00  0.000000E+00
        19  0.000000E+00 -2.486719E+00  0.000000E+00
        20 -4.736607E-08 -2.486719E+00  0.000000E+00
        21 -2.486719E+00 -2.486719E+00  0.000000E+00
        22 -2.486719E+00 -2.486719E+00  0.000000E+00
        23 -4.973437E+00 -2.486719E+00  0.000000E+00
        24 -4.973437E+00 -2.486719E+00  0.000000E+00
        25  0.000000E+00 -4.973437E+00  0.000000E+00
        26 -4.736607E-08 -4.973437E+00  0.000000E+00
        27 -2.486719E+00 -4.973437E+00  0.000000E+00
        28 -2.486719E+00 -4.973437E+00  0.000000E+00
        29 -4.973437E+00 -4.973437E+00  0.000000E+00
        30 -4.973437E+00 -4.973437E+00  0.000000E+00
        31  0.000000E+00 -4.973437E+00  0.000000E+00
        32 -4.736607E-08 -4.973437E+00  0.000000E+00
        33 -2.486719E+00 -4.973437E+00  0.000000E+00
        34 -2.486719E+00 -4.973437E+00  0.000000E+00
        35 -4.973437E+00 -4.973437E+00  0.000000E+00
        36 -4.973437E+00 -4.973437E+00  0.000000E+00
        37  0.000000E+00  0.000000E+00  5.683928E-08
        38 -4.736607E-08  0.000000E+00  5.683928E-08
        39 -2.486719E+00  0.000000E+00  5.683928E-08
        40 -2.486719E+00  0.000000E+00  5.683928E-08
        41 -4.973437E+00  0.000000E+00  5.683928E-08
        42 -4.973437E+00  0.000000E+00  5.683928E-08
        43  0.000000E+00 -4.736607E-08  5.683928E-08
        44 -4.736607E-08 -4.736607E-08  5.683928E-08
        45 -2.486719E+00 -4.736607E-08  5.683928E-08
        46 -2.486719E+00 -4.736607E-08  5.683928E-08
        47 -4.973437E+00 -4.736607E-08  5.683928E-08
        48 -4.973437E+00 -4.736607E-08  5.683928E-08
        49  0.000000E+00 -2.486719E+00  5.683928E-08
        50 -4.736607E-08 -2.486719E+00  5.683928E-08
        51 -2.486719E+00 -2.486719E+00  5.683928E-08
        52 -2.486719E+00 -2.486719E+00  5.683928E-08
        53 -4.973437E+00 -2.486719E+00  5.683928E-08
        54 -4.973437E+00 -2.486719E+00  5.683928E-08
        55  0.000000E+00 -2.486719E+00  5.683928E-08
        56 -4.736607E-08 -2.486719E+00  5.683928E-08
        57 -2.486719E+00 -2.486719E+00  5.683928E-08
        58 -2.486719E+00 -2.486719E+00  5.683928E-08
        59 -4.973437E+00 -2.486719E+00  5.683928E-08
        60 -4.973437E+00 -2.486719E+00  5.683928E-08
        61  0.000000E+00 -4.973437E+00  5.683928E-08
        62 -4.736607E-08 -4.973437E+00  5.683928E-08
        63 -2.486719E+00 -4.973437E+00  5.683928E-08
        64 -2.486719E+00 -4.973437E+00  5.683928E-08
        65 -4.973437E+00 -4.973437E+00  5.683928E-08
        66 -4.973437E+00 -4.973437E+00  5.683928E-08
        67  0.000000E+00 -4.973437E+00  5.683928E-08
        68 -4.736607E-08 -4.973437E+00  5.683928E-08
        69 -2.486719E+00 -4.973437E+00  5.683928E-08
        70 -2.486719E+00 -4.973437E+00  5.683928E-08
        71 -4.973437E+00 -4.973437E+00  5.683928E-08
        72 -4.973437E+00 -4.973437E+00  5.683928E-08

 stresses (elem, integ.pnt.,sxx,syy,szz,sxy,sxz,syz) for set EALL and time  0.1657812E+00

         1   1 -2.841964E-05 -2.841964E-05  3.388132E-21 -8.643519E-48 -4.567141E-22  3.914692E-22
         1   2 -2.841964E-05 -2.841964E-05  6.776264E-21 -1.957346E-22 -1.696366E-21  4.240916E-22
         1   3 -2.841964E-05 -2.841964E-05 -3.388132E-21  1.957346E-22 -6.524487E-22  2.609795E-21
         1   4 -2.841964E-05 -2.841964E-05 -4.269055E-47 -1.868141E-46 -2.609795E-21  2.936019E-21
         1   5 -2.841964E-05 -2.841964E-05  3.388132E-21 -2.609795E-22 -7.176935E-22 -1.174408E-21
         1   6 -2.841964E-05 -2.841964E-05  6.776264E-21 -7.829384E-22 -1.957346E-21 -2.936019E-22
         1   7 -2.841964E-05 -2.841964E-05 -3.388132E-21 -5.219589E-22  2.609795E-22  1.043918E-21
         1   8 -2.841964E-05 -2.841964E-05 -1.121549E-46 -1.043918E-21 -1.565877E-21  2.218325E-21
         2   1 -2.841964E-05 -2.841964E-05  2.677029E-14 -2.196781E-15  1.212326E-14  1.459096E-15
         2   2 -2.841964E-05 -2.841964E-05  4.075958E-14  3.502054E-14 -1.633705E-14  4.670121E-16
         2   3 -2.841964E-05 -2.841964E-05  1.413444E-14 -8.198500E-15  7.653069E-16 -1.322213E-15
         2   4 -2.841964E-05 -2.841964E-05  1.035900E-14  3.120808E-14  7.653069E-16  2.081170E-15
         2   5 -2.841964E-05 -2.841964E-05  3.078118E-14  5.561264E-17  2.132001E-14  8.226730E-15
         2   6 -2.841964E-05 -2.841964E-05  5.400096E-14  8.812630E-15 -4.951042E-15  1.287536E-16
         2   7 -2.841964E-05 -2.841964E-05  8.293689E-15 -6.984859E-14  2.856163E-15  5.445421E-15
         2   8 -2.841964E-05 -2.841964E-05  1.374874E-14  1.772158E-14  2.037020E-14  1.742913E-15
         3   1 -2.841964E-05 -2.841964E-05 -1.538522E-14  1.100961E-14 -8.204541E-14  3.026498E-15
         3   2 -2.841964E-05 -2.841964E-05 -4.305973E-15 -7.218206E-14 -4.263883E-14 -3.578524E-17
         3   3 -2.841964E-05 -2.841964E-05  5.112877E-14 -6.760810E-15 -8.003003E-14 -1.005634E-14
         3   4 -2.841964E-05 -2.841964E-05 -4.364981E-14  5.015980E-14 -2.748793E-14  2.085819E-14
         3   5 -2.841964E-05 -2.841964E-05 -3.452615E-15  1.090651E-14 -4.943742E-14  2.437789E-14
         3   6 -2.841964E-05 -2.841964E-05  7.897796E-14 -5.914963E-14 -9.322251E-14 -2.102753E-14
         3   7 -2.841964E-05 -2.841964E-05 -2.888730E-14  4.070363E-14 -3.722307E-14  1.129505E-14
         3   8 -2.841964E-05 -2.841964E-05 -5.231456E-14  9.324574E-14  1.028892E-13 -1.335517E-16
         4   1 -2.841964E-05 -2.841964E-05 -4.039924E-14  1.521262E-14  2.677627E-16 -2.748216E-14
         4   2 -2.841964E-05 -2.841964E-05 -4.653800E-14  1.490620E-14  8.277031E-16  6.326632E-15
         4   3 -2.841964E-05 -2.841964E-05 -4.913092E-14 -1.762619E-14 -1.719857E-16 -1.211111E-15
         4   4 -2.841964E-05 -2.841964E-05 -6.359748E-14 -1.793261E-14  2.517661E-15 -2.430386E-15
         4   5 -2.841964E-05 -2.841964E-05  1.184030E-13  2.725023E-14  4.393633E-16 -3.954800E-14
         4   6 -2.841964E-05 -2.841964E-05  2.688327E-14  2.992540E-14  9.993039E-16  1.282222E-14
         4   7 -2.841964E-05 -2.841964E-05  1.141437E-13 -3.404889E-14 -3.331507E-15  3.050814E-14
         4   8 -2.841964E-05 -2.841964E-05  1.429617E-14 -3.137372E-14 -6.418602E-16 -3.133066E-16
         5   1 -2.841964E-05 -2.841964E-05 -4.957126E-14  5.910987E-14  2.240593E-14 -2.772735E-14
         5   2 -2.841964E-05 -2.841964E-05 -1.317965E-13  4.597434E-14  4.210922E-14 -6.250703E-14
         5   3 -2.841964E-05 -2.841964E-05  1.929517E-14  1.548876E-30  3.360060E-14 -1.456302E-15
         5   4 -2.841964E-05 -2.841964E-05 -1.672571E-14 -8.757018E-15 -1.018449E-14 -7.775675E-15
         5   5 -2.841964E-05 -2.841964E-05 -6.270678E-14 -5.254211E-14  2.936027E-14 -5.434993E-15
         5   6 -2.841964E-05 -2.841964E-05  1.597818E-14 -7.005614E-14  4.906356E-14 -4.450117E-14
         5   7 -2.841964E-05 -2.841964E-05 -8.578904E-14 -1.050842E-13 -4.035548E-14 -5.434993E-15
         5   8 -2.841964E-05 -2.841964E-05  3.581640E-14 -4.378509E-14  1.218663E-14 -5.094596E-15
         6   1 -2.841964E-05 -2.841964E-05 -2.383152E-14 -2.627105E-14 -2.462507E-14 -2.527138E-15
         6   2 -2.841964E-05 -2.841964E-05 -2.314259E-14 -8.757018E-15  9.359466E-14 -7.546139E-14
         6   3 -2.841964E-05 -2.841964E-05 -2.795667E-14  1.381427E-32 -3.421382E-15  3.250093E-14
         6   4 -2.841964E-05 -2.841964E-05  2.420414E-14 -5.939066E-33  4.912072E-14  1.162518E-15
         6   5 -2.841964E-05 -2.841964E-05  1.206593E-13  7.005614E-14 -4.405279E-14 -6.743897E-16
         6   6 -2.841964E-05 -2.841964E-05 -1.985871E-14 -1.751404E-14 -4.405279E-14 -9.636712E-14
         6   7 -2.841964E-05 -2.841964E-05 -8.049878E-14 -7.005614E-14 -8.282491E-14  2.559666E-14
         6   8 -2.841964E-05 -2.841964E-05  1.216963E-15 -3.502807E-14  9.231544E-14 -4.418440E-15
         7   1 -2.841964E-05 -2.841964E-05 -1.071296E-13 -4.959156E-15 -2.059163E-15 -9.127976E-14
         7   2 -2.841964E-05 -2.841964E-05 -7.986553E-14 -1.850782E-14  5.053413E-15 -8.170370E-14
         7   3 -2.841964E-05 -2.841964E-05 -3.316649E-14 -4.959156E-15  2.113627E-15  1.380445E-14
         7   4 -2.841964E-05 -2.841964E-05  2.959752E-14 -1.850782E-14  6.426506E-15  3.651603E-14
         7   5 -2.841964E-05 -2.841964E-05 -6.592216E-14 -6.393820E-15 -1.479748E-14 -3.605128E-14
         7   6 -2.841964E-05 -2.841964E-05 -4.522583E-14 -2.386206E-14 -7.684901E-15 -6.919586E-14
         7   7 -2.841964E-05 -2.841964E-05  2.161604E-15 -6.393820E-15  3.575284E-15 -1.853724E-14
         7   8 -2.841964E-05 -2.841964E-05  5.835786E-14 -2.386206E-14  7.888163E-15 -5.168183E-14
         8   1 -2.841964E-05 -2.841964E-05  1.812712E-13  1.488693E-13 -2.004460E-14 -8.033783E-14
         8   2 -2.841964E-05 -2.841964E-05  2.303665E-13  1.072735E-13 -2.530560E-15  3.979527E-14
         8   3 -2.841964E-05 -2.841964E-05  1.617075E-13  7.881316E-14 -6.172008E-16  7.232349E-15
         8   4 -2.841964E-05 -2.841964E-05 -3.954091E-14  5.692061E-14 -2.688825E-14  3.886913E-16
         8   5 -2.841964E-05 -2.841964E-05 -8.472321E-14  2.469916E-32  5.723419E-15  2.699149E-14
         8   6 -2.841964E-05 -2.841964E-05  1.034639E-14  5.254211E-14 -3.033599E-15  5.829124E-15
         8   7 -2.841964E-05 -2.841964E-05  3.035228E-14  1.110505E-31 -3.733149E-14 -4.306465E-14
         8   8 -2.841964E-05 -2.841964E-05  1.049499E-13  7.005614E-14 -1.106044E-14 -3.357746E-14
         9   1 -2.841964E-05 -2.841964E-05 -1.696884E-13 -5.254211E-14 -4.585765E-14 -2.221079E-14
         9   2 -2.841964E-05 -2.841964E-05 -5.835507E-14 -5.006255E-32  9.863314E-14 -1.339493E-14
         9   3 -2.841964E-05 -2.841964E-05 -4.273819E-14 -5.254211E-14  6.743307E-15 -5.723886E-14
         9   4 -2.841964E-05 -2.841964E-05  4.272603E-14 -1.751404E-14 -1.077073E-14  1.287613E-14
         9   5 -2.841964E-05 -2.841964E-05 -1.828239E-13 -7.005614E-14  2.494675E-14 -2.222140E-14
         9   6 -2.841964E-05 -2.841964E-05 -5.835507E-14 -1.061644E-31 -6.262343E-14  5.243287E-14
         9   7 -2.841964E-05 -2.841964E-05 -6.900924E-14 -1.401123E-13  2.516637E-14  4.783474E-14
         9   8 -2.841964E-05 -2.841964E-05  2.959051E-14 -8.757018E-14 -9.861705E-15 -1.095720E-13

 strains (elem, integ.pnt.,exx,eyy,ezz,exy,exz,eyz) forset EALL and time  0.1657812E+00

         1   1 -9.473214E-11 -9.473214E-11  8.119898E-11 -2.610122E-53 -2.827277E-27  2.423381E-27
         1   2 -9.473214E-11 -9.473214E-11  8.119898E-11 -1.211690E-27 -1.050132E-26  2.625329E-27
         1   3 -9.473214E-11 -9.473214E-11  8.119898E-11  1.211690E-27 -4.038968E-27  1.615587E-26
         1   4 -9.473214E-11 -9.473214E-11  8.119898E-11 -8.352390E-53 -1.615587E-26  1.817536E-26
         1   5 -9.473214E-11 -9.473214E-11  8.119898E-11 -1.615587E-27 -4.442865E-27 -7.270142E-27
         1   6 -9.473214E-11 -9.473214E-11  8.119898E-11 -4.846761E-27 -1.211690E-26 -1.817536E-27
         1   7 -9.473214E-11 -9.473214E-11  8.119898E-11 -3.231174E-27  1.615587E-27  6.462349E-27
         1   8 -9.473214E-11 -9.473214E-11  8.119898E-11 -6.462349E-27 -9.693523E-27  1.373249E-26
         2   1 -9.473214E-11 -9.473214E-11  8.119898E-11 -1.359912E-20  7.504876E-20  9.032500E-21
         2   2 -9.473214E-11 -9.473214E-11  8.119898E-11  2.167938E-19 -1.011341E-19  2.891028E-21
         2   3 -9.473214E-11 -9.473214E-11  8.119898E-11 -5.075262E-20  4.737614E-21 -8.185128E-21
         2   4 -9.473214E-11 -9.473214E-11  8.119898E-11  1.931929E-19  4.737614E-21  1.288343E-20
         2   5 -9.473214E-11 -9.473214E-11  8.119898E-11  3.442687E-22  1.319810E-19  5.092738E-20
         2   6 -9.473214E-11 -9.473214E-11  8.119898E-11  5.455438E-20 -3.064931E-20  7.970459E-22
         2   7 -9.473214E-11 -9.473214E-11  8.119898E-11 -4.323960E-19  1.768101E-20  3.370975E-20
         2   8 -9.473214E-11 -9.473214E-11  8.119898E-11  1.097050E-19  1.261012E-19  1.078946E-20
         3   1 -9.473214E-11 -9.473214E-11  8.119898E-11  6.815473E-20 -5.079001E-19  1.873547E-20
         3   2 -9.473214E-11 -9.473214E-11  8.119898E-11 -4.468413E-19 -2.639546E-19 -2.215277E-22
         3   3 -9.473214E-11 -9.473214E-11  8.119898E-11 -4.185263E-20 -4.954240E-19 -6.225356E-20
         3   4 -9.473214E-11 -9.473214E-11  8.119898E-11  3.105131E-19 -1.701634E-19  1.291221E-19
         3   5 -9.473214E-11 -9.473214E-11  8.119898E-11  6.751647E-20 -3.060412E-19  1.509107E-19
         3   6 -9.473214E-11 -9.473214E-11  8.119898E-11 -3.661644E-19 -5.770917E-19 -1.301704E-19
         3   7 -9.473214E-11 -9.473214E-11  8.119898E-11  2.519749E-19 -2.304285E-19  6.992171E-20
         3   8 -9.473214E-11 -9.473214E-11  8.119898E-11  5.772355E-19  6.369332E-19 -8.267485E-22
         4   1 -9.473214E-11 -9.473214E-11  8.119898E-11  9.417338E-20  1.657579E-21 -1.701277E-19
         4   2 -9.473214E-11 -9.473214E-11  8.119898E-11  9.227649E-20  5.123877E-21  3.916486E-20
         4   3 -9.473214E-11 -9.473214E-11  8.119898E-11 -1.091145E-19 -1.064674E-21 -7.497353E-21
         4   4 -9.473214E-11 -9.473214E-11  8.119898E-11 -1.110114E-19  1.558552E-20 -1.504525E-20
         4   5 -9.473214E-11 -9.473214E-11  8.119898E-11  1.686919E-19  2.719868E-21 -2.448209E-19
         4   6 -9.473214E-11 -9.473214E-11  8.119898E-11  1.852525E-19  6.186167E-21  7.937565E-20
         4   7 -9.473214E-11 -9.473214E-11  8.119898E-11 -2.107788E-19 -2.062362E-20  1.888599E-19
         4   8 -9.473214E-11 -9.473214E-11  8.119898E-11 -1.942183E-19 -3.973420E-21 -1.939517E-21
         5   1 -9.473214E-11 -9.473214E-11  8.119898E-11  3.659182E-19  1.387034E-19 -1.716455E-19
         5   2 -9.473214E-11 -9.473214E-11  8.119898E-11  2.846031E-19  2.606761E-19 -3.869483E-19
         5   3 -9.473214E-11 -9.473214E-11  8.119898E-11 -9.591875E-36  2.080037E-19 -9.015204E-21
         5   4 -9.473214E-11 -9.473214E-11  8.119898E-11 -5.421011E-20 -6.304685E-20 -4.813513E-20
         5   5 -9.473214E-11 -9.473214E-11  8.119898E-11 -3.252607E-19  1.817540E-19 -3.364520E-20
         5   6 -9.473214E-11 -9.473214E-11  8.119898E-11 -4.336809E-19  3.037268E-19 -2.754835E-19
         5   7 -9.473214E-11 -9.473214E-11  8.119898E-11 -6.505213E-19 -2.498196E-19 -3.364520E-20
         5   8 -9.473214E-11 -9.473214E-11  8.119898E-11 -2.710505E-19  7.544104E-20 -3.153797E-20
         6   1 -9.473214E-11 -9.473214E-11  8.119898E-11 -1.626303E-19 -1.524409E-19 -1.564419E-20
         6   2 -9.473214E-11 -9.473214E-11  8.119898E-11 -5.421011E-20  5.793955E-19 -4.671419E-19
         6   3 -9.473214E-11 -9.473214E-11  8.119898E-11 -9.337686E-38 -2.117998E-20  2.011962E-19
         6   4 -9.473214E-11 -9.473214E-11  8.119898E-11  4.083746E-38  3.040807E-19  7.196541E-21
         6   5 -9.473214E-11 -9.473214E-11  8.119898E-11  4.336809E-19 -2.727078E-19 -4.174793E-21
         6   6 -9.473214E-11 -9.473214E-11  8.119898E-11 -1.084202E-19 -2.727078E-19 -5.965584E-19
         6   7 -9.473214E-11 -9.473214E-11  8.119898E-11 -4.336809E-19 -5.127256E-19  1.584555E-19
         6   8 -9.473214E-11 -9.473214E-11  8.119898E-11 -2.168404E-19  5.714765E-19 -2.735225E-20
         7   1 -9.473214E-11 -9.473214E-11  8.119898E-11 -3.069953E-20 -1.274720E-20 -5.650652E-19
         7   2 -9.473214E-11 -9.473214E-11  8.119898E-11 -1.145722E-19  3.128304E-20 -5.057848E-19
         7   3 -9.473214E-11 -9.473214E-11  8.119898E-11 -3.069953E-20  1.308436E-20  8.545610E-20
         7   4 -9.473214E-11 -9.473214E-11  8.119898E-11 -1.145722E-19  3.978313E-20  2.260516E-19
         7   5 -9.473214E-11 -9.473214E-11  8.119898E-11 -3.958079E-20 -9.160343E-20 -2.231746E-19
         7   6 -9.473214E-11 -9.473214E-11  8.119898E-11 -1.477175E-19 -4.757320E-20 -4.283553E-19
         7   7 -9.473214E-11 -9.473214E-11  8.119898E-11 -3.958079E-20  2.213271E-20 -1.147544E-19
         7   8 -9.473214E-11 -9.473214E-11  8.119898E-11 -1.477175E-19  4.883149E-20 -3.199351E-19
         8   1 -9.473214E-11 -9.473214E-11  8.119898E-11  9.215718E-19 -1.240856E-19 -4.973294E-19
         8   2 -9.473214E-11 -9.473214E-11  8.119898E-11  6.640738E-19 -1.566537E-20  2.463517E-19
         8   3 -9.473214E-11 -9.473214E-11  8.119898E-11  4.878910E-19 -3.820767E-21  4.477168E-20
         8   4 -9.473214E-11 -9.473214E-11  8.119898E-11  3.523657E-19 -1.664511E-19  2.406184E-21
         8   5 -9.473214E-11 -9.473214E-11  8.119898E-11 -9.298717E-38  3.543069E-20  1.670902E-19
         8   6 -9.473214E-11 -9.473214E-11  8.119898E-11  3.252607E-19 -1.877942E-20  3.608505E-20
         8   7 -9.473214E-11 -9.473214E-11  8.119898E-11 -3.809234E-37 -2.310997E-19 -2.665907E-19
         8   8 -9.473214E-11 -9.473214E-11  8.119898E-11  4.336809E-19 -6.846940E-20 -2.078604E-19
         9   1 -9.473214E-11 -9.473214E-11  8.119898E-11 -3.252607E-19 -2.838807E-19 -1.374954E-19
         9   2 -9.473214E-11 -9.473214E-11  8.119898E-11  3.010663E-38  6.105861E-19 -8.292097E-20
         9   3 -9.473214E-11 -9.473214E-11  8.119898E-11 -3.252607E-19  4.174428E-20 -3.543358E-19
         9   4 -9.473214E-11 -9.473214E-11  8.119898E-11 -1.084202E-19 -6.667593E-20  7.970935E-20
         9   5 -9.473214E-11 -9.473214E-11  8.119898E-11 -4.336809E-19  1.544322E-19 -1.375611E-19
         9   6 -9.473214E-11 -9.473214E-11  8.119898E-11  4.680390E-37 -3.876688E-19  3.245844E-19
         9   7 -9.473214E-11 -9.473214E-11  8.119898E-11 -8.673617E-19  1.557918E-19  2.961198E-19
         9   8 -9.473214E-11 -9.473214E-11  8.119898E-11 -5.421011E-19 -6.104865E-20 -6.783026E-19

 displacements (vx,vy,vz) for set NALL and time  0.1747812E+00

         1  0.000000E+00  0.000000E+00  0.000000E+00
         2 -4.993750E-08  0.000000E+00  0.000000E+00
         3 -2.621719E+00  0.000000E+00  0.000000E+00
         4 -2.621719E+00  0.000000E+00  0.000000E+00
         5 -5.243437E+00  0.000000E+00  0.000000E+00
         6 -5.243437E+00  0.000000E+00  0.000000E+00
         7  0.000000E+00 -4.993750E-08  0.000000E+00
         8 -4.993750E-08 -4.993750E-08  0.000000E+00
         9 -2.621719E+00 -4.993750E-08  0.000000E+00
        10 -2.621719E+00 -4.993750E-08  0.000000E+00
        11 -5.243437E+00 -4.993750E-08  0.000000E+00
        12 -5.243437E+00 -4.993750E-08  0.000000E+00
        13  0.000000E+00 -2.621719E+00  0.000000E+00
        14 -4.993750E-08 -2.621719E+00  0.000000E+00
        15 -2.621719E+00 -2.621719E+00  0.000000E+00
        16 -2.621719E+00 -2.621719E+00  0.000000E+00
        17 -5.243437E+00 -2.621719E+00  0.000000E+00
        18 -5.243437E+00 -2.621719E+00  0.000000E+00
        19  0.000000E+00 -2.621719E+00  0.000000E+00
        20 -4.993750E-08 -2.621719E+00  0.000000E+00
        21 -2.621719E+00 -2.621719E+00  0.000000E+00
        22 -2.621719E+00 -2.621719E+00  0.000000E+00
        23 -5.243437E+00 -2.621719E+00  0.000000E+00
        24 -5.243437E+00 -2.621719E+00  0.000000E+00
        25  0.000000E+00 -5.243437E+00  0.000000E+00
        26 -4.993750E-08 -5.243437E+00  0.000000E+00
        27 -2.621719E+00 -5.243437E+00  0.000000E+00
        28 -2.621719E+00 -5.243437E+00  0.000000E+00
        29 -5.243437E+00 -5.243437E+00  0.000000E+00
        30 -5.243437E+00 -5.243437E+00  0.000000E+00
        31  0.000000E+00 -5.243437E+00  0.000000E+00
        32 -4.993750E-08 -5.243437E+00  0.000000E+00
        33 -2.621719E+00 -5.243437E+00  0.000000E+00
        34 -2.621719E+00 -5.243437E+00  0.000000E+00
        35 -5.243437E+00 -5.243437E+00  0.000000E+00
        36 -5.243437E+00 -5.243437E+00  0.000000E+00
        37  0.000000E+00  0.000000E+00  5.992500E-08
        38 -4.993750E-08  0.000000E+00  5.992500E-08
        39 -2.621719E+00  0.000000E+00  5.992500E-08
        40 -2.621719E+00  0.000000E+00  5.992500E-08
        41 -5.243437E+00  0.000000E+00  5.992500E-08
        42 -5.243437E+00  0.000000E+00  5.992500E-08
        43  0.000000E+00 -4.993750E-08  5.992500E-08
        44 -4.993750E-08 -4.993750E-08  5.992500E-08
        45 -2.621719E+00 -4.993750E-08  5.992500E-08
        46 -2.621719E+00 -4.993750E-08  5.992500E-08
        47 -5.243437E+00 -4.993750E-08  5.992500E-08
        48 -5.243437E+00 -4.993750E-08  5.992500E-08
        49  0.000000E+00 -2.621719E+00  5.992500E-08
        50 -4.993750E-08 -2.621719E+00  5.992500E-08
        51 -2.621719E+00 -2.621719E+00  5.992500E-08
        52 -2.621719E+00 -2.621719E+00  5.992500E-08
        53 -5.243437E+00 -2.621719E+00  5.992500E-08
        54 -5.243437E+00 -2.621719E+00  5.992500E-08
        55  0.000000E+00 -2.621719E+00  5.992500E-08
        56 -4.993750E-08 -2.621719E+00  5.992500E-08
        57 -2.621719E+00 -2.621719E+00  5.992500E-08
        58 -2.621719E+00 -2.621719E+00  5.992500E-08
        59 -5.243437E+00 -2.621719E+00  5.992500E-08
        60 -5.243437E+00 -2.621719E+00  5.992500E-08
        61  0.000000E+00 -5.243437E+00  5.992500E-08
        62 -4.993750E-08 -5.243437E+00  5.992500E-08
        63 -2.621719E+00 -5.243437E+00  5.992500E-08
        64 -2.621719E+00 -5.243437E+00  5.992500E-08
        65 -5.243437E+00 -5.243437E+00  5.992500E-08
        66 -5.243437E+00 -5.243437E+00  5.992500E-08
        67  0.000000E+00 -5.243437E+00  5.992500E-08
        68 -4.993750E-08 -5.243437E+00  5.992500E-08
        69 -2.621719E+00 -5.243437E+00  5.992500E-08
        70 -2.621719E+00 -5.243437E+00  5.992500E-08
        71 -5.243437E+00 -5.243437E+00  5.992500E-08
        72 -5.243437E+00 -5.243437E+00  5.992500E-08

 stresses (elem, integ.pnt.,sxx,syy,szz,sxy,sxz,syz) for set EALL and time  0.1747812E+00

         1   1 -2.996250E-05 -2.996250E-05  3.388132E-21 -1.565877E-21  4.240916E-22 -9.134281E-22
         1   2 -2.996250E-05 -2.996250E-05 -1.016440E-20 -1.957346E-21  1.631122E-21  3.588468E-22
         1   3 -2.996250E-05 -2.996250E-05  6.776264E-21 -5.872038E-21  1.304897E-22 -5.480569E-21
         1   4 -2.996250E-05 -2.996250E-05 -6.776264E-21 -6.263507E-21  3.392733E-21  9.134281E-22
         1   5 -2.996250E-05 -2.996250E-05 -1.016440E-20  1.304897E-21 -1.631122E-22  1.435387E-21
         1   6 -2.996250E-05 -2.996250E-05 -6.776264E-21  3.131754E-21  1.043918E-21  1.533254E-21
         1   7 -2.996250E-05 -2.996250E-05 -6.776264E-21  4.436651E-21 -2.087836E-21 -2.609795E-21
         1   8 -2.996250E-05 -2.996250E-05 -3.388132E-21  5.219589E-21  5.219589E-22  2.087836E-21
         2   1 -2.996250E-05 -2.996250E-05  7.107403E-15  1.953352E-15  5.833669E-15  6.902809E-16
         2   2 -2.996250E-05 -2.996250E-05 -4.854461E-15  1.946739E-14 -2.919440E-14  4.378279E-16
         2   3 -2.996250E-05 -2.996250E-05  1.279130E-14  7.290011E-15  3.526737E-14  4.243257E-15
         2   4 -2.996250E-05 -2.996250E-05  2.243074E-14  2.699330E-14  2.392999E-16 -5.339426E-15
         2   5 -2.996250E-05 -2.996250E-05 -1.850757E-15 -3.785586E-14 -2.153067E-15 -9.768128E-16
         2   6 -2.996250E-05 -2.996250E-05 -3.340610E-14  1.468625E-14 -8.720830E-15  7.411250E-15
         2   7 -2.996250E-05 -2.996250E-05  7.117025E-15 -4.558152E-14 -3.413499E-14  2.576163E-15
         2   8 -2.996250E-05 -2.996250E-05 -2.837022E-15  1.571760E-14 -1.662096E-14  1.633996E-15
         3   1 -2.996250E-05 -2.996250E-05 -1.878775E-14 -5.591559E-15 -6.798265E-14 -7.354272E-16
         3   2 -2.996250E-05 -2.996250E-05 -2.754015E-14  4.257204E-14 -2.857607E-14  2.324940E-15
         3   3 -2.996250E-05 -2.996250E-05 -3.535975E-14 -2.086798E-14  7.165623E-14 -9.251375E-15
         3   4 -2.996250E-05 -2.996250E-05 -4.734556E-14  6.232368E-14  8.917027E-14  3.463429E-15
         3   5 -2.996250E-05 -2.996250E-05  9.303105E-15 -7.070042E-14  2.525242E-14  5.771297E-15
         3   6 -2.996250E-05 -2.996250E-05  2.082501E-14  6.941186E-14 -1.853267E-14  7.538305E-15
         3   7 -2.996250E-05 -2.996250E-05 -7.011400E-16 -7.246063E-14 -6.408452E-14 -2.744651E-15
         3   8 -2.996250E-05 -2.996250E-05  7.587376E-15  5.013761E-14 -2.905645E-14  8.676795E-15
         4   1 -2.996250E-05 -2.996250E-05 -7.185844E-14 -1.926508E-14  8.562729E-16 -2.875825E-15
         4   2 -2.996250E-05 -2.996250E-05  8.310486E-14 -1.806787E-14  1.633755E-15 -8.152341E-15
         4   3 -2.996250E-05 -2.996250E-05 -8.970489E-14  2.670926E-14  4.630907E-16  3.215225E-14
         4   4 -2.996250E-05 -2.996250E-05  5.912491E-14  2.790647E-14  2.619782E-15 -4.755892E-14
         4   5 -2.996250E-05 -2.996250E-05  8.587427E-15 -1.636907E-14  2.418172E-15 -4.576079E-14
         4   6 -2.996250E-05 -2.996250E-05  7.816981E-14 -1.324097E-14  3.195654E-15 -7.319400E-14
         4   7 -2.996250E-05 -2.996250E-05 -6.362674E-15 -3.388311E-14 -4.284141E-16 -1.073272E-14
         4   8 -2.996250E-05 -2.996250E-05  5.708620E-14 -3.075501E-14  1.728277E-15 -4.911221E-14
         5   1 -2.996250E-05 -2.996250E-05 -1.840687E-14  7.425788E-31 -2.001834E-14 -1.197000E-14
         5   2 -2.996250E-05 -2.996250E-05  3.016606E-14  5.035285E-14  3.909153E-14 -4.885263E-15
         5   3 -2.996250E-05 -2.996250E-05  4.174507E-14  6.129912E-14  2.391182E-15  3.181508E-14
         5   4 -2.996250E-05 -2.996250E-05  1.565936E-13  1.313553E-13 -1.512285E-14 -7.074518E-15
         5   5 -2.996250E-05 -2.996250E-05 -4.139404E-14 -8.757018E-15 -9.346185E-15 -1.199102E-14
         5   6 -2.996250E-05 -2.996250E-05  2.031441E-14  4.378509E-14  1.254636E-14  5.225352E-14
         5   7 -2.996250E-05 -2.996250E-05  4.174507E-14  5.055029E-30 -2.610406E-14  5.806512E-14
         5   8 -2.996250E-05 -2.996250E-05  1.500258E-13  7.005614E-14 -4.361809E-14  3.255023E-14
         6   1 -2.996250E-05 -2.996250E-05 -1.134767E-13 -5.473136E-14  7.918891E-16 -4.961484E-14
         6   2 -2.996250E-05 -2.996250E-05  3.583959E-15 -6.348838E-14 -7.965128E-15 -4.060939E-14
         6   3 -2.996250E-05 -2.996250E-05 -6.651041E-14  6.129912E-14  6.233945E-14 -2.334379E-14
         6   4 -2.996250E-05 -2.996250E-05 -2.069995E-14 -1.751404E-14  9.797341E-15 -4.936641E-14
         6   5 -2.996250E-05 -2.996250E-05 -1.594511E-13  2.627105E-14  2.955371E-15 -8.935771E-15
         6   6 -2.996250E-05 -2.996250E-05  4.299054E-14  8.757018E-15 -5.396524E-14  1.623038E-14
         6   7 -2.996250E-05 -2.996250E-05 -1.059170E-13  1.050842E-13  4.125705E-14  4.360633E-14
         6   8 -2.996250E-05 -2.996250E-05  2.527439E-14 -4.574683E-32 -2.879909E-14  6.439398E-14
         7   1 -2.996250E-05 -2.996250E-05  7.600335E-14  1.402981E-14  2.209595E-15 -1.749747E-13
         7   2 -2.996250E-05 -2.996250E-05 -2.511514E-15  4.510739E-15  1.338121E-14 -2.992734E-14
         7   3 -2.996250E-05 -2.996250E-05  1.824789E-13 -3.484223E-15  7.019528E-16 -5.237650E-14
         7   4 -2.996250E-05 -2.996250E-05  7.786002E-14 -1.300330E-14  1.819624E-14  4.888581E-14
         7   5 -2.996250E-05 -2.996250E-05 -3.189151E-14  6.981188E-14 -2.925298E-15 -3.910288E-14
         7   6 -2.996250E-05 -2.996250E-05 -4.472874E-14  6.914454E-14  8.246322E-15 -1.395983E-14
         7   7 -2.996250E-05 -2.996250E-05  8.786169E-14 -2.442616E-16 -1.487457E-14  6.598133E-14
         7   8 -2.996250E-05 -2.996250E-05  4.892040E-14 -9.115960E-16  2.619724E-15  8.674587E-14
         8   1 -2.996250E-05 -2.996250E-05  4.561010E-14  4.378509E-14 -3.548115E-14 -1.131868E-13
         8   2 -2.996250E-05 -2.996250E-05 -1.807884E-13  1.225982E-13 -7.020841E-15 -3.670198E-14
         8   3 -2.996250E-05 -2.996250E-05  9.018808E-14 -9.632719E-14 -2.781402E-15  1.495237E-13
         8   4 -2.996250E-05 -2.996250E-05 -1.455454E-13 -1.532478E-14 -2.029544E-14  2.459714E-14
         8   5 -2.996250E-05 -2.996250E-05 -3.977082E-14 -1.050842E-13 -1.690908E-15  9.587445E-17
         8   6 -2.996250E-05 -2.996250E-05 -4.286540E-14 -3.502807E-14  9.255364E-15 -1.224348E-13
         8   7 -2.996250E-05 -2.996250E-05  3.764598E-14 -1.050842E-13  2.464774E-14  3.512394E-14
         8   8 -2.996250E-05 -2.996250E-05  7.119075E-14 -9.632719E-14 -1.038033E-14  8.920484E-15
         9   1 -2.996250E-05 -2.996250E-05  3.100880E-14  6.172919E-33 -1.786800E-14 -1.073654E-14
         9   2 -2.996250E-05 -2.996250E-05  2.202339E-14 -8.757018E-15  3.905261E-14  4.102689E-14
         9   3 -2.996250E-05 -2.996250E-05  4.446116E-14  2.723664E-34  3.245862E-15  6.777499E-15
         9   4 -2.996250E-05 -2.996250E-05 -4.502117E-14 -7.881316E-14  1.083301E-13  2.789136E-14
         9   5 -2.996250E-05 -2.996250E-05 -1.830018E-15 -7.005614E-14 -5.386313E-14 -2.724813E-14
         9   6 -2.996250E-05 -2.996250E-05  4.829444E-14  7.005614E-14 -7.575568E-14 -4.008444E-14
         9   7 -2.996250E-05 -2.996250E-05  1.819010E-14 -7.005614E-14  1.211372E-14  2.529397E-14
         9   8 -2.996250E-05 -2.996250E-05  4.035975E-14  5.254211E-14 -4.042838E-14  5.624275E-14

 strains (elem, integ.pnt.,exx,eyy,ezz,exy,exz,eyz) forset EALL and time  0.1747812E+00

         1   1 -9.987500E-11 -9.987500E-11  8.560714E-11 -9.693523E-27  2.625329E-27 -5.654555E-27
         1   2 -9.987500E-11 -9.987500E-11  8.560714E-11 -1.211690E-26  1.009742E-26  2.221432E-27
         1   3 -9.987500E-11 -9.987500E-11  8.560714E-11 -3.635071E-26  8.077936E-28 -3.392733E-26
         1   4 -9.987500E-11 -9.987500E-11  8.560714E-11 -3.877409E-26  2.100263E-26  5.654555E-27
         1   5 -9.987500E-11 -9.987500E-11  8.560714E-11  8.077936E-27 -1.009742E-27  8.885729E-27
         1   6 -9.987500E-11 -9.987500E-11  8.560714E-11  1.938705E-26  6.462349E-27  9.491574E-27
         1   7 -9.987500E-11 -9.987500E-11  8.560714E-11  2.746498E-26 -1.292470E-26 -1.615587E-26
         1   8 -9.987500E-11 -9.987500E-11  8.560714E-11  3.231174E-26  3.231174E-27  1.292470E-26
         2   1 -9.987500E-11 -9.987500E-11  8.560714E-11  1.209218E-20  3.611319E-20  4.273167E-21
         2   2 -9.987500E-11 -9.987500E-11  8.560714E-11  1.205124E-19 -1.807272E-19  2.710363E-21
         2   3 -9.987500E-11 -9.987500E-11  8.560714E-11  4.512864E-20  2.183218E-19  2.626778E-20
         2   4 -9.987500E-11 -9.987500E-11  8.560714E-11  1.671014E-19  1.481380E-21 -3.305359E-20
         2   5 -9.987500E-11 -9.987500E-11  8.560714E-11 -2.343458E-19 -1.332851E-20 -6.046937E-21
         2   6 -9.987500E-11 -9.987500E-11  8.560714E-11  9.091486E-20 -5.398609E-20  4.587917E-20
         2   7 -9.987500E-11 -9.987500E-11  8.560714E-11 -2.821713E-19 -2.113119E-19  1.594768E-20
         2   8 -9.987500E-11 -9.987500E-11  8.560714E-11  9.729943E-20 -1.028916E-19  1.011521E-20
         3   1 -9.987500E-11 -9.987500E-11  8.560714E-11 -3.461441E-20 -4.208450E-19 -4.552645E-21
         3   2 -9.987500E-11 -9.987500E-11  8.560714E-11  2.635412E-19 -1.768995E-19  1.439248E-20
         3   3 -9.987500E-11 -9.987500E-11  8.560714E-11 -1.291828E-19  4.435862E-19 -5.727042E-20
         3   4 -9.987500E-11 -9.987500E-11  8.560714E-11  3.858133E-19  5.520064E-19  2.144028E-20
         3   5 -9.987500E-11 -9.987500E-11  8.560714E-11 -4.376693E-19  1.563245E-19  3.572707E-20
         3   6 -9.987500E-11 -9.987500E-11  8.560714E-11  4.296925E-19 -1.147260E-19  4.666570E-20
         3   7 -9.987500E-11 -9.987500E-11  8.560714E-11 -4.485658E-19 -3.967137E-19 -1.699070E-20
         3   8 -9.987500E-11 -9.987500E-11  8.560714E-11  3.103757E-19 -1.798732E-19  5.371349E-20
         4   1 -9.987500E-11 -9.987500E-11  8.560714E-11 -1.192600E-19  5.300737E-21 -1.780272E-20
         4   2 -9.987500E-11 -9.987500E-11  8.560714E-11 -1.118488E-19  1.011372E-20 -5.046687E-20
         4   3 -9.987500E-11 -9.987500E-11  8.560714E-11  1.653430E-19  2.866752E-21  1.990377E-19
         4   4 -9.987500E-11 -9.987500E-11  8.560714E-11  1.727543E-19  1.621770E-20 -2.944124E-19
         4   5 -9.987500E-11 -9.987500E-11  8.560714E-11 -1.013323E-19  1.496964E-20 -2.832811E-19
         4   6 -9.987500E-11 -9.987500E-11  8.560714E-11 -8.196792E-20  1.978262E-20 -4.531057E-19
         4   7 -9.987500E-11 -9.987500E-11  8.560714E-11 -2.097526E-19 -2.652087E-21 -6.644067E-20
         4   8 -9.987500E-11 -9.987500E-11  8.560714E-11 -1.903881E-19  1.069886E-20 -3.040279E-19
         5   1 -9.987500E-11 -9.987500E-11  8.560714E-11 -4.566179E-36 -1.239230E-19 -7.410002E-20
         5   2 -9.987500E-11 -9.987500E-11  8.560714E-11  3.117081E-19  2.419952E-19 -3.024211E-20
         5   3 -9.987500E-11 -9.987500E-11  8.560714E-11  3.794708E-19  1.480256E-20  1.969505E-19
         5   4 -9.987500E-11 -9.987500E-11  8.560714E-11  8.131516E-19 -9.361766E-20 -4.379463E-20
         5   5 -9.987500E-11 -9.987500E-11  8.560714E-11 -5.421011E-20 -5.785734E-20 -7.423015E-20
         5   6 -9.987500E-11 -9.987500E-11  8.560714E-11  2.710505E-19  7.766794E-20  3.234742E-19
         5   7 -9.987500E-11 -9.987500E-11  8.560714E-11 -3.160549E-35 -1.615965E-19  3.594507E-19
         5   8 -9.987500E-11 -9.987500E-11  8.560714E-11  4.336809E-19 -2.700168E-19  2.015014E-19
         6   1 -9.987500E-11 -9.987500E-11  8.560714E-11 -3.388132E-19  4.902170E-21 -3.071395E-19
         6   2 -9.987500E-11 -9.987500E-11  8.560714E-11 -3.930233E-19 -4.930794E-20 -2.513915E-19
         6   3 -9.987500E-11 -9.987500E-11  8.560714E-11  3.794708E-19  3.859109E-19 -1.445092E-19
         6   4 -9.987500E-11 -9.987500E-11  8.560714E-11 -1.084202E-19  6.065021E-20 -3.056016E-19
         6   5 -9.987500E-11 -9.987500E-11  8.560714E-11  1.626303E-19  1.829515E-20 -5.531668E-20
         6   6 -9.987500E-11 -9.987500E-11  8.560714E-11  5.421011E-20 -3.340706E-19  1.004738E-19
         6   7 -9.987500E-11 -9.987500E-11  8.560714E-11  6.505213E-19  2.554008E-19  2.699440E-19
         6   8 -9.987500E-11 -9.987500E-11  8.560714E-11  1.148990E-37 -1.782801E-19  3.986294E-19
         7   1 -9.987500E-11 -9.987500E-11  8.560714E-11  8.685122E-20  1.367845E-20 -1.083177E-18
         7   2 -9.987500E-11 -9.987500E-11  8.560714E-11  2.792363E-20  8.283609E-20 -1.852645E-19
         7   3 -9.987500E-11 -9.987500E-11  8.560714E-11 -2.156900E-20  4.345422E-21 -3.242355E-19
         7   4 -9.987500E-11 -9.987500E-11  8.560714E-11 -8.049659E-20  1.126434E-19  3.026265E-19
         7   5 -9.987500E-11 -9.987500E-11  8.560714E-11  4.321688E-19 -1.810898E-20 -2.420655E-19
         7   6 -9.987500E-11 -9.987500E-11  8.560714E-11  4.280377E-19  5.104866E-20 -8.641799E-20
         7   7 -9.987500E-11 -9.987500E-11  8.560714E-11 -1.512096E-21 -9.208065E-20  4.084558E-19
         7   8 -9.987500E-11 -9.987500E-11  8.560714E-11 -5.643214E-21  1.621734E-20  5.369983E-19
         8   1 -9.987500E-11 -9.987500E-11  8.560714E-11  2.710505E-19 -2.196452E-19 -7.006803E-19
         8   2 -9.987500E-11 -9.987500E-11  8.560714E-11  7.589415E-19 -4.346235E-20 -2.272027E-19
         8   3 -9.987500E-11 -9.987500E-11  8.560714E-11 -5.963112E-19 -1.721820E-20  9.256230E-19
         8   4 -9.987500E-11 -9.987500E-11  8.560714E-11 -9.486769E-20 -1.256384E-19  1.522680E-19
         8   5 -9.987500E-11 -9.987500E-11  8.560714E-11 -6.505213E-19 -1.046752E-20  5.935086E-22
         8   6 -9.987500E-11 -9.987500E-11  8.560714E-11 -2.168404E-19  5.729511E-20 -7.579296E-19
         8   7 -9.987500E-11 -9.987500E-11  8.560714E-11 -6.505213E-19  1.525812E-19  2.174339E-19
         8   8 -9.987500E-11 -9.987500E-11  8.560714E-11 -5.963112E-19 -6.425921E-20  5.522204E-20
         9   1 -9.987500E-11 -9.987500E-11  8.560714E-11 -1.838703E-40 -1.106114E-19 -6.646427E-20
         9   2 -9.987500E-11 -9.987500E-11  8.560714E-11 -5.421011E-20  2.417543E-19  2.539760E-19
         9   3 -9.987500E-11 -9.987500E-11  8.560714E-11  1.686078E-39  2.009343E-20  4.195595E-20
         9   4 -9.987500E-11 -9.987500E-11  8.560714E-11 -4.878910E-19  6.706147E-19  1.726608E-19
         9   5 -9.987500E-11 -9.987500E-11  8.560714E-11 -4.336809E-19 -3.334384E-19 -1.686789E-19
         9   6 -9.987500E-11 -9.987500E-11  8.560714E-11  4.336809E-19 -4.689637E-19 -2.481418E-19
         9   7 -9.987500E-11 -9.987500E-11  8.560714E-11 -4.336809E-19  7.498970E-20  1.565817E-19
         9   8 -9.987500E-11 -9.987500E-11  8.560714E-11  3.252607E-19 -2.502710E-19  3.481694E-19

 displacements (vx,vy,vz) for set NALL and time  0.1837813E+00

         1  0.000000E+00  0.000000E+00  0.000000E+00
         2 -5.250893E-08  0.000000E+00  0.000000E+00
         3 -2.756719E+00  0.000000E+00  0.000000E+00
         4 -2.756719E+00  0.000000E+00  0.000000E+00
         5 -5.513437E+00  0.000000E+00  0.000000E+00
         6 -5.513438E+00  0.000000E+00  0.000000E+00
         7  0.000000E+00 -5.250893E-08  0.000000E+00
         8 -5.250893E-08 -5.250893E-08  0.000000E+00
         9 -2.756719E+00 -5.250893E-08  0.000000E+00
        10 -2.756719E+00 -5.250893E-08  0.000000E+00
        11 -5.513437E+00 -5.250893E-08  0.000000E+00
        12 -5.513438E+00 -5.250893E-08  0.000000E+00
        13  0.000000E+00 -2.756719E+00  0.000000E+00
        14 -5.250893E-08 -2.756719E+00  0.000000E+00
        15 -2.756719E+00 -2.756719E+00  0.000000E+00
        16 -2.756719E+00 -2.756719E+00  0.000000E+00
        17 -5.513437E+00 -2.756719E+00  0.000000E+00
        18 -5.513438E+00 -2.756719E+00  0.000000E+00
        19  0.000000E+00 -2.756719E+00  0.000000E+00
        20 -5.250893E-08 -2.756719E+00  0.000000E+00
        21 -2.756719E+00 -2.756719E+00  0.000000E+00
        22 -2.756719E+00 -2.756719E+00  0.000000E+00
        23 -5.513437E+00 -2.756719E+00  0.000000E+00
        24 -5.513438E+00 -2.756719E+00  0.000000E+00
        25  0.000000E+00 -5.513437E+00  0.000000E+00
        26 -5.250893E-08 -5.513437E+00  0.000000E+00
        27 -2.756719E+00 -5.513437E+00  0.000000E+00
        28 -2.756719E+00 -5.513437E+00  0.000000E+00
        29 -5.513437E+00 -5.513437E+00  0.000000E+00
        30 -5.513438E+00 -5.513437E+00  0.000000E+00
        31  0.000000E+00 -5.513438E+00  0.000000E+00
        32 -5.250893E-08 -5.513438E+00  0.000000E+00
        33 -2.756719E+00 -5.513438E+00  0.000000E+00
        34 -2.756719E+00 -5.513438E+00  0.000000E+00
        35 -5.513437E+00 -5.513438E+00  0.000000E+00
        36 -5.513438E+00 -5.513438E+00  0.000000E+00
        37  0.000000E+00  0.000000E+00  6.301071E-08
        38 -5.250893E-08  0.000000E+00  6.301071E-08
        39 -2.756719E+00  0.000000E+00  6.301071E-08
        40 -2.756719E+00  0.000000E+00  6.301071E-08
        41 -5.513437E+00  0.000000E+00  6.301071E-08
        42 -5.513438E+00  0.000000E+00  6.301071E-08
        43  0.000000E+00 -5.250893E-08  6.301071E-08
        44 -5.250893E-08 -5.250893E-08  6.301071E-08
        45 -2.756719E+00 -5.250893E-08  6.301071E-08
        46 -2.756719E+00 -5.250893E-08  6.301071E-08
        47 -5.513437E+00 -5.250893E-08  6.301071E-08
        48 -5.513438E+00 -5.250893E-08  6.301071E-08
        49  0.000000E+00 -2.756719E+00  6.301071E-08
        50 -5.250893E-08 -2.756719E+00  6.301071E-08
        51 -2.756719E+00 -2.756719E+00  6.301071E-08
        52 -2.756719E+00 -2.756719E+00  6.301071E-08
        53 -5.513437E+00 -2.756719E+00  6.301071E-08
        54 -5.513438E+00 -2.756719E+00  6.301071E-08
        55  0.000000E+00 -2.756719E+00  6.301071E-08
        56 -5.250893E-08 -2.756719E+00  6.301071E-08
        57 -2.756719E+00 -2.756719E+00  6.301071E-08
        58 -2.756719E+00 -2.756719E+00  6.301071E-08
        59 -5.513437E+00 -2.756719E+00  6.301071E-08
        60 -5.513438E+00 -2.756719E+00  6.301071E-08
        61  0.000000E+00 -5.513437E+00  6.301071E-08
        62 -5.250893E-08 -5.513437E+00  6.301071E-08
        63 -2.756719E+00 -5.513437E+00  6.301071E-08
        64 -2.756719E+00 -5.513437E+00  6.301071E-08
        65 -5.513437E+00 -5.513437E+00  6.301071E-08
        66 -5.513438E+00 -5.513437E+00  6.301071E-08
        67  0.000000E+00 -5.513438E+00  6.301071E-08
        68 -5.250893E-08 -5.513438E+00  6.301071E-08
        69 -2.756719E+00 -5.513438E+00  6.301071E-08
        70 -2.756719E+00 -5.513438E+00  6.301071E-08
        71 -5.513437E+00 -5.513438E+00  6.301071E-08
        72 -5.513438E+00 -5.513438E+00  6.301071E-08

 stresses (elem, integ.pnt.,sxx,syy,szz,sxy,sxz,syz) for set EALL and time  0.1837813E+00

         1   1 -3.150536E-05 -3.150536E-05  6.776264E-21  4.567141E-22  2.609795E-22  5.219589E-22
         1   2 -3.150536E-05 -3.150536E-05  3.388132E-21  7.829384E-22  7.176935E-22 -1.011295E-21
         1   3 -3.150536E-05 -3.150536E-05 -6.776264E-21  1.761611E-21  6.524487E-22  1.565877E-21
         1   4 -3.150536E-05 -3.150536E-05 -6.776264E-21  2.087836E-21  3.914692E-21 -1.761611E-21
         1   5 -3.150536E-05 -3.150536E-05  6.776264E-21  7.829384E-22  5.872038E-22 -5.219589E-22
         1   6 -3.150536E-05 -3.150536E-05 -3.388132E-21  5.480569E-21  1.043918E-21 -3.294866E-21
         1   7 -3.150536E-05 -3.150536E-05  6.776264E-21 -2.609795E-21 -1.304897E-22  1.043918E-21
         1   8 -3.150536E-05 -3.150536E-05 -6.776264E-21  2.087836E-21  3.131754E-21 -4.045182E-21
         2   1 -3.150536E-05 -3.150536E-05  2.455241E-14  3.479220E-14 -1.038132E-14 -3.193209E-16
         2   2 -3.150536E-05 -3.150536E-05  1.249157E-14  3.041369E-14  3.997153E-14  4.508389E-16
         2   3 -3.150536E-05 -3.150536E-05  4.581373E-14  3.414779E-14  3.463939E-14  8.121673E-16
         2   4 -3.150536E-05 -3.150536E-05  4.219240E-14  3.414779E-14 -8.795885E-14  3.106410E-16
         2   5 -3.150536E-05 -3.150536E-05 -5.188463E-14 -8.875269E-16 -1.481901E-14 -2.323210E-15
         2   6 -3.150536E-05 -3.150536E-05 -6.661600E-14  1.662651E-14 -6.061993E-15  1.822750E-15
         2   7 -3.150536E-05 -3.150536E-05 -4.352248E-15 -3.312297E-15 -3.647863E-14 -1.191721E-15
         2   8 -3.150536E-05 -3.150536E-05 -1.064412E-14  2.295876E-14  3.357751E-14  1.682550E-15
         3   1 -3.150536E-05 -3.150536E-05 -6.337301E-14 -9.969828E-15 -9.017303E-14 -7.472734E-15
         3   2 -3.150536E-05 -3.150536E-05 -1.220079E-13  3.381526E-14 -9.017303E-14  1.125697E-14
         3   3 -3.150536E-05 -3.150536E-05 -4.599569E-14 -3.720791E-14 -1.370879E-13 -2.433113E-14
         3   4 -3.150536E-05 -3.150536E-05 -6.619571E-14  6.577182E-15 -1.448963E-14  3.019510E-14
         3   5 -3.150536E-05 -3.150536E-05  3.257961E-14  8.373586E-15 -2.722801E-14 -1.103023E-14
         3   6 -3.150536E-05 -3.150536E-05  4.911740E-14 -1.317387E-13  4.720664E-14  2.307344E-14
         3   7 -3.150536E-05 -3.150536E-05 -8.139833E-14  3.125065E-14 -1.288250E-13 -2.788863E-14
         3   8 -3.150536E-05 -3.150536E-05 -2.642563E-14  1.373661E-14  2.880129E-14  4.201157E-14
         4   1 -3.150536E-05 -3.150536E-05  3.361010E-14  1.862943E-14 -9.032416E-16 -9.211948E-17
         4   2 -3.150536E-05 -3.150536E-05  1.819219E-14  2.167675E-14  2.796218E-15 -7.480035E-14
         4   3 -3.150536E-05 -3.150536E-05 -2.225965E-14  1.115397E-15  8.673009E-16 -8.849137E-15
         4   4 -3.150536E-05 -3.150536E-05 -9.640404E-15  4.162718E-15 -1.810889E-15  7.406894E-14
         4   5 -3.150536E-05 -3.150536E-05  2.824344E-14  3.287533E-14 -7.070403E-15 -2.426841E-14
         4   6 -3.150536E-05 -3.150536E-05  2.596106E-14  2.699394E-14 -3.370944E-15 -2.380864E-15
         4   7 -3.150536E-05 -3.150536E-05 -4.101938E-14 -2.152738E-15  5.915000E-15 -6.805350E-14
         4   8 -3.150536E-05 -3.150536E-05 -1.526460E-14 -8.034126E-15  3.236810E-15 -3.521968E-14
         5   1 -3.150536E-05 -3.150536E-05 -3.356413E-14  8.757018E-15 -1.893594E-14 -5.504599E-14
         5   2 -3.150536E-05 -3.150536E-05 -8.268253E-14  2.189254E-14  1.828138E-14  3.796723E-14
         5   3 -3.150536E-05 -3.150536E-05  9.145543E-15 -1.751404E-14 -3.573761E-16 -2.877494E-14
         5   4 -3.150536E-05 -3.150536E-05  1.368602E-16  1.751404E-14 -6.165650E-14  2.483170E-14
         5   5 -3.150536E-05 -3.150536E-05  1.897797E-14 -1.751404E-14 -1.406365E-14 -5.547615E-14
         5   6 -3.150536E-05 -3.150536E-05  1.143504E-13  6.129912E-14  6.693876E-14  5.417350E-15
         5   7 -3.150536E-05 -3.150536E-05  9.145543E-15  7.005614E-14  3.369432E-14 -4.671913E-14
         5   8 -3.150536E-05 -3.150536E-05  1.984015E-14  2.627105E-14  7.423272E-15  9.795859E-15
         6   1 -3.150536E-05 -3.150536E-05 -2.631121E-14 -6.129912E-14 -6.392754E-14 -3.254067E-15
         6   2 -3.150536E-05 -3.150536E-05 -4.496530E-14 -8.757018E-15 -7.706306E-14  6.172635E-15
         6   3 -3.150536E-05 -3.150536E-05  1.163588E-13 -7.881316E-14 -8.526494E-15 -2.952512E-14
         6   4 -3.150536E-05 -3.150536E-05  1.172317E-13 -4.378509E-14  1.140718E-13 -1.790916E-14
         6   5 -3.150536E-05 -3.150536E-05 -1.051244E-13 -7.005614E-14  4.507916E-14  1.178027E-14
         6   6 -3.150536E-05 -3.150536E-05 -7.780412E-14 -1.751404E-14 -1.184145E-14  3.996401E-14
         6   7 -3.150536E-05 -3.150536E-05 -6.753852E-14 -3.502807E-14  3.823483E-14 -1.449078E-14
         6   8 -3.150536E-05 -3.150536E-05 -1.389111E-13 -2.756453E-32  2.072080E-14 -3.821074E-15
         7   1 -3.150536E-05 -3.150536E-05  7.536888E-14  3.814520E-14 -4.538770E-15 -3.215274E-14
         7   2 -3.150536E-05 -3.150536E-05 -1.310911E-13  4.666137E-14  7.848769E-15 -1.099242E-13
         7   3 -3.150536E-05 -3.150536E-05  1.077820E-13  7.317327E-14  9.397659E-15  2.130438E-13
         7   4 -3.150536E-05 -3.150536E-05 -1.845898E-15  8.168944E-14  2.112739E-14 -4.614995E-16
         7   5 -3.150536E-05 -3.150536E-05 -2.664120E-13 -2.073884E-13 -2.932646E-14 -6.783144E-15
         7   6 -3.150536E-05 -3.150536E-05 -1.444839E-13 -1.997931E-13 -1.693892E-14 -8.522837E-14
         7   7 -3.150536E-05 -3.150536E-05 -2.353803E-13  2.780050E-15  2.334281E-14  1.073089E-14
         7   8 -3.150536E-05 -3.150536E-05 -1.662003E-14  1.037529E-14  3.507254E-14 -2.392925E-14
         8   1 -3.150536E-05 -3.150536E-05  1.113581E-13  5.254211E-14 -4.846523E-14 -9.371630E-14
         8   2 -3.150536E-05 -3.150536E-05  9.979713E-14  6.567763E-14 -5.065448E-14 -5.827531E-14
         8   3 -3.150536E-05 -3.150536E-05  2.152734E-13 -1.751404E-14 -8.645726E-15  1.514802E-13
         8   4 -3.150536E-05 -3.150536E-05 -8.021745E-14  1.751404E-14  4.389638E-14  1.737857E-13
         8   5 -3.150536E-05 -3.150536E-05 -5.940374E-14  5.834228E-32 -3.732698E-14 -2.763051E-14
         8   6 -3.150536E-05 -3.150536E-05 -5.782919E-14  7.881316E-14 -5.703027E-14 -9.700447E-14
         8   7 -3.150536E-05 -3.150536E-05  3.137607E-14  1.450680E-33  2.761781E-15  4.242563E-14
         8   8 -3.150536E-05 -3.150536E-05 -2.767534E-14  1.751404E-14 -3.226629E-14 -5.055786E-15
         9   1 -3.150536E-05 -3.150536E-05 -1.491541E-13 -7.005614E-14 -6.335581E-14 -4.767507E-14
         9   2 -3.150536E-05 -3.150536E-05 -1.296610E-13 -1.751404E-14 -1.081370E-14 -4.955178E-14
         9   3 -3.150536E-05 -3.150536E-05 -1.082737E-14  2.682180E-35  4.451120E-16  4.867036E-15
         9   4 -3.150536E-05 -3.150536E-05  1.498391E-13  3.502807E-14  7.050125E-14  5.115392E-14
         9   5 -3.150536E-05 -3.150536E-05 -4.406985E-14  1.812613E-31 -6.256418E-14 -8.692018E-14
         9   6 -3.150536E-05 -3.150536E-05  1.694293E-15 -1.401123E-13  3.814152E-14  4.736132E-14
         9   7 -3.150536E-05 -3.150536E-05 -1.159116E-13  3.735794E-34  1.661180E-15  1.816403E-14
         9   8 -3.150536E-05 -3.150536E-05 -1.391425E-13 -1.751404E-14 -1.585285E-14 -4.020885E-14

 strains (elem, integ.pnt.,exx,eyy,ezz,exy,exz,eyz) forset EALL and time  0.1837813E+00

         1   1 -1.050179E-10 -1.050179E-10  9.001530E-11  2.827277E-27  1.615587E-27  3.231174E-27
         1   2 -1.050179E-10 -1.050179E-10  9.001530E-11  4.846761E-27  4.442865E-27 -6.260400E-27
         1   3 -1.050179E-10 -1.050179E-10  9.001530E-11  1.090521E-26  4.038968E-27  9.693523E-27
         1   4 -1.050179E-10 -1.050179E-10  9.001530E-11  1.292470E-26  2.423381E-26 -1.090521E-26
         1   5 -1.050179E-10 -1.050179E-10  9.001530E-11  4.846761E-27  3.635071E-27 -3.231174E-27
         1   6 -1.050179E-10 -1.050179E-10  9.001530E-11  3.392733E-26  6.462349E-27 -2.039679E-26
         1   7 -1.050179E-10 -1.050179E-10  9.001530E-11 -1.615587E-26 -8.077936E-28  6.462349E-27
         1   8 -1.050179E-10 -1.050179E-10  9.001530E-11  1.292470E-26  1.938705E-26 -2.504160E-26
         2   1 -1.050179E-10 -1.050179E-10  9.001530E-11  2.153803E-19 -6.426534E-20 -1.976748E-21
         2   2 -1.050179E-10 -1.050179E-10  9.001530E-11  1.882752E-19  2.474428E-19  2.790907E-21
         2   3 -1.050179E-10 -1.050179E-10  9.001530E-11  2.113911E-19  2.144343E-19  5.027702E-21
         2   4 -1.050179E-10 -1.050179E-10  9.001530E-11  2.113911E-19 -5.445072E-19  1.923016E-21
         2   5 -1.050179E-10 -1.050179E-10  9.001530E-11 -5.494214E-21 -9.173673E-20 -1.438177E-20
         2   6 -1.050179E-10 -1.050179E-10  9.001530E-11  1.029260E-19 -3.752663E-20  1.128369E-20
         2   7 -1.050179E-10 -1.050179E-10  9.001530E-11 -2.050470E-20 -2.258201E-19 -7.377320E-21
         2   8 -1.050179E-10 -1.050179E-10  9.001530E-11  1.421256E-19  2.078607E-19  1.041579E-20
         3   1 -1.050179E-10 -1.050179E-10  9.001530E-11 -6.171798E-20 -5.582140E-19 -4.625978E-20
         3   2 -1.050179E-10 -1.050179E-10  9.001530E-11  2.093326E-19 -5.582140E-19  6.968598E-20
         3   3 -1.050179E-10 -1.050179E-10  9.001530E-11 -2.303347E-19 -8.486392E-19 -1.506213E-19
         3   4 -1.050179E-10 -1.050179E-10  9.001530E-11  4.071589E-20 -8.969768E-20  1.869220E-19
         3   5 -1.050179E-10 -1.050179E-10  9.001530E-11  5.183648E-20 -1.685543E-19 -6.828236E-20
         3   6 -1.050179E-10 -1.050179E-10  9.001530E-11 -8.155253E-19  2.922316E-19  1.428356E-19
         3   7 -1.050179E-10 -1.050179E-10  9.001530E-11  1.934564E-19 -7.974883E-19 -1.726439E-19
         3   8 -1.050179E-10 -1.050179E-10  9.001530E-11  8.503618E-20  1.782937E-19  2.600716E-19
         4   1 -1.050179E-10 -1.050179E-10  9.001530E-11  1.153251E-19 -5.591496E-21 -5.702635E-22
         4   2 -1.050179E-10 -1.050179E-10  9.001530E-11  1.341894E-19  1.730992E-20 -4.630498E-19
         4   3 -1.050179E-10 -1.050179E-10  9.001530E-11  6.904837E-21  5.369006E-21 -5.478037E-20
         4   4 -1.050179E-10 -1.050179E-10  9.001530E-11  2.576921E-20 -1.121026E-20  4.585220E-19
         4   5 -1.050179E-10 -1.050179E-10  9.001530E-11  2.035140E-19 -4.376916E-20 -1.502330E-19
         4   6 -1.050179E-10 -1.050179E-10  9.001530E-11  1.671054E-19 -2.086775E-20 -1.473868E-20
         4   7 -1.050179E-10 -1.050179E-10  9.001530E-11 -1.332647E-20  3.661667E-20 -4.212836E-19
         4   8 -1.050179E-10 -1.050179E-10  9.001530E-11 -4.973507E-20  2.003739E-20 -2.180266E-19
         5   1 -1.050179E-10 -1.050179E-10  9.001530E-11  5.421011E-20 -1.172225E-19 -3.407609E-19
         5   2 -1.050179E-10 -1.050179E-10  9.001530E-11  1.355253E-19  1.131705E-19  2.350352E-19
         5   3 -1.050179E-10 -1.050179E-10  9.001530E-11 -1.084202E-19 -2.212328E-21 -1.781306E-19
         5   4 -1.050179E-10 -1.050179E-10  9.001530E-11  1.084202E-19 -3.816831E-19  1.537200E-19
         5   5 -1.050179E-10 -1.050179E-10  9.001530E-11 -1.084202E-19 -8.706069E-20 -3.434238E-19
         5   6 -1.050179E-10 -1.050179E-10  9.001530E-11  3.794708E-19  4.143828E-19  3.353597E-20
         5   7 -1.050179E-10 -1.050179E-10  9.001530E-11  4.336809E-19  2.085839E-19 -2.892137E-19
         5   8 -1.050179E-10 -1.050179E-10  9.001530E-11  1.626303E-19  4.595359E-20  6.064103E-20
         6   1 -1.050179E-10 -1.050179E-10  9.001530E-11 -3.794708E-19 -3.957419E-19 -2.014422E-20
         6   2 -1.050179E-10 -1.050179E-10  9.001530E-11 -5.421011E-20 -4.770571E-19  3.821155E-20
         6   3 -1.050179E-10 -1.050179E-10  9.001530E-11 -4.878910E-19 -5.278306E-20 -1.827746E-19
         6   4 -1.050179E-10 -1.050179E-10  9.001530E-11 -2.710505E-19  7.061585E-19 -1.108663E-19
         6   5 -1.050179E-10 -1.050179E-10  9.001530E-11 -4.336809E-19  2.790615E-19  7.292550E-20
         6   6 -1.050179E-10 -1.050179E-10  9.001530E-11 -1.084202E-19 -7.330424E-20  2.473963E-19
         6   7 -1.050179E-10 -1.050179E-10  9.001530E-11 -2.168404E-19  2.366918E-19 -8.970483E-20
         6   8 -1.050179E-10 -1.050179E-10  9.001530E-11 -5.260124E-38  1.282716E-19 -2.365427E-20
         7   1 -1.050179E-10 -1.050179E-10  9.001530E-11  2.361370E-19 -2.809714E-20 -1.990408E-19
         7   2 -1.050179E-10 -1.050179E-10  9.001530E-11  2.888561E-19  4.858762E-20 -6.804833E-19
         7   3 -1.050179E-10 -1.050179E-10  9.001530E-11  4.529774E-19  5.817599E-20  1.318842E-18
         7   4 -1.050179E-10 -1.050179E-10  9.001530E-11  5.056965E-19  1.307886E-19 -2.856902E-21
         7   5 -1.050179E-10 -1.050179E-10  9.001530E-11 -1.283833E-18 -1.815447E-19 -4.199089E-20
         7   6 -1.050179E-10 -1.050179E-10  9.001530E-11 -1.236815E-18 -1.048600E-19 -5.276042E-19
         7   7 -1.050179E-10 -1.050179E-10  9.001530E-11  1.720983E-20  1.445031E-19  6.642932E-20
         7   8 -1.050179E-10 -1.050179E-10  9.001530E-11  6.422796E-20  2.171157E-19 -1.481334E-19
         8   1 -1.050179E-10 -1.050179E-10  9.001530E-11  3.252607E-19 -3.000228E-19 -5.801485E-19
         8   2 -1.050179E-10 -1.050179E-10  9.001530E-11  4.065758E-19 -3.135754E-19 -3.607519E-19
         8   3 -1.050179E-10 -1.050179E-10  9.001530E-11 -1.084202E-19 -5.352116E-20  9.377345E-19
         8   4 -1.050179E-10 -1.050179E-10  9.001530E-11  1.084202E-19  2.717395E-19  1.075816E-18
         8   5 -1.050179E-10 -1.050179E-10  9.001530E-11  4.947454E-38 -2.310718E-19 -1.710460E-19
         8   6 -1.050179E-10 -1.050179E-10  9.001530E-11  4.878910E-19 -3.530445E-19 -6.005039E-19
         8   7 -1.050179E-10 -1.050179E-10  9.001530E-11 -1.049193E-37  1.709674E-20  2.626348E-19
         8   8 -1.050179E-10 -1.050179E-10  9.001530E-11  1.084202E-19 -1.997437E-19 -3.129772E-20
         9   1 -1.050179E-10 -1.050179E-10  9.001530E-11 -4.336809E-19 -3.922026E-19 -2.951314E-19
         9   2 -1.050179E-10 -1.050179E-10  9.001530E-11 -1.084202E-19 -6.694195E-20 -3.067491E-19
         9   3 -1.050179E-10 -1.050179E-10  9.001530E-11  1.660397E-40  2.755455E-21  3.012927E-20
         9   4 -1.050179E-10 -1.050179E-10  9.001530E-11  2.168404E-19  4.364363E-19  3.166671E-19
         9   5 -1.050179E-10 -1.050179E-10  9.001530E-11  3.481243E-38 -3.873021E-19 -5.380773E-19
         9   6 -1.050179E-10 -1.050179E-10  9.001530E-11 -8.673617E-19  2.361142E-19  2.931891E-19
         9   7 -1.050179E-10 -1.050179E-10  9.001530E-11  2.312635E-39  1.028350E-20  1.124440E-19
         9   8 -1.050179E-10 -1.050179E-10  9.001530E-11 -1.084202E-19 -9.813672E-20 -2.489119E-19

 displacements (vx,vy,vz) for set NALL and time  0.1927813E+00

         1  0.000000E+00  0.000000E+00  0.000000E+00
         2 -5.508036E-08  0.000000E+00  0.000000E+00
         3 -2.891719E+00  0.000000E+00  0.000000E+00
         4 -2.891719E+00  0.000000E+00  0.000000E+00
         5 -5.783437E+00  0.000000E+00  0.000000E+00
         6 -5.783438E+00  0.000000E+00  0.000000E+00
         7  0.000000E+00 -5.508036E-08  0.000000E+00
         8 -5.508036E-08 -5.508036E-08  0.000000E+00
         9 -2.891719E+00 -5.508036E-08  0.000000E+00
        10 -2.891719E+00 -5.508036E-08  0.000000E+00
        11 -5.783437E+00 -5.508036E-08  0.000000E+00
        12 -5.783438E+00 -5.508036E-08  0.000000E+00
        13  0.000000E+00 -2.891719E+00  0.000000E+00
        14 -5.508036E-08 -2.891719E+00  0.000000E+00
        15 -2.891719E+00 -2.891719E+00  0.000000E+00
        16 -2.891719E+00 -2.891719E+00  0.000000E+00
        17 -5.783437E+00 -2.891719E+00  0.000000E+00
        18 -5.783438E+00 -2.891719E+00  0.000000E+00
        19  0.000000E+00 -2.891719E+00  0.000000E+00
        20 -5.508036E-08 -2.891719E+00  0.000000E+00
        21 -2.891719E+00 -2.891719E+00  0.000000E+00
        22 -2.891719E+00 -2.891719E+00  0.000000E+00
        23 -5.783437E+00 -2.891719E+00  0.000000E+00
        24 -5.783438E+00 -2.891719E+00  0.000000E+00
        25  0.000000E+00 -5.783437E+00  0.000000E+00
        26 -5.508036E-08 -5.783437E+00  0.000000E+00
        27 -2.891719E+00 -5.783437E+00  0.000000E+00
        28 -2.891719E+00 -5.783437E+00  0.000000E+00
        29 -5.783437E+00 -5.783437E+00  0.000000E+00
        30 -5.783438E+00 -5.783437E+00  0.000000E+00
        31  0.000000E+00 -5.783438E+00  0.000000E+00
        32 -5.508036E-08 -5.783438E+00  0.000000E+00
        33 -2.891719E+00 -5.783438E+00  0.000000E+00
        34 -2.891719E+00 -5.783438E+00  0.000000E+00
        35 -5.783437E+00 -5.783438E+00  0.000000E+00
        36 -5.783438E+00 -5.783438E+00  0.000000E+00
        37  0.000000E+00  0.000000E+00  6.609643E-08
        38 -5.508036E-08  0.000000E+00  6.609643E-08
        39 -2.891719E+00  0.000000E+00  6.609643E-08
        40 -2.891719E+00  0.000000E+00  6.609643E-08
        41 -5.783437E+00  0.000000E+00  6.609643E-08
        42 -5.783438E+00  0.000000E+00  6.609643E-08
        43  0.000000E+00 -5.508036E-08  6.609643E-08
        44 -5.508036E-08 -5.508036E-08  6.609643E-08
        45 -2.891719E+00 -5.508036E-08  6.609643E-08
        46 -2.891719E+00 -5.508036E-08  6.609643E-08
        47 -5.783437E+00 -5.508036E-08  6.609643E-08
        48 -5.783438E+00 -5.508036E-08  6.609643E-08
        49  0.000000E+00 -2.891719E+00  6.609643E-08
        50 -5.508036E-08 -2.891719E+00  6.609643E-08
        51 -2.891719E+00 -2.891719E+00  6.609643E-08
        52 -2.891719E+00 -2.891719E+00  6.609643E-08
        53 -5.783437E+00 -2.891719E+00  6.609643E-08
        54 -5.783438E+00 -2.891719E+00  6.609643E-08
        55  0.000000E+00 -2.891719E+00  6.609643E-08
        56 -5.508036E-08 -2.891719E+00  6.609643E-08
        57 -2.891719E+00 -2.891719E+00  6.609643E-08
        58 -2.891719E+00 -2.891719E+00  6.609643E-08
        59 -5.783437E+00 -2.891719E+00  6.609643E-08
        60 -5.783438E+00 -2.891719E+00  6.609643E-08
        61  0.000000E+00 -5.783437E+00  6.609643E-08
        62 -5.508036E-08 -5.783437E+00  6.609643E-08
        63 -2.891719E+00 -5.783437E+00  6.609643E-08
        64 -2.891719E+00 -5.783437E+00  6.609643E-08
        65 -5.783437E+00 -5.783437E+00  6.609643E-08
        66 -5.783438E+00 -5.783437E+00  6.609643E-08
        67  0.000000E+00 -5.783438E+00  6.609643E-08
        68 -5.508036E-08 -5.783438E+00  6.609643E-08
        69 -2.891719E+00 -5.783438E+00  6.609643E-08
        70 -2.891719E+00 -5.783438E+00  6.609643E-08
        71 -5.783437E+00 -5.783438E+00  6.609643E-08
        72 -5.783438E+00 -5.783438E+00  6.609643E-08

 stresses (elem, integ.pnt.,sxx,syy,szz,sxy,sxz,syz) for set EALL and time  0.1927813E+00

         1   1 -3.304821E-05 -3.304821E-05 -3.388132E-21  1.500632E-21  8.808057E-22  2.609795E-22
         1   2 -3.304821E-05 -3.304821E-05 -1.016440E-20  4.371406E-21  4.762875E-21 -1.304897E-22
         1   3 -3.304821E-05 -3.304821E-05 -3.388132E-21  1.043918E-21  7.829384E-22  1.264905E-47
         1   4 -3.304821E-05 -3.304821E-05 -3.388132E-21  3.914692E-21  4.958610E-21  4.567141E-22
         1   5 -3.304821E-05 -3.304821E-05  3.388132E-21  1.043918E-21 -1.011295E-21  2.609795E-22
         1   6 -3.304821E-05 -3.304821E-05 -3.388132E-21  4.958610E-21  2.870774E-21 -3.262243E-22
         1   7 -3.304821E-05 -3.304821E-05  6.776264E-21  2.609795E-22 -1.565877E-21  5.219589E-22
         1   8 -3.304821E-05 -3.304821E-05  3.388132E-21  4.175671E-21  3.131754E-21  2.609795E-22
         2   1 -3.304821E-05 -3.304821E-05 -4.268246E-14 -7.976722E-16  3.113453E-16  2.397278E-15
         2   2 -3.304821E-05 -3.304821E-05 -4.382485E-14 -1.393320E-14  2.001463E-14 -1.615941E-15
         2   3 -3.304821E-05 -3.304821E-05 -2.871289E-14 -2.976952E-15 -5.309918E-15 -1.895279E-15
         2   4 -3.304821E-05 -3.304821E-05 -6.824922E-14  5.780066E-15 -4.909501E-14 -1.515241E-15
         2   5 -3.304821E-05 -3.304821E-05 -2.542578E-14 -3.357448E-14  1.161956E-15  1.323932E-14
         2   6 -3.304821E-05 -3.304821E-05 -1.734233E-14 -5.984553E-14 -1.197357E-14 -6.131475E-15
         2   7 -3.304821E-05 -3.304821E-05 -5.086279E-14 -2.960320E-14  1.521119E-14  8.946764E-15
         2   8 -3.304821E-05 -3.304821E-05 -8.117327E-14 -4.711723E-14 -1.981688E-14 -6.030775E-15
         3   1 -3.304821E-05 -3.304821E-05  3.458451E-14  5.395794E-14  2.938740E-14  6.553687E-15
         3   2 -3.304821E-05 -3.304821E-05  1.214833E-13  2.768689E-14 -5.818277E-14 -7.263022E-15
         3   3 -3.304821E-05 -3.304821E-05 -1.324269E-14  5.782609E-14 -2.133814E-15  6.810094E-15
         3   4 -3.304821E-05 -3.304821E-05 -2.201469E-14 -3.850111E-14  1.905206E-13 -6.486235E-15
         3   5 -3.304821E-05 -3.304821E-05  7.452954E-14  1.682500E-15 -6.077221E-14  2.420228E-14
         3   6 -3.304821E-05 -3.304821E-05  1.625211E-13  3.671057E-14 -1.698712E-14 -2.788275E-14
         3   7 -3.304821E-05 -3.304821E-05 -1.270423E-14  6.279174E-15 -7.963504E-15  2.445869E-14
         3   8 -3.304821E-05 -3.304821E-05 -2.038344E-14 -4.626293E-14 -7.963504E-15 -2.710597E-14
         4   1 -3.304821E-05 -3.304821E-05  6.064008E-14  4.587565E-15 -5.751193E-16 -3.465780E-14
         4   2 -3.304821E-05 -3.304821E-05  4.409571E-14  5.158715E-15 -7.828347E-16 -7.991702E-15
         4   3 -3.304821E-05 -3.304821E-05  6.402580E-14  8.966073E-15  1.145080E-15  3.702709E-16
         4   4 -3.304821E-05 -3.304821E-05  6.513252E-14  9.537223E-15 -1.423397E-15  1.171159E-14
         4   5 -3.304821E-05 -3.304821E-05  3.393283E-14  1.651335E-14 -1.938659E-15 -2.488918E-14
         4   6 -3.304821E-05 -3.304821E-05  5.679503E-14  1.377944E-14 -2.146375E-15 -2.837998E-14
         4   7 -3.304821E-05 -3.304821E-05  3.236095E-14  6.905546E-14  6.841975E-15  1.381871E-15
         4   8 -3.304821E-05 -3.304821E-05  7.287423E-14  6.632154E-14  4.273498E-15 -6.487432E-15
         5   1 -3.304821E-05 -3.304821E-05 -1.280014E-13  4.378509E-14 -2.050573E-14 -4.336900E-14
         5   2 -3.304821E-05 -3.304821E-05  6.900285E-14  2.627105E-14 -9.559453E-15  1.712894E-14
         5   3 -3.304821E-05 -3.304821E-05 -9.818673E-14  6.129912E-14 -3.663169E-14  9.173104E-15
         5   4 -3.304821E-05 -3.304821E-05  7.475771E-14  6.129912E-14 -1.911766E-14  5.434626E-14
         5   5 -3.304821E-05 -3.304821E-05 -1.082981E-13  8.757018E-15 -1.351158E-14  3.423449E-14
         5   6 -3.304821E-05 -3.304821E-05 -1.740044E-13  1.050842E-13  6.968009E-14  4.176127E-14
         5   7 -3.304821E-05 -3.304821E-05  4.630406E-14 -1.050842E-13 -5.984794E-15  3.423449E-14
         5   8 -3.304821E-05 -3.304821E-05 -5.659756E-14  8.757018E-15  2.772224E-15 -8.959399E-14
         6   1 -3.304821E-05 -3.304821E-05  8.532434E-14 -1.751404E-14  7.189807E-14  6.000816E-14
         6   2 -3.304821E-05 -3.304821E-05  1.058760E-13 -2.627105E-14 -3.318614E-14 -3.149406E-14
         6   3 -3.304821E-05 -3.304821E-05  8.377634E-14 -7.005614E-14 -2.090121E-15  7.466055E-15
         6   4 -3.304821E-05 -3.304821E-05 -9.312612E-15  6.129912E-14  3.293795E-14  2.104804E-14
         6   5 -3.304821E-05 -3.304821E-05 -8.543750E-14  1.702404E-32 -1.533274E-14  1.034966E-14
         6   6 -3.304821E-05 -3.304821E-05  5.990171E-14 -1.576263E-13 -2.408976E-14 -9.158076E-14
         6   7 -3.304821E-05 -3.304821E-05  1.231829E-13  2.819351E-31  1.323118E-13  9.791984E-14
         6   8 -3.304821E-05 -3.304821E-05  4.322949E-14 -3.502807E-14 -6.034255E-14  5.291003E-14
         7   1 -3.304821E-05 -3.304821E-05 -1.132403E-13  1.284379E-14  9.509789E-15 -4.972565E-14
         7   2 -3.304821E-05 -3.304821E-05 -5.929279E-14  8.443990E-17  1.391202E-14 -8.545599E-14
         7   3 -3.304821E-05 -3.304821E-05 -1.131425E-13 -4.670246E-15 -1.318042E-14 -6.723968E-14
         7   4 -3.304821E-05 -3.304821E-05 -2.135205E-13 -1.742960E-14 -9.038806E-15  6.779181E-14
         7   5 -3.304821E-05 -3.304821E-05 -1.039956E-13  6.525234E-14  3.108879E-14 -9.457305E-14
         7   6 -3.304821E-05 -3.304821E-05 -2.377705E-14  5.212813E-14  3.549102E-14 -2.565025E-14
         7   7 -3.304821E-05 -3.304821E-05 -1.044452E-13 -4.803795E-15 -5.333162E-14  1.051116E-14
         7   8 -3.304821E-05 -3.304821E-05 -1.785521E-13 -1.792801E-14 -4.919000E-14  8.381247E-14
         8   1 -3.304821E-05 -3.304821E-05 -2.434325E-15 -8.757018E-15 -5.236958E-15 -6.852765E-14
         8   2 -3.304821E-05 -3.304821E-05 -3.820342E-14 -4.816360E-14 -9.615467E-15  7.466063E-14
         8   3 -3.304821E-05 -3.304821E-05 -1.102143E-13 -8.757018E-15 -6.539473E-15  1.416408E-13
         8   4 -3.304821E-05 -3.304821E-05 -1.417442E-13 -4.378509E-14  8.103070E-14  5.276808E-14
         8   5 -3.304821E-05 -3.304821E-05 -1.337896E-13 -7.005614E-14 -1.954459E-14 -1.168938E-13
         8   6 -3.304821E-05 -3.304821E-05  6.688080E-14 -1.225982E-13 -6.409067E-15  1.103061E-13
         8   7 -3.304821E-05 -3.304821E-05 -1.627564E-13 -7.005614E-14  1.062242E-14  7.576055E-14
         8   8 -3.304821E-05 -3.304821E-05  8.155977E-14 -1.050842E-13 -2.440565E-14 -1.217549E-13
         9   1 -3.304821E-05 -3.304821E-05 -4.440050E-14  3.502807E-14  4.030206E-14 -2.674280E-15
         9   2 -3.304821E-05 -3.304821E-05  4.757035E-15  1.751404E-14  5.273988E-15  6.928306E-14
         9   3 -3.304821E-05 -3.304821E-05 -8.720726E-15  1.751404E-14  5.096028E-14 -5.521639E-14
         9   4 -3.304821E-05 -3.304821E-05 -7.347025E-14  1.401123E-13  1.035024E-13 -9.530093E-15
         9   5 -3.304821E-05 -3.304821E-05 -3.126497E-14  1.401123E-13 -3.285931E-14 -8.472956E-14
         9   6 -3.304821E-05 -3.304821E-05 -1.265982E-13  1.751404E-13  5.033235E-14  3.839786E-15
         9   7 -3.304821E-05 -3.304821E-05  1.489056E-13 -6.054409E-32 -1.210580E-15 -1.467342E-14
         9   8 -3.304821E-05 -3.304821E-05 -3.406367E-14 -5.254211E-14  5.133152E-14 -3.556679E-14

 strains (elem, integ.pnt.,exx,eyy,ezz,exy,exz,eyz) forset EALL and time  0.1927813E+00

         1   1 -1.101607E-10 -1.101607E-10  9.442347E-11  9.289626E-27  5.452607E-27  1.615587E-27
         1   2 -1.101607E-10 -1.101607E-10  9.442347E-11  2.706108E-26  2.948447E-26 -8.077936E-28
         1   3 -1.101607E-10 -1.101607E-10  9.442347E-11  6.462349E-27  4.846761E-27  1.566073E-52
         1   4 -1.101607E-10 -1.101607E-10  9.442347E-11  2.423381E-26  3.069616E-26  2.827277E-27
         1   5 -1.101607E-10 -1.101607E-10  9.442347E-11  6.462349E-27 -6.260400E-27  1.615587E-27
         1   6 -1.101607E-10 -1.101607E-10  9.442347E-11  3.069616E-26  1.777146E-26 -2.019484E-27
         1   7 -1.101607E-10 -1.101607E-10  9.442347E-11  1.615587E-27 -9.693523E-27  3.231174E-27
         1   8 -1.101607E-10 -1.101607E-10  9.442347E-11  2.584939E-26  1.938705E-26  1.615587E-27
         2   1 -1.101607E-10 -1.101607E-10  9.442347E-11 -4.937971E-21  1.927376E-21  1.484029E-20
         2   2 -1.101607E-10 -1.101607E-10  9.442347E-11 -8.625313E-20  1.239001E-19 -1.000344E-20
         2   3 -1.101607E-10 -1.101607E-10  9.442347E-11 -1.842875E-20 -3.287092E-20 -1.173268E-20
         2   4 -1.101607E-10 -1.101607E-10  9.442347E-11  3.578136E-20 -3.039215E-19 -9.380066E-21
         2   5 -1.101607E-10 -1.101607E-10  9.442347E-11 -2.078420E-19  7.193062E-21  8.195770E-20
         2   6 -1.101607E-10 -1.101607E-10  9.442347E-11 -3.704723E-19 -7.412210E-20 -3.795675E-20
         2   7 -1.101607E-10 -1.101607E-10  9.442347E-11 -1.832579E-19  9.416449E-20  5.538473E-20
         2   8 -1.101607E-10 -1.101607E-10  9.442347E-11 -2.916781E-19 -1.226759E-19 -3.733337E-20
         3   1 -1.101607E-10 -1.101607E-10  9.442347E-11  3.340254E-19  1.819220E-19  4.057044E-20
         3   2 -1.101607E-10 -1.101607E-10  9.442347E-11  1.713950E-19 -3.601791E-19 -4.496156E-20
         3   3 -1.101607E-10 -1.101607E-10  9.442347E-11  3.579710E-19 -1.320933E-20  4.215772E-20
         3   4 -1.101607E-10 -1.101607E-10  9.442347E-11 -2.383402E-19  1.179413E-18 -4.015288E-20
         3   5 -1.101607E-10 -1.101607E-10  9.442347E-11  1.041547E-20 -3.762089E-19  1.498237E-19
         3   6 -1.101607E-10 -1.101607E-10  9.442347E-11  2.272559E-19 -1.051583E-19 -1.726075E-19
         3   7 -1.101607E-10 -1.101607E-10  9.442347E-11  3.887108E-20 -4.929788E-20  1.514109E-19
         3   8 -1.101607E-10 -1.101607E-10  9.442347E-11 -2.863896E-19 -4.929788E-20 -1.677988E-19
         4   1 -1.101607E-10 -1.101607E-10  9.442347E-11  2.839921E-20 -3.560262E-21 -2.145483E-19
         4   2 -1.101607E-10 -1.101607E-10  9.442347E-11  3.193490E-20 -4.846120E-21 -4.947244E-20
         4   3 -1.101607E-10 -1.101607E-10  9.442347E-11  5.550426E-20  7.088591E-21  2.292153E-21
         4   4 -1.101607E-10 -1.101607E-10  9.442347E-11  5.903995E-20 -8.811506E-21  7.250030E-20
         4   5 -1.101607E-10 -1.101607E-10  9.442347E-11  1.022255E-19 -1.200122E-20 -1.540759E-19
         4   6 -1.101607E-10 -1.101607E-10  9.442347E-11  8.530128E-20 -1.328708E-20 -1.756856E-19
         4   7 -1.101607E-10 -1.101607E-10  9.442347E-11  4.274862E-19  4.235508E-20  8.554437E-21
         4   8 -1.101607E-10 -1.101607E-10  9.442347E-11  4.105619E-19  2.645499E-20 -4.016030E-20
         5   1 -1.101607E-10 -1.101607E-10  9.442347E-11  2.710505E-19 -1.269402E-19 -2.684748E-19
         5   2 -1.101607E-10 -1.101607E-10  9.442347E-11  1.626303E-19 -5.917757E-20  1.060363E-19
         5   3 -1.101607E-10 -1.101607E-10  9.442347E-11  3.794708E-19 -2.267676E-19  5.678588E-20
         5   4 -1.101607E-10 -1.101607E-10  9.442347E-11  3.794708E-19 -1.183474E-19  3.364292E-19
         5   5 -1.101607E-10 -1.101607E-10  9.442347E-11  5.421011E-20 -8.364309E-20  2.119278E-19
         5   6 -1.101607E-10 -1.101607E-10  9.442347E-11  6.505213E-19  4.313529E-19  2.585222E-19
         5   7 -1.101607E-10 -1.101607E-10  9.442347E-11 -6.505213E-19 -3.704872E-20  2.119278E-19
         5   8 -1.101607E-10 -1.101607E-10  9.442347E-11  5.421011E-20  1.716139E-20 -5.546295E-19
         6   1 -1.101607E-10 -1.101607E-10  9.442347E-11 -1.084202E-19  4.450833E-19  3.714791E-19
         6   2 -1.101607E-10 -1.101607E-10  9.442347E-11 -1.626303E-19 -2.054380E-19 -1.949633E-19
         6   3 -1.101607E-10 -1.101607E-10  9.442347E-11 -4.336809E-19 -1.293885E-20  4.621843E-20
         6   4 -1.101607E-10 -1.101607E-10  9.442347E-11  3.794708E-19  2.039016E-19  1.302974E-19
         6   5 -1.101607E-10 -1.101607E-10  9.442347E-11  1.542692E-37 -9.491698E-20  6.406933E-20
         6   6 -1.101607E-10 -1.101607E-10  9.442347E-11 -9.757820E-19 -1.491271E-19 -5.669285E-19
         6   7 -1.101607E-10 -1.101607E-10  9.442347E-11 -1.665850E-38  8.190733E-19  6.061704E-19
         6   8 -1.101607E-10 -1.101607E-10  9.442347E-11 -2.168404E-19 -3.735491E-19  3.275383E-19
         7   1 -1.101607E-10 -1.101607E-10  9.442347E-11  7.950917E-20  5.887013E-20 -3.078254E-19
         7   2 -1.101607E-10 -1.101607E-10  9.442347E-11  5.227232E-22  8.612204E-20 -5.290133E-19
         7   3 -1.101607E-10 -1.101607E-10  9.442347E-11 -2.891105E-20 -8.159309E-20 -4.162457E-19
         7   4 -1.101607E-10 -1.101607E-10  9.442347E-11 -1.078975E-19 -5.595451E-20  4.196636E-19
         7   5 -1.101607E-10 -1.101607E-10  9.442347E-11  4.039431E-19  1.924544E-19 -5.854522E-19
         7   6 -1.101607E-10 -1.101607E-10  9.442347E-11  3.226980E-19  2.197063E-19 -1.587873E-19
         7   7 -1.101607E-10 -1.101607E-10  9.442347E-11 -2.973778E-20 -3.301481E-19  6.506911E-20
         7   8 -1.101607E-10 -1.101607E-10  9.442347E-11 -1.109829E-19 -3.045095E-19  5.188391E-19
         8   1 -1.101607E-10 -1.101607E-10  9.442347E-11 -5.421011E-20 -3.241926E-20 -4.242188E-19
         8   2 -1.101607E-10 -1.101607E-10  9.442347E-11 -2.981556E-19 -5.952432E-20  4.621848E-19
         8   3 -1.101607E-10 -1.101607E-10  9.442347E-11 -5.421011E-20 -4.048245E-20  8.768238E-19
         8   4 -1.101607E-10 -1.101607E-10  9.442347E-11 -2.710505E-19  5.016186E-19  3.266596E-19
         8   5 -1.101607E-10 -1.101607E-10  9.442347E-11 -4.336809E-19 -1.209903E-19 -7.236285E-19
         8   6 -1.101607E-10 -1.101607E-10  9.442347E-11 -7.589415E-19 -3.967517E-20  6.828472E-19
         8   7 -1.101607E-10 -1.101607E-10  9.442347E-11 -4.336809E-19  6.575787E-20  4.689939E-19
         8   8 -1.101607E-10 -1.101607E-10  9.442347E-11 -6.505213E-19 -1.510826E-19 -7.537207E-19
         9   1 -1.101607E-10 -1.101607E-10  9.442347E-11  2.168404E-19  2.494889E-19 -1.655507E-20
         9   2 -1.101607E-10 -1.101607E-10  9.442347E-11  1.084202E-19  3.264850E-20  4.288952E-19
         9   3 -1.101607E-10 -1.101607E-10  9.442347E-11  1.084202E-19  3.154684E-19 -3.418157E-19
         9   4 -1.101607E-10 -1.101607E-10  9.442347E-11  8.673617E-19  6.407291E-19 -5.899582E-20
         9   5 -1.101607E-10 -1.101607E-10  9.442347E-11  8.673617E-19 -2.034148E-19 -5.245163E-19
         9   6 -1.101607E-10 -1.101607E-10  9.442347E-11  1.084202E-18  3.115812E-19  2.377010E-20
         9   7 -1.101607E-10 -1.101607E-10  9.442347E-11 -3.025096E-37 -7.494069E-21 -9.083548E-20
         9   8 -1.101607E-10 -1.101607E-10  9.442347E-11 -3.252607E-19  3.177666E-19 -2.201754E-19

 displacements (vx,vy,vz) for set NALL and time  0.2017813E+00

         1  0.000000E+00  0.000000E+00  0.000000E+00
         2 -5.765178E-08  0.000000E+00  0.000000E+00
         3 -3.026719E+00  0.000000E+00  0.000000E+00
         4 -3.026719E+00  0.000000E+00  0.000000E+00
         5 -6.053437E+00  0.000000E+00  0.000000E+00
         6 -6.053438E+00  0.000000E+00  0.000000E+00
         7  0.000000E+00 -5.765178E-08  0.000000E+00
         8 -5.765178E-08 -5.765178E-08  0.000000E+00
         9 -3.026719E+00 -5.765178E-08  0.000000E+00
        10 -3.026719E+00 -5.765178E-08  0.000000E+00
        11 -6.053437E+00 -5.765178E-08  0.000000E+00
        12 -6.053438E+00 -5.765178E-08  0.000000E+00
        13  0.000000E+00 -3.026719E+00  0.000000E+00
        14 -5.765178E-08 -3.026719E+00  0.000000E+00
        15 -3.026719E+00 -3.026719E+00  0.000000E+00
        16 -3.026719E+00 -3.026719E+00  0.000000E+00
        17 -6.053437E+00 -3.026719E+00  0.000000E+00
        18 -6.053438E+00 -3.026719E+00  0.000000E+00
        19  0.000000E+00 -3.026719E+00  0.000000E+00
        20 -5.765178E-08 -3.026719E+00  0.000000E+00
        21 -3.026719E+00 -3.026719E+00  0.000000E+00
        22 -3.026719E+00 -3.026719E+00  0.000000E+00
        23 -6.053437E+00 -3.026719E+00  0.000000E+00
        24 -6.053438E+00 -3.026719E+00  0.000000E+00
        25  0.000000E+00 -6.053437E+00  0.000000E+00
        26 -5.765178E-08 -6.053437E+00  0.000000E+00
        27 -3.026719E+00 -6.053437E+00  0.000000E+00
        28 -3.026719E+00 -6.053437E+00  0.000000E+00
        29 -6.053437E+00 -6.053437E+00  0.000000E+00
        30 -6.053438E+00 -6.053437E+00  0.000000E+00
        31  0.000000E+00 -6.053438E+00  0.000000E+00
        32 -5.765178E-08 -6.053438E+00  0.000000E+00
        33 -3.026719E+00 -6.053438E+00  0.000000E+00
        34 -3.026719E+00 -6.053438E+00  0.000000E+00
        35 -6.053437E+00 -6.053438E+00  0.000000E+00
        36 -6.053438E+00 -6.053438E+00  0.000000E+00
        37  0.000000E+00  0.000000E+00  6.918214E-08
        38 -5.765178E-08  0.000000E+00  6.918214E-08
        39 -3.026719E+00  0.000000E+00  6.918214E-08
        40 -3.026719E+00  0.000000E+00  6.918214E-08
        41 -6.053437E+00  0.000000E+00  6.918214E-08
        42 -6.053438E+00  0.000000E+00  6.918214E-08
        43  0.000000E+00 -5.765178E-08  6.918214E-08
        44 -5.765178E-08 -5.765178E-08  6.918214E-08
        45 -3.026719E+00 -5.765178E-08  6.918214E-08
        46 -3.026719E+00 -5.765178E-08  6.918214E-08
        47 -6.053437E+00 -5.765178E-08  6.918214E-08
        48 -6.053438E+00 -5.765178E-08  6.918214E-08
        49  0.000000E+00 -3.026719E+00  6.918214E-08
        50 -5.765178E-08 -3.026719E+00  6.918214E-08
        51 -3.026719E+00 -3.026719E+00  6.918214E-08
        52 -3.026719E+00 -3.026719E+00  6.918214E-08
        53 -6.053437E+00 -3.026719E+00  6.918214E-08
        54 -6.053438E+00 -3.026719E+00  6.918214E-08
        55  0.000000E+00 -3.026719E+00  6.918214E-08
        56 -5.765178E-08 -3.026719E+00  6.918214E-08
        57 -3.026719E+00 -3.026719E+00  6.918214E-08
        58 -3.026719E+00 -3.026719E+00  6.918214E-08
        59 -6.053437E+00 -3.026719E+00  6.918214E-08
        60 -6.053438E+00 -3.026719E+00  6.918214E-08
        61  0.000000E+00 -6.053437E+00  6.918214E-08
        62 -5.765178E-08 -6.053437E+00  6.918214E-08
        63 -3.026719E+00 -6.053437E+00  6.918214E-08
        64 -3.026719E+00 -6.053437E+00  6.918214E-08
        65 -6.053437E+00 -6.053437E+00  6.918214E-08
        66 -6.053438E+00 -6.053437E+00  6.918214E-08
        67  0.000000E+00 -6.053438E+00  6.918214E-08
        68 -5.765178E-08 -6.053438E+00  6.918214E-08
        69 -3.026719E+00 -6.053438E+00  6.918214E-08
        70 -3.026719E+00 -6.053438E+00  6.918214E-08
        71 -6.053437E+00 -6.053438E+00  6.918214E-08
        72 -6.053438E+00 -6.053438E+00  6.918214E-08

 stresses (elem, integ.pnt.,sxx,syy,szz,sxy,sxz,syz) for set EALL and time  0.2017813E+00

         1   1 -3.459107E-05 -3.459107E-05 -3.388132E-21  1.109163E-21  4.567141E-22  1.174408E-21
         1   2 -3.459107E-05 -3.459107E-05 -6.776264E-21  1.892101E-21  2.675039E-21 -5.872038E-22
         1   3 -3.459107E-05 -3.459107E-05  1.686540E-47  3.653712E-21  6.524487E-22  2.609795E-21
         1   4 -3.459107E-05 -3.459107E-05 -1.187957E-46  4.436651E-21  4.697630E-21 -1.631122E-21
         1   5 -3.459107E-05 -3.459107E-05  3.388132E-21  2.609795E-22 -9.134281E-22  2.740284E-21
         1   6 -3.459107E-05 -3.459107E-05 -3.388132E-21  3.653712E-21  1.304897E-21 -2.609795E-22
         1   7 -3.459107E-05 -3.459107E-05  3.388132E-21 -1.304897E-21 -6.524486E-22  3.131754E-21
         1   8 -3.459107E-05 -3.459107E-05 -1.973252E-46  2.087836E-21  3.653712E-21 -1.304897E-21
         2   1 -3.459107E-05 -3.459107E-05 -2.754713E-14 -3.442763E-14 -3.801979E-15  2.264353E-15
         2   2 -3.459107E-05 -3.459107E-05 -5.105450E-14  2.249298E-14 -2.350527E-14 -5.363249E-16
         2   3 -3.459107E-05 -3.459107E-05  1.961915E-14 -3.278721E-14  5.944285E-14 -5.161626E-15
         2   4 -3.459107E-05 -3.459107E-05 -5.041034E-14  4.602595E-14 -4.564136E-14  2.994958E-15
         2   5 -3.459107E-05 -3.459107E-05 -3.735110E-15 -6.384081E-14 -1.418918E-14  1.587666E-14
         2   6 -3.459107E-05 -3.459107E-05 -4.232224E-15  4.124340E-14 -2.951396E-14 -5.532874E-15
         2   7 -3.459107E-05 -3.459107E-05  5.656670E-14 -4.686022E-14 -3.960935E-14  8.450680E-15
         2   8 -3.459107E-05 -3.459107E-05  9.547454E-15  7.573803E-14  4.175740E-15 -2.001591E-15
         3   1 -3.459107E-05 -3.459107E-05 -2.107189E-14 -1.368924E-14  3.884797E-14 -1.496343E-15
         3   2 -3.459107E-05 -3.459107E-05 -5.108103E-14  6.512392E-14 -5.747922E-14  1.055256E-15
         3   3 -3.459107E-05 -3.459107E-05  1.320815E-13 -5.108894E-14  1.364422E-13 -1.955788E-14
         3   4 -3.459107E-05 -3.459107E-05  5.091470E-14  4.523825E-14  6.638604E-14  1.042787E-14
         3   5 -3.459107E-05 -3.459107E-05  6.676510E-15 -1.397433E-13  4.928413E-14  1.247711E-14
         3   6 -3.459107E-05 -3.459107E-05  3.427908E-14 -6.968715E-14 -2.077201E-14 -5.434341E-15
         3   7 -3.459107E-05 -3.459107E-05  4.161013E-14 -1.387352E-13 -8.375312E-14 -5.584432E-15
         3   8 -3.459107E-05 -3.459107E-05  1.805508E-14  7.143324E-14  7.387319E-14  3.938270E-15
         4   1 -3.459107E-05 -3.459107E-05 -7.676287E-16  3.901162E-14 -2.477639E-16  6.253057E-14
         4   2 -3.459107E-05 -3.459107E-05 -1.313954E-13  3.793256E-14 -1.215647E-15  2.398602E-14
         4   3 -3.459107E-05 -3.459107E-05  6.024718E-15  1.711907E-14  6.128971E-16 -3.379662E-14
         4   4 -3.459107E-05 -3.459107E-05 -1.187153E-13  1.604001E-14 -3.587238E-16 -2.417758E-14
         4   5 -3.459107E-05 -3.459107E-05 -1.866976E-13 -3.968790E-16  4.321565E-17 -4.161195E-15
         4   6 -3.459107E-05 -3.459107E-05 -1.071569E-13 -1.481171E-15 -9.246682E-16  1.000221E-14
         4   7 -3.459107E-05 -3.459107E-05 -1.799131E-13  6.965926E-14  3.258985E-15  4.595822E-15
         4   8 -3.459107E-05 -3.459107E-05 -9.448468E-14  6.857497E-14  2.287363E-15  1.656998E-14
         5   1 -3.459107E-05 -3.459107E-05  1.398619E-13  5.692061E-14 -5.441160E-14 -2.700960E-14
         5   2 -3.459107E-05 -3.459107E-05  2.200881E-14  2.189254E-14  1.126604E-14  4.015660E-14
         5   3 -3.459107E-05 -3.459107E-05  1.545208E-13  3.502807E-14  2.589013E-14  3.428953E-14
         5   4 -3.459107E-05 -3.459107E-05  1.986209E-14  4.378509E-15  1.713311E-14  2.702107E-14
         5   5 -3.459107E-05 -3.459107E-05  5.448094E-14  5.254211E-14  2.805104E-14  5.854284E-14
         5   6 -3.459107E-05 -3.459107E-05 -3.710106E-14  1.050842E-13 -1.135554E-14 -1.021279E-13
         5   7 -3.459107E-05 -3.459107E-05  2.316554E-14 -7.005614E-14  3.595287E-14  3.227178E-14
         5   8 -3.459107E-05 -3.459107E-05  1.329432E-14 -5.923592E-30 -7.832220E-15 -3.863955E-14
         6   1 -3.459107E-05 -3.459107E-05  8.111662E-16 -3.064956E-14  5.516435E-15  4.885870E-15
         6   2 -3.459107E-05 -3.459107E-05  1.738248E-14  7.443465E-14  9.308661E-14  1.491734E-14
         6   3 -3.459107E-05 -3.459107E-05  1.524020E-13 -3.502807E-14 -1.729091E-14 -3.014220E-14
         6   4 -3.459107E-05 -3.459107E-05 -5.103662E-15 -1.751404E-14 -1.729091E-14 -6.170656E-14
         6   5 -3.459107E-05 -3.459107E-05  9.275985E-14  3.502807E-14  4.279452E-14  1.823432E-14
         6   6 -3.459107E-05 -3.459107E-05  1.081472E-14  1.050842E-13 -1.235888E-13 -4.311641E-14
         6   7 -3.459107E-05 -3.459107E-05  1.261310E-13  1.706320E-32  7.558173E-14  1.823432E-14
         6   8 -3.459107E-05 -3.459107E-05 -4.451025E-14 -3.502807E-14  7.558173E-14 -1.520580E-15
         7   1 -3.459107E-05 -3.459107E-05  1.542347E-13  9.195738E-14 -4.254693E-15 -3.258876E-14
         7   2 -3.459107E-05 -3.459107E-05  1.331887E-13  5.609421E-14  3.048104E-15 -1.282354E-13
         7   3 -3.459107E-05 -3.459107E-05  2.367238E-13 -1.312683E-14  1.091792E-15 -5.010279E-14
         7   4 -3.459107E-05 -3.459107E-05  2.203263E-13 -4.899000E-14  2.114208E-14  5.566200E-14
         7   5 -3.459107E-05 -3.459107E-05  1.194426E-14  6.346158E-14 -2.318153E-14  3.943884E-14
         7   6 -3.459107E-05 -3.459107E-05 -3.537282E-14  4.544489E-14 -1.587873E-14 -2.807735E-14
         7   7 -3.459107E-05 -3.459107E-05 -8.896529E-14 -6.594564E-15 -1.597566E-14  4.410766E-15
         7   8 -3.459107E-05 -3.459107E-05 -1.316339E-13 -2.461125E-14  4.074620E-15  4.197879E-14
         8   1 -3.459107E-05 -3.459107E-05  2.466188E-13  3.502807E-14 -2.332220E-14 -9.740338E-14
         8   2 -3.459107E-05 -3.459107E-05  1.806773E-13 -4.378509E-15 -7.997416E-15 -5.757094E-14
         8   3 -3.459107E-05 -3.459107E-05  2.136989E-13 -3.343354E-31  7.753231E-15  7.773697E-14
         8   4 -3.459107E-05 -3.459107E-05  3.060611E-13 -1.751404E-14  2.526727E-14  1.088124E-13
         8   5 -3.459107E-05 -3.459107E-05  1.875090E-13  1.751404E-13 -3.919039E-14 -5.890494E-14
         8   6 -3.459107E-05 -3.459107E-05 -6.232996E-14  1.751404E-13 -4.137965E-14  3.549196E-14
         8   7 -3.459107E-05 -3.459107E-05  1.874279E-13 -1.050842E-13 -4.112069E-14  2.866524E-14
         8   8 -3.459107E-05 -3.459107E-05 -1.274113E-13 -8.757018E-14  9.899159E-14 -2.580717E-14
         9   1 -3.459107E-05 -3.459107E-05  1.317748E-13 -1.924968E-31  1.440326E-14  6.664540E-15
         9   2 -3.459107E-05 -3.459107E-05 -7.691923E-15  1.050842E-13  5.646241E-15 -6.339415E-14
         9   3 -3.459107E-05 -3.459107E-05  2.955142E-13 -3.502807E-14  7.132132E-14  7.672068E-14
         9   4 -3.459107E-05 -3.459107E-05  3.172911E-13 -1.751404E-14 -5.127693E-14 -4.150161E-14
         9   5 -3.459107E-05 -3.459107E-05  3.982613E-14 -7.005614E-14  5.904461E-15 -2.766971E-14
         9   6 -3.459107E-05 -3.459107E-05  7.112124E-14  3.973328E-31 -1.123153E-13 -1.426937E-13
         9   7 -3.459107E-05 -3.459107E-05 -1.248226E-13 -1.401123E-13  4.721715E-15  9.492854E-14
         9   8 -3.459107E-05 -3.459107E-05  9.398711E-14  7.005614E-14  7.477785E-14  1.287739E-13

 strains (elem, integ.pnt.,exx,eyy,ezz,exy,exz,eyz) forset EALL and time  0.2017813E+00

         1   1 -1.153036E-10 -1.153036E-10  9.883163E-11  6.866245E-27  2.827277E-27  7.270142E-27
         1   2 -1.153036E-10 -1.153036E-10  9.883163E-11  1.171301E-26  1.655977E-26 -3.635071E-27
         1   3 -1.153036E-10 -1.153036E-10  9.883163E-11  2.261822E-26  4.038968E-27  1.615587E-26
         1   4 -1.153036E-10 -1.153036E-10  9.883163E-11  2.746498E-26  2.908057E-26 -1.009742E-26
         1   5 -1.153036E-10 -1.153036E-10  9.883163E-11  1.615587E-27 -5.654555E-27  1.696366E-26
         1   6 -1.153036E-10 -1.153036E-10  9.883163E-11  2.261822E-26  8.077936E-27 -1.615587E-27
         1   7 -1.153036E-10 -1.153036E-10  9.883163E-11 -8.077936E-27 -4.038968E-27  1.938705E-26
         1   8 -1.153036E-10 -1.153036E-10  9.883163E-11  1.292470E-26  2.261822E-26 -8.077936E-27
         2   1 -1.153036E-10 -1.153036E-10  9.883163E-11 -2.131234E-19 -2.353606E-20  1.401742E-20
         2   2 -1.153036E-10 -1.153036E-10  9.883163E-11  1.392423E-19 -1.455088E-19 -3.320106E-21
         2   3 -1.153036E-10 -1.153036E-10  9.883163E-11 -2.029684E-19  3.679795E-19 -3.195292E-20
         2   4 -1.153036E-10 -1.153036E-10  9.883163E-11  2.849225E-19 -2.825418E-19  1.854022E-20
         2   5 -1.153036E-10 -1.153036E-10  9.883163E-11 -3.952050E-19 -8.783777E-20  9.828408E-20
         2   6 -1.153036E-10 -1.153036E-10  9.883163E-11  2.553163E-19 -1.827055E-19 -3.425112E-20
         2   7 -1.153036E-10 -1.153036E-10  9.883163E-11 -2.900871E-19 -2.452007E-19  5.231374E-20
         2   8 -1.153036E-10 -1.153036E-10  9.883163E-11  4.688544E-19  2.584982E-20 -1.239080E-20
         3   1 -1.153036E-10 -1.153036E-10  9.883163E-11 -8.474292E-20  2.404874E-19 -9.263079E-21
         3   2 -1.153036E-10 -1.153036E-10  9.883163E-11  4.031481E-19 -3.558238E-19  6.532540E-21
         3   3 -1.153036E-10 -1.153036E-10  9.883163E-11 -3.162649E-19  8.446421E-19 -1.210726E-19
         3   4 -1.153036E-10 -1.153036E-10  9.883163E-11  2.800463E-19  4.109612E-19  6.455347E-20
         3   5 -1.153036E-10 -1.153036E-10  9.883163E-11 -8.650775E-19  3.050922E-19  7.723924E-20
         3   6 -1.153036E-10 -1.153036E-10  9.883163E-11 -4.313966E-19 -1.285886E-19 -3.364116E-20
         3   7 -1.153036E-10 -1.153036E-10  9.883163E-11 -8.588368E-19 -5.184717E-19 -3.457029E-20
         3   8 -1.153036E-10 -1.153036E-10  9.883163E-11  4.422058E-19  4.573102E-19  2.437977E-20
         4   1 -1.153036E-10 -1.153036E-10  9.883163E-11  2.415005E-19 -1.533777E-21  3.870940E-19
         4   2 -1.153036E-10 -1.153036E-10  9.883163E-11  2.348206E-19 -7.525437E-21  1.484849E-19
         4   3 -1.153036E-10 -1.153036E-10  9.883163E-11  1.059752E-19  3.794125E-21 -2.092172E-19
         4   4 -1.153036E-10 -1.153036E-10  9.883163E-11  9.929531E-20 -2.220671E-21 -1.496707E-19
         4   5 -1.153036E-10 -1.153036E-10  9.883163E-11 -2.456870E-21  2.675255E-22 -2.575978E-20
         4   6 -1.153036E-10 -1.153036E-10  9.883163E-11 -9.169155E-21 -5.724137E-21  6.191846E-20
         4   7 -1.153036E-10 -1.153036E-10  9.883163E-11  4.312240E-19  2.017467E-20  2.845033E-20
         4   8 -1.153036E-10 -1.153036E-10  9.883163E-11  4.245117E-19  1.415987E-20  1.025760E-19
         5   1 -1.153036E-10 -1.153036E-10  9.883163E-11  3.523657E-19 -3.368337E-19 -1.672023E-19
         5   2 -1.153036E-10 -1.153036E-10  9.883163E-11  1.355253E-19  6.974213E-20  2.485885E-19
         5   3 -1.153036E-10 -1.153036E-10  9.883163E-11  2.168404E-19  1.602722E-19  2.122685E-19
         5   4 -1.153036E-10 -1.153036E-10  9.883163E-11  2.710505E-20  1.060621E-19  1.672733E-19
         5   5 -1.153036E-10 -1.153036E-10  9.883163E-11  3.252607E-19  1.736493E-19  3.624080E-19
         5   6 -1.153036E-10 -1.153036E-10  9.883163E-11  6.505213E-19 -7.029620E-20 -6.322205E-19
         5   7 -1.153036E-10 -1.153036E-10  9.883163E-11 -4.336809E-19  2.225654E-19  1.997777E-19
         5   8 -1.153036E-10 -1.153036E-10  9.883163E-11  3.675353E-35 -4.848517E-20 -2.391972E-19
         6   1 -1.153036E-10 -1.153036E-10  9.883163E-11 -1.897354E-19  3.414936E-20  3.024586E-20
         6   2 -1.153036E-10 -1.153036E-10  9.883163E-11  4.607859E-19  5.762504E-19  9.234545E-20
         6   3 -1.153036E-10 -1.153036E-10  9.883163E-11 -2.168404E-19 -1.070390E-19 -1.865946E-19
         6   4 -1.153036E-10 -1.153036E-10  9.883163E-11 -1.084202E-19 -1.070390E-19 -3.819930E-19
         6   5 -1.153036E-10 -1.153036E-10  9.883163E-11  2.168404E-19  2.649185E-19  1.128791E-19
         6   6 -1.153036E-10 -1.153036E-10  9.883163E-11  6.505213E-19 -7.650736E-19 -2.669111E-19
         6   7 -1.153036E-10 -1.153036E-10  9.883163E-11 -9.018472E-38  4.678869E-19  1.128791E-19
         6   8 -1.153036E-10 -1.153036E-10  9.883163E-11 -2.168404E-19  4.678869E-19 -9.413115E-21
         7   1 -1.153036E-10 -1.153036E-10  9.883163E-11  5.692600E-19 -2.633857E-20 -2.017399E-19
         7   2 -1.153036E-10 -1.153036E-10  9.883163E-11  3.472499E-19  1.886921E-20 -7.938380E-19
         7   3 -1.153036E-10 -1.153036E-10  9.883163E-11 -8.126133E-20  6.758709E-21 -3.101601E-19
         7   4 -1.153036E-10 -1.153036E-10  9.883163E-11 -3.032714E-19  1.308795E-19  3.445743E-19
         7   5 -1.153036E-10 -1.153036E-10  9.883163E-11  3.928574E-19 -1.435047E-19  2.441452E-19
         7   6 -1.153036E-10 -1.153036E-10  9.883163E-11  2.813255E-19 -9.829689E-20 -1.738122E-19
         7   7 -1.153036E-10 -1.153036E-10  9.883163E-11 -4.082349E-20 -9.889697E-20  2.730474E-20
         7   8 -1.153036E-10 -1.153036E-10  9.883163E-11 -1.523554E-19  2.522384E-20  2.598687E-19
         8   1 -1.153036E-10 -1.153036E-10  9.883163E-11  2.168404E-19 -1.443755E-19 -6.029733E-19
         8   2 -1.153036E-10 -1.153036E-10  9.883163E-11 -2.710505E-20 -4.950781E-20 -3.563915E-19
         8   3 -1.153036E-10 -1.153036E-10  9.883163E-11  2.120454E-36  4.799619E-20  4.812288E-19
         8   4 -1.153036E-10 -1.153036E-10  9.883163E-11 -1.084202E-19  1.564164E-19  6.736005E-19
         8   5 -1.153036E-10 -1.153036E-10  9.883163E-11  1.084202E-18 -2.426072E-19 -3.646496E-19
         8   6 -1.153036E-10 -1.153036E-10  9.883163E-11  1.084202E-18 -2.561597E-19  2.197121E-19
         8   7 -1.153036E-10 -1.153036E-10  9.883163E-11 -6.505213E-19 -2.545566E-19  1.774515E-19
         8   8 -1.153036E-10 -1.153036E-10  9.883163E-11 -5.421011E-19  6.128051E-19 -1.597586E-19
         9   1 -1.153036E-10 -1.153036E-10  9.883163E-11  1.197415E-36  8.916303E-20  4.125667E-20
         9   2 -1.153036E-10 -1.153036E-10  9.883163E-11  6.505213E-19  3.495292E-20 -3.924400E-19
         9   3 -1.153036E-10 -1.153036E-10  9.883163E-11 -2.168404E-19  4.415129E-19  4.749375E-19
         9   4 -1.153036E-10 -1.153036E-10  9.883163E-11 -1.084202E-19 -3.174286E-19 -2.569147E-19
         9   5 -1.153036E-10 -1.153036E-10  9.883163E-11 -4.336809E-19  3.655143E-20 -1.712887E-19
         9   6 -1.153036E-10 -1.153036E-10  9.883163E-11  1.514159E-37 -6.952850E-19 -8.833418E-19
         9   7 -1.153036E-10 -1.153036E-10  9.883163E-11 -8.673617E-19  2.922966E-20  5.876529E-19
         9   8 -1.153036E-10 -1.153036E-10  9.883163E-11  4.336809E-19  4.629105E-19  7.971715E-19

 displacements (vx,vy,vz) for set NALL and time  0.2107813E+00

         1  0.000000E+00  0.000000E+00  0.000000E+00
         2 -6.022321E-08  0.000000E+00  0.000000E+00
         3 -3.161719E+00  0.000000E+00  0.000000E+00
         4 -3.161719E+00  0.000000E+00  0.000000E+00
         5 -6.323437E+00  0.000000E+00  0.000000E+00
         6 -6.323438E+00  0.000000E+00  0.000000E+00
         7  0.000000E+00 -6.022321E-08  0.000000E+00
         8 -6.022321E-08 -6.022321E-08  0.000000E+00
         9 -3.161719E+00 -6.022321E-08  0.000000E+00
        10 -3.161719E+00 -6.022321E-08  0.000000E+00
        11 -6.323437E+00 -6.022321E-08  0.000000E+00
        12 -6.323438E+00 -6.022321E-08  0.000000E+00
        13  0.000000E+00 -3.161719E+00  0.000000E+00
        14 -6.022321E-08 -3.161719E+00  0.000000E+00
        15 -3.161719E+00 -3.161719E+00  0.000000E+00
        16 -3.161719E+00 -3.161719E+00  0.000000E+00
        17 -6.323437E+00 -3.161719E+00  0.000000E+00
        18 -6.323438E+00 -3.161719E+00  0.000000E+00
        19  0.000000E+00 -3.161719E+00  0.000000E+00
        20 -6.022321E-08 -3.161719E+00  0.000000E+00
        21 -3.161719E+00 -3.161719E+00  0.000000E+00
        22 -3.161719E+00 -3.161719E+00  0.000000E+00
        23 -6.323437E+00 -3.161719E+00  0.000000E+00
        24 -6.323438E+00 -3.161719E+00  0.000000E+00
        25  0.000000E+00 -6.323437E+00  0.000000E+00
        26 -6.022321E-08 -6.323437E+00  0.000000E+00
        27 -3.161719E+00 -6.323437E+00  0.000000E+00
        28 -3.161719E+00 -6.323437E+00  0.000000E+00
        29 -6.323437E+00 -6.323437E+00  0.000000E+00
        30 -6.323438E+00 -6.323437E+00  0.000000E+00
        31  0.000000E+00 -6.323438E+00  0.000000E+00
        32 -6.022321E-08 -6.323438E+00  0.000000E+00
        33 -3.161719E+00 -6.323438E+00  0.000000E+00
        34 -3.161719E+00 -6.323438E+00  0.000000E+00
        35 -6.323437E+00 -6.323438E+00  0.000000E+00
        36 -6.323438E+00 -6.323438E+00  0.000000E+00
        37  0.000000E+00  0.000000E+00  7.226786E-08
        38 -6.022321E-08  0.000000E+00  7.226786E-08
        39 -3.161719E+00  0.000000E+00  7.226786E-08
        40 -3.161719E+00  0.000000E+00  7.226786E-08
        41 -6.323437E+00  0.000000E+00  7.226785E-08
        42 -6.323438E+00  0.000000E+00  7.226786E-08
        43  0.000000E+00 -6.022321E-08  7.226786E-08
        44 -6.022321E-08 -6.022321E-08  7.226786E-08
        45 -3.161719E+00 -6.022321E-08  7.226786E-08
        46 -3.161719E+00 -6.022321E-08  7.226786E-08
        47 -6.323437E+00 -6.022321E-08  7.226786E-08
        48 -6.323438E+00 -6.022321E-08  7.226786E-08
        49  0.000000E+00 -3.161719E+00  7.226786E-08
        50 -6.022321E-08 -3.161719E+00  7.226785E-08
        51 -3.161719E+00 -3.161719E+00  7.226786E-08
        52 -3.161719E+00 -3.161719E+00  7.226786E-08
        53 -6.323437E+00 -3.161719E+00  7.226785E-08
        54 -6.323438E+00 -3.161719E+00  7.226786E-08
        55  0.000000E+00 -3.161719E+00  7.226786E-08
        56 -6.022321E-08 -3.161719E+00  7.226786E-08
        57 -3.161719E+00 -3.161719E+00  7.226786E-08
        58 -3.161719E+00 -3.161719E+00  7.226786E-08
        59 -6.323437E+00 -3.161719E+00  7.226786E-08
        60 -6.323438E+00 -3.161719E+00  7.226786E-08
        61  0.000000E+00 -6.323437E+00  7.226786E-08
        62 -6.022321E-08 -6.323437E+00  7.226785E-08
        63 -3.161719E+00 -6.323437E+00  7.226785E-08
        64 -3.161719E+00 -6.323437E+00  7.226786E-08
        65 -6.323437E+00 -6.323437E+00  7.226785E-08
        66 -6.323438E+00 -6.323437E+00  7.226786E-08
        67  0.000000E+00 -6.323438E+00  7.226786E-08
        68 -6.022321E-08 -6.323438E+00  7.226786E-08
        69 -3.161719E+00 -6.323438E+00  7.226786E-08
        70 -3.161719E+00 -6.323438E+00  7.226785E-08
        71 -6.323437E+00 -6.323438E+00  7.226786E-08
        72 -6.323438E+00 -6.323438E+00  7.226785E-08

 stresses (elem, integ.pnt.,sxx,syy,szz,sxy,sxz,syz) for set EALL and time  0.2107813E+00

         1   1 -3.613393E-05 -3.613393E-05  0.000000E+00  7.176935E-22 -3.914692E-22  6.524487E-22
         1   2 -3.613393E-05 -3.613393E-05 -3.388132E-21 -9.134281E-22 -1.174408E-21 -7.176935E-22
         1   3 -3.613393E-05 -3.613393E-05 -3.388132E-21  5.023855E-21  2.609795E-22  2.087836E-21
         1   4 -3.613393E-05 -3.613393E-05  3.388132E-21  3.392733E-21  1.565877E-21 -3.914692E-21
         1   5 -3.613393E-05 -3.613393E-05  1.416694E-46 -7.829384E-22 -3.914692E-22  2.740284E-21
         1   6 -3.613393E-05 -3.613393E-05 -3.388132E-21 -7.829384E-22 -1.174408E-21  5.872038E-22
         1   7 -3.613393E-05 -3.613393E-05  2.428618E-46 -3.131754E-21  5.219589E-22  4.697630E-21
         1   8 -3.613393E-05 -3.613393E-05 -3.388132E-21 -3.131754E-21  1.565877E-21 -2.609795E-21
         2   1 -3.613393E-05 -3.613393E-05  1.033510E-13 -1.598374E-15  1.695288E-15 -1.130307E-15
         2   2 -3.613393E-05 -3.613393E-05  1.083797E-13  4.656522E-14  4.548038E-14  1.889685E-15
         2   3 -3.613393E-05 -3.613393E-05  1.566453E-13 -5.965214E-15  7.164808E-14 -7.146373E-15
         2   4 -3.613393E-05 -3.613393E-05  1.609683E-13  4.657689E-14  1.591943E-15  4.406734E-15
         2   5 -3.613393E-05 -3.613393E-05  3.160737E-14  2.774298E-15  6.326901E-15  1.797703E-15
         2   6 -3.613393E-05 -3.613393E-05  5.455570E-14  2.028833E-14  4.573348E-14  4.535353E-15
         2   7 -3.613393E-05 -3.613393E-05 -3.988576E-14 -5.970232E-14  4.096928E-14 -4.218363E-15
         2   8 -3.613393E-05 -3.613393E-05 -1.764330E-14  4.538189E-14  1.469823E-14  7.052401E-15
         3   1 -3.613393E-05 -3.613393E-05 -8.976150E-15 -1.098798E-13  6.126829E-15  1.151288E-14
         3   2 -3.613393E-05 -3.613393E-05  1.328412E-13  9.153159E-14  1.748320E-15 -1.133328E-14
         3   3 -3.613393E-05 -3.613393E-05 -1.372502E-15 -1.229817E-13  7.486894E-15  2.416258E-14
         3   4 -3.613393E-05 -3.613393E-05  3.011117E-14  3.464466E-14  2.176553E-13 -1.696701E-14
         3   5 -3.613393E-05 -3.613393E-05 -1.269026E-13 -1.416468E-14 -8.691144E-14  3.031698E-14
         3   6 -3.613393E-05 -3.613393E-05 -2.348042E-14  1.259476E-13 -4.312636E-14 -3.666266E-14
         3   7 -3.613393E-05 -3.613393E-05  1.828182E-13 -5.286331E-14 -4.211467E-14  4.296667E-14
         3   8 -3.613393E-05 -3.613393E-05  1.759067E-13 -1.783524E-14  6.296954E-14 -4.229638E-14
         4   1 -3.613393E-05 -3.613393E-05 -8.870005E-14  1.191918E-13 -3.097097E-15  1.932814E-14
         4   2 -3.613393E-05 -3.613393E-05 -1.895624E-13  1.218476E-13 -2.738848E-15 -7.679553E-14
         4   3 -3.613393E-05 -3.613393E-05 -7.232584E-14 -1.654196E-14  1.752746E-15  7.187025E-14
         4   4 -3.613393E-05 -3.613393E-05 -1.418923E-13 -1.388619E-14  2.842676E-15  1.515315E-14
         4   5 -3.613393E-05 -3.613393E-05 -3.540563E-14 -8.622316E-14 -1.191677E-14  5.931244E-14
         4   6 -3.613393E-05 -3.613393E-05 -1.625390E-13 -8.254304E-14 -1.155852E-14 -7.902426E-14
         4   7 -3.613393E-05 -3.613393E-05 -1.749488E-14 -6.870912E-14  5.451410E-15  4.179840E-14
         4   8 -3.613393E-05 -3.613393E-05 -1.133324E-13 -6.502900E-14  6.541340E-15  6.356665E-15
         5   1 -3.613393E-05 -3.613393E-05  1.918986E-13  5.692061E-14 -3.319547E-14 -6.746589E-14
         5   2 -3.613393E-05 -3.613393E-05  1.058990E-13  6.129912E-14  7.626725E-14 -5.566874E-14
         5   3 -3.613393E-05 -3.613393E-05  7.166726E-14 -3.502807E-14  2.683477E-15  2.590249E-15
         5   4 -3.613393E-05 -3.613393E-05  2.431813E-14 -9.632719E-14  2.895453E-14  2.971218E-14
         5   5 -3.613393E-05 -3.613393E-05  1.327887E-13  8.310660E-32 -3.694574E-14 -7.790324E-14
         5   6 -3.613393E-05 -3.613393E-05  1.715766E-13  1.751404E-14 -3.913499E-14 -2.875337E-14
         5   7 -3.613393E-05 -3.613393E-05  4.539621E-14  4.285213E-30 -2.501320E-14  4.469501E-14
         5   8 -3.613393E-05 -3.613393E-05  1.162668E-13  3.502807E-14  3.628592E-14 -4.671574E-15
         6   1 -3.613393E-05 -3.613393E-05  7.711211E-14  3.940658E-14  2.524549E-14  5.574737E-14
         6   2 -3.613393E-05 -3.613393E-05  1.430544E-13 -7.443465E-14  1.210996E-14  4.434187E-14
         6   3 -3.613393E-05 -3.613393E-05  5.959792E-14 -3.502807E-14  5.082962E-15  3.823334E-14
         6   4 -3.613393E-05 -3.613393E-05  7.461191E-14 -2.627105E-14  7.513910E-14  9.688397E-14
         6   5 -3.613393E-05 -3.613393E-05 -2.512760E-13 -1.401123E-13  4.636820E-14 -1.430883E-14
         6   6 -3.613393E-05 -3.613393E-05 -9.338504E-14 -3.502807E-14 -8.060855E-14  2.615972E-14
         6   7 -3.613393E-05 -3.613393E-05  3.332686E-14 -7.005614E-14  1.896987E-14  1.196222E-14
         6   8 -3.613393E-05 -3.613393E-05  1.993994E-13  7.005614E-14  1.896987E-14  9.840512E-14
         7   1 -3.613393E-05 -3.613393E-05 -1.681539E-13  1.363455E-13 -4.556543E-15  5.111893E-14
         7   2 -3.613393E-05 -3.613393E-05  2.760541E-14  1.260546E-13 -5.987380E-15 -6.554863E-14
         7   3 -3.613393E-05 -3.613393E-05 -1.933107E-13 -3.766746E-15 -1.298253E-16  1.386891E-13
         7   4 -3.613393E-05 -3.613393E-05  4.295585E-14 -1.405769E-14 -5.669562E-15  4.507507E-15
         7   5 -3.613393E-05 -3.613393E-05 -2.237007E-13 -5.872293E-15 -1.557441E-14 -2.282539E-14
         7   6 -3.613393E-05 -3.613393E-05 -1.461612E-13 -2.191570E-14 -1.700525E-14 -7.512644E-14
         7   7 -3.613393E-05 -3.613393E-05 -2.574863E-13 -5.872293E-15  5.055223E-15 -5.311351E-15
         7   8 -3.613393E-05 -3.613393E-05 -1.394394E-13 -2.191570E-14 -4.845141E-16 -1.232900E-13
         8   1 -3.613393E-05 -3.613393E-05 -1.418895E-14  1.751404E-13 -5.741256E-14  5.580265E-14
         8   2 -3.613393E-05 -3.613393E-05 -1.321341E-13  1.357338E-13 -5.960182E-14 -7.762961E-14
         8   3 -3.613393E-05 -3.613393E-05 -1.819010E-14  3.502807E-14  6.310869E-14  3.260542E-15
         8   4 -3.613393E-05 -3.613393E-05 -1.444552E-13  1.751404E-14  8.937974E-14 -2.508750E-14
         8   5 -3.613393E-05 -3.613393E-05 -1.980863E-13  2.101684E-13 -5.555131E-14 -5.345528E-15
         8   6 -3.613393E-05 -3.613393E-05 -6.645643E-14  1.401123E-13 -4.022653E-14 -1.333488E-13
         8   7 -3.613393E-05 -3.613393E-05 -2.546296E-13  7.005614E-14  7.915597E-14  1.522808E-13
         8   8 -3.613393E-05 -3.613393E-05 -1.444552E-13  6.008935E-33 -1.717122E-14 -2.826456E-14
         9   1 -3.613393E-05 -3.613393E-05 -3.474304E-13 -1.050842E-13 -9.905450E-14 -1.679259E-14
         9   2 -3.613393E-05 -3.613393E-05 -1.748914E-13  2.627105E-14 -7.716195E-14  2.278602E-15
         9   3 -3.613393E-05 -3.613393E-05 -2.242831E-13 -2.101684E-13 -7.122628E-14  7.077758E-14
         9   4 -3.613393E-05 -3.613393E-05  4.357072E-14 -1.225982E-13  3.385793E-14 -6.478415E-15
         9   5 -3.613393E-05 -3.613393E-05 -3.868369E-13  1.401123E-13 -1.526372E-13  2.692455E-15
         9   6 -3.613393E-05 -3.613393E-05  2.214149E-14  1.401123E-13  4.001723E-14 -5.482734E-14
         9   7 -3.613393E-05 -3.613393E-05 -2.768252E-13  1.401123E-13  1.357452E-13  2.692455E-15
         9   8 -3.613393E-05 -3.613393E-05  1.355194E-13 -7.005614E-14  1.707733E-13  1.159345E-13

 strains (elem, integ.pnt.,exx,eyy,ezz,exy,exz,eyz) forset EALL and time  0.2107813E+00

         1   1 -1.204464E-10 -1.204464E-10  1.032398E-10  4.442865E-27 -2.423381E-27  4.038968E-27
         1   2 -1.204464E-10 -1.204464E-10  1.032398E-10 -5.654555E-27 -7.270142E-27 -4.442865E-27
         1   3 -1.204464E-10 -1.204464E-10  1.032398E-10  3.110005E-26  1.615587E-27  1.292470E-26
         1   4 -1.204464E-10 -1.204464E-10  1.032398E-10  2.100263E-26  9.693523E-27 -2.423381E-26
         1   5 -1.204464E-10 -1.204464E-10  1.032398E-10 -4.846761E-27 -2.423381E-27  1.696366E-26
         1   6 -1.204464E-10 -1.204464E-10  1.032398E-10 -4.846761E-27 -7.270142E-27  3.635071E-27
         1   7 -1.204464E-10 -1.204464E-10  1.032398E-10 -1.938705E-26  3.231174E-27  2.908057E-26
         1   8 -1.204464E-10 -1.204464E-10  1.032398E-10 -1.938705E-26  9.693523E-27 -1.615587E-26
         2   1 -1.204464E-10 -1.204464E-10  1.032398E-10 -9.894697E-21  1.049464E-20 -6.997139E-21
         2   2 -1.204464E-10 -1.204464E-10  1.032398E-10  2.882609E-19  2.815452E-19  1.169805E-20
         2   3 -1.204464E-10 -1.204464E-10  1.032398E-10 -3.692751E-20  4.435358E-19 -4.423945E-20
         2   4 -1.204464E-10 -1.204464E-10  1.032398E-10  2.883331E-19  9.854884E-21  2.727978E-20
         2   5 -1.204464E-10 -1.204464E-10  1.032398E-10  1.717422E-20  3.916653E-20  1.112864E-20
         2   6 -1.204464E-10 -1.204464E-10  1.032398E-10  1.255944E-19  2.831120E-19  2.807599E-20
         2   7 -1.204464E-10 -1.204464E-10  1.032398E-10 -3.695858E-19  2.536194E-19 -2.611368E-20
         2   8 -1.204464E-10 -1.204464E-10  1.032398E-10  2.809355E-19  9.098904E-20  4.365772E-20
         3   1 -1.204464E-10 -1.204464E-10  1.032398E-10 -6.802084E-19  3.792799E-20  7.127024E-20
         3   2 -1.204464E-10 -1.204464E-10  1.032398E-10  5.666241E-19  1.082293E-20 -7.015841E-20
         3   3 -1.204464E-10 -1.204464E-10  1.032398E-10 -7.613150E-19  4.634744E-20  1.495779E-19
         3   4 -1.204464E-10 -1.204464E-10  1.032398E-10  2.144669E-19  1.347390E-18 -1.050339E-19
         3   5 -1.204464E-10 -1.204464E-10  1.032398E-10 -8.768613E-20 -5.380232E-19  1.876765E-19
         3   6 -1.204464E-10 -1.204464E-10  1.032398E-10  7.796756E-19 -2.669727E-19 -2.269593E-19
         3   7 -1.204464E-10 -1.204464E-10  1.032398E-10 -3.272491E-19 -2.607099E-19  2.659842E-19
         3   8 -1.204464E-10 -1.204464E-10  1.032398E-10 -1.104087E-19  3.898114E-19 -2.618348E-19
         4   1 -1.204464E-10 -1.204464E-10  1.032398E-10  7.378541E-19 -1.917250E-20  1.196504E-19
         4   2 -1.204464E-10 -1.204464E-10  1.032398E-10  7.542946E-19 -1.695477E-20 -4.754009E-19
         4   3 -1.204464E-10 -1.204464E-10  1.032398E-10 -1.024026E-19  1.085033E-20  4.449110E-19
         4   4 -1.204464E-10 -1.204464E-10  1.032398E-10 -8.596212E-20  1.759752E-20  9.380523E-20
         4   5 -1.204464E-10 -1.204464E-10  1.032398E-10 -5.337624E-19 -7.377049E-20  3.671722E-19
         4   6 -1.204464E-10 -1.204464E-10  1.032398E-10 -5.109807E-19 -7.155276E-20 -4.891978E-19
         4   7 -1.204464E-10 -1.204464E-10  1.032398E-10 -4.253422E-19  3.374683E-20  2.587520E-19
         4   8 -1.204464E-10 -1.204464E-10  1.032398E-10 -4.025605E-19  4.049401E-20  3.935079E-20
         5   1 -1.204464E-10 -1.204464E-10  1.032398E-10  3.523657E-19 -2.054958E-19 -4.176460E-19
         5   2 -1.204464E-10 -1.204464E-10  1.032398E-10  3.794708E-19  4.721306E-19 -3.446160E-19
         5   3 -1.204464E-10 -1.204464E-10  1.032398E-10 -2.168404E-19  1.661200E-20  1.603487E-20
         5   4 -1.204464E-10 -1.204464E-10  1.032398E-10 -5.963112E-19  1.792423E-19  1.839325E-19
         5   5 -1.204464E-10 -1.204464E-10  1.032398E-10  5.067362E-39 -2.287117E-19 -4.822581E-19
         5   6 -1.204464E-10 -1.204464E-10  1.032398E-10  1.084202E-19 -2.422642E-19 -1.779971E-19
         5   7 -1.204464E-10 -1.204464E-10  1.032398E-10 -2.669981E-35 -1.548436E-19  2.766834E-19
         5   8 -1.204464E-10 -1.204464E-10  1.032398E-10  2.168404E-19  2.246272E-19 -2.891927E-20
         6   1 -1.204464E-10 -1.204464E-10  1.032398E-10  2.439455E-19  1.562816E-19  3.451028E-19
         6   2 -1.204464E-10 -1.204464E-10  1.032398E-10 -4.607859E-19  7.496642E-20  2.744973E-19
         6   3 -1.204464E-10 -1.204464E-10  1.032398E-10 -2.168404E-19  3.146595E-20  2.366826E-19
         6   4 -1.204464E-10 -1.204464E-10  1.032398E-10 -1.626303E-19  4.651468E-19  5.997579E-19
         6   5 -1.204464E-10 -1.204464E-10  1.032398E-10 -8.673617E-19  2.870413E-19 -8.857847E-20
         6   6 -1.204464E-10 -1.204464E-10  1.032398E-10 -2.168404E-19 -4.990053E-19  1.619412E-19
         6   7 -1.204464E-10 -1.204464E-10  1.032398E-10 -4.336809E-19  1.174325E-19  7.405185E-20
         6   8 -1.204464E-10 -1.204464E-10  1.032398E-10  4.336809E-19  1.174325E-19  6.091745E-19
         7   1 -1.204464E-10 -1.204464E-10  1.032398E-10  8.440438E-19 -2.820717E-20  3.164505E-19
         7   2 -1.204464E-10 -1.204464E-10  1.032398E-10  7.803380E-19 -3.706473E-20 -4.057773E-19
         7   3 -1.204464E-10 -1.204464E-10  1.032398E-10 -2.331795E-20 -8.036803E-22  8.585516E-19
         7   4 -1.204464E-10 -1.204464E-10  1.032398E-10 -8.702378E-20 -3.509729E-20  2.790361E-20
         7   5 -1.204464E-10 -1.204464E-10  1.032398E-10 -3.635229E-20 -9.641302E-20 -1.413000E-19
         7   6 -1.204464E-10 -1.204464E-10  1.032398E-10 -1.356686E-19 -1.052706E-19 -4.650684E-19
         7   7 -1.204464E-10 -1.204464E-10  1.032398E-10 -3.635229E-20  3.129424E-20 -3.287979E-20
         7   8 -1.204464E-10 -1.204464E-10  1.032398E-10 -1.356686E-19 -2.999373E-21 -7.632240E-19
         8   1 -1.204464E-10 -1.204464E-10  1.032398E-10  1.084202E-18 -3.554111E-19  3.454450E-19
         8   2 -1.204464E-10 -1.204464E-10  1.032398E-10  8.402567E-19 -3.689636E-19 -4.805642E-19
         8   3 -1.204464E-10 -1.204464E-10  1.032398E-10  2.168404E-19  3.906728E-19  2.018431E-20
         8   4 -1.204464E-10 -1.204464E-10  1.032398E-10  1.084202E-19  5.533032E-19 -1.553036E-19
         8   5 -1.204464E-10 -1.204464E-10  1.032398E-10  1.301043E-18 -3.438891E-19 -3.309137E-20
         8   6 -1.204464E-10 -1.204464E-10  1.032398E-10  8.673617E-19 -2.490214E-19 -8.254924E-19
         8   7 -1.204464E-10 -1.204464E-10  1.032398E-10  4.336809E-19  4.900132E-19  9.426906E-19
         8   8 -1.204464E-10 -1.204464E-10  1.032398E-10  5.616858E-38 -1.062980E-19 -1.749711E-19
         9   1 -1.204464E-10 -1.204464E-10  1.032398E-10 -6.505213E-19 -6.131945E-19 -1.039542E-19
         9   2 -1.204464E-10 -1.204464E-10  1.032398E-10  1.626303E-19 -4.776692E-19  1.410563E-20
         9   3 -1.204464E-10 -1.204464E-10  1.032398E-10 -1.301043E-18 -4.409246E-19  4.381469E-19
         9   4 -1.204464E-10 -1.204464E-10  1.032398E-10 -7.589415E-19  2.095967E-19 -4.010447E-20
         9   5 -1.204464E-10 -1.204464E-10  1.032398E-10  8.673617E-19 -9.448967E-19  1.666758E-20
         9   6 -1.204464E-10 -1.204464E-10  1.032398E-10  8.673617E-19  2.477257E-19 -3.394073E-19
         9   7 -1.204464E-10 -1.204464E-10  1.032398E-10  8.673617E-19  8.403277E-19  1.666758E-20
         9   8 -1.204464E-10 -1.204464E-10  1.032398E-10 -4.336809E-19  1.057168E-18  7.176898E-19

 displacements (vx,vy,vz) for set NALL and time  0.2197813E+00

         1  0.000000E+00  0.000000E+00  0.000000E+00
         2 -6.279464E-08  0.000000E+00  0.000000E+00
         3 -3.296719E+00  0.000000E+00  0.000000E+00
         4 -3.296719E+00  0.000000E+00  0.000000E+00
         5 -6.593437E+00  0.000000E+00  0.000000E+00
         6 -6.593438E+00  0.000000E+00  0.000000E+00
         7  0.000000E+00 -6.279464E-08  0.000000E+00
         8 -6.279464E-08 -6.279464E-08  0.000000E+00
         9 -3.296719E+00 -6.279464E-08  0.000000E+00
        10 -3.296719E+00 -6.279464E-08  0.000000E+00
        11 -6.593437E+00 -6.279464E-08  0.000000E+00
        12 -6.593438E+00 -6.279464E-08  0.000000E+00
        13  0.000000E+00 -3.296719E+00  0.000000E+00
        14 -6.279464E-08 -3.296719E+00  0.000000E+00
        15 -3.296719E+00 -3.296719E+00  0.000000E+00
        16 -3.296719E+00 -3.296719E+00  0.000000E+00
        17 -6.593437E+00 -3.296719E+00  0.000000E+00
        18 -6.593438E+00 -3.296719E+00  0.000000E+00
        19  0.000000E+00 -3.296719E+00  0.000000E+00
        20 -6.279464E-08 -3.296719E+00  0.000000E+00
        21 -3.296719E+00 -3.296719E+00  0.000000E+00
        22 -3.296719E+00 -3.296719E+00  0.000000E+00
        23 -6.593437E+00 -3.296719E+00  0.000000E+00
        24 -6.593438E+00 -3.296719E+00  0.000000E+00
        25  0.000000E+00 -6.593437E+00  0.000000E+00
        26 -6.279464E-08 -6.593437E+00  0.000000E+00
        27 -3.296719E+00 -6.593437E+00  0.000000E+00
        28 -3.296719E+00 -6.593437E+00  0.000000E+00
        29 -6.593437E+00 -6.593437E+00  0.000000E+00
        30 -6.593438E+00 -6.593437E+00  0.000000E+00
        31  0.000000E+00 -6.593438E+00  0.000000E+00
        32 -6.279464E-08 -6.593438E+00  0.000000E+00
        33 -3.296719E+00 -6.593438E+00  0.000000E+00
        34 -3.296719E+00 -6.593438E+00  0.000000E+00
        35 -6.593437E+00 -6.593438E+00  0.000000E+00
        36 -6.593438E+00 -6.593438E+00  0.000000E+00
        37  0.000000E+00  0.000000E+00  7.535357E-08
        38 -6.279464E-08  0.000000E+00  7.535357E-08
        39 -3.296719E+00  0.000000E+00  7.535357E-08
        40 -3.296719E+00  0.000000E+00  7.535357E-08
        41 -6.593437E+00  0.000000E+00  7.535357E-08
        42 -6.593438E+00  0.000000E+00  7.535357E-08
        43  0.000000E+00 -6.279464E-08  7.535357E-08
        44 -6.279464E-08 -6.279464E-08  7.535357E-08
        45 -3.296719E+00 -6.279464E-08  7.535357E-08
        46 -3.296719E+00 -6.279464E-08  7.535357E-08
        47 -6.593437E+00 -6.279464E-08  7.535357E-08
        48 -6.593438E+00 -6.279464E-08  7.535357E-08
        49  0.000000E+00 -3.296719E+00  7.535357E-08
        50 -6.279464E-08 -3.296719E+00  7.535357E-08
        51 -3.296719E+00 -3.296719E+00  7.535357E-08
        52 -3.296719E+00 -3.296719E+00  7.535357E-08
        53 -6.593437E+00 -3.296719E+00  7.535357E-08
        54 -6.593438E+00 -3.296719E+00  7.535357E-08
        55  0.000000E+00 -3.296719E+00  7.535357E-08
        56 -6.279464E-08 -3.296719E+00  7.535357E-08
        57 -3.296719E+00 -3.296719E+00  7.535357E-08
        58 -3.296719E+00 -3.296719E+00  7.535357E-08
        59 -6.593437E+00 -3.296719E+00  7.535357E-08
        60 -6.593438E+00 -3.296719E+00  7.535357E-08
        61  0.000000E+00 -6.593437E+00  7.535357E-08
        62 -6.279464E-08 -6.593437E+00  7.535357E-08
        63 -3.296719E+00 -6.593437E+00  7.535357E-08
        64 -3.296719E+00 -6.593437E+00  7.535357E-08
        65 -6.593437E+00 -6.593437E+00  7.535357E-08
        66 -6.593438E+00 -6.593437E+00  7.535357E-08
        67  0.000000E+00 -6.593438E+00  7.535357E-08
        68 -6.279464E-08 -6.593438E+00  7.535357E-08
        69 -3.296719E+00 -6.593438E+00  7.535357E-08
        70 -3.296719E+00 -6.593438E+00  7.535357E-08
        71 -6.593437E+00 -6.593438E+00  7.535357E-08
        72 -6.593438E+00 -6.593438E+00  7.535357E-08

 stresses (elem, integ.pnt.,sxx,syy,szz,sxy,sxz,syz) for set EALL and time  0.2197813E+00

         1   1 -3.767678E-05 -3.767678E-05  3.388132E-21 -7.176935E-22 -9.786730E-22  1.043918E-21
         1   2 -3.767678E-05 -3.767678E-05  1.016440E-20 -2.544550E-21 -5.350079E-21 -1.043918E-21
         1   3 -3.767678E-05 -3.767678E-05  1.016440E-20 -1.304897E-21  5.219589E-22  2.609795E-21
         1   4 -3.767678E-05 -3.767678E-05  3.388132E-21 -3.131754E-21  1.565877E-21 -2.740284E-21
         1   5 -3.767678E-05 -3.767678E-05 -3.388132E-21  5.219589E-22  1.761611E-21  3.653712E-21
         1   6 -3.767678E-05 -3.767678E-05 -1.016440E-20  6.524486E-21 -2.609795E-21 -2.218325E-21
         1   7 -3.767678E-05 -3.767678E-05  3.388132E-21 -4.958610E-21  5.219589E-22  5.219589E-21
         1   8 -3.767678E-05 -3.767678E-05 -3.388132E-21  1.043918E-21  1.565877E-21 -3.914692E-21
         2   1 -3.767678E-05 -3.767678E-05  8.422910E-14 -5.348597E-14 -2.709138E-14  1.223458E-15
         2   2 -3.767678E-05 -3.767678E-05  7.475809E-14  2.094868E-14 -8.203308E-16 -8.366996E-16
         2   3 -3.767678E-05 -3.767678E-05  3.131110E-14 -5.606467E-14  6.617193E-14 -5.378518E-16
         2   4 -3.767678E-05 -3.767678E-05  9.134031E-16  4.026253E-14  2.238684E-14  1.442151E-16
         2   5 -3.767678E-05 -3.767678E-05  4.112377E-14  4.613467E-16 -2.933257E-14  6.327316E-15
         2   6 -3.767678E-05 -3.767678E-05  3.741143E-14  3.548942E-14  2.758805E-14 -4.103522E-15
         2   7 -3.767678E-05 -3.767678E-05  2.761235E-14  1.721769E-15  9.058813E-14  4.566006E-15
         2   8 -3.767678E-05 -3.767678E-05  2.973319E-15  5.426387E-14  5.556006E-14 -3.122607E-15
         3   1 -3.767678E-05 -3.767678E-05  1.461748E-13  1.454783E-13  1.325243E-13  1.999209E-15
         3   2 -3.767678E-05 -3.767678E-05  1.163384E-13  1.104502E-13  7.560370E-14 -1.127015E-15
         3   3 -3.767678E-05 -3.767678E-05 -1.536581E-14  1.601386E-13  1.307996E-13  3.772662E-15
         3   4 -3.767678E-05 -3.767678E-05 -5.698232E-14  4.629735E-14  1.132855E-13 -3.182507E-15
         3   5 -3.767678E-05 -3.767678E-05 -7.340487E-14  3.403943E-15  1.117936E-13  5.687693E-15
         3   6 -3.767678E-05 -3.767678E-05 -1.112820E-13  3.403943E-15 -6.426135E-15 -2.150583E-15
         3   7 -3.767678E-05 -3.767678E-05  4.090054E-14  1.270369E-14 -3.475546E-14  7.461147E-15
         3   8 -3.767678E-05 -3.767678E-05 -8.756752E-15  4.773176E-14  3.530068E-14 -4.206075E-15
         4   1 -3.767678E-05 -3.767678E-05  1.677554E-13  3.420404E-14 -4.232929E-16 -5.170304E-14
         4   2 -3.767678E-05 -3.767678E-05  5.206200E-14  3.195276E-14  2.663928E-15  1.454034E-14
         4   3 -3.767678E-05 -3.767678E-05  1.701094E-13  6.923211E-14  2.754967E-15  3.586713E-14
         4   4 -3.767678E-05 -3.767678E-05  7.323303E-14  6.698083E-14  6.998528E-15 -2.267698E-14
         4   5 -3.767678E-05 -3.767678E-05  1.216965E-13  6.982466E-14 -4.666971E-15 -2.313963E-14
         4   6 -3.767678E-05 -3.767678E-05 -2.026800E-14  6.919225E-14 -1.579750E-15  6.814461E-14
         4   7 -3.767678E-05 -3.767678E-05  1.264787E-13 -2.314776E-16  6.038115E-15  7.318756E-14
         4   8 -3.767678E-05 -3.767678E-05  3.331347E-15 -8.638859E-16  1.028168E-14  3.092729E-14
         5   1 -3.767678E-05 -3.767678E-05 -1.724838E-13  9.638016E-31  7.085356E-14 -1.501273E-14
         5   2 -3.767678E-05 -3.767678E-05 -2.184485E-14  3.940658E-14  4.677176E-14 -2.757562E-14
         5   3 -3.767678E-05 -3.767678E-05 -8.245248E-14  3.502807E-14  7.142619E-14 -2.376975E-14
         5   4 -3.767678E-05 -3.767678E-05  1.228605E-14  8.757018E-15  6.266917E-14 -4.071115E-14
         5   5 -3.767678E-05 -3.767679E-05 -2.381614E-13 -1.050842E-13  9.386579E-15  3.325961E-14
         5   6 -3.767678E-05 -3.767678E-05  1.099395E-14 -8.757018E-14  3.127912E-14  7.058196E-14
         5   7 -3.767678E-05 -3.767679E-05 -1.612656E-13  3.269539E-30  4.014116E-14  6.988562E-15
         5   8 -3.767678E-05 -3.767678E-05  5.826039E-14  3.502807E-14 -4.742901E-14 -3.231299E-14
         6   1 -3.767678E-05 -3.767678E-05  4.752441E-14 -4.378509E-15 -6.866342E-16 -2.357628E-14
         6   2 -3.767678E-05 -3.767678E-05 -1.739016E-13 -7.443465E-14  8.688354E-14  8.721796E-15
         6   3 -3.767678E-05 -3.767678E-05  1.578787E-13 -1.225982E-13  6.226101E-14  2.694768E-15
         6   4 -3.767678E-05 -3.767678E-05 -2.015054E-14  7.005614E-14  1.148031E-13  3.937136E-14
         6   5 -3.767678E-05 -3.767678E-05  3.438888E-14 -1.576263E-13  1.025217E-13  6.259912E-14
         6   6 -3.767678E-05 -3.767678E-05 -1.804693E-13 -5.254211E-14 -2.445510E-14 -6.025735E-14
         6   7 -3.767678E-05 -3.767678E-05  1.578787E-13 -2.802246E-13 -9.914797E-14 -2.497106E-14
         6   8 -3.767678E-05 -3.767678E-05 -7.926041E-14  3.502807E-14  9.350642E-14  3.606984E-14
         7   1 -3.767678E-05 -3.767678E-05 -3.945438E-14 -3.424168E-15  5.776422E-15 -1.222939E-13
         7   2 -3.767678E-05 -3.767678E-05  3.275313E-14 -1.277917E-14  1.369174E-14 -5.170049E-14
         7   3 -3.767678E-05 -3.767678E-05  6.821464E-14 -3.424168E-15 -5.186116E-15  8.787448E-14
         7   4 -3.767678E-05 -3.767678E-05  8.428048E-14 -1.277917E-14 -4.764342E-15 -2.542944E-14
         7   5 -3.767678E-05 -3.767679E-05 -2.330006E-13  1.328482E-13  1.364258E-14 -9.112737E-14
         7   6 -3.767678E-05 -3.767678E-05 -1.607931E-13  1.130022E-13  2.155790E-14  7.085065E-14
         7   7 -3.767678E-05 -3.767679E-05 -1.410681E-13 -7.264128E-15 -1.977662E-14  6.649895E-14
         7   8 -3.767678E-05 -3.767678E-05 -1.250022E-13 -2.711010E-14 -1.935485E-14  7.085065E-14
         8   1 -3.767678E-05 -3.767678E-05  2.465101E-14  1.576263E-13 -3.918404E-14  1.951409E-14
         8   2 -3.767678E-05 -3.767678E-05 -6.354633E-14  1.269768E-13  5.714315E-14 -1.147400E-13
         8   3 -3.767678E-05 -3.767678E-05  6.598606E-14  1.751404E-14  5.424430E-14  8.957023E-14
         8   4 -3.767678E-05 -3.767678E-05  2.366681E-14 -6.129912E-14  1.045921E-14  8.667138E-14
         8   5 -3.767678E-05 -3.767679E-05 -1.986529E-13  1.557313E-31 -8.322000E-14 -8.479873E-14
         8   6 -3.767678E-05 -3.767678E-05 -2.413975E-14 -1.050842E-13  6.564930E-14 -1.218884E-13
         8   7 -3.767678E-05 -3.767678E-05  3.549676E-13  7.005614E-14 -5.901059E-14  7.282759E-14
         8   8 -3.767678E-05 -3.767678E-05  1.418865E-13 -8.757018E-14  8.985871E-14 -4.307529E-14
         9   1 -3.767678E-05 -3.767678E-05  1.006533E-13  3.502807E-14  1.805701E-14 -7.318703E-14
         9   2 -3.767678E-05 -3.767678E-05 -2.125639E-15 -3.502807E-14 -7.389168E-14 -1.241104E-13
         9   3 -3.767678E-05 -3.767678E-05  1.186755E-13  3.502807E-14  1.991946E-13  1.369814E-13
         9   4 -3.767678E-05 -3.767678E-05  2.932978E-13  2.276825E-13 -2.848788E-14 -4.967578E-14
         9   5 -3.767678E-05 -3.767678E-05 -1.756639E-14 -1.401123E-13 -6.333687E-14 -1.342829E-13
         9   6 -3.767678E-05 -3.767678E-05 -2.839669E-14 -1.401123E-13  3.299033E-14 -3.308782E-14
         9   7 -3.767678E-05 -3.767679E-05 -1.440350E-13  1.401123E-13 -4.095495E-14 -8.174079E-14
         9   8 -3.767678E-05 -3.767678E-05  2.013491E-13  3.502807E-14 -5.846899E-14 -4.184484E-14

 strains (elem, integ.pnt.,exx,eyy,ezz,exy,exz,eyz) forset EALL and time  0.2197813E+00

         1   1 -1.255893E-10 -1.255893E-10  1.076480E-10 -4.442865E-27 -6.058452E-27  6.462349E-27
         1   2 -1.255893E-10 -1.255893E-10  1.076480E-10 -1.575197E-26 -3.311954E-26 -6.462349E-27
         1   3 -1.255893E-10 -1.255893E-10  1.076480E-10 -8.077936E-27  3.231174E-27  1.615587E-26
         1   4 -1.255893E-10 -1.255893E-10  1.076480E-10 -1.938705E-26  9.693523E-27 -1.696366E-26
         1   5 -1.255893E-10 -1.255893E-10  1.076480E-10  3.231174E-27  1.090521E-26  2.261822E-26
         1   6 -1.255893E-10 -1.255893E-10  1.076480E-10  4.038968E-26 -1.615587E-26 -1.373249E-26
         1   7 -1.255893E-10 -1.255893E-10  1.076480E-10 -3.069616E-26  3.231174E-27  3.231174E-26
         1   8 -1.255893E-10 -1.255893E-10  1.076480E-10  6.462349E-27  9.693523E-27 -2.423381E-26
         2   1 -1.255893E-10 -1.255893E-10  1.076480E-10 -3.311036E-19 -1.677086E-19  7.573785E-21
         2   2 -1.255893E-10 -1.255893E-10  1.076480E-10  1.296823E-19 -5.078238E-21 -5.179569E-21
         2   3 -1.255893E-10 -1.255893E-10  1.076480E-10 -3.470670E-19  4.096357E-19 -3.329559E-21
         2   4 -1.255893E-10 -1.255893E-10  1.076480E-10  2.492442E-19  1.385852E-19  8.927601E-22
         2   5 -1.255893E-10 -1.255893E-10  1.076480E-10  2.855956E-21 -1.815826E-19  3.916910E-20
         2   6 -1.255893E-10 -1.255893E-10  1.076480E-10  2.196964E-19  1.707831E-19 -2.540276E-20
         2   7 -1.255893E-10 -1.255893E-10  1.076480E-10  1.065857E-20  5.607837E-19  2.826575E-20
         2   8 -1.255893E-10 -1.255893E-10  1.076480E-10  3.359192E-19  3.439432E-19 -1.933043E-20
         3   1 -1.255893E-10 -1.255893E-10  1.076480E-10  9.005800E-19  8.203886E-19  1.237605E-20
         3   2 -1.255893E-10 -1.255893E-10  1.076480E-10  6.837396E-19  4.680229E-19 -6.976758E-21
         3   3 -1.255893E-10 -1.255893E-10  1.076480E-10  9.913341E-19  8.097117E-19  2.335458E-20
         3   4 -1.255893E-10 -1.255893E-10  1.076480E-10  2.866027E-19  7.012915E-19 -1.970123E-20
         3   5 -1.255893E-10 -1.255893E-10  1.076480E-10  2.107203E-20  6.920556E-19  3.520953E-20
         3   6 -1.255893E-10 -1.255893E-10  1.076480E-10  2.107203E-20 -3.978083E-20 -1.331313E-20
         3   7 -1.255893E-10 -1.255893E-10  1.076480E-10  7.864188E-20 -2.151529E-19  4.618805E-20
         3   8 -1.255893E-10 -1.255893E-10  1.076480E-10  2.954823E-19  2.185280E-19 -2.603761E-20
         4   1 -1.255893E-10 -1.255893E-10  1.076480E-10  2.117393E-19 -2.620385E-21 -3.200665E-19
         4   2 -1.255893E-10 -1.255893E-10  1.076480E-10  1.978028E-19  1.649099E-20  9.001164E-20
         4   3 -1.255893E-10 -1.255893E-10  1.076480E-10  4.285797E-19  1.705456E-20  2.220346E-19
         4   4 -1.255893E-10 -1.255893E-10  1.076480E-10  4.146432E-19  4.332422E-20 -1.403813E-19
         4   5 -1.255893E-10 -1.255893E-10  1.076480E-10  4.322479E-19 -2.889077E-20 -1.432454E-19
         4   6 -1.255893E-10 -1.255893E-10  1.076480E-10  4.283330E-19 -9.779403E-21  4.218476E-19
         4   7 -1.255893E-10 -1.255893E-10  1.076480E-10 -1.432956E-21  3.737881E-20  4.530658E-19
         4   8 -1.255893E-10 -1.255893E-10  1.076480E-10 -5.347865E-21  6.364847E-20  1.914546E-19
         5   1 -1.255893E-10 -1.255893E-10  1.076480E-10 -6.163101E-36  4.386173E-19 -9.293595E-20
         5   2 -1.255893E-10 -1.255893E-10  1.076480E-10  2.439455E-19  2.895395E-19 -1.707062E-19
         5   3 -1.255893E-10 -1.255893E-10  1.076480E-10  2.168404E-19  4.421621E-19 -1.471461E-19
         5   4 -1.255893E-10 -1.255893E-10  1.076480E-10  5.421011E-20  3.879520E-19 -2.520214E-19
         5   5 -1.255893E-10 -1.255893E-10  1.076480E-10 -6.505213E-19  5.810739E-20  2.058929E-19
         5   6 -1.255893E-10 -1.255893E-10  1.076480E-10 -5.421011E-19  1.936327E-19  4.369360E-19
         5   7 -1.255893E-10 -1.255893E-10  1.076480E-10 -2.029608E-35  2.484929E-19  4.326253E-20
         5   8 -1.255893E-10 -1.255893E-10  1.076480E-10  2.168404E-19 -2.936082E-19 -2.000328E-19
         6   1 -1.255893E-10 -1.255893E-10  1.076480E-10 -2.710505E-20 -4.250592E-21 -1.459484E-19
         6   2 -1.255893E-10 -1.255893E-10  1.076480E-10 -4.607859E-19  5.378505E-19  5.399207E-20
         6   3 -1.255893E-10 -1.255893E-10  1.076480E-10 -7.589415E-19  3.854253E-19  1.668190E-20
         6   4 -1.255893E-10 -1.255893E-10  1.076480E-10  4.336809E-19  7.106859E-19  2.437275E-19
         6   5 -1.255893E-10 -1.255893E-10  1.076480E-10 -9.757820E-19  6.346579E-19  3.875183E-19
         6   6 -1.255893E-10 -1.255893E-10  1.076480E-10 -3.252607E-19 -1.513887E-19 -3.730217E-19
         6   7 -1.255893E-10 -1.255893E-10  1.076480E-10 -1.734723E-18 -6.137731E-19 -1.545828E-19
         6   8 -1.255893E-10 -1.255893E-10  1.076480E-10  2.168404E-19  5.788493E-19  2.232895E-19
         7   1 -1.255893E-10 -1.255893E-10  1.076480E-10 -2.119723E-20  3.575880E-20 -7.570577E-19
         7   2 -1.255893E-10 -1.255893E-10  1.076480E-10 -7.910914E-20  8.475841E-20 -3.200507E-19
         7   3 -1.255893E-10 -1.255893E-10  1.076480E-10 -2.119723E-20 -3.210453E-20  5.439849E-19
         7   4 -1.255893E-10 -1.255893E-10  1.076480E-10 -7.910914E-20 -2.949355E-20 -1.574203E-19
         7   5 -1.255893E-10 -1.255893E-10  1.076480E-10  8.223933E-19  8.445407E-20 -5.641218E-19
         7   6 -1.255893E-10 -1.255893E-10  1.076480E-10  6.995373E-19  1.334537E-19  4.385992E-19
         7   7 -1.255893E-10 -1.255893E-10  1.076480E-10 -4.496841E-20 -1.224267E-19  4.116602E-19
         7   8 -1.255893E-10 -1.255893E-10  1.076480E-10 -1.678244E-19 -1.198157E-19  4.385992E-19
         8   1 -1.255893E-10 -1.255893E-10  1.076480E-10  9.757820E-19 -2.425679E-19  1.208015E-19
         8   2 -1.255893E-10 -1.255893E-10  1.076480E-10  7.860466E-19  3.537433E-19 -7.102954E-19
         8   3 -1.255893E-10 -1.255893E-10  1.076480E-10  1.084202E-19  3.357980E-19  5.544824E-19
         8   4 -1.255893E-10 -1.255893E-10  1.076480E-10 -3.794708E-19  6.474750E-20  5.365371E-19
         8   5 -1.255893E-10 -1.255893E-10  1.076480E-10 -2.689975E-37 -5.151714E-19 -5.249445E-19
         8   6 -1.255893E-10 -1.255893E-10  1.076480E-10 -6.505213E-19  4.064004E-19 -7.545475E-19
         8   7 -1.255893E-10 -1.255893E-10  1.076480E-10  4.336809E-19 -3.653037E-19  4.508374E-19
         8   8 -1.255893E-10 -1.255893E-10  1.076480E-10 -5.421011E-19  5.562682E-19 -2.666566E-19
         9   1 -1.255893E-10 -1.255893E-10  1.076480E-10  2.168404E-19  1.117815E-19 -4.530626E-19
         9   2 -1.255893E-10 -1.255893E-10  1.076480E-10 -2.168404E-19 -4.574247E-19 -7.683027E-19
         9   3 -1.255893E-10 -1.255893E-10  1.076480E-10  2.168404E-19  1.233109E-18  8.479800E-19
         9   4 -1.255893E-10 -1.255893E-10  1.076480E-10  1.409463E-18 -1.763536E-19 -3.075167E-19
         9   5 -1.255893E-10 -1.255893E-10  1.076480E-10 -8.673617E-19 -3.920854E-19 -8.312751E-19
         9   6 -1.255893E-10 -1.255893E-10  1.076480E-10 -8.673617E-19  2.042258E-19 -2.048294E-19
         9   7 -1.255893E-10 -1.255893E-10  1.076480E-10  8.673617E-19 -2.535307E-19 -5.060144E-19
         9   8 -1.255893E-10 -1.255893E-10  1.076480E-10  2.168404E-19 -3.619509E-19 -2.590395E-19

 displacements (vx,vy,vz) for set NALL and time  0.2287813E+00

         1  0.000000E+00  0.000000E+00  0.000000E+00
         2 -6.536607E-08  0.000000E+00  0.000000E+00
         3 -3.431719E+00  0.000000E+00  0.000000E+00
         4 -3.431719E+00  0.000000E+00  0.000000E+00
         5 -6.863437E+00  0.000000E+00  0.000000E+00
         6 -6.863438E+00  0.000000E+00  0.000000E+00
         7  0.000000E+00 -6.536607E-08  0.000000E+00
         8 -6.536607E-08 -6.536607E-08  0.000000E+00
         9 -3.431719E+00 -6.536607E-08  0.000000E+00
        10 -3.431719E+00 -6.536607E-08  0.000000E+00
        11 -6.863437E+00 -6.536607E-08  0.000000E+00
        12 -6.863438E+00 -6.536607E-08  0.000000E+00
        13  0.000000E+00 -3.431719E+00  0.000000E+00
        14 -6.536607E-08 -3.431719E+00  0.000000E+00
        15 -3.431719E+00 -3.431719E+00  0.000000E+00
        16 -3.431719E+00 -3.431719E+00  0.000000E+00
        17 -6.863437E+00 -3.431719E+00  0.000000E+00
        18 -6.863438E+00 -3.431719E+00  0.000000E+00
        19  0.000000E+00 -3.431719E+00  0.000000E+00
        20 -6.536607E-08 -3.431719E+00  0.000000E+00
        21 -3.431719E+00 -3.431719E+00  0.000000E+00
        22 -3.431719E+00 -3.431719E+00  0.000000E+00
        23 -6.863437E+00 -3.431719E+00  0.000000E+00
        24 -6.863438E+00 -3.431719E+00  0.000000E+00
        25  0.000000E+00 -6.863437E+00  0.000000E+00
        26 -6.536607E-08 -6.863437E+00  0.000000E+00
        27 -3.431719E+00 -6.863437E+00  0.000000E+00
        28 -3.431719E+00 -6.863437E+00  0.000000E+00
        29 -6.863437E+00 -6.863437E+00  0.000000E+00
        30 -6.863438E+00 -6.863437E+00  0.000000E+00
        31  0.000000E+00 -6.863438E+00  0.000000E+00
        32 -6.536607E-08 -6.863438E+00  0.000000E+00
        33 -3.431719E+00 -6.863438E+00  0.000000E+00
        34 -3.431719E+00 -6.863438E+00  0.000000E+00
        35 -6.863437E+00 -6.863438E+00  0.000000E+00
        36 -6.863438E+00 -6.863438E+00  0.000000E+00
        37  0.000000E+00  0.000000E+00  7.843928E-08
        38 -6.536607E-08  0.000000E+00  7.843928E-08
        39 -3.431719E+00  0.000000E+00  7.843928E-08
        40 -3.431719E+00  0.000000E+00  7.843928E-08
        41 -6.863437E+00  0.000000E+00  7.843928E-08
        42 -6.863438E+00  0.000000E+00  7.843928E-08
        43  0.000000E+00 -6.536607E-08  7.843928E-08
        44 -6.536607E-08 -6.536607E-08  7.843928E-08
        45 -3.431719E+00 -6.536607E-08  7.843928E-08
        46 -3.431719E+00 -6.536607E-08  7.843928E-08
        47 -6.863437E+00 -6.536607E-08  7.843928E-08
        48 -6.863438E+00 -6.536607E-08  7.843928E-08
        49  0.000000E+00 -3.431719E+00  7.843928E-08
        50 -6.536607E-08 -3.431719E+00  7.843928E-08
        51 -3.431719E+00 -3.431719E+00  7.843928E-08
        52 -3.431719E+00 -3.431719E+00  7.843928E-08
        53 -6.863437E+00 -3.431719E+00  7.843928E-08
        54 -6.863438E+00 -3.431719E+00  7.843928E-08
        55  0.000000E+00 -3.431719E+00  7.843928E-08
        56 -6.536607E-08 -3.431719E+00  7.843928E-08
        57 -3.431719E+00 -3.431719E+00  7.843928E-08
        58 -3.431719E+00 -3.431719E+00  7.843928E-08
        59 -6.863437E+00 -3.431719E+00  7.843928E-08
        60 -6.863438E+00 -3.431719E+00  7.843928E-08
        61  0.000000E+00 -6.863437E+00  7.843928E-08
        62 -6.536607E-08 -6.863437E+00  7.843928E-08
        63 -3.431719E+00 -6.863437E+00  7.843928E-08
        64 -3.431719E+00 -6.863437E+00  7.843928E-08
        65 -6.863437E+00 -6.863437E+00  7.843928E-08
        66 -6.863438E+00 -6.863437E+00  7.843928E-08
        67  0.000000E+00 -6.863438E+00  7.843928E-08
        68 -6.536607E-08 -6.863438E+00  7.843928E-08
        69 -3.431719E+00 -6.863438E+00  7.843928E-08
        70 -3.431719E+00 -6.863438E+00  7.843928E-08
        71 -6.863437E+00 -6.863438E+00  7.843928E-08
        72 -6.863438E+00 -6.863438E+00  7.843928E-08

 stresses (elem, integ.pnt.,sxx,syy,szz,sxy,sxz,syz) for set EALL and time  0.2287813E+00

         1   1 -3.921964E-05 -3.921964E-05 -6.776264E-21 -2.609795E-22 -1.957346E-22  5.219589E-22
         1   2 -3.921964E-05 -3.921964E-05 -6.776264E-21 -2.479305E-21 -1.304897E-22  1.957346E-22
         1   3 -3.921964E-05 -3.921964E-05 -6.776264E-21  1.957346E-21  2.609795E-22 -2.609795E-22
         1   4 -3.921964E-05 -3.921964E-05 -1.355253E-20 -2.609795E-22  4.958610E-21 -1.957346E-22
         1   5 -3.921964E-05 -3.921964E-05 -6.776264E-21  1.304897E-21 -1.370142E-21  2.870774E-21
         1   6 -3.921964E-05 -3.921964E-05 -6.776264E-21  4.697630E-21 -1.304897E-21 -3.914692E-22
         1   7 -3.921964E-05 -3.921964E-05 -6.776264E-21  3.914692E-21 -3.653712E-21  2.609795E-21
         1   8 -3.921964E-05 -3.921964E-05 -1.298636E-46  7.307425E-21  1.043918E-21 -7.829384E-22
         2   1 -3.921964E-05 -3.921964E-05 -3.093964E-14  5.122530E-14  1.984249E-14  1.952254E-16
         2   2 -3.921964E-05 -3.921964E-05 -2.043242E-14  2.057573E-14  6.800608E-14 -2.885103E-16
         2   3 -3.921964E-05 -3.921964E-05  1.164079E-14  4.762770E-14 -6.396875E-16 -3.168056E-15
         2   4 -3.921964E-05 -3.921964E-05  1.875250E-15  2.135665E-14  6.941645E-14  3.135721E-15
         2   5 -3.921964E-05 -3.921964E-05  4.737839E-14 -6.789479E-14  2.620393E-14  4.091874E-15
         2   6 -3.921964E-05 -3.921964E-05  7.213940E-14  2.161354E-15  3.277170E-14 -4.500970E-15
         2   7 -3.921964E-05 -3.921964E-05  5.712001E-14 -6.198986E-14  3.264072E-14  7.285925E-16
         2   8 -3.921964E-05 -3.921964E-05  6.160824E-14  2.558032E-14  7.642581E-14 -1.076737E-15
         3   1 -3.921964E-05 -3.921964E-05 -1.832476E-13  2.425888E-14 -9.803543E-14 -4.344987E-15
         3   2 -3.921964E-05 -3.921964E-05 -1.792365E-13 -2.012171E-15 -1.768486E-13  6.754408E-15
         3   3 -3.921964E-05 -3.921964E-05  2.377900E-14 -5.163089E-15 -6.657292E-14 -2.546741E-14
         3   4 -3.921964E-05 -3.921964E-05  3.436867E-15 -7.521923E-14  9.105339E-14  2.569741E-14
         3   5 -3.921964E-05 -3.921964E-05  1.139190E-13  9.761755E-15 -8.721653E-15  4.906704E-15
         3   6 -3.921964E-05 -3.921964E-05  2.020675E-13  9.761755E-15 -7.439928E-14  6.264794E-15
         3   7 -3.921964E-05 -3.921964E-05 -1.782044E-13  3.643137E-14 -1.271127E-13 -1.621571E-14
         3   8 -3.921964E-05 -3.921964E-05 -1.144092E-13 -6.865284E-14  6.554165E-14  2.520779E-14
         4   1 -3.921964E-05 -3.921964E-05 -1.699349E-13  1.702569E-14 -5.908657E-16  2.483915E-14
         4   2 -3.921964E-05 -3.921964E-05 -1.561764E-13  1.569150E-14 -2.454313E-15 -5.913018E-14
         4   3 -3.921964E-05 -3.921964E-05 -1.817162E-13 -4.883479E-16 -5.173709E-17 -1.431901E-15
         4   4 -3.921964E-05 -3.921964E-05 -1.732693E-13 -1.822539E-15  1.682351E-15 -1.096658E-14
         4   5 -3.921964E-05 -3.921964E-05 -4.249287E-14  1.355157E-15 -3.416945E-16 -5.788603E-14
         4   6 -3.921964E-05 -3.921964E-05 -6.814100E-14  5.057516E-15 -2.205142E-15  2.021411E-14
         4   7 -3.921964E-05 -3.921964E-05  5.836481E-14  1.355157E-15 -1.927172E-15  2.968415E-14
         4   8 -3.921964E-05 -3.921964E-05 -7.767905E-14  5.057516E-15 -1.930846E-16  2.678187E-14
         5   1 -3.921964E-05 -3.921964E-05  1.429329E-13 -4.816360E-14  4.456497E-14  4.191492E-14
         5   2 -3.921964E-05 -3.921964E-05  1.548273E-13  7.455811E-30  1.829392E-14  9.691671E-14
         5   3 -3.921964E-05 -3.921964E-05 -1.433138E-14  1.194925E-30 -3.328200E-15  3.315791E-14
         5   4 -3.921964E-05 -3.921964E-05  2.343185E-15  7.005614E-14  7.548496E-14  3.780684E-14
         5   5 -3.921964E-05 -3.921964E-05  2.471313E-14  1.751404E-14  6.420969E-14 -5.952165E-14
         5   6 -3.921964E-05 -3.921964E-05  1.613951E-13 -1.751404E-14 -2.992825E-14  3.898800E-14
         5   7 -3.921964E-05 -3.921964E-05 -9.314453E-14  7.005614E-14 -4.744908E-14  2.804852E-14
         5   8 -3.921964E-05 -3.921964E-05 -6.333445E-14  5.254211E-14  5.763513E-14  4.774502E-14
         6   1 -3.921964E-05 -3.921964E-05  5.087382E-15 -1.313553E-14  3.735903E-14 -1.194448E-13
         6   2 -3.921964E-05 -3.921964E-05  1.471990E-13  5.692061E-14  1.380647E-13 -1.018184E-14
         6   3 -3.921964E-05 -3.921964E-05  9.230319E-14 -1.751404E-14 -1.379810E-13  3.153409E-15
         6   4 -3.921964E-05 -3.921964E-05  8.058882E-14 -7.005614E-14  2.131245E-15  2.922474E-14
         6   5 -3.921964E-05 -3.921964E-05  1.233071E-13 -5.254211E-14  5.654851E-14 -8.455851E-14
         6   6 -3.921964E-05 -3.921964E-05  2.588510E-13  1.751404E-14 -6.167123E-14  7.044755E-14
         6   7 -3.921964E-05 -3.921964E-05 -1.178652E-13 -1.401123E-13 -1.321584E-13 -2.325939E-14
         6   8 -3.921964E-05 -3.921964E-05 -5.076645E-14  9.199669E-32  7.801005E-14  2.447321E-14
         7   1 -3.921964E-05 -3.921964E-05  1.321503E-14 -1.402653E-13  2.484166E-15 -1.796959E-13
         7   2 -3.921964E-05 -3.921964E-05 -5.667434E-14 -1.406832E-13  2.671836E-14 -1.247999E-13
         7   3 -3.921964E-05 -3.921964E-05  1.010960E-13 -1.529749E-16  3.213558E-16 -5.709768E-14
         7   4 -3.921964E-05 -3.921964E-05  7.719002E-14 -5.709103E-16  2.533027E-16  2.176852E-15
         7   5 -3.921964E-05 -3.921964E-05  6.410685E-14  1.275060E-13 -1.496316E-14 -1.092647E-13
         7   6 -3.921964E-05 -3.921964E-05  2.048852E-14  9.306488E-14  9.271033E-15 -1.147885E-13
         7   7 -3.921964E-05 -3.921964E-05  1.009531E-13 -1.260631E-14  1.267368E-15  1.184178E-13
         7   8 -3.921964E-05 -3.921964E-05  1.033182E-13 -4.704740E-14  1.199316E-15 -1.408278E-14
         8   1 -3.921964E-05 -3.921964E-05  2.833344E-14 -7.005614E-14  1.637162E-14 -2.492382E-13
         8   2 -3.921964E-05 -3.921964E-05 -5.740444E-15 -2.627105E-14  2.731790E-14 -1.371626E-13
         8   3 -3.921964E-05 -3.921964E-05  2.320034E-13 -7.005614E-14  2.774146E-14 -5.658377E-14
         8   4 -3.921964E-05 -3.921964E-05  1.690994E-13 -2.189254E-14 -1.604363E-14  9.489835E-14
         8   5 -3.921964E-05 -3.921964E-05  8.744330E-14 -2.101684E-13  2.200751E-14 -3.729060E-14
         8   6 -3.921964E-05 -3.921964E-05  7.964048E-14 -7.005614E-14  6.798186E-14 -2.957151E-14
         8   7 -3.921964E-05 -3.921964E-05  2.845455E-13 -2.101684E-13  7.789021E-14  1.203357E-13
         8   8 -3.921964E-05 -3.921964E-05  2.873191E-13 -1.225982E-13  4.286214E-14  9.835075E-15
         9   1 -3.921964E-05 -3.921964E-05 -2.158308E-13 -1.401123E-13  9.847978E-15 -8.314764E-14
         9   2 -3.921964E-05 -3.921964E-05 -1.617033E-13 -1.313553E-13  3.611903E-14  1.428797E-13
         9   3 -3.921964E-05 -3.921964E-05 -1.726890E-15 -1.178092E-31 -6.186327E-14  7.447868E-14
         9   4 -3.921964E-05 -3.921964E-05  2.796039E-14  2.627105E-14 -2.683520E-14  1.078516E-13
         9   5 -3.921964E-05 -3.921964E-05 -3.193339E-14 -2.802246E-13  2.118935E-13 -8.857907E-14
         9   6 -3.921964E-05 -3.921964E-05 -1.222968E-13 -1.401123E-13  6.103593E-15 -1.823262E-13
         9   7 -3.921964E-05 -3.921964E-05 -3.169795E-13 -1.401123E-13 -1.095361E-13  1.650514E-14
         9   8 -3.921964E-05 -3.921964E-05 -3.135633E-13 -1.050842E-13  6.560427E-14  6.287029E-14

 strains (elem, integ.pnt.,exx,eyy,ezz,exy,exz,eyz) forset EALL and time  0.2287813E+00

         1   1 -1.307321E-10 -1.307321E-10  1.120561E-10 -1.615587E-27 -1.211690E-27  3.231174E-27
         1   2 -1.307321E-10 -1.307321E-10  1.120561E-10 -1.534808E-26 -8.077936E-28  1.211690E-27
         1   3 -1.307321E-10 -1.307321E-10  1.120561E-10  1.211690E-26  1.615587E-27 -1.615587E-27
         1   4 -1.307321E-10 -1.307321E-10  1.120561E-10 -1.615587E-27  3.069616E-26 -1.211690E-27
         1   5 -1.307321E-10 -1.307321E-10  1.120561E-10  8.077936E-27 -8.481832E-27  1.777146E-26
         1   6 -1.307321E-10 -1.307321E-10  1.120561E-10  2.908057E-26 -8.077936E-27 -2.423381E-27
         1   7 -1.307321E-10 -1.307321E-10  1.120561E-10  2.423381E-26 -2.261822E-26  1.615587E-26
         1   8 -1.307321E-10 -1.307321E-10  1.120561E-10  4.523644E-26  6.462349E-27 -4.846761E-27
         2   1 -1.307321E-10 -1.307321E-10  1.120561E-10  3.171090E-19  1.228344E-19  1.208538E-21
         2   2 -1.307321E-10 -1.307321E-10  1.120561E-10  1.273736E-19  4.209900E-19 -1.786016E-21
         2   3 -1.307321E-10 -1.307321E-10  1.120561E-10  2.948382E-19 -3.959970E-21 -1.961178E-20
         2   4 -1.307321E-10 -1.307321E-10  1.120561E-10  1.322078E-19  4.297209E-19  1.941160E-20
         2   5 -1.307321E-10 -1.307321E-10  1.120561E-10 -4.203011E-19  1.622148E-19  2.533065E-20
         2   6 -1.307321E-10 -1.307321E-10  1.120561E-10  1.337981E-20  2.028724E-19 -2.786315E-20
         2   7 -1.307321E-10 -1.307321E-10  1.120561E-10 -3.837467E-19  2.020616E-19  4.510335E-21
         2   8 -1.307321E-10 -1.307321E-10  1.120561E-10  1.583543E-19  4.731122E-19 -6.665515E-21
         3   1 -1.307321E-10 -1.307321E-10  1.120561E-10  1.501740E-19 -6.068860E-19 -2.689754E-20
         3   2 -1.307321E-10 -1.307321E-10  1.120561E-10 -1.245630E-20 -1.094777E-18  4.181300E-20
         3   3 -1.307321E-10 -1.307321E-10  1.120561E-10 -3.196198E-20 -4.121181E-19 -1.576554E-19
         3   4 -1.307321E-10 -1.307321E-10  1.120561E-10 -4.656429E-19  5.636639E-19  1.590792E-19
         3   5 -1.307321E-10 -1.307321E-10  1.120561E-10  6.042991E-20 -5.399118E-20  3.037483E-20
         3   6 -1.307321E-10 -1.307321E-10  1.120561E-10  6.042991E-20 -4.605670E-19  3.878206E-20
         3   7 -1.307321E-10 -1.307321E-10  1.120561E-10  2.255275E-19 -7.868883E-19 -1.003830E-19
         3   8 -1.307321E-10 -1.307321E-10  1.120561E-10 -4.249938E-19  4.057340E-19  1.560482E-19
         4   1 -1.307321E-10 -1.307321E-10  1.120561E-10  1.053971E-19 -3.657740E-21  1.537662E-19
         4   2 -1.307321E-10 -1.307321E-10  1.120561E-10  9.713783E-20 -1.519337E-20 -3.660439E-19
         4   3 -1.307321E-10 -1.307321E-10  1.120561E-10 -3.023106E-21 -3.202772E-22 -8.864150E-21
         4   4 -1.307321E-10 -1.307321E-10  1.120561E-10 -1.128239E-20  1.041455E-20 -6.788835E-20
         4   5 -1.307321E-10 -1.307321E-10  1.120561E-10  8.389065E-21 -2.115251E-21 -3.583421E-19
         4   6 -1.307321E-10 -1.307321E-10  1.120561E-10  3.130843E-20 -1.365088E-20  1.251350E-19
         4   7 -1.307321E-10 -1.307321E-10  1.120561E-10  8.389065E-21 -1.193011E-20  1.837590E-19
         4   8 -1.307321E-10 -1.307321E-10  1.120561E-10  3.130843E-20 -1.195286E-21  1.657926E-19
         5   1 -1.307321E-10 -1.307321E-10  1.120561E-10 -2.981556E-19  2.758784E-19  2.594733E-19
         5   2 -1.307321E-10 -1.307321E-10  1.120561E-10 -4.588137E-35  1.132481E-19  5.999606E-19
         5   3 -1.307321E-10 -1.307321E-10  1.120561E-10 -7.405137E-36 -2.060314E-20  2.052632E-19
         5   4 -1.307321E-10 -1.307321E-10  1.120561E-10  4.336809E-19  4.672878E-19  2.340423E-19
         5   5 -1.307321E-10 -1.307321E-10  1.120561E-10  1.084202E-19  3.974885E-19 -3.684674E-19
         5   6 -1.307321E-10 -1.307321E-10  1.120561E-10 -1.084202E-19 -1.852701E-19  2.413543E-19
         5   7 -1.307321E-10 -1.307321E-10  1.120561E-10  4.336809E-19 -2.937324E-19  1.736337E-19
         5   8 -1.307321E-10 -1.307321E-10  1.120561E-10  3.252607E-19  3.567889E-19  2.955644E-19
         6   1 -1.307321E-10 -1.307321E-10  1.120561E-10 -8.131516E-20  2.312702E-19 -7.394204E-19
         6   2 -1.307321E-10 -1.307321E-10  1.120561E-10  3.523657E-19  8.546865E-19 -6.303042E-20
         6   3 -1.307321E-10 -1.307321E-10  1.120561E-10 -1.084202E-19 -8.541683E-19  1.952110E-20
         6   4 -1.307321E-10 -1.307321E-10  1.120561E-10 -4.336809E-19  1.319342E-20  1.809151E-19
         6   5 -1.307321E-10 -1.307321E-10  1.120561E-10 -3.252607E-19  3.500622E-19 -5.234574E-19
         6   6 -1.307321E-10 -1.307321E-10  1.120561E-10  1.084202E-19 -3.817743E-19  4.361039E-19
         6   7 -1.307321E-10 -1.307321E-10  1.120561E-10 -8.673617E-19 -8.181232E-19 -1.439867E-19
         6   8 -1.307321E-10 -1.307321E-10  1.120561E-10 -3.312670E-38  4.829194E-19  1.515008E-19
         7   1 -1.307321E-10 -1.307321E-10  1.120561E-10 -8.683087E-19  1.537817E-20 -1.112403E-18
         7   2 -1.307321E-10 -1.307321E-10  1.120561E-10 -8.708959E-19  1.653994E-19 -7.725708E-19
         7   3 -1.307321E-10 -1.307321E-10  1.120561E-10 -9.469873E-22  1.989345E-21 -3.534618E-19
         7   4 -1.307321E-10 -1.307321E-10  1.120561E-10 -3.534207E-21  1.568065E-21  1.347575E-20
         7   5 -1.307321E-10 -1.307321E-10  1.120561E-10  7.893227E-19 -9.262910E-20 -6.764005E-19
         7   6 -1.307321E-10 -1.307321E-10  1.120561E-10  5.761160E-19  5.739211E-20 -7.105954E-19
         7   7 -1.307321E-10 -1.307321E-10  1.120561E-10 -7.803907E-20  7.845614E-21  7.330623E-19
         7   8 -1.307321E-10 -1.307321E-10  1.120561E-10 -2.912458E-19  7.424337E-21 -8.717914E-20
         8   1 -1.307321E-10 -1.307321E-10  1.120561E-10 -4.336809E-19  1.013481E-19 -1.542903E-18
         8   2 -1.307321E-10 -1.307321E-10  1.120561E-10 -1.626303E-19  1.691108E-19 -8.491019E-19
         8   3 -1.307321E-10 -1.307321E-10  1.120561E-10 -4.336809E-19  1.717328E-19 -3.502805E-19
         8   4 -1.307321E-10 -1.307321E-10  1.120561E-10 -1.355253E-19 -9.931771E-20  5.874660E-19
         8   5 -1.307321E-10 -1.307321E-10  1.120561E-10 -1.301043E-18  1.362370E-19 -2.308466E-19
         8   6 -1.307321E-10 -1.307321E-10  1.120561E-10 -4.336809E-19  4.208401E-19 -1.830617E-19
         8   7 -1.307321E-10 -1.307321E-10  1.120561E-10 -1.301043E-18  4.821775E-19  7.449354E-19
         8   8 -1.307321E-10 -1.307321E-10  1.120561E-10 -7.589415E-19  2.653370E-19  6.088380E-20
         9   1 -1.307321E-10 -1.307321E-10  1.120561E-10 -8.673617E-19  6.096367E-20 -5.147235E-19
         9   2 -1.307321E-10 -1.307321E-10  1.120561E-10 -8.131516E-19  2.235940E-19  8.844934E-19
         9   3 -1.307321E-10 -1.307321E-10  1.120561E-10  2.777063E-39 -3.829631E-19  4.610585E-19
         9   4 -1.307321E-10 -1.307321E-10  1.120561E-10  1.626303E-19 -1.661227E-19  6.676530E-19
         9   5 -1.307321E-10 -1.307321E-10  1.120561E-10 -1.734723E-18  1.311722E-18 -5.483466E-19
         9   6 -1.307321E-10 -1.307321E-10  1.120561E-10 -8.673617E-19  3.778415E-20 -1.128686E-18
         9   7 -1.307321E-10 -1.307321E-10  1.120561E-10 -8.673617E-19 -6.780805E-19  1.021747E-19
         9   8 -1.307321E-10 -1.307321E-10  1.120561E-10 -6.505213E-19  4.061217E-19  3.891970E-19

 displacements (vx,vy,vz) for set NALL and time  0.2377813E+00

         1  0.000000E+00  0.000000E+00  0.000000E+00
         2 -6.793750E-08  0.000000E+00  0.000000E+00
         3 -3.566719E+00  0.000000E+00  0.000000E+00
         4 -3.566719E+00  0.000000E+00  0.000000E+00
         5 -7.133437E+00  0.000000E+00  0.000000E+00
         6 -7.133438E+00  0.000000E+00  0.000000E+00
         7  0.000000E+00 -6.793750E-08  0.000000E+00
         8 -6.793750E-08 -6.793750E-08  0.000000E+00
         9 -3.566719E+00 -6.793750E-08  0.000000E+00
        10 -3.566719E+00 -6.793750E-08  0.000000E+00
        11 -7.133437E+00 -6.793750E-08  0.000000E+00
        12 -7.133438E+00 -6.793750E-08  0.000000E+00
        13  0.000000E+00 -3.566719E+00  0.000000E+00
        14 -6.793750E-08 -3.566719E+00  0.000000E+00
        15 -3.566719E+00 -3.566719E+00  0.000000E+00
        16 -3.566719E+00 -3.566719E+00  0.000000E+00
        17 -7.133437E+00 -3.566719E+00  0.000000E+00
        18 -7.133438E+00 -3.566719E+00  0.000000E+00
        19  0.000000E+00 -3.566719E+00  0.000000E+00
        20 -6.793750E-08 -3.566719E+00  0.000000E+00
        21 -3.566719E+00 -3.566719E+00  0.000000E+00
        22 -3.566719E+00 -3.566719E+00  0.000000E+00
        23 -7.133437E+00 -3.566719E+00  0.000000E+00
        24 -7.133438E+00 -3.566719E+00  0.000000E+00
        25  0.000000E+00 -7.133437E+00  0.000000E+00
        26 -6.793750E-08 -7.133437E+00  0.000000E+00
        27 -3.566719E+00 -7.133437E+00  0.000000E+00
        28 -3.566719E+00 -7.133437E+00  0.000000E+00
        29 -7.133437E+00 -7.133437E+00  0.000000E+00
        30 -7.133438E+00 -7.133437E+00  0.000000E+00
        31  0.000000E+00 -7.133438E+00  0.000000E+00
        32 -6.793750E-08 -7.133438E+00  0.000000E+00
        33 -3.566719E+00 -7.133438E+00  0.000000E+00
        34 -3.566719E+00 -7.133438E+00  0.000000E+00
        35 -7.133437E+00 -7.133438E+00  0.000000E+00
        36 -7.133438E+00 -7.133438E+00  0.000000E+00
        37  0.000000E+00  0.000000E+00  8.152500E-08
        38 -6.793750E-08  0.000000E+00  8.152500E-08
        39 -3.566719E+00  0.000000E+00  8.152500E-08
        40 -3.566719E+00  0.000000E+00  8.152500E-08
        41 -7.133437E+00  0.000000E+00  8.152500E-08
        42 -7.133438E+00  0.000000E+00  8.152500E-08
        43  0.000000E+00 -6.793750E-08  8.152500E-08
        44 -6.793750E-08 -6.793750E-08  8.152500E-08
        45 -3.566719E+00 -6.793750E-08  8.152500E-08
        46 -3.566719E+00 -6.793750E-08  8.152500E-08
        47 -7.133437E+00 -6.793750E-08  8.152500E-08
        48 -7.133438E+00 -6.793750E-08  8.152500E-08
        49  0.000000E+00 -3.566719E+00  8.152500E-08
        50 -6.793750E-08 -3.566719E+00  8.152500E-08
        51 -3.566719E+00 -3.566719E+00  8.152500E-08
        52 -3.566719E+00 -3.566719E+00  8.152500E-08
        53 -7.133437E+00 -3.566719E+00  8.152500E-08
        54 -7.133438E+00 -3.566719E+00  8.152500E-08
        55  0.000000E+00 -3.566719E+00  8.152500E-08
        56 -6.793750E-08 -3.566719E+00  8.152500E-08
        57 -3.566719E+00 -3.566719E+00  8.152500E-08
        58 -3.566719E+00 -3.566719E+00  8.152500E-08
        59 -7.133437E+00 -3.566719E+00  8.152500E-08
        60 -7.133438E+00 -3.566719E+00  8.152500E-08
        61  0.000000E+00 -7.133437E+00  8.152500E-08
        62 -6.793750E-08 -7.133437E+00  8.152500E-08
        63 -3.566719E+00 -7.133437E+00  8.152500E-08
        64 -3.566719E+00 -7.133437E+00  8.152500E-08
        65 -7.133437E+00 -7.133437E+00  8.152500E-08
        66 -7.133438E+00 -7.133437E+00  8.152500E-08
        67  0.000000E+00 -7.133438E+00  8.152500E-08
        68 -6.793750E-08 -7.133438E+00  8.152500E-08
        69 -3.566719E+00 -7.133438E+00  8.152500E-08
        70 -3.566719E+00 -7.133438E+00  8.152500E-08
        71 -7.133437E+00 -7.133438E+00  8.152500E-08
        72 -7.133438E+00 -7.133438E+00  8.152500E-08

 stresses (elem, integ.pnt.,sxx,syy,szz,sxy,sxz,syz) for set EALL and time  0.2377813E+00

         1   1 -4.076250E-05 -4.076250E-05 -8.432701E-49  9.786730E-22 -2.609795E-22  6.585537E-32
         1   2 -4.076250E-05 -4.076250E-05 -5.059621E-48  1.761611E-21 -9.134281E-22 -3.262243E-22
         1   3 -4.076250E-05 -4.076250E-05  1.686540E-48  1.826856E-21 -1.317107E-31 -2.609795E-22
         1   4 -4.076250E-05 -4.076250E-05 -3.035772E-47  2.609795E-21 -1.565877E-21 -1.565877E-21
         1   5 -4.076250E-05 -4.076250E-05 -6.776264E-21 -5.219589E-22 -1.304897E-22  1.304897E-21
         1   6 -4.076250E-05 -4.076250E-05 -6.776264E-21 -2.609795E-22 -7.829384E-22  1.239652E-21
         1   7 -4.076250E-05 -4.076250E-05 -1.355253E-20 -1.304897E-21  5.219589E-22  1.043918E-21
         1   8 -4.076250E-05 -4.076250E-05 -1.355253E-20 -1.043918E-21 -1.043918E-21 -4.609876E-31
         2   1 -4.076250E-05 -4.076250E-05 -4.619243E-14  6.831949E-14 -1.846213E-14 -9.630142E-17
         2   2 -4.076250E-05 -4.076250E-05  2.661716E-17  5.518396E-14 -9.705108E-15  1.940209E-15
         2   3 -4.076250E-05 -4.076250E-05 -8.450028E-14  6.357488E-14  1.001404E-14  1.828211E-15
         2   4 -4.076250E-05 -4.076250E-05 -2.322001E-14  7.233189E-14 -1.625701E-14  3.404079E-15
         2   5 -4.076250E-05 -4.076250E-05  3.009444E-14 -1.972698E-15  2.872261E-15 -2.283914E-15
         2   6 -4.076250E-05 -4.076250E-05  7.534615E-14  3.305537E-14  4.227884E-14  5.777085E-15
         2   7 -4.076250E-05 -4.076250E-05 -2.791670E-14 -7.362208E-15  2.344849E-15 -3.594021E-16
         2   8 -4.076250E-05 -4.076250E-05  3.239622E-14  4.517990E-14  5.488695E-14  7.240957E-15
         3   1 -4.076250E-05 -4.076250E-05 -6.483562E-14 -1.974848E-14 -3.932314E-14 -5.683308E-15
         3   2 -4.076250E-05 -4.076250E-05 -5.547919E-14 -2.850550E-14 -6.997270E-14  9.582450E-15
         3   3 -4.076250E-05 -4.076250E-05 -5.386668E-14 -7.370233E-14  1.532384E-14 -2.559797E-14
         3   4 -4.076250E-05 -4.076250E-05 -3.013369E-14  1.802512E-13 -7.224634E-14  2.562398E-14
         3   5 -4.076250E-05 -4.076250E-05  1.035120E-13 -1.414355E-13 -7.326440E-14 -1.295728E-15
         3   6 -4.076250E-05 -4.076250E-05  1.883764E-13 -1.323244E-15  4.933384E-14  1.972066E-14
         3   7 -4.076250E-05 -4.076250E-05 -1.482296E-13 -1.450507E-13 -1.529791E-13 -2.121039E-14
         3   8 -4.076250E-05 -4.076250E-05 -4.898857E-14  2.052300E-13 -6.540890E-14  3.576219E-14
         4   1 -4.076250E-05 -4.076250E-05 -7.574758E-14 -5.516329E-15 -4.568860E-16 -9.989848E-15
         4   2 -4.076250E-05 -4.076250E-05 -8.429107E-14 -8.624910E-15 -3.541935E-15  7.783964E-14
         4   3 -4.076250E-05 -4.076250E-05 -2.901930E-14 -1.865185E-14  6.025598E-17  4.255226E-14
         4   4 -4.076250E-05 -4.076250E-05 -5.074457E-14 -2.176044E-14  3.660777E-15 -9.948997E-14
         4   5 -4.076250E-05 -4.076250E-05 -1.347683E-13 -1.522593E-14  1.379928E-15  2.808065E-14
         4   6 -4.076250E-05 -4.076250E-05 -2.509204E-14 -8.974712E-15 -1.705122E-15  5.553208E-15
         4   7 -4.076250E-05 -4.076250E-05 -7.400031E-14  2.288105E-15 -3.375643E-15  2.808065E-14
         4   8 -4.076250E-05 -4.076250E-05  2.249415E-14  8.539323E-15  2.248787E-16 -5.393064E-15
         5   1 -4.076250E-05 -4.076250E-05  2.722285E-14 -2.189254E-14 -5.368739E-14 -1.454193E-13
         5   2 -4.076250E-05 -4.076250E-05 -9.811767E-14  9.194868E-14  2.074726E-14  1.737948E-14
         5   3 -4.076250E-05 -4.076250E-05  2.084132E-13 -1.576263E-13 -3.513436E-16  3.847809E-14
         5   4 -4.076250E-05 -4.076250E-05  6.152269E-14 -2.189254E-14  8.405674E-15 -7.456920E-14
         5   5 -4.076250E-05 -4.076250E-05  1.585781E-13  5.254211E-14 -5.040579E-14  1.287564E-14
         5   6 -4.076250E-05 -4.076250E-05  1.842962E-13  8.757018E-14 -8.809954E-15 -3.654626E-14
         5   7 -4.076250E-05 -4.076250E-05  3.134974E-13 -1.401123E-13 -1.311232E-15  4.790371E-14
         5   8 -4.076250E-05 -4.076250E-05  2.060135E-13 -8.757018E-14  3.371684E-14  7.948423E-14
         6   1 -4.076250E-05 -4.076250E-05 -4.751714E-14  5.692061E-14  1.656324E-13 -4.545758E-14
         6   2 -4.076250E-05 -4.076250E-05 -2.306774E-13  7.443465E-14  7.368371E-14  8.044528E-14
         6   3 -4.076250E-05 -4.076250E-05 -6.620990E-14 -6.786995E-33  6.604205E-14 -4.545758E-14
         6   4 -4.076250E-05 -4.076250E-05 -1.133299E-13 -3.502807E-14 -2.152813E-14  6.512050E-14
         6   5 -4.076250E-05 -4.076250E-05  5.024965E-15 -2.101684E-13  5.208598E-14 -7.395152E-14
         6   6 -4.076250E-05 -4.076250E-05 -1.387288E-13  1.751404E-13  8.300897E-15  1.222951E-14
         6   7 -4.076250E-05 -4.076250E-05 -1.187520E-13 -2.101684E-13 -8.503694E-14 -1.089796E-13
         6   8 -4.076250E-05 -4.076250E-05 -1.987109E-13  1.050842E-13  5.507534E-14  1.567203E-13
         7   1 -4.076250E-05 -4.076250E-05 -4.654903E-14 -1.923225E-15  7.005431E-15 -2.518654E-13
         7   2 -4.076250E-05 -4.076250E-05 -1.298168E-13 -7.177573E-15  2.792648E-14 -1.835178E-13
         7   3 -4.076250E-05 -4.076250E-05  1.392661E-13 -1.923225E-15 -1.683831E-15  1.684714E-13
         7   4 -4.076250E-05 -4.076250E-05  1.442321E-14 -7.177573E-15  1.212776E-14  1.798985E-13
         7   5 -4.076250E-05 -4.076250E-05 -1.602411E-13 -5.566367E-15  5.223573E-15 -2.094148E-13
         7   6 -4.076250E-05 -4.076250E-05  2.556410E-13 -2.077396E-14  2.614463E-14 -2.634195E-14
         7   7 -4.076250E-05 -4.076250E-05  1.064415E-14 -5.566367E-15 -2.009573E-14  3.578169E-14
         7   8 -4.076250E-05 -4.076250E-05  1.747828E-13 -2.077396E-14 -6.284142E-15  3.057867E-14
         8   1 -4.076250E-05 -4.076250E-05  3.950535E-14  1.751404E-14  2.332403E-14 -2.095844E-13
         8   2 -4.076250E-05 -4.076250E-05  1.054594E-13 -1.313553E-13 -2.921807E-14 -4.055460E-14
         8   3 -4.076250E-05 -4.076250E-05  1.185467E-13 -1.751404E-14  6.537704E-14  2.457806E-13
         8   4 -4.076250E-05 -4.076250E-05 -4.476743E-14 -1.620048E-13  8.289107E-14  2.512304E-14
         8   5 -4.076250E-05 -4.076250E-05 -1.772308E-13  1.401123E-13 -2.210188E-14 -1.122902E-13
         8   6 -4.076250E-05 -4.076250E-05 -1.375478E-13  1.401123E-13 -3.085889E-14  1.156530E-13
         8   7 -4.076250E-05 -4.076250E-05  1.346249E-14 -4.692220E-33  5.259349E-14 -7.205970E-15
         8   8 -4.076250E-05 -4.076250E-05 -1.761227E-13  1.751404E-14 -6.124774E-14  1.112745E-13
         9   1 -4.076250E-05 -4.076250E-05 -2.718527E-13 -7.005614E-14  1.039463E-13 -2.039962E-13
         9   2 -4.076250E-05 -4.076250E-05  9.356841E-15 -5.254211E-14 -1.427343E-14 -4.287387E-14
         9   3 -4.076250E-05 -4.076250E-05 -1.100723E-13 -1.435724E-32 -8.083360E-14 -4.636984E-14
         9   4 -4.076250E-05 -4.076250E-05  9.216235E-14 -3.502807E-14  1.293348E-13  8.410288E-14
         9   5 -4.076250E-05 -4.076250E-05 -9.142176E-15  4.864016E-31 -3.927479E-14 -1.567980E-13
         9   6 -4.076250E-05 -4.076250E-05  3.562789E-14  1.401123E-13  7.018793E-14  7.869422E-14
         9   7 -4.076250E-05 -4.076250E-05 -1.100723E-13 -4.402131E-32 -4.022204E-14  8.839848E-14
         9   8 -4.076250E-05 -4.076250E-05 -2.605738E-14  3.502807E-13 -2.270801E-14 -1.189396E-16

 strains (elem, integ.pnt.,exx,eyy,ezz,exy,exz,eyz) forset EALL and time  0.2377813E+00

         1   1 -1.358750E-10 -1.358750E-10  1.164643E-10  6.058452E-27 -1.615587E-27 -4.076761E-37
         1   2 -1.358750E-10 -1.358750E-10  1.164643E-10  1.090521E-26 -5.654555E-27 -2.019484E-27
         1   3 -1.358750E-10 -1.358750E-10  1.164643E-10  1.130911E-26  8.153522E-37 -1.615587E-27
         1   4 -1.358750E-10 -1.358750E-10  1.164643E-10  1.615587E-26 -9.693523E-27 -9.693523E-27
         1   5 -1.358750E-10 -1.358750E-10  1.164643E-10 -3.231174E-27 -8.077936E-28  8.077936E-27
         1   6 -1.358750E-10 -1.358750E-10  1.164643E-10 -1.615587E-27 -4.846761E-27  7.674039E-27
         1   7 -1.358750E-10 -1.358750E-10  1.164643E-10 -8.077936E-27  3.231174E-27  6.462349E-27
         1   8 -1.358750E-10 -1.358750E-10  1.164643E-10 -6.462349E-27 -6.462349E-27  2.853733E-36
         2   1 -1.358750E-10 -1.358750E-10  1.164643E-10  4.229302E-19 -1.142893E-19 -5.961517E-22
         2   2 -1.358750E-10 -1.358750E-10  1.164643E-10  3.416150E-19 -6.007924E-20  1.201082E-20
         2   3 -1.358750E-10 -1.358750E-10  1.164643E-10  3.935588E-19  6.199170E-20  1.131749E-20
         2   4 -1.358750E-10 -1.358750E-10  1.164643E-10  4.477689E-19 -1.006386E-19  2.107287E-20
         2   5 -1.358750E-10 -1.358750E-10  1.164643E-10 -1.221194E-20  1.778067E-20 -1.413852E-20
         2   6 -1.358750E-10 -1.358750E-10  1.164643E-10  2.046285E-19  2.617262E-19  3.576291E-20
         2   7 -1.358750E-10 -1.358750E-10  1.164643E-10 -4.557557E-20  1.451573E-20 -2.224870E-21
         2   8 -1.358750E-10 -1.358750E-10  1.164643E-10  2.796851E-19  3.397764E-19  4.482497E-20
         3   1 -1.358750E-10 -1.358750E-10  1.164643E-10 -1.222525E-19 -2.434290E-19 -3.518238E-20
         3   2 -1.358750E-10 -1.358750E-10  1.164643E-10 -1.764626E-19 -4.331644E-19  5.931993E-20
         3   3 -1.358750E-10 -1.358750E-10  1.164643E-10 -4.562525E-19  9.486187E-20 -1.584636E-19
         3   4 -1.358750E-10 -1.358750E-10  1.164643E-10  1.115841E-18 -4.472392E-19  1.586246E-19
         3   5 -1.358750E-10 -1.358750E-10  1.164643E-10 -8.755532E-19 -4.535415E-19 -8.021172E-21
         3   6 -1.358750E-10 -1.358750E-10  1.164643E-10 -8.191511E-21  3.054000E-19  1.220803E-19
         3   7 -1.358750E-10 -1.358750E-10  1.164643E-10 -8.979329E-19 -9.470133E-19 -1.313024E-19
         3   8 -1.358750E-10 -1.358750E-10  1.164643E-10  1.270471E-18 -4.049122E-19  2.213850E-19
         4   1 -1.358750E-10 -1.358750E-10  1.164643E-10 -3.414870E-20 -2.828342E-21 -6.184191E-20
         4   2 -1.358750E-10 -1.358750E-10  1.164643E-10 -5.339230E-20 -2.192627E-20  4.818644E-19
         4   3 -1.358750E-10 -1.358750E-10  1.164643E-10 -1.154639E-19  3.730132E-22  2.634187E-19
         4   4 -1.358750E-10 -1.358750E-10  1.164643E-10 -1.347075E-19  2.266195E-20 -6.158903E-19
         4   5 -1.358750E-10 -1.358750E-10  1.164643E-10 -9.425576E-20  8.542409E-21  1.738326E-19
         4   6 -1.358750E-10 -1.358750E-10  1.164643E-10 -5.555774E-20 -1.055552E-20  3.437700E-20
         4   7 -1.358750E-10 -1.358750E-10  1.164643E-10  1.416446E-20 -2.089684E-20  1.738326E-19
         4   8 -1.358750E-10 -1.358750E-10  1.164643E-10  5.286248E-20  1.392106E-21 -3.338563E-20
         5   1 -1.358750E-10 -1.358750E-10  1.164643E-10 -1.355253E-19 -3.323505E-19 -9.002146E-19
         5   2 -1.358750E-10 -1.358750E-10  1.164643E-10  5.692061E-19  1.284354E-19  1.075873E-19
         5   3 -1.358750E-10 -1.358750E-10  1.164643E-10 -9.757820E-19 -2.174984E-21  2.381977E-19
         5   4 -1.358750E-10 -1.358750E-10  1.164643E-10 -1.355253E-19  5.203512E-20 -4.616189E-19
         5   5 -1.358750E-10 -1.358750E-10  1.164643E-10  3.252607E-19 -3.120358E-19  7.970632E-20
         5   6 -1.358750E-10 -1.358750E-10  1.164643E-10  5.421011E-19 -5.453781E-20 -2.262387E-19
         5   7 -1.358750E-10 -1.358750E-10  1.164643E-10 -8.673617E-19 -8.117149E-21  2.965468E-19
         5   8 -1.358750E-10 -1.358750E-10  1.164643E-10 -5.421011E-19  2.087233E-19  4.920452E-19
         6   1 -1.358750E-10 -1.358750E-10  1.164643E-10  3.523657E-19  1.025343E-18 -2.814040E-19
         6   2 -1.358750E-10 -1.358750E-10  1.164643E-10  4.607859E-19  4.561372E-19  4.979946E-19
         6   3 -1.358750E-10 -1.358750E-10  1.164643E-10 -3.729495E-37  4.088317E-19 -2.814040E-19
         6   4 -1.358750E-10 -1.358750E-10  1.164643E-10 -2.168404E-19 -1.332694E-19  4.031269E-19
         6   5 -1.358750E-10 -1.358750E-10  1.164643E-10 -1.301043E-18  3.224370E-19 -4.577951E-19
         6   6 -1.358750E-10 -1.358750E-10  1.164643E-10  1.084202E-18  5.138650E-20  7.570646E-20
         6   7 -1.358750E-10 -1.358750E-10  1.164643E-10 -1.301043E-18 -5.264191E-19 -6.746356E-19
         6   8 -1.358750E-10 -1.358750E-10  1.164643E-10  6.505213E-19  3.409426E-19  9.701732E-19
         7   1 -1.358750E-10 -1.358750E-10  1.164643E-10 -1.190568E-20  4.336695E-20 -1.559167E-18
         7   2 -1.358750E-10 -1.358750E-10  1.164643E-10 -4.443260E-20  1.728782E-19 -1.136062E-18
         7   3 -1.358750E-10 -1.358750E-10  1.164643E-10 -1.190568E-20 -1.042372E-20  1.042918E-18
         7   4 -1.358750E-10 -1.358750E-10  1.164643E-10 -4.443260E-20  7.507660E-20  1.113657E-18
         7   5 -1.358750E-10 -1.358750E-10  1.164643E-10 -3.445846E-20  3.233641E-20 -1.296377E-18
         7   6 -1.358750E-10 -1.358750E-10  1.164643E-10 -1.286007E-19  1.618477E-19 -1.630692E-19
         7   7 -1.358750E-10 -1.358750E-10  1.164643E-10 -3.445846E-20 -1.244022E-19  2.215057E-19
         7   8 -1.358750E-10 -1.358750E-10  1.164643E-10 -1.286007E-19 -3.890183E-20  1.892965E-19
         8   1 -1.358750E-10 -1.358750E-10  1.164643E-10  1.084202E-19  1.443869E-19 -1.297427E-18
         8   2 -1.358750E-10 -1.358750E-10  1.164643E-10 -8.131516E-19 -1.808738E-19 -2.510523E-19
         8   3 -1.358750E-10 -1.358750E-10  1.164643E-10 -1.084202E-19  4.047150E-19  1.521499E-18
         8   4 -1.358750E-10 -1.358750E-10  1.164643E-10 -1.002887E-18  5.131352E-19  1.555236E-19
         8   5 -1.358750E-10 -1.358750E-10  1.164643E-10  8.673617E-19 -1.368211E-19 -6.951297E-19
         8   6 -1.358750E-10 -1.358750E-10  1.164643E-10  8.673617E-19 -1.910312E-19  7.159471E-19
         8   7 -1.358750E-10 -1.358750E-10  1.164643E-10 -9.301991E-37  3.255787E-19 -4.460838E-20
         8   8 -1.358750E-10 -1.358750E-10  1.164643E-10  1.084202E-19 -3.791527E-19  6.888420E-19
         9   1 -1.358750E-10 -1.358750E-10  1.164643E-10 -4.336809E-19  6.434771E-19 -1.262833E-18
         9   2 -1.358750E-10 -1.358750E-10  1.164643E-10 -3.252607E-19 -8.835934E-20 -2.654097E-19
         9   3 -1.358750E-10 -1.358750E-10  1.164643E-10  7.327508E-37 -5.003985E-19 -2.870514E-19
         9   4 -1.358750E-10 -1.358750E-10  1.164643E-10 -2.168404E-19  8.006441E-19  5.206369E-19
         9   5 -1.358750E-10 -1.358750E-10  1.164643E-10 -1.909563E-36 -2.431297E-19 -9.706543E-19
         9   6 -1.358750E-10 -1.358750E-10  1.164643E-10  8.673617E-19  4.344967E-19  4.871547E-19
         9   7 -1.358750E-10 -1.358750E-10  1.164643E-10 -2.725129E-37 -2.489936E-19  5.472287E-19
         9   8 -1.358750E-10 -1.358750E-10  1.164643E-10  2.168404E-18 -1.405734E-19 -7.362924E-22

 displacements (vx,vy,vz) for set NALL and time  0.2467813E+00

         1  0.000000E+00  0.000000E+00  0.000000E+00
         2 -7.050893E-08  0.000000E+00  0.000000E+00
         3 -3.701719E+00  0.000000E+00  0.000000E+00
         4 -3.701719E+00  0.000000E+00  0.000000E+00
         5 -7.403437E+00  0.000000E+00  0.000000E+00
         6 -7.403438E+00  0.000000E+00  0.000000E+00
         7  0.000000E+00 -7.050893E-08  0.000000E+00
         8 -7.050893E-08 -7.050893E-08  0.000000E+00
         9 -3.701719E+00 -7.050893E-08  0.000000E+00
        10 -3.701719E+00 -7.050893E-08  0.000000E+00
        11 -7.403437E+00 -7.050893E-08  0.000000E+00
        12 -7.403438E+00 -7.050893E-08  0.000000E+00
        13  0.000000E+00 -3.701719E+00  0.000000E+00
        14 -7.050893E-08 -3.701719E+00  0.000000E+00
        15 -3.701719E+00 -3.701719E+00  0.000000E+00
        16 -3.701719E+00 -3.701719E+00  0.000000E+00
        17 -7.403437E+00 -3.701719E+00  0.000000E+00
        18 -7.403438E+00 -3.701719E+00  0.000000E+00
        19  0.000000E+00 -3.701719E+00  0.000000E+00
        20 -7.050893E-08 -3.701719E+00  0.000000E+00
        21 -3.701719E+00 -3.701719E+00  0.000000E+00
        22 -3.701719E+00 -3.701719E+00  0.000000E+00
        23 -7.403437E+00 -3.701719E+00  0.000000E+00
        24 -7.403438E+00 -3.701719E+00  0.000000E+00
        25  0.000000E+00 -7.403437E+00  0.000000E+00
        26 -7.050893E-08 -7.403437E+00  0.000000E+00
        27 -3.701719E+00 -7.403437E+00  0.000000E+00
        28 -3.701719E+00 -7.403437E+00  0.000000E+00
        29 -7.403437E+00 -7.403437E+00  0.000000E+00
        30 -7.403438E+00 -7.403437E+00  0.000000E+00
        31  0.000000E+00 -7.403438E+00  0.000000E+00
        32 -7.050893E-08 -7.403438E+00  0.000000E+00
        33 -3.701719E+00 -7.403438E+00  0.000000E+00
        34 -3.701719E+00 -7.403438E+00  0.000000E+00
        35 -7.403437E+00 -7.403438E+00  0.000000E+00
        36 -7.403438E+00 -7.403438E+00  0.000000E+00
        37  0.000000E+00  0.000000E+00  8.461071E-08
        38 -7.050893E-08  0.000000E+00  8.461071E-08
        39 -3.701719E+00  0.000000E+00  8.461071E-08
        40 -3.701719E+00  0.000000E+00  8.461071E-08
        41 -7.403437E+00  0.000000E+00  8.461071E-08
        42 -7.403438E+00  0.000000E+00  8.461071E-08
        43  0.000000E+00 -7.050893E-08  8.461071E-08
        44 -7.050893E-08 -7.050893E-08  8.461071E-08
        45 -3.701719E+00 -7.050893E-08  8.461071E-08
        46 -3.701719E+00 -7.050893E-08  8.461071E-08
        47 -7.403437E+00 -7.050893E-08  8.461071E-08
        48 -7.403438E+00 -7.050893E-08  8.461071E-08
        49  0.000000E+00 -3.701719E+00  8.461071E-08
        50 -7.050893E-08 -3.701719E+00  8.461071E-08
        51 -3.701719E+00 -3.701719E+00  8.461071E-08
        52 -3.701719E+00 -3.701719E+00  8.461071E-08
        53 -7.403437E+00 -3.701719E+00  8.461071E-08
        54 -7.403438E+00 -3.701719E+00  8.461071E-08
        55  0.000000E+00 -3.701719E+00  8.461071E-08
        56 -7.050893E-08 -3.701719E+00  8.461071E-08
        57 -3.701719E+00 -3.701719E+00  8.461071E-08
        58 -3.701719E+00 -3.701719E+00  8.461071E-08
        59 -7.403437E+00 -3.701719E+00  8.461071E-08
        60 -7.403438E+00 -3.701719E+00  8.461071E-08
        61  0.000000E+00 -7.403437E+00  8.461071E-08
        62 -7.050893E-08 -7.403437E+00  8.461071E-08
        63 -3.701719E+00 -7.403437E+00  8.461071E-08
        64 -3.701719E+00 -7.403437E+00  8.461071E-08
        65 -7.403437E+00 -7.403437E+00  8.461071E-08
        66 -7.403438E+00 -7.403437E+00  8.461071E-08
        67  0.000000E+00 -7.403438E+00  8.461071E-08
        68 -7.050893E-08 -7.403438E+00  8.461071E-08
        69 -3.701719E+00 -7.403438E+00  8.461071E-08
        70 -3.701719E+00 -7.403438E+00  8.461071E-08
        71 -7.403437E+00 -7.403438E+00  8.461071E-08
        72 -7.403438E+00 -7.403438E+00  8.461071E-08

 stresses (elem, integ.pnt.,sxx,syy,szz,sxy,sxz,syz) for set EALL and time  0.2467813E+00

         1   1 -4.230536E-05 -4.230536E-05  2.951445E-48  3.131754E-21 -6.524486E-23  2.609795E-22
         1   2 -4.230536E-05 -4.230536E-05 -3.668225E-47  3.066509E-21  1.565877E-21 -3.914692E-22
         1   3 -4.230536E-05 -4.230536E-05 -6.776264E-21  1.050442E-20 -7.829384E-22  2.609795E-22
         1   4 -4.230536E-05 -4.230536E-05  6.776264E-21  1.043918E-20 -2.348815E-21 -3.784202E-21
         1   5 -4.230536E-05 -4.230536E-05  2.141906E-46 -7.829384E-22 -2.414060E-21  1.043918E-21
         1   6 -4.230536E-05 -4.230536E-05  2.580407E-46 -5.219589E-21 -7.829384E-22  2.348815E-21
         1   7 -4.230536E-05 -4.230536E-05 -6.776264E-21  3.392733E-21 -1.304897E-21  1.043918E-21
         1   8 -4.230536E-05 -4.230536E-05 -6.746161E-48 -1.043918E-21 -3.131754E-21 -1.043918E-21
         2   1 -4.230536E-05 -4.230536E-05 -2.963961E-14  6.804300E-14  6.030383E-14  1.863423E-15
         2   2 -4.230536E-05 -4.230536E-05 -4.468757E-14  1.987941E-14 -6.667292E-14 -4.216782E-16
         2   3 -4.230536E-05 -4.230536E-05 -5.542326E-14  6.254301E-14 -7.629860E-14 -3.748998E-15
         2   4 -4.230536E-05 -4.230536E-05 -1.063100E-13  1.875792E-14 -6.242462E-15  2.058426E-15
         2   5 -4.230536E-05 -4.230536E-05 -6.769674E-14  2.133761E-15  5.758465E-14  1.256681E-14
         2   6 -4.230536E-05 -4.230536E-05 -6.575040E-14  2.133761E-15 -2.998553E-14 -4.053828E-15
         2   7 -4.230536E-05 -4.230536E-05 -1.460225E-13  7.963303E-15 -2.329718E-14  6.954391E-15
         2   8 -4.230536E-05 -4.230536E-05 -1.799150E-13  7.963303E-15  4.675896E-14 -1.573722E-15
         3   1 -4.230536E-05 -4.230536E-05 -1.149757E-13  4.074482E-15 -1.490227E-14 -4.749881E-16
         3   2 -4.230536E-05 -4.230536E-05 -8.043945E-14  4.074482E-15 -1.331220E-13  7.039781E-15
         3   3 -4.230536E-05 -4.230536E-05 -1.297497E-13  1.520617E-14 -6.582984E-14 -6.371480E-15
         3   4 -4.230536E-05 -4.230536E-05 -8.418603E-14  6.449156E-15  3.925437E-14  1.726303E-14
         3   5 -4.230536E-05 -4.230536E-05 -1.010873E-13  1.233481E-14  4.477531E-14  4.123815E-15
         3   6 -4.230536E-05 -4.230536E-05 -3.269956E-14 -1.277775E-13 -3.841636E-14  1.604957E-14
         3   7 -4.230536E-05 -4.230536E-05 -8.959025E-14 -9.407814E-14  1.577276E-14 -1.772679E-15
         3   8 -4.230536E-05 -4.230536E-05 -1.017510E-14 -2.402200E-14  1.577276E-14  2.627282E-14
         4   1 -4.230536E-05 -4.230536E-05  5.793657E-14  5.330448E-14 -2.809176E-17  1.341941E-14
         4   2 -4.230536E-05 -4.230536E-05 -3.969631E-14  5.538733E-14  2.168832E-15 -6.825999E-14
         4   3 -4.230536E-05 -4.230536E-05  3.309400E-14  7.623750E-16 -2.863203E-16 -4.094627E-15
         4   4 -4.230536E-05 -4.230536E-05 -6.916276E-14  2.845221E-15  3.054671E-15 -1.352863E-14
         4   5 -4.230536E-05 -4.230536E-05  6.255010E-14  1.348636E-15 -2.301765E-15  1.974671E-14
         4   6 -4.230536E-05 -4.230536E-05 -4.821829E-14  5.033177E-15 -1.048415E-16 -9.881032E-14
         4   7 -4.230536E-05 -4.230536E-05  4.011009E-14 -6.870750E-14 -4.409554E-15  8.980285E-14
         4   8 -4.230536E-05 -4.230536E-05 -7.528220E-14 -6.502296E-14 -1.068563E-15  5.224824E-14
         5   1 -4.230536E-05 -4.230536E-05 -6.986108E-14  2.189254E-14 -3.692785E-14 -9.463826E-14
         5   2 -4.230536E-05 -4.230536E-05 -3.029473E-14 -4.378509E-15 -7.852369E-14 -3.175043E-14
         5   3 -4.230536E-05 -4.230536E-05 -5.175769E-14  1.751404E-14 -3.971766E-14  1.688935E-15
         5   4 -4.230536E-05 -4.230536E-05 -1.034915E-13  1.313553E-14  4.067429E-15 -1.861490E-14
         5   5 -4.230536E-05 -4.230536E-05 -1.075121E-14  1.576263E-13 -3.336114E-14 -6.375295E-14
         5   6 -4.230536E-05 -4.230536E-05 -7.626908E-14  1.401123E-13  1.699171E-14 -4.108504E-15
         5   7 -4.230536E-05 -4.230536E-05 -1.042998E-13  7.005614E-14  5.255436E-14  4.133126E-14
         5   8 -4.230536E-05 -4.230536E-05 -1.626013E-13 -1.430770E-31  8.758243E-14 -3.037956E-14
         6   1 -4.230536E-05 -4.230536E-05 -3.568868E-14 -3.064956E-14 -1.126369E-13 -4.850428E-14
         6   2 -4.230536E-05 -4.230536E-05 -1.463847E-13 -4.378509E-15  1.871831E-14 -8.249632E-15
         6   3 -4.230536E-05 -4.230536E-05  1.816122E-14 -8.757018E-14 -7.457156E-14  3.906589E-14
         6   4 -4.230536E-05 -4.230536E-05 -7.835726E-14  2.627105E-14  8.305476E-14  5.961725E-14
         6   5 -4.230536E-05 -4.230536E-05  4.312448E-14 -1.926544E-13  1.644672E-13 -5.498678E-14
         6   6 -4.230536E-05 -4.230536E-05  4.408041E-14  5.254211E-14 -1.070004E-13  2.859407E-14
         6   7 -4.230536E-05 -4.230536E-05  2.283296E-13 -2.101684E-13 -1.685176E-14  1.506936E-14
         6   8 -4.230536E-05 -4.230536E-05  1.974888E-13 -3.502807E-14  1.817631E-14  1.227320E-13
         7   1 -4.230536E-05 -4.230536E-05 -6.677533E-14 -7.360211E-14  1.112188E-14 -1.020757E-13
         7   2 -4.230536E-05 -4.230536E-05  5.804182E-14 -8.328988E-14  3.361426E-14  6.798995E-14
         7   3 -4.230536E-05 -4.230536E-05  5.886495E-14  3.148210E-14 -1.248978E-14  9.057873E-14
         7   4 -4.230536E-05 -4.230536E-05  8.920937E-14  2.179433E-14 -1.671658E-14  5.923293E-14
         7   5 -4.230536E-05 -4.230536E-05 -7.208345E-14  2.629867E-13  1.901506E-14 -2.211472E-13
         7   6 -4.230536E-05 -4.230536E-05 -2.625189E-13  2.158921E-13  4.150744E-14  4.248454E-14
         7   7 -4.230536E-05 -4.230536E-05 -2.553432E-15  1.228745E-13 -4.238569E-14  6.535226E-15
         7   8 -4.230536E-05 -4.230536E-05 -2.874617E-13  7.577984E-14 -4.661249E-14  7.456472E-15
         8   1 -4.230536E-05 -4.230536E-05 -3.159829E-14 -5.254211E-14  7.810694E-14 -6.428456E-14
         8   2 -4.230536E-05 -4.230536E-05  3.911844E-13 -1.970329E-13 -1.822026E-14 -6.833421E-16
         8   3 -4.230536E-05 -4.230536E-05 -9.585852E-14  5.254211E-14  6.289499E-14  9.334176E-14
         8   4 -4.230536E-05 -4.230536E-05  7.853387E-14 -7.005614E-14  7.165201E-14  2.558771E-14
         8   5 -4.230536E-05 -4.230536E-05 -2.286312E-13  7.005614E-14  9.134510E-14 -1.407793E-13
         8   6 -4.230536E-05 -4.230536E-05 -1.736432E-13  3.502807E-14  1.176162E-13 -3.116776E-14
         8   7 -4.230536E-05 -4.230536E-05 -4.331640E-14 -7.005614E-14  4.333037E-14  1.684698E-14
         8   8 -4.230536E-05 -4.230536E-05 -3.968586E-14 -8.757018E-14 -7.926788E-14 -7.495284E-14
         9   1 -4.230536E-05 -4.230536E-05  2.543250E-14  1.401123E-13 -1.334175E-13 -1.602703E-13
         9   2 -4.230536E-05 -4.230536E-05  8.429423E-14  1.663833E-13 -6.336136E-14  1.100845E-14
         9   3 -4.230536E-05 -4.230536E-05 -1.765236E-13  1.050842E-13 -4.970892E-14 -2.643988E-15
         9   4 -4.230536E-05 -4.230536E-05 -1.426337E-13  7.881316E-14  1.254314E-13  4.603652E-14
         9   5 -4.230536E-05 -4.230536E-05 -1.059228E-13  2.998277E-31  1.300695E-13  7.770268E-14
         9   6 -4.230536E-05 -4.230536E-05 -7.654454E-15  1.401123E-13 -9.761298E-14 -1.145800E-14
         9   7 -4.230536E-05 -4.230536E-05  3.364478E-14 -1.401123E-13  5.880729E-15  1.302448E-13
         9   8 -4.230536E-05 -4.230536E-05  6.753468E-14 -7.005614E-14  1.284790E-13  6.056037E-15

 strains (elem, integ.pnt.,exx,eyy,ezz,exy,exz,eyz) forset EALL and time  0.2467813E+00

         1   1 -1.410179E-10 -1.410179E-10  1.208724E-10  1.938705E-26 -4.038968E-28  1.615587E-27
         1   2 -1.410179E-10 -1.410179E-10  1.208724E-10  1.898315E-26  9.693523E-27 -2.423381E-27
         1   3 -1.410179E-10 -1.410179E-10  1.208724E-10  6.502738E-26 -4.846761E-27  1.615587E-27
         1   4 -1.410179E-10 -1.410179E-10  1.208724E-10  6.462349E-26 -1.454028E-26 -2.342601E-26
         1   5 -1.410179E-10 -1.410179E-10  1.208724E-10 -4.846761E-27 -1.494418E-26  6.462349E-27
         1   6 -1.410179E-10 -1.410179E-10  1.208724E-10 -3.231174E-26 -4.846761E-27  1.454028E-26
         1   7 -1.410179E-10 -1.410179E-10  1.208724E-10  2.100263E-26 -8.077936E-27  6.462349E-27
         1   8 -1.410179E-10 -1.410179E-10  1.208724E-10 -6.462349E-27 -1.938705E-26 -6.462349E-27
         2   1 -1.410179E-10 -1.410179E-10  1.208724E-10  4.212186E-19  3.733094E-19  1.153548E-20
         2   2 -1.410179E-10 -1.410179E-10  1.208724E-10  1.230630E-19 -4.127371E-19 -2.610389E-21
         2   3 -1.410179E-10 -1.410179E-10  1.208724E-10  3.871710E-19 -4.723247E-19 -2.320808E-20
         2   4 -1.410179E-10 -1.410179E-10  1.208724E-10  1.161205E-19 -3.864381E-20  1.274264E-20
         2   5 -1.410179E-10 -1.410179E-10  1.208724E-10  1.320900E-20  3.564764E-19  7.779454E-20
         2   6 -1.410179E-10 -1.410179E-10  1.208724E-10  1.320900E-20 -1.856247E-19 -2.509513E-20
         2   7 -1.410179E-10 -1.410179E-10  1.208724E-10  4.929664E-20 -1.442207E-19  4.305099E-20
         2   8 -1.410179E-10 -1.410179E-10  1.208724E-10  4.929664E-20  2.894602E-19 -9.742089E-21
         3   1 -1.410179E-10 -1.410179E-10  1.208724E-10  2.522298E-20 -9.225215E-20 -2.940403E-21
         3   2 -1.410179E-10 -1.410179E-10  1.208724E-10  2.522298E-20 -8.240886E-19  4.357960E-20
         3   3 -1.410179E-10 -1.410179E-10  1.208724E-10  9.413346E-20 -4.075181E-19 -3.944250E-20
         3   4 -1.410179E-10 -1.410179E-10  1.208724E-10  3.992335E-20  2.430032E-19  1.068664E-19
         3   5 -1.410179E-10 -1.410179E-10  1.208724E-10  7.635836E-20  2.771805E-19  2.552838E-20
         3   6 -1.410179E-10 -1.410179E-10  1.208724E-10 -7.910034E-19 -2.378156E-19  9.935448E-20
         3   7 -1.410179E-10 -1.410179E-10  1.208724E-10 -5.823885E-19  9.764088E-20 -1.097373E-20
         3   8 -1.410179E-10 -1.410179E-10  1.208724E-10 -1.487076E-19  9.764088E-20  1.626413E-19
         4   1 -1.410179E-10 -1.410179E-10  1.208724E-10  3.299801E-19 -1.739014E-22  8.307252E-20
         4   2 -1.410179E-10 -1.410179E-10  1.208724E-10  3.428739E-19  1.342611E-20 -4.225618E-19
         4   3 -1.410179E-10 -1.410179E-10  1.208724E-10  4.719464E-21 -1.772459E-21 -2.534769E-20
         4   4 -1.410179E-10 -1.410179E-10  1.208724E-10  1.761327E-20  1.890987E-20 -8.374867E-20
         4   5 -1.410179E-10 -1.410179E-10  1.208724E-10  8.348697E-21 -1.424902E-20  1.222416E-19
         4   6 -1.410179E-10 -1.410179E-10  1.208724E-10  3.115776E-20 -6.490185E-22 -6.116829E-19
         4   7 -1.410179E-10 -1.410179E-10  1.208724E-10 -4.253322E-19 -2.729724E-20  5.559224E-19
         4   8 -1.410179E-10 -1.410179E-10  1.208724E-10 -4.025231E-19 -6.614912E-21  3.234415E-19
         5   1 -1.410179E-10 -1.410179E-10  1.208724E-10  1.355253E-19 -2.286010E-19 -5.858559E-19
         5   2 -1.410179E-10 -1.410179E-10  1.208724E-10 -2.710505E-20 -4.860990E-19 -1.965503E-19
         5   3 -1.410179E-10 -1.410179E-10  1.208724E-10  1.084202E-19 -2.458712E-19  1.045531E-20
         5   4 -1.410179E-10 -1.410179E-10  1.208724E-10  8.131516E-20  2.517932E-20 -1.152351E-19
         5   5 -1.410179E-10 -1.410179E-10  1.208724E-10  9.757820E-19 -2.065213E-19 -3.946611E-19
         5   6 -1.410179E-10 -1.410179E-10  1.208724E-10  8.673617E-19  1.051868E-19 -2.543360E-20
         5   7 -1.410179E-10 -1.410179E-10  1.208724E-10  4.336809E-19  3.253365E-19  2.558602E-19
         5   8 -1.410179E-10 -1.410179E-10  1.208724E-10  4.757089E-37  5.421769E-19 -1.880639E-19
         6   1 -1.410179E-10 -1.410179E-10  1.208724E-10 -1.897354E-19 -6.972764E-19 -3.002646E-19
         6   2 -1.410179E-10 -1.410179E-10  1.208724E-10 -2.710505E-20  1.158753E-19 -5.106915E-20
         6   3 -1.410179E-10 -1.410179E-10  1.208724E-10 -5.421011E-19 -4.616334E-19  2.418365E-19
         6   4 -1.410179E-10 -1.410179E-10  1.208724E-10  1.626303E-19  5.141485E-19  3.690592E-19
         6   5 -1.410179E-10 -1.410179E-10  1.208724E-10 -1.192622E-18  1.018130E-18 -3.403943E-19
         6   6 -1.410179E-10 -1.410179E-10  1.208724E-10  3.252607E-19 -6.623832E-19  1.770109E-19
         6   7 -1.410179E-10 -1.410179E-10  1.208724E-10 -1.301043E-18 -1.043204E-19  9.328654E-20
         6   8 -1.410179E-10 -1.410179E-10  1.208724E-10 -2.168404E-19  1.125200E-19  7.597696E-19
         7   1 -1.410179E-10 -1.410179E-10  1.208724E-10 -4.556321E-19  6.884976E-20 -6.318969E-19
         7   2 -1.410179E-10 -1.410179E-10  1.208724E-10 -5.156040E-19  2.080883E-19  4.208902E-19
         7   3 -1.410179E-10 -1.410179E-10  1.208724E-10  1.948892E-19 -7.731769E-20  5.607255E-19
         7   4 -1.410179E-10 -1.410179E-10  1.208724E-10  1.349173E-19 -1.034836E-19  3.666801E-19
         7   5 -1.410179E-10 -1.410179E-10  1.208724E-10  1.628013E-18  1.177123E-19 -1.369007E-18
         7   6 -1.410179E-10 -1.410179E-10  1.208724E-10  1.336475E-18  2.569508E-19  2.629995E-19
         7   7 -1.410179E-10 -1.410179E-10  1.208724E-10  7.606514E-19 -2.623876E-19  4.045616E-20
         7   8 -1.410179E-10 -1.410179E-10  1.208724E-10  4.691133E-19 -2.885535E-19  4.615911E-20
         8   1 -1.410179E-10 -1.410179E-10  1.208724E-10 -3.252607E-19  4.835191E-19 -3.979520E-19
         8   2 -1.410179E-10 -1.410179E-10  1.208724E-10 -1.219727E-18 -1.127921E-19 -4.230213E-21
         8   3 -1.410179E-10 -1.410179E-10  1.208724E-10  3.252607E-19  3.893499E-19  5.778299E-19
         8   4 -1.410179E-10 -1.410179E-10  1.208724E-10 -4.336809E-19  4.435601E-19  1.584001E-19
         8   5 -1.410179E-10 -1.410179E-10  1.208724E-10  4.336809E-19  5.654697E-19 -8.714911E-19
         8   6 -1.410179E-10 -1.410179E-10  1.208724E-10  2.168404E-19  7.281000E-19 -1.929433E-19
         8   7 -1.410179E-10 -1.410179E-10  1.208724E-10 -4.336809E-19  2.682356E-19  1.042908E-19
         8   8 -1.410179E-10 -1.410179E-10  1.208724E-10 -5.421011E-19 -4.907059E-19 -4.639938E-19
         9   1 -1.410179E-10 -1.410179E-10  1.208724E-10  8.673617E-19 -8.259179E-19 -9.921495E-19
         9   2 -1.410179E-10 -1.410179E-10  1.208724E-10  1.029992E-18 -3.922370E-19  6.814757E-20
         9   3 -1.410179E-10 -1.410179E-10  1.208724E-10  6.505213E-19 -3.077219E-19 -1.636755E-20
         9   4 -1.410179E-10 -1.410179E-10  1.208724E-10  4.878910E-19  7.764803E-19  2.849880E-19
         9   5 -1.410179E-10 -1.410179E-10  1.208724E-10 -3.950542E-37  8.051920E-19  4.810166E-19
         9   6 -1.410179E-10 -1.410179E-10  1.208724E-10  8.673617E-19 -6.042708E-19 -7.093045E-20
         9   7 -1.410179E-10 -1.410179E-10  1.208724E-10 -8.673617E-19  3.640452E-20  8.062772E-19
         9   8 -1.410179E-10 -1.410179E-10  1.208724E-10 -4.336809E-19  7.953460E-19  3.748975E-20

 displacements (vx,vy,vz) for set NALL and time  0.2557813E+00

         1  0.000000E+00  0.000000E+00  0.000000E+00
         2 -7.308036E-08  0.000000E+00  0.000000E+00
         3 -3.836719E+00  0.000000E+00  0.000000E+00
         4 -3.836719E+00  0.000000E+00  0.000000E+00
         5 -7.673437E+00  0.000000E+00  0.000000E+00
         6 -7.673438E+00  0.000000E+00  0.000000E+00
         7  0.000000E+00 -7.308036E-08  0.000000E+00
         8 -7.308036E-08 -7.308036E-08  0.000000E+00
         9 -3.836719E+00 -7.308035E-08  0.000000E+00
        10 -3.836719E+00 -7.308036E-08  0.000000E+00
        11 -7.673437E+00 -7.308036E-08  0.000000E+00
        12 -7.673438E+00 -7.308036E-08  0.000000E+00
        13  0.000000E+00 -3.836719E+00  0.000000E+00
        14 -7.308036E-08 -3.836719E+00  0.000000E+00
        15 -3.836719E+00 -3.836719E+00  0.000000E+00
        16 -3.836719E+00 -3.836719E+00  0.000000E+00
        17 -7.673437E+00 -3.836719E+00  0.000000E+00
        18 -7.673438E+00 -3.836719E+00  0.000000E+00
        19  0.000000E+00 -3.836719E+00  0.000000E+00
        20 -7.308036E-08 -3.836719E+00  0.000000E+00
        21 -3.836719E+00 -3.836719E+00  0.000000E+00
        22 -3.836719E+00 -3.836719E+00  0.000000E+00
        23 -7.673437E+00 -3.836719E+00  0.000000E+00
        24 -7.673438E+00 -3.836719E+00  0.000000E+00
        25  0.000000E+00 -7.673437E+00  0.000000E+00
        26 -7.308036E-08 -7.673437E+00  0.000000E+00
        27 -3.836719E+00 -7.673437E+00  0.000000E+00
        28 -3.836719E+00 -7.673437E+00  0.000000E+00
        29 -7.673437E+00 -7.673437E+00  0.000000E+00
        30 -7.673438E+00 -7.673437E+00  0.000000E+00
        31  0.000000E+00 -7.673438E+00  0.000000E+00
        32 -7.308036E-08 -7.673438E+00  0.000000E+00
        33 -3.836719E+00 -7.673438E+00  0.000000E+00
        34 -3.836719E+00 -7.673438E+00  0.000000E+00
        35 -7.673437E+00 -7.673438E+00  0.000000E+00
        36 -7.673438E+00 -7.673438E+00  0.000000E+00
        37  0.000000E+00  0.000000E+00  8.769643E-08
        38 -7.308036E-08  0.000000E+00  8.769643E-08
        39 -3.836719E+00  0.000000E+00  8.769643E-08
        40 -3.836719E+00  0.000000E+00  8.769643E-08
        41 -7.673437E+00  0.000000E+00  8.769643E-08
        42 -7.673438E+00  0.000000E+00  8.769643E-08
        43  0.000000E+00 -7.308036E-08  8.769643E-08
        44 -7.308036E-08 -7.308036E-08  8.769643E-08
        45 -3.836719E+00 -7.308036E-08  8.769643E-08
        46 -3.836719E+00 -7.308035E-08  8.769643E-08
        47 -7.673437E+00 -7.308036E-08  8.769643E-08
        48 -7.673438E+00 -7.308036E-08  8.769643E-08
        49  0.000000E+00 -3.836719E+00  8.769643E-08
        50 -7.308036E-08 -3.836719E+00  8.769643E-08
        51 -3.836719E+00 -3.836719E+00  8.769643E-08
        52 -3.836719E+00 -3.836719E+00  8.769643E-08
        53 -7.673437E+00 -3.836719E+00  8.769643E-08
        54 -7.673438E+00 -3.836719E+00  8.769643E-08
        55  0.000000E+00 -3.836719E+00  8.769643E-08
        56 -7.308036E-08 -3.836719E+00  8.769643E-08
        57 -3.836719E+00 -3.836719E+00  8.769643E-08
        58 -3.836719E+00 -3.836719E+00  8.769643E-08
        59 -7.673437E+00 -3.836719E+00  8.769643E-08
        60 -7.673438E+00 -3.836719E+00  8.769643E-08
        61  0.000000E+00 -7.673437E+00  8.769643E-08
        62 -7.308035E-08 -7.673437E+00  8.769643E-08
        63 -3.836719E+00 -7.673437E+00  8.769643E-08
        64 -3.836719E+00 -7.673437E+00  8.769643E-08
        65 -7.673437E+00 -7.673437E+00  8.769643E-08
        66 -7.673438E+00 -7.673437E+00  8.769643E-08
        67  0.000000E+00 -7.673438E+00  8.769643E-08
        68 -7.308035E-08 -7.673438E+00  8.769643E-08
        69 -3.836719E+00 -7.673438E+00  8.769643E-08
        70 -3.836719E+00 -7.673438E+00  8.769643E-08
        71 -7.673437E+00 -7.673438E+00  8.769643E-08
        72 -7.673438E+00 -7.673438E+00  8.769643E-08

 stresses (elem, integ.pnt.,sxx,syy,szz,sxy,sxz,syz) for set EALL and time  0.2557813E+00

         1   1 -4.384821E-05 -4.384821E-05  6.776264E-21  4.567141E-22  5.219589E-22 -5.219589E-22
         1   2 -4.384821E-05 -4.384821E-05  6.776264E-21  4.893365E-21 -1.696366E-21  9.134281E-22
         1   3 -4.384821E-05 -4.384821E-05 -6.776264E-21 -2.609795E-21 -1.043918E-21  5.219589E-22
         1   4 -4.384821E-05 -4.384821E-05  6.776264E-21  1.826856E-21 -4.697630E-21  4.567141E-21
         1   5 -4.384821E-05 -4.384821E-05  6.071545E-46  5.219589E-22  3.523223E-21 -3.131754E-21
         1   6 -4.384821E-05 -4.384821E-05  6.776264E-21  1.304897E-21  1.304897E-21 -2.609795E-22
         1   7 -4.384821E-05 -4.384821E-05 -1.355253E-20  1.304897E-21  1.565877E-21 -3.131754E-21
         1   8 -4.384821E-05 -4.384821E-05 -3.744119E-46  2.087836E-21 -3.131754E-21  3.392733E-21
         2   1 -4.384821E-05 -4.384821E-05  3.790697E-14 -5.579283E-15  7.929423E-15  3.300020E-15
         2   2 -4.384821E-05 -4.384821E-05  6.920160E-14 -5.579283E-15  8.674258E-14 -1.512381E-15
         2   3 -4.384821E-05 -4.384821E-05  7.135633E-14 -2.082217E-14 -4.093696E-14 -8.945223E-15
         2   4 -4.384821E-05 -4.384821E-05  8.133522E-15  1.070376E-15 -1.466591E-14  1.090163E-14
         2   5 -4.384821E-05 -4.384821E-05  4.503077E-14  7.056997E-15  2.959301E-14  2.456108E-14
         2   6 -4.384821E-05 -4.384821E-05  1.281099E-13  5.959910E-14  6.899959E-14 -1.805830E-14
         2   7 -4.384821E-05 -4.384821E-05  2.032676E-13  2.633707E-14 -5.708035E-14  1.231584E-14
         2   8 -4.384821E-05 -4.384821E-05  1.918293E-13  9.639321E-14 -3.080930E-14 -5.644284E-15
         3   1 -4.384821E-05 -4.384821E-05 -1.912973E-13 -1.103674E-13 -6.915255E-14  1.481347E-14
         3   2 -4.384821E-05 -4.384821E-05 -8.715351E-14  4.725890E-14 -9.542360E-14 -1.879134E-14
         3   3 -4.384821E-05 -4.384821E-05  1.461979E-13 -1.248014E-13 -1.878694E-14  1.486235E-14
         3   4 -4.384821E-05 -4.384821E-05 -3.770272E-15 -4.598824E-14  8.629727E-14 -8.907727E-15
         3   5 -4.384821E-05 -4.384821E-05  9.778691E-14  1.398687E-13 -1.414329E-13  5.523577E-14
         3   6 -4.384821E-05 -4.384821E-05  2.225836E-13 -1.053277E-13 -9.764780E-14 -8.001383E-14
         3   7 -4.384821E-05 -4.384821E-05  4.121633E-14  1.392034E-13 -7.011383E-14  5.528464E-14
         3   8 -4.384821E-05 -4.384821E-05 -8.809890E-14 -3.593695E-14  1.400546E-13 -7.013022E-14
         4   1 -4.384821E-05 -4.384821E-05 -1.875261E-13 -2.137914E-15 -5.882209E-17  3.889853E-15
         4   2 -4.384821E-05 -4.384821E-05 -1.229200E-13  3.983506E-15  8.090408E-15 -2.399172E-14
         4   3 -4.384821E-05 -4.384821E-05 -2.115873E-13 -1.527344E-14  6.930696E-16  3.016091E-14
         4   4 -4.384821E-05 -4.384821E-05 -1.280756E-13 -9.152021E-15  3.334229E-15  2.417187E-14
         4   5 -4.384821E-05 -4.384821E-05  1.185689E-13  5.196017E-14 -8.368757E-15 -1.232487E-13
         4   6 -4.384821E-05 -4.384821E-05 -8.610336E-14  5.037029E-14 -2.195265E-16  2.281532E-14
         4   7 -4.384821E-05 -4.384821E-05  8.294068E-14 -7.063808E-14 -5.458960E-17 -1.816451E-14
         4   8 -4.384821E-05 -4.384821E-05 -1.028258E-13 -7.222796E-14  2.586570E-15  2.719382E-14
         5   1 -4.384821E-05 -4.384821E-05  7.686169E-14  3.940658E-14  3.442271E-14 -7.042389E-14
         5   2 -4.384821E-05 -4.384821E-05  7.342870E-14  5.692061E-14  1.219929E-13 -4.070111E-14
         5   3 -4.384821E-05 -4.384821E-05  8.748543E-14  1.751404E-14  6.852401E-14 -3.677509E-16
         5   4 -4.384821E-05 -4.384821E-05  5.074970E-14  5.692061E-14  7.224883E-15 -7.135067E-14
         5   5 -4.384821E-05 -4.384821E-05 -9.390015E-14  8.757018E-14  5.669347E-14 -3.640053E-14
         5   6 -4.384821E-05 -4.384821E-05  6.686093E-14  1.751404E-14  3.480092E-14 -4.626990E-14
         5   7 -4.384821E-05 -4.384821E-05 -2.540383E-13  7.005614E-14  6.433814E-14  3.365561E-14
         5   8 -4.384821E-05 -4.384821E-05 -1.331477E-13 -5.254211E-14  2.931007E-14 -6.378393E-14
         6   1 -4.384821E-05 -4.384821E-05  2.341532E-14  1.444908E-13  1.600930E-15 -4.387517E-15
         6   2 -4.384821E-05 -4.384821E-05  6.718869E-14  3.940658E-14  1.854983E-13  5.138435E-14
         6   3 -4.384821E-05 -4.384821E-05  1.714793E-13  1.401123E-13 -7.398247E-14 -3.065857E-14
         6   4 -4.384821E-05 -4.384821E-05  1.446620E-13 -4.378509E-14 -3.926325E-15  1.635628E-14
         6   5 -4.384821E-05 -4.384821E-05  1.679061E-13  1.751404E-14 -1.166235E-13 -6.250596E-14
         6   6 -4.384821E-05 -4.384821E-05  3.101959E-13  1.225982E-13 -5.532437E-14  6.573534E-14
         6   7 -4.384821E-05 -4.384821E-05 -1.241807E-14 -2.870127E-31 -1.547655E-13  8.636334E-14
         6   8 -4.384821E-05 -4.384821E-05  3.957778E-14  3.502807E-14  7.291693E-14  4.822130E-14
         7   1 -4.384821E-05 -4.384821E-05  2.966518E-13  3.061334E-14  2.516964E-15 -7.018018E-14
         7   2 -4.384821E-05 -4.384821E-05  1.158353E-13  1.855207E-14  1.341528E-14 -7.281641E-14
         7   3 -4.384821E-05 -4.384821E-05  3.973357E-13 -4.414731E-15  2.133476E-15  1.739000E-14
         7   4 -4.384821E-05 -4.384821E-05  1.985135E-13 -1.647600E-14  1.918641E-14  1.475376E-14
         7   5 -4.384821E-05 -4.384821E-05 -4.825651E-14 -1.260887E-15 -1.504880E-15 -7.521193E-14
         7   6 -4.384821E-05 -4.384821E-05  9.931520E-14 -4.705695E-15  9.393435E-15  6.381881E-14
         7   7 -4.384821E-05 -4.384821E-05  6.535217E-14 -1.260887E-15 -9.090692E-15  6.490035E-14
         7   8 -4.384821E-05 -4.384821E-05  1.949181E-13 -4.705695E-15  7.962240E-15  1.251179E-13
         8   1 -4.384821E-05 -4.384821E-05 -2.995207E-13  1.751404E-14 -5.037751E-14  6.032020E-15
         8   2 -4.384821E-05 -4.384821E-05 -2.000570E-13  1.970329E-13 -3.286347E-14 -2.117450E-13
         8   3 -4.384821E-05 -4.384821E-05  1.108769E-13 -1.225982E-13  5.585510E-14  2.354605E-14
         8   4 -4.384821E-05 -4.384821E-05 -5.179566E-14  8.757018E-15  2.082703E-14  1.210216E-13
         8   5 -4.384821E-05 -4.384821E-05 -1.024878E-13 -7.005614E-14 -8.590236E-14 -1.222933E-13
         8   6 -4.384821E-05 -4.384821E-05 -2.000570E-13  7.005614E-14  7.172395E-14 -8.063295E-14
         8   7 -4.384821E-05 -4.384821E-05  8.460581E-14 -7.005614E-14  8.711329E-14  8.787508E-14
         8   8 -4.384821E-05 -4.384821E-05 -1.238908E-14  8.757018E-14  2.581417E-14  4.196529E-14
         9   1 -4.384821E-05 -4.384821E-05 -2.319959E-13  1.401123E-13  8.321437E-14 -1.148611E-14
         9   2 -4.384821E-05 -4.384821E-05  3.321588E-13  1.476788E-31  1.182424E-13  5.547859E-14
         9   3 -4.384821E-05 -4.384821E-05 -5.523759E-15  1.401123E-13  1.309780E-15  2.354196E-14
         9   4 -4.384821E-05 -4.384821E-05  3.449459E-13 -7.881316E-14 -1.037744E-13  4.672157E-14
         9   5 -4.384821E-05 -4.384821E-05 -4.290288E-13 -1.401123E-13 -8.127782E-15  1.780364E-14
         9   6 -4.384821E-05 -4.384821E-05 -2.195333E-13 -1.050842E-13  9.386253E-15  1.271468E-13
         9   7 -4.384821E-05 -4.384821E-05 -5.523759E-15 -2.802246E-13  4.888165E-15  8.785978E-14
         9   8 -4.384821E-05 -4.384821E-05 -1.016620E-13 -7.005614E-14  1.975426E-13  4.833362E-14

 strains (elem, integ.pnt.,exx,eyy,ezz,exy,exz,eyz) forset EALL and time  0.2557813E+00

         1   1 -1.461607E-10 -1.461607E-10  1.252806E-10  2.827277E-27  3.231174E-27 -3.231174E-27
         1   2 -1.461607E-10 -1.461607E-10  1.252806E-10  3.029226E-26 -1.050132E-26  5.654555E-27
         1   3 -1.461607E-10 -1.461607E-10  1.252806E-10 -1.615587E-26 -6.462349E-27  3.231174E-27
         1   4 -1.461607E-10 -1.461607E-10  1.252806E-10  1.130911E-26 -2.908057E-26  2.827277E-26
         1   5 -1.461607E-10 -1.461607E-10  1.252806E-10  3.231174E-27  2.181043E-26 -1.938705E-26
         1   6 -1.461607E-10 -1.461607E-10  1.252806E-10  8.077936E-27  8.077936E-27 -1.615587E-27
         1   7 -1.461607E-10 -1.461607E-10  1.252806E-10  8.077936E-27  9.693523E-27 -1.938705E-26
         1   8 -1.461607E-10 -1.461607E-10  1.252806E-10  1.292470E-26 -1.938705E-26  2.100263E-26
         2   1 -1.461607E-10 -1.461607E-10  1.252806E-10 -3.453842E-20  4.908690E-20  2.042869E-20
         2   2 -1.461607E-10 -1.461607E-10  1.252806E-10 -3.453842E-20  5.369779E-19 -9.362359E-21
         2   3 -1.461607E-10 -1.461607E-10  1.252806E-10 -1.288991E-19 -2.534193E-19 -5.537519E-20
         2   4 -1.461607E-10 -1.461607E-10  1.252806E-10  6.626138E-21 -9.078896E-20  6.748628E-20
         2   5 -1.461607E-10 -1.461607E-10  1.252806E-10  4.368617E-20  1.831948E-19  1.520448E-19
         2   6 -1.461607E-10 -1.461607E-10  1.252806E-10  3.689468E-19  4.271403E-19 -1.117895E-19
         2   7 -1.461607E-10 -1.461607E-10  1.252806E-10  1.630390E-19 -3.533546E-19  7.624091E-20
         2   8 -1.461607E-10 -1.461607E-10  1.252806E-10  5.967199E-19 -1.907242E-19 -3.494081E-20
         3   1 -1.461607E-10 -1.461607E-10  1.252806E-10 -6.832269E-19 -4.280872E-19  9.170246E-20
         3   2 -1.461607E-10 -1.461607E-10  1.252806E-10  2.925551E-19 -5.907175E-19 -1.163273E-19
         3   3 -1.461607E-10 -1.461607E-10  1.252806E-10 -7.725801E-19 -1.163001E-19  9.200500E-20
         3   4 -1.461607E-10 -1.461607E-10  1.252806E-10 -2.846891E-19  5.342212E-19 -5.514307E-20
         3   5 -1.461607E-10 -1.461607E-10  1.252806E-10  8.658541E-19 -8.755369E-19  3.419357E-19
         3   6 -1.461607E-10 -1.461607E-10  1.252806E-10 -6.520289E-19 -6.044864E-19 -4.953237E-19
         3   7 -1.461607E-10 -1.461607E-10  1.252806E-10  8.617353E-19 -4.340380E-19  3.422382E-19
         3   8 -1.461607E-10 -1.461607E-10  1.252806E-10 -2.224669E-19  8.670046E-19 -4.341394E-19
         4   1 -1.461607E-10 -1.461607E-10  1.252806E-10 -1.323470E-20 -3.641368E-22  2.408004E-20
         4   2 -1.461607E-10 -1.461607E-10  1.252806E-10  2.465980E-20  5.008348E-20 -1.485202E-19
         4   3 -1.461607E-10 -1.461607E-10  1.252806E-10 -9.454987E-20  4.290431E-21  1.867104E-19
         4   4 -1.461607E-10 -1.461607E-10  1.252806E-10 -5.665537E-20  2.064046E-20  1.496354E-19
         4   5 -1.461607E-10 -1.461607E-10  1.252806E-10  3.216582E-19 -5.180659E-20 -7.629683E-19
         4   6 -1.461607E-10 -1.461607E-10  1.252806E-10  3.118161E-19 -1.358974E-21  1.412377E-19
         4   7 -1.461607E-10 -1.461607E-10  1.252806E-10 -4.372833E-19 -3.379356E-22 -1.124470E-19
         4   8 -1.461607E-10 -1.461607E-10  1.252806E-10 -4.471254E-19  1.601210E-20  1.683427E-19
         5   1 -1.461607E-10 -1.461607E-10  1.252806E-10  2.439455E-19  2.130930E-19 -4.359574E-19
         5   2 -1.461607E-10 -1.461607E-10  1.252806E-10  3.523657E-19  7.551941E-19 -2.519592E-19
         5   3 -1.461607E-10 -1.461607E-10  1.252806E-10  1.084202E-19  4.241962E-19 -2.276553E-21
         5   4 -1.461607E-10 -1.461607E-10  1.252806E-10  3.523657E-19  4.472547E-20 -4.416946E-19
         5   5 -1.461607E-10 -1.461607E-10  1.252806E-10  5.421011E-19  3.509596E-19 -2.253366E-19
         5   6 -1.461607E-10 -1.461607E-10  1.252806E-10  1.084202E-19  2.154343E-19 -2.864327E-19
         5   7 -1.461607E-10 -1.461607E-10  1.252806E-10  4.336809E-19  3.982837E-19  2.083442E-19
         5   8 -1.461607E-10 -1.461607E-10  1.252806E-10 -3.252607E-19  1.814433E-19 -3.948529E-19
         6   1 -1.461607E-10 -1.461607E-10  1.252806E-10  8.944668E-19  9.910519E-21 -2.716082E-20
         6   2 -1.461607E-10 -1.461607E-10  1.252806E-10  2.439455E-19  1.148323E-18  3.180936E-19
         6   3 -1.461607E-10 -1.461607E-10  1.252806E-10  8.673617E-19 -4.579867E-19 -1.897911E-19
         6   4 -1.461607E-10 -1.461607E-10  1.252806E-10 -2.710505E-19 -2.430582E-20  1.012532E-19
         6   5 -1.461607E-10 -1.461607E-10  1.252806E-10  1.084202E-19 -7.219550E-19 -3.869417E-19
         6   6 -1.461607E-10 -1.461607E-10  1.252806E-10  7.589415E-19 -3.424842E-19  4.069331E-19
         6   7 -1.461607E-10 -1.461607E-10  1.252806E-10 -1.831434E-38 -9.580723E-19  5.346302E-19
         6   8 -1.461607E-10 -1.461607E-10  1.252806E-10  2.168404E-19  4.513905E-19  2.985128E-19
         7   1 -1.461607E-10 -1.461607E-10  1.252806E-10  1.895111E-19  1.558120E-20 -4.344487E-19
         7   2 -1.461607E-10 -1.461607E-10  1.252806E-10  1.148461E-19  8.304696E-20 -4.507683E-19
         7   3 -1.461607E-10 -1.461607E-10  1.252806E-10 -2.732929E-20  1.320723E-20  1.076524E-19
         7   4 -1.461607E-10 -1.461607E-10  1.252806E-10 -1.019943E-19  1.187730E-19  9.133282E-20
         7   5 -1.461607E-10 -1.461607E-10  1.252806E-10 -7.805493E-21 -9.315921E-21 -4.655976E-19
         7   6 -1.461607E-10 -1.461607E-10  1.252806E-10 -2.913049E-20  5.814984E-20  3.950689E-19
         7   7 -1.461607E-10 -1.461607E-10  1.252806E-10 -7.805493E-21 -5.627571E-20  4.017641E-19
         7   8 -1.461607E-10 -1.461607E-10  1.252806E-10 -2.913049E-20  4.929006E-20  7.745396E-19
         8   1 -1.461607E-10 -1.461607E-10  1.252806E-10  1.084202E-19 -3.118607E-19  3.734108E-20
         8   2 -1.461607E-10 -1.461607E-10  1.252806E-10  1.219727E-18 -2.034405E-19 -1.310802E-18
         8   3 -1.461607E-10 -1.461607E-10  1.252806E-10 -7.589415E-19  3.457697E-19  1.457613E-19
         8   4 -1.461607E-10 -1.461607E-10  1.252806E-10  5.421011E-20  1.289293E-19  7.491816E-19
         8   5 -1.461607E-10 -1.461607E-10  1.252806E-10 -4.336809E-19 -5.317765E-19 -7.570540E-19
         8   6 -1.461607E-10 -1.461607E-10  1.252806E-10  4.336809E-19  4.440054E-19 -4.991564E-19
         8   7 -1.461607E-10 -1.461607E-10  1.252806E-10 -4.336809E-19  5.392728E-19  5.439886E-19
         8   8 -1.461607E-10 -1.461607E-10  1.252806E-10  5.421011E-19  1.598020E-19  2.597851E-19
         9   1 -1.461607E-10 -1.461607E-10  1.252806E-10  8.673617E-19  5.151366E-19 -7.110451E-20
         9   2 -1.461607E-10 -1.461607E-10  1.252806E-10 -1.368317E-38  7.319770E-19  3.434389E-19
         9   3 -1.461607E-10 -1.461607E-10  1.252806E-10  8.673617E-19  8.108160E-21  1.457359E-19
         9   4 -1.461607E-10 -1.461607E-10  1.252806E-10 -4.878910E-19 -6.424131E-19  2.892288E-19
         9   5 -1.461607E-10 -1.461607E-10  1.252806E-10 -8.673617E-19 -5.031484E-20  1.102130E-19
         9   6 -1.461607E-10 -1.461607E-10  1.252806E-10 -6.505213E-19  5.810538E-20  7.870991E-19
         9   7 -1.461607E-10 -1.461607E-10  1.252806E-10 -1.734723E-18  3.026007E-20  5.438939E-19
         9   8 -1.461607E-10 -1.461607E-10  1.252806E-10 -4.336809E-19  1.222882E-18  2.992081E-19

 displacements (vx,vy,vz) for set NALL and time  0.2647813E+00

         1  0.000000E+00  0.000000E+00  0.000000E+00
         2 -7.565178E-08  0.000000E+00  0.000000E+00
         3 -3.971719E+00  0.000000E+00  0.000000E+00
         4 -3.971719E+00  0.000000E+00  0.000000E+00
         5 -7.943437E+00  0.000000E+00  0.000000E+00
         6 -7.943438E+00  0.000000E+00  0.000000E+00
         7  0.000000E+00 -7.565178E-08  0.000000E+00
         8 -7.565178E-08 -7.565178E-08  0.000000E+00
         9 -3.971719E+00 -7.565178E-08  0.000000E+00
        10 -3.971719E+00 -7.565178E-08  0.000000E+00
        11 -7.943437E+00 -7.565178E-08  0.000000E+00
        12 -7.943438E+00 -7.565178E-08  0.000000E+00
        13  0.000000E+00 -3.971719E+00  0.000000E+00
        14 -7.565178E-08 -3.971719E+00  0.000000E+00
        15 -3.971719E+00 -3.971719E+00  0.000000E+00
        16 -3.971719E+00 -3.971719E+00  0.000000E+00
        17 -7.943437E+00 -3.971719E+00  0.000000E+00
        18 -7.943438E+00 -3.971719E+00  0.000000E+00
        19  0.000000E+00 -3.971719E+00  0.000000E+00
        20 -7.565178E-08 -3.971719E+00  0.000000E+00
        21 -3.971719E+00 -3.971719E+00  0.000000E+00
        22 -3.971719E+00 -3.971719E+00  0.000000E+00
        23 -7.943437E+00 -3.971719E+00  0.000000E+00
        24 -7.943438E+00 -3.971719E+00  0.000000E+00
        25  0.000000E+00 -7.943437E+00  0.000000E+00
        26 -7.565178E-08 -7.943437E+00  0.000000E+00
        27 -3.971719E+00 -7.943437E+00  0.000000E+00
        28 -3.971719E+00 -7.943437E+00  0.000000E+00
        29 -7.943437E+00 -7.943437E+00  0.000000E+00
        30 -7.943438E+00 -7.943437E+00  0.000000E+00
        31  0.000000E+00 -7.943438E+00  0.000000E+00
        32 -7.565178E-08 -7.943438E+00  0.000000E+00
        33 -3.971719E+00 -7.943438E+00  0.000000E+00
        34 -3.971719E+00 -7.943438E+00  0.000000E+00
        35 -7.943437E+00 -7.943438E+00  0.000000E+00
        36 -7.943438E+00 -7.943438E+00  0.000000E+00
        37  0.000000E+00  0.000000E+00  9.078214E-08
        38 -7.565178E-08  0.000000E+00  9.078214E-08
        39 -3.971719E+00  0.000000E+00  9.078214E-08
        40 -3.971719E+00  0.000000E+00  9.078214E-08
        41 -7.943437E+00  0.000000E+00  9.078214E-08
        42 -7.943438E+00  0.000000E+00  9.078214E-08
        43  0.000000E+00 -7.565178E-08  9.078214E-08
        44 -7.565178E-08 -7.565178E-08  9.078214E-08
        45 -3.971719E+00 -7.565178E-08  9.078214E-08
        46 -3.971719E+00 -7.565178E-08  9.078214E-08
        47 -7.943437E+00 -7.565178E-08  9.078214E-08
        48 -7.943438E+00 -7.565178E-08  9.078214E-08
        49  0.000000E+00 -3.971719E+00  9.078214E-08
        50 -7.565178E-08 -3.971719E+00  9.078214E-08
        51 -3.971719E+00 -3.971719E+00  9.078214E-08
        52 -3.971719E+00 -3.971719E+00  9.078214E-08
        53 -7.943437E+00 -3.971719E+00  9.078214E-08
        54 -7.943438E+00 -3.971719E+00  9.078214E-08
        55  0.000000E+00 -3.971719E+00  9.078214E-08
        56 -7.565178E-08 -3.971719E+00  9.078214E-08
        57 -3.971719E+00 -3.971719E+00  9.078214E-08
        58 -3.971719E+00 -3.971719E+00  9.078214E-08
        59 -7.943437E+00 -3.971719E+00  9.078214E-08
        60 -7.943438E+00 -3.971719E+00  9.078214E-08
        61  0.000000E+00 -7.943437E+00  9.078214E-08
        62 -7.565178E-08 -7.943437E+00  9.078214E-08
        63 -3.971719E+00 -7.943437E+00  9.078214E-08
        64 -3.971719E+00 -7.943437E+00  9.078214E-08
        65 -7.943437E+00 -7.943437E+00  9.078214E-08
        66 -7.943438E+00 -7.943437E+00  9.078214E-08
        67  0.000000E+00 -7.943438E+00  9.078214E-08
        68 -7.565178E-08 -7.943438E+00  9.078214E-08
        69 -3.971719E+00 -7.943438E+00  9.078214E-08
        70 -3.971719E+00 -7.943438E+00  9.078214E-08
        71 -7.943437E+00 -7.943438E+00  9.078214E-08
        72 -7.943438E+00 -7.943438E+00  9.078214E-08

 stresses (elem, integ.pnt.,sxx,syy,szz,sxy,sxz,syz) for set EALL and time  0.2647813E+00

         1   1 -4.539107E-05 -4.539107E-05  6.776264E-21 -5.219589E-22 -7.829384E-22 -4.399994E-31
         1   2 -4.539107E-05 -4.539107E-05 -2.529810E-46 -3.262243E-21 -7.046445E-21 -7.829384E-22
         1   3 -4.539107E-05 -4.539107E-05 -1.416694E-46  1.696366E-21 -2.933329E-31 -3.653712E-21
         1   4 -4.539107E-05 -4.539107E-05  6.776264E-21 -1.043918E-21 -2.087836E-21 -5.480569E-21
         1   5 -4.539107E-05 -4.539107E-05 -2.032879E-20  5.219589E-22  2.087836E-21  3.653712E-21
         1   6 -4.539107E-05 -4.539107E-05 -1.355253E-20  3.131754E-21 -4.175671E-21  2.609795E-21
         1   7 -4.539107E-05 -4.539107E-05 -1.355253E-20  5.219589E-22  3.131754E-21 -1.466665E-30
         1   8 -4.539107E-05 -4.539107E-05 -6.776264E-21  3.131754E-21 -1.173332E-30 -2.087836E-21
         2   1 -4.539107E-05 -4.539107E-05 -4.412628E-14 -5.467453E-14 -2.576212E-14 -7.299290E-16
         2   2 -4.539107E-05 -4.539107E-05 -4.938901E-14  7.230223E-14  8.370060E-14  3.083741E-15
         2   3 -4.539107E-05 -4.539107E-05  5.199941E-14 -6.050041E-14  3.017555E-15 -1.767831E-15
         2   4 -4.539107E-05 -4.539107E-05  6.387087E-14  1.831275E-14 -3.201052E-14  5.611305E-15
         2   5 -4.539107E-05 -4.539107E-05 -5.287364E-14 -1.404176E-13 -2.437167E-14 -1.686229E-15
         2   6 -4.539107E-05 -4.539107E-05 -5.064888E-14  1.720869E-14  4.568447E-14  8.981114E-15
         2   7 -4.539107E-05 -4.539107E-05  2.354876E-14 -1.412519E-13  8.131781E-14 -2.724132E-15
         2   8 -4.539107E-05 -4.539107E-05  4.290770E-14  3.388850E-14 -9.382254E-14  1.150868E-14
         3   1 -4.539107E-05 -4.539107E-05 -5.004327E-14 -1.373817E-13  2.234246E-14  2.387292E-15
         3   2 -4.539107E-05 -4.539107E-05 -5.874363E-15  2.900163E-14  1.099126E-13  3.283337E-16
         3   3 -4.539107E-05 -4.539107E-05  1.447233E-14 -1.299216E-13  4.534739E-15  4.120096E-15
         3   4 -4.539107E-05 -4.539107E-05  5.663530E-14 -7.323365E-15  2.147032E-13 -2.761668E-15
         3   5 -4.539107E-05 -4.539107E-05 -9.894649E-14 -1.398531E-13 -1.700814E-14  7.176692E-15
         3   6 -4.539107E-05 -4.539107E-05 -6.490548E-14  3.528727E-14 -6.955024E-14  4.315363E-15
         3   7 -4.539107E-05 -4.539107E-05  1.811122E-14 -1.391449E-13 -1.231884E-13  8.909496E-15
         3   8 -4.539107E-05 -4.539107E-05  5.014630E-14 -3.406071E-14  5.195195E-14  1.225359E-15
         4   1 -4.539107E-05 -4.539107E-05  9.567177E-14  8.388519E-15 -8.624550E-16 -1.355560E-13
         4   2 -4.539107E-05 -4.539107E-05  8.633034E-15  7.381760E-15  5.325711E-15 -5.007551E-14
         4   3 -4.539107E-05 -4.539107E-05  1.252814E-13 -1.788253E-14  1.059316E-17 -1.005280E-13
         4   4 -4.539107E-05 -4.539107E-05  5.387583E-14 -1.888929E-14  2.330718E-15 -8.072507E-14
         4   5 -4.539107E-05 -4.539107E-05  2.400222E-13  5.019148E-14 -9.406894E-15 -4.429495E-14
         4   6 -4.539107E-05 -4.539107E-05 -1.777839E-14  4.376947E-14 -3.218728E-15  2.116777E-14
         4   7 -4.539107E-05 -4.539107E-05  2.615089E-13 -7.240676E-14 -2.280591E-15  1.700417E-14
         4   8 -4.539107E-05 -4.539107E-05  1.934151E-14 -7.882877E-14  3.953526E-17 -5.326688E-14
         5   1 -4.539107E-05 -4.539107E-05  1.294220E-13  4.816360E-14 -1.348771E-14 -4.681189E-14
         5   2 -4.539107E-05 -4.539107E-05  2.028967E-13  8.757018E-15  3.467588E-14 -7.139846E-14
         5   3 -4.539107E-05 -4.539107E-05 -2.201757E-15  1.751404E-14 -3.807428E-14 -6.432593E-14
         5   4 -4.539107E-05 -4.539107E-05  5.580538E-14 -1.950710E-28 -4.683130E-14 -4.512741E-14
         5   5 -4.539107E-05 -4.539107E-05  6.374439E-14  1.751404E-14 -1.124462E-14 -2.239965E-14
         5   6 -4.539107E-05 -4.539107E-05  2.488710E-13 -1.751404E-14  6.269420E-15  2.563994E-14
         5   7 -4.539107E-05 -4.539107E-05 -2.847281E-14  7.005614E-14 -4.639669E-14 -4.867070E-14
         5   8 -4.539107E-05 -4.539107E-05  2.953432E-14  5.254211E-14 -2.888266E-14  4.753248E-14
         6   1 -4.539107E-05 -4.539107E-05 -1.480847E-13  2.189254E-14  1.660039E-13 -5.140994E-14
         6   2 -4.539107E-05 -4.539107E-05 -8.429725E-14  3.064956E-14 -3.794785E-16 -6.896628E-14
         6   3 -4.539107E-05 -4.539107E-05 -1.389485E-13  5.842346E-33 -9.178805E-15 -5.140994E-14
         6   4 -4.539107E-05 -4.539107E-05 -9.655668E-14  1.050842E-13 -2.669284E-14  3.611793E-14
         6   5 -4.539107E-05 -4.539107E-05 -3.188465E-13 -7.005614E-14 -3.762669E-15  6.958857E-14
         6   6 -4.539107E-05 -4.539107E-05 -1.302716E-13  7.005614E-14 -8.257583E-14 -4.847470E-14
         6   7 -4.539107E-05 -4.539107E-05 -1.914906E-13 -7.005614E-14 -1.043119E-13  3.456050E-14
         6   8 -4.539107E-05 -4.539107E-05 -1.753698E-13 -1.848731E-31  3.580038E-14 -5.723172E-14
         7   1 -4.539107E-05 -4.539107E-05 -1.073411E-14 -1.778404E-13 -4.025419E-17 -2.187482E-14
         7   2 -4.539107E-05 -4.539107E-05  8.706242E-14 -1.852172E-13  8.019055E-15 -1.728412E-14
         7   3 -4.539107E-05 -4.539107E-05  6.803913E-14 -2.700078E-15  7.981911E-16  2.233217E-13
         7   4 -4.539107E-05 -4.539107E-05  1.971907E-13 -1.007683E-14 -1.393840E-15 -3.479816E-14
         7   5 -4.539107E-05 -4.539107E-05 -2.039780E-13 -1.480655E-13 -8.209539E-15 -3.848157E-14
         7   6 -4.539107E-05 -4.539107E-05  9.085144E-14 -1.697941E-13 -1.502305E-16 -1.259184E-14
         7   7 -4.539107E-05 -4.539107E-05 -1.467325E-13 -7.953231E-15  5.170922E-15 -2.096754E-14
         7   8 -4.539107E-05 -4.539107E-05  1.794519E-13 -2.968186E-14  2.978891E-15 -5.637693E-14
         8   1 -4.539107E-05 -4.539107E-05 -8.862956E-14  1.751404E-14 -3.920796E-14 -5.420652E-14
         8   2 -4.539107E-05 -4.539107E-05  1.061252E-13 -9.194868E-14  3.084819E-14  5.228809E-14
         8   3 -4.539107E-05 -4.539107E-05 -2.168141E-13 -1.751404E-14  3.225858E-14  8.590576E-14
         8   4 -4.539107E-05 -4.539107E-05 -1.569169E-13 -1.225982E-13 -1.152651E-14 -7.031015E-14
         8   5 -4.539107E-05 -4.539107E-05 -1.674427E-13  7.005614E-14 -5.938463E-14 -1.685309E-13
         8   6 -4.539107E-05 -4.539107E-05  1.192608E-13 -3.502807E-14 -6.842526E-15  4.690124E-14
         8   7 -4.539107E-05 -4.539107E-05 -2.956273E-13 -7.005614E-14 -1.033587E-14  5.915160E-14
         8   8 -4.539107E-05 -4.539107E-05 -1.569169E-13 -1.576263E-13 -1.033587E-14 -5.640864E-15
         9   1 -4.539107E-05 -4.539107E-05  6.497251E-14  7.005614E-14  1.930918E-14  3.435724E-14
         9   2 -4.539107E-05 -4.539107E-05  1.035046E-13  1.838974E-13  1.769355E-13  5.815103E-14
         9   3 -4.539107E-05 -4.539107E-05  2.194203E-13 -1.401123E-13 -6.821210E-16  1.684321E-14
         9   4 -4.539107E-05 -4.539107E-05  1.753548E-13  7.005614E-14 -6.821210E-16  1.436594E-14
         9   5 -4.539107E-05 -4.539107E-05  1.043791E-13  1.401123E-13 -8.087061E-14 -9.476662E-14
         9   6 -4.539107E-05 -4.539107E-05 -1.460704E-13  3.152526E-13 -1.081447E-14  4.485741E-14
         9   7 -4.539107E-05 -4.539107E-05  3.245045E-13 -1.758233E-31 -7.260185E-14 -7.196443E-15
         9   8 -4.539107E-05 -4.539107E-05  1.622192E-13  1.050842E-13  1.496833E-14 -6.898382E-14

 strains (elem, integ.pnt.,exx,eyy,ezz,exy,exz,eyz) forset EALL and time  0.2647813E+00

         1   1 -1.513036E-10 -1.513036E-10  1.296888E-10 -3.231174E-27 -4.846761E-27  2.723806E-36
         1   2 -1.513036E-10 -1.513036E-10  1.296888E-10 -2.019484E-26 -4.362085E-26 -4.846761E-27
         1   3 -1.513036E-10 -1.513036E-10  1.296888E-10  1.050132E-26  1.815870E-36 -2.261822E-26
         1   4 -1.513036E-10 -1.513036E-10  1.296888E-10 -6.462349E-27 -1.292470E-26 -3.392733E-26
         1   5 -1.513036E-10 -1.513036E-10  1.296888E-10  3.231174E-27  1.292470E-26  2.261822E-26
         1   6 -1.513036E-10 -1.513036E-10  1.296888E-10  1.938705E-26 -2.584939E-26  1.615587E-26
         1   7 -1.513036E-10 -1.513036E-10  1.296888E-10  3.231174E-27  1.938705E-26  9.079352E-36
         1   8 -1.513036E-10 -1.513036E-10  1.296888E-10  1.938705E-26  7.263482E-36 -1.292470E-26
         2   1 -1.513036E-10 -1.513036E-10  1.296888E-10 -3.384614E-19 -1.594798E-19 -4.518608E-21
         2   2 -1.513036E-10 -1.513036E-10  1.296888E-10  4.475852E-19  5.181466E-19  1.908982E-20
         2   3 -1.513036E-10 -1.513036E-10  1.296888E-10 -3.745263E-19  1.868010E-20 -1.094372E-20
         2   4 -1.513036E-10 -1.513036E-10  1.296888E-10  1.133646E-19 -1.981603E-19  3.473665E-20
         2   5 -1.513036E-10 -1.513036E-10  1.296888E-10 -8.692520E-19 -1.508723E-19 -1.043856E-20
         2   6 -1.513036E-10 -1.513036E-10  1.296888E-10  1.065300E-19  2.828086E-19  5.559737E-20
         2   7 -1.513036E-10 -1.513036E-10  1.296888E-10 -8.744162E-19  5.033960E-19 -1.686367E-20
         2   8 -1.513036E-10 -1.513036E-10  1.296888E-10  2.097859E-19 -5.808062E-19  7.124419E-20
         3   1 -1.513036E-10 -1.513036E-10  1.296888E-10 -8.504581E-19  1.383105E-19  1.477847E-20
         3   2 -1.513036E-10 -1.513036E-10  1.296888E-10  1.795339E-19  6.804116E-19  2.032542E-21
         3   3 -1.513036E-10 -1.513036E-10  1.296888E-10 -8.042766E-19  2.807219E-20  2.550535E-20
         3   4 -1.513036E-10 -1.513036E-10  1.296888E-10 -4.533512E-20  1.329115E-18 -1.709604E-20
         3   5 -1.513036E-10 -1.513036E-10  1.296888E-10 -8.657571E-19 -1.052885E-19  4.442714E-20
         3   6 -1.513036E-10 -1.513036E-10  1.296888E-10  2.184450E-19 -4.305491E-19  2.671415E-20
         3   7 -1.513036E-10 -1.513036E-10  1.296888E-10 -8.613733E-19 -7.625949E-19  5.515403E-20
         3   8 -1.513036E-10 -1.513036E-10  1.296888E-10 -2.108520E-19  3.216073E-19  7.585555E-21
         4   1 -1.513036E-10 -1.513036E-10  1.296888E-10  5.192893E-20 -5.339007E-21 -8.391564E-19
         4   2 -1.513036E-10 -1.513036E-10  1.296888E-10  4.569661E-20  3.296869E-20 -3.099913E-19
         4   3 -1.513036E-10 -1.513036E-10  1.296888E-10 -1.107014E-19  6.557668E-23 -6.223159E-19
         4   4 -1.513036E-10 -1.513036E-10  1.296888E-10 -1.169337E-19  1.442826E-20 -4.997266E-19
         4   5 -1.513036E-10 -1.513036E-10  1.296888E-10  3.107092E-19 -5.823315E-20 -2.742068E-19
         4   6 -1.513036E-10 -1.513036E-10  1.296888E-10  2.709539E-19 -1.992546E-20  1.310385E-19
         4   7 -1.513036E-10 -1.513036E-10  1.296888E-10 -4.482323E-19 -1.411794E-20  1.052639E-19
         4   8 -1.513036E-10 -1.513036E-10  1.296888E-10 -4.879877E-19  2.447421E-22 -3.297474E-19
         5   1 -1.513036E-10 -1.513036E-10  1.296888E-10  2.981556E-19 -8.349537E-20 -2.897879E-19
         5   2 -1.513036E-10 -1.513036E-10  1.296888E-10  5.421011E-20  2.146602E-19 -4.419905E-19
         5   3 -1.513036E-10 -1.513036E-10  1.296888E-10  1.084202E-19 -2.356979E-19 -3.982081E-19
         5   4 -1.513036E-10 -1.513036E-10  1.296888E-10  1.207891E-33 -2.899081E-19 -2.793602E-19
         5   5 -1.513036E-10 -1.513036E-10  1.296888E-10  1.084202E-19 -6.960952E-20 -1.386645E-19
         5   6 -1.513036E-10 -1.513036E-10  1.296888E-10 -1.084202E-19  3.881069E-20  1.587234E-19
         5   7 -1.513036E-10 -1.513036E-10  1.296888E-10  4.336809E-19 -2.872176E-19 -3.012948E-19
         5   8 -1.513036E-10 -1.513036E-10  1.296888E-10  3.252607E-19 -1.787974E-19  2.942487E-19
         6   1 -1.513036E-10 -1.513036E-10  1.296888E-10  1.355253E-19  1.027643E-18 -3.182520E-19
         6   2 -1.513036E-10 -1.513036E-10  1.296888E-10  1.897354E-19 -2.349153E-21 -4.269341E-19
         6   3 -1.513036E-10 -1.513036E-10  1.296888E-10 -1.311761E-38 -5.682117E-20 -3.182520E-19
         6   4 -1.513036E-10 -1.513036E-10  1.296888E-10  6.505213E-19 -1.652414E-19  2.235872E-19
         6   5 -1.513036E-10 -1.513036E-10  1.296888E-10 -4.336809E-19 -2.329271E-20  4.307864E-19
         6   6 -1.513036E-10 -1.513036E-10  1.296888E-10  4.336809E-19 -5.111837E-19 -3.000815E-19
         6   7 -1.513036E-10 -1.513036E-10  1.296888E-10 -4.336809E-19 -6.457404E-19  2.139459E-19
         6   8 -1.513036E-10 -1.513036E-10  1.296888E-10  6.475979E-37  2.216214E-19 -3.542916E-19
         7   1 -1.513036E-10 -1.513036E-10  1.296888E-10 -1.100917E-18 -2.491926E-22 -1.354155E-19
         7   2 -1.513036E-10 -1.513036E-10  1.296888E-10 -1.146583E-18  4.964177E-20 -1.069969E-19
         7   3 -1.513036E-10 -1.513036E-10  1.296888E-10 -1.671477E-20  4.941183E-21  1.382467E-18
         7   4 -1.513036E-10 -1.513036E-10  1.296888E-10 -6.238037E-20 -8.628531E-21 -2.154172E-19
         7   5 -1.513036E-10 -1.513036E-10  1.296888E-10 -9.165960E-19 -5.082095E-20 -2.382193E-19
         7   6 -1.513036E-10 -1.513036E-10  1.296888E-10 -1.051107E-18 -9.299982E-22 -7.794949E-20
         7   7 -1.513036E-10 -1.513036E-10  1.296888E-10 -4.923428E-20  3.201047E-20 -1.297990E-19
         7   8 -1.513036E-10 -1.513036E-10  1.296888E-10 -1.837448E-19  1.844075E-20 -3.490000E-19
         8   1 -1.513036E-10 -1.513036E-10  1.296888E-10  1.084202E-19 -2.427159E-19 -3.355641E-19
         8   2 -1.513036E-10 -1.513036E-10  1.296888E-10 -5.692061E-19  1.909650E-19  3.236882E-19
         8   3 -1.513036E-10 -1.513036E-10  1.296888E-10 -1.084202E-19  1.996960E-19  5.317976E-19
         8   4 -1.513036E-10 -1.513036E-10  1.296888E-10 -7.589415E-19 -7.135456E-20 -4.352533E-19
         8   5 -1.513036E-10 -1.513036E-10  1.296888E-10  4.336809E-19 -3.676191E-19 -1.043286E-18
         8   6 -1.513036E-10 -1.513036E-10  1.296888E-10 -2.168404E-19 -4.235849E-20  2.903410E-19
         8   7 -1.513036E-10 -1.513036E-10  1.296888E-10 -4.336809E-19 -6.398395E-20  3.661766E-19
         8   8 -1.513036E-10 -1.513036E-10  1.296888E-10 -9.757820E-19 -6.398395E-20 -3.491963E-20
         9   1 -1.513036E-10 -1.513036E-10  1.296888E-10  4.336809E-19  1.195330E-19  2.126877E-19
         9   2 -1.513036E-10 -1.513036E-10  1.296888E-10  1.138412E-18  1.095315E-18  3.599826E-19
         9   3 -1.513036E-10 -1.513036E-10  1.296888E-10 -8.673617E-19 -4.222654E-21  1.042675E-19
         9   4 -1.513036E-10 -1.513036E-10  1.296888E-10  4.336809E-19 -4.222654E-21  8.893202E-20
         9   5 -1.513036E-10 -1.513036E-10  1.296888E-10  8.673617E-19 -5.006276E-19 -5.866505E-19
         9   6 -1.513036E-10 -1.513036E-10  1.296888E-10  1.951564E-18 -6.694672E-20  2.776887E-19
         9   7 -1.513036E-10 -1.513036E-10  1.296888E-10  1.492368E-36 -4.494400E-19 -4.454941E-20
         9   8 -1.513036E-10 -1.513036E-10  1.296888E-10  6.505213E-19  9.266108E-20 -4.270427E-19

 displacements (vx,vy,vz) for set NALL and time  0.2737813E+00

         1  0.000000E+00  0.000000E+00  0.000000E+00
         2 -7.822321E-08  0.000000E+00  0.000000E+00
         3 -4.106719E+00  0.000000E+00  0.000000E+00
         4 -4.106719E+00  0.000000E+00  0.000000E+00
         5 -8.213437E+00  0.000000E+00  0.000000E+00
         6 -8.213438E+00  0.000000E+00  0.000000E+00
         7  0.000000E+00 -7.822321E-08  0.000000E+00
         8 -7.822321E-08 -7.822321E-08  0.000000E+00
         9 -4.106719E+00 -7.822321E-08  0.000000E+00
        10 -4.106719E+00 -7.822321E-08  0.000000E+00
        11 -8.213437E+00 -7.822321E-08  0.000000E+00
        12 -8.213438E+00 -7.822321E-08  0.000000E+00
        13  0.000000E+00 -4.106719E+00  0.000000E+00
        14 -7.822321E-08 -4.106719E+00  0.000000E+00
        15 -4.106719E+00 -4.106719E+00  0.000000E+00
        16 -4.106719E+00 -4.106719E+00  0.000000E+00
        17 -8.213437E+00 -4.106719E+00  0.000000E+00
        18 -8.213438E+00 -4.106719E+00  0.000000E+00
        19  0.000000E+00 -4.106719E+00  0.000000E+00
        20 -7.822321E-08 -4.106719E+00  0.000000E+00
        21 -4.106719E+00 -4.106719E+00  0.000000E+00
        22 -4.106719E+00 -4.106719E+00  0.000000E+00
        23 -8.213437E+00 -4.106719E+00  0.000000E+00
        24 -8.213438E+00 -4.106719E+00  0.000000E+00
        25  0.000000E+00 -8.213437E+00  0.000000E+00
        26 -7.822321E-08 -8.213437E+00  0.000000E+00
        27 -4.106719E+00 -8.213437E+00  0.000000E+00
        28 -4.106719E+00 -8.213437E+00  0.000000E+00
        29 -8.213437E+00 -8.213437E+00  0.000000E+00
        30 -8.213438E+00 -8.213437E+00  0.000000E+00
        31  0.000000E+00 -8.213438E+00  0.000000E+00
        32 -7.822321E-08 -8.213438E+00  0.000000E+00
        33 -4.106719E+00 -8.213438E+00  0.000000E+00
        34 -4.106719E+00 -8.213438E+00  0.000000E+00
        35 -8.213437E+00 -8.213438E+00  0.000000E+00
        36 -8.213438E+00 -8.213438E+00  0.000000E+00
        37  0.000000E+00  0.000000E+00  9.386785E-08
        38 -7.822321E-08  0.000000E+00  9.386785E-08
        39 -4.106719E+00  0.000000E+00  9.386785E-08
        40 -4.106719E+00  0.000000E+00  9.386785E-08
        41 -8.213437E+00  0.000000E+00  9.386785E-08
        42 -8.213438E+00  0.000000E+00  9.386785E-08
        43  0.000000E+00 -7.822321E-08  9.386785E-08
        44 -7.822321E-08 -7.822321E-08  9.386785E-08
        45 -4.106719E+00 -7.822321E-08  9.386785E-08
        46 -4.106719E+00 -7.822321E-08  9.386785E-08
        47 -8.213437E+00 -7.822321E-08  9.386785E-08
        48 -8.213438E+00 -7.822321E-08  9.386785E-08
        49  0.000000E+00 -4.106719E+00  9.386785E-08
        50 -7.822321E-08 -4.106719E+00  9.386785E-08
        51 -4.106719E+00 -4.106719E+00  9.386785E-08
        52 -4.106719E+00 -4.106719E+00  9.386785E-08
        53 -8.213437E+00 -4.106719E+00  9.386785E-08
        54 -8.213438E+00 -4.106719E+00  9.386785E-08
        55  0.000000E+00 -4.106719E+00  9.386785E-08
        56 -7.822321E-08 -4.106719E+00  9.386785E-08
        57 -4.106719E+00 -4.106719E+00  9.386785E-08
        58 -4.106719E+00 -4.106719E+00  9.386785E-08
        59 -8.213437E+00 -4.106719E+00  9.386785E-08
        60 -8.213438E+00 -4.106719E+00  9.386785E-08
        61  0.000000E+00 -8.213437E+00  9.386785E-08
        62 -7.822321E-08 -8.213437E+00  9.386785E-08
        63 -4.106719E+00 -8.213437E+00  9.386785E-08
        64 -4.106719E+00 -8.213437E+00  9.386785E-08
        65 -8.213437E+00 -8.213437E+00  9.386785E-08
        66 -8.213438E+00 -8.213437E+00  9.386785E-08
        67  0.000000E+00 -8.213438E+00  9.386785E-08
        68 -7.822321E-08 -8.213438E+00  9.386785E-08
        69 -4.106719E+00 -8.213438E+00  9.386785E-08
        70 -4.106719E+00 -8.213438E+00  9.386785E-08
        71 -8.213437E+00 -8.213438E+00  9.386785E-08
        72 -8.213438E+00 -8.213438E+00  9.386785E-08

 stresses (elem, integ.pnt.,sxx,syy,szz,sxy,sxz,syz) for set EALL and time  0.2737813E+00

         1   1 -4.693393E-05 -4.693393E-05  2.867118E-47  9.134281E-22  5.219589E-22 -1.043918E-21
         1   2 -4.693393E-05 -4.693393E-05  6.776264E-21  6.133017E-21 -1.435387E-21 -1.109163E-21
         1   3 -4.693393E-05 -4.693393E-05  6.776264E-21 -1.826856E-21  5.219589E-22 -1.565877E-21
         1   4 -4.693393E-05 -4.693393E-05 -8.432701E-48  3.392733E-21 -3.033034E-31  2.609795E-22
         1   5 -4.693393E-05 -4.693393E-05 -1.355253E-20  2.087836E-21  3.523223E-21 -5.219589E-22
         1   6 -4.693393E-05 -4.693393E-05  6.776264E-21  7.568404E-21  1.565877E-21 -4.501896E-21
         1   7 -4.693393E-05 -4.693393E-05  8.095393E-47  1.826856E-21  1.565877E-21 -1.043918E-21
         1   8 -4.693393E-05 -4.693393E-05  4.182620E-46  7.307425E-21  1.043918E-21 -3.131754E-21
         2   1 -4.693393E-05 -4.693393E-05 -9.039536E-15 -3.924277E-15  4.885101E-15  2.269221E-15
         2   2 -4.693393E-05 -4.693393E-05  8.244328E-15 -3.924277E-15 -2.138595E-14 -6.368517E-16
         2   3 -4.693393E-05 -4.693393E-05  3.654574E-14 -1.464560E-14 -7.204619E-14 -1.883952E-15
         2   4 -4.693393E-05 -4.693393E-05  6.871429E-15  7.246942E-15 -8.956023E-14  6.053708E-15
         2   5 -4.693393E-05 -4.693393E-05  2.821314E-14 -6.842370E-14  1.823145E-14  1.262202E-14
         2   6 -4.693393E-05 -4.693393E-05  6.826885E-14  1.632437E-15  1.385294E-14 -9.067328E-15
         2   7 -4.693393E-05 -4.693393E-05 -2.471803E-14 -6.396380E-14  2.760109E-14  8.468848E-15
         2   8 -4.693393E-05 -4.693393E-05 -3.162051E-14  2.360637E-14 -2.494102E-14 -2.376766E-15
         3   1 -4.693393E-05 -4.693393E-05  1.050854E-13  9.807455E-14  1.426992E-13 -3.921150E-15
         3   2 -4.693393E-05 -4.693393E-05  9.402846E-14 -1.576668E-14 -6.170073E-15  4.216697E-15
         3   3 -4.693393E-05 -4.693393E-05  4.988897E-14  7.892379E-14 -1.870300E-15 -2.408060E-14
         3   4 -4.693393E-05 -4.693393E-05  8.388425E-15 -4.367446E-14  6.818584E-14  1.846767E-14
         3   5 -4.693393E-05 -4.693393E-05 -6.860467E-14 -4.097134E-13  1.847950E-13  5.525522E-15
         3   6 -4.693393E-05 -4.693393E-05 -7.399754E-15  1.062346E-14 -6.915855E-14  1.485952E-15
         3   7 -4.693393E-05 -4.693393E-05  6.009621E-14 -3.806895E-13  1.331322E-13 -1.463393E-14
         3   8 -4.693393E-05 -4.693393E-05  9.085758E-14 -3.040883E-14  2.804801E-14  1.573692E-14
         4   1 -4.693393E-05 -4.693393E-05  2.358559E-14  2.566028E-16  1.548140E-15 -1.330243E-15
         4   2 -4.693393E-05 -4.693393E-05 -1.205988E-14  9.576550E-16  4.273292E-15 -3.375243E-14
         4   3 -4.693393E-05 -4.693393E-05  1.555142E-14  2.566028E-16  1.628692E-16 -7.138638E-14
         4   4 -4.693393E-05 -4.693393E-05 -3.220127E-14  9.576550E-16  3.946289E-15 -3.813094E-14
         4   5 -4.693393E-05 -4.693393E-05  8.185051E-14  7.988970E-16  3.052587E-15  3.006354E-14
         4   6 -4.693393E-05 -4.693393E-05  3.306954E-14  2.981526E-15  5.777738E-15  1.555466E-15
         4   7 -4.693393E-05 -4.693393E-05  7.603872E-14  7.988970E-16 -3.175588E-15  3.006354E-14
         4   8 -4.693393E-05 -4.693393E-05  1.515049E-14  2.981526E-15  6.078326E-16 -2.909410E-14
         5   1 -4.693393E-05 -4.693393E-05  1.556115E-13 -3.502807E-14  4.270762E-14 -1.380016E-14
         5   2 -4.693393E-05 -4.693393E-05  1.817927E-13 -4.864729E-31  2.957209E-14  6.513966E-14
         5   3 -4.693393E-05 -4.693393E-05  1.350034E-13 -1.711392E-30  1.128904E-13  3.713876E-15
         5   4 -4.693393E-05 -4.693393E-05  8.980439E-14 -1.313553E-14 -9.707821E-15 -3.118753E-14
         5   5 -4.693393E-05 -4.693393E-05  5.709505E-14  7.005614E-14 -6.367609E-15  6.640248E-14
         5   6 -4.693393E-05 -4.693393E-05  1.620894E-13  3.502807E-14  8.120257E-14  4.060415E-14
         5   7 -4.693393E-05 -4.693393E-05 -1.802492E-13  7.005614E-14  6.416126E-14  1.386037E-14
         5   8 -4.693393E-05 -4.693393E-05 -1.532028E-13 -1.751404E-14  1.167034E-13 -3.180939E-15
         6   1 -4.693393E-05 -4.693393E-05  2.830262E-13  9.194868E-14  7.170264E-14 -7.485500E-15
         6   2 -4.693393E-05 -4.693393E-05  7.753580E-14  2.145469E-13  1.646500E-15  4.852427E-14
         6   3 -4.693393E-05 -4.693393E-05  2.727092E-13 -5.254211E-14  6.203478E-14 -2.499954E-14
         6   4 -4.693393E-05 -4.693393E-05  1.259736E-13  2.627105E-14  1.320909E-13  3.538874E-14
         6   5 -4.693393E-05 -4.693393E-05  1.253999E-13 -5.254211E-14  7.620096E-14  1.074831E-13
         6   6 -4.693393E-05 -4.693393E-05  1.366457E-13  5.254211E-14 -9.893939E-14 -3.032457E-15
         6   7 -4.693393E-05 -4.693393E-05  8.881184E-14 -7.005614E-14  1.101762E-13  2.398934E-15
         6   8 -4.693393E-05 -4.693393E-05  8.656702E-14  1.050842E-13 -6.496420E-14  7.140219E-14
         7   1 -4.693393E-05 -4.693393E-05 -2.399480E-13 -7.120812E-16  1.017158E-15 -2.517727E-13
         7   2 -4.693393E-05 -4.693393E-05 -2.937793E-13 -2.657524E-15  2.007436E-14 -6.230113E-14
         7   3 -4.693393E-05 -4.693393E-05 -4.853668E-14 -7.120812E-16  6.085885E-15  9.850796E-14
         7   4 -4.693393E-05 -4.693393E-05 -6.429511E-14 -2.657524E-15  2.376200E-14 -1.002007E-15
         7   5 -4.693393E-05 -4.693393E-05 -1.999279E-13 -1.419803E-15 -1.526112E-14 -1.740409E-13
         7   6 -4.693393E-05 -4.693393E-05  2.208693E-14 -5.298776E-15  3.796082E-15 -1.532376E-13
         7   7 -4.693393E-05 -4.693393E-05 -1.141683E-14 -1.419803E-15  5.036720E-15  1.061836E-13
         7   8 -4.693393E-05 -4.693393E-05  2.486708E-13 -5.298776E-15  2.271283E-14 -1.182095E-13
         8   1 -4.693393E-05 -4.693393E-05 -1.039524E-13  3.502807E-14 -1.739745E-14 -3.995448E-13
         8   2 -4.693393E-05 -4.693393E-05 -2.213758E-13  1.007057E-13 -4.366850E-14 -7.705001E-14
         8   3 -4.693393E-05 -4.693393E-05  9.060220E-14 -3.502807E-14 -1.064825E-13 -1.193202E-13
         8   4 -4.693393E-05 -4.693393E-05  2.850945E-14 -1.751404E-14 -1.891235E-14 -1.908912E-13
         8   5 -4.693393E-05 -4.693393E-05 -1.302235E-13 -7.005614E-14  1.405474E-13 -3.427398E-13
         8   6 -4.693393E-05 -4.693393E-05 -7.688507E-14  1.225982E-13 -8.321914E-15 -2.345522E-13
         8   7 -4.693393E-05 -4.693393E-05  1.168733E-13 -7.005614E-14  2.980950E-14  7.759709E-14
         8   8 -4.693393E-05 -4.693393E-05  2.124068E-13  7.005614E-14 -2.273260E-14  3.691534E-14
         9   1 -4.693393E-05 -4.693393E-05  1.838006E-14 -2.802246E-13  3.502514E-14 -2.322664E-13
         9   2 -4.693393E-05 -4.693393E-05  1.759863E-13 -1.576263E-13  6.129619E-14 -7.029323E-14
         9   3 -4.693393E-05 -4.693393E-05  2.788130E-14 -3.502807E-14  7.440002E-14  1.293013E-14
         9   4 -4.693393E-05 -4.693393E-05  4.778874E-13  7.881316E-14  3.937195E-14  5.230501E-14
         9   5 -4.693393E-05 -4.693393E-05 -7.890993E-15 -2.802246E-13  1.050733E-13 -2.669967E-13
         9   6 -4.693393E-05 -4.693393E-05  9.717319E-14  1.401123E-13  8.746072E-15  6.447842E-14
         9   7 -4.693393E-05 -4.693393E-05  1.855076E-13 -4.203368E-13  8.626773E-14  4.825589E-14
         9   8 -4.693393E-05 -4.693393E-05  2.677190E-13 -7.005614E-14 -8.887262E-14 -4.060579E-14

 strains (elem, integ.pnt.,exx,eyy,ezz,exy,exz,eyz) forset EALL and time  0.2737813E+00

         1   1 -1.564464E-10 -1.564464E-10  1.340969E-10  5.654555E-27  3.231174E-27 -6.462349E-27
         1   2 -1.564464E-10 -1.564464E-10  1.340969E-10  3.796630E-26 -8.885729E-27 -6.866245E-27
         1   3 -1.564464E-10 -1.564464E-10  1.340969E-10 -1.130911E-26  3.231174E-27 -9.693523E-27
         1   4 -1.564464E-10 -1.564464E-10  1.340969E-10  2.100263E-26  1.877592E-36  1.615587E-27
         1   5 -1.564464E-10 -1.564464E-10  1.340969E-10  1.292470E-26  2.181043E-26 -3.231174E-27
         1   6 -1.564464E-10 -1.564464E-10  1.340969E-10  4.685203E-26  9.693523E-27 -2.786888E-26
         1   7 -1.564464E-10 -1.564464E-10  1.340969E-10  1.130911E-26  9.693523E-27 -6.462349E-27
         1   8 -1.564464E-10 -1.564464E-10  1.340969E-10  4.523644E-26  6.462349E-27 -1.938705E-26
         2   1 -1.564464E-10 -1.564464E-10  1.340969E-10 -2.429315E-20  3.024110E-20  1.404756E-20
         2   2 -1.564464E-10 -1.564464E-10  1.340969E-10 -2.429315E-20 -1.323892E-19 -3.942416E-21
         2   3 -1.564464E-10 -1.564464E-10  1.340969E-10 -9.066325E-20 -4.460002E-19 -1.166256E-20
         2   4 -1.564464E-10 -1.564464E-10  1.340969E-10  4.486202E-20 -5.544205E-19  3.747534E-20
         2   5 -1.564464E-10 -1.564464E-10  1.340969E-10 -4.235753E-19  1.128613E-19  7.813631E-20
         2   6 -1.564464E-10 -1.564464E-10  1.340969E-10  1.010557E-20  8.575628E-20 -5.613108E-20
         2   7 -1.564464E-10 -1.564464E-10  1.340969E-10 -3.959664E-19  1.708639E-19  5.242620E-20
         2   8 -1.564464E-10 -1.564464E-10  1.340969E-10  1.461347E-19 -1.543968E-19 -1.471331E-20
         3   1 -1.564464E-10 -1.564464E-10  1.340969E-10  6.071281E-19  8.833762E-19 -2.427379E-20
         3   2 -1.564464E-10 -1.564464E-10  1.340969E-10 -9.760327E-20 -3.819569E-20  2.610336E-20
         3   3 -1.564464E-10 -1.564464E-10  1.340969E-10  4.885758E-19 -1.157805E-20 -1.490704E-19
         3   4 -1.564464E-10 -1.564464E-10  1.340969E-10 -2.703657E-19  4.221028E-19  1.143237E-19
         3   5 -1.564464E-10 -1.564464E-10  1.340969E-10 -2.536321E-18  1.143969E-18  3.420561E-20
         3   6 -1.564464E-10 -1.564464E-10  1.340969E-10  6.576430E-20 -4.281244E-19  9.198750E-21
         3   7 -1.564464E-10 -1.564464E-10  1.340969E-10 -2.356649E-18  8.241519E-19 -9.059100E-20
         3   8 -1.564464E-10 -1.564464E-10  1.340969E-10 -1.882451E-19  1.736306E-19  9.741906E-20
         4   1 -1.564464E-10 -1.564464E-10  1.340969E-10  1.588494E-21  9.583725E-21 -8.234838E-21
         4   2 -1.564464E-10 -1.564464E-10  1.340969E-10  5.928340E-21  2.645371E-20 -2.089436E-19
         4   3 -1.564464E-10 -1.564464E-10  1.340969E-10  1.588494E-21  1.008238E-21 -4.419157E-19
         4   4 -1.564464E-10 -1.564464E-10  1.340969E-10  5.928340E-21  2.442941E-20 -2.360487E-19
         4   5 -1.564464E-10 -1.564464E-10  1.340969E-10  4.945553E-21  1.889696E-20  1.861076E-19
         4   6 -1.564464E-10 -1.564464E-10  1.340969E-10  1.845707E-20  3.576695E-20  9.629077E-21
         4   7 -1.564464E-10 -1.564464E-10  1.340969E-10  4.945553E-21 -1.965840E-20  1.861076E-19
         4   8 -1.564464E-10 -1.564464E-10  1.340969E-10  1.845707E-20  3.762774E-21 -1.801063E-19
         5   1 -1.564464E-10 -1.564464E-10  1.340969E-10 -2.168404E-19  2.643805E-19 -8.542956E-20
         5   2 -1.564464E-10 -1.564464E-10  1.340969E-10  3.264257E-36  1.830653E-19  4.032455E-19
         5   3 -1.564464E-10 -1.564464E-10  1.340969E-10  1.062869E-35  6.988455E-19  2.299066E-20
         5   4 -1.564464E-10 -1.564464E-10  1.340969E-10 -8.131516E-20 -6.009604E-20 -1.930657E-19
         5   5 -1.564464E-10 -1.564464E-10  1.340969E-10  4.336809E-19 -3.941853E-20  4.110629E-19
         5   6 -1.564464E-10 -1.564464E-10  1.340969E-10  2.168404E-19  5.026826E-19  2.513590E-19
         5   7 -1.564464E-10 -1.564464E-10  1.340969E-10  4.336809E-19  3.971887E-19  8.580229E-20
         5   8 -1.564464E-10 -1.564464E-10  1.340969E-10 -1.084202E-19  7.224494E-19 -1.969153E-20
         6   1 -1.564464E-10 -1.564464E-10  1.340969E-10  5.692061E-19  4.438735E-19 -4.633881E-20
         6   2 -1.564464E-10 -1.564464E-10  1.340969E-10  1.328148E-18  1.019262E-20  3.003883E-19
         6   3 -1.564464E-10 -1.564464E-10  1.340969E-10 -3.252607E-19  3.840248E-19 -1.547590E-19
         6   4 -1.564464E-10 -1.564464E-10  1.340969E-10  1.626303E-19  8.177057E-19  2.190732E-19
         6   5 -1.564464E-10 -1.564464E-10  1.340969E-10 -3.252607E-19  4.717202E-19  6.653718E-19
         6   6 -1.564464E-10 -1.564464E-10  1.340969E-10  3.252607E-19 -6.124819E-19 -1.877235E-20
         6   7 -1.564464E-10 -1.564464E-10  1.340969E-10 -4.336809E-19  6.820429E-19  1.485054E-20
         6   8 -1.564464E-10 -1.564464E-10  1.340969E-10  6.505213E-19 -4.021593E-19  4.420136E-19
         7   1 -1.564464E-10 -1.564464E-10  1.340969E-10 -4.408121E-21  6.296690E-21 -1.558593E-18
         7   2 -1.564464E-10 -1.564464E-10  1.340969E-10 -1.645134E-20  1.242699E-19 -3.856737E-19
         7   3 -1.564464E-10 -1.564464E-10  1.340969E-10 -4.408121E-21  3.767453E-20  6.098112E-19
         7   4 -1.564464E-10 -1.564464E-10  1.340969E-10 -1.645134E-20  1.470981E-19 -6.202901E-21
         7   5 -1.564464E-10 -1.564464E-10  1.340969E-10 -8.789256E-21 -9.447362E-20 -1.077396E-18
         7   6 -1.564464E-10 -1.564464E-10  1.340969E-10 -3.280194E-20  2.349955E-20 -9.486135E-19
         7   7 -1.564464E-10 -1.564464E-10  1.340969E-10 -8.789256E-21  3.117969E-20  6.573273E-19
         7   8 -1.564464E-10 -1.564464E-10  1.340969E-10 -3.280194E-20  1.406032E-19 -7.317731E-19
         8   1 -1.564464E-10 -1.564464E-10  1.340969E-10  2.168404E-19 -1.076985E-19 -2.473372E-18
         8   2 -1.564464E-10 -1.564464E-10  1.340969E-10  6.234162E-19 -2.703288E-19 -4.769763E-19
         8   3 -1.564464E-10 -1.564464E-10  1.340969E-10 -2.168404E-19 -6.591775E-19 -7.386489E-19
         8   4 -1.564464E-10 -1.564464E-10  1.340969E-10 -1.084202E-19 -1.170764E-19 -1.181708E-18
         8   5 -1.564464E-10 -1.564464E-10  1.340969E-10 -4.336809E-19  8.700552E-19 -2.121722E-18
         8   6 -1.564464E-10 -1.564464E-10  1.340969E-10  7.589415E-19 -5.151661E-20 -1.451990E-18
         8   7 -1.564464E-10 -1.564464E-10  1.340969E-10 -4.336809E-19  1.845350E-19  4.803629E-19
         8   8 -1.564464E-10 -1.564464E-10  1.340969E-10  4.336809E-19 -1.407256E-19  2.285235E-19
         9   1 -1.564464E-10 -1.564464E-10  1.340969E-10 -1.734723E-18  2.168223E-19 -1.437839E-18
         9   2 -1.564464E-10 -1.564464E-10  1.340969E-10 -9.757820E-19  3.794526E-19 -4.351486E-19
         9   3 -1.564464E-10 -1.564464E-10  1.340969E-10 -2.168404E-19  4.605716E-19  8.004363E-20
         9   4 -1.564464E-10 -1.564464E-10  1.340969E-10  4.878910E-19  2.437311E-19  3.237929E-19
         9   5 -1.564464E-10 -1.564464E-10  1.340969E-10 -1.734723E-18  6.504535E-19 -1.652837E-18
         9   6 -1.564464E-10 -1.564464E-10  1.340969E-10  8.673617E-19  5.414235E-20  3.991521E-19
         9   7 -1.564464E-10 -1.564464E-10  1.340969E-10 -2.602085E-18  5.340383E-19  2.987269E-19
         9   8 -1.564464E-10 -1.564464E-10  1.340969E-10 -4.336809E-19 -5.501638E-19 -2.513692E-19

 displacements (vx,vy,vz) for set NALL and time  0.2827813E+00

         1  0.000000E+00  0.000000E+00  0.000000E+00
         2 -8.079464E-08  0.000000E+00  0.000000E+00
         3 -4.241719E+00  0.000000E+00  0.000000E+00
         4 -4.241719E+00  0.000000E+00  0.000000E+00
         5 -8.483437E+00  0.000000E+00  0.000000E+00
         6 -8.483438E+00  0.000000E+00  0.000000E+00
         7  0.000000E+00 -8.079464E-08  0.000000E+00
         8 -8.079464E-08 -8.079464E-08  0.000000E+00
         9 -4.241719E+00 -8.079464E-08  0.000000E+00
        10 -4.241719E+00 -8.079464E-08  0.000000E+00
        11 -8.483437E+00 -8.079464E-08  0.000000E+00
        12 -8.483438E+00 -8.079464E-08  0.000000E+00
        13  0.000000E+00 -4.241719E+00  0.000000E+00
        14 -8.079464E-08 -4.241719E+00  0.000000E+00
        15 -4.241719E+00 -4.241719E+00  0.000000E+00
        16 -4.241719E+00 -4.241719E+00  0.000000E+00
        17 -8.483437E+00 -4.241719E+00  0.000000E+00
        18 -8.483438E+00 -4.241719E+00  0.000000E+00
        19  0.000000E+00 -4.241719E+00  0.000000E+00
        20 -8.079464E-08 -4.241719E+00  0.000000E+00
        21 -4.241719E+00 -4.241719E+00  0.000000E+00
        22 -4.241719E+00 -4.241719E+00  0.000000E+00
        23 -8.483437E+00 -4.241719E+00  0.000000E+00
        24 -8.483438E+00 -4.241719E+00  0.000000E+00
        25  0.000000E+00 -8.483437E+00  0.000000E+00
        26 -8.079464E-08 -8.483437E+00  0.000000E+00
        27 -4.241719E+00 -8.483437E+00  0.000000E+00
        28 -4.241719E+00 -8.483437E+00  0.000000E+00
        29 -8.483437E+00 -8.483437E+00  0.000000E+00
        30 -8.483438E+00 -8.483437E+00  0.000000E+00
        31  0.000000E+00 -8.483438E+00  0.000000E+00
        32 -8.079464E-08 -8.483438E+00  0.000000E+00
        33 -4.241719E+00 -8.483438E+00  0.000000E+00
        34 -4.241719E+00 -8.483438E+00  0.000000E+00
        35 -8.483437E+00 -8.483438E+00  0.000000E+00
        36 -8.483438E+00 -8.483438E+00  0.000000E+00
        37  0.000000E+00  0.000000E+00  9.695357E-08
        38 -8.079464E-08  0.000000E+00  9.695357E-08
        39 -4.241719E+00  0.000000E+00  9.695357E-08
        40 -4.241719E+00  0.000000E+00  9.695357E-08
        41 -8.483437E+00  0.000000E+00  9.695357E-08
        42 -8.483438E+00  0.000000E+00  9.695357E-08
        43  0.000000E+00 -8.079464E-08  9.695357E-08
        44 -8.079464E-08 -8.079464E-08  9.695357E-08
        45 -4.241719E+00 -8.079464E-08  9.695357E-08
        46 -4.241719E+00 -8.079464E-08  9.695357E-08
        47 -8.483437E+00 -8.079464E-08  9.695357E-08
        48 -8.483438E+00 -8.079464E-08  9.695357E-08
        49  0.000000E+00 -4.241719E+00  9.695357E-08
        50 -8.079464E-08 -4.241719E+00  9.695357E-08
        51 -4.241719E+00 -4.241719E+00  9.695357E-08
        52 -4.241719E+00 -4.241719E+00  9.695357E-08
        53 -8.483437E+00 -4.241719E+00  9.695357E-08
        54 -8.483438E+00 -4.241719E+00  9.695357E-08
        55  0.000000E+00 -4.241719E+00  9.695357E-08
        56 -8.079464E-08 -4.241719E+00  9.695357E-08
        57 -4.241719E+00 -4.241719E+00  9.695357E-08
        58 -4.241719E+00 -4.241719E+00  9.695357E-08
        59 -8.483437E+00 -4.241719E+00  9.695357E-08
        60 -8.483438E+00 -4.241719E+00  9.695357E-08
        61  0.000000E+00 -8.483437E+00  9.695357E-08
        62 -8.079464E-08 -8.483437E+00  9.695357E-08
        63 -4.241719E+00 -8.483437E+00  9.695357E-08
        64 -4.241719E+00 -8.483437E+00  9.695357E-08
        65 -8.483437E+00 -8.483437E+00  9.695357E-08
        66 -8.483438E+00 -8.483437E+00  9.695357E-08
        67  0.000000E+00 -8.483438E+00  9.695357E-08
        68 -8.079464E-08 -8.483438E+00  9.695357E-08
        69 -4.241719E+00 -8.483438E+00  9.695357E-08
        70 -4.241719E+00 -8.483438E+00  9.695357E-08
        71 -8.483437E+00 -8.483438E+00  9.695357E-08
        72 -8.483438E+00 -8.483438E+00  9.695357E-08

 stresses (elem, integ.pnt.,sxx,syy,szz,sxy,sxz,syz) for set EALL and time  0.2827813E+00

         1   1 -4.847678E-05 -4.847678E-05  1.355253E-20  1.761611E-21  4.567141E-22 -2.609795E-22
         1   2 -4.847678E-05 -4.847678E-05  6.776264E-21  4.371406E-21  3.523223E-21 -6.524487E-22
         1   3 -4.847678E-05 -4.847678E-05  6.776264E-21  4.436651E-21  7.829384E-22 -4.175671E-21
         1   4 -4.847678E-05 -4.847678E-05  1.355253E-20  7.046445E-21  2.609795E-21 -4.697630E-21
         1   5 -4.847678E-05 -4.847678E-05  6.776264E-21  7.829384E-22 -1.239652E-21  7.829384E-22
         1   6 -4.847678E-05 -4.847678E-05 -6.776264E-21  7.829384E-22  1.826856E-21  3.523223E-21
         1   7 -4.847678E-05 -4.847678E-05 -1.079386E-46  4.175671E-21  5.219589E-22 -2.087836E-21
         1   8 -4.847678E-05 -4.847678E-05 -6.746161E-47  4.175671E-21  2.087836E-21 -5.219589E-22
         2   1 -4.847678E-05 -4.847678E-05  3.486652E-14  6.968066E-14  3.508605E-14 -2.055847E-15
         2   2 -4.847678E-05 -4.847678E-05  3.372378E-14  1.713855E-14  9.200667E-14  1.690456E-15
         2   3 -4.847678E-05 -4.847678E-05  1.719278E-14  6.865482E-14 -3.460347E-14 -8.484347E-15
         2   4 -4.847678E-05 -4.847678E-05  1.855411E-14  3.800525E-14 -8.714557E-14  4.495417E-15
         2   5 -4.847678E-05 -4.847678E-05  5.420549E-14  4.356071E-15  3.524446E-14 -1.244022E-15
         2   6 -4.847678E-05 -4.847678E-05  7.245302E-14 -1.315796E-14 -8.540630E-15  3.503905E-15
         2   7 -4.847678E-05 -4.847678E-05  3.692942E-15  1.625708E-14 -6.847151E-14 -7.672524E-15
         2   8 -4.847678E-05 -4.847678E-05  2.444452E-14  1.625708E-14 -1.034996E-13  6.308866E-15
         3   1 -4.847678E-05 -4.847678E-05  4.708592E-14  9.940120E-14  9.224507E-15  9.921499E-17
         3   2 -4.847678E-05 -4.847678E-05  8.680105E-14  3.810207E-14 -2.580356E-14 -6.092992E-16
         3   3 -4.847678E-05 -4.847678E-05  2.205252E-14  8.387491E-14  7.364351E-14 -1.063321E-14
         3   4 -4.847678E-05 -4.847678E-05  2.326530E-14 -2.120930E-14  3.587372E-15  2.123520E-15
         3   5 -4.847678E-05 -4.847678E-05  1.296320E-13  1.217056E-15  1.044825E-13  1.110270E-14
         3   6 -4.847678E-05 -4.847678E-05  1.976242E-13 -1.038672E-13 -7.065788E-14 -5.006756E-15
         3   7 -4.847678E-05 -4.847678E-05  1.045986E-13  4.542113E-15  1.338825E-14  3.702703E-16
         3   8 -4.847678E-05 -4.847678E-05  1.340884E-13 -3.048596E-14 -9.169596E-14 -2.273938E-15
         4   1 -4.847678E-05 -4.847678E-05  1.267488E-13  2.431306E-16 -1.942403E-15  3.296194E-14
         4   2 -4.847678E-05 -4.847678E-05  1.163019E-13  9.073757E-16 -3.070392E-15 -2.945748E-15
         4   3 -4.847678E-05 -4.847678E-05  1.136332E-13  2.431306E-16  1.316996E-15 -2.066133E-15
         4   4 -4.847678E-05 -4.847678E-05  1.270842E-13  9.073757E-16 -4.653092E-16  7.148890E-14
         4   5 -4.847678E-05 -4.847678E-05  1.929582E-14 -9.216437E-17 -6.121155E-15 -9.528109E-14
         4   6 -4.847678E-05 -4.847678E-05  8.848933E-15 -3.439615E-16 -7.249143E-15 -7.788392E-15
         4   7 -4.847678E-05 -4.847678E-05  4.806167E-15 -9.216437E-17  6.697397E-15 -7.710914E-15
         4   8 -4.847678E-05 -4.847678E-05  1.825718E-14 -3.439615E-16  4.915092E-15  5.347135E-15
         5   1 -4.847678E-05 -4.847678E-05  9.455330E-14 -2.627105E-14  2.851500E-14 -4.399901E-14
         5   2 -4.847678E-05 -4.847678E-05  1.091781E-13 -1.313553E-14  2.851500E-14 -1.434276E-14
         5   3 -4.847678E-05 -4.847678E-05 -1.926148E-14  3.502807E-14  3.627870E-14 -1.490832E-13
         5   4 -4.847678E-05 -4.847678E-05  8.122922E-14  5.254211E-14  5.379274E-14  3.382083E-14
         5   5 -4.847678E-05 -4.847678E-05 -8.934408E-14 -8.757018E-14  2.823501E-14 -5.099403E-14
         5   6 -4.847678E-05 -4.847678E-05  5.006823E-14 -7.005614E-14 -2.868560E-14 -5.704758E-14
         5   7 -4.847678E-05 -4.847678E-05 -2.031588E-13 -1.244945E-29  1.097516E-13 -1.735923E-13
         5   8 -4.847678E-05 -4.847678E-05  1.555158E-14  3.502807E-14 -3.036064E-14 -4.505468E-15
         6   1 -4.847678E-05 -4.847678E-05 -2.275141E-13  6.129912E-14  6.869024E-14 -5.264812E-14
         6   2 -4.847678E-05 -4.847678E-05 -1.251914E-13 -8.757018E-15 -2.763695E-14  2.978073E-14
         6   3 -4.847678E-05 -4.847678E-05 -2.662414E-13  8.757018E-14 -6.507229E-15  1.740802E-14
         6   4 -4.847678E-05 -4.847678E-05 -3.041188E-13  1.138412E-13 -6.507229E-15  6.480880E-14
         6   5 -4.847678E-05 -4.847678E-05 -2.800562E-13  1.751404E-14  9.998661E-14  4.745360E-14
         6   6 -4.847678E-05 -4.847678E-05 -5.294600E-14  1.751404E-14 -1.364529E-13  8.080800E-14
         6   7 -4.847678E-05 -4.847678E-05 -2.136993E-13 -7.005614E-14  4.577083E-14  2.993956E-14
         6   8 -4.847678E-05 -4.847678E-05 -7.424713E-14  1.401123E-13  1.074276E-14  6.329396E-14
         7   1 -4.847678E-05 -4.847678E-05 -6.810165E-15 -3.346908E-15  4.545268E-15 -1.320349E-13
         7   2 -4.847678E-05 -4.847678E-05 -2.730982E-14 -1.249083E-14  1.990882E-14 -1.537232E-13
         7   3 -4.847678E-05 -4.847678E-05  3.464356E-14 -3.346908E-15 -3.051273E-15  2.182458E-13
         7   4 -4.847678E-05 -4.847678E-05 -1.436724E-14 -1.249083E-14  2.962604E-15  3.893114E-14
         7   5 -4.847678E-05 -4.847678E-05 -7.963091E-14 -8.138017E-15  1.599616E-15  3.014524E-14
         7   6 -4.847678E-05 -4.847678E-05 -3.445294E-14 -3.037149E-14  1.696317E-14  9.337962E-14
         7   7 -4.847678E-05 -4.847678E-05 -5.781150E-14 -8.138017E-15 -1.740138E-14 -3.991090E-14
         7   8 -4.847678E-05 -4.847678E-05 -4.114468E-14 -3.037149E-14 -1.138751E-14  1.196507E-13
         8   1 -4.847678E-05 -4.847678E-05  6.929163E-15 -9.066759E-32  3.809682E-14 -1.278117E-13
         8   2 -4.847678E-05 -4.847678E-05  1.343767E-13 -7.005614E-14  2.058278E-14  1.049368E-13
         8   3 -4.847678E-05 -4.847678E-05  2.526579E-14 -4.010871E-31 -7.943539E-14  2.224690E-13
         8   4 -4.847678E-05 -4.847678E-05  1.374643E-14 -4.816360E-14  7.819092E-14  8.742272E-14
         8   5 -4.847678E-05 -4.847678E-05 -1.112906E-13 -1.401123E-13  4.178792E-14  4.590625E-14
         8   6 -4.847678E-05 -4.847678E-05  2.920030E-13 -8.757018E-14  4.178792E-14 -1.337148E-14
         8   7 -4.847678E-05 -4.847678E-05 -1.586316E-13 -1.401123E-13 -3.500385E-14 -9.420603E-14
         8   8 -4.847678E-05 -4.847678E-05 -1.176088E-13 -5.254211E-14 -1.748981E-14  7.419870E-14
         9   1 -4.847678E-05 -4.847678E-05  6.774555E-14  1.401123E-13 -9.801085E-14 -1.076125E-13
         9   2 -4.847678E-05 -4.847678E-05 -4.156880E-14  1.401123E-13  4.210143E-14 -1.249476E-14
         9   3 -4.847678E-05 -4.847678E-05 -2.065127E-15  4.902577E-33  5.863913E-15  6.752785E-14
         9   4 -4.847678E-05 -4.847678E-05  1.299348E-13  9.632719E-14  1.109481E-13  6.631840E-14
         9   5 -4.847678E-05 -4.847678E-05  6.774555E-14  1.401123E-13  1.665104E-13 -9.435719E-15
         9   6 -4.847678E-05 -4.847678E-05  1.097330E-14  3.502807E-14  8.884111E-15  6.486371E-14
         9   7 -4.847678E-05 -4.847678E-05 -2.065127E-15  1.642510E-32  2.188442E-14  6.062042E-14
         9   8 -4.847678E-05 -4.847678E-05  9.052825E-14 -3.502807E-14  2.188442E-14 -4.897752E-14

 strains (elem, integ.pnt.,exx,eyy,ezz,exy,exz,eyz) forset EALL and time  0.2827813E+00

         1   1 -1.615893E-10 -1.615893E-10  1.385051E-10  1.090521E-26  2.827277E-27 -1.615587E-27
         1   2 -1.615893E-10 -1.615893E-10  1.385051E-10  2.706108E-26  2.181043E-26 -4.038968E-27
         1   3 -1.615893E-10 -1.615893E-10  1.385051E-10  2.746498E-26  4.846761E-27 -2.584939E-26
         1   4 -1.615893E-10 -1.615893E-10  1.385051E-10  4.362085E-26  1.615587E-26 -2.908057E-26
         1   5 -1.615893E-10 -1.615893E-10  1.385051E-10  4.846761E-27 -7.674039E-27  4.846761E-27
         1   6 -1.615893E-10 -1.615893E-10  1.385051E-10  4.846761E-27  1.130911E-26  2.181043E-26
         1   7 -1.615893E-10 -1.615893E-10  1.385051E-10  2.584939E-26  3.231174E-27 -1.292470E-26
         1   8 -1.615893E-10 -1.615893E-10  1.385051E-10  2.584939E-26  1.292470E-26 -3.231174E-27
         2   1 -1.615893E-10 -1.615893E-10  1.385051E-10  4.313564E-19  2.171994E-19 -1.272667E-20
         2   2 -1.615893E-10 -1.615893E-10  1.385051E-10  1.060958E-19  5.695651E-19  1.046473E-20
         2   3 -1.615893E-10 -1.615893E-10  1.385051E-10  4.250060E-19 -2.142119E-19 -5.252215E-20
         2   4 -1.615893E-10 -1.615893E-10  1.385051E-10  2.352706E-19 -5.394726E-19  2.782877E-20
         2   5 -1.615893E-10 -1.615893E-10  1.385051E-10  2.696615E-20  2.181800E-19 -7.701089E-21
         2   6 -1.615893E-10 -1.615893E-10  1.385051E-10 -8.145406E-20 -5.287057E-20  2.169084E-20
         2   7 -1.615893E-10 -1.615893E-10  1.385051E-10  1.006391E-19 -4.238712E-19 -4.749658E-20
         2   8 -1.615893E-10 -1.615893E-10  1.385051E-10  1.006391E-19 -6.407117E-19  3.905489E-20
         3   1 -1.615893E-10 -1.615893E-10  1.385051E-10  6.153407E-19  5.710409E-20  6.141881E-22
         3   2 -1.615893E-10 -1.615893E-10  1.385051E-10  2.358700E-19 -1.597363E-19 -3.771852E-21
         3   3 -1.615893E-10 -1.615893E-10  1.385051E-10  5.192256E-19  4.558884E-19 -6.582464E-20
         3   4 -1.615893E-10 -1.615893E-10  1.385051E-10 -1.312957E-19  2.220754E-20  1.314560E-20
         3   5 -1.615893E-10 -1.615893E-10  1.385051E-10  7.534153E-21  6.467962E-19  6.873098E-20
         3   6 -1.615893E-10 -1.615893E-10  1.385051E-10 -6.429872E-19 -4.374059E-19 -3.099421E-20
         3   7 -1.615893E-10 -1.615893E-10  1.385051E-10  2.811784E-20  8.287966E-20  2.292150E-21
         3   8 -1.615893E-10 -1.615893E-10  1.385051E-10 -1.887226E-19 -5.676416E-19 -1.407676E-20
         4   1 -1.615893E-10 -1.615893E-10  1.385051E-10  1.505094E-21 -1.202440E-20  2.040501E-19
         4   2 -1.615893E-10 -1.615893E-10  1.385051E-10  5.617088E-21 -1.900719E-20 -1.823558E-20
         4   3 -1.615893E-10 -1.615893E-10  1.385051E-10  1.505094E-21  8.152829E-21 -1.279035E-20
         4   4 -1.615893E-10 -1.615893E-10  1.385051E-10  5.617088E-21 -2.880485E-21  4.425503E-19
         4   5 -1.615893E-10 -1.615893E-10  1.385051E-10 -5.705414E-22 -3.789286E-20 -5.898353E-19
         4   6 -1.615893E-10 -1.615893E-10  1.385051E-10 -2.129286E-21 -4.487565E-20 -4.821385E-20
         4   7 -1.615893E-10 -1.615893E-10  1.385051E-10 -5.705414E-22  4.146008E-20 -4.773423E-20
         4   8 -1.615893E-10 -1.615893E-10  1.385051E-10 -2.129286E-21  3.042676E-20  3.310131E-20
         5   1 -1.615893E-10 -1.615893E-10  1.385051E-10 -1.626303E-19  1.765215E-19 -2.723748E-19
         5   2 -1.615893E-10 -1.615893E-10  1.385051E-10 -8.131516E-20  1.765215E-19 -8.878854E-20
         5   3 -1.615893E-10 -1.615893E-10  1.385051E-10  2.168404E-19  2.245825E-19 -9.228961E-19
         5   4 -1.615893E-10 -1.615893E-10  1.385051E-10  3.252607E-19  3.330027E-19  2.093671E-19
         5   5 -1.615893E-10 -1.615893E-10  1.385051E-10 -5.421011E-19  1.747882E-19 -3.156773E-19
         5   6 -1.615893E-10 -1.615893E-10  1.385051E-10 -4.336809E-19 -1.775775E-19 -3.531517E-19
         5   7 -1.615893E-10 -1.615893E-10  1.385051E-10  7.446735E-35  6.794149E-19 -1.074619E-18
         5   8 -1.615893E-10 -1.615893E-10  1.385051E-10  2.168404E-19 -1.879468E-19 -2.789100E-20
         6   1 -1.615893E-10 -1.615893E-10  1.385051E-10  3.794708E-19  4.252253E-19 -3.259169E-19
         6   2 -1.615893E-10 -1.615893E-10  1.385051E-10 -5.421011E-20 -1.710859E-19  1.843569E-19
         6   3 -1.615893E-10 -1.615893E-10  1.385051E-10  5.421011E-19 -4.028285E-20  1.077640E-19
         6   4 -1.615893E-10 -1.615893E-10  1.385051E-10  7.047314E-19 -4.028285E-20  4.011973E-19
         6   5 -1.615893E-10 -1.615893E-10  1.385051E-10  1.084202E-19  6.189647E-19  2.937604E-19
         6   6 -1.615893E-10 -1.615893E-10  1.385051E-10  1.084202E-19 -8.447082E-19  5.002400E-19
         6   7 -1.615893E-10 -1.615893E-10  1.385051E-10 -4.336809E-19  2.833432E-19  1.853402E-19
         6   8 -1.615893E-10 -1.615893E-10  1.385051E-10  8.673617E-19  6.650280E-20  3.918198E-19
         7   1 -1.615893E-10 -1.615893E-10  1.385051E-10 -2.071896E-20  2.813737E-20 -8.173588E-19
         7   2 -1.615893E-10 -1.615893E-10  1.385051E-10 -7.732420E-20  1.232451E-19 -9.516201E-19
         7   3 -1.615893E-10 -1.615893E-10  1.385051E-10 -2.071896E-20 -1.888884E-20  1.351046E-18
         7   4 -1.615893E-10 -1.615893E-10  1.385051E-10 -7.732420E-20  1.833993E-20  2.410023E-19
         7   5 -1.615893E-10 -1.615893E-10  1.385051E-10 -5.037820E-20  9.902383E-21  1.866134E-19
         7   6 -1.615893E-10 -1.615893E-10  1.385051E-10 -1.880140E-19  1.050101E-19  5.780643E-19
         7   7 -1.615893E-10 -1.615893E-10  1.385051E-10 -5.037820E-20 -1.077229E-19 -2.470675E-19
         7   8 -1.615893E-10 -1.615893E-10  1.385051E-10 -1.880140E-19 -7.049408E-20  7.406946E-19
         8   1 -1.615893E-10 -1.615893E-10  1.385051E-10  1.940468E-38  2.358374E-19 -7.912155E-19
         8   2 -1.615893E-10 -1.615893E-10  1.385051E-10 -4.336809E-19  1.274172E-19  6.496085E-19
         8   3 -1.615893E-10 -1.615893E-10  1.385051E-10 -8.842409E-39 -4.917429E-19  1.377189E-18
         8   4 -1.615893E-10 -1.615893E-10  1.385051E-10 -2.981556E-19  4.840390E-19  5.411883E-19
         8   5 -1.615893E-10 -1.615893E-10  1.385051E-10 -8.673617E-19  2.586871E-19  2.841816E-19
         8   6 -1.615893E-10 -1.615893E-10  1.385051E-10 -5.421011E-19  2.586871E-19 -8.277580E-20
         8   7 -1.615893E-10 -1.615893E-10  1.385051E-10 -8.673617E-19 -2.166905E-19 -5.831802E-19
         8   8 -1.615893E-10 -1.615893E-10  1.385051E-10 -3.252607E-19 -1.082703E-19  4.593253E-19
         9   1 -1.615893E-10 -1.615893E-10  1.385051E-10  8.673617E-19 -6.067338E-19 -6.661726E-19
         9   2 -1.615893E-10 -1.615893E-10  1.385051E-10  8.673617E-19  2.606279E-19 -7.734852E-20
         9   3 -1.615893E-10 -1.615893E-10  1.385051E-10 -1.136300E-39  3.630041E-20  4.180295E-19
         9   4 -1.615893E-10 -1.615893E-10  1.385051E-10  5.963112E-19  6.868217E-19  4.105425E-19
         9   5 -1.615893E-10 -1.615893E-10  1.385051E-10  8.673617E-19  1.030779E-18 -5.841159E-20
         9   6 -1.615893E-10 -1.615893E-10  1.385051E-10  2.168404E-19  5.499688E-20  4.015373E-19
         9   7 -1.615893E-10 -1.615893E-10  1.385051E-10 -1.582662E-38  1.354750E-19  3.752693E-19
         9   8 -1.615893E-10 -1.615893E-10  1.385051E-10 -2.168404E-19  1.354750E-19 -3.031942E-19

 displacements (vx,vy,vz) for set NALL and time  0.2917813E+00

         1  0.000000E+00  0.000000E+00  0.000000E+00
         2 -8.336607E-08  0.000000E+00  0.000000E+00
         3 -4.376719E+00  0.000000E+00  0.000000E+00
         4 -4.376719E+00  0.000000E+00  0.000000E+00
         5 -8.753437E+00  0.000000E+00  0.000000E+00
         6 -8.753438E+00  0.000000E+00  0.000000E+00
         7  0.000000E+00 -8.336607E-08  0.000000E+00
         8 -8.336607E-08 -8.336607E-08  0.000000E+00
         9 -4.376719E+00 -8.336607E-08  0.000000E+00
        10 -4.376719E+00 -8.336607E-08  0.000000E+00
        11 -8.753437E+00 -8.336607E-08  0.000000E+00
        12 -8.753438E+00 -8.336607E-08  0.000000E+00
        13  0.000000E+00 -4.376719E+00  0.000000E+00
        14 -8.336607E-08 -4.376719E+00  0.000000E+00
        15 -4.376719E+00 -4.376719E+00  0.000000E+00
        16 -4.376719E+00 -4.376719E+00  0.000000E+00
        17 -8.753437E+00 -4.376719E+00  0.000000E+00
        18 -8.753438E+00 -4.376719E+00  0.000000E+00
        19  0.000000E+00 -4.376719E+00  0.000000E+00
        20 -8.336607E-08 -4.376719E+00  0.000000E+00
        21 -4.376719E+00 -4.376719E+00  0.000000E+00
        22 -4.376719E+00 -4.376719E+00  0.000000E+00
        23 -8.753437E+00 -4.376719E+00  0.000000E+00
        24 -8.753438E+00 -4.376719E+00  0.000000E+00
        25  0.000000E+00 -8.753437E+00  0.000000E+00
        26 -8.336607E-08 -8.753437E+00  0.000000E+00
        27 -4.376719E+00 -8.753437E+00  0.000000E+00
        28 -4.376719E+00 -8.753437E+00  0.000000E+00
        29 -8.753437E+00 -8.753437E+00  0.000000E+00
        30 -8.753438E+00 -8.753437E+00  0.000000E+00
        31  0.000000E+00 -8.753438E+00  0.000000E+00
        32 -8.336607E-08 -8.753438E+00  0.000000E+00
        33 -4.376719E+00 -8.753438E+00  0.000000E+00
        34 -4.376719E+00 -8.753438E+00  0.000000E+00
        35 -8.753437E+00 -8.753438E+00  0.000000E+00
        36 -8.753438E+00 -8.753438E+00  0.000000E+00
        37  0.000000E+00  0.000000E+00  1.000393E-07
        38 -8.336607E-08  0.000000E+00  1.000393E-07
        39 -4.376719E+00  0.000000E+00  1.000393E-07
        40 -4.376719E+00  0.000000E+00  1.000393E-07
        41 -8.753437E+00  0.000000E+00  1.000393E-07
        42 -8.753438E+00  0.000000E+00  1.000393E-07
        43  0.000000E+00 -8.336607E-08  1.000393E-07
        44 -8.336607E-08 -8.336607E-08  1.000393E-07
        45 -4.376719E+00 -8.336607E-08  1.000393E-07
        46 -4.376719E+00 -8.336607E-08  1.000393E-07
        47 -8.753437E+00 -8.336607E-08  1.000393E-07
        48 -8.753438E+00 -8.336607E-08  1.000393E-07
        49  0.000000E+00 -4.376719E+00  1.000393E-07
        50 -8.336607E-08 -4.376719E+00  1.000393E-07
        51 -4.376719E+00 -4.376719E+00  1.000393E-07
        52 -4.376719E+00 -4.376719E+00  1.000393E-07
        53 -8.753437E+00 -4.376719E+00  1.000393E-07
        54 -8.753438E+00 -4.376719E+00  1.000393E-07
        55  0.000000E+00 -4.376719E+00  1.000393E-07
        56 -8.336607E-08 -4.376719E+00  1.000393E-07
        57 -4.376719E+00 -4.376719E+00  1.000393E-07
        58 -4.376719E+00 -4.376719E+00  1.000393E-07
        59 -8.753437E+00 -4.376719E+00  1.000393E-07
        60 -8.753438E+00 -4.376719E+00  1.000393E-07
        61  0.000000E+00 -8.753437E+00  1.000393E-07
        62 -8.336607E-08 -8.753437E+00  1.000393E-07
        63 -4.376719E+00 -8.753437E+00  1.000393E-07
        64 -4.376719E+00 -8.753437E+00  1.000393E-07
        65 -8.753437E+00 -8.753437E+00  1.000393E-07
        66 -8.753438E+00 -8.753437E+00  1.000393E-07
        67  0.000000E+00 -8.753438E+00  1.000393E-07
        68 -8.336607E-08 -8.753438E+00  1.000393E-07
        69 -4.376719E+00 -8.753438E+00  1.000393E-07
        70 -4.376719E+00 -8.753438E+00  1.000393E-07
        71 -8.753437E+00 -8.753438E+00  1.000393E-07
        72 -8.753438E+00 -8.753438E+00  1.000393E-07

 stresses (elem, integ.pnt.,sxx,syy,szz,sxy,sxz,syz) for set EALL and time  0.2917813E+00

         1   1 -5.001964E-05 -5.001964E-05  6.776264E-21  2.609795E-21  6.524487E-22  5.219589E-22
         1   2 -5.001964E-05 -5.001964E-05 -6.776264E-21  8.351343E-21  3.262243E-21 -5.872038E-22
         1   3 -5.001964E-05 -5.001964E-05  6.776264E-21  3.653712E-21  5.219589E-22 -5.219589E-22
         1   4 -5.001964E-05 -5.001964E-05 -1.285987E-46  9.395261E-21  5.219589E-21 -1.957346E-21
         1   5 -5.001964E-05 -5.001964E-05  4.317543E-46  2.348815E-21  3.232444E-31  4.175671E-21
         1   6 -5.001964E-05 -5.001964E-05 -5.228275E-47  1.200506E-20  2.609795E-21  5.872038E-22
         1   7 -5.001964E-05 -5.001964E-05  6.776264E-21 -2.609795E-22 -2.609795E-21  3.131754E-21
         1   8 -5.001964E-05 -5.001964E-05  6.776264E-21  9.395261E-21  2.087836E-21 -7.829384E-22
         2   1 -5.001964E-05 -5.001964E-05 -1.519707E-13 -1.895226E-15 -1.415007E-14 -1.268274E-15
         2   2 -5.001964E-05 -5.001964E-05 -1.367612E-13  6.861792E-15 -4.917814E-14  1.225224E-15
         2   3 -5.001964E-05 -5.001964E-05 -1.645853E-13 -7.073078E-15  4.089223E-14 -2.314550E-15
         2   4 -5.001964E-05 -5.001964E-05 -1.322990E-13  4.109052E-14  7.592030E-14  1.606429E-16
         2   5 -5.001964E-05 -5.001964E-05 -1.607356E-13 -7.196075E-14 -4.959545E-15 -3.686989E-15
         2   6 -5.001964E-05 -5.001964E-05 -1.455645E-13 -1.904606E-15 -5.810358E-16  5.637180E-15
         2   7 -5.001964E-05 -5.001964E-05 -1.667824E-13 -7.716422E-14  2.188536E-14 -4.733264E-15
         2   8 -5.001964E-05 -5.001964E-05 -1.345347E-13  2.791999E-14  9.194150E-14  4.572597E-15
         3   1 -5.001964E-05 -5.001964E-05 -8.125645E-14 -4.628994E-15 -5.625565E-14  2.077938E-15
         3   2 -5.001964E-05 -5.001964E-05 -5.967306E-15  4.791311E-14 -2.998460E-14  5.109863E-15
         3   3 -5.001964E-05 -5.001964E-05 -6.045362E-14 -1.727564E-14  7.657556E-14 -5.820374E-15
         3   4 -5.001964E-05 -5.001964E-05 -3.489514E-14  3.526646E-14  1.116036E-13  2.538718E-14
         3   5 -5.001964E-05 -5.001964E-05 -1.109784E-13 -1.303031E-13 -1.236362E-13  1.565328E-14
         3   6 -5.001964E-05 -5.001964E-05  2.347954E-14  4.483727E-14  8.653221E-14 -1.207054E-15
         3   7 -5.001964E-05 -5.001964E-05 -7.704007E-14 -1.035038E-13 -1.157815E-13  7.754972E-15
         3   8 -5.001964E-05 -5.001964E-05  7.687244E-15  3.660844E-14 -1.069726E-14  1.907027E-14
         4   1 -5.001964E-05 -5.001964E-05  1.522620E-13  1.210616E-15  1.527420E-15 -7.481287E-14
         4   2 -5.001964E-05 -5.001964E-05  6.136914E-14  4.518081E-15  7.905179E-15 -3.521146E-14
         4   3 -5.001964E-05 -5.001964E-05  1.247341E-13 -6.884552E-14 -1.475043E-15 -4.756727E-15
         4   4 -5.001964E-05 -5.001964E-05  3.517201E-14 -6.553806E-14 -3.832458E-15  8.300828E-14
         4   5 -5.001964E-05 -5.001964E-05  1.919263E-13  6.679054E-14 -6.773500E-16 -7.029445E-14
         4   6 -5.001964E-05 -5.001964E-05  1.338723E-13  5.786876E-14  5.700409E-15  8.368048E-14
         4   7 -5.001964E-05 -5.001964E-05  1.460546E-13 -3.265598E-15 -3.147523E-15  1.727572E-14
         4   8 -5.001964E-05 -5.001964E-05  8.933131E-14 -1.218738E-14 -5.504937E-15  8.805899E-14
         5   1 -5.001964E-05 -5.001964E-05  1.479593E-13 -1.751404E-14 -5.332176E-14 -8.678918E-14
         5   2 -5.001964E-05 -5.001964E-05  2.674216E-13 -1.795189E-13  3.598851E-15  4.337171E-14
         5   3 -5.001964E-05 -5.001964E-05  2.235029E-15 -3.277109E-31 -6.352544E-15 -3.424707E-14
         5   4 -5.001964E-05 -5.001964E-05  1.138845E-14 -1.576263E-13  1.116149E-14 -1.098761E-13
         5   5 -5.001964E-05 -5.001964E-05  4.944283E-14  1.751404E-14 -3.793779E-14 -3.211335E-14
         5   6 -5.001964E-05 -5.001964E-05  9.665977E-14 -1.751404E-14  3.211835E-14 -9.126557E-15
         5   7 -5.001964E-05 -5.001964E-05  2.850607E-14 -1.356500E-30  1.132005E-14 -3.211335E-14
         5   8 -5.001964E-05 -5.001964E-05  6.393056E-14 -1.751404E-14 -4.122205E-14 -3.539761E-14
         6   1 -5.001964E-05 -5.001964E-05 -1.710913E-13  1.751404E-14  1.348876E-13 -6.958394E-14
         6   2 -5.001964E-05 -5.001964E-05 -1.739377E-13  2.627105E-14  9.985953E-14 -3.224329E-14
         6   3 -5.001964E-05 -5.001964E-05 -1.810016E-13  1.751404E-14 -2.912106E-15  7.052835E-14
         6   4 -5.001964E-05 -5.001964E-05 -1.943239E-13  1.576263E-13  3.211596E-14  2.784777E-15
         6   5 -5.001964E-05 -5.001964E-05 -7.914260E-14 -4.254467E-34 -1.949876E-14  1.762296E-15
         6   6 -5.001964E-05 -5.001964E-05 -1.936410E-13 -7.320824E-32  1.293705E-13 -4.214918E-14
         6   7 -5.001964E-05 -5.001964E-05 -7.591738E-14 -1.401123E-13 -8.092427E-14  1.762296E-15
         6   8 -5.001964E-05 -5.001964E-05 -2.271627E-13 -7.005614E-14 -1.086813E-14 -7.121107E-15
         7   1 -5.001964E-05 -5.001964E-05 -3.230289E-14  3.969277E-14  7.491969E-15 -3.449820E-13
         7   2 -5.001964E-05 -5.001964E-05 -1.316385E-13  5.243697E-14  2.566097E-14 -2.594879E-13
         7   3 -5.001964E-05 -5.001964E-05  2.300395E-14  4.664701E-15  5.863068E-16  1.454109E-13
         7   4 -5.001964E-05 -5.001964E-05 -9.051105E-14  1.740890E-14  5.560437E-15 -3.180541E-14
         7   5 -5.001964E-05 -5.001964E-05 -4.669009E-14  1.380155E-13  9.791413E-15 -1.903935E-13
         7   6 -5.001964E-05 -5.001964E-05 -4.094149E-14  1.322868E-13  2.796041E-14 -1.424393E-14
         7   7 -5.001964E-05 -5.001964E-05 -1.909249E-14 -2.096819E-15 -2.786003E-15  8.983102E-14
         7   8 -5.001964E-05 -5.001964E-05 -2.752326E-14 -7.825434E-15  2.188128E-15  4.705519E-14
         8   1 -5.001964E-05 -5.001964E-05 -1.254953E-13 -7.005614E-14  1.574847E-15 -3.103204E-13
         8   2 -5.001964E-05 -5.001964E-05  4.288739E-14 -5.254211E-14 -3.783173E-14 -1.034447E-13
         8   3 -5.001964E-05 -5.001964E-05  1.802776E-13 -1.050842E-13  1.579612E-14  3.996033E-14
         8   4 -5.001964E-05 -5.001964E-05  2.264995E-14 -6.567763E-14  1.208803E-13 -5.090260E-14
         8   5 -5.001964E-05 -5.001964E-05 -6.638545E-14 -1.401123E-13 -1.163663E-14 -6.103442E-14
         8   6 -5.001964E-05 -5.001964E-05  1.545394E-13  1.751404E-14  8.906907E-14  1.893988E-14
         8   7 -5.001964E-05 -5.001964E-05  1.802776E-13 -2.802246E-13  6.833768E-14 -6.103442E-14
         8   8 -5.001964E-05 -5.001964E-05  1.014631E-13 -1.050842E-13 -7.177460E-14  7.148199E-14
         9   1 -5.001964E-05 -5.001964E-05 -1.634933E-13  3.502807E-14 -9.164544E-15 -2.914383E-13
         9   2 -5.001964E-05 -5.001964E-05 -1.311317E-14  4.378509E-14  5.213458E-14  3.140010E-14
         9   3 -5.001964E-05 -5.001964E-05 -1.397423E-14  2.116472E-33  7.178290E-15  2.381429E-14
         9   4 -5.001964E-05 -5.001964E-05  2.058162E-13  1.401123E-13  7.723443E-14  5.129049E-15
         9   5 -5.001964E-05 -5.001964E-05 -2.291709E-13  7.175376E-31 -1.136444E-13 -1.212923E-13
         9   6 -5.001964E-05 -5.001964E-05  2.235489E-17  1.751404E-13  7.025294E-14  1.627837E-15
         9   7 -5.001964E-05 -5.001964E-05 -6.651634E-14 -1.401123E-13  2.678974E-14  8.887612E-14
         9   8 -5.001964E-05 -5.001964E-05 -7.002980E-14 -1.754501E-31 -1.483506E-13  5.416994E-14

 strains (elem, integ.pnt.,exx,eyy,ezz,exy,exz,eyz) forset EALL and time  0.2917813E+00

         1   1 -1.667321E-10 -1.667321E-10  1.429133E-10  1.615587E-26  4.038968E-27  3.231174E-27
         1   2 -1.667321E-10 -1.667321E-10  1.429133E-10  5.169879E-26  2.019484E-26 -3.635071E-27
         1   3 -1.667321E-10 -1.667321E-10  1.429133E-10  2.261822E-26  3.231174E-27 -3.231174E-27
         1   4 -1.667321E-10 -1.667321E-10  1.429133E-10  5.816114E-26  3.231174E-26 -1.211690E-26
         1   5 -1.667321E-10 -1.667321E-10  1.429133E-10  1.454028E-26 -2.001036E-36  2.584939E-26
         1   6 -1.667321E-10 -1.667321E-10  1.429133E-10  7.431701E-26  1.615587E-26  3.635071E-27
         1   7 -1.667321E-10 -1.667321E-10  1.429133E-10 -1.615587E-27 -1.615587E-26  1.938705E-26
         1   8 -1.667321E-10 -1.667321E-10  1.429133E-10  5.816114E-26  1.292470E-26 -4.846761E-27
         2   1 -1.667321E-10 -1.667321E-10  1.429133E-10 -1.173235E-20 -8.759567E-20 -7.851222E-21
         2   2 -1.667321E-10 -1.667321E-10  1.429133E-10  4.247776E-20 -3.044361E-19  7.584722E-21
         2   3 -1.667321E-10 -1.667321E-10  1.429133E-10 -4.378572E-20  2.531424E-19 -1.432817E-20
         2   4 -1.667321E-10 -1.667321E-10  1.429133E-10  2.543699E-19  4.699828E-19  9.944561E-22
         2   5 -1.667321E-10 -1.667321E-10  1.429133E-10 -4.454713E-19 -3.070194E-20 -2.282422E-20
         2   6 -1.667321E-10 -1.667321E-10  1.429133E-10 -1.179042E-20 -3.596888E-21  3.489683E-20
         2   7 -1.667321E-10 -1.667321E-10  1.429133E-10 -4.776833E-19  1.354808E-19 -2.930116E-20
         2   8 -1.667321E-10 -1.667321E-10  1.429133E-10  1.728380E-19  5.691617E-19  2.830655E-20
         3   1 -1.667321E-10 -1.667321E-10  1.429133E-10 -2.865568E-20 -3.482492E-19  1.286343E-20
         3   2 -1.667321E-10 -1.667321E-10  1.429133E-10  2.966050E-19 -1.856189E-19  3.163248E-20
         3   3 -1.667321E-10 -1.667321E-10  1.429133E-10 -1.069444E-19  4.740392E-19 -3.603089E-20
         3   4 -1.667321E-10 -1.667321E-10  1.429133E-10  2.183162E-19  6.908796E-19  1.571588E-19
         3   5 -1.667321E-10 -1.667321E-10  1.429133E-10 -8.066381E-19 -7.653670E-19  9.690128E-20
         3   6 -1.667321E-10 -1.667321E-10  1.429133E-10  2.775641E-19  5.356756E-19 -7.472241E-21
         3   7 -1.667321E-10 -1.667321E-10  1.429133E-10 -6.407381E-19 -7.167425E-19  4.800697E-20
         3   8 -1.667321E-10 -1.667321E-10  1.429133E-10  2.266237E-19 -6.622116E-20  1.180540E-19
         4   1 -1.667321E-10 -1.667321E-10  1.429133E-10  7.494290E-21  9.455455E-21 -4.631273E-19
         4   2 -1.667321E-10 -1.667321E-10  1.429133E-10  2.796907E-20  4.893682E-20 -2.179757E-19
         4   3 -1.667321E-10 -1.667321E-10  1.429133E-10 -4.261866E-19 -9.131221E-21 -2.944641E-20
         4   4 -1.667321E-10 -1.667321E-10  1.429133E-10 -4.057118E-19 -2.372474E-20  5.138608E-19
         4   5 -1.667321E-10 -1.667321E-10  1.429133E-10  4.134653E-19 -4.193119E-21 -4.351561E-19
         4   6 -1.667321E-10 -1.667321E-10  1.429133E-10  3.582352E-19  3.528825E-20  5.180220E-19
         4   7 -1.667321E-10 -1.667321E-10  1.429133E-10 -2.021561E-20 -1.948466E-20  1.069450E-19
         4   8 -1.667321E-10 -1.667321E-10  1.429133E-10 -7.544566E-20 -3.407818E-20  5.451271E-19
         5   1 -1.667321E-10 -1.667321E-10  1.429133E-10 -1.084202E-19 -3.300871E-19 -5.372663E-19
         5   2 -1.667321E-10 -1.667321E-10  1.429133E-10 -1.111307E-18  2.227860E-20  2.684915E-19
         5   3 -1.667321E-10 -1.667321E-10  1.429133E-10  2.044980E-36 -3.932527E-20 -2.120057E-19
         5   4 -1.667321E-10 -1.667321E-10  1.429133E-10 -9.757820E-19  6.909495E-20 -6.801854E-19
         5   5 -1.667321E-10 -1.667321E-10  1.429133E-10  1.084202E-19 -2.348530E-19 -1.987969E-19
         5   6 -1.667321E-10 -1.667321E-10  1.429133E-10 -1.084202E-19  1.988279E-19 -5.649773E-20
         5   7 -1.667321E-10 -1.667321E-10  1.429133E-10  8.270184E-36  7.007652E-20 -1.987969E-19
         5   8 -1.667321E-10 -1.667321E-10  1.429133E-10 -1.084202E-19 -2.551841E-19 -2.191281E-19
         6   1 -1.667321E-10 -1.667321E-10  1.429133E-10  1.084202E-19  8.350185E-19 -4.307577E-19
         6   2 -1.667321E-10 -1.667321E-10  1.429133E-10  1.626303E-19  6.181781E-19 -1.996013E-19
         6   3 -1.667321E-10 -1.667321E-10  1.429133E-10  1.084202E-19 -1.802732E-20  4.366040E-19
         6   4 -1.667321E-10 -1.667321E-10  1.429133E-10  9.757820E-19  1.988131E-19  1.723909E-20
         6   5 -1.667321E-10 -1.667321E-10  1.429133E-10 -2.633686E-39 -1.207066E-19  1.090945E-20
         6   6 -1.667321E-10 -1.667321E-10  1.429133E-10 -5.797691E-37  8.008652E-19 -2.609235E-19
         6   7 -1.667321E-10 -1.667321E-10  1.429133E-10 -8.673617E-19 -5.009598E-19  1.090945E-20
         6   8 -1.667321E-10 -1.667321E-10  1.429133E-10 -4.336809E-19 -6.727889E-20 -4.408304E-20
         7   1 -1.667321E-10 -1.667321E-10  1.429133E-10  2.457172E-19  4.637886E-20 -2.135603E-18
         7   2 -1.667321E-10 -1.667321E-10  1.429133E-10  3.246098E-19  1.588536E-19 -1.606353E-18
         7   3 -1.667321E-10 -1.667321E-10  1.429133E-10  2.887672E-20  3.629518E-21  9.001630E-19
         7   4 -1.667321E-10 -1.667321E-10  1.429133E-10  1.077694E-19  3.442175E-20 -1.968907E-19
         7   5 -1.667321E-10 -1.667321E-10  1.429133E-10  8.543814E-19  6.061351E-20 -1.178627E-18
         7   6 -1.667321E-10 -1.667321E-10  1.429133E-10  8.189186E-19  1.730882E-19 -8.817673E-20
         7   7 -1.667321E-10 -1.667321E-10  1.429133E-10 -1.298031E-20 -1.724669E-20  5.560968E-19
         7   8 -1.667321E-10 -1.667321E-10  1.429133E-10 -4.844316E-20  1.354555E-20  2.912940E-19
         8   1 -1.667321E-10 -1.667321E-10  1.429133E-10 -4.336809E-19  9.749052E-21 -1.921031E-18
         8   2 -1.667321E-10 -1.667321E-10  1.429133E-10 -3.252607E-19 -2.341964E-19 -6.403720E-19
         8   3 -1.667321E-10 -1.667321E-10  1.429133E-10 -6.505213E-19  9.778553E-20  2.473735E-19
         8   4 -1.667321E-10 -1.667321E-10  1.429133E-10 -4.065758E-19  7.483068E-19 -3.151113E-19
         8   5 -1.667321E-10 -1.667321E-10  1.429133E-10 -8.673617E-19 -7.203626E-20 -3.778322E-19
         8   6 -1.667321E-10 -1.667321E-10  1.429133E-10  1.084202E-19  5.513800E-19  1.172469E-19
         8   7 -1.667321E-10 -1.667321E-10  1.429133E-10 -1.734723E-18  4.230428E-19 -3.778322E-19
         8   8 -1.667321E-10 -1.667321E-10  1.429133E-10 -6.505213E-19 -4.443189E-19  4.425075E-19
         9   1 -1.667321E-10 -1.667321E-10  1.429133E-10  2.168404E-19 -5.673289E-20 -1.804142E-18
         9   2 -1.667321E-10 -1.667321E-10  1.429133E-10  2.710505E-19  3.227379E-19  1.943816E-19
         9   3 -1.667321E-10 -1.667321E-10  1.429133E-10  1.310197E-38  4.443703E-20  1.474218E-19
         9   4 -1.667321E-10 -1.667321E-10  1.429133E-10  8.673617E-19  4.781179E-19  3.175125E-20
         9   5 -1.667321E-10 -1.667321E-10  1.429133E-10  6.575041E-37 -7.035131E-19 -7.508571E-19
         9   6 -1.667321E-10 -1.667321E-10  1.429133E-10  1.084202E-18  4.348992E-19  1.007709E-20
         9   7 -1.667321E-10 -1.667321E-10  1.429133E-10 -8.673617E-19  1.658413E-19  5.501855E-19
         9   8 -1.667321E-10 -1.667321E-10  1.429133E-10  3.930348E-38 -9.183609E-19  3.353377E-19

 displacements (vx,vy,vz) for set NALL and time  0.3007813E+00

         1  0.000000E+00  0.000000E+00  0.000000E+00
         2 -8.593750E-08  0.000000E+00  0.000000E+00
         3 -4.511719E+00  0.000000E+00  0.000000E+00
         4 -4.511719E+00  0.000000E+00  0.000000E+00
         5 -9.023437E+00  0.000000E+00  0.000000E+00
         6 -9.023438E+00  0.000000E+00  0.000000E+00
         7  0.000000E+00 -8.593750E-08  0.000000E+00
         8 -8.593750E-08 -8.593750E-08  0.000000E+00
         9 -4.511719E+00 -8.593750E-08  0.000000E+00
        10 -4.511719E+00 -8.593750E-08  0.000000E+00
        11 -9.023437E+00 -8.593750E-08  0.000000E+00
        12 -9.023438E+00 -8.593750E-08  0.000000E+00
        13  0.000000E+00 -4.511719E+00  0.000000E+00
        14 -8.593750E-08 -4.511719E+00  0.000000E+00
        15 -4.511719E+00 -4.511719E+00  0.000000E+00
        16 -4.511719E+00 -4.511719E+00  0.000000E+00
        17 -9.023437E+00 -4.511719E+00  0.000000E+00
        18 -9.023438E+00 -4.511719E+00  0.000000E+00
        19  0.000000E+00 -4.511719E+00  0.000000E+00
        20 -8.593750E-08 -4.511719E+00  0.000000E+00
        21 -4.511719E+00 -4.511719E+00  0.000000E+00
        22 -4.511719E+00 -4.511719E+00  0.000000E+00
        23 -9.023437E+00 -4.511719E+00  0.000000E+00
        24 -9.023438E+00 -4.511719E+00  0.000000E+00
        25  0.000000E+00 -9.023437E+00  0.000000E+00
        26 -8.593750E-08 -9.023437E+00  0.000000E+00
        27 -4.511719E+00 -9.023437E+00  0.000000E+00
        28 -4.511719E+00 -9.023437E+00  0.000000E+00
        29 -9.023437E+00 -9.023437E+00  0.000000E+00
        30 -9.023438E+00 -9.023437E+00  0.000000E+00
        31  0.000000E+00 -9.023438E+00  0.000000E+00
        32 -8.593750E-08 -9.023438E+00  0.000000E+00
        33 -4.511719E+00 -9.023438E+00  0.000000E+00
        34 -4.511719E+00 -9.023438E+00  0.000000E+00
        35 -9.023437E+00 -9.023438E+00  0.000000E+00
        36 -9.023438E+00 -9.023438E+00  0.000000E+00
        37  0.000000E+00  0.000000E+00  1.031250E-07
        38 -8.593750E-08  0.000000E+00  1.031250E-07
        39 -4.511719E+00  0.000000E+00  1.031250E-07
        40 -4.511719E+00  0.000000E+00  1.031250E-07
        41 -9.023437E+00  0.000000E+00  1.031250E-07
        42 -9.023438E+00  0.000000E+00  1.031250E-07
        43  0.000000E+00 -8.593750E-08  1.031250E-07
        44 -8.593750E-08 -8.593750E-08  1.031250E-07
        45 -4.511719E+00 -8.593750E-08  1.031250E-07
        46 -4.511719E+00 -8.593750E-08  1.031250E-07
        47 -9.023437E+00 -8.593750E-08  1.031250E-07
        48 -9.023438E+00 -8.593750E-08  1.031250E-07
        49  0.000000E+00 -4.511719E+00  1.031250E-07
        50 -8.593750E-08 -4.511719E+00  1.031250E-07
        51 -4.511719E+00 -4.511719E+00  1.031250E-07
        52 -4.511719E+00 -4.511719E+00  1.031250E-07
        53 -9.023437E+00 -4.511719E+00  1.031250E-07
        54 -9.023438E+00 -4.511719E+00  1.031250E-07
        55  0.000000E+00 -4.511719E+00  1.031250E-07
        56 -8.593750E-08 -4.511719E+00  1.031250E-07
        57 -4.511719E+00 -4.511719E+00  1.031250E-07
        58 -4.511719E+00 -4.511719E+00  1.031250E-07
        59 -9.023437E+00 -4.511719E+00  1.031250E-07
        60 -9.023438E+00 -4.511719E+00  1.031250E-07
        61  0.000000E+00 -9.023437E+00  1.031250E-07
        62 -8.593750E-08 -9.023437E+00  1.031250E-07
        63 -4.511719E+00 -9.023437E+00  1.031250E-07
        64 -4.511719E+00 -9.023437E+00  1.031250E-07
        65 -9.023437E+00 -9.023437E+00  1.031250E-07
        66 -9.023438E+00 -9.023437E+00  1.031250E-07
        67  0.000000E+00 -9.023438E+00  1.031250E-07
        68 -8.593750E-08 -9.023438E+00  1.031250E-07
        69 -4.511719E+00 -9.023438E+00  1.031250E-07
        70 -4.511719E+00 -9.023438E+00  1.031250E-07
        71 -9.023437E+00 -9.023438E+00  1.031250E-07
        72 -9.023438E+00 -9.023438E+00  1.031250E-07

 stresses (elem, integ.pnt.,sxx,syy,szz,sxy,sxz,syz) for set EALL and time  0.3007813E+00

         1   1 -5.156250E-05 -5.156250E-05  6.776264E-21 -5.219589E-22 -2.087836E-21  1.304897E-21
         1   2 -5.156250E-05 -5.156250E-05  1.355253E-20 -9.656240E-21 -7.176935E-21 -2.022591E-21
         1   3 -5.156250E-05 -5.156250E-05  3.373080E-48  7.307425E-21  1.826856E-21  1.043918E-21
         1   4 -5.156250E-05 -5.156250E-05 -4.675933E-46 -1.826856E-21  7.829384E-21 -1.030869E-20
         1   5 -5.156250E-05 -5.156250E-05  1.011924E-45 -2.609795E-22 -1.957346E-21  6.524487E-21
         1   6 -5.156250E-05 -5.156250E-05 -6.776264E-21  5.480569E-21 -7.046445E-21  1.957346E-22
         1   7 -5.156250E-05 -5.156250E-05  1.133355E-45 -6.785466E-21  6.664297E-31  7.307425E-21
         1   8 -5.156250E-05 -5.156250E-05 -1.001805E-45 -1.043918E-21  5.219589E-21 -8.090363E-21
         2   1 -5.156250E-05 -5.156250E-05 -1.476706E-13 -6.944373E-14  3.387689E-15  2.366599E-15
         2   2 -5.156250E-05 -5.156250E-05 -1.220226E-13 -8.144608E-15  6.906532E-14 -9.108649E-16
         2   3 -5.156250E-05 -5.156250E-05 -1.716393E-13 -6.777060E-14 -7.231289E-14 -2.597124E-15
         2   4 -5.156250E-05 -5.156250E-05 -1.845434E-13 -2.092968E-15 -3.728482E-14  5.921097E-16
         2   5 -5.156250E-05 -5.156250E-05 -1.843655E-13 -6.612997E-14  1.264303E-14  1.379599E-14
         2   6 -5.156250E-05 -5.156250E-05 -1.451374E-13 -1.358786E-14  1.702154E-14 -4.902370E-15
         2   7 -5.156250E-05 -5.156250E-05 -1.032499E-13 -5.540345E-14 -7.847844E-14  8.832266E-15
         2   8 -5.156250E-05 -5.156250E-05 -1.025740E-13  1.465269E-14  4.411980E-14 -3.399396E-15
         3   1 -5.156250E-05 -5.156250E-05  7.895030E-14 -7.958396E-14  1.472384E-13 -7.534859E-15
         3   2 -5.156250E-05 -5.156250E-05  8.857665E-14  1.674323E-14  1.384814E-13  1.134783E-14
         3   3 -5.156250E-05 -5.156250E-05  1.615962E-13 -1.056145E-13  9.685244E-15 -3.490781E-14
         3   4 -5.156250E-05 -5.156250E-05  1.887019E-13 -9.287271E-15  3.249379E-13  2.857161E-14
         3   5 -5.156250E-05 -5.156250E-05 -2.806500E-13 -4.070117E-13  9.665107E-14 -7.475271E-16
         3   6 -5.156250E-05 -5.156250E-05 -1.773705E-13 -9.175909E-14 -2.623866E-13  2.512689E-14
         3   7 -5.156250E-05 -5.156250E-05  1.566552E-13 -3.706068E-13  1.762581E-13 -2.812048E-14
         3   8 -5.156250E-05 -5.156250E-05  2.774140E-13  4.973004E-14 -3.391032E-14  4.235067E-14
         4   1 -5.156250E-05 -5.156250E-05  4.716008E-16 -3.039491E-16 -1.151451E-15 -1.396457E-13
         4   2 -5.156250E-05 -5.156250E-05 -1.370711E-14 -1.134353E-15 -1.252895E-15 -2.921628E-14
         4   3 -5.156250E-05 -5.156250E-05  2.412838E-15 -3.039491E-16 -7.357611E-17 -6.958955E-14
         4   4 -5.156250E-05 -5.156250E-05 -5.163194E-15 -1.134353E-15  1.287208E-16  1.894732E-14
         4   5 -5.156250E-05 -5.156250E-05  1.053428E-13 -1.483018E-16 -4.195830E-15 -5.080078E-14
         4   6 -5.156250E-05 -5.156250E-05  1.240029E-13 -5.534696E-16 -4.297274E-15 -8.659959E-14
         4   7 -5.156250E-05 -5.156250E-05  2.837662E-15 -1.483018E-16 -4.768880E-16 -1.383710E-13
         4   8 -5.156250E-05 -5.156250E-05  2.810043E-14 -5.534696E-16 -2.745921E-16 -9.973512E-14
         5   1 -5.156250E-05 -5.156250E-05  8.027872E-14  1.094627E-13  7.488568E-14 -7.455273E-14
         5   2 -5.156250E-05 -5.156250E-05  4.618412E-14  1.444908E-13  2.234358E-14  1.189018E-15
         5   3 -5.156250E-05 -5.156250E-05 -2.408235E-14  5.254211E-14  6.743577E-14  4.804551E-14
         5   4 -5.156250E-05 -5.156250E-05 -8.795417E-14  3.940658E-14 -2.620374E-15  4.059560E-14
         5   5 -5.156250E-05 -5.156250E-05  7.371095E-14  1.751404E-14  5.202926E-15 -8.214479E-14
         5   6 -5.156250E-05 -5.156250E-05 -1.442810E-13  1.050842E-13  2.271696E-14 -7.085603E-14
         5   7 -5.156250E-05 -5.156250E-05 -5.035340E-14 -7.005614E-14  6.027677E-14 -1.208865E-14
         5   8 -5.156250E-05 -5.156250E-05 -1.733351E-13  3.502807E-14  6.027677E-14 -6.209901E-14
         6   1 -5.156250E-05 -5.156250E-05 -5.999703E-14  2.714675E-13  2.681174E-13 -7.630541E-14
         6   2 -5.156250E-05 -5.156250E-05 -7.044503E-14  9.632719E-14 -1.084343E-13 -7.872006E-14
         6   3 -5.156250E-05 -5.156250E-05 -2.589033E-13  2.451965E-13  1.255905E-13 -1.288475E-13
         6   4 -5.156250E-05 -5.156250E-05 -3.121147E-13  2.627105E-14  5.553434E-14  1.664764E-13
         6   5 -5.156250E-05 -5.156250E-05 -1.519457E-13 -1.050842E-13  3.050962E-13 -1.050144E-14
         6   6 -5.156250E-05 -5.156250E-05 -1.295549E-13  1.050842E-13 -2.465959E-13 -3.702707E-14
         6   7 -5.156250E-05 -5.156250E-05 -2.326323E-13 -7.005614E-14  8.591618E-14 -2.801548E-14
         6   8 -5.156250E-05 -5.156250E-05 -1.741917E-13  7.005614E-14  8.591618E-14  1.731414E-13
         7   1 -5.156250E-05 -5.156250E-05  1.483966E-13  2.816247E-13 -6.525755E-15  5.275215E-14
         7   2 -5.156250E-05 -5.156250E-05 -4.115205E-13  2.854499E-13  1.046078E-14  6.313779E-14
         7   3 -5.156250E-05 -5.156250E-05  2.751921E-13  1.415124E-13  6.140673E-15  1.578364E-13
         7   4 -5.156250E-05 -5.156250E-05 -1.539781E-13  1.453376E-13  5.433835E-15 -1.032455E-13
         7   5 -5.156250E-05 -5.156250E-05 -2.610016E-14 -7.666584E-15 -4.134098E-14 -1.790493E-13
         7   6 -5.156250E-05 -5.156250E-05 -1.131382E-13 -2.861208E-14 -2.435445E-14  1.200745E-13
         7   7 -5.156250E-05 -5.156250E-05  6.353935E-14 -7.666584E-15  2.362414E-14  6.614718E-14
         7   8 -5.156250E-05 -5.156250E-05  1.072480E-13 -2.861208E-14  2.291730E-14 -1.426360E-13
         8   1 -5.156250E-05 -5.156250E-05  2.359596E-13  1.050842E-13  1.767208E-14  6.513150E-14
         8   2 -5.156250E-05 -5.156250E-05 -2.358399E-13 -8.757018E-15  4.536554E-15  6.074789E-14
         8   3 -5.156250E-05 -5.156250E-05  2.773758E-13 -3.502807E-14  4.531448E-15  1.702157E-13
         8   4 -5.156250E-05 -5.156250E-05 -9.887519E-14 -1.444908E-13 -1.005528E-13 -5.512355E-16
         8   5 -5.156250E-05 -5.156250E-05  9.803657E-14 -1.401123E-13 -1.745505E-13 -1.328490E-13
         8   6 -5.156250E-05 -5.156250E-05  9.911604E-14 -1.576263E-13 -1.001159E-13  8.488421E-14
         8   7 -5.156250E-05 -5.156250E-05  9.347840E-14 -1.401123E-13 -5.314454E-14  1.123475E-13
         8   8 -5.156250E-05 -5.156250E-05  1.769709E-13 -1.225982E-13  3.442563E-14  2.358509E-14
         9   1 -5.156250E-05 -5.156250E-05 -2.847716E-13 -3.502807E-14  7.325754E-14 -2.007055E-13
         9   2 -5.156250E-05 -5.156250E-05  1.705667E-13 -1.926544E-13  1.345567E-13 -7.696757E-14
         9   3 -5.156250E-05 -5.156250E-05 -4.697138E-13  2.451965E-13 -1.270142E-13 -1.306494E-13
         9   4 -5.156250E-05 -5.156250E-05 -1.245724E-14  5.254211E-14 -9.198609E-14 -1.557807E-13
         9   5 -5.156250E-05 -5.156250E-05 -2.716361E-13 -2.802246E-13  4.697586E-14 -2.098805E-13
         9   6 -5.156250E-05 -5.156250E-05 -1.972280E-13 -1.050842E-13 -4.935133E-14 -7.661822E-14
         9   7 -5.156250E-05 -5.156250E-05 -2.070033E-13 -4.203368E-13 -9.122942E-14 -1.047963E-13
         9   8 -5.156250E-05 -5.156250E-05  2.502533E-13  8.612666E-32  4.888286E-14  1.423072E-13

 strains (elem, integ.pnt.,exx,eyy,ezz,exy,exz,eyz) forset EALL and time  0.3007813E+00

         1   1 -1.718750E-10 -1.718750E-10  1.473214E-10 -3.231174E-27 -1.292470E-26  8.077936E-27
         1   2 -1.718750E-10 -1.718750E-10  1.473214E-10 -5.977672E-26 -4.442865E-26 -1.252080E-26
         1   3 -1.718750E-10 -1.718750E-10  1.473214E-10  4.523644E-26  1.130911E-26  6.462349E-27
         1   4 -1.718750E-10 -1.718750E-10  1.473214E-10 -1.130911E-26  4.846761E-26 -6.381569E-26
         1   5 -1.718750E-10 -1.718750E-10  1.473214E-10 -1.615587E-27 -1.211690E-26  4.038968E-26
         1   6 -1.718750E-10 -1.718750E-10  1.473214E-10  3.392733E-26 -4.362085E-26  1.211690E-27
         1   7 -1.718750E-10 -1.718750E-10  1.473214E-10 -4.200527E-26 -4.125517E-36  4.523644E-26
         1   8 -1.718750E-10 -1.718750E-10  1.473214E-10 -6.462349E-27  3.231174E-26 -5.008320E-26
         2   1 -1.718750E-10 -1.718750E-10  1.473214E-10 -4.298898E-19  2.097141E-20  1.465038E-20
         2   2 -1.718750E-10 -1.718750E-10  1.473214E-10 -5.041900E-20  4.275472E-19 -5.638687E-21
         2   3 -1.718750E-10 -1.718750E-10  1.473214E-10 -4.195323E-19 -4.476512E-19 -1.607743E-20
         2   4 -1.718750E-10 -1.718750E-10  1.473214E-10 -1.295647E-20 -2.308108E-19  3.665441E-21
         2   5 -1.718750E-10 -1.718750E-10  1.473214E-10 -4.093760E-19  7.826637E-20  8.540375E-20
         2   6 -1.718750E-10 -1.718750E-10  1.473214E-10 -8.411532E-20  1.053714E-19 -3.034800E-20
         2   7 -1.718750E-10 -1.718750E-10  1.473214E-10 -3.429738E-19 -4.858189E-19  5.467593E-20
         2   8 -1.718750E-10 -1.718750E-10  1.473214E-10  9.070711E-20  2.731226E-19 -2.104388E-20
         3   1 -1.718750E-10 -1.718750E-10  1.473214E-10 -4.926626E-19  9.114756E-19 -4.664436E-20
         3   2 -1.718750E-10 -1.718750E-10  1.473214E-10  1.036486E-19  8.572655E-19  7.024847E-20
         3   3 -1.718750E-10 -1.718750E-10  1.473214E-10 -6.538038E-19  5.995627E-20 -2.160960E-19
         3   4 -1.718750E-10 -1.718750E-10  1.473214E-10 -5.749263E-20  2.011520E-18  1.768718E-19
         3   5 -1.718750E-10 -1.718750E-10  1.473214E-10 -2.519596E-18  5.983162E-19 -4.627549E-21
         3   6 -1.718750E-10 -1.718750E-10  1.473214E-10 -5.680324E-19 -1.624298E-18  1.555474E-19
         3   7 -1.718750E-10 -1.718750E-10  1.473214E-10 -2.294233E-18  1.091122E-18 -1.740791E-19
         3   8 -1.718750E-10 -1.718750E-10  1.473214E-10  3.078526E-19 -2.099210E-19  2.621708E-19
         4   1 -1.718750E-10 -1.718750E-10  1.473214E-10 -1.881590E-21 -7.128030E-21 -8.644733E-19
         4   2 -1.718750E-10 -1.718750E-10  1.473214E-10 -7.022188E-21 -7.756015E-21 -1.808627E-19
         4   3 -1.718750E-10 -1.718750E-10  1.473214E-10 -1.881590E-21 -4.554712E-22 -4.307925E-19
         4   4 -1.718750E-10 -1.718750E-10  1.473214E-10 -7.022188E-21  7.968431E-22  1.172929E-19
         4   5 -1.718750E-10 -1.718750E-10  1.473214E-10 -9.180590E-22 -2.597419E-20 -3.144810E-19
         4   6 -1.718750E-10 -1.718750E-10  1.473214E-10 -3.426240E-21 -2.660217E-20 -5.360927E-19
         4   7 -1.718750E-10 -1.718750E-10  1.473214E-10 -9.180590E-22 -2.952164E-21 -8.565821E-19
         4   8 -1.718750E-10 -1.718750E-10  1.473214E-10 -3.426240E-21 -1.699856E-21 -6.174079E-19
         5   1 -1.718750E-10 -1.718750E-10  1.473214E-10  6.776264E-19  4.635780E-19 -4.615169E-19
         5   2 -1.718750E-10 -1.718750E-10  1.473214E-10  8.944668E-19  1.383174E-19  7.360588E-21
         5   3 -1.718750E-10 -1.718750E-10  1.473214E-10  3.252607E-19  4.174595E-19  2.974246E-19
         5   4 -1.718750E-10 -1.718750E-10  1.473214E-10  2.439455E-19 -1.622136E-20  2.513061E-19
         5   5 -1.718750E-10 -1.718750E-10  1.473214E-10  1.084202E-19  3.220859E-20 -5.085153E-19
         5   6 -1.718750E-10 -1.718750E-10  1.473214E-10  6.505213E-19  1.406288E-19 -4.386326E-19
         5   7 -1.718750E-10 -1.718750E-10  1.473214E-10 -4.336809E-19  3.731419E-19 -7.483447E-20
         5   8 -1.718750E-10 -1.718750E-10  1.473214E-10  2.168404E-19  3.731419E-19 -3.844224E-19
         6   1 -1.718750E-10 -1.718750E-10  1.473214E-10  1.680513E-18  1.659774E-18 -4.723669E-19
         6   2 -1.718750E-10 -1.718750E-10  1.473214E-10  5.963112E-19 -6.712602E-19 -4.873147E-19
         6   3 -1.718750E-10 -1.718750E-10  1.473214E-10  1.517883E-18  7.774649E-19 -7.976275E-19
         6   4 -1.718750E-10 -1.718750E-10  1.473214E-10  1.626303E-19  3.437840E-19  1.030568E-18
         6   5 -1.718750E-10 -1.718750E-10  1.473214E-10 -6.505213E-19  1.888691E-18 -6.500894E-20
         6   6 -1.718750E-10 -1.718750E-10  1.473214E-10  6.505213E-19 -1.526546E-18 -2.292152E-19
         6   7 -1.718750E-10 -1.718750E-10  1.473214E-10 -4.336809E-19  5.318621E-19 -1.734292E-19
         6   8 -1.718750E-10 -1.718750E-10  1.473214E-10  4.336809E-19  5.318621E-19  1.071827E-18
         7   1 -1.718750E-10 -1.718750E-10  1.473214E-10  1.743391E-18 -4.039753E-20  3.265610E-19
         7   2 -1.718750E-10 -1.718750E-10  1.473214E-10  1.767071E-18  6.475718E-20  3.908530E-19
         7   3 -1.718750E-10 -1.718750E-10  1.473214E-10  8.760292E-19  3.801369E-20  9.770823E-19
         7   4 -1.718750E-10 -1.718750E-10  1.473214E-10  8.997091E-19  3.363803E-20 -6.391391E-19
         7   5 -1.718750E-10 -1.718750E-10  1.473214E-10 -4.745980E-20 -2.559204E-19 -1.108400E-18
         7   6 -1.718750E-10 -1.718750E-10  1.473214E-10 -1.771224E-19 -1.507656E-19  7.433183E-19
         7   7 -1.718750E-10 -1.718750E-10  1.473214E-10 -4.745980E-20  1.462447E-19  4.094826E-19
         7   8 -1.718750E-10 -1.718750E-10  1.473214E-10 -1.771224E-19  1.418690E-19 -8.829850E-19
         8   1 -1.718750E-10 -1.718750E-10  1.473214E-10  6.505213E-19  1.093986E-19  4.031950E-19
         8   2 -1.718750E-10 -1.718750E-10  1.473214E-10 -5.421011E-20  2.808343E-20  3.760584E-19
         8   3 -1.718750E-10 -1.718750E-10  1.473214E-10 -2.168404E-19  2.805182E-20  1.053716E-18
         8   4 -1.718750E-10 -1.718750E-10  1.473214E-10 -8.944668E-19 -6.224695E-19 -3.412410E-21
         8   5 -1.718750E-10 -1.718750E-10  1.473214E-10 -8.673617E-19 -1.080551E-18 -8.223983E-19
         8   6 -1.718750E-10 -1.718750E-10  1.473214E-10 -9.757820E-19 -6.197649E-19  5.254737E-19
         8   7 -1.718750E-10 -1.718750E-10  1.473214E-10 -8.673617E-19 -3.289900E-19  6.954848E-19
         8   8 -1.718750E-10 -1.718750E-10  1.473214E-10 -7.589415E-19  2.131111E-19  1.460029E-19
         9   1 -1.718750E-10 -1.718750E-10  1.473214E-10 -2.168404E-19  4.534991E-19 -1.242463E-18
         9   2 -1.718750E-10 -1.718750E-10  1.473214E-10 -1.192622E-18  8.329698E-19 -4.764659E-19
         9   3 -1.718750E-10 -1.718750E-10  1.473214E-10  1.517883E-18 -7.862781E-19 -8.087819E-19
         9   4 -1.718750E-10 -1.718750E-10  1.473214E-10  3.252607E-19 -5.694377E-19 -9.643569E-19
         9   5 -1.718750E-10 -1.718750E-10  1.473214E-10 -1.734723E-18  2.908030E-19 -1.299260E-18
         9   6 -1.718750E-10 -1.718750E-10  1.473214E-10 -6.505213E-19 -3.055082E-19 -4.743033E-19
         9   7 -1.718750E-10 -1.718750E-10  1.473214E-10 -2.602085E-18 -5.647536E-19 -6.487388E-19
         9   8 -1.718750E-10 -1.718750E-10  1.473214E-10  2.706943E-37  3.026082E-19  8.809495E-19

 displacements (vx,vy,vz) for set NALL and time  0.3097813E+00

         1  0.000000E+00  0.000000E+00  0.000000E+00
         2 -8.850893E-08  0.000000E+00  0.000000E+00
         3 -4.646719E+00  0.000000E+00  0.000000E+00
         4 -4.646719E+00  0.000000E+00  0.000000E+00
         5 -9.293437E+00  0.000000E+00  0.000000E+00
         6 -9.293438E+00  0.000000E+00  0.000000E+00
         7  0.000000E+00 -8.850893E-08  0.000000E+00
         8 -8.850893E-08 -8.850893E-08  0.000000E+00
         9 -4.646719E+00 -8.850893E-08  0.000000E+00
        10 -4.646719E+00 -8.850893E-08  0.000000E+00
        11 -9.293437E+00 -8.850893E-08  0.000000E+00
        12 -9.293438E+00 -8.850893E-08  0.000000E+00
        13  0.000000E+00 -4.646719E+00  0.000000E+00
        14 -8.850893E-08 -4.646719E+00  0.000000E+00
        15 -4.646719E+00 -4.646719E+00  0.000000E+00
        16 -4.646719E+00 -4.646719E+00  0.000000E+00
        17 -9.293437E+00 -4.646719E+00  0.000000E+00
        18 -9.293438E+00 -4.646719E+00  0.000000E+00
        19  0.000000E+00 -4.646719E+00  0.000000E+00
        20 -8.850893E-08 -4.646719E+00  0.000000E+00
        21 -4.646719E+00 -4.646719E+00  0.000000E+00
        22 -4.646719E+00 -4.646719E+00  0.000000E+00
        23 -9.293437E+00 -4.646719E+00  0.000000E+00
        24 -9.293438E+00 -4.646719E+00  0.000000E+00
        25  0.000000E+00 -9.293437E+00  0.000000E+00
        26 -8.850893E-08 -9.293437E+00  0.000000E+00
        27 -4.646719E+00 -9.293437E+00  0.000000E+00
        28 -4.646719E+00 -9.293437E+00  0.000000E+00
        29 -9.293437E+00 -9.293437E+00  0.000000E+00
        30 -9.293438E+00 -9.293437E+00  0.000000E+00
        31  0.000000E+00 -9.293438E+00  0.000000E+00
        32 -8.850893E-08 -9.293438E+00  0.000000E+00
        33 -4.646719E+00 -9.293438E+00  0.000000E+00
        34 -4.646719E+00 -9.293438E+00  0.000000E+00
        35 -9.293437E+00 -9.293438E+00  0.000000E+00
        36 -9.293438E+00 -9.293438E+00  0.000000E+00
        37  0.000000E+00  0.000000E+00  1.062107E-07
        38 -8.850893E-08  0.000000E+00  1.062107E-07
        39 -4.646719E+00  0.000000E+00  1.062107E-07
        40 -4.646719E+00  0.000000E+00  1.062107E-07
        41 -9.293437E+00  0.000000E+00  1.062107E-07
        42 -9.293438E+00  0.000000E+00  1.062107E-07
        43  0.000000E+00 -8.850893E-08  1.062107E-07
        44 -8.850893E-08 -8.850893E-08  1.062107E-07
        45 -4.646719E+00 -8.850893E-08  1.062107E-07
        46 -4.646719E+00 -8.850893E-08  1.062107E-07
        47 -9.293437E+00 -8.850893E-08  1.062107E-07
        48 -9.293438E+00 -8.850893E-08  1.062107E-07
        49  0.000000E+00 -4.646719E+00  1.062107E-07
        50 -8.850893E-08 -4.646719E+00  1.062107E-07
        51 -4.646719E+00 -4.646719E+00  1.062107E-07
        52 -4.646719E+00 -4.646719E+00  1.062107E-07
        53 -9.293437E+00 -4.646719E+00  1.062107E-07
        54 -9.293438E+00 -4.646719E+00  1.062107E-07
        55  0.000000E+00 -4.646719E+00  1.062107E-07
        56 -8.850893E-08 -4.646719E+00  1.062107E-07
        57 -4.646719E+00 -4.646719E+00  1.062107E-07
        58 -4.646719E+00 -4.646719E+00  1.062107E-07
        59 -9.293437E+00 -4.646719E+00  1.062107E-07
        60 -9.293438E+00 -4.646719E+00  1.062107E-07
        61  0.000000E+00 -9.293437E+00  1.062107E-07
        62 -8.850893E-08 -9.293437E+00  1.062107E-07
        63 -4.646719E+00 -9.293437E+00  1.062107E-07
        64 -4.646719E+00 -9.293437E+00  1.062107E-07
        65 -9.293437E+00 -9.293437E+00  1.062107E-07
        66 -9.293438E+00 -9.293437E+00  1.062107E-07
        67  0.000000E+00 -9.293438E+00  1.062107E-07
        68 -8.850893E-08 -9.293438E+00  1.062107E-07
        69 -4.646719E+00 -9.293438E+00  1.062107E-07
        70 -4.646719E+00 -9.293438E+00  1.062107E-07
        71 -9.293437E+00 -9.293438E+00  1.062107E-07
        72 -9.293438E+00 -9.293438E+00  1.062107E-07

 stresses (elem, integ.pnt.,sxx,syy,szz,sxy,sxz,syz) for set EALL and time  0.3097813E+00

         1   1 -5.310536E-05 -5.310536E-05  6.776264E-21 -2.192502E-47 -1.109163E-21  5.219589E-22
         1   2 -5.310536E-05 -5.310536E-05  1.355253E-20  5.219589E-22 -6.915956E-21  2.144908E-31
         1   3 -5.310536E-05 -5.310536E-05  6.776264E-21 -1.043918E-21 -7.829384E-22  1.043918E-21
         1   4 -5.310536E-05 -5.310536E-05  6.776264E-21 -5.219589E-22 -7.307425E-21  1.957346E-21
         1   5 -5.310536E-05 -5.310536E-05 -6.776264E-21  5.219589E-22  2.414060E-21  5.219589E-22
         1   6 -5.310536E-05 -5.310536E-05 -3.592331E-46  1.043918E-21 -3.392733E-21 -9.134281E-22
         1   7 -5.310536E-05 -5.310536E-05 -6.776264E-21  5.219589E-22  2.348815E-21  1.043918E-21
         1   8 -5.310536E-05 -5.310536E-05 -6.776264E-21  1.043918E-21 -4.175671E-21  1.043918E-21
         2   1 -5.310536E-05 -5.310536E-05  7.755183E-14 -2.048469E-15 -1.114521E-14  1.674615E-15
         2   2 -5.310536E-05 -5.310536E-05  1.126570E-13  3.735811E-14  6.766795E-14 -5.929879E-16
         2   3 -5.310536E-05 -5.310536E-05  4.682851E-14 -7.644990E-15  1.034748E-15 -2.477774E-15
         2   4 -5.310536E-05 -5.310536E-05  4.550121E-14  4.051861E-14 -8.653543E-14  3.632402E-15
         2   5 -5.310536E-05 -5.310536E-05  6.883182E-14 -6.781154E-14  6.254757E-15  1.040214E-14
         2   6 -5.310536E-05 -5.310536E-05  1.215303E-13 -3.278347E-14 -6.817989E-14 -6.438449E-15
         2   7 -5.310536E-05 -5.310536E-05  1.431927E-13 -6.167917E-14  3.861730E-15  6.249746E-15
         2   8 -5.310536E-05 -5.310536E-05  1.594587E-13 -9.137065E-15  2.137576E-14 -2.213062E-15
         3   1 -5.310536E-05 -5.310536E-05  9.438189E-14 -9.812961E-14  2.600379E-14  1.150827E-15
         3   2 -5.310536E-05 -5.310536E-05  6.124535E-14  9.452477E-14  1.724677E-14  2.514489E-15
         3   3 -5.310536E-05 -5.310536E-05  2.178234E-13 -7.912930E-14 -2.323866E-14 -1.881062E-14
         3   4 -5.310536E-05 -5.310536E-05  8.760091E-14 -3.534421E-14  8.184555E-14  2.511303E-14
         3   5 -5.310536E-05 -5.310536E-05 -3.948584E-14 -1.113484E-13  3.637706E-14  2.425639E-14
         3   6 -5.310536E-05 -5.310536E-05  1.675361E-14 -6.264220E-15  3.637706E-14 -1.321434E-14
         3   7 -5.310536E-05 -5.310536E-05  7.082017E-14 -1.728764E-13  5.338443E-14  4.294947E-15
         3   8 -5.310536E-05 -5.310536E-05  2.997364E-14 -1.378483E-13  5.338443E-14  9.384201E-15
         4   1 -5.310536E-05 -5.310536E-05 -5.860817E-14 -1.090035E-14  2.083537E-15  5.273398E-14
         4   2 -5.310536E-05 -5.310536E-05 -9.664192E-14 -1.675603E-14  1.972521E-15  2.277695E-14
         4   3 -5.310536E-05 -5.310536E-05 -6.608119E-14 -3.717140E-14 -1.031584E-15  1.403042E-13
         4   4 -5.310536E-05 -5.310536E-05 -1.292906E-13 -4.302708E-14  4.170118E-16 -3.852218E-14
         4   5 -5.310536E-05 -5.310536E-05 -5.884132E-14 -3.637220E-14  7.886883E-15 -1.679796E-14
         4   6 -5.310536E-05 -5.310536E-05 -9.687506E-14 -4.004442E-14  7.775868E-15 -4.806826E-14
         4   7 -5.310536E-05 -5.310536E-05 -6.303914E-14 -7.140027E-14 -5.298523E-15  1.408284E-13
         4   8 -5.310536E-05 -5.310536E-05 -1.262486E-13 -7.507249E-14 -3.849927E-15  1.095581E-13
         5   1 -5.310536E-05 -5.310536E-05 -3.989406E-13  6.129912E-14 -7.955872E-14 -5.920991E-14
         5   2 -5.310536E-05 -5.310536E-05 -1.077819E-13  3.502807E-14  8.682462E-14 -7.668039E-14
         5   3 -5.310536E-05 -5.310536E-05 -3.182918E-13  8.757018E-14 -9.459020E-15 -5.920991E-14
         5   4 -5.310536E-05 -5.310536E-05 -1.398908E-13  1.007057E-13  2.556905E-14  2.840382E-14
         5   5 -5.310536E-05 -5.310536E-05 -3.661018E-13  6.276092E-30  2.989916E-14 -1.171476E-13
         5   6 -5.310536E-05 -5.310536E-05 -7.494308E-14 -1.751404E-14  1.437404E-13  5.927525E-15
         5   7 -5.310536E-05 -5.310536E-05 -2.920207E-13  7.005614E-14 -3.530154E-14 -2.957747E-14
         5   8 -5.310536E-05 -5.310536E-05 -6.764543E-14  7.005614E-14 -1.578998E-13  1.030603E-14
         6   1 -5.310536E-05 -5.310536E-05 -7.994838E-14  5.254211E-14 -4.909946E-14 -6.412547E-15
         6   2 -5.310536E-05 -5.310536E-05 -1.629223E-13 -8.757018E-15 -7.537051E-14 -4.330617E-14
         6   3 -5.310536E-05 -5.310536E-05 -4.353040E-14  3.502807E-14 -2.469396E-14  1.110149E-14
         6   4 -5.310536E-05 -5.310536E-05 -9.397353E-14  3.502807E-14  8.039025E-14 -8.709126E-14
         6   5 -5.310536E-05 -5.310536E-05  6.454241E-14 -3.277160E-32  1.754099E-14  5.894535E-14
         6   6 -5.310536E-05 -5.310536E-05 -1.103801E-13  7.005614E-14 -7.878620E-14 -9.016133E-14
         6   7 -5.310536E-05 -5.310536E-05  1.929091E-13 -1.401123E-13  4.795317E-14  4.143132E-14
         6   8 -5.310536E-05 -5.310536E-05 -1.071091E-13  1.449359E-31  1.180093E-13  3.681543E-14
         7   1 -5.310536E-05 -5.310536E-05 -1.327753E-13 -6.790615E-14 -6.815175E-16  1.743615E-14
         7   2 -5.310536E-05 -5.310536E-05 -1.182330E-13 -6.203227E-14 -1.361461E-14 -1.501773E-13
         7   3 -5.310536E-05 -5.310536E-05 -4.873380E-15  2.149990E-15  5.048736E-15  1.743615E-14
         7   4 -5.310536E-05 -5.310536E-05  1.266958E-15  8.023869E-15  1.113179E-14  5.123408E-14
         7   5 -5.310536E-05 -5.310536E-05 -5.485061E-14 -1.282177E-13  1.038964E-14 -7.503968E-14
         7   6 -5.310536E-05 -5.310536E-05 -2.717271E-14 -9.572125E-14 -2.543456E-15 -1.833151E-14
         7   7 -5.310536E-05 -5.310536E-05  1.129853E-13 -1.282177E-13  1.275908E-14 -7.503968E-14
         7   8 -5.310536E-05 -5.310536E-05  1.322611E-13 -9.572125E-14  1.884214E-14 -1.847148E-13
         8   1 -5.310536E-05 -5.310536E-05 -5.163351E-14  7.005614E-14 -5.006489E-14  3.480681E-14
         8   2 -5.310536E-05 -5.310536E-05 -4.784937E-14  6.567763E-14  1.561274E-14 -2.953179E-14
         8   3 -5.310536E-05 -5.310536E-05 -4.657703E-14  7.005614E-14 -5.622562E-16 -2.212641E-16
         8   4 -5.310536E-05 -5.310536E-05 -5.041731E-14  3.502807E-14  8.700792E-14 -3.260733E-15
         8   5 -5.310536E-05 -5.310536E-05  2.176448E-13  7.005614E-14 -2.578299E-14 -1.059100E-13
         8   6 -5.310536E-05 -5.310536E-05  2.345644E-13  1.751404E-14  4.866574E-15  3.161587E-14
         8   7 -5.310536E-05 -5.310536E-05  8.477825E-14  2.101684E-13  1.380139E-13 -8.257662E-16
         8   8 -5.310536E-05 -5.310536E-05  1.334801E-13  5.254211E-14  5.044373E-14 -8.222536E-14
         9   1 -5.310536E-05 -5.310536E-05 -1.279716E-13  3.502807E-14 -2.630669E-14 -5.504688E-14
         9   2 -5.310536E-05 -5.310536E-05 -6.840339E-14 -2.627105E-14  1.751047E-13  1.170936E-13
         9   3 -5.310536E-05 -5.310536E-05 -6.486300E-14  3.502807E-14 -1.179255E-14  1.500926E-14
         9   4 -5.310536E-05 -5.310536E-05 -1.585432E-13  3.502807E-14  9.329166E-14 -5.504679E-15
         9   5 -5.310536E-05 -5.310536E-05 -9.751809E-15 -1.401123E-13 -7.253556E-14 -4.906889E-14
         9   6 -5.310536E-05 -5.310536E-05 -1.078100E-13 -3.502807E-14  1.503461E-14 -9.059988E-14
         9   7 -5.310536E-05 -5.310536E-05  1.453054E-13 -1.401123E-13 -4.401041E-14  5.601532E-14
         9   8 -5.310536E-05 -5.310536E-05 -1.979497E-13 -1.050842E-13  2.604573E-14  8.454047E-14

 strains (elem, integ.pnt.,exx,eyy,ezz,exy,exz,eyz) forset EALL and time  0.3097813E+00

         1   1 -1.770179E-10 -1.770179E-10  1.517296E-10  0.000000E+00 -6.866245E-27  3.231174E-27
         1   2 -1.770179E-10 -1.770179E-10  1.517296E-10  3.231174E-27 -4.281306E-26 -1.327800E-36
         1   3 -1.770179E-10 -1.770179E-10  1.517296E-10 -6.462349E-27 -4.846761E-27  6.462349E-27
         1   4 -1.770179E-10 -1.770179E-10  1.517296E-10 -3.231174E-27 -4.523644E-26  1.211690E-26
         1   5 -1.770179E-10 -1.770179E-10  1.517296E-10  3.231174E-27  1.494418E-26  3.231174E-27
         1   6 -1.770179E-10 -1.770179E-10  1.517296E-10  6.462349E-27 -2.100263E-26 -5.654555E-27
         1   7 -1.770179E-10 -1.770179E-10  1.517296E-10  3.231174E-27  1.454028E-26  6.462349E-27
         1   8 -1.770179E-10 -1.770179E-10  1.517296E-10  6.462349E-27 -2.584939E-26  6.462349E-27
         2   1 -1.770179E-10 -1.770179E-10  1.517296E-10 -1.268100E-20 -6.899413E-20  1.036666E-20
         2   2 -1.770179E-10 -1.770179E-10  1.517296E-10  2.312645E-19  4.188968E-19 -3.670877E-21
         2   3 -1.770179E-10 -1.770179E-10  1.517296E-10 -4.732613E-20  6.405580E-21 -1.533860E-20
         2   4 -1.770179E-10 -1.770179E-10  1.517296E-10  2.508295E-19 -5.356955E-19  2.248630E-20
         2   5 -1.770179E-10 -1.770179E-10  1.517296E-10 -4.197857E-19  3.871993E-20  6.439417E-20
         2   6 -1.770179E-10 -1.770179E-10  1.517296E-10 -2.029453E-19 -4.220660E-19 -3.985707E-20
         2   7 -1.770179E-10 -1.770179E-10  1.517296E-10 -3.818234E-19  2.390595E-20  3.868890E-20
         2   8 -1.770179E-10 -1.770179E-10  1.517296E-10 -5.656278E-20  1.323262E-19 -1.369991E-20
         3   1 -1.770179E-10 -1.770179E-10  1.517296E-10 -6.074690E-19  1.609758E-19  7.124167E-21
         3   2 -1.770179E-10 -1.770179E-10  1.517296E-10  5.851534E-19  1.067657E-19  1.556588E-20
         3   3 -1.770179E-10 -1.770179E-10  1.517296E-10 -4.898480E-19 -1.438584E-19 -1.164467E-19
         3   4 -1.770179E-10 -1.770179E-10  1.517296E-10 -2.187975E-19  5.066629E-19  1.554616E-19
         3   5 -1.770179E-10 -1.770179E-10  1.517296E-10 -6.892998E-19  2.251913E-19  1.501586E-19
         3   6 -1.770179E-10 -1.770179E-10  1.517296E-10 -3.877850E-20  2.251913E-19 -8.180305E-20
         3   7 -1.770179E-10 -1.770179E-10  1.517296E-10 -1.070187E-18  3.304750E-19  2.658777E-20
         3   8 -1.770179E-10 -1.770179E-10  1.517296E-10 -8.533469E-19  3.304750E-19  5.809267E-20
         4   1 -1.770179E-10 -1.770179E-10  1.517296E-10 -6.747833E-20  1.289809E-20  3.264484E-19
         4   2 -1.770179E-10 -1.770179E-10  1.517296E-10 -1.037278E-19  1.221085E-20  1.410001E-19
         4   3 -1.770179E-10 -1.770179E-10  1.517296E-10 -2.301087E-19 -6.385998E-21  8.685495E-19
         4   4 -1.770179E-10 -1.770179E-10  1.517296E-10 -2.663581E-19  2.581501E-21 -2.384706E-19
         4   5 -1.770179E-10 -1.770179E-10  1.517296E-10 -2.251612E-19  4.882356E-20 -1.039874E-19
         4   6 -1.770179E-10 -1.770179E-10  1.517296E-10 -2.478940E-19  4.813632E-20 -2.975654E-19
         4   7 -1.770179E-10 -1.770179E-10  1.517296E-10 -4.420017E-19 -3.280038E-20  8.717946E-19
         4   8 -1.770179E-10 -1.770179E-10  1.517296E-10 -4.647345E-19 -2.383288E-20  6.782166E-19
         5   1 -1.770179E-10 -1.770179E-10  1.517296E-10  3.794708E-19 -4.925064E-19 -3.665376E-19
         5   2 -1.770179E-10 -1.770179E-10  1.517296E-10  2.168404E-19  5.374857E-19 -4.746881E-19
         5   3 -1.770179E-10 -1.770179E-10  1.517296E-10  5.421011E-19 -5.855584E-20 -3.665376E-19
         5   4 -1.770179E-10 -1.770179E-10  1.517296E-10  6.234162E-19  1.582846E-19  1.758332E-19
         5   5 -1.770179E-10 -1.770179E-10  1.517296E-10 -3.902769E-35  1.850901E-19 -7.251997E-19
         5   6 -1.770179E-10 -1.770179E-10  1.517296E-10 -1.084202E-19  8.898215E-19  3.669420E-20
         5   7 -1.770179E-10 -1.770179E-10  1.517296E-10  4.336809E-19 -2.185334E-19 -1.830986E-19
         5   8 -1.770179E-10 -1.770179E-10  1.517296E-10  4.336809E-19 -9.774749E-19  6.379925E-20
         6   1 -1.770179E-10 -1.770179E-10  1.517296E-10  3.252607E-19 -3.039491E-19 -3.969672E-20
         6   2 -1.770179E-10 -1.770179E-10  1.517296E-10 -5.421011E-20 -4.665794E-19 -2.680858E-19
         6   3 -1.770179E-10 -1.770179E-10  1.517296E-10  2.168404E-19 -1.528674E-19  6.872350E-20
         6   4 -1.770179E-10 -1.770179E-10  1.517296E-10  2.168404E-19  4.976539E-19 -5.391363E-19
         6   5 -1.770179E-10 -1.770179E-10  1.517296E-10  2.093984E-37  1.085871E-19  3.648998E-19
         6   6 -1.770179E-10 -1.770179E-10  1.517296E-10  4.336809E-19 -4.877241E-19 -5.581416E-19
         6   7 -1.770179E-10 -1.770179E-10  1.517296E-10 -8.673617E-19  2.968530E-19  2.564796E-19
         6   8 -1.770179E-10 -1.770179E-10  1.517296E-10 -1.262489E-38  7.305338E-19  2.279050E-19
         7   1 -1.770179E-10 -1.770179E-10  1.517296E-10 -4.203714E-19 -4.218918E-21  1.079381E-19
         7   2 -1.770179E-10 -1.770179E-10  1.517296E-10 -3.840093E-19 -8.428094E-20 -9.296691E-19
         7   3 -1.770179E-10 -1.770179E-10  1.517296E-10  1.330946E-20  3.125408E-20  1.079381E-19
         7   4 -1.770179E-10 -1.770179E-10  1.517296E-10  4.967157E-20  6.891110E-20  3.171634E-19
         7   5 -1.770179E-10 -1.770179E-10  1.517296E-10 -7.937289E-19  6.431682E-20 -4.645313E-19
         7   6 -1.770179E-10 -1.770179E-10  1.517296E-10 -5.925601E-19 -1.574521E-20 -1.134808E-19
         7   7 -1.770179E-10 -1.770179E-10  1.517296E-10 -7.937289E-19  7.898480E-20 -4.645313E-19
         7   8 -1.770179E-10 -1.770179E-10  1.517296E-10 -5.925601E-19  1.166418E-19 -1.143473E-18
         8   1 -1.770179E-10 -1.770179E-10  1.517296E-10  4.336809E-19 -3.099255E-19  2.154707E-19
         8   2 -1.770179E-10 -1.770179E-10  1.517296E-10  4.065758E-19  9.665029E-20 -1.828158E-19
         8   3 -1.770179E-10 -1.770179E-10  1.517296E-10  4.336809E-19 -3.480634E-21 -1.369730E-21
         8   4 -1.770179E-10 -1.770179E-10  1.517296E-10  2.168404E-19  5.386205E-19 -2.018549E-20
         8   5 -1.770179E-10 -1.770179E-10  1.517296E-10  4.336809E-19 -1.596090E-19 -6.556332E-19
         8   6 -1.770179E-10 -1.770179E-10  1.517296E-10  1.084202E-19  3.012641E-20  1.957173E-19
         8   7 -1.770179E-10 -1.770179E-10  1.517296E-10  1.301043E-18  8.543718E-19 -5.111886E-21
         8   8 -1.770179E-10 -1.770179E-10  1.517296E-10  3.252607E-19  3.122707E-19 -5.090141E-19
         9   1 -1.770179E-10 -1.770179E-10  1.517296E-10  2.168404E-19 -1.628509E-19 -3.407664E-19
         9   2 -1.770179E-10 -1.770179E-10  1.517296E-10 -1.626303E-19  1.083982E-18  7.248649E-19
         9   3 -1.770179E-10 -1.770179E-10  1.517296E-10  2.168404E-19 -7.300152E-20  9.291446E-20
         9   4 -1.770179E-10 -1.770179E-10  1.517296E-10  2.168404E-19  5.775198E-19 -3.407659E-20
         9   5 -1.770179E-10 -1.770179E-10  1.517296E-10 -8.673617E-19 -4.490297E-19 -3.037598E-19
         9   6 -1.770179E-10 -1.770179E-10  1.517296E-10 -2.168404E-19  9.307142E-20 -5.608564E-19
         9   7 -1.770179E-10 -1.770179E-10  1.517296E-10 -8.673617E-19 -2.724454E-19  3.467615E-19
         9   8 -1.770179E-10 -1.770179E-10  1.517296E-10 -6.505213E-19  1.612355E-19  5.233458E-19

 displacements (vx,vy,vz) for set NALL and time  0.3187813E+00

         1  0.000000E+00  0.000000E+00  0.000000E+00
         2 -9.108035E-08  0.000000E+00  0.000000E+00
         3 -4.781719E+00  0.000000E+00  0.000000E+00
         4 -4.781719E+00  0.000000E+00  0.000000E+00
         5 -9.563437E+00  0.000000E+00  0.000000E+00
         6 -9.563438E+00  0.000000E+00  0.000000E+00
         7  0.000000E+00 -9.108035E-08  0.000000E+00
         8 -9.108035E-08 -9.108035E-08  0.000000E+00
         9 -4.781719E+00 -9.108035E-08  0.000000E+00
        10 -4.781719E+00 -9.108035E-08  0.000000E+00
        11 -9.563437E+00 -9.108035E-08  0.000000E+00
        12 -9.563438E+00 -9.108035E-08  0.000000E+00
        13  0.000000E+00 -4.781719E+00  0.000000E+00
        14 -9.108035E-08 -4.781719E+00  0.000000E+00
        15 -4.781719E+00 -4.781719E+00  0.000000E+00
        16 -4.781719E+00 -4.781719E+00  0.000000E+00
        17 -9.563437E+00 -4.781719E+00  0.000000E+00
        18 -9.563438E+00 -4.781719E+00  0.000000E+00
        19  0.000000E+00 -4.781719E+00  0.000000E+00
        20 -9.108035E-08 -4.781719E+00  0.000000E+00
        21 -4.781719E+00 -4.781719E+00  0.000000E+00
        22 -4.781719E+00 -4.781719E+00  0.000000E+00
        23 -9.563437E+00 -4.781719E+00  0.000000E+00
        24 -9.563438E+00 -4.781719E+00  0.000000E+00
        25  0.000000E+00 -9.563437E+00  0.000000E+00
        26 -9.108035E-08 -9.563437E+00  0.000000E+00
        27 -4.781719E+00 -9.563437E+00  0.000000E+00
        28 -4.781719E+00 -9.563437E+00  0.000000E+00
        29 -9.563437E+00 -9.563437E+00  0.000000E+00
        30 -9.563438E+00 -9.563437E+00  0.000000E+00
        31  0.000000E+00 -9.563438E+00  0.000000E+00
        32 -9.108035E-08 -9.563438E+00  0.000000E+00
        33 -4.781719E+00 -9.563438E+00  0.000000E+00
        34 -4.781719E+00 -9.563438E+00  0.000000E+00
        35 -9.563437E+00 -9.563438E+00  0.000000E+00
        36 -9.563438E+00 -9.563438E+00  0.000000E+00
        37  0.000000E+00  0.000000E+00  1.092964E-07
        38 -9.108035E-08  0.000000E+00  1.092964E-07
        39 -4.781719E+00  0.000000E+00  1.092964E-07
        40 -4.781719E+00  0.000000E+00  1.092964E-07
        41 -9.563437E+00  0.000000E+00  1.092964E-07
        42 -9.563438E+00  0.000000E+00  1.092964E-07
        43  0.000000E+00 -9.108035E-08  1.092964E-07
        44 -9.108035E-08 -9.108035E-08  1.092964E-07
        45 -4.781719E+00 -9.108035E-08  1.092964E-07
        46 -4.781719E+00 -9.108035E-08  1.092964E-07
        47 -9.563437E+00 -9.108035E-08  1.092964E-07
        48 -9.563438E+00 -9.108035E-08  1.092964E-07
        49  0.000000E+00 -4.781719E+00  1.092964E-07
        50 -9.108035E-08 -4.781719E+00  1.092964E-07
        51 -4.781719E+00 -4.781719E+00  1.092964E-07
        52 -4.781719E+00 -4.781719E+00  1.092964E-07
        53 -9.563437E+00 -4.781719E+00  1.092964E-07
        54 -9.563438E+00 -4.781719E+00  1.092964E-07
        55  0.000000E+00 -4.781719E+00  1.092964E-07
        56 -9.108035E-08 -4.781719E+00  1.092964E-07
        57 -4.781719E+00 -4.781719E+00  1.092964E-07
        58 -4.781719E+00 -4.781719E+00  1.092964E-07
        59 -9.563437E+00 -4.781719E+00  1.092964E-07
        60 -9.563438E+00 -4.781719E+00  1.092964E-07
        61  0.000000E+00 -9.563437E+00  1.092964E-07
        62 -9.108035E-08 -9.563437E+00  1.092964E-07
        63 -4.781719E+00 -9.563437E+00  1.092964E-07
        64 -4.781719E+00 -9.563437E+00  1.092964E-07
        65 -9.563437E+00 -9.563437E+00  1.092964E-07
        66 -9.563438E+00 -9.563437E+00  1.092964E-07
        67  0.000000E+00 -9.563438E+00  1.092964E-07
        68 -9.108035E-08 -9.563438E+00  1.092964E-07
        69 -4.781719E+00 -9.563438E+00  1.092964E-07
        70 -4.781719E+00 -9.563438E+00  1.092964E-07
        71 -9.563437E+00 -9.563438E+00  1.092964E-07
        72 -9.563438E+00 -9.563438E+00  1.092964E-07

 stresses (elem, integ.pnt.,sxx,syy,szz,sxy,sxz,syz) for set EALL and time  0.3187813E+00

         1   1 -5.464821E-05 -5.464821E-05  1.355253E-20 -1.957346E-21 -2.218325E-21  1.826856E-21
         1   2 -5.464821E-05 -5.464821E-05  2.710505E-20 -9.525750E-21 -8.351343E-21 -1.174408E-21
         1   3 -5.464821E-05 -5.464821E-05  6.776264E-21  2.870774E-21  1.565877E-21  2.609795E-21
         1   4 -5.464821E-05 -5.464821E-05  1.355253E-20 -4.697630E-21  6.263507E-21 -7.046445E-21
         1   5 -5.464821E-05 -5.464821E-05 -6.776264E-21  2.213043E-46 -2.218325E-21  4.436651E-21
         1   6 -5.464821E-05 -5.464821E-05 -1.355253E-20  5.219589E-21 -8.351343E-21  3.262243E-21
         1   7 -5.464821E-05 -5.464821E-05  6.776264E-21 -5.219589E-21  3.131754E-21  5.219589E-21
         1   8 -5.464821E-05 -5.464821E-05  6.071545E-47  1.043918E-21  8.351343E-21 -2.609795E-21
         2   1 -5.464821E-05 -5.464821E-05  2.435510E-14  3.410572E-15 -9.208533E-14 -1.015339E-15
         2   2 -5.464821E-05 -5.464821E-05  7.492779E-15  6.470969E-14  8.620369E-15  2.022596E-15
         2   3 -5.464821E-05 -5.464821E-05 -8.633143E-15  1.272843E-14  7.276185E-14  6.778889E-15
         2   4 -5.464821E-05 -5.464821E-05  2.382397E-14  8.349917E-15 -3.232236E-14 -1.611159E-15
         2   5 -5.464821E-05 -5.464821E-05  1.129684E-13 -2.445533E-15 -1.044210E-13 -1.158353E-14
         2   6 -5.464821E-05 -5.464821E-05  7.210730E-14  5.009657E-14 -1.685080E-14  1.118218E-14
         2   7 -5.464821E-05 -5.464821E-05 -1.853631E-14 -9.126849E-15 -5.995830E-14 -3.789298E-15
         2   8 -5.464821E-05 -5.464821E-05 -1.007796E-14  6.092929E-14  8.015398E-14  7.548427E-15
         3   1 -5.464821E-05 -5.464821E-05 -4.888384E-14 -2.179392E-13 -2.235742E-14  8.252833E-15
         3   2 -5.464821E-05 -5.464821E-05  5.812991E-15  1.850025E-14  3.894170E-14 -4.540887E-15
         3   3 -5.464821E-05 -5.464821E-05  1.586960E-13 -2.391694E-13  1.249677E-13 -1.019826E-14
         3   4 -5.464821E-05 -5.464821E-05  2.341105E-14  5.856916E-14  1.249677E-13  1.804764E-14
         3   5 -5.464821E-05 -5.464821E-05  6.999518E-14  1.325936E-14 -9.282477E-14  4.925108E-14
         3   6 -5.464821E-05 -5.464821E-05  2.108752E-13 -2.176871E-14 -2.276863E-14 -3.953534E-14
         3   7 -5.464821E-05 -5.464821E-05 -9.021973E-14  4.948460E-14 -5.652046E-14  3.079999E-14
         3   8 -5.464821E-05 -5.464821E-05 -1.393215E-13  8.451267E-14  1.186199E-13 -1.694682E-14
         4   1 -5.464821E-05 -5.464821E-05 -2.851751E-14 -1.880261E-14 -1.245764E-15 -6.485299E-14
         4   2 -5.464821E-05 -5.464821E-05 -8.283574E-14 -2.232304E-14 -1.311707E-15  9.408315E-14
         4   3 -5.464821E-05 -5.464821E-05  1.740002E-15 -7.134471E-14 -8.766613E-17  5.203152E-15
         4   4 -5.464821E-05 -5.464821E-05 -4.363197E-14 -7.486515E-14 -5.681278E-16  6.512973E-15
         4   5 -5.464821E-05 -5.464821E-05  7.642819E-14 -1.500984E-15 -4.583309E-15 -1.560964E-14
         4   6 -5.464821E-05 -5.464821E-05  1.554222E-14 -5.601750E-15 -4.649254E-15  6.809183E-14
         4   7 -5.464821E-05 -5.464821E-05  1.058152E-13 -1.500984E-15  1.532884E-16  1.941843E-14
         4   8 -5.464821E-05 -5.464821E-05  5.387550E-14 -5.601750E-15 -3.271732E-16  4.182078E-14
         5   1 -5.464821E-05 -5.464821E-05 -5.497014E-14 -4.816360E-14 -7.450809E-14 -1.040097E-13
         5   2 -5.464821E-05 -5.464821E-05  3.424556E-14 -6.567763E-14  3.495463E-14  3.158827E-15
         5   3 -5.464821E-05 -5.464821E-05 -3.449528E-14 -7.005614E-14  6.389340E-15  1.411868E-13
         5   4 -5.464821E-05 -5.464821E-05  1.571250E-14 -4.816360E-14  4.141741E-14 -7.565433E-14
         5   5 -5.464821E-05 -5.464821E-05  1.157917E-13  3.502807E-14  1.372029E-14  3.903836E-14
         5   6 -5.464821E-05 -5.464821E-05  3.363627E-13 -8.757018E-14  1.056690E-13  2.289235E-14
         5   7 -5.464821E-05 -5.464821E-05 -1.658506E-13  1.122576E-30  1.639576E-13  7.406643E-14
         5   8 -5.464821E-05 -5.464821E-05 -6.966844E-14 -3.502807E-14  1.289296E-13 -1.084629E-13
         6   1 -5.464821E-05 -5.464821E-05  2.131718E-14  3.064956E-14  1.873877E-13  6.252811E-14
         6   2 -5.464821E-05 -5.464821E-05 -2.262574E-14  8.319167E-14  4.727547E-14  4.806151E-15
         6   3 -5.464821E-05 -5.464821E-05  3.698074E-14  7.005614E-14  1.121518E-13 -6.007014E-14
         6   4 -5.464821E-05 -5.464821E-05  3.647193E-14 -2.627105E-14  1.121518E-13  7.486229E-14
         6   5 -5.464821E-05 -5.464821E-05 -1.363091E-13 -1.751404E-14  1.952059E-13 -5.030190E-14
         6   6 -5.464821E-05 -5.464821E-05 -1.605488E-13  5.254211E-14  2.882260E-14  3.982935E-14
         6   7 -5.464821E-05 -5.464821E-05 -1.206456E-13  7.005614E-14  1.758745E-13 -1.028440E-13
         6   8 -5.464821E-05 -5.464821E-05 -1.014511E-13  7.005614E-14  1.408464E-13  4.227658E-16
         7   1 -5.464821E-05 -5.464821E-05  7.052663E-14  1.204828E-13 -1.169862E-15  1.047328E-13
         7   2 -5.464821E-05 -5.464821E-05 -1.358923E-13  6.685409E-14 -6.115693E-16 -1.043439E-13
         7   3 -5.464821E-05 -5.464821E-05  2.269297E-13  1.204828E-13 -1.526659E-15  3.467669E-14
         7   4 -5.464821E-05 -5.464821E-05 -3.184437E-14  6.685409E-14  1.899891E-14  6.203943E-14
         7   5 -5.464821E-05 -5.464821E-05 -1.910115E-13  1.307147E-13 -4.924277E-15 -2.208655E-13
         7   6 -5.464821E-05 -5.464821E-05 -9.531331E-14  1.050402E-13 -4.365984E-15 -7.433258E-14
         7   7 -5.464821E-05 -5.464821E-05  4.276597E-13 -9.397532E-15 -2.622314E-14  1.294152E-13
         7   8 -5.464821E-05 -5.464821E-05  5.066591E-14 -3.507206E-14 -5.697568E-15 -4.276439E-15
         8   1 -5.464821E-05 -5.464821E-05 -1.778406E-13  1.751404E-14 -6.553521E-14 -1.493534E-13
         8   2 -5.464821E-05 -5.464821E-05 -1.420344E-14 -3.940658E-14 -5.677819E-14 -1.119111E-13
         8   3 -5.464821E-05 -5.464821E-05  1.193142E-13  1.751404E-14 -1.933589E-14 -2.194095E-13
         8   4 -5.464821E-05 -5.464821E-05  1.186029E-13 -3.502807E-14 -7.187800E-14 -2.607804E-13
         8   5 -5.464821E-05 -5.464821E-05 -2.697893E-13  1.039460E-30 -5.787666E-14 -2.634281E-13
         8   6 -5.464821E-05 -5.464821E-05 -1.420343E-14 -5.254211E-14 -3.160561E-14 -1.288447E-13
         8   7 -5.464821E-05 -5.464821E-05  6.677211E-14  7.005614E-14 -1.422187E-13  8.685260E-14
         8   8 -5.464821E-05 -5.464821E-05  1.448739E-13 -3.502807E-14 -2.106390E-15  2.510587E-15
         9   1 -5.464821E-05 -5.464821E-05  4.450497E-14  1.751404E-13  5.335878E-14  9.358405E-14
         9   2 -5.464821E-05 -5.464821E-05  5.112297E-13  1.751404E-13  1.759570E-13  1.607858E-13
         9   3 -5.464821E-05 -5.464821E-05  2.130623E-14  1.050842E-13 -2.037671E-15  1.636402E-13
         9   4 -5.464821E-05 -5.464821E-05  1.256084E-13 -1.050842E-13 -2.037671E-15  3.818760E-14
         9   5 -5.464821E-05 -5.464821E-05 -3.430817E-14  9.735915E-31 -1.417573E-13 -8.733299E-14
         9   6 -5.464821E-05 -5.464821E-05 -1.192755E-13  3.502807E-14 -1.067292E-13  1.168758E-13
         9   7 -5.464821E-05 -5.464821E-05  2.130623E-14 -1.401123E-13 -7.604693E-15  2.279196E-13
         9   8 -5.464821E-05 -5.464821E-05  1.124729E-13 -6.223979E-33 -4.263276E-14  1.179154E-14

 strains (elem, integ.pnt.,exx,eyy,ezz,exy,exz,eyz) forset EALL and time  0.3187813E+00

         1   1 -1.821607E-10 -1.821607E-10  1.561378E-10 -1.211690E-26 -1.373249E-26  1.130911E-26
         1   2 -1.821607E-10 -1.821607E-10  1.561378E-10 -5.896893E-26 -5.169879E-26 -7.270142E-27
         1   3 -1.821607E-10 -1.821607E-10  1.561378E-10  1.777146E-26  9.693523E-27  1.615587E-26
         1   4 -1.821607E-10 -1.821607E-10  1.561378E-10 -2.908057E-26  3.877409E-26 -4.362085E-26
         1   5 -1.821607E-10 -1.821607E-10  1.561378E-10 -1.336382E-51 -1.373249E-26  2.746498E-26
         1   6 -1.821607E-10 -1.821607E-10  1.561378E-10  3.231174E-26 -5.169879E-26  2.019484E-26
         1   7 -1.821607E-10 -1.821607E-10  1.561378E-10 -3.231174E-26  1.938705E-26  3.231174E-26
         1   8 -1.821607E-10 -1.821607E-10  1.561378E-10  6.462349E-27  5.169879E-26 -1.615587E-26
         2   1 -1.821607E-10 -1.821607E-10  1.561378E-10  2.111306E-20 -5.700521E-19 -6.285429E-21
         2   2 -1.821607E-10 -1.821607E-10  1.561378E-10  4.005838E-19  5.336419E-20  1.252083E-20
         2   3 -1.821607E-10 -1.821607E-10  1.561378E-10  7.879502E-20  4.504305E-19  4.196455E-20
         2   4 -1.821607E-10 -1.821607E-10  1.561378E-10  5.168996E-20 -2.000908E-19 -9.973841E-21
         2   5 -1.821607E-10 -1.821607E-10  1.561378E-10 -1.513901E-20 -6.464155E-19 -7.170754E-20
         2   6 -1.821607E-10 -1.821607E-10  1.561378E-10  3.101216E-19 -1.043145E-19  6.922303E-20
         2   7 -1.821607E-10 -1.821607E-10  1.561378E-10 -5.649954E-20 -3.711704E-19 -2.345756E-20
         2   8 -1.821607E-10 -1.821607E-10  1.561378E-10  3.771813E-19  4.961913E-19  4.672836E-20
         3   1 -1.821607E-10 -1.821607E-10  1.561378E-10 -1.349148E-18 -1.384031E-19  5.108897E-20
         3   2 -1.821607E-10 -1.821607E-10  1.561378E-10  1.145254E-19  2.410677E-19 -2.811025E-20
         3   3 -1.821607E-10 -1.821607E-10  1.561378E-10 -1.480573E-18  7.736094E-19 -6.313207E-20
         3   4 -1.821607E-10 -1.821607E-10  1.561378E-10  3.625710E-19  7.736094E-19  1.117235E-19
         3   5 -1.821607E-10 -1.821607E-10  1.561378E-10  8.208174E-20 -5.746295E-19  3.048876E-19
         3   6 -1.821607E-10 -1.821607E-10  1.561378E-10 -1.347587E-19 -1.409486E-19 -2.447426E-19
         3   7 -1.821607E-10 -1.821607E-10  1.561378E-10  3.063332E-19 -3.498885E-19  1.906666E-19
         3   8 -1.821607E-10 -1.821607E-10  1.561378E-10  5.231737E-19  7.343136E-19 -1.049089E-19
         4   1 -1.821607E-10 -1.821607E-10  1.561378E-10 -1.163971E-19 -7.711869E-21 -4.014709E-19
         4   2 -1.821607E-10 -1.821607E-10  1.561378E-10 -1.381903E-19 -8.120092E-21  5.824195E-19
         4   3 -1.821607E-10 -1.821607E-10  1.561378E-10 -4.416577E-19 -5.426951E-22  3.220999E-20
         4   4 -1.821607E-10 -1.821607E-10  1.561378E-10 -4.634509E-19 -3.516981E-21  4.031841E-20
         4   5 -1.821607E-10 -1.821607E-10  1.561378E-10 -9.291807E-21 -2.837287E-20 -9.663112E-20
         4   6 -1.821607E-10 -1.821607E-10  1.561378E-10 -3.467750E-20 -2.878109E-20  4.215209E-19
         4   7 -1.821607E-10 -1.821607E-10  1.561378E-10 -9.291807E-21  9.489280E-22  1.202093E-19
         4   8 -1.821607E-10 -1.821607E-10  1.561378E-10 -3.467750E-20 -2.025358E-21  2.588906E-19
         5   1 -1.821607E-10 -1.821607E-10  1.561378E-10 -2.981556E-19 -4.612406E-19 -6.438693E-19
         5   2 -1.821607E-10 -1.821607E-10  1.561378E-10 -4.065758E-19  2.163858E-19  1.955464E-20
         5   3 -1.821607E-10 -1.821607E-10  1.561378E-10 -4.336809E-19  3.955306E-20  8.740137E-19
         5   4 -1.821607E-10 -1.821607E-10  1.561378E-10 -2.981556E-19  2.563935E-19 -4.683363E-19
         5   5 -1.821607E-10 -1.821607E-10  1.561378E-10  2.168404E-19  8.493515E-20  2.416660E-19
         5   6 -1.821607E-10 -1.821607E-10  1.561378E-10 -5.421011E-19  6.541413E-19  1.417146E-19
         5   7 -1.821607E-10 -1.821607E-10  1.561378E-10 -5.258885E-36  1.014976E-18  4.585065E-19
         5   8 -1.821607E-10 -1.821607E-10  1.561378E-10 -2.168404E-19  7.981353E-19 -6.714370E-19
         6   1 -1.821607E-10 -1.821607E-10  1.561378E-10  1.897354E-19  1.160019E-18  3.870788E-19
         6   2 -1.821607E-10 -1.821607E-10  1.561378E-10  5.149960E-19  2.926577E-19  2.975237E-20
         6   3 -1.821607E-10 -1.821607E-10  1.561378E-10  4.336809E-19  6.942728E-19 -3.718627E-19
         6   4 -1.821607E-10 -1.821607E-10  1.561378E-10 -1.626303E-19  6.942728E-19  4.634332E-19
         6   5 -1.821607E-10 -1.821607E-10  1.561378E-10 -1.084202E-19  1.208418E-18 -3.113927E-19
         6   6 -1.821607E-10 -1.821607E-10  1.561378E-10  3.252607E-19  1.784256E-19  2.465626E-19
         6   7 -1.821607E-10 -1.821607E-10  1.561378E-10  4.336809E-19  1.088747E-18 -6.366533E-19
         6   8 -1.821607E-10 -1.821607E-10  1.561378E-10  4.336809E-19  8.719062E-19  2.617122E-21
         7   1 -1.821607E-10 -1.821607E-10  1.561378E-10  7.458459E-19 -7.242002E-21  6.483461E-19
         7   2 -1.821607E-10 -1.821607E-10  1.561378E-10  4.138587E-19 -3.785905E-21 -6.459384E-19
         7   3 -1.821607E-10 -1.821607E-10  1.561378E-10  7.458459E-19 -9.450744E-21  2.146652E-19
         7   4 -1.821607E-10 -1.821607E-10  1.561378E-10  4.138587E-19  1.176123E-19  3.840536E-19
         7   5 -1.821607E-10 -1.821607E-10  1.561378E-10  8.091865E-19 -3.048362E-20 -1.367263E-18
         7   6 -1.821607E-10 -1.821607E-10  1.561378E-10  6.502490E-19 -2.702752E-20 -4.601541E-19
         7   7 -1.821607E-10 -1.821607E-10  1.561378E-10 -5.817520E-20 -1.623337E-19  8.011415E-19
         7   8 -1.821607E-10 -1.821607E-10  1.561378E-10 -2.171128E-19 -3.527066E-20 -2.647319E-20
         8   1 -1.821607E-10 -1.821607E-10  1.561377E-10  1.084202E-19 -4.056941E-19 -9.245684E-19
         8   2 -1.821607E-10 -1.821607E-10  1.561378E-10 -2.439455E-19 -3.514840E-19 -6.927828E-19
         8   3 -1.821607E-10 -1.821607E-10  1.561378E-10  1.084202E-19 -1.196984E-19 -1.358249E-18
         8   4 -1.821607E-10 -1.821607E-10  1.561378E-10 -2.168404E-19 -4.449590E-19 -1.614355E-18
         8   5 -1.821607E-10 -1.821607E-10  1.561377E-10  1.430529E-36 -3.582841E-19 -1.630745E-18
         8   6 -1.821607E-10 -1.821607E-10  1.561378E-10 -3.252607E-19 -1.956538E-19 -7.976099E-19
         8   7 -1.821607E-10 -1.821607E-10  1.561378E-10  4.336809E-19 -8.804013E-19  5.376589E-19
         8   8 -1.821607E-10 -1.821607E-10  1.561378E-10 -2.168404E-19 -1.303956E-20  1.554173E-20
         9   1 -1.821607E-10 -1.821607E-10  1.561378E-10  1.084202E-18  3.303162E-19  5.793298E-19
         9   2 -1.821607E-10 -1.821607E-10  1.561378E-10  1.084202E-18  1.089258E-18  9.953410E-19
         9   3 -1.821607E-10 -1.821607E-10  1.561378E-10  6.505213E-19 -1.261415E-20  1.013011E-18
         9   4 -1.821607E-10 -1.821607E-10  1.561378E-10 -6.505213E-19 -1.261415E-20  2.363995E-19
         9   5 -1.821607E-10 -1.821607E-10  1.561378E-10 -1.796549E-36 -8.775451E-19 -5.406328E-19
         9   6 -1.821607E-10 -1.821607E-10  1.561378E-10  2.168404E-19 -6.607047E-19  7.235166E-19
         9   7 -1.821607E-10 -1.821607E-10  1.561378E-10 -8.673617E-19 -4.707667E-20  1.410931E-18
         9   8 -1.821607E-10 -1.821607E-10  1.561378E-10 -6.872747E-39 -2.639171E-19  7.299525E-20

 displacements (vx,vy,vz) for set NALL and time  0.3277813E+00

         1  0.000000E+00  0.000000E+00  0.000000E+00
         2 -9.365178E-08  0.000000E+00  0.000000E+00
         3 -4.916719E+00  0.000000E+00  0.000000E+00
         4 -4.916719E+00  0.000000E+00  0.000000E+00
         5 -9.833437E+00  0.000000E+00  0.000000E+00
         6 -9.833438E+00  0.000000E+00  0.000000E+00
         7  0.000000E+00 -9.365178E-08  0.000000E+00
         8 -9.365178E-08 -9.365178E-08  0.000000E+00
         9 -4.916719E+00 -9.365178E-08  0.000000E+00
        10 -4.916719E+00 -9.365178E-08  0.000000E+00
        11 -9.833437E+00 -9.365178E-08  0.000000E+00
        12 -9.833438E+00 -9.365178E-08  0.000000E+00
        13  0.000000E+00 -4.916719E+00  0.000000E+00
        14 -9.365178E-08 -4.916719E+00  0.000000E+00
        15 -4.916719E+00 -4.916719E+00  0.000000E+00
        16 -4.916719E+00 -4.916719E+00  0.000000E+00
        17 -9.833437E+00 -4.916719E+00  0.000000E+00
        18 -9.833438E+00 -4.916719E+00  0.000000E+00
        19  0.000000E+00 -4.916719E+00  0.000000E+00
        20 -9.365178E-08 -4.916719E+00  0.000000E+00
        21 -4.916719E+00 -4.916719E+00  0.000000E+00
        22 -4.916719E+00 -4.916719E+00  0.000000E+00
        23 -9.833437E+00 -4.916719E+00  0.000000E+00
        24 -9.833438E+00 -4.916719E+00  0.000000E+00
        25  0.000000E+00 -9.833437E+00  0.000000E+00
        26 -9.365178E-08 -9.833437E+00  0.000000E+00
        27 -4.916719E+00 -9.833437E+00  0.000000E+00
        28 -4.916719E+00 -9.833437E+00  0.000000E+00
        29 -9.833437E+00 -9.833437E+00  0.000000E+00
        30 -9.833438E+00 -9.833437E+00  0.000000E+00
        31  0.000000E+00 -9.833438E+00  0.000000E+00
        32 -9.365178E-08 -9.833438E+00  0.000000E+00
        33 -4.916719E+00 -9.833438E+00  0.000000E+00
        34 -4.916719E+00 -9.833438E+00  0.000000E+00
        35 -9.833437E+00 -9.833438E+00  0.000000E+00
        36 -9.833438E+00 -9.833438E+00  0.000000E+00
        37  0.000000E+00  0.000000E+00  1.123821E-07
        38 -9.365178E-08  0.000000E+00  1.123821E-07
        39 -4.916719E+00  0.000000E+00  1.123821E-07
        40 -4.916719E+00  0.000000E+00  1.123821E-07
        41 -9.833437E+00  0.000000E+00  1.123821E-07
        42 -9.833438E+00  0.000000E+00  1.123821E-07
        43  0.000000E+00 -9.365178E-08  1.123821E-07
        44 -9.365178E-08 -9.365178E-08  1.123821E-07
        45 -4.916719E+00 -9.365178E-08  1.123821E-07
        46 -4.916719E+00 -9.365178E-08  1.123821E-07
        47 -9.833437E+00 -9.365178E-08  1.123821E-07
        48 -9.833438E+00 -9.365178E-08  1.123821E-07
        49  0.000000E+00 -4.916719E+00  1.123821E-07
        50 -9.365178E-08 -4.916719E+00  1.123821E-07
        51 -4.916719E+00 -4.916719E+00  1.123821E-07
        52 -4.916719E+00 -4.916719E+00  1.123821E-07
        53 -9.833437E+00 -4.916719E+00  1.123821E-07
        54 -9.833438E+00 -4.916719E+00  1.123821E-07
        55  0.000000E+00 -4.916719E+00  1.123821E-07
        56 -9.365178E-08 -4.916719E+00  1.123821E-07
        57 -4.916719E+00 -4.916719E+00  1.123821E-07
        58 -4.916719E+00 -4.916719E+00  1.123821E-07
        59 -9.833437E+00 -4.916719E+00  1.123821E-07
        60 -9.833438E+00 -4.916719E+00  1.123821E-07
        61  0.000000E+00 -9.833437E+00  1.123821E-07
        62 -9.365178E-08 -9.833437E+00  1.123821E-07
        63 -4.916719E+00 -9.833437E+00  1.123821E-07
        64 -4.916719E+00 -9.833437E+00  1.123821E-07
        65 -9.833437E+00 -9.833437E+00  1.123821E-07
        66 -9.833438E+00 -9.833437E+00  1.123821E-07
        67  0.000000E+00 -9.833438E+00  1.123821E-07
        68 -9.365178E-08 -9.833438E+00  1.123821E-07
        69 -4.916719E+00 -9.833438E+00  1.123821E-07
        70 -4.916719E+00 -9.833438E+00  1.123821E-07
        71 -9.833437E+00 -9.833438E+00  1.123821E-07
        72 -9.833438E+00 -9.833438E+00  1.123821E-07

 stresses (elem, integ.pnt.,sxx,syy,szz,sxy,sxz,syz) for set EALL and time  0.3277813E+00

         1   1 -5.619107E-05 -5.619107E-05  6.776264E-21  9.134281E-22 -1.826856E-21  1.565877E-21
         1   2 -5.619107E-05 -5.619107E-05  2.032879E-20 -3.653712E-21 -1.109163E-20 -7.829384E-22
         1   3 -5.619107E-05 -5.619107E-05  4.047697E-47  3.523223E-21 -7.829384E-22  4.697630E-21
         1   4 -5.619107E-05 -5.619107E-05  1.355253E-20 -1.043918E-21 -6.263507E-21 -4.045182E-21
         1   5 -5.619107E-05 -5.619107E-05 -1.355253E-20 -1.043918E-21  3.262243E-21  3.131754E-21
         1   6 -5.619107E-05 -5.619107E-05 -9.899991E-46  5.219589E-22 -6.002528E-21 -1.435387E-21
         1   7 -5.619107E-05 -5.619107E-05 -6.776264E-21 -3.653712E-21  2.087836E-21  6.263507E-21
         1   8 -5.619107E-05 -5.619107E-05 -6.776264E-21 -2.087836E-21 -3.131754E-21 -4.697630E-21
         2   1 -5.619107E-05 -5.619107E-05  2.130952E-15 -3.745600E-14 -7.002575E-14  2.059180E-15
         2   2 -5.619107E-05 -5.619107E-05 -7.611296E-15 -1.556346E-14 -4.375469E-14  1.193135E-15
         2   3 -5.619107E-05 -5.619107E-05  8.996420E-14 -4.408923E-14  6.441648E-14 -6.431492E-15
         2   4 -5.619107E-05 -5.619107E-05  4.149477E-14  1.720990E-14 -2.315369E-14  5.827257E-15
         2   5 -5.619107E-05 -5.619107E-05  3.684265E-14  1.444100E-13 -6.994271E-14  1.617563E-14
         2   6 -5.619107E-05 -5.619107E-05  5.466247E-14  4.297681E-15  1.762747E-14 -1.812808E-16
         2   7 -5.619107E-05 -5.619107E-05  4.586273E-14  1.561514E-13  4.900865E-14  7.684963E-15
         2   8 -5.619107E-05 -5.619107E-05  2.495537E-14 -3.650294E-14 -3.533459E-15  4.452839E-15
         3   1 -5.619107E-05 -5.619107E-05  2.267871E-13  1.212218E-13  7.696551E-14 -5.195549E-15
         3   2 -5.619107E-05 -5.619107E-05  1.965645E-13  8.619377E-14  6.820849E-14  5.247504E-15
         3   3 -5.619107E-05 -5.619107E-05  3.629207E-13  6.961220E-14  1.361553E-13 -4.231822E-14
         3   4 -5.619107E-05 -5.619107E-05  2.584797E-13  3.458413E-14 -1.090412E-13  2.634316E-14
         3   5 -5.619107E-05 -5.619107E-05  1.225585E-13 -1.291696E-13  1.308703E-13  1.773262E-14
         3   6 -5.619107E-05 -5.619107E-05  2.145944E-13 -2.408537E-14 -1.493542E-13 -1.511700E-15
         3   7 -5.619107E-05 -5.619107E-05 -8.283166E-14 -9.927357E-14 -1.476758E-14 -1.939005E-14
         3   8 -5.619107E-05 -5.619107E-05 -6.501419E-14  7.586678E-14  5.528856E-14  1.958395E-14
         4   1 -5.619107E-05 -5.619107E-05 -2.456496E-14 -9.718685E-15 -1.999768E-16  1.152198E-15
         4   2 -5.619107E-05 -5.619107E-05 -6.710616E-14 -1.234601E-14  5.075214E-16 -5.648955E-14
         4   3 -5.619107E-05 -5.619107E-05 -2.063630E-14 -1.847570E-14  1.834370E-16  1.412645E-13
         4   4 -5.619107E-05 -5.619107E-05 -6.810291E-14 -2.110303E-14  3.908607E-15 -3.459700E-14
         4   5 -5.619107E-05 -5.619107E-05 -7.562133E-14 -1.692934E-14 -1.453823E-15  4.300058E-15
         4   6 -5.619107E-05 -5.619107E-05 -2.621384E-14 -1.533192E-14 -7.463253E-16 -4.217632E-14
         4   7 -5.619107E-05 -5.619107E-05 -6.535555E-14 -1.395276E-13 -3.040573E-15  4.300058E-15
         4   8 -5.619107E-05 -5.619107E-05 -2.087347E-14 -1.379302E-13  6.845971E-16 -1.590527E-14
         5   1 -5.619107E-05 -5.619107E-05  1.020871E-14  7.005614E-14 -3.453055E-14  3.950514E-15
         5   2 -5.619107E-05 -5.619107E-05 -3.893531E-14  7.443465E-14  1.099602E-13  4.536476E-14
         5   3 -5.619107E-05 -5.619107E-05  3.719121E-14  1.751404E-14  5.942580E-14  7.400665E-14
         5   4 -5.619107E-05 -5.619107E-05 -2.227986E-14  6.129912E-14 -4.565841E-14 -7.177346E-15
         5   5 -5.619107E-05 -5.619107E-05  2.203771E-13  1.576263E-13  1.856752E-15 -2.028455E-14
         5   6 -5.619107E-05 -5.619107E-05  1.712331E-13  1.050842E-13  1.463475E-13 -6.181429E-14
         5   7 -5.619107E-05 -5.619107E-05  8.973332E-14  7.005614E-14 -3.967298E-14  8.479966E-14
         5   8 -5.619107E-05 -5.619107E-05 -9.144337E-15  5.254211E-14 -4.644915E-15  4.326992E-14
         6   1 -5.619107E-05 -5.619107E-05  2.816999E-13  4.378509E-14  1.557438E-13 -1.499167E-13
         6   2 -5.619107E-05 -5.619107E-05  1.557865E-13  1.050842E-13 -5.442465E-14 -3.333225E-14
         6   3 -5.619107E-05 -5.619107E-05  4.131704E-13  1.050842E-13  1.059449E-13 -6.234656E-14
         6   4 -5.619107E-05 -5.619107E-05  2.389129E-13  1.576263E-13 -1.392516E-13  8.050898E-14
         6   5 -5.619107E-05 -5.619107E-05  2.816998E-13  1.751404E-14  1.728075E-13 -6.255506E-15
         6   6 -5.619107E-05 -5.619107E-05  9.667665E-14  8.757018E-14 -6.363200E-14  3.932489E-14
         6   7 -5.619107E-05 -5.619107E-05  7.164676E-14 -2.494953E-31  1.259796E-14 -4.128358E-14
         6   8 -5.619107E-05 -5.619107E-05 -1.617206E-13  1.401123E-13  1.259796E-14 -2.635274E-14
         7   1 -5.619107E-05 -5.619107E-05 -6.476651E-15  5.877979E-14  1.069112E-14 -1.779730E-13
         7   2 -5.619107E-05 -5.619107E-05  9.505408E-14  2.797224E-14  4.132120E-14 -1.734398E-13
         7   3 -5.619107E-05 -5.619107E-05  1.672109E-13 -1.127635E-14 -6.873572E-15  3.219543E-14
         7   4 -5.619107E-05 -5.619107E-05  1.800810E-13 -4.208390E-14  1.123311E-14 -1.909538E-13
         7   5 -5.619107E-05 -5.619107E-05  1.103886E-13  2.625308E-13  9.269731E-15 -2.301257E-13
         7   6 -5.619107E-05 -5.619107E-05 -2.084175E-13  2.141905E-13  3.989981E-14 -2.461725E-14
         7   7 -5.619107E-05 -5.619107E-05  2.577770E-13 -1.769378E-14 -4.375921E-14 -1.995729E-14
         7   8 -5.619107E-05 -5.619107E-05 -1.496897E-13 -6.603409E-14 -2.565252E-14  1.417661E-13
         8   1 -5.619107E-05 -5.619107E-05 -1.445131E-13  2.276825E-13 -5.697393E-14 -8.296352E-14
         8   2 -5.619107E-05 -5.619107E-05 -2.798672E-13  2.233039E-13 -2.632437E-14 -3.114930E-13
         8   3 -5.619107E-05 -5.619107E-05 -3.283251E-14  1.225982E-13  1.348335E-13 -1.179916E-13
         8   4 -5.619107E-05 -5.619107E-05 -1.608362E-13  8.757018E-14  2.974925E-14 -2.239228E-13
         8   5 -5.619107E-05 -5.619107E-05 -2.364618E-13  7.005614E-14 -3.405384E-14 -1.276129E-13
         8   6 -5.619107E-05 -5.619107E-05  2.586894E-13  1.401123E-13  8.416590E-14 -3.234283E-13
         8   7 -5.619107E-05 -5.619107E-05 -5.910356E-14  7.005614E-14  1.204115E-13  2.226678E-13
         8   8 -5.619107E-05 -5.619107E-05  3.251783E-13  8.757018E-14  5.035532E-14  4.436646E-14
         9   1 -5.619107E-05 -5.619107E-05  3.006337E-13  2.101684E-13  1.576946E-13 -2.347049E-13
         9   2 -5.619107E-05 -5.619107E-05  8.952819E-14  2.714675E-13 -9.625892E-14 -2.246222E-14
         9   3 -5.619107E-05 -5.619107E-05  4.511057E-13  1.401123E-13 -6.614485E-15  1.049159E-14
         9   4 -5.619107E-05 -5.619107E-05  5.241477E-13  1.926544E-13  2.035539E-13  9.137901E-14
         9   5 -5.619107E-05 -5.619107E-05  3.269047E-13 -1.770256E-31  1.450600E-13 -3.090099E-14
         9   6 -5.619107E-05 -5.619107E-05 -2.420488E-15  1.050842E-13 -5.635145E-14 -7.992148E-15
         9   7 -5.619107E-05 -5.619107E-05  1.358531E-13 -1.401123E-13 -2.468560E-14  3.915515E-14
         9   8 -5.619107E-05 -5.619107E-05 -2.245773E-13  3.502807E-14  1.034247E-14 -2.550618E-14

 strains (elem, integ.pnt.,exx,eyy,ezz,exy,exz,eyz) forset EALL and time  0.3277813E+00

         1   1 -1.873036E-10 -1.873036E-10  1.605459E-10  5.654555E-27 -1.130911E-26  9.693523E-27
         1   2 -1.873036E-10 -1.873036E-10  1.605459E-10 -2.261822E-26 -6.866245E-26 -4.846761E-27
         1   3 -1.873036E-10 -1.873036E-10  1.605459E-10  2.181043E-26 -4.846761E-27  2.908057E-26
         1   4 -1.873036E-10 -1.873036E-10  1.605459E-10 -6.462349E-27 -3.877409E-26 -2.504160E-26
         1   5 -1.873036E-10 -1.873036E-10  1.605459E-10 -6.462349E-27  2.019484E-26  1.938705E-26
         1   6 -1.873036E-10 -1.873036E-10  1.605459E-10  3.231174E-27 -3.715850E-26 -8.885729E-27
         1   7 -1.873036E-10 -1.873036E-10  1.605459E-10 -2.261822E-26  1.292470E-26  3.877409E-26
         1   8 -1.873036E-10 -1.873036E-10  1.605459E-10 -1.292470E-26 -1.938705E-26 -2.908057E-26
         2   1 -1.873036E-10 -1.873036E-10  1.605459E-10 -2.318705E-19 -4.334927E-19  1.274730E-20
         2   2 -1.873036E-10 -1.873036E-10  1.605459E-10 -9.634520E-20 -2.708624E-19  7.386075E-21
         2   3 -1.873036E-10 -1.873036E-10  1.605459E-10 -2.729333E-19  3.987687E-19 -3.981400E-20
         2   4 -1.873036E-10 -1.873036E-10  1.605459E-10  1.065375E-19 -1.433324E-19  3.607349E-20
         2   5 -1.873036E-10 -1.873036E-10  1.605459E-10  8.939664E-19 -4.329787E-19  1.001349E-19
         2   6 -1.873036E-10 -1.873036E-10  1.605459E-10  2.660469E-20  1.091224E-19 -1.122215E-21
         2   7 -1.873036E-10 -1.873036E-10  1.605459E-10  9.666518E-19  3.033869E-19  4.757358E-20
         2   8 -1.873036E-10 -1.873036E-10  1.605459E-10 -2.259706E-19 -2.187380E-20  2.756520E-20
         3   1 -1.873036E-10 -1.873036E-10  1.605459E-10  7.504209E-19  4.764532E-19 -3.216292E-20
         3   2 -1.873036E-10 -1.873036E-10  1.605459E-10  5.335805E-19  4.222431E-19  3.248455E-20
         3   3 -1.873036E-10 -1.873036E-10  1.605459E-10  4.309327E-19  8.428663E-19 -2.619699E-19
         3   4 -1.873036E-10 -1.873036E-10  1.605459E-10  2.140922E-19 -6.750168E-19  1.630767E-19
         3   5 -1.873036E-10 -1.873036E-10  1.605459E-10 -7.996212E-19  8.101497E-19  1.097733E-19
         3   6 -1.873036E-10 -1.873036E-10  1.605459E-10 -1.490999E-19 -9.245738E-19 -9.358143E-21
         3   7 -1.873036E-10 -1.873036E-10  1.605459E-10 -6.145507E-19 -9.141835E-20 -1.200337E-19
         3   8 -1.873036E-10 -1.873036E-10  1.605459E-10  4.696515E-19  3.422625E-19  1.212340E-19
         4   1 -1.873036E-10 -1.873036E-10  1.605459E-10 -6.016329E-20 -1.237951E-21  7.132652E-21
         4   2 -1.873036E-10 -1.873036E-10  1.605459E-10 -7.642768E-20  3.141799E-21 -3.496972E-19
         4   3 -1.873036E-10 -1.873036E-10  1.605459E-10 -1.143734E-19  1.135562E-21  8.744944E-19
         4   4 -1.873036E-10 -1.873036E-10  1.605459E-10 -1.306378E-19  2.419614E-20 -2.141719E-19
         4   5 -1.873036E-10 -1.873036E-10  1.605459E-10 -1.048007E-19 -8.999857E-21  2.661941E-20
         4   6 -1.873036E-10 -1.873036E-10  1.605459E-10 -9.491189E-20 -4.620109E-21 -2.610915E-19
         4   7 -1.873036E-10 -1.873036E-10  1.605459E-10 -8.637422E-19 -1.882260E-20  2.661941E-20
         4   8 -1.873036E-10 -1.873036E-10  1.605459E-10 -8.538534E-19  4.237982E-21 -9.846120E-20
         5   1 -1.873036E-10 -1.873036E-10  1.605459E-10  4.336809E-19 -2.137606E-19  2.445557E-20
         5   2 -1.873036E-10 -1.873036E-10  1.605459E-10  4.607859E-19  6.807062E-19  2.808295E-19
         5   3 -1.873036E-10 -1.873036E-10  1.605459E-10  1.084202E-19  3.678740E-19  4.581364E-19
         5   4 -1.873036E-10 -1.873036E-10  1.605459E-10  3.794708E-19 -2.826473E-19 -4.443119E-20
         5   5 -1.873036E-10 -1.873036E-10  1.605459E-10  9.757820E-19  1.149418E-20 -1.255710E-19
         5   6 -1.873036E-10 -1.873036E-10  1.605459E-10  6.505213E-19  9.059610E-19 -3.826599E-19
         5   7 -1.873036E-10 -1.873036E-10  1.605459E-10  4.336809E-19 -2.455947E-19  5.249503E-19
         5   8 -1.873036E-10 -1.873036E-10  1.605459E-10  3.252607E-19 -2.875423E-20  2.678614E-19
         6   1 -1.873036E-10 -1.873036E-10  1.605459E-10  2.710505E-19  9.641281E-19 -9.280560E-19
         6   2 -1.873036E-10 -1.873036E-10  1.605459E-10  6.505213E-19 -3.369145E-19 -2.063425E-19
         6   3 -1.873036E-10 -1.873036E-10  1.605459E-10  6.505213E-19  6.558495E-19 -3.859549E-19
         6   4 -1.873036E-10 -1.873036E-10  1.605459E-10  9.757820E-19 -8.620335E-19  4.983889E-19
         6   5 -1.873036E-10 -1.873036E-10  1.605459E-10  1.084202E-19  1.069761E-18 -3.872456E-20
         6   6 -1.873036E-10 -1.873036E-10  1.605459E-10  5.421011E-19 -3.939124E-19  2.434398E-19
         6   7 -1.873036E-10 -1.873036E-10  1.605459E-10  4.711162E-37  7.798739E-20 -2.555650E-19
         6   8 -1.873036E-10 -1.873036E-10  1.605459E-10  8.673617E-19  7.798739E-20 -1.631360E-19
         7   1 -1.873036E-10 -1.873036E-10  1.605459E-10  3.638749E-19  6.618313E-20 -1.101738E-18
         7   2 -1.873036E-10 -1.873036E-10  1.605459E-10  1.731615E-19  2.557979E-19 -1.073675E-18
         7   3 -1.873036E-10 -1.873036E-10  1.605459E-10 -6.980597E-20 -4.255068E-20  1.993051E-19
         7   4 -1.873036E-10 -1.873036E-10  1.605459E-10 -2.605194E-19  6.953832E-20 -1.182095E-18
         7   5 -1.873036E-10 -1.873036E-10  1.605459E-10  1.625191E-18  5.738405E-20 -1.424588E-18
         7   6 -1.873036E-10 -1.873036E-10  1.605459E-10  1.325941E-18  2.469988E-19 -1.523925E-19
         7   7 -1.873036E-10 -1.873036E-10  1.605459E-10 -1.095329E-19 -2.708903E-19 -1.235451E-19
         7   8 -1.873036E-10 -1.873036E-10  1.605459E-10 -4.087825E-19 -1.588013E-19  8.775995E-19
         8   1 -1.873036E-10 -1.873036E-10  1.605459E-10  1.409463E-18 -3.526958E-19 -5.135837E-19
         8   2 -1.873036E-10 -1.873036E-10  1.605459E-10  1.382358E-18 -1.629604E-19 -1.928290E-18
         8   3 -1.873036E-10 -1.873036E-10  1.605459E-10  7.589415E-19  8.346833E-19 -7.304241E-19
         8   4 -1.873036E-10 -1.873036E-10  1.605459E-10  5.421011E-19  1.841620E-19 -1.386189E-18
         8   5 -1.873036E-10 -1.873036E-10  1.605459E-10  4.336809E-19 -2.108095E-19 -7.899844E-19
         8   6 -1.873036E-10 -1.873036E-10  1.605459E-10  8.673617E-19  5.210270E-19 -2.002175E-18
         8   7 -1.873036E-10 -1.873036E-10  1.605459E-10  4.336809E-19  7.454043E-19  1.378420E-18
         8   8 -1.873036E-10 -1.873036E-10  1.605459E-10  5.421011E-19  3.117234E-19  2.746495E-19
         9   1 -1.873036E-10 -1.873036E-10  1.605459E-10  1.301043E-18  9.762046E-19 -1.452935E-18
         9   2 -1.873036E-10 -1.873036E-10  1.605459E-10  1.680513E-18 -5.958885E-19 -1.390518E-19
         9   3 -1.873036E-10 -1.873036E-10  1.605459E-10  8.673617E-19 -4.094681E-20  6.494795E-20
         9   4 -1.873036E-10 -1.873036E-10  1.605459E-10  1.192622E-18  1.260096E-18  5.656796E-19
         9   5 -1.873036E-10 -1.873036E-10  1.605459E-10 -5.715492E-37  8.979902E-19 -1.912918E-19
         9   6 -1.873036E-10 -1.873036E-10  1.605459E-10  6.505213E-19 -3.488423E-19 -4.947520E-20
         9   7 -1.873036E-10 -1.873036E-10  1.605459E-10 -8.673617E-19 -1.528156E-19  2.423890E-19
         9   8 -1.873036E-10 -1.873036E-10  1.605459E-10  2.168404E-19  6.402484E-20 -1.578954E-19

 displacements (vx,vy,vz) for set NALL and time  0.3367813E+00

         1  0.000000E+00  0.000000E+00  0.000000E+00
         2 -9.622321E-08  0.000000E+00  0.000000E+00
         3 -5.051719E+00  0.000000E+00  0.000000E+00
         4 -5.051719E+00  0.000000E+00  0.000000E+00
         5 -1.010344E+01  0.000000E+00  0.000000E+00
         6 -1.010344E+01  0.000000E+00  0.000000E+00
         7  0.000000E+00 -9.622321E-08  0.000000E+00
         8 -9.622321E-08 -9.622321E-08  0.000000E+00
         9 -5.051719E+00 -9.622321E-08  0.000000E+00
        10 -5.051719E+00 -9.622321E-08  0.000000E+00
        11 -1.010344E+01 -9.622321E-08  0.000000E+00
        12 -1.010344E+01 -9.622321E-08  0.000000E+00
        13  0.000000E+00 -5.051719E+00  0.000000E+00
        14 -9.622321E-08 -5.051719E+00  0.000000E+00
        15 -5.051719E+00 -5.051719E+00  0.000000E+00
        16 -5.051719E+00 -5.051719E+00  0.000000E+00
        17 -1.010344E+01 -5.051719E+00  0.000000E+00
        18 -1.010344E+01 -5.051719E+00  0.000000E+00
        19  0.000000E+00 -5.051719E+00  0.000000E+00
        20 -9.622321E-08 -5.051719E+00  0.000000E+00
        21 -5.051719E+00 -5.051719E+00  0.000000E+00
        22 -5.051719E+00 -5.051719E+00  0.000000E+00
        23 -1.010344E+01 -5.051719E+00  0.000000E+00
        24 -1.010344E+01 -5.051719E+00  0.000000E+00
        25  0.000000E+00 -1.010344E+01  0.000000E+00
        26 -9.622321E-08 -1.010344E+01  0.000000E+00
        27 -5.051719E+00 -1.010344E+01  0.000000E+00
        28 -5.051719E+00 -1.010344E+01  0.000000E+00
        29 -1.010344E+01 -1.010344E+01  0.000000E+00
        30 -1.010344E+01 -1.010344E+01  0.000000E+00
        31  0.000000E+00 -1.010344E+01  0.000000E+00
        32 -9.622321E-08 -1.010344E+01  0.000000E+00
        33 -5.051719E+00 -1.010344E+01  0.000000E+00
        34 -5.051719E+00 -1.010344E+01  0.000000E+00
        35 -1.010344E+01 -1.010344E+01  0.000000E+00
        36 -1.010344E+01 -1.010344E+01  0.000000E+00
        37  0.000000E+00  0.000000E+00  1.154679E-07
        38 -9.622321E-08  0.000000E+00  1.154679E-07
        39 -5.051719E+00  0.000000E+00  1.154679E-07
        40 -5.051719E+00  0.000000E+00  1.154679E-07
        41 -1.010344E+01  0.000000E+00  1.154679E-07
        42 -1.010344E+01  0.000000E+00  1.154679E-07
        43  0.000000E+00 -9.622321E-08  1.154679E-07
        44 -9.622321E-08 -9.622321E-08  1.154679E-07
        45 -5.051719E+00 -9.622321E-08  1.154679E-07
        46 -5.051719E+00 -9.622321E-08  1.154679E-07
        47 -1.010344E+01 -9.622321E-08  1.154679E-07
        48 -1.010344E+01 -9.622321E-08  1.154679E-07
        49  0.000000E+00 -5.051719E+00  1.154679E-07
        50 -9.622321E-08 -5.051719E+00  1.154679E-07
        51 -5.051719E+00 -5.051719E+00  1.154679E-07
        52 -5.051719E+00 -5.051719E+00  1.154679E-07
        53 -1.010344E+01 -5.051719E+00  1.154679E-07
        54 -1.010344E+01 -5.051719E+00  1.154679E-07
        55  0.000000E+00 -5.051719E+00  1.154679E-07
        56 -9.622321E-08 -5.051719E+00  1.154679E-07
        57 -5.051719E+00 -5.051719E+00  1.154679E-07
        58 -5.051719E+00 -5.051719E+00  1.154679E-07
        59 -1.010344E+01 -5.051719E+00  1.154679E-07
        60 -1.010344E+01 -5.051719E+00  1.154679E-07
        61  0.000000E+00 -1.010344E+01  1.154679E-07
        62 -9.622321E-08 -1.010344E+01  1.154679E-07
        63 -5.051719E+00 -1.010344E+01  1.154679E-07
        64 -5.051719E+00 -1.010344E+01  1.154679E-07
        65 -1.010344E+01 -1.010344E+01  1.154679E-07
        66 -1.010344E+01 -1.010344E+01  1.154679E-07
        67  0.000000E+00 -1.010344E+01  1.154679E-07
        68 -9.622321E-08 -1.010344E+01  1.154679E-07
        69 -5.051719E+00 -1.010344E+01  1.154679E-07
        70 -5.051719E+00 -1.010344E+01  1.154679E-07
        71 -1.010344E+01 -1.010344E+01  1.154679E-07
        72 -1.010344E+01 -1.010344E+01  1.154679E-07

 stresses (elem, integ.pnt.,sxx,syy,szz,sxy,sxz,syz) for set EALL and time  0.3367813E+00

         1   1 -5.773393E-05 -5.773393E-05  6.776264E-21 -1.043918E-21  3.914692E-22 -2.609795E-22
         1   2 -5.773393E-05 -5.773393E-05  6.776264E-21 -3.001264E-21  1.696366E-21 -6.524487E-23
         1   3 -5.773393E-05 -5.773393E-05  1.349232E-47 -2.218325E-21  1.043918E-21 -3.879043E-47
         1   4 -5.773393E-05 -5.773393E-05  6.776264E-21 -4.175671E-21  2.609795E-21 -3.523223E-21
         1   5 -5.773393E-05 -5.773393E-05  6.776264E-21 -2.087836E-21  7.829384E-22  3.914692E-21
         1   6 -5.773393E-05 -5.773393E-05 -6.776264E-21 -5.219589E-21  2.087836E-21  2.414060E-21
         1   7 -5.773393E-05 -5.773393E-05  6.776264E-21 -7.307425E-21  5.219589E-22  3.131754E-21
         1   8 -5.773393E-05 -5.773393E-05 -6.776264E-21 -8.351343E-21  2.087836E-21 -1.043918E-21
         2   1 -5.773393E-05 -5.773393E-05  3.646158E-14  8.611552E-14  5.009078E-14  5.414413E-16
         2   2 -5.773393E-05 -5.773393E-05  1.375744E-14  3.795193E-14 -4.623641E-14  1.680257E-15
         2   3 -5.773393E-05 -5.773393E-05  6.446519E-14  8.214133E-14  6.623475E-14 -1.299449E-15
         2   4 -5.773393E-05 -5.773393E-05  3.240332E-14  7.338432E-14  1.538049E-13  6.693765E-15
         2   5 -5.773393E-05 -5.773393E-05 -2.431052E-16  2.057784E-15  4.339363E-14  3.861574E-15
         2   6 -5.773393E-05 -5.773393E-05 -8.553007E-15  1.771981E-13  8.365563E-15  1.257299E-15
         2   7 -5.773393E-05 -5.773393E-05  8.687038E-14  7.679755E-15 -8.431777E-14  2.020686E-15
         2   8 -5.773393E-05 -5.773393E-05  6.920274E-14  6.022186E-14  3.828047E-14  6.270806E-15
         3   1 -5.773393E-05 -5.773393E-05  1.301451E-14 -1.437139E-13  2.135959E-13  2.363794E-15
         3   2 -5.773393E-05 -5.773393E-05  2.166482E-14 -2.987266E-14  9.099763E-14  5.413007E-16
         3   3 -5.773393E-05 -5.773393E-05  1.306438E-13 -1.535537E-13 -1.375841E-14 -1.721307E-14
         3   4 -5.773393E-05 -5.773393E-05  2.191242E-14 -3.971243E-14  1.964100E-13  2.293796E-14
         3   5 -5.773393E-05 -5.773393E-05  1.820715E-13 -1.222052E-13 -5.726469E-14  2.839866E-14
         3   6 -5.773393E-05 -5.773393E-05  2.788662E-13 -2.973455E-13 -1.360778E-13 -2.037650E-14
         3   7 -5.773393E-05 -5.773393E-05 -1.555185E-14 -7.328200E-14  8.876520E-14  8.821799E-15
         3   8 -5.773393E-05 -5.773393E-05 -3.613880E-14 -3.825393E-14  8.876520E-14  2.020163E-15
         4   1 -5.773393E-05 -5.773393E-05 -1.575319E-13 -1.401130E-14 -7.533851E-16 -2.886410E-14
         4   2 -5.773393E-05 -5.773393E-05 -1.123384E-13 -4.441652E-15  2.754870E-15 -1.171082E-14
         4   3 -5.773393E-05 -5.773393E-05 -2.206998E-13 -1.401130E-14  1.437603E-15 -8.140620E-14
         4   4 -5.773393E-05 -5.773393E-05 -1.480645E-13 -4.441652E-15 -4.495371E-17 -9.490249E-14
         4   5 -5.773393E-05 -5.773393E-05 -2.027067E-13 -1.391670E-13 -6.319926E-15 -1.124152E-13
         4   6 -5.773393E-05 -5.773393E-05  4.608749E-14 -1.365845E-13 -2.811673E-15 -7.552816E-14
         4   7 -5.773393E-05 -5.773393E-05 -2.763553E-13  9.452650E-16  6.847763E-15 -4.235901E-14
         4   8 -5.773393E-05 -5.773393E-05 -1.193774E-16  3.527780E-15  5.365205E-15 -2.736456E-14
         5   1 -5.773393E-05 -5.773393E-05 -6.627787E-14 -3.502807E-14 -4.657552E-14 -6.353163E-14
         5   2 -5.773393E-05 -5.773393E-05  5.985556E-14 -2.627105E-14 -5.095403E-14 -4.764064E-14
         5   3 -5.773393E-05 -5.773393E-05  6.366624E-14  9.290879E-30 -7.446962E-14  6.524506E-15
         5   4 -5.773393E-05 -5.773393E-05  1.780124E-13  5.254211E-14 -3.944155E-14  3.117251E-14
         5   5 -5.773393E-05 -5.773393E-05  1.910305E-14  3.502807E-14  4.753553E-15 -8.073442E-14
         5   6 -5.773393E-05 -5.773393E-05 -4.522865E-14 -1.751404E-14  3.750447E-16  4.690999E-14
         5   7 -5.773393E-05 -5.773393E-05 -4.141797E-14 -7.005614E-14  5.358481E-14  2.434979E-14
         5   8 -5.773393E-05 -5.773393E-05 -1.503758E-13 -8.757018E-14 -5.149940E-14  3.124905E-15
         6   1 -5.773393E-05 -5.773393E-05 -1.753496E-14 -4.816360E-14 -1.485743E-14  7.841329E-15
         6   2 -5.773393E-05 -5.773393E-05 -1.452841E-13  2.189254E-14 -1.637267E-13  7.397573E-15
         6   3 -5.773393E-05 -5.773393E-05  8.856440E-14  1.751404E-14 -1.510350E-13 -6.221481E-14
         6   4 -5.773393E-05 -5.773393E-05 -1.887765E-14  7.881316E-14  5.913347E-14  2.929012E-14
         6   5 -5.773393E-05 -5.773393E-05  2.189045E-13 -1.225982E-13  1.547198E-13 -4.079190E-14
         6   6 -5.773393E-05 -5.773393E-05 -1.392887E-14  2.276825E-13 -1.166358E-14 -8.593168E-15
         6   7 -5.773393E-05 -5.773393E-05  9.751253E-15 -1.401123E-13  9.934831E-14 -4.079190E-14
         6   8 -5.773393E-05 -5.773393E-05 -3.858094E-14  1.401123E-13 -1.458482E-13  1.315191E-13
         7   1 -5.773393E-05 -5.773393E-05 -1.083446E-13  6.451401E-14  1.284462E-15 -5.694530E-14
         7   2 -5.773393E-05 -5.773393E-05 -1.429387E-13  4.937261E-14  1.337710E-14 -1.036189E-13
         7   3 -5.773393E-05 -5.773393E-05 -4.150799E-14 -5.542135E-15 -5.212202E-15  1.532231E-13
         7   4 -5.773393E-05 -5.773393E-05 -9.583092E-14 -2.068353E-14 -2.977252E-15 -2.480573E-14
         7   5 -5.773393E-05 -5.773393E-05 -3.040796E-14  1.295187E-13 -7.298964E-15 -2.663223E-13
         7   6 -5.773393E-05 -5.773393E-05  5.321768E-14  1.005766E-13  4.793679E-15 -1.194760E-13
         7   7 -5.773393E-05 -5.773393E-05  1.572751E-14 -1.059357E-14 -2.168716E-14  4.893033E-14
         7   8 -5.773393E-05 -5.773393E-05  7.962434E-14 -3.953573E-14 -1.945221E-14  3.122235E-15
         8   1 -5.773393E-05 -5.773393E-05 -1.605385E-13  1.225982E-13  2.524462E-14 -6.773153E-14
         8   2 -5.773393E-05 -5.773393E-05 -2.404962E-13  1.751404E-14  5.151567E-14 -2.592187E-13
         8   3 -5.773393E-05 -5.773393E-05 -2.169065E-13  5.254211E-14 -1.737322E-14  1.424369E-13
         8   4 -5.773393E-05 -5.773393E-05 -2.304836E-13 -4.378509E-14  1.765485E-14 -7.532130E-14
         8   5 -5.773393E-05 -5.773393E-05 -2.261546E-14  7.005614E-14  1.602977E-14 -3.065771E-13
         8   6 -5.773393E-05 -5.773393E-05  1.564653E-14  1.926544E-13 -1.024129E-14 -6.343494E-14
         8   7 -5.773393E-05 -5.773393E-05 -1.118223E-13 -7.005614E-14  7.527452E-14  1.487878E-13
         8   8 -5.773393E-05 -5.773393E-05 -2.031519E-14  7.005614E-14  7.527452E-14 -1.964985E-14
         9   1 -5.773393E-05 -5.773393E-05 -9.215260E-14  1.630241E-31 -1.945357E-14 -5.507162E-13
         9   2 -5.773393E-05 -5.773393E-05 -2.250230E-13  1.401123E-13  6.811660E-14 -8.846451E-14
         9   3 -5.773393E-05 -5.773393E-05  7.940902E-14 -7.005614E-14 -1.256685E-14 -1.303793E-13
         9   4 -5.773393E-05 -5.773393E-05  9.866006E-14  6.129912E-14  9.251736E-14 -1.840837E-14
         9   5 -5.773393E-05 -5.773393E-05  1.293163E-14  1.401123E-13  2.776790E-13 -1.738445E-13
         9   6 -5.773393E-05 -5.773393E-05  9.022965E-14 -3.502807E-14 -2.881664E-14 -8.684375E-14
         9   7 -5.773393E-05 -5.773393E-05  2.686692E-14 -4.203368E-13  9.321217E-14 -1.037883E-13
         9   8 -5.773393E-05 -5.773393E-05  4.611796E-14 -1.050842E-13 -1.169562E-13 -8.030591E-15

 strains (elem, integ.pnt.,exx,eyy,ezz,exy,exz,eyz) forset EALL and time  0.3367813E+00

         1   1 -1.924464E-10 -1.924464E-10  1.649541E-10 -6.462349E-27  2.423381E-27 -1.615587E-27
         1   2 -1.924464E-10 -1.924464E-10  1.649541E-10 -1.857925E-26  1.050132E-26 -4.038968E-28
         1   3 -1.924464E-10 -1.924464E-10  1.649541E-10 -1.373249E-26  6.462349E-27 -2.610122E-53
         1   4 -1.924464E-10 -1.924464E-10  1.649541E-10 -2.584939E-26  1.615587E-26 -2.181043E-26
         1   5 -1.924464E-10 -1.924464E-10  1.649541E-10 -1.292470E-26  4.846761E-27  2.423381E-26
         1   6 -1.924464E-10 -1.924464E-10  1.649541E-10 -3.231174E-26  1.292470E-26  1.494418E-26
         1   7 -1.924464E-10 -1.924464E-10  1.649541E-10 -4.523644E-26  3.231174E-27  1.938705E-26
         1   8 -1.924464E-10 -1.924464E-10  1.649541E-10 -5.169879E-26  1.292470E-26 -6.462349E-27
         2   1 -1.924464E-10 -1.924464E-10  1.649541E-10  5.330961E-19  3.100858E-19  3.351779E-21
         2   2 -1.924464E-10 -1.924464E-10  1.649541E-10  2.349405E-19 -2.862254E-19  1.040159E-20
         2   3 -1.924464E-10 -1.924464E-10  1.649541E-10  5.084940E-19  4.100246E-19 -8.044205E-21
         2   4 -1.924464E-10 -1.924464E-10  1.649541E-10  4.542839E-19  9.521257E-19  4.143759E-20
         2   5 -1.924464E-10 -1.924464E-10  1.649541E-10  1.273866E-20  2.686273E-19  2.390498E-20
         2   6 -1.924464E-10 -1.924464E-10  1.649541E-10  1.096941E-18  5.178682E-20  7.783277E-21
         2   7 -1.924464E-10 -1.924464E-10  1.649541E-10  4.754134E-20 -5.219672E-19  1.250901E-20
         2   8 -1.924464E-10 -1.924464E-10  1.649541E-10  3.728020E-19  2.369744E-19  3.881928E-20
         3   1 -1.924464E-10 -1.924464E-10  1.649541E-10 -8.896574E-19  1.322260E-18  1.463301E-20
         3   2 -1.924464E-10 -1.924464E-10  1.649541E-10 -1.849260E-19  5.633187E-19  3.350909E-21
         3   3 -1.924464E-10 -1.924464E-10  1.649541E-10 -9.505703E-19 -8.517111E-20 -1.065571E-19
         3   4 -1.924464E-10 -1.924464E-10  1.649541E-10 -2.458389E-19  1.215871E-18  1.419969E-19
         3   5 -1.924464E-10 -1.924464E-10  1.649541E-10 -7.565081E-19 -3.544957E-19  1.758013E-19
         3   6 -1.924464E-10 -1.924464E-10  1.649541E-10 -1.840710E-18 -8.423867E-19 -1.261402E-19
         3   7 -1.924464E-10 -1.924464E-10  1.649541E-10 -4.536505E-19  5.494988E-19  5.461114E-20
         3   8 -1.924464E-10 -1.924464E-10  1.649541E-10 -2.368100E-19  5.494988E-19  1.250577E-20
         4   1 -1.924464E-10 -1.924464E-10  1.649541E-10 -8.673662E-20 -4.663812E-21 -1.786825E-19
         4   2 -1.924464E-10 -1.924464E-10  1.649541E-10 -2.749594E-20  1.705395E-20 -7.249556E-20
         4   3 -1.924464E-10 -1.924464E-10  1.649541E-10 -8.673662E-20  8.899447E-21 -5.039432E-19
         4   4 -1.924464E-10 -1.924464E-10  1.649541E-10 -2.749594E-20 -2.782849E-22 -5.874916E-19
         4   5 -1.924464E-10 -1.924464E-10  1.649541E-10 -8.615101E-19 -3.912335E-20 -6.959033E-19
         4   6 -1.924464E-10 -1.924464E-10  1.649541E-10 -8.455231E-19 -1.740560E-20 -4.675553E-19
         4   7 -1.924464E-10 -1.924464E-10  1.649541E-10  5.851640E-21  4.239091E-20 -2.622225E-19
         4   8 -1.924464E-10 -1.924464E-10  1.649541E-10  2.183864E-20  3.321318E-20 -1.693997E-19
         5   1 -1.924464E-10 -1.924464E-10  1.649541E-10 -2.168404E-19 -2.883247E-19 -3.932911E-19
         5   2 -1.924464E-10 -1.924464E-10  1.649541E-10 -1.626303E-19 -3.154297E-19 -2.949183E-19
         5   3 -1.924464E-10 -1.924464E-10  1.649541E-10 -5.755441E-35 -4.610024E-19  4.038980E-20
         5   4 -1.924464E-10 -1.924464E-10  1.649541E-10  3.252607E-19 -2.441620E-19  1.929727E-19
         5   5 -1.924464E-10 -1.924464E-10  1.649541E-10  2.168404E-19  2.942676E-20 -4.997845E-19
         5   6 -1.924464E-10 -1.924464E-10  1.649541E-10 -1.084202E-19  2.321705E-21  2.903952E-19
         5   7 -1.924464E-10 -1.924464E-10  1.649541E-10 -4.336809E-19  3.317155E-19  1.507368E-19
         5   8 -1.924464E-10 -1.924464E-10  1.649541E-10 -5.421011E-19 -3.188058E-19  1.934465E-20
         6   1 -1.924464E-10 -1.924464E-10  1.649541E-10 -2.981556E-19 -9.197454E-20  4.854156E-20
         6   2 -1.924464E-10 -1.924464E-10  1.649541E-10  1.355253E-19 -1.013546E-18  4.579450E-20
         6   3 -1.924464E-10 -1.924464E-10  1.649541E-10  1.084202E-19 -9.349783E-19 -3.851393E-19
         6   4 -1.924464E-10 -1.924464E-10  1.649541E-10  4.878910E-19  3.660643E-19  1.813198E-19
         6   5 -1.924464E-10 -1.924464E-10  1.649541E-10 -7.589415E-19  9.577889E-19 -2.525213E-19
         6   6 -1.924464E-10 -1.924464E-10  1.649541E-10  1.409463E-18 -7.220312E-20 -5.319580E-20
         6   7 -1.924464E-10 -1.924464E-10  1.649541E-10 -8.673617E-19  6.150133E-19 -2.525213E-19
         6   8 -1.924464E-10 -1.924464E-10  1.649541E-10  8.673617E-19 -9.028697E-19  8.141659E-19
         7   1 -1.924464E-10 -1.924464E-10  1.649541E-10  3.993724E-19  7.951432E-21 -3.525185E-19
         7   2 -1.924464E-10 -1.924464E-10  1.649541E-10  3.056400E-19  8.281065E-20 -6.414502E-19
         7   3 -1.924464E-10 -1.924464E-10  1.649541E-10 -3.430845E-20 -3.226602E-20  9.485241E-19
         7   4 -1.924464E-10 -1.924464E-10  1.649541E-10 -1.280409E-19 -1.843061E-20 -1.535593E-19
         7   5 -1.924464E-10 -1.924464E-10  1.649541E-10  8.017825E-19 -4.518406E-20 -1.648662E-18
         7   6 -1.924464E-10 -1.924464E-10  1.649541E-10  6.226168E-19  2.967515E-20 -7.396134E-19
         7   7 -1.924464E-10 -1.924464E-10  1.649541E-10 -6.557922E-20 -1.342538E-19  3.029021E-19
         7   8 -1.924464E-10 -1.924464E-10  1.649541E-10 -2.447450E-19 -1.204184E-19  1.932812E-20
         8   1 -1.924464E-10 -1.924464E-10  1.649541E-10  7.589415E-19  1.562762E-19 -4.192904E-19
         8   2 -1.924464E-10 -1.924464E-10  1.649541E-10  1.084202E-19  3.189065E-19 -1.604687E-18
         8   3 -1.924464E-10 -1.924464E-10  1.649541E-10  3.252607E-19 -1.075485E-19  8.817522E-19
         8   4 -1.924464E-10 -1.924464E-10  1.649541E-10 -2.710505E-19  1.092919E-19 -4.662747E-19
         8   5 -1.924464E-10 -1.924464E-10  1.649541E-10  4.336809E-19  9.923189E-20 -1.897858E-18
         8   6 -1.924464E-10 -1.924464E-10  1.649541E-10  1.192622E-18 -6.339844E-20 -3.926925E-19
         8   7 -1.924464E-10 -1.924464E-10  1.649541E-10 -4.336809E-19  4.659852E-19  9.210676E-19
         8   8 -1.924464E-10 -1.924464E-10  1.649541E-10  4.336809E-19  4.659852E-19 -1.216419E-19
         9   1 -1.924464E-10 -1.924464E-10  1.649541E-10 -2.025909E-37 -1.204269E-19 -3.409195E-18
         9   2 -1.924464E-10 -1.924464E-10  1.649541E-10  8.673617E-19  4.216742E-19 -5.476375E-19
         9   3 -1.924464E-10 -1.924464E-10  1.649541E-10 -4.336809E-19 -7.779477E-20 -8.071100E-19
         9   4 -1.924464E-10 -1.924464E-10  1.649541E-10  3.794708E-19  5.727265E-19 -1.139566E-19
         9   5 -1.924464E-10 -1.924464E-10  1.649541E-10  8.673617E-19  1.718965E-18 -1.076180E-18
         9   6 -1.924464E-10 -1.924464E-10  1.649541E-10 -2.168404E-19 -1.783887E-19 -5.376042E-19
         9   7 -1.924464E-10 -1.924464E-10  1.649541E-10 -2.602085E-18  5.770277E-19 -6.424993E-19
         9   8 -1.924464E-10 -1.924464E-10  1.649541E-10 -6.505213E-19 -7.240149E-19 -4.971318E-20

 displacements (vx,vy,vz) for set NALL and time  0.3457813E+00

         1  0.000000E+00  0.000000E+00  0.000000E+00
         2 -9.879464E-08  0.000000E+00  0.000000E+00
         3 -5.186719E+00  0.000000E+00  0.000000E+00
         4 -5.186719E+00  0.000000E+00  0.000000E+00
         5 -1.037344E+01  0.000000E+00  0.000000E+00
         6 -1.037344E+01  0.000000E+00  0.000000E+00
         7  0.000000E+00 -9.879464E-08  0.000000E+00
         8 -9.879464E-08 -9.879464E-08  0.000000E+00
         9 -5.186719E+00 -9.879464E-08  0.000000E+00
        10 -5.186719E+00 -9.879464E-08  0.000000E+00
        11 -1.037344E+01 -9.879464E-08  0.000000E+00
        12 -1.037344E+01 -9.879464E-08  0.000000E+00
        13  0.000000E+00 -5.186719E+00  0.000000E+00
        14 -9.879464E-08 -5.186719E+00  0.000000E+00
        15 -5.186719E+00 -5.186719E+00  0.000000E+00
        16 -5.186719E+00 -5.186719E+00  0.000000E+00
        17 -1.037344E+01 -5.186719E+00  0.000000E+00
        18 -1.037344E+01 -5.186719E+00  0.000000E+00
        19  0.000000E+00 -5.186719E+00  0.000000E+00
        20 -9.879464E-08 -5.186719E+00  0.000000E+00
        21 -5.186719E+00 -5.186719E+00  0.000000E+00
        22 -5.186719E+00 -5.186719E+00  0.000000E+00
        23 -1.037344E+01 -5.186719E+00  0.000000E+00
        24 -1.037344E+01 -5.186719E+00  0.000000E+00
        25  0.000000E+00 -1.037344E+01  0.000000E+00
        26 -9.879464E-08 -1.037344E+01  0.000000E+00
        27 -5.186719E+00 -1.037344E+01  0.000000E+00
        28 -5.186719E+00 -1.037344E+01  0.000000E+00
        29 -1.037344E+01 -1.037344E+01  0.000000E+00
        30 -1.037344E+01 -1.037344E+01  0.000000E+00
        31  0.000000E+00 -1.037344E+01  0.000000E+00
        32 -9.879464E-08 -1.037344E+01  0.000000E+00
        33 -5.186719E+00 -1.037344E+01  0.000000E+00
        34 -5.186719E+00 -1.037344E+01  0.000000E+00
        35 -1.037344E+01 -1.037344E+01  0.000000E+00
        36 -1.037344E+01 -1.037344E+01  0.000000E+00
        37  0.000000E+00  0.000000E+00  1.185536E-07
        38 -9.879464E-08  0.000000E+00  1.185536E-07
        39 -5.186719E+00  0.000000E+00  1.185536E-07
        40 -5.186719E+00  0.000000E+00  1.185536E-07
        41 -1.037344E+01  0.000000E+00  1.185536E-07
        42 -1.037344E+01  0.000000E+00  1.185536E-07
        43  0.000000E+00 -9.879464E-08  1.185536E-07
        44 -9.879464E-08 -9.879464E-08  1.185536E-07
        45 -5.186719E+00 -9.879464E-08  1.185536E-07
        46 -5.186719E+00 -9.879464E-08  1.185536E-07
        47 -1.037344E+01 -9.879464E-08  1.185536E-07
        48 -1.037344E+01 -9.879464E-08  1.185536E-07
        49  0.000000E+00 -5.186719E+00  1.185536E-07
        50 -9.879464E-08 -5.186719E+00  1.185536E-07
        51 -5.186719E+00 -5.186719E+00  1.185536E-07
        52 -5.186719E+00 -5.186719E+00  1.185536E-07
        53 -1.037344E+01 -5.186719E+00  1.185536E-07
        54 -1.037344E+01 -5.186719E+00  1.185536E-07
        55  0.000000E+00 -5.186719E+00  1.185536E-07
        56 -9.879464E-08 -5.186719E+00  1.185536E-07
        57 -5.186719E+00 -5.186719E+00  1.185536E-07
        58 -5.186719E+00 -5.186719E+00  1.185536E-07
        59 -1.037344E+01 -5.186719E+00  1.185536E-07
        60 -1.037344E+01 -5.186719E+00  1.185536E-07
        61  0.000000E+00 -1.037344E+01  1.185536E-07
        62 -9.879464E-08 -1.037344E+01  1.185536E-07
        63 -5.186719E+00 -1.037344E+01  1.185536E-07
        64 -5.186719E+00 -1.037344E+01  1.185536E-07
        65 -1.037344E+01 -1.037344E+01  1.185536E-07
        66 -1.037344E+01 -1.037344E+01  1.185536E-07
        67  0.000000E+00 -1.037344E+01  1.185536E-07
        68 -9.879464E-08 -1.037344E+01  1.185536E-07
        69 -5.186719E+00 -1.037344E+01  1.185536E-07
        70 -5.186719E+00 -1.037344E+01  1.185536E-07
        71 -1.037344E+01 -1.037344E+01  1.185536E-07
        72 -1.037344E+01 -1.037344E+01  1.185536E-07

 stresses (elem, integ.pnt.,sxx,syy,szz,sxy,sxz,syz) for set EALL and time  0.3457813E+00

         1   1 -5.927678E-05 -5.927678E-05 -6.776264E-21  6.524486E-22 -1.957346E-22  3.392733E-21
         1   2 -5.927678E-05 -5.927678E-05 -6.776264E-21 -6.393997E-21 -9.134281E-22 -2.283570E-21
         1   3 -5.927678E-05 -5.927678E-05 -2.032879E-20  7.568404E-21  2.087836E-21  1.096114E-20
         1   4 -5.927678E-05 -5.927678E-05 -2.032879E-20  5.219589E-22  1.409289E-20 -3.914692E-21
         1   5 -5.927678E-05 -5.927678E-05  6.776264E-21  2.609795E-21 -5.872038E-22  4.958610E-21
         1   6 -5.927678E-05 -5.927678E-05 -1.355253E-20  1.357093E-20 -1.304897E-21 -7.764139E-21
         1   7 -5.927678E-05 -5.927678E-05  2.032879E-20 -2.609795E-21 -5.741548E-21  1.148310E-20
         1   8 -5.927678E-05 -5.927678E-05  8.095393E-47  8.351343E-21  6.263507E-21 -9.395261E-21
         2   1 -5.927678E-05 -5.927678E-05  1.690911E-14  3.647952E-14  3.488712E-14  3.355531E-15
         2   2 -5.927678E-05 -5.927678E-05  2.189453E-14  4.961505E-14  1.268358E-13 -2.472829E-15
         2   3 -5.927678E-05 -5.927678E-05  9.861584E-14  4.044495E-14 -8.861004E-15 -1.769943E-15
         2   4 -5.927678E-05 -5.927678E-05  4.404220E-14  6.233750E-14 -9.643118E-14  3.019406E-16
         2   5 -5.927678E-05 -5.927678E-05  2.584890E-14 -6.455632E-14  3.450202E-14  1.764849E-14
         2   6 -5.927678E-05 -5.927678E-05  4.742484E-14  5.804192E-14  4.763755E-14 -1.200349E-14
         2   7 -5.927678E-05 -5.927678E-05 -1.748582E-13 -4.953055E-14  1.070426E-13  1.252301E-14
         2   8 -5.927678E-05 -5.927678E-05 -2.128413E-13  1.080958E-13 -1.555568E-14 -9.228723E-15
         3   1 -5.927678E-05 -5.927678E-05  9.290881E-14 -1.668796E-13  3.783511E-14  1.259782E-15
         3   2 -5.927678E-05 -5.927678E-05  1.459344E-13  1.658870E-13  9.037722E-14  5.679744E-15
         3   3 -5.927678E-05 -5.927678E-05  1.753824E-14 -1.443109E-13  1.428939E-13 -1.243811E-14
         3   4 -5.927678E-05 -5.927678E-05  7.039010E-14  4.834351E-14  2.479781E-13  4.126893E-15
         3   5 -5.927678E-05 -5.927678E-05 -5.407650E-14 -1.256280E-13  4.550408E-14  1.839946E-14
         3   6 -5.927678E-05 -5.927678E-05  2.445362E-14 -1.606561E-13  1.718997E-15  2.274994E-14
         3   7 -5.927678E-05 -5.927678E-05 -1.122733E-14 -8.605621E-14  1.038111E-14  4.701570E-15
         3   8 -5.927678E-05 -5.927678E-05  6.712912E-14 -5.102814E-14 -9.470310E-14  2.119709E-14
         4   1 -5.927678E-05 -5.927678E-05  3.435721E-15  3.478210E-14  1.028608E-15 -8.366396E-14
         4   2 -5.927678E-05 -5.927678E-05 -5.757654E-14  3.411009E-14  4.599771E-15 -8.577665E-14
         4   3 -5.927678E-05 -5.927678E-05  2.910763E-14 -2.459724E-16 -1.702038E-15  1.440185E-13
         4   4 -5.927678E-05 -5.927678E-05 -4.633455E-14 -9.179812E-16  1.808384E-16 -3.323454E-14
         4   5 -5.927678E-05 -5.927678E-05  1.093516E-14  6.894503E-14  2.676500E-16  1.457819E-14
         4   6 -5.927678E-05 -5.927678E-05 -4.350933E-14  6.590942E-14  3.838813E-15  8.550669E-14
         4   7 -5.927678E-05 -5.927678E-05  3.306168E-14  6.894503E-14 -8.234968E-15 -5.547795E-14
         4   8 -5.927678E-05 -5.927678E-05 -3.581274E-14  6.590942E-14 -6.352091E-15 -1.082051E-14
         5   1 -5.927678E-05 -5.927678E-05 -2.739099E-13 -8.757018E-14 -4.802984E-14 -2.386613E-14
         5   2 -5.927678E-05 -5.927678E-05 -1.971163E-13 -1.751404E-13  8.890772E-15 -2.529599E-15
         5   3 -5.927678E-05 -5.927678E-05 -1.385626E-13 -8.757018E-14  7.839090E-14 -5.889420E-14
         5   4 -5.927678E-05 -5.927678E-05  3.001684E-14 -1.357338E-13 -2.669331E-14 -3.755767E-14
         5   5 -5.927678E-05 -5.927678E-05 -5.717375E-14 -7.005614E-14 -8.824422E-14 -4.591325E-14
         5   6 -5.927678E-05 -5.927678E-05 -2.635443E-14 -5.254211E-14 -1.380957E-14 -6.667557E-14
         5   7 -5.927678E-05 -5.927678E-05  4.533476E-14 -7.005614E-14  3.110575E-14  4.165693E-14
         5   8 -5.927678E-05 -5.927678E-05  1.548043E-13 -1.751404E-14 -3.922325E-15 -8.418960E-14
         6   1 -5.927678E-05 -5.927678E-05 -1.134471E-13 -8.757018E-14  8.680045E-14 -4.421239E-14
         6   2 -5.927678E-05 -5.927678E-05  2.242226E-13  6.129912E-14  7.987293E-15 -8.646837E-14
         6   3 -5.927678E-05 -5.927678E-05 -5.515077E-14 -1.751404E-14 -7.997637E-15  9.589989E-14
         6   4 -5.927678E-05 -5.927678E-05  2.974257E-13  2.627105E-14 -4.302571E-14  3.612987E-14
         6   5 -5.927678E-05 -5.927678E-05  3.104368E-14 -7.005614E-14 -7.762166E-14 -4.366209E-14
         6   6 -5.927678E-05 -5.927678E-05  1.454094E-13 -1.701420E-31  9.751869E-14  8.490486E-15
         6   7 -5.927678E-05 -5.927678E-05  2.075598E-13 -2.101684E-13  1.102647E-13  9.645019E-14
         6   8 -5.927678E-05 -5.927678E-05  1.003928E-13  7.005614E-14 -6.487566E-14 -4.843013E-14
         7   1 -5.927678E-05 -5.927678E-05 -6.728897E-16 -5.275757E-15 -2.232814E-15  2.412204E-14
         7   2 -5.927678E-05 -5.927678E-05  9.893006E-16 -1.968939E-14 -3.743644E-15 -5.990717E-14
         7   3 -5.927678E-05 -5.927678E-05  1.424633E-13 -5.275757E-15  1.233181E-15 -1.159902E-13
         7   4 -5.927678E-05 -5.927678E-05  1.084991E-13 -1.968939E-14  2.344217E-14  1.890598E-14
         7   5 -5.927678E-05 -5.927678E-05 -2.665562E-13  6.879121E-15 -6.822150E-15 -1.551718E-13
         7   6 -5.927678E-05 -5.927678E-05 -2.254874E-13  2.567323E-14 -8.332978E-15  8.807213E-14
         7   7 -5.927678E-05 -5.927678E-05 -7.360838E-14  6.879121E-15 -1.760669E-14  9.002469E-14
         7   8 -5.927678E-05 -5.927678E-05 -6.816597E-14  2.567323E-14  4.602297E-15  7.055809E-14
         8   1 -5.927678E-05 -5.927678E-05 -6.368593E-14 -1.050842E-13 -2.161919E-14  8.190041E-15
         8   2 -5.927678E-05 -5.927678E-05 -7.858913E-14  8.342610E-31  1.710352E-13  1.904138E-13
         8   3 -5.927678E-05 -5.927678E-05  5.136295E-14 -1.401123E-13  4.676338E-14  8.190041E-15
         8   4 -5.927678E-05 -5.927678E-05 -8.145850E-14 -3.064956E-14  1.168195E-13 -8.105371E-14
         8   5 -5.927678E-05 -5.927678E-05 -1.884734E-13  7.005614E-14 -1.532064E-14 -1.796028E-13
         8   6 -5.927678E-05 -5.927678E-05 -1.639700E-13  1.401123E-13  5.473550E-14  9.031179E-14
         8   7 -5.927678E-05 -5.927678E-05 -1.062634E-13 -7.005614E-14  5.318252E-14  3.056565E-14
         8   8 -5.927678E-05 -5.927678E-05 -1.602717E-13  1.751404E-14  1.815445E-14 -4.104347E-14
         9   1 -5.927678E-05 -5.927678E-05  1.042153E-13 -3.502807E-14 -5.164640E-14 -5.180680E-14
         9   2 -5.927678E-05 -5.927678E-05  2.562272E-13  1.138412E-13  1.059799E-13  7.103272E-14
         9   3 -5.927678E-05 -5.927678E-05  1.106408E-13 -3.502807E-14 -1.389753E-13  1.824934E-14
         9   4 -5.927678E-05 -5.927678E-05  9.213552E-14  8.757018E-15  1.136985E-15  1.060608E-13
         9   5 -5.927678E-05 -5.927678E-05 -2.767150E-13 -1.401123E-13 -7.140619E-14 -7.200483E-14
         9   6 -5.927678E-05 -5.927678E-05 -4.588989E-14 -1.751404E-13  2.438464E-13  2.991570E-14
         9   7 -5.927678E-05 -5.927678E-05 -1.520697E-13 -1.401123E-13  4.243286E-15  6.810745E-14
         9   8 -5.927678E-05 -5.927678E-05  1.184066E-13 -1.050842E-13 -3.078478E-14  7.370079E-14

 strains (elem, integ.pnt.,exx,eyy,ezz,exy,exz,eyz) forset EALL and time  0.3457813E+00

         1   1 -1.975893E-10 -1.975893E-10  1.693622E-10  4.038968E-27 -1.211690E-27  2.100263E-26
         1   2 -1.975893E-10 -1.975893E-10  1.693622E-10 -3.958188E-26 -5.654555E-27 -1.413639E-26
         1   3 -1.975893E-10 -1.975893E-10  1.693622E-10  4.685203E-26  1.292470E-26  6.785466E-26
         1   4 -1.975893E-10 -1.975893E-10  1.693622E-10  3.231174E-27  8.724171E-26 -2.423381E-26
         1   5 -1.975893E-10 -1.975893E-10  1.693622E-10  1.615587E-26 -3.635071E-27  3.069616E-26
         1   6 -1.975893E-10 -1.975893E-10  1.693622E-10  8.401053E-26 -8.077936E-27 -4.806372E-26
         1   7 -1.975893E-10 -1.975893E-10  1.693622E-10 -1.615587E-26 -3.554292E-26  7.108583E-26
         1   8 -1.975893E-10 -1.975893E-10  1.693622E-10  5.169879E-26  3.877409E-26 -5.816114E-26
         2   1 -1.975893E-10 -1.975893E-10  1.693622E-10  2.258256E-19  2.159679E-19  2.077234E-20
         2   2 -1.975893E-10 -1.975893E-10  1.693622E-10  3.071408E-19  7.851740E-19 -1.530799E-20
         2   3 -1.975893E-10 -1.975893E-10  1.693622E-10  2.503735E-19 -5.485383E-20 -1.095679E-20
         2   4 -1.975893E-10 -1.975893E-10  1.693622E-10  3.858988E-19 -5.969549E-19  1.869156E-21
         2   5 -1.975893E-10 -1.975893E-10  1.693622E-10 -3.996344E-19  2.135839E-19  1.092525E-19
         2   6 -1.975893E-10 -1.975893E-10  1.693622E-10  3.593071E-19  2.948991E-19 -7.430732E-20
         2   7 -1.975893E-10 -1.975893E-10  1.693622E-10 -3.066177E-19  6.626444E-19  7.752342E-20
         2   8 -1.975893E-10 -1.975893E-10  1.693622E-10  6.691643E-19 -9.629707E-20 -5.713019E-20
         3   1 -1.975893E-10 -1.975893E-10  1.693622E-10 -1.033064E-18  2.342173E-19  7.798648E-21
         3   2 -1.975893E-10 -1.975893E-10  1.693622E-10  1.026920E-18  5.594780E-19  3.516032E-20
         3   3 -1.975893E-10 -1.975893E-10  1.693622E-10 -8.933530E-19  8.845812E-19 -7.699779E-20
         3   4 -1.975893E-10 -1.975893E-10  1.693622E-10  2.992693E-19  1.535103E-18  2.554743E-20
         3   5 -1.975893E-10 -1.975893E-10  1.693622E-10 -7.776971E-19  2.816920E-19  1.139014E-19
         3   6 -1.975893E-10 -1.975893E-10  1.693622E-10 -9.945376E-19  1.064141E-20  1.408330E-19
         3   7 -1.975893E-10 -1.975893E-10  1.693622E-10 -5.327289E-19  6.426402E-20  2.910496E-20
         3   8 -1.975893E-10 -1.975893E-10  1.693622E-10 -3.158885E-19 -5.862573E-19  1.312201E-19
         4   1 -1.975893E-10 -1.975893E-10  1.693622E-10  2.153177E-19  6.367572E-21 -5.179198E-19
         4   2 -1.975893E-10 -1.975893E-10  1.693622E-10  2.111577E-19  2.847477E-20 -5.309983E-19
         4   3 -1.975893E-10 -1.975893E-10  1.693622E-10 -1.522686E-21 -1.053642E-20  8.915431E-19
         4   4 -1.975893E-10 -1.975893E-10  1.693622E-10 -5.682741E-21  1.119476E-21 -2.057377E-19
         4   5 -1.975893E-10 -1.975893E-10  1.693622E-10  4.268026E-19  1.656881E-21  9.024596E-20
         4   6 -1.975893E-10 -1.975893E-10  1.693622E-10  4.080107E-19  2.376408E-20  5.293271E-19
         4   7 -1.975893E-10 -1.975893E-10  1.693622E-10  4.268026E-19 -5.097837E-20 -3.434349E-19
         4   8 -1.975893E-10 -1.975893E-10  1.693622E-10  4.080107E-19 -3.932247E-20 -6.698408E-20
         5   1 -1.975893E-10 -1.975893E-10  1.693622E-10 -5.421011E-19 -2.973276E-19 -1.477427E-19
         5   2 -1.975893E-10 -1.975893E-10  1.693622E-10 -1.084202E-18  5.503811E-20 -1.565942E-20
         5   3 -1.975893E-10 -1.975893E-10  1.693622E-10 -5.421011E-19  4.852770E-19 -3.645831E-19
         5   4 -1.975893E-10 -1.975893E-10  1.693622E-10 -8.402567E-19 -1.652443E-19 -2.324999E-19
         5   5 -1.975893E-10 -1.975893E-10  1.693622E-10 -4.336809E-19 -5.462737E-19 -2.842249E-19
         5   6 -1.975893E-10 -1.975893E-10  1.693622E-10 -3.252607E-19 -8.548779E-20 -4.127535E-19
         5   7 -1.975893E-10 -1.975893E-10  1.693622E-10 -4.336809E-19  1.925594E-19  2.578762E-19
         5   8 -1.975893E-10 -1.975893E-10  1.693622E-10 -1.084202E-19 -2.428106E-20 -5.211737E-19
         6   1 -1.975893E-10 -1.975893E-10  1.693622E-10 -5.421011E-19  5.373361E-19 -2.736958E-19
         6   2 -1.975893E-10 -1.975893E-10  1.693622E-10  3.794708E-19  4.944515E-20 -5.352804E-19
         6   3 -1.975893E-10 -1.975893E-10  1.693622E-10 -1.084202E-19 -4.950918E-20  5.936660E-19
         6   4 -1.975893E-10 -1.975893E-10  1.693622E-10  1.626303E-19 -2.663496E-19  2.236611E-19
         6   5 -1.975893E-10 -1.975893E-10  1.693622E-10 -4.336809E-19 -4.805150E-19 -2.702891E-19
         6   6 -1.975893E-10 -1.975893E-10  1.693622E-10  1.148169E-36  6.036871E-19  5.256015E-20
         6   7 -1.975893E-10 -1.975893E-10  1.693622E-10 -1.301043E-18  6.825909E-19  5.970726E-19
         6   8 -1.975893E-10 -1.975893E-10  1.693622E-10  4.336809E-19 -4.016112E-19 -2.998055E-19
         7   1 -1.975893E-10 -1.975893E-10  1.693622E-10 -3.265945E-20 -1.382218E-20  1.493269E-19
         7   2 -1.975893E-10 -1.975893E-10  1.693622E-10 -1.218867E-19 -2.317494E-20 -3.708539E-19
         7   3 -1.975893E-10 -1.975893E-10  1.693622E-10 -3.265945E-20  7.633979E-21 -7.180348E-19
         7   4 -1.975893E-10 -1.975893E-10  1.693622E-10 -1.218867E-19  1.451182E-19  1.170370E-19
         7   5 -1.975893E-10 -1.975893E-10  1.693622E-10  4.258503E-20 -4.223236E-20 -9.605873E-19
         7   6 -1.975893E-10 -1.975893E-10  1.693622E-10  1.589295E-19 -5.158510E-20  5.452084E-19
         7   7 -1.975893E-10 -1.975893E-10  1.693622E-10  4.258503E-20 -1.089938E-19  5.572957E-19
         7   8 -1.975893E-10 -1.975893E-10  1.693622E-10  1.589295E-19  2.849041E-20  4.367882E-19
         8   1 -1.975893E-10 -1.975893E-10  1.693622E-10 -6.505213E-19 -1.338331E-19  5.070026E-20
         8   2 -1.975893E-10 -1.975893E-10  1.693622E-10  3.872505E-38  1.058789E-18  1.178752E-18
         8   3 -1.975893E-10 -1.975893E-10  1.693622E-10 -8.673617E-19  2.894876E-19  5.070026E-20
         8   4 -1.975893E-10 -1.975893E-10  1.693622E-10 -1.897354E-19  7.231685E-19 -5.017610E-19
         8   5 -1.975893E-10 -1.975893E-10  1.693622E-10  4.336809E-19 -9.484207E-20 -1.111827E-18
         8   6 -1.975893E-10 -1.975893E-10  1.693622E-10  8.673617E-19  3.388388E-19  5.590730E-19
         8   7 -1.975893E-10 -1.975893E-10  1.693622E-10 -4.336809E-19  3.292251E-19  1.892159E-19
         8   8 -1.975893E-10 -1.975893E-10  1.693622E-10  1.084202E-19  1.123847E-19 -2.540786E-19
         9   1 -1.975893E-10 -1.975893E-10  1.693622E-10 -2.168404E-19 -3.197158E-19 -3.207088E-19
         9   2 -1.975893E-10 -1.975893E-10  1.693622E-10  7.047314E-19  6.560662E-19  4.397264E-19
         9   3 -1.975893E-10 -1.975893E-10  1.693622E-10 -2.168404E-19 -8.603233E-19  1.129721E-19
         9   4 -1.975893E-10 -1.975893E-10  1.693622E-10  5.421011E-20  7.038477E-21  6.565668E-19
         9   5 -1.975893E-10 -1.975893E-10  1.693622E-10 -8.673617E-19 -4.420383E-19 -4.457442E-19
         9   6 -1.975893E-10 -1.975893E-10  1.693622E-10 -1.084202E-18  1.509526E-18  1.851924E-19
         9   7 -1.975893E-10 -1.975893E-10  1.693622E-10 -8.673617E-19  2.626796E-20  4.216176E-19
         9   8 -1.975893E-10 -1.975893E-10  1.693622E-10 -6.505213E-19 -1.905725E-19  4.562430E-19

 displacements (vx,vy,vz) for set NALL and time  0.3547813E+00

         1  0.000000E+00  0.000000E+00  0.000000E+00
         2 -1.013661E-07  0.000000E+00  0.000000E+00
         3 -5.321719E+00  0.000000E+00  0.000000E+00
         4 -5.321719E+00  0.000000E+00  0.000000E+00
         5 -1.064344E+01  0.000000E+00  0.000000E+00
         6 -1.064344E+01  0.000000E+00  0.000000E+00
         7  0.000000E+00 -1.013661E-07  0.000000E+00
         8 -1.013661E-07 -1.013661E-07  0.000000E+00
         9 -5.321719E+00 -1.013661E-07  0.000000E+00
        10 -5.321719E+00 -1.013661E-07  0.000000E+00
        11 -1.064344E+01 -1.013661E-07  0.000000E+00
        12 -1.064344E+01 -1.013661E-07  0.000000E+00
        13  0.000000E+00 -5.321719E+00  0.000000E+00
        14 -1.013661E-07 -5.321719E+00  0.000000E+00
        15 -5.321719E+00 -5.321719E+00  0.000000E+00
        16 -5.321719E+00 -5.321719E+00  0.000000E+00
        17 -1.064344E+01 -5.321719E+00  0.000000E+00
        18 -1.064344E+01 -5.321719E+00  0.000000E+00
        19  0.000000E+00 -5.321719E+00  0.000000E+00
        20 -1.013661E-07 -5.321719E+00  0.000000E+00
        21 -5.321719E+00 -5.321719E+00  0.000000E+00
        22 -5.321719E+00 -5.321719E+00  0.000000E+00
        23 -1.064344E+01 -5.321719E+00  0.000000E+00
        24 -1.064344E+01 -5.321719E+00  0.000000E+00
        25  0.000000E+00 -1.064344E+01  0.000000E+00
        26 -1.013661E-07 -1.064344E+01  0.000000E+00
        27 -5.321719E+00 -1.064344E+01  0.000000E+00
        28 -5.321719E+00 -1.064344E+01  0.000000E+00
        29 -1.064344E+01 -1.064344E+01  0.000000E+00
        30 -1.064344E+01 -1.064344E+01  0.000000E+00
        31  0.000000E+00 -1.064344E+01  0.000000E+00
        32 -1.013661E-07 -1.064344E+01  0.000000E+00
        33 -5.321719E+00 -1.064344E+01  0.000000E+00
        34 -5.321719E+00 -1.064344E+01  0.000000E+00
        35 -1.064344E+01 -1.064344E+01  0.000000E+00
        36 -1.064344E+01 -1.064344E+01  0.000000E+00
        37  0.000000E+00  0.000000E+00  1.216393E-07
        38 -1.013661E-07  0.000000E+00  1.216393E-07
        39 -5.321719E+00  0.000000E+00  1.216393E-07
        40 -5.321719E+00  0.000000E+00  1.216393E-07
        41 -1.064344E+01  0.000000E+00  1.216393E-07
        42 -1.064344E+01  0.000000E+00  1.216393E-07
        43  0.000000E+00 -1.013661E-07  1.216393E-07
        44 -1.013661E-07 -1.013661E-07  1.216393E-07
        45 -5.321719E+00 -1.013661E-07  1.216393E-07
        46 -5.321719E+00 -1.013661E-07  1.216393E-07
        47 -1.064344E+01 -1.013661E-07  1.216393E-07
        48 -1.064344E+01 -1.013661E-07  1.216393E-07
        49  0.000000E+00 -5.321719E+00  1.216393E-07
        50 -1.013661E-07 -5.321719E+00  1.216393E-07
        51 -5.321719E+00 -5.321719E+00  1.216393E-07
        52 -5.321719E+00 -5.321719E+00  1.216393E-07
        53 -1.064344E+01 -5.321719E+00  1.216393E-07
        54 -1.064344E+01 -5.321719E+00  1.216393E-07
        55  0.000000E+00 -5.321719E+00  1.216393E-07
        56 -1.013661E-07 -5.321719E+00  1.216393E-07
        57 -5.321719E+00 -5.321719E+00  1.216393E-07
        58 -5.321719E+00 -5.321719E+00  1.216393E-07
        59 -1.064344E+01 -5.321719E+00  1.216393E-07
        60 -1.064344E+01 -5.321719E+00  1.216393E-07
        61  0.000000E+00 -1.064344E+01  1.216393E-07
        62 -1.013661E-07 -1.064344E+01  1.216393E-07
        63 -5.321719E+00 -1.064344E+01  1.216393E-07
        64 -5.321719E+00 -1.064344E+01  1.216393E-07
        65 -1.064344E+01 -1.064344E+01  1.216393E-07
        66 -1.064344E+01 -1.064344E+01  1.216393E-07
        67  0.000000E+00 -1.064344E+01  1.216393E-07
        68 -1.013661E-07 -1.064344E+01  1.216393E-07
        69 -5.321719E+00 -1.064344E+01  1.216393E-07
        70 -5.321719E+00 -1.064344E+01  1.216393E-07
        71 -1.064344E+01 -1.064344E+01  1.216393E-07
        72 -1.064344E+01 -1.064344E+01  1.216393E-07

 stresses (elem, integ.pnt.,sxx,syy,szz,sxy,sxz,syz) for set EALL and time  0.3547813E+00

         1   1 -6.081964E-05 -6.081964E-05  1.355253E-20  7.829384E-22 -8.481832E-22 -1.565877E-21
         1   2 -6.081964E-05 -6.081964E-05  6.776264E-21  6.263507E-21 -4.306161E-21 -1.892101E-21
         1   3 -6.081964E-05 -6.081964E-05  1.355253E-20 -2.348815E-21 -5.219589E-22 -7.307425E-21
         1   4 -6.081964E-05 -6.081964E-05  2.710505E-20  3.131754E-21 -4.697630E-21 -8.090363E-21
         1   5 -6.081964E-05 -6.081964E-05 -6.776264E-21 -1.043918E-21 -4.567141E-22 -1.565877E-21
         1   6 -6.081964E-05 -6.081964E-05 -1.355253E-20  4.175671E-21 -3.914692E-21 -1.109163E-21
         1   7 -6.081964E-05 -6.081964E-05 -6.776264E-21 -7.307425E-21  1.043918E-21 -6.263507E-21
         1   8 -6.081964E-05 -6.081964E-05 -6.776264E-21 -2.087836E-21 -2.087836E-21 -7.307425E-21
         2   1 -6.081964E-05 -6.081964E-05  7.863754E-14  6.827481E-14  5.909790E-14  2.143197E-15
         2   2 -6.081964E-05 -6.081964E-05  1.161144E-13  6.389630E-14  3.282684E-14 -1.914014E-15
         2   3 -6.081964E-05 -6.081964E-05  9.822809E-14  6.340812E-14  7.211034E-14 -5.091916E-15
         2   4 -6.081964E-05 -6.081964E-05  1.049585E-13 -3.729758E-14  7.211034E-14 -7.935058E-15
         2   5 -6.081964E-05 -6.081964E-05  5.030827E-14 -7.121534E-14  7.700865E-14  1.523364E-14
         2   6 -6.081964E-05 -6.081964E-05  9.033466E-14 -7.121534E-14 -1.494003E-14 -1.122155E-15
         2   7 -6.081964E-05 -6.081964E-05  1.618475E-13 -7.438233E-14  7.772251E-14  7.998522E-15
         2   8 -6.081964E-05 -6.081964E-05  1.711275E-13 -5.686830E-14 -1.149319E-13 -7.143200E-15
         3   1 -6.081964E-05 -6.081964E-05  3.167083E-14 -2.310574E-14  4.612067E-14  4.999732E-15
         3   2 -6.081964E-05 -6.081964E-05  1.274560E-14  3.009039E-13 -6.421435E-15  1.558957E-15
         3   3 -6.081964E-05 -6.081964E-05  7.971431E-14 -8.623180E-14 -1.946658E-14 -3.208341E-14
         3   4 -6.081964E-05 -6.081964E-05 -1.479340E-13  2.377779E-13  5.058956E-14  3.856467E-14
         3   5 -6.081964E-05 -6.081964E-05 -1.250169E-13 -1.252523E-13  7.642622E-14  5.574239E-14
         3   6 -6.081964E-05 -6.081964E-05  1.164444E-14  1.486003E-14 -6.368606E-14 -3.118761E-14
         3   7 -6.081964E-05 -6.081964E-05 -1.032445E-13 -8.465391E-14  6.746202E-14  1.865925E-14
         3   8 -6.081964E-05 -6.081964E-05 -1.753062E-13  2.043030E-14  1.725462E-13  5.818105E-15
         4   1 -6.081964E-05 -6.081964E-05 -3.350245E-14  2.729969E-15  5.154889E-16  5.554982E-14
         4   2 -6.081964E-05 -6.081964E-05 -7.904305E-14  1.018838E-14  1.750333E-15  6.109598E-14
         4   3 -6.081964E-05 -6.081964E-05 -1.771810E-15  2.729969E-15 -9.668433E-16  7.306385E-14
         4   4 -6.081964E-05 -6.081964E-05 -6.924296E-14  1.018838E-14  4.990414E-15  5.233896E-14
         4   5 -6.081964E-05 -6.081964E-05 -5.718034E-14  5.149901E-15  6.889843E-16  6.376703E-14
         4   6 -6.081964E-05 -6.081964E-05 -5.674659E-14  1.921969E-14  1.923828E-15 -7.581485E-16
         4   7 -6.081964E-05 -6.081964E-05 -2.257010E-13  5.149901E-15 -9.565564E-15  1.122492E-14
         4   8 -6.081964E-05 -6.081964E-05 -3.702943E-14  1.921969E-14 -3.608307E-15  6.929799E-14
         5   1 -6.081964E-05 -6.081964E-05 -2.205809E-13  8.757018E-14 -1.892993E-13  1.152037E-14
         5   2 -6.081964E-05 -6.081964E-05 -1.779619E-13  4.378509E-15  4.714018E-14  1.587795E-14
         5   3 -6.081964E-05 -6.081964E-05 -2.089763E-13  1.926544E-13  7.776882E-14 -5.993664E-15
         5   4 -6.081964E-05 -6.081964E-05 -7.748458E-14  1.138412E-13 -4.482943E-14 -7.169223E-14
         5   5 -6.081964E-05 -6.081964E-05 -1.943099E-13  8.757018E-14 -1.801330E-13  3.017345E-14
         5   6 -6.081964E-05 -6.081964E-05  3.540269E-13  1.225982E-13  9.133455E-14  4.643615E-14
         5   7 -6.081964E-05 -6.081964E-05 -3.403316E-13  2.101684E-13  9.884024E-14  4.768748E-14
         5   8 -6.081964E-05 -6.081964E-05  5.387067E-14  1.401123E-13 -1.113282E-13 -6.105954E-15
         6   1 -6.081964E-05 -6.081964E-05 -2.069906E-13  1.663833E-13  1.225094E-13 -6.195477E-14
         6   2 -6.081964E-05 -6.081964E-05 -4.388728E-13  1.926544E-13 -2.627994E-13  3.573991E-14
         6   3 -6.081964E-05 -6.081964E-05 -7.284407E-14  1.576263E-13 -7.478413E-15 -6.195477E-14
         6   4 -6.081964E-05 -6.081964E-05 -5.167718E-14  8.757018E-15 -7.753455E-14  1.408241E-13
         6   5 -6.081964E-05 -6.081964E-05  2.396173E-13  4.553649E-13 -3.066693E-14 -3.982142E-14
         6   6 -6.081964E-05 -6.081964E-05  1.193871E-13  2.802246E-13  1.311816E-14  1.074265E-13
         6   7 -6.081964E-05 -6.081964E-05 -2.030196E-14  4.203368E-13  1.122025E-13 -3.982142E-14
         6   8 -6.081964E-05 -6.081964E-05 -2.290068E-13  7.005614E-14 -1.329940E-13  1.030480E-13
         7   1 -6.081964E-05 -6.081964E-05 -2.380887E-13  7.714375E-14  2.998365E-15 -2.193471E-13
         7   2 -6.081964E-05 -6.081964E-05 -3.951853E-13  8.089852E-16  3.199499E-14 -8.499721E-14
         7   3 -6.081964E-05 -6.081964E-05  6.320992E-14  7.087608E-15 -6.320805E-15  6.087745E-14
         7   4 -6.081964E-05 -6.081964E-05 -1.332444E-13 -6.924716E-14  1.295849E-14  9.014315E-14
         7   5 -6.081964E-05 -6.081964E-05 -1.956945E-14  3.874169E-13 -1.780658E-14 -1.581110E-13
         7   6 -6.081964E-05 -6.081964E-05 -1.903971E-14  2.974778E-13  1.119005E-14  2.179489E-14
         7   7 -6.081964E-05 -6.081964E-05  2.613227E-13  1.071923E-13 -4.286886E-14  8.708548E-14
         7   8 -6.081964E-05 -6.081964E-05  2.224947E-13  1.725328E-14 -2.358957E-14  2.407203E-13
         8   1 -6.081964E-05 -6.081964E-05  5.330919E-13  1.926544E-13  3.187463E-14 -2.485434E-13
         8   2 -6.081964E-05 -6.081964E-05  4.064693E-13  1.182197E-13  1.500944E-13  1.686159E-13
         8   3 -6.081964E-05 -6.081964E-05  8.479948E-13  1.225982E-13 -2.164994E-13  3.168118E-14
         8   4 -6.081964E-05 -6.081964E-05  7.128048E-13  9.194868E-14 -2.384501E-14 -6.524427E-15
         8   5 -6.081964E-05 -6.081964E-05  4.739820E-13  1.401123E-13  4.077333E-14 -1.269607E-13
         8   6 -6.081964E-05 -6.081964E-05  8.464893E-14  2.101684E-13  3.639482E-14  3.632090E-14
         8   7 -6.081964E-05 -6.081964E-05  5.590132E-13 -1.401123E-13 -9.368364E-14 -2.187651E-14
         8   8 -6.081964E-05 -6.081964E-05  2.005193E-13 -1.751404E-13 -1.462257E-13  1.414051E-13
         9   1 -6.081964E-05 -6.081964E-05 -2.938361E-13 -7.005614E-14 -1.840759E-13 -5.538478E-14
         9   2 -6.081964E-05 -6.081964E-05 -3.417318E-13  1.576263E-13  1.049056E-13  1.310400E-14
         9   3 -6.081964E-05 -6.081964E-05 -2.095711E-13 -1.050842E-13  7.011085E-15  1.197556E-13
         9   4 -6.081964E-05 -6.081964E-05 -4.112595E-13 -5.254211E-14  4.203916E-14 -1.445223E-13
         9   5 -6.081964E-05 -6.081964E-05 -4.383269E-13  5.753294E-31 -3.334809E-14 -2.160846E-13
         9   6 -6.081964E-05 -6.081964E-05 -3.942739E-13  2.451965E-13 -1.034042E-13 -1.915988E-13
         9   7 -6.081964E-05 -6.081964E-05 -3.671974E-13 -2.802246E-13  2.616573E-14  6.413999E-14
         9   8 -6.081964E-05 -6.081964E-05  1.535681E-13 -7.005614E-14 -7.891849E-14 -5.148654E-14

 strains (elem, integ.pnt.,exx,eyy,ezz,exy,exz,eyz) forset EALL and time  0.3547813E+00

         1   1 -2.027321E-10 -2.027321E-10  1.737704E-10  4.846761E-27 -5.250658E-27 -9.693523E-27
         1   2 -2.027321E-10 -2.027321E-10  1.737704E-10  3.877409E-26 -2.665719E-26 -1.171301E-26
         1   3 -2.027321E-10 -2.027321E-10  1.737704E-10 -1.454028E-26 -3.231174E-27 -4.523644E-26
         1   4 -2.027321E-10 -2.027321E-10  1.737704E-10  1.938705E-26 -2.908057E-26 -5.008320E-26
         1   5 -2.027321E-10 -2.027321E-10  1.737704E-10 -6.462349E-27 -2.827277E-27 -9.693523E-27
         1   6 -2.027321E-10 -2.027321E-10  1.737704E-10  2.584939E-26 -2.423381E-26 -6.866245E-27
         1   7 -2.027321E-10 -2.027321E-10  1.737704E-10 -4.523644E-26  6.462349E-27 -3.877409E-26
         1   8 -2.027321E-10 -2.027321E-10  1.737704E-10 -1.292470E-26 -1.292470E-26 -4.523644E-26
         2   1 -2.027321E-10 -2.027321E-10  1.737704E-10  4.226536E-19  3.658441E-19  1.326741E-20
         2   2 -2.027321E-10 -2.027321E-10  1.737704E-10  3.955485E-19  2.032138E-19 -1.184866E-20
         2   3 -2.027321E-10 -2.027321E-10  1.737704E-10  3.925264E-19  4.463973E-19 -3.152139E-20
         2   4 -2.027321E-10 -2.027321E-10  1.737704E-10 -2.308898E-19  4.463973E-19 -4.912179E-20
         2   5 -2.027321E-10 -2.027321E-10  1.737704E-10 -4.408569E-19  4.767202E-19  9.430347E-20
         2   6 -2.027321E-10 -2.027321E-10  1.737704E-10 -4.408569E-19 -9.248593E-20 -6.946672E-21
         2   7 -2.027321E-10 -2.027321E-10  1.737704E-10 -4.604621E-19  4.811394E-19  4.951466E-20
         2   8 -2.027321E-10 -2.027321E-10  1.737704E-10 -3.520418E-19 -7.114830E-19 -4.421981E-20
         3   1 -2.027321E-10 -2.027321E-10  1.737704E-10 -1.430355E-19  2.855089E-19  3.095072E-20
         3   2 -2.027321E-10 -2.027321E-10  1.737704E-10  1.862738E-18 -3.975174E-20  9.650683E-21
         3   3 -2.027321E-10 -2.027321E-10  1.737704E-10 -5.338159E-19 -1.205074E-19 -1.986116E-19
         3   4 -2.027321E-10 -2.027321E-10  1.737704E-10  1.471958E-18  3.131735E-19  2.387337E-19
         3   5 -2.027321E-10 -2.027321E-10  1.737704E-10 -7.753711E-19  4.731147E-19  3.450720E-19
         3   6 -2.027321E-10 -2.027321E-10  1.737704E-10  9.199063E-20 -3.942471E-19 -1.930661E-19
         3   7 -2.027321E-10 -2.027321E-10  1.737704E-10 -5.240480E-19  4.176220E-19  1.155096E-19
         3   8 -2.027321E-10 -2.027321E-10  1.737704E-10  1.264733E-19  1.068143E-18  3.601684E-20
         4   1 -2.027321E-10 -2.027321E-10  1.737704E-10  1.689981E-20  3.191122E-21  3.438798E-19
         4   2 -2.027321E-10 -2.027321E-10  1.737704E-10  6.307094E-20  1.083540E-20  3.782132E-19
         4   3 -2.027321E-10 -2.027321E-10  1.737704E-10  1.689981E-20 -5.985220E-21  4.523000E-19
         4   4 -2.027321E-10 -2.027321E-10  1.737704E-10  6.307094E-20  3.089304E-20  3.240031E-19
         4   5 -2.027321E-10 -2.027321E-10  1.737704E-10  3.188034E-20  4.265141E-21  3.947483E-19
         4   6 -2.027321E-10 -2.027321E-10  1.737704E-10  1.189791E-19  1.190941E-20 -4.693300E-21
         4   7 -2.027321E-10 -2.027321E-10  1.737704E-10  3.188034E-20 -5.921539E-20  6.948762E-20
         4   8 -2.027321E-10 -2.027321E-10  1.737704E-10  1.189791E-19 -2.233714E-20  4.289876E-19
         5   1 -2.027321E-10 -2.027321E-10  1.737704E-10  5.421011E-19 -1.171853E-18  7.131658E-20
         5   2 -2.027321E-10 -2.027321E-10  1.737704E-10  2.710505E-20  2.918202E-19  9.829207E-20
         5   3 -2.027321E-10 -2.027321E-10  1.737704E-10  1.192622E-18  4.814260E-19 -3.710364E-20
         5   4 -2.027321E-10 -2.027321E-10  1.737704E-10  7.047314E-19 -2.775155E-19 -4.438090E-19
         5   5 -2.027321E-10 -2.027321E-10  1.737704E-10  5.421011E-19 -1.115109E-18  1.867880E-19
         5   6 -2.027321E-10 -2.027321E-10  1.737704E-10  7.589415E-19  5.654043E-19  2.874619E-19
         5   7 -2.027321E-10 -2.027321E-10  1.737704E-10  1.301043E-18  6.118681E-19  2.952082E-19
         5   8 -2.027321E-10 -2.027321E-10  1.737704E-10  8.673617E-19 -6.891745E-19 -3.779876E-20
         6   1 -2.027321E-10 -2.027321E-10  1.737704E-10  1.029992E-18  7.583913E-19 -3.835295E-19
         6   2 -2.027321E-10 -2.027321E-10  1.737704E-10  1.192622E-18 -1.626854E-18  2.212471E-19
         6   3 -2.027321E-10 -2.027321E-10  1.737704E-10  9.757820E-19 -4.629494E-20 -3.835295E-19
         6   4 -2.027321E-10 -2.027321E-10  1.737704E-10  5.421011E-20 -4.799758E-19  8.717684E-19
         6   5 -2.027321E-10 -2.027321E-10  1.737704E-10  2.818926E-18 -1.898429E-19 -2.465135E-19
         6   6 -2.027321E-10 -2.027321E-10  1.737704E-10  1.734723E-18  8.120766E-20  6.650211E-19
         6   7 -2.027321E-10 -2.027321E-10  1.737704E-10  2.602085E-18  6.945867E-19 -2.465135E-19
         6   8 -2.027321E-10 -2.027321E-10  1.737704E-10  4.336809E-19 -8.232964E-19  6.379160E-19
         7   1 -2.027321E-10 -2.027321E-10  1.737704E-10  4.775565E-19  1.856131E-20 -1.357863E-18
         7   2 -2.027321E-10 -2.027321E-10  1.737704E-10  5.008003E-21  1.980642E-19 -5.261732E-19
         7   3 -2.027321E-10 -2.027321E-10  1.737704E-10  4.387567E-20 -3.912880E-20  3.768604E-19
         7   4 -2.027321E-10 -2.027321E-10  1.737704E-10 -4.286729E-19  8.021923E-20  5.580290E-19
         7   5 -2.027321E-10 -2.027321E-10  1.737704E-10  2.398295E-18 -1.102312E-19 -9.787825E-19
         7   6 -2.027321E-10 -2.027321E-10  1.737704E-10  1.841530E-18  6.927174E-20  1.349208E-19
         7   7 -2.027321E-10 -2.027321E-10  1.737704E-10  6.635715E-19 -2.653787E-19  5.391006E-19
         7   8 -2.027321E-10 -2.027321E-10  1.737704E-10  1.068060E-19 -1.460306E-19  1.490173E-18
         8   1 -2.027321E-10 -2.027321E-10  1.737704E-10  1.192622E-18  1.973192E-19 -1.538602E-18
         8   2 -2.027321E-10 -2.027321E-10  1.737704E-10  7.318365E-19  9.291556E-19  1.043813E-18
         8   3 -2.027321E-10 -2.027321E-10  1.737704E-10  7.589415E-19 -1.340234E-18  1.961216E-19
         8   4 -2.027321E-10 -2.027321E-10  1.737704E-10  5.692061E-19 -1.476119E-19 -4.038931E-20
         8   5 -2.027321E-10 -2.027321E-10  1.737704E-10  8.673617E-19  2.524063E-19 -7.859473E-19
         8   6 -2.027321E-10 -2.027321E-10  1.737704E-10  1.301043E-18  2.253012E-19  2.248437E-19
         8   7 -2.027321E-10 -2.027321E-10  1.737704E-10 -8.673617E-19 -5.799464E-19 -1.354260E-19
         8   8 -2.027321E-10 -2.027321E-10  1.737704E-10 -1.084202E-18 -9.052070E-19  8.753650E-19
         9   1 -2.027321E-10 -2.027321E-10  1.737704E-10 -4.336809E-19 -1.139518E-18 -3.428582E-19
         9   2 -2.027321E-10 -2.027321E-10  1.737704E-10  9.757820E-19  6.494158E-19  8.112000E-20
         9   3 -2.027321E-10 -2.027321E-10  1.737704E-10 -6.505213E-19  4.340196E-20  7.413440E-19
         9   4 -2.027321E-10 -2.027321E-10  1.737704E-10 -3.252607E-19  2.602424E-19 -8.946620E-19
         9   5 -2.027321E-10 -2.027321E-10  1.737704E-10 -2.815086E-36 -2.064406E-19 -1.337666E-18
         9   6 -2.027321E-10 -2.027321E-10  1.737704E-10  1.517883E-18 -6.401214E-19 -1.186088E-18
         9   7 -2.027321E-10 -2.027321E-10  1.737704E-10 -1.734723E-18  1.619783E-19  3.970571E-19
         9   8 -2.027321E-10 -2.027321E-10  1.737704E-10 -4.336809E-19 -4.885430E-19 -3.187262E-19

 displacements (vx,vy,vz) for set NALL and time  0.3637813E+00

         1  0.000000E+00  0.000000E+00  0.000000E+00
         2 -1.039375E-07  0.000000E+00  0.000000E+00
         3 -5.456719E+00  0.000000E+00  0.000000E+00
         4 -5.456719E+00  0.000000E+00  0.000000E+00
         5 -1.091344E+01  0.000000E+00  0.000000E+00
         6 -1.091344E+01  0.000000E+00  0.000000E+00
         7  0.000000E+00 -1.039375E-07  0.000000E+00
         8 -1.039375E-07 -1.039375E-07  0.000000E+00
         9 -5.456719E+00 -1.039375E-07  0.000000E+00
        10 -5.456719E+00 -1.039375E-07  0.000000E+00
        11 -1.091344E+01 -1.039375E-07  0.000000E+00
        12 -1.091344E+01 -1.039375E-07  0.000000E+00
        13  0.000000E+00 -5.456719E+00  0.000000E+00
        14 -1.039375E-07 -5.456719E+00  0.000000E+00
        15 -5.456719E+00 -5.456719E+00  0.000000E+00
        16 -5.456719E+00 -5.456719E+00  0.000000E+00
        17 -1.091344E+01 -5.456719E+00  0.000000E+00
        18 -1.091344E+01 -5.456719E+00  0.000000E+00
        19  0.000000E+00 -5.456719E+00  0.000000E+00
        20 -1.039375E-07 -5.456719E+00  0.000000E+00
        21 -5.456719E+00 -5.456719E+00  0.000000E+00
        22 -5.456719E+00 -5.456719E+00  0.000000E+00
        23 -1.091344E+01 -5.456719E+00  0.000000E+00
        24 -1.091344E+01 -5.456719E+00  0.000000E+00
        25  0.000000E+00 -1.091344E+01  0.000000E+00
        26 -1.039375E-07 -1.091344E+01  0.000000E+00
        27 -5.456719E+00 -1.091344E+01  0.000000E+00
        28 -5.456719E+00 -1.091344E+01  0.000000E+00
        29 -1.091344E+01 -1.091344E+01  0.000000E+00
        30 -1.091344E+01 -1.091344E+01  0.000000E+00
        31  0.000000E+00 -1.091344E+01  0.000000E+00
        32 -1.039375E-07 -1.091344E+01  0.000000E+00
        33 -5.456719E+00 -1.091344E+01  0.000000E+00
        34 -5.456719E+00 -1.091344E+01  0.000000E+00
        35 -1.091344E+01 -1.091344E+01  0.000000E+00
        36 -1.091344E+01 -1.091344E+01  0.000000E+00
        37  0.000000E+00  0.000000E+00  1.247250E-07
        38 -1.039375E-07  0.000000E+00  1.247250E-07
        39 -5.456719E+00  0.000000E+00  1.247250E-07
        40 -5.456719E+00  0.000000E+00  1.247250E-07
        41 -1.091344E+01  0.000000E+00  1.247250E-07
        42 -1.091344E+01  0.000000E+00  1.247250E-07
        43  0.000000E+00 -1.039375E-07  1.247250E-07
        44 -1.039375E-07 -1.039375E-07  1.247250E-07
        45 -5.456719E+00 -1.039375E-07  1.247250E-07
        46 -5.456719E+00 -1.039375E-07  1.247250E-07
        47 -1.091344E+01 -1.039375E-07  1.247250E-07
        48 -1.091344E+01 -1.039375E-07  1.247250E-07
        49  0.000000E+00 -5.456719E+00  1.247250E-07
        50 -1.039375E-07 -5.456719E+00  1.247250E-07
        51 -5.456719E+00 -5.456719E+00  1.247250E-07
        52 -5.456719E+00 -5.456719E+00  1.247250E-07
        53 -1.091344E+01 -5.456719E+00  1.247250E-07
        54 -1.091344E+01 -5.456719E+00  1.247250E-07
        55  0.000000E+00 -5.456719E+00  1.247250E-07
        56 -1.039375E-07 -5.456719E+00  1.247250E-07
        57 -5.456719E+00 -5.456719E+00  1.247250E-07
        58 -5.456719E+00 -5.456719E+00  1.247250E-07
        59 -1.091344E+01 -5.456719E+00  1.247250E-07
        60 -1.091344E+01 -5.456719E+00  1.247250E-07
        61  0.000000E+00 -1.091344E+01  1.247250E-07
        62 -1.039375E-07 -1.091344E+01  1.247250E-07
        63 -5.456719E+00 -1.091344E+01  1.247250E-07
        64 -5.456719E+00 -1.091344E+01  1.247250E-07
        65 -1.091344E+01 -1.091344E+01  1.247250E-07
        66 -1.091344E+01 -1.091344E+01  1.247250E-07
        67  0.000000E+00 -1.091344E+01  1.247250E-07
        68 -1.039375E-07 -1.091344E+01  1.247250E-07
        69 -5.456719E+00 -1.091344E+01  1.247250E-07
        70 -5.456719E+00 -1.091344E+01  1.247250E-07
        71 -1.091344E+01 -1.091344E+01  1.247250E-07
        72 -1.091344E+01 -1.091344E+01  1.247250E-07

 stresses (elem, integ.pnt.,sxx,syy,szz,sxy,sxz,syz) for set EALL and time  0.3637813E+00

         1   1 -6.236250E-05 -6.236250E-05  6.776264E-21  6.524486E-22 -5.037602E-32  2.015041E-31
         1   2 -6.236250E-05 -6.236250E-05  6.776264E-21 -6.524486E-22 -9.134281E-22 -5.219589E-22
         1   3 -6.236250E-05 -6.236250E-05 -2.032879E-20  3.392733E-21 -2.609795E-22  2.609795E-21
         1   4 -6.236250E-05 -6.236250E-05 -4.553659E-47  2.087836E-21 -3.653712E-21 -2.609795E-22
         1   5 -6.236250E-05 -6.236250E-05  6.776264E-21 -2.087836E-21  3.914692E-22 -1.565877E-21
         1   6 -6.236250E-05 -6.236250E-05  6.776264E-21 -5.219589E-21 -5.219589E-22 -7.829384E-22
         1   7 -6.236250E-05 -6.236250E-05 -1.355253E-20 -3.131754E-21  1.304897E-21  1.043918E-21
         1   8 -6.236250E-05 -6.236250E-05 -6.776264E-21 -6.263507E-21 -2.087836E-21 -5.219589E-22
         2   1 -6.236250E-05 -6.236250E-05  5.163398E-14 -8.979873E-14 -1.677417E-14 -1.685995E-15
         2   2 -6.236250E-05 -6.236250E-05  4.755454E-14  7.220609E-14 -3.638646E-15  3.050903E-15
         2   3 -6.236250E-05 -6.236250E-05  4.786601E-14 -9.588726E-14  4.447186E-15 -4.785044E-15
         2   4 -6.236250E-05 -6.236250E-05  6.910808E-14  1.099026E-13 -1.306685E-14  2.764705E-15
         2   5 -6.236250E-05 -6.236250E-05 -7.416126E-15 -1.408994E-13 -1.475283E-14 -3.193170E-15
         2   6 -6.236250E-05 -6.236250E-05 -5.588595E-15 -7.084329E-14 -8.480897E-14  1.167232E-14
         2   7 -6.236250E-05 -6.236250E-05  9.390012E-14 -1.430500E-13  1.659712E-14 -6.292219E-15
         2   8 -6.236250E-05 -6.236250E-05  1.210492E-13 -3.796576E-14 -5.345902E-14  1.138612E-14
         3   1 -6.236250E-05 -6.236250E-05  6.871707E-14 -1.394025E-13 -7.935854E-15  8.189636E-15
         3   2 -6.236250E-05 -6.236250E-05  1.742297E-14 -8.686038E-14  4.460625E-14 -3.705638E-15
         3   3 -6.236250E-05 -6.236250E-05 -2.122801E-14 -1.374633E-13 -1.764565E-14  3.491641E-15
         3   4 -6.236250E-05 -6.236250E-05 -1.388412E-13  1.602753E-13  8.743856E-14 -1.437448E-14
         3   5 -6.236250E-05 -6.236250E-05 -4.623295E-14 -1.424622E-13 -2.961701E-14  3.526213E-14
         3   6 -6.236250E-05 -6.236250E-05 -1.100658E-13 -1.424622E-13  4.043913E-14 -3.160791E-15
         3   7 -6.236250E-05 -6.236250E-05  1.790746E-13 -1.488821E-13  7.425783E-14  3.056414E-14
         3   8 -6.236250E-05 -6.236250E-05  4.892262E-14  9.631435E-14 -6.585445E-14 -1.382963E-14
         4   1 -6.236250E-05 -6.236250E-05  4.566224E-14 -6.341698E-14  2.975340E-15 -1.210110E-13
         4   2 -6.236250E-05 -6.236250E-05  9.611886E-15 -6.920306E-14  9.761625E-15  1.164814E-14
         4   3 -6.236250E-05 -6.236250E-05  4.782387E-14  1.539618E-14  4.378943E-16  1.587203E-15
         4   4 -6.236250E-05 -6.236250E-05  2.067952E-14  9.610100E-15 -3.270642E-15  2.891127E-15
         4   5 -6.236250E-05 -6.236250E-05  7.371308E-15  2.753230E-14  4.317836E-15 -9.916069E-14
         4   6 -6.236250E-05 -6.236250E-05  6.326965E-14  7.053465E-15  1.110412E-14  5.019641E-14
         4   7 -6.236250E-05 -6.236250E-05 -1.250614E-14  6.256037E-14  5.342776E-15  7.597966E-14
         4   8 -6.236250E-05 -6.236250E-05  5.229817E-14  4.208153E-14  1.634242E-15  1.684161E-13
         5   1 -6.236250E-05 -6.236250E-05 -1.747239E-13 -1.751404E-13  3.884666E-14  2.488368E-14
         5   2 -6.236250E-05 -6.236250E-05 -2.385493E-14 -1.050842E-13  1.614449E-13 -8.466551E-14
         5   3 -6.236250E-05 -6.236250E-05 -1.046850E-13 -1.926544E-13  6.503125E-14  7.742579E-14
         5   4 -6.236250E-05 -6.236250E-05  4.489174E-14 -8.319167E-14 -4.005296E-14 -3.650191E-14
         5   5 -6.236250E-05 -6.236250E-05 -1.287496E-13 -1.050842E-13 -3.262856E-15  8.004599E-14
         5   6 -6.236250E-05 -6.236250E-05  2.416124E-15 -1.751404E-14  1.368494E-13  3.390614E-14
         5   7 -6.236250E-05 -6.236250E-05 -7.841394E-14 -2.101684E-13  1.213591E-13  1.676162E-13
         5   8 -6.236250E-05 -6.236250E-05  1.862067E-14 -1.050842E-13 -1.239112E-15 -5.804254E-14
         6   1 -6.236250E-05 -6.236250E-05  6.201391E-14  1.751404E-13  1.384271E-13 -6.544420E-16
         6   2 -6.236250E-05 -6.236250E-05 -1.071224E-13  1.050842E-13  5.961394E-14 -7.628324E-14
         6   3 -6.236250E-05 -6.236250E-05 -1.000823E-13  3.502807E-14  1.372330E-13  1.394578E-13
         6   4 -6.236250E-05 -6.236250E-05 -6.720639E-14 -3.502807E-14 -1.780197E-13 -3.687666E-14
         6   5 -6.236250E-05 -6.236250E-05  6.201390E-14  5.535354E-32  1.338231E-13  1.507162E-14
         6   6 -6.236250E-05 -6.236250E-05  2.423286E-14 -3.502807E-14 -3.256023E-14 -1.251188E-13
         6   7 -6.236250E-05 -6.236250E-05  2.151703E-13  3.249462E-34 -1.074579E-14 -2.442413E-15
         6   8 -6.236250E-05 -6.236250E-05  3.531305E-13 -7.005614E-14 -8.080193E-14  1.061502E-14
         7   1 -6.236250E-05 -6.236250E-05  1.547033E-13  3.197275E-14 -7.085008E-16 -1.209502E-13
         7   2 -6.236250E-05 -6.236250E-05 -7.837277E-15  2.362547E-14  1.508419E-14 -5.432922E-15
         7   3 -6.236250E-05 -6.236250E-05  2.730620E-13 -3.055316E-15  7.746079E-17 -2.610625E-13
         7   4 -6.236250E-05 -6.236250E-05  1.219689E-13 -1.140260E-14  1.343843E-14 -1.893303E-13
         7   5 -6.236250E-05 -6.236250E-05  2.929522E-13  1.358109E-13 -1.843685E-14 -6.859837E-14
         7   6 -6.236250E-05 -6.236250E-05 -1.191634E-13  1.240592E-13 -2.644162E-15 -2.731525E-14
         7   7 -6.236250E-05 -6.236250E-05 -1.413264E-14 -4.301420E-15 -1.307188E-14  2.116262E-13
         7   8 -6.236250E-05 -6.236250E-05  5.536112E-15 -1.605312E-14  2.890859E-16  7.712821E-15
         8   1 -6.236250E-05 -6.236250E-05  9.291775E-15  7.005614E-14 -1.206159E-13 -1.198390E-13
         8   2 -6.236250E-05 -6.236250E-05  2.423479E-14 -2.627105E-14 -2.396163E-15 -2.207082E-14
         8   3 -6.236250E-05 -6.236250E-05  1.083542E-13  7.005614E-14 -2.067451E-13 -1.198390E-13
         8   4 -6.236250E-05 -6.236250E-05  1.317361E-13 -2.189254E-14 -3.160472E-14 -2.409963E-13
         8   5 -6.236250E-05 -6.236250E-05  1.275115E-13 -1.401123E-13  2.705344E-15 -6.445142E-14
         8   6 -6.236250E-05 -6.236250E-05  3.132164E-13  1.401123E-13 -5.421527E-14  5.946057E-14
         8   7 -6.236250E-05 -6.236250E-05  2.954101E-14  1.237735E-31 -1.273362E-13  7.566086E-14
         8   8 -6.236250E-05 -6.236250E-05  1.580071E-13  1.576263E-13 -5.728003E-14  1.207597E-13
         9   1 -6.236250E-05 -6.236250E-05  1.573078E-13  3.853088E-13  6.579100E-15 -1.168891E-14
         9   2 -6.236250E-05 -6.236250E-05 -2.180929E-13  2.977386E-13 -7.223406E-14 -2.794626E-13
         9   3 -6.236250E-05 -6.236250E-05  1.328199E-13  1.050842E-13 -7.241094E-15  1.634514E-13
         9   4 -6.236250E-05 -6.236250E-05 -3.238390E-13  1.751404E-14  1.328712E-13 -9.556525E-14
         9   5 -6.236250E-05 -6.236250E-05 -2.893001E-13  2.802246E-13  5.958161E-14 -5.300935E-14
         9   6 -6.236250E-05 -6.236250E-05 -5.596166E-13  7.005614E-14  1.471518E-13 -5.204491E-14
         9   7 -6.236250E-05 -6.236250E-05 -3.400591E-13  1.401123E-13 -1.671364E-13  8.710293E-14
         9   8 -6.236250E-05 -6.236250E-05 -3.369745E-13  1.401123E-13 -2.702413E-14 -6.955895E-14

 strains (elem, integ.pnt.,exx,eyy,ezz,exy,exz,eyz) forset EALL and time  0.3637813E+00

         1   1 -2.078750E-10 -2.078750E-10  1.781786E-10  4.038968E-27  3.118516E-37 -1.247406E-36
         1   2 -2.078750E-10 -2.078750E-10  1.781786E-10 -4.038968E-27 -5.654555E-27 -3.231174E-27
         1   3 -2.078750E-10 -2.078750E-10  1.781786E-10  2.100263E-26 -1.615587E-27  1.615587E-26
         1   4 -2.078750E-10 -2.078750E-10  1.781786E-10  1.292470E-26 -2.261822E-26 -1.615587E-27
         1   5 -2.078750E-10 -2.078750E-10  1.781786E-10 -1.292470E-26  2.423381E-27 -9.693523E-27
         1   6 -2.078750E-10 -2.078750E-10  1.781786E-10 -3.231174E-26 -3.231174E-27 -4.846761E-27
         1   7 -2.078750E-10 -2.078750E-10  1.781786E-10 -1.938705E-26  8.077936E-27  6.462349E-27
         1   8 -2.078750E-10 -2.078750E-10  1.781786E-10 -3.877409E-26 -1.292470E-26 -3.231174E-27
         2   1 -2.078750E-10 -2.078750E-10  1.781786E-10 -5.558969E-19 -1.038401E-19 -1.043711E-20
         2   2 -2.078750E-10 -2.078750E-10  1.781786E-10  4.469901E-19 -2.252495E-20  1.888654E-20
         2   3 -2.078750E-10 -2.078750E-10  1.781786E-10 -5.935878E-19  2.753020E-20 -2.962170E-20
         2   4 -2.078750E-10 -2.078750E-10  1.781786E-10  6.803497E-19 -8.089002E-20  1.711484E-20
         2   5 -2.078750E-10 -2.078750E-10  1.781786E-10 -8.722346E-19 -9.132704E-20 -1.976724E-20
         2   6 -2.078750E-10 -2.078750E-10  1.781786E-10 -4.385537E-19 -5.250079E-19  7.225723E-20
         2   7 -2.078750E-10 -2.078750E-10  1.781786E-10 -8.855474E-19  1.027441E-19 -3.895183E-20
         2   8 -2.078750E-10 -2.078750E-10  1.781786E-10 -2.350261E-19 -3.309368E-19  7.048552E-20
         3   1 -2.078750E-10 -2.078750E-10  1.781786E-10 -8.629678E-19 -4.912672E-20  5.069775E-20
         3   2 -2.078750E-10 -2.078750E-10  1.781786E-10 -5.377071E-19  2.761339E-19 -2.293967E-20
         3   3 -2.078750E-10 -2.078750E-10  1.781786E-10 -8.509632E-19 -1.092350E-19  2.161492E-20
         3   4 -2.078750E-10 -2.078750E-10  1.781786E-10  9.921805E-19  5.412864E-19 -8.898488E-20
         3   5 -2.078750E-10 -2.078750E-10  1.781786E-10 -8.819086E-19 -1.833434E-19  2.182894E-19
         3   6 -2.078750E-10 -2.078750E-10  1.781786E-10 -8.819086E-19  2.503375E-19 -1.956680E-20
         3   7 -2.078750E-10 -2.078750E-10  1.781786E-10 -9.216514E-19  4.596913E-19  1.892066E-19
         3   8 -2.078750E-10 -2.078750E-10  1.781786E-10  5.962317E-19 -4.076704E-19 -8.561201E-20
         4   1 -2.078750E-10 -2.078750E-10  1.781786E-10 -3.925813E-19  1.841877E-20 -7.491160E-19
         4   2 -2.078750E-10 -2.078750E-10  1.781786E-10 -4.283999E-19  6.042911E-20  7.210756E-20
         4   3 -2.078750E-10 -2.078750E-10  1.781786E-10  9.530970E-20  2.710774E-21  9.825542E-21
         4   4 -2.078750E-10 -2.078750E-10  1.781786E-10  5.949110E-20 -2.024683E-20  1.789745E-20
         4   5 -2.078750E-10 -2.078750E-10  1.781786E-10  1.704380E-19  2.672946E-20 -6.138519E-19
         4   6 -2.078750E-10 -2.078750E-10  1.781786E-10  4.366431E-20  6.873980E-20  3.107397E-19
         4   7 -2.078750E-10 -2.078750E-10  1.781786E-10  3.872785E-19  3.307433E-20  4.703503E-19
         4   8 -2.078750E-10 -2.078750E-10  1.781786E-10  2.605047E-19  1.011674E-20  1.042576E-18
         5   1 -2.078750E-10 -2.078750E-10  1.781786E-10 -1.084202E-18  2.404793E-19  1.540418E-19
         5   2 -2.078750E-10 -2.078750E-10  1.781786E-10 -6.505213E-19  9.994209E-19 -5.241198E-19
         5   3 -2.078750E-10 -2.078750E-10  1.781786E-10 -1.192622E-18  4.025744E-19  4.793025E-19
         5   4 -2.078750E-10 -2.078750E-10  1.781786E-10 -5.149960E-19 -2.479469E-19 -2.259642E-19
         5   5 -2.078750E-10 -2.078750E-10  1.781786E-10 -6.505213E-19 -2.019863E-20  4.955228E-19
         5   6 -2.078750E-10 -2.078750E-10  1.781786E-10 -1.084202E-19  8.471631E-19  2.098952E-19
         5   7 -2.078750E-10 -2.078750E-10  1.781786E-10 -1.301043E-18  7.512708E-19  1.037624E-18
         5   8 -2.078750E-10 -2.078750E-10  1.781786E-10 -6.505213E-19 -7.670691E-21 -3.593110E-19
         6   1 -2.078750E-10 -2.078750E-10  1.781786E-10  1.084202E-18  8.569297E-19 -4.051308E-21
         6   2 -2.078750E-10 -2.078750E-10  1.781786E-10  6.505213E-19  3.690387E-19 -4.722296E-19
         6   3 -2.078750E-10 -2.078750E-10  1.781786E-10  2.168404E-19  8.495373E-19  8.633104E-19
         6   4 -2.078750E-10 -2.078750E-10  1.781786E-10 -2.168404E-19 -1.102027E-18 -2.282841E-19
         6   5 -2.078750E-10 -2.078750E-10  1.781786E-10  1.177311E-39  8.284287E-19  9.330052E-20
         6   6 -2.078750E-10 -2.078750E-10  1.781786E-10 -2.168404E-19 -2.015634E-19 -7.745447E-19
         6   7 -2.078750E-10 -2.078750E-10  1.781786E-10  2.011572E-39 -6.652155E-20 -1.511970E-20
         6   8 -2.078750E-10 -2.078750E-10  1.781786E-10 -4.336809E-19 -5.002024E-19  6.571200E-20
         7   1 -2.078750E-10 -2.078750E-10  1.781786E-10  1.979266E-19 -4.385957E-21 -7.487392E-19
         7   2 -2.078750E-10 -2.078750E-10  1.781786E-10  1.462529E-19  9.337833E-20 -3.363238E-20
         7   3 -2.078750E-10 -2.078750E-10  1.781786E-10 -1.891386E-20  4.795192E-22 -1.616101E-18
         7   4 -2.078750E-10 -2.078750E-10  1.781786E-10 -7.058751E-20  8.319026E-20 -1.172045E-18
         7   5 -2.078750E-10 -2.078750E-10  1.781786E-10  8.407339E-19 -1.141329E-19 -4.246565E-19
         7   6 -2.078750E-10 -2.078750E-10  1.781786E-10  7.679853E-19 -1.636862E-20 -1.690944E-19
         7   7 -2.078750E-10 -2.078750E-10  1.781786E-10 -2.662784E-20 -8.092116E-20  1.310067E-18
         7   8 -2.078750E-10 -2.078750E-10  1.781786E-10 -9.937644E-20  1.789579E-21  4.774604E-20
         8   1 -2.078750E-10 -2.078750E-10  1.781786E-10  4.336809E-19 -7.466699E-19 -7.418606E-19
         8   2 -2.078750E-10 -2.078750E-10  1.781786E-10 -1.626303E-19 -1.483339E-20 -1.366289E-19
         8   3 -2.078750E-10 -2.078750E-10  1.781786E-10  4.336809E-19 -1.279850E-18 -7.418606E-19
         8   4 -2.078750E-10 -2.078750E-10  1.781786E-10 -1.355253E-19 -1.956483E-19 -1.491882E-18
         8   5 -2.078750E-10 -2.078750E-10  1.781786E-10 -8.673617E-19  1.674737E-20 -3.989850E-19
         8   6 -2.078750E-10 -2.078750E-10  1.781786E-10  8.673617E-19 -3.356183E-19  3.680893E-19
         8   7 -2.078750E-10 -2.078750E-10  1.781786E-10 -1.430545E-36 -7.882715E-19  4.683768E-19
         8   8 -2.078750E-10 -2.078750E-10  1.781786E-10  9.757820E-19 -3.545907E-19  7.475600E-19
         9   1 -2.078750E-10 -2.078750E-10  1.781786E-10  2.385245E-18  4.072776E-20 -7.235992E-20
         9   2 -2.078750E-10 -2.078750E-10  1.781786E-10  1.843144E-18 -4.471632E-19 -1.730007E-18
         9   3 -2.078750E-10 -2.078750E-10  1.781786E-10  6.505213E-19 -4.482582E-20  1.011842E-18
         9   4 -2.078750E-10 -2.078750E-10  1.781786E-10  1.084202E-19  8.225359E-19 -5.915944E-19
         9   5 -2.078750E-10 -2.078750E-10  1.781786E-10  1.734723E-18  3.688385E-19 -3.281531E-19
         9   6 -2.078750E-10 -2.078750E-10  1.781786E-10  4.336809E-19  9.109396E-19 -3.221828E-19
         9   7 -2.078750E-10 -2.078750E-10  1.781786E-10  8.673617E-19 -1.034654E-18  5.392086E-19
         9   8 -2.078750E-10 -2.078750E-10  1.781786E-10  8.673617E-19 -1.672922E-19 -4.306030E-19

 displacements (vx,vy,vz) for set NALL and time  0.3727813E+00

         1  0.000000E+00  0.000000E+00  0.000000E+00
         2 -1.065089E-07  0.000000E+00  0.000000E+00
         3 -5.591719E+00  0.000000E+00  0.000000E+00
         4 -5.591719E+00  0.000000E+00  0.000000E+00
         5 -1.118344E+01  0.000000E+00  0.000000E+00
         6 -1.118344E+01  0.000000E+00  0.000000E+00
         7  0.000000E+00 -1.065089E-07  0.000000E+00
         8 -1.065089E-07 -1.065089E-07  0.000000E+00
         9 -5.591719E+00 -1.065089E-07  0.000000E+00
        10 -5.591719E+00 -1.065089E-07  0.000000E+00
        11 -1.118344E+01 -1.065089E-07  0.000000E+00
        12 -1.118344E+01 -1.065089E-07  0.000000E+00
        13  0.000000E+00 -5.591719E+00  0.000000E+00
        14 -1.065089E-07 -5.591719E+00  0.000000E+00
        15 -5.591719E+00 -5.591719E+00  0.000000E+00
        16 -5.591719E+00 -5.591719E+00  0.000000E+00
        17 -1.118344E+01 -5.591719E+00  0.000000E+00
        18 -1.118344E+01 -5.591719E+00  0.000000E+00
        19  0.000000E+00 -5.591719E+00  0.000000E+00
        20 -1.065089E-07 -5.591719E+00  0.000000E+00
        21 -5.591719E+00 -5.591719E+00  0.000000E+00
        22 -5.591719E+00 -5.591719E+00  0.000000E+00
        23 -1.118344E+01 -5.591719E+00  0.000000E+00
        24 -1.118344E+01 -5.591719E+00  0.000000E+00
        25  0.000000E+00 -1.118344E+01  0.000000E+00
        26 -1.065089E-07 -1.118344E+01  0.000000E+00
        27 -5.591719E+00 -1.118344E+01  0.000000E+00
        28 -5.591719E+00 -1.118344E+01  0.000000E+00
        29 -1.118344E+01 -1.118344E+01  0.000000E+00
        30 -1.118344E+01 -1.118344E+01  0.000000E+00
        31  0.000000E+00 -1.118344E+01  0.000000E+00
        32 -1.065089E-07 -1.118344E+01  0.000000E+00
        33 -5.591719E+00 -1.118344E+01  0.000000E+00
        34 -5.591719E+00 -1.118344E+01  0.000000E+00
        35 -1.118344E+01 -1.118344E+01  0.000000E+00
        36 -1.118344E+01 -1.118344E+01  0.000000E+00
        37  0.000000E+00  0.000000E+00  1.278107E-07
        38 -1.065089E-07  0.000000E+00  1.278107E-07
        39 -5.591719E+00  0.000000E+00  1.278107E-07
        40 -5.591719E+00  0.000000E+00  1.278107E-07
        41 -1.118344E+01  0.000000E+00  1.278107E-07
        42 -1.118344E+01  0.000000E+00  1.278107E-07
        43  0.000000E+00 -1.065089E-07  1.278107E-07
        44 -1.065089E-07 -1.065089E-07  1.278107E-07
        45 -5.591719E+00 -1.065089E-07  1.278107E-07
        46 -5.591719E+00 -1.065089E-07  1.278107E-07
        47 -1.118344E+01 -1.065089E-07  1.278107E-07
        48 -1.118344E+01 -1.065089E-07  1.278107E-07
        49  0.000000E+00 -5.591719E+00  1.278107E-07
        50 -1.065089E-07 -5.591719E+00  1.278107E-07
        51 -5.591719E+00 -5.591719E+00  1.278107E-07
        52 -5.591719E+00 -5.591719E+00  1.278107E-07
        53 -1.118344E+01 -5.591719E+00  1.278107E-07
        54 -1.118344E+01 -5.591719E+00  1.278107E-07
        55  0.000000E+00 -5.591719E+00  1.278107E-07
        56 -1.065089E-07 -5.591719E+00  1.278107E-07
        57 -5.591719E+00 -5.591719E+00  1.278107E-07
        58 -5.591719E+00 -5.591719E+00  1.278107E-07
        59 -1.118344E+01 -5.591719E+00  1.278107E-07
        60 -1.118344E+01 -5.591719E+00  1.278107E-07
        61  0.000000E+00 -1.118344E+01  1.278107E-07
        62 -1.065089E-07 -1.118344E+01  1.278107E-07
        63 -5.591719E+00 -1.118344E+01  1.278107E-07
        64 -5.591719E+00 -1.118344E+01  1.278107E-07
        65 -1.118344E+01 -1.118344E+01  1.278107E-07
        66 -1.118344E+01 -1.118344E+01  1.278107E-07
        67  0.000000E+00 -1.118344E+01  1.278107E-07
        68 -1.065089E-07 -1.118344E+01  1.278107E-07
        69 -5.591719E+00 -1.118344E+01  1.278107E-07
        70 -5.591719E+00 -1.118344E+01  1.278107E-07
        71 -1.118344E+01 -1.118344E+01  1.278107E-07
        72 -1.118344E+01 -1.118344E+01  1.278107E-07

 stresses (elem, integ.pnt.,sxx,syy,szz,sxy,sxz,syz) for set EALL and time  0.3727813E+00

         1   1 -6.390536E-05 -6.390536E-05  3.373080E-48  1.304897E-22 -2.064893E-31  2.609795E-22
         1   2 -6.390536E-05 -6.390536E-05 -3.288753E-47  3.653712E-21 -1.826856E-21 -7.176935E-22
         1   3 -6.390536E-05 -6.390536E-05 -6.746161E-48 -3.914692E-22 -2.064893E-31 -5.219589E-22
         1   4 -6.390536E-05 -6.390536E-05 -6.776264E-21  3.131754E-21 -2.609795E-21 -3.392733E-21
         1   5 -6.390536E-05 -6.390536E-05 -6.776264E-21 -1.565877E-21  1.565877E-21  1.826856E-21
         1   6 -6.390536E-05 -6.390536E-05 -6.776264E-21  4.005533E-47 -2.609795E-22 -1.239652E-21
         1   7 -6.390536E-05 -6.390536E-05 -1.355253E-20 -5.741548E-21 -1.043918E-21  1.043918E-21
         1   8 -6.390536E-05 -6.390536E-05 -1.355253E-20 -4.175671E-21 -3.131754E-21 -3.914692E-21
         2   1 -6.390536E-05 -6.390536E-05  1.012860E-13 -5.217470E-14  5.521733E-14 -2.589021E-17
         2   2 -6.390536E-05 -6.390536E-05  1.210638E-13  1.788144E-14  1.581075E-14 -4.082772E-16
         2   3 -6.390536E-05 -6.390536E-05  9.607908E-14 -5.117092E-14 -6.979103E-14 -3.268075E-15
         2   4 -6.390536E-05 -6.390536E-05  9.939548E-14  6.267030E-14 -1.573612E-13  1.889395E-15
         2   5 -6.390536E-05 -6.390536E-05  5.507083E-14  3.206227E-15  6.252618E-14  3.145562E-15
         2   6 -6.390536E-05 -6.390536E-05  8.648230E-14 -3.182184E-14 -6.007206E-14 -3.821385E-15
         2   7 -6.390536E-05 -6.390536E-05 -6.835582E-14  1.196580E-14  1.411017E-13 -9.662191E-17
         2   8 -6.390536E-05 -6.390536E-05 -5.340573E-14 -5.548233E-15 -1.391229E-13 -1.523714E-15
         3   1 -6.390536E-05 -6.390536E-05  6.422400E-14  1.291169E-13 -7.071849E-14  2.669613E-15
         3   2 -6.390536E-05 -6.390536E-05  1.464003E-14 -1.686217E-13  5.187976E-14 -7.829671E-16
         3   3 -6.390536E-05 -6.390536E-05 -5.669164E-14  9.907682E-14  2.633548E-13 -2.573798E-14
         3   4 -6.390536E-05 -6.390536E-05 -2.169746E-13  1.516189E-13  1.232425E-13  5.656406E-15
         3   5 -6.390536E-05 -6.390536E-05 -1.005161E-13  6.861407E-15  2.076965E-13  3.837072E-14
         3   6 -6.390536E-05 -6.390536E-05 -7.692150E-14 -1.332509E-13 -8.128507E-14 -9.361444E-15
         3   7 -6.390536E-05 -6.390536E-05 -2.214318E-13  2.560712E-14  7.715332E-14  9.963127E-15
         3   8 -6.390536E-05 -6.390536E-05 -3.085361E-13  1.306913E-13 -2.793089E-14 -2.922072E-15
         4   1 -6.390536E-05 -6.390536E-05 -7.836523E-14 -1.304482E-14  1.442147E-15 -8.014958E-14
         4   2 -6.390536E-05 -6.390536E-05 -5.830146E-14 -2.475933E-14  2.610870E-15 -5.953682E-14
         4   3 -6.390536E-05 -6.390536E-05 -4.525342E-14 -2.180184E-14  3.475821E-16  7.747673E-14
         4   4 -6.390536E-05 -6.390536E-05 -6.383645E-14 -3.351634E-14  1.398462E-14  1.593886E-13
         4   5 -6.390536E-05 -6.390535E-05  1.342575E-13 -1.541263E-14  4.213441E-15 -5.987615E-14
         4   6 -6.390536E-05 -6.390536E-05  9.830481E-15 -9.671490E-15  5.382163E-15 -9.412869E-14
         4   7 -6.390536E-05 -6.390535E-05  1.935528E-13 -6.795474E-14 -1.233985E-14  2.769402E-14
         4   8 -6.390536E-05 -6.390536E-05  3.047895E-14 -6.221359E-14  1.297193E-15 -4.596509E-14
         5   1 -6.390536E-05 -6.390536E-05 -7.474289E-14  1.050842E-13  1.641915E-14 -9.339977E-14
         5   2 -6.390536E-05 -6.390536E-05 -6.908559E-14  1.401123E-13  1.215034E-13 -1.425922E-14
         5   3 -6.390536E-05 -6.390536E-05 -9.475541E-15 -3.502807E-14  8.680268E-14  6.422655E-14
         5   4 -6.390536E-05 -6.390536E-05  1.311765E-13  3.502807E-14 -2.109359E-13  2.952587E-14
         5   5 -6.390536E-05 -6.390535E-05  1.616966E-13 -2.802246E-13 -2.160021E-14 -4.242296E-15
         5   6 -6.390536E-05 -6.390536E-05 -1.084922E-13 -1.401123E-13  1.342786E-14 -8.652648E-14
         5   7 -6.390536E-05 -6.390536E-05 -6.201765E-14 -2.802246E-13 -7.557207E-15 -2.175633E-14
         5   8 -6.390536E-05 -6.390536E-05  2.609229E-14 -1.050842E-13 -2.507124E-14 -9.528350E-14
         6   1 -6.390536E-05 -6.390536E-05 -2.901203E-13 -1.225982E-13 -6.323734E-14 -7.606889E-14
         6   2 -6.390536E-05 -6.390536E-05 -1.910049E-13  1.050842E-13  6.811792E-14 -2.460298E-14
         6   3 -6.390536E-05 -6.390536E-05 -5.393876E-14 -2.101684E-13  1.327194E-13 -5.855486E-14
         6   4 -6.390536E-05 -6.390536E-05 -7.816230E-14  1.751404E-14  1.327194E-13  1.198878E-13
         6   5 -6.390536E-05 -6.390536E-05 -5.368084E-14 -7.005614E-14 -7.963610E-14 -2.713277E-14
         6   6 -6.390536E-05 -6.390536E-05  1.916350E-14 -1.050842E-13 -1.409352E-13 -1.011550E-14
         6   7 -6.390536E-05 -6.390536E-05 -3.954624E-13 -7.005614E-14  1.125215E-13 -9.718891E-14
         6   8 -6.390536E-05 -6.390536E-05 -2.357886E-13 -1.401123E-13 -2.027311E-13  2.491257E-14
         7   1 -6.390536E-05 -6.390536E-05 -1.439467E-13  3.868543E-14  1.299996E-14 -1.902007E-13
         7   2 -6.390536E-05 -6.390536E-05 -3.429971E-13  4.867753E-14  4.406932E-14 -1.105167E-13
         7   3 -6.390536E-05 -6.390536E-05  7.423309E-15  3.868543E-14 -6.521014E-15 -1.201446E-13
         7   4 -6.390536E-05 -6.390536E-05 -2.454903E-13  4.867753E-14 -7.238676E-15 -1.980868E-13
         7   5 -6.390536E-05 -6.390536E-05 -7.870106E-14  2.675931E-13  1.744716E-14 -1.356480E-13
         7   6 -6.390536E-05 -6.390536E-05 -5.404620E-13  2.330834E-13  4.851652E-14 -2.496708E-14
         7   7 -6.390536E-05 -6.390536E-05  5.916227E-15 -1.263144E-14 -2.361909E-14  2.146327E-13
         7   8 -6.390536E-05 -6.390536E-05 -5.097079E-13 -4.714117E-14 -2.433675E-14 -2.496708E-14
         8   1 -6.390536E-05 -6.390536E-05 -1.191085E-13  8.757018E-14  8.618467E-14 -1.906070E-13
         8   2 -6.390535E-05 -6.390535E-05  3.063040E-13  9.632719E-14  8.180616E-14  2.644115E-14
         8   3 -6.390536E-05 -6.390536E-05 -1.168570E-13  1.751404E-14  5.494258E-15 -1.205509E-13
         8   4 -6.390536E-05 -6.390536E-05 -1.581437E-13  3.502807E-14 -1.201978E-14 -2.362694E-13
         8   5 -6.390536E-05 -6.390536E-05 -6.656636E-14 -7.005614E-14  7.770652E-14 -1.371644E-13
         8   6 -6.390536E-05 -6.390536E-05 -8.948578E-15  1.225982E-13  9.084205E-14 -1.922567E-14
         8   7 -6.390536E-05 -6.390536E-05  1.449824E-14 -2.101684E-13  2.050485E-14  7.300407E-14
         8   8 -6.390536E-05 -6.390536E-05 -3.157700E-13 -1.401123E-13  3.801888E-14  1.384006E-13
         9   1 -6.390536E-05 -6.390536E-05 -4.321614E-13 -1.751404E-13  9.969117E-16 -7.354131E-14
         9   2 -6.390536E-05 -6.390536E-05 -5.041656E-13  2.451965E-13 -9.533028E-14  3.680626E-14
         9   3 -6.390535E-05 -6.390536E-05  2.298885E-13 -2.101684E-13 -2.001078E-14  1.716552E-13
         9   4 -6.390535E-05 -6.390535E-05  4.347360E-13  2.101684E-13 -2.001078E-14 -9.454900E-14
         9   5 -6.390536E-05 -6.390536E-05 -9.063774E-14 -4.203368E-13 -1.013637E-13 -9.244872E-14
         9   6 -6.390536E-05 -6.390536E-05 -4.516234E-13 -3.502807E-14  1.000477E-13 -1.322418E-14
         9   7 -6.390535E-05 -6.390536E-05  2.298885E-13 -2.802246E-13 -2.147935E-13 -1.625049E-13
         9   8 -6.390536E-05 -6.390536E-05  9.321230E-14  7.005614E-14 -1.097093E-13 -6.576628E-14

 strains (elem, integ.pnt.,exx,eyy,ezz,exy,exz,eyz) forset EALL and time  0.3727813E+00

         1   1 -2.130179E-10 -2.130179E-10  1.825867E-10  8.077936E-28  1.278267E-36  1.615587E-27
         1   2 -2.130179E-10 -2.130179E-10  1.825867E-10  2.261822E-26 -1.130911E-26 -4.442865E-27
         1   3 -2.130179E-10 -2.130179E-10  1.825867E-10 -2.423381E-27  1.278267E-36 -3.231174E-27
         1   4 -2.130179E-10 -2.130179E-10  1.825867E-10  1.938705E-26 -1.615587E-26 -2.100263E-26
         1   5 -2.130179E-10 -2.130179E-10  1.825867E-10 -9.693523E-27  9.693523E-27  1.130911E-26
         1   6 -2.130179E-10 -2.130179E-10  1.825867E-10  6.681912E-52 -1.615587E-27 -7.674039E-27
         1   7 -2.130179E-10 -2.130179E-10  1.825867E-10 -3.554292E-26 -6.462349E-27  6.462349E-27
         1   8 -2.130179E-10 -2.130179E-10  1.825867E-10 -2.584939E-26 -1.938705E-26 -2.423381E-26
         2   1 -2.130179E-10 -2.130179E-10  1.825867E-10 -3.229862E-19  3.418216E-19 -1.602727E-22
         2   2 -2.130179E-10 -2.130179E-10  1.825867E-10  1.106946E-19  9.787608E-20 -2.527430E-21
         2   3 -2.130179E-10 -2.130179E-10  1.825867E-10 -3.167724E-19 -4.320397E-19 -2.023094E-20
         2   4 -2.130179E-10 -2.130179E-10  1.825867E-10  3.879590E-19 -9.741408E-19  1.169625E-20
         2   5 -2.130179E-10 -2.130179E-10  1.825867E-10  1.984807E-20  3.870669E-19  1.947253E-20
         2   6 -2.130179E-10 -2.130179E-10  1.825867E-10 -1.969924E-19 -3.718747E-19 -2.365619E-20
         2   7 -2.130179E-10 -2.130179E-10  1.825867E-10  7.407401E-20  8.734866E-19 -5.981356E-22
         2   8 -2.130179E-10 -2.130179E-10  1.825867E-10 -3.434621E-20 -8.612369E-19 -9.432517E-21
         3   1 -2.130179E-10 -2.130179E-10  1.825867E-10  7.992949E-19 -4.377811E-19  1.652618E-20
         3   2 -2.130179E-10 -2.130179E-10  1.825867E-10 -1.043849E-18  3.211604E-19 -4.846939E-21
         3   3 -2.130179E-10 -2.130179E-10  1.825867E-10  6.133327E-19  1.630291E-18 -1.593304E-19
         3   4 -2.130179E-10 -2.130179E-10  1.825867E-10  9.385934E-19  7.629296E-19  3.501585E-20
         3   5 -2.130179E-10 -2.130179E-10  1.825867E-10  4.247538E-20  1.285740E-18  2.375330E-19
         3   6 -2.130179E-10 -2.130179E-10  1.825867E-10 -8.248864E-19 -5.031933E-19 -5.795179E-20
         3   7 -2.130179E-10 -2.130179E-10  1.825867E-10  1.585203E-19  4.776158E-19  6.167650E-20
         3   8 -2.130179E-10 -2.130179E-10  1.825867E-10  8.090416E-19 -1.729055E-19 -1.808902E-20
         4   1 -2.130179E-10 -2.130179E-10  1.825867E-10 -8.075367E-20  8.927575E-21 -4.961641E-19
         4   2 -2.130179E-10 -2.130179E-10  1.825867E-10 -1.532720E-19  1.616253E-20 -3.685612E-19
         4   3 -2.130179E-10 -2.130179E-10  1.825867E-10 -1.349638E-19  2.151699E-21  4.796179E-19
         4   4 -2.130179E-10 -2.130179E-10  1.825867E-10 -2.074821E-19  8.657148E-20  9.866915E-19
         4   5 -2.130179E-10 -2.130178E-10  1.825867E-10 -9.541153E-20  2.608320E-20 -3.706619E-19
         4   6 -2.130179E-10 -2.130179E-10  1.825867E-10 -5.987113E-20  3.331815E-20 -5.827014E-19
         4   7 -2.130179E-10 -2.130178E-10  1.825867E-10 -4.206722E-19 -7.638953E-20  1.714392E-19
         4   8 -2.130179E-10 -2.130179E-10  1.825867E-10 -3.851318E-19  8.030243E-21 -2.845458E-19
         5   1 -2.130179E-10 -2.130179E-10  1.825867E-10  6.505213E-19  1.016423E-19 -5.781890E-19
         5   2 -2.130179E-10 -2.130179E-10  1.825867E-10  8.673617E-19  7.521636E-19 -8.827134E-20
         5   3 -2.130178E-10 -2.130179E-10  1.825867E-10 -2.168404E-19  5.373499E-19  3.975929E-19
         5   4 -2.130178E-10 -2.130179E-10  1.825867E-10  2.168404E-19 -1.305794E-18  1.827792E-19
         5   5 -2.130179E-10 -2.130178E-10  1.825867E-10 -1.734723E-18 -1.337156E-19 -2.626183E-20
         5   6 -2.130179E-10 -2.130179E-10  1.825867E-10 -8.673617E-19  8.312482E-20 -5.356401E-19
         5   7 -2.130179E-10 -2.130179E-10  1.825867E-10 -1.734723E-18 -4.678271E-20 -1.346821E-19
         5   8 -2.130179E-10 -2.130179E-10  1.825867E-10 -6.505213E-19 -1.552029E-19 -5.898502E-19
         6   1 -2.130179E-10 -2.130179E-10  1.825867E-10 -7.589415E-19 -3.914693E-19 -4.709027E-19
         6   2 -2.130179E-10 -2.130179E-10  1.825867E-10  6.505213E-19  4.216824E-19 -1.523042E-19
         6   3 -2.130179E-10 -2.130179E-10  1.825867E-10 -1.301043E-18  8.215960E-19 -3.624825E-19
         6   4 -2.130179E-10 -2.130179E-10  1.825867E-10  1.084202E-19  8.215960E-19  7.421626E-19
         6   5 -2.130178E-10 -2.130179E-10  1.825867E-10 -4.336809E-19 -4.929854E-19 -1.679647E-19
         6   6 -2.130178E-10 -2.130179E-10  1.825867E-10 -6.505213E-19 -8.724561E-19 -6.261976E-20
         6   7 -2.130179E-10 -2.130179E-10  1.825867E-10 -4.336809E-19  6.965618E-19 -6.016456E-19
         6   8 -2.130179E-10 -2.130179E-10  1.825867E-10 -8.673617E-19 -1.255002E-18  1.542207E-19
         7   1 -2.130179E-10 -2.130179E-10  1.825867E-10  2.394812E-19  8.047595E-20 -1.177433E-18
         7   2 -2.130179E-10 -2.130179E-10  1.825867E-10  3.013371E-19  2.728101E-19 -6.841508E-19
         7   3 -2.130179E-10 -2.130179E-10  1.825867E-10  2.394812E-19 -4.036818E-20 -7.437522E-19
         7   4 -2.130179E-10 -2.130179E-10  1.825867E-10  3.013371E-19 -4.481085E-20 -1.226252E-18
         7   5 -2.130179E-10 -2.130179E-10  1.825867E-10  1.656529E-18  1.080062E-19 -8.397255E-19
         7   6 -2.130179E-10 -2.130179E-10  1.825867E-10  1.442897E-18  3.003403E-19 -1.545581E-19
         7   7 -2.130179E-10 -2.130179E-10  1.825867E-10 -7.819463E-20 -1.462134E-19  1.328679E-18
         7   8 -2.130179E-10 -2.130179E-10  1.825867E-10 -2.918263E-19 -1.506561E-19 -1.545581E-19
         8   1 -2.130179E-10 -2.130179E-10  1.825867E-10  5.421011E-19  5.335241E-19 -1.179948E-18
         8   2 -2.130179E-10 -2.130178E-10  1.825867E-10  5.963112E-19  5.064191E-19  1.636833E-19
         8   3 -2.130179E-10 -2.130179E-10  1.825867E-10  1.084202E-19  3.401207E-20 -7.462675E-19
         8   4 -2.130179E-10 -2.130179E-10  1.825867E-10  2.168404E-19 -7.440814E-20 -1.462620E-18
         8   5 -2.130179E-10 -2.130179E-10  1.825867E-10 -4.336809E-19  4.810404E-19 -8.491126E-19
         8   6 -2.130179E-10 -2.130179E-10  1.825867E-10  7.589415E-19  5.623555E-19 -1.190161E-19
         8   7 -2.130179E-10 -2.130179E-10  1.825867E-10 -1.301043E-18  1.269348E-19  4.519300E-19
         8   8 -2.130179E-10 -2.130179E-10  1.825867E-10 -8.673617E-19  2.353550E-19  8.567659E-19
         9   1 -2.130179E-10 -2.130179E-10  1.825867E-10 -1.084202E-18  6.171358E-21 -4.552557E-19
         9   2 -2.130179E-10 -2.130179E-10  1.825867E-10  1.517883E-18 -5.901398E-19  2.278483E-19
         9   3 -2.130178E-10 -2.130179E-10  1.825867E-10 -1.301043E-18 -1.238762E-19  1.062627E-18
         9   4 -2.130178E-10 -2.130178E-10  1.825867E-10  1.301043E-18 -1.238762E-19 -5.853034E-19
         9   5 -2.130179E-10 -2.130179E-10  1.825867E-10 -2.602085E-18 -6.274895E-19 -5.723016E-19
         9   6 -2.130179E-10 -2.130179E-10  1.825867E-10 -2.168404E-19  6.193430E-19 -8.186395E-20
         9   7 -2.130178E-10 -2.130179E-10  1.825867E-10 -1.734723E-18 -1.329674E-18 -1.005982E-18
         9   8 -2.130178E-10 -2.130179E-10  1.825867E-10  4.336809E-19 -6.791529E-19 -4.071246E-19

 displacements (vx,vy,vz) for set NALL and time  0.3817813E+00

         1  0.000000E+00  0.000000E+00  0.000000E+00
         2 -1.090804E-07  0.000000E+00  0.000000E+00
         3 -5.726719E+00  0.000000E+00  0.000000E+00
         4 -5.726719E+00  0.000000E+00  0.000000E+00
         5 -1.145344E+01  0.000000E+00  0.000000E+00
         6 -1.145344E+01  0.000000E+00  0.000000E+00
         7  0.000000E+00 -1.090804E-07  0.000000E+00
         8 -1.090804E-07 -1.090804E-07  0.000000E+00
         9 -5.726719E+00 -1.090804E-07  0.000000E+00
        10 -5.726719E+00 -1.090804E-07  0.000000E+00
        11 -1.145344E+01 -1.090804E-07  0.000000E+00
        12 -1.145344E+01 -1.090804E-07  0.000000E+00
        13  0.000000E+00 -5.726719E+00  0.000000E+00
        14 -1.090804E-07 -5.726719E+00  0.000000E+00
        15 -5.726719E+00 -5.726719E+00  0.000000E+00
        16 -5.726719E+00 -5.726719E+00  0.000000E+00
        17 -1.145344E+01 -5.726719E+00  0.000000E+00
        18 -1.145344E+01 -5.726719E+00  0.000000E+00
        19  0.000000E+00 -5.726719E+00  0.000000E+00
        20 -1.090804E-07 -5.726719E+00  0.000000E+00
        21 -5.726719E+00 -5.726719E+00  0.000000E+00
        22 -5.726719E+00 -5.726719E+00  0.000000E+00
        23 -1.145344E+01 -5.726719E+00  0.000000E+00
        24 -1.145344E+01 -5.726719E+00  0.000000E+00
        25  0.000000E+00 -1.145344E+01  0.000000E+00
        26 -1.090804E-07 -1.145344E+01  0.000000E+00
        27 -5.726719E+00 -1.145344E+01  0.000000E+00
        28 -5.726719E+00 -1.145344E+01  0.000000E+00
        29 -1.145344E+01 -1.145344E+01  0.000000E+00
        30 -1.145344E+01 -1.145344E+01  0.000000E+00
        31  0.000000E+00 -1.145344E+01  0.000000E+00
        32 -1.090804E-07 -1.145344E+01  0.000000E+00
        33 -5.726719E+00 -1.145344E+01  0.000000E+00
        34 -5.726719E+00 -1.145344E+01  0.000000E+00
        35 -1.145344E+01 -1.145344E+01  0.000000E+00
        36 -1.145344E+01 -1.145344E+01  0.000000E+00
        37  0.000000E+00  0.000000E+00  1.308964E-07
        38 -1.090804E-07  0.000000E+00  1.308964E-07
        39 -5.726719E+00  0.000000E+00  1.308964E-07
        40 -5.726719E+00  0.000000E+00  1.308964E-07
        41 -1.145344E+01  0.000000E+00  1.308964E-07
        42 -1.145344E+01  0.000000E+00  1.308964E-07
        43  0.000000E+00 -1.090804E-07  1.308964E-07
        44 -1.090804E-07 -1.090804E-07  1.308964E-07
        45 -5.726719E+00 -1.090804E-07  1.308964E-07
        46 -5.726719E+00 -1.090804E-07  1.308964E-07
        47 -1.145344E+01 -1.090804E-07  1.308964E-07
        48 -1.145344E+01 -1.090804E-07  1.308964E-07
        49  0.000000E+00 -5.726719E+00  1.308964E-07
        50 -1.090804E-07 -5.726719E+00  1.308964E-07
        51 -5.726719E+00 -5.726719E+00  1.308964E-07
        52 -5.726719E+00 -5.726719E+00  1.308964E-07
        53 -1.145344E+01 -5.726719E+00  1.308964E-07
        54 -1.145344E+01 -5.726719E+00  1.308964E-07
        55  0.000000E+00 -5.726719E+00  1.308964E-07
        56 -1.090804E-07 -5.726719E+00  1.308964E-07
        57 -5.726719E+00 -5.726719E+00  1.308964E-07
        58 -5.726719E+00 -5.726719E+00  1.308964E-07
        59 -1.145344E+01 -5.726719E+00  1.308964E-07
        60 -1.145344E+01 -5.726719E+00  1.308964E-07
        61  0.000000E+00 -1.145344E+01  1.308964E-07
        62 -1.090804E-07 -1.145344E+01  1.308964E-07
        63 -5.726719E+00 -1.145344E+01  1.308964E-07
        64 -5.726719E+00 -1.145344E+01  1.308964E-07
        65 -1.145344E+01 -1.145344E+01  1.308964E-07
        66 -1.145344E+01 -1.145344E+01  1.308964E-07
        67  0.000000E+00 -1.145344E+01  1.308964E-07
        68 -1.090804E-07 -1.145344E+01  1.308964E-07
        69 -5.726719E+00 -1.145344E+01  1.308964E-07
        70 -5.726719E+00 -1.145344E+01  1.308964E-07
        71 -1.145344E+01 -1.145344E+01  1.308964E-07
        72 -1.145344E+01 -1.145344E+01  1.308964E-07

 stresses (elem, integ.pnt.,sxx,syy,szz,sxy,sxz,syz) for set EALL and time  0.3817813E+00

         1   1 -6.544821E-05 -6.544821E-05 -4.216351E-48  3.914692E-21 -9.134281E-22  2.609795E-22
         1   2 -6.544821E-05 -6.544821E-05  6.776264E-21  5.089099E-21 -3.653712E-21 -1.826856E-21
         1   3 -6.544821E-05 -6.544821E-05 -2.032879E-20  1.448436E-20  1.043918E-21  5.741548E-21
         1   4 -6.544821E-05 -6.544821E-05 -6.776264E-21  1.565877E-20  1.565877E-21 -7.307425E-21
         1   5 -6.544821E-05 -6.544821E-05  9.815664E-46 -5.219589E-22 -3.784202E-21 -4.436651E-21
         1   6 -6.544821E-05 -6.544821E-05 -1.355253E-20  4.697630E-21 -6.524487E-21 -2.348815E-21
         1   7 -6.544821E-05 -6.544821E-05 -6.776264E-21 -5.219589E-21  2.609795E-21  2.537695E-30
         1   8 -6.544821E-05 -6.544821E-05 -2.032879E-20 -1.064942E-45  3.131754E-21 -7.829384E-21
         2   1 -6.544821E-05 -6.544821E-05  2.915862E-14  7.163690E-14  4.705197E-14 -1.670339E-16
         2   2 -6.544821E-05 -6.544821E-05 -1.861690E-15  9.790795E-14 -5.365374E-14 -1.280575E-15
         2   3 -6.544821E-05 -6.544821E-05 -6.105450E-14  7.595560E-14 -3.602302E-15  3.936603E-15
         2   4 -6.544821E-05 -6.544821E-05 -7.918063E-14  5.899458E-15  8.396787E-14 -5.376858E-15
         2   5 -6.544821E-05 -6.544821E-05 -1.476585E-14 -7.267732E-14  3.205263E-14 -4.727014E-15
         2   6 -6.544821E-05 -6.544821E-05 -6.300598E-14 -3.764925E-14 -8.178860E-14 -6.828857E-16
         2   7 -6.544821E-05 -6.544821E-05  1.052421E-16 -7.983850E-14 -1.344397E-14 -6.233776E-16
         2   8 -6.544821E-05 -6.544821E-05 -3.524071E-14 -9.782358E-15  2.158410E-14 -4.779170E-15
         3   1 -6.544821E-05 -6.544821E-05 -1.401663E-15 -1.786506E-13 -7.804307E-14  1.222264E-14
         3   2 -6.544821E-05 -6.544821E-05  1.689075E-13  1.366020E-13 -3.425798E-14 -9.198408E-15
         3   3 -6.544821E-05 -6.544821E-05  1.747559E-13 -1.882408E-13  1.225190E-13 -2.484754E-14
         3   4 -6.544821E-05 -6.544821E-05  4.020636E-14  5.695573E-14  1.575471E-13  1.715154E-14
         3   5 -6.544821E-05 -6.544821E-05  2.583518E-14  2.898848E-14 -4.165291E-15  8.268567E-14
         3   6 -6.544821E-05 -6.544821E-05  3.293266E-13 -1.111238E-13 -2.230907E-13 -6.067888E-14
         3   7 -6.544821E-05 -6.544821E-05 -8.175670E-15  1.081865E-13  7.445329E-14  4.561549E-14
         3   8 -6.544821E-05 -6.544821E-05 -9.542965E-15 -2.070661E-13 -1.357151E-13 -3.432893E-14
         4   1 -6.544821E-05 -6.544821E-05 -1.737470E-13  2.841595E-15 -3.622659E-15  1.808340E-14
         4   2 -6.544821E-05 -6.544821E-05 -1.675652E-13  1.060498E-14 -2.300338E-16 -4.874402E-14
         4   3 -6.544821E-05 -6.544821E-05 -2.778362E-13  2.841595E-15  4.394898E-15  1.231676E-13
         4   4 -6.544821E-05 -6.544821E-05 -2.196960E-13  1.060498E-14  8.908562E-15  2.183450E-13
         4   5 -6.544821E-05 -6.544821E-05 -6.153826E-14  3.416055E-15 -1.691257E-14 -2.821030E-14
         4   6 -6.544821E-05 -6.544821E-05  1.679475E-13  1.274889E-14 -1.351995E-14 -1.136610E-13
         4   7 -6.544821E-05 -6.544821E-05 -1.632732E-13  3.416055E-15  1.188832E-14  6.817773E-15
         4   8 -6.544821E-05 -6.544821E-05 -9.199760E-14  1.274889E-14  1.640198E-14 -6.987588E-14
         5   1 -6.544821E-05 -6.544821E-05  1.655454E-13 -2.627105E-14 -7.790569E-14 -2.873535E-15
         5   2 -6.544821E-05 -6.544821E-05  1.396064E-13  8.757018E-14  4.907107E-14  2.927471E-14
         5   3 -6.544821E-05 -6.544821E-05  2.129998E-13 -5.254211E-14 -2.252763E-13  1.464050E-14
         5   4 -6.544821E-05 -6.544821E-05  1.786237E-14  1.050842E-13 -3.262191E-14 -8.018801E-14
         5   5 -6.544821E-05 -6.544821E-05  8.673228E-14 -1.751404E-14  1.236385E-13  2.096985E-15
         5   6 -6.544821E-05 -6.544821E-05  3.366393E-13  5.254211E-14 -2.960927E-14 -8.597625E-14
         5   7 -6.544821E-05 -6.544821E-05  3.443550E-13  7.005614E-14 -1.964957E-13  1.246952E-13
         5   8 -6.544821E-05 -6.544821E-05  2.411663E-13  1.576263E-13  4.870083E-14 -1.253828E-13
         6   1 -6.544821E-05 -6.544821E-05  6.325723E-15 -5.254211E-14  3.017528E-13 -1.054647E-13
         6   2 -6.544821E-05 -6.544821E-05 -8.587962E-14  3.502807E-14  2.229397E-13 -5.011990E-15
         6   3 -6.544821E-05 -6.544821E-05  3.727047E-15  4.465098E-31  1.176025E-13  1.397318E-13
         6   4 -6.544821E-05 -6.544821E-05  1.126926E-13  5.254211E-14  1.526305E-13 -7.944664E-14
         6   5 -6.544821E-05 -6.544821E-05  3.478494E-13  7.005614E-14 -1.535387E-14 -1.065041E-13
         6   6 -6.544821E-05 -6.544821E-05  2.819151E-13 -1.050842E-13 -5.038194E-14  6.565988E-14
         6   7 -6.544821E-05 -6.544821E-05  1.350823E-13 -7.138830E-32 -8.400782E-14  6.863620E-14
         6   8 -6.544821E-05 -6.544821E-05 -1.866266E-14  7.005614E-14  2.312448E-13  3.501032E-14
         7   1 -6.544821E-05 -6.544821E-05  2.098507E-13 -2.945843E-15  6.482607E-15 -4.416011E-14
         7   2 -6.544821E-05 -6.544821E-05  1.583065E-13 -1.099403E-14  2.777408E-15 -3.131473E-14
         7   3 -6.544821E-05 -6.544821E-05  3.746515E-13 -2.945843E-15 -1.399466E-15  1.660083E-13
         7   4 -6.544821E-05 -6.544821E-05  2.314083E-13 -1.099403E-14  1.004073E-14  2.576669E-13
         7   5 -6.544821E-05 -6.544821E-05 -1.131829E-13  4.815194E-15  2.789862E-14  2.658917E-14
         7   6 -6.544821E-05 -6.544821E-05 -1.121850E-13  1.797055E-14  2.419342E-14 -8.481525E-14
         7   7 -6.544821E-05 -6.544821E-05  8.342331E-14  4.815194E-15 -1.666307E-14 -4.346697E-14
         7   8 -6.544821E-05 -6.544821E-05 -7.277795E-15  1.797055E-14 -5.222879E-15 -1.286003E-13
         8   1 -6.544821E-05 -6.544821E-05  1.486086E-13  1.050842E-13 -1.142635E-13 -3.582824E-14
         8   2 -6.544821E-05 -6.544821E-05 -2.002622E-13  5.254211E-14 -7.485695E-14 -4.210479E-14
         8   3 -6.544821E-05 -6.544821E-05  3.692540E-13 -3.502807E-14 -7.675499E-14  1.743402E-13
         8   4 -6.544821E-05 -6.544821E-05 -1.756500E-13 -5.254211E-14  4.584326E-14  2.118487E-13
         8   5 -6.544821E-05 -6.544821E-05 -7.469534E-14  7.005614E-14 -2.612940E-14  5.768411E-14
         8   6 -6.544821E-05 -6.544821E-05  4.931279E-14 -8.956533E-33  3.079121E-14  3.254202E-14
         8   7 -6.544821E-05 -6.544821E-05  5.400133E-14  7.005614E-14 -2.500044E-14  1.277403E-13
         8   8 -6.544821E-05 -6.544821E-05  6.078945E-14  1.751404E-14  4.505570E-14 -1.338413E-13
         9   1 -6.544821E-05 -6.544821E-05 -1.143337E-13  1.401123E-13 -4.830500E-15  1.718709E-14
         9   2 -6.544821E-05 -6.544821E-05 -2.261398E-13  1.751404E-14  2.140949E-13  1.160651E-13
         9   3 -6.544821E-05 -6.544821E-05 -3.647385E-13  2.802246E-13 -1.511489E-13 -1.229252E-13
         9   4 -6.544821E-05 -6.544821E-05 -4.605444E-14  1.926544E-13 -8.109279E-14 -2.404714E-14
         9   5 -6.544821E-05 -6.544821E-05 -6.179164E-14  1.991232E-31 -1.231119E-13 -4.094113E-14
         9   6 -6.544821E-05 -6.544821E-05 -4.224245E-14 -1.401123E-13 -1.802767E-14  6.725246E-14
         9   7 -6.544821E-05 -6.544821E-05  5.559835E-14 -3.271062E-32 -4.118934E-14  6.414308E-14
         9   8 -6.544821E-05 -6.544821E-05 -2.299518E-13 -3.152526E-13 -6.161274E-15 -2.907473E-14

 strains (elem, integ.pnt.,exx,eyy,ezz,exy,exz,eyz) forset EALL and time  0.3817813E+00

         1   1 -2.181607E-10 -2.181607E-10  1.869949E-10  2.423381E-26 -5.654555E-27  1.615587E-27
         1   2 -2.181607E-10 -2.181607E-10  1.869949E-10  3.150395E-26 -2.261822E-26 -1.130911E-26
         1   3 -2.181607E-10 -2.181607E-10  1.869949E-10  8.966509E-26  6.462349E-27  3.554292E-26
         1   4 -2.181607E-10 -2.181607E-10  1.869949E-10  9.693523E-26  9.693523E-27 -4.523644E-26
         1   5 -2.181607E-10 -2.181607E-10  1.869949E-10 -3.231174E-27 -2.342601E-26 -2.746498E-26
         1   6 -2.181607E-10 -2.181607E-10  1.869949E-10  2.908057E-26 -4.038968E-26 -1.454028E-26
         1   7 -2.181607E-10 -2.181607E-10  1.869949E-10 -3.231174E-26  1.615587E-26 -1.570954E-35
         1   8 -2.181607E-10 -2.181607E-10  1.869949E-10  6.514864E-51  1.938705E-26 -4.846761E-26
         2   1 -2.181607E-10 -2.181607E-10  1.869949E-10  4.434665E-19  2.912741E-19 -1.034019E-21
         2   2 -2.181607E-10 -2.181607E-10  1.869949E-10  6.060968E-19 -3.321422E-19 -7.927367E-21
         2   3 -2.181607E-10 -2.181607E-10  1.869949E-10  4.702013E-19 -2.229996E-20  2.436945E-20
         2   4 -2.181607E-10 -2.181607E-10  1.869949E-10  3.652045E-20  5.198011E-19 -3.328531E-20
         2   5 -2.181607E-10 -2.181607E-10  1.869949E-10 -4.499072E-19  1.984210E-19 -2.926247E-20
         2   6 -2.181607E-10 -2.181607E-10  1.869949E-10 -2.330668E-19 -5.063104E-19 -4.227388E-21
         2   7 -2.181607E-10 -2.181607E-10  1.869949E-10 -4.942383E-19 -8.322459E-20 -3.859004E-21
         2   8 -2.181607E-10 -2.181607E-10  1.869949E-10 -6.055745E-20  1.336158E-19 -2.958534E-20
         3   1 -2.181607E-10 -2.181607E-10  1.869949E-10 -1.105932E-18 -4.831237E-19  7.566393E-20
         3   2 -2.181607E-10 -2.181607E-10  1.869949E-10  8.456317E-19 -2.120732E-19 -5.694253E-20
         3   3 -2.181607E-10 -2.181607E-10  1.869949E-10 -1.165300E-18  7.584510E-19 -1.538181E-19
         3   4 -2.181607E-10 -2.181607E-10  1.869949E-10  3.525831E-19  9.752914E-19  1.061762E-19
         3   5 -2.181607E-10 -2.181607E-10  1.869949E-10  1.794525E-19 -2.578514E-20  5.118636E-19
         3   6 -2.181607E-10 -2.181607E-10  1.869949E-10 -6.879092E-19 -1.381038E-18 -3.756311E-19
         3   7 -2.181607E-10 -2.181607E-10  1.869949E-10  6.697259E-19  4.609013E-19  2.823816E-19
         3   8 -2.181607E-10 -2.181607E-10  1.869949E-10 -1.281838E-18 -8.401413E-19 -2.125124E-19
         4   1 -2.181607E-10 -2.181607E-10  1.869949E-10  1.759083E-20 -2.242598E-20  1.119449E-19
         4   2 -2.181607E-10 -2.181607E-10  1.869949E-10  6.564985E-20 -1.424019E-21 -3.017487E-19
         4   3 -2.181607E-10 -2.181607E-10  1.869949E-10  1.759083E-20  2.720651E-20  7.624662E-19
         4   4 -2.181607E-10 -2.181607E-10  1.869949E-10  6.564985E-20  5.514824E-20  1.351660E-18
         4   5 -2.181607E-10 -2.181607E-10  1.869949E-10  2.114701E-20 -1.046969E-19 -1.746352E-19
         4   6 -2.181607E-10 -2.181607E-10  1.869949E-10  7.892172E-20 -8.369493E-20 -7.036155E-19
         4   7 -2.181607E-10 -2.181607E-10  1.869949E-10  2.114701E-20  7.359434E-20  4.220526E-20
         4   8 -2.181607E-10 -2.181607E-10  1.869949E-10  7.892172E-20  1.015361E-19 -4.325649E-19
         5   1 -2.181607E-10 -2.181607E-10  1.869949E-10 -1.626303E-19 -4.822733E-19 -1.778855E-20
         5   2 -2.181607E-10 -2.181607E-10  1.869949E-10  5.421011E-19  3.037733E-19  1.812244E-19
         5   3 -2.181607E-10 -2.181607E-10  1.869949E-10 -3.252607E-19 -1.394568E-18  9.063167E-20
         5   4 -2.181607E-10 -2.181607E-10  1.869949E-10  6.505213E-19 -2.019452E-19 -4.964020E-19
         5   5 -2.181607E-10 -2.181607E-10  1.869949E-10 -1.084202E-19  7.653814E-19  1.298133E-20
         5   6 -2.181607E-10 -2.181607E-10  1.869949E-10  3.252607E-19 -1.832955E-19 -5.322339E-19
         5   7 -2.181607E-10 -2.181607E-10  1.869949E-10  4.336809E-19 -1.216402E-18  7.719229E-19
         5   8 -2.181607E-10 -2.181607E-10  1.869949E-10  9.757820E-19  3.014814E-19 -7.761794E-19
         6   1 -2.181607E-10 -2.181607E-10  1.869949E-10 -3.252607E-19  1.867994E-18 -6.528766E-19
         6   2 -2.181607E-10 -2.181607E-10  1.869949E-10  2.168404E-19  1.380103E-18 -3.102661E-20
         6   3 -2.181607E-10 -2.181607E-10  1.869949E-10  6.564040E-40  7.280152E-19  8.650064E-19
         6   4 -2.181607E-10 -2.181607E-10  1.869949E-10  3.252607E-19  9.448556E-19 -4.918125E-19
         6   5 -2.181607E-10 -2.181607E-10  1.869949E-10  4.336809E-19 -9.504774E-20 -6.593114E-19
         6   6 -2.181607E-10 -2.181607E-10  1.869949E-10 -6.505213E-19 -3.118882E-19  4.064659E-19
         6   7 -2.181607E-10 -2.181607E-10  1.869949E-10  9.142541E-39 -5.200484E-19  4.248908E-19
         6   8 -2.181607E-10 -2.181607E-10  1.869949E-10  4.336809E-19  1.431516E-18  2.167306E-19
         7   1 -2.181607E-10 -2.181607E-10  1.869949E-10 -1.823617E-20  4.013043E-20 -2.733721E-19
         7   2 -2.181607E-10 -2.181607E-10  1.869949E-10 -6.805831E-20  1.719348E-20 -1.938531E-19
         7   3 -2.181607E-10 -2.181607E-10  1.869949E-10 -1.823617E-20 -8.663360E-21  1.027671E-18
         7   4 -2.181607E-10 -2.181607E-10  1.869949E-10 -6.805831E-20  6.215689E-20  1.595081E-18
         7   5 -2.181607E-10 -2.181607E-10  1.869949E-10  2.980835E-20  1.727058E-19  1.645996E-19
         7   6 -2.181607E-10 -2.181607E-10  1.869949E-10  1.112463E-19  1.497688E-19 -5.250468E-19
         7   7 -2.181607E-10 -2.181607E-10  1.869949E-10  2.980835E-20 -1.031523E-19 -2.690813E-19
         7   8 -2.181607E-10 -2.181607E-10  1.869949E-10  1.112463E-19 -3.233211E-20 -7.960973E-19
         8   1 -2.181607E-10 -2.181607E-10  1.869949E-10  6.505213E-19 -7.073457E-19 -2.217939E-19
         8   2 -2.181607E-10 -2.181607E-10  1.869949E-10  3.252607E-19 -4.634002E-19 -2.606487E-19
         8   3 -2.181607E-10 -2.181607E-10  1.869949E-10 -2.168404E-19 -4.751499E-19  1.079249E-18
         8   4 -2.181607E-10 -2.181607E-10  1.869949E-10 -3.252607E-19  2.837916E-19  1.311444E-18
         8   5 -2.181607E-10 -2.181607E-10  1.869949E-10  4.336809E-19 -1.617534E-19  3.570921E-19
         8   6 -2.181607E-10 -2.181607E-10  1.869949E-10  4.636600E-38  1.906123E-19  2.014506E-19
         8   7 -2.181607E-10 -2.181607E-10  1.869949E-10  4.336809E-19 -1.547646E-19  7.907730E-19
         8   8 -2.181607E-10 -2.181607E-10  1.869949E-10  1.084202E-19  2.789162E-19 -8.285415E-19
         9   1 -2.181607E-10 -2.181607E-10  1.869949E-10  8.673617E-19 -2.990309E-20  1.063962E-19
         9   2 -2.181607E-10 -2.181607E-10  1.869949E-10  1.084202E-19  1.325350E-18  7.184985E-19
         9   3 -2.181607E-10 -2.181607E-10  1.869949E-10  1.734723E-18 -9.356839E-19 -7.609655E-19
         9   4 -2.181607E-10 -2.181607E-10  1.869949E-10  1.192622E-18 -5.020030E-19 -1.488632E-19
         9   5 -2.181607E-10 -2.181607E-10  1.869949E-10 -8.862730E-38 -7.621212E-19 -2.534451E-19
         9   6 -2.181607E-10 -2.181607E-10  1.869949E-10 -8.673617E-19 -1.115999E-19  4.163247E-19
         9   7 -2.181607E-10 -2.181607E-10  1.869949E-10 -2.024943E-37 -2.549817E-19  3.970762E-19
         9   8 -2.181607E-10 -2.181607E-10  1.869949E-10 -1.951564E-18 -3.814122E-20 -1.799865E-19

 displacements (vx,vy,vz) for set NALL and time  0.3907813E+00

         1  0.000000E+00  0.000000E+00  0.000000E+00
         2 -1.116518E-07  0.000000E+00  0.000000E+00
         3 -5.861719E+00  0.000000E+00  0.000000E+00
         4 -5.861719E+00  0.000000E+00  0.000000E+00
         5 -1.172344E+01  0.000000E+00  0.000000E+00
         6 -1.172344E+01  0.000000E+00  0.000000E+00
         7  0.000000E+00 -1.116518E-07  0.000000E+00
         8 -1.116518E-07 -1.116518E-07  0.000000E+00
         9 -5.861719E+00 -1.116518E-07  0.000000E+00
        10 -5.861719E+00 -1.116518E-07  0.000000E+00
        11 -1.172344E+01 -1.116518E-07  0.000000E+00
        12 -1.172344E+01 -1.116518E-07  0.000000E+00
        13  0.000000E+00 -5.861719E+00  0.000000E+00
        14 -1.116518E-07 -5.861719E+00  0.000000E+00
        15 -5.861719E+00 -5.861719E+00  0.000000E+00
        16 -5.861719E+00 -5.861719E+00  0.000000E+00
        17 -1.172344E+01 -5.861719E+00  0.000000E+00
        18 -1.172344E+01 -5.861719E+00  0.000000E+00
        19  0.000000E+00 -5.861719E+00  0.000000E+00
        20 -1.116518E-07 -5.861719E+00  0.000000E+00
        21 -5.861719E+00 -5.861719E+00  0.000000E+00
        22 -5.861719E+00 -5.861719E+00  0.000000E+00
        23 -1.172344E+01 -5.861719E+00  0.000000E+00
        24 -1.172344E+01 -5.861719E+00  0.000000E+00
        25  0.000000E+00 -1.172344E+01  0.000000E+00
        26 -1.116518E-07 -1.172344E+01  0.000000E+00
        27 -5.861719E+00 -1.172344E+01  0.000000E+00
        28 -5.861719E+00 -1.172344E+01  0.000000E+00
        29 -1.172344E+01 -1.172344E+01  0.000000E+00
        30 -1.172344E+01 -1.172344E+01  0.000000E+00
        31  0.000000E+00 -1.172344E+01  0.000000E+00
        32 -1.116518E-07 -1.172344E+01  0.000000E+00
        33 -5.861719E+00 -1.172344E+01  0.000000E+00
        34 -5.861719E+00 -1.172344E+01  0.000000E+00
        35 -1.172344E+01 -1.172344E+01  0.000000E+00
        36 -1.172344E+01 -1.172344E+01  0.000000E+00
        37  0.000000E+00  0.000000E+00  1.339821E-07
        38 -1.116518E-07  0.000000E+00  1.339821E-07
        39 -5.861719E+00  0.000000E+00  1.339821E-07
        40 -5.861719E+00  0.000000E+00  1.339821E-07
        41 -1.172344E+01  0.000000E+00  1.339821E-07
        42 -1.172344E+01  0.000000E+00  1.339821E-07
        43  0.000000E+00 -1.116518E-07  1.339821E-07
        44 -1.116518E-07 -1.116518E-07  1.339821E-07
        45 -5.861719E+00 -1.116518E-07  1.339821E-07
        46 -5.861719E+00 -1.116518E-07  1.339821E-07
        47 -1.172344E+01 -1.116518E-07  1.339821E-07
        48 -1.172344E+01 -1.116518E-07  1.339821E-07
        49  0.000000E+00 -5.861719E+00  1.339821E-07
        50 -1.116518E-07 -5.861719E+00  1.339821E-07
        51 -5.861719E+00 -5.861719E+00  1.339821E-07
        52 -5.861719E+00 -5.861719E+00  1.339821E-07
        53 -1.172344E+01 -5.861719E+00  1.339821E-07
        54 -1.172344E+01 -5.861719E+00  1.339821E-07
        55  0.000000E+00 -5.861719E+00  1.339821E-07
        56 -1.116518E-07 -5.861719E+00  1.339821E-07
        57 -5.861719E+00 -5.861719E+00  1.339821E-07
        58 -5.861719E+00 -5.861719E+00  1.339821E-07
        59 -1.172344E+01 -5.861719E+00  1.339821E-07
        60 -1.172344E+01 -5.861719E+00  1.339821E-07
        61  0.000000E+00 -1.172344E+01  1.339821E-07
        62 -1.116518E-07 -1.172344E+01  1.339821E-07
        63 -5.861719E+00 -1.172344E+01  1.339821E-07
        64 -5.861719E+00 -1.172344E+01  1.339821E-07
        65 -1.172344E+01 -1.172344E+01  1.339821E-07
        66 -1.172344E+01 -1.172344E+01  1.339821E-07
        67  0.000000E+00 -1.172344E+01  1.339821E-07
        68 -1.116518E-07 -1.172344E+01  1.339821E-07
        69 -5.861719E+00 -1.172344E+01  1.339821E-07
        70 -5.861719E+00 -1.172344E+01  1.339821E-07
        71 -1.172344E+01 -1.172344E+01  1.339821E-07
        72 -1.172344E+01 -1.172344E+01  1.339821E-07

 stresses (elem, integ.pnt.,sxx,syy,szz,sxy,sxz,syz) for set EALL and time  0.3907813E+00

         1   1 -6.699107E-05 -6.699107E-05  2.335858E-46  1.174408E-21 -2.153081E-21  1.826856E-21
         1   2 -6.699107E-05 -6.699107E-05 -4.806640E-47 -4.697630E-21 -2.609795E-22 -1.435387E-21
         1   3 -6.699107E-05 -6.699107E-05 -6.776264E-21  1.213554E-20  2.087836E-21  3.131754E-21
         1   4 -6.699107E-05 -6.699107E-05  6.776264E-21  6.263507E-21  1.409289E-20 -1.148310E-20
         1   5 -6.699107E-05 -6.699107E-05  3.511377E-45  2.087836E-21 -9.982464E-21  6.002528E-21
         1   6 -6.699107E-05 -6.699107E-05 -2.032879E-20  1.200506E-20 -8.090363E-21  4.045182E-21
         1   7 -6.699107E-05 -6.699107E-05  2.032879E-20  5.219589E-22 -5.741548E-21  5.219589E-21
         1   8 -6.699107E-05 -6.699107E-05  6.776264E-21  1.043918E-20  6.263507E-21 -6.002528E-21
         2   1 -6.699107E-05 -6.699107E-05  6.423626E-14 -2.698862E-14 -1.208328E-13  1.889510E-16
         2   2 -6.699107E-05 -6.699107E-05 -1.038263E-14  4.306752E-14 -3.764117E-14  1.624456E-15
         2   3 -6.699107E-05 -6.699107E-05  6.375045E-14 -5.024441E-15  5.637117E-14  8.994882E-16
         2   4 -6.699107E-05 -6.699107E-05  3.226647E-15  7.378872E-14 -3.119901E-14  6.188396E-16
         2   5 -6.699107E-05 -6.699107E-05  1.182705E-13  7.721617E-14 -1.638589E-13 -5.362345E-18
         2   6 -6.699107E-05 -6.699107E-05  4.004769E-14  4.218810E-14 -1.594804E-13  7.068169E-15
         2   7 -6.699107E-05 -6.699107E-05  6.524258E-14  9.677774E-14 -1.211291E-13  7.051759E-16
         2   8 -6.699107E-05 -6.699107E-05  1.114851E-15  6.174967E-14 -1.911853E-13  6.062552E-15
         3   1 -6.699107E-05 -6.699107E-05  2.671737E-14  6.935515E-14 -1.250106E-13  8.371406E-15
         3   2 -6.699107E-05 -6.699107E-05  1.269910E-13  1.218973E-13 -3.176650E-13 -5.391685E-15
         3   3 -6.699107E-05 -6.699107E-05 -4.775516E-13  6.744002E-14  1.390043E-13  1.764820E-15
         3   4 -6.699107E-05 -6.699107E-05 -4.879922E-13  1.489791E-14 -3.613609E-14 -5.314010E-15
         3   5 -6.699107E-05 -6.699107E-05 -3.549512E-13  1.428365E-13  5.636023E-14  3.784909E-14
         3   6 -6.699107E-05 -6.699107E-05 -2.406406E-13  2.128927E-13 -1.187801E-13 -2.019972E-14
         3   7 -6.699107E-05 -6.699107E-05  3.399565E-14  1.502794E-13  2.760894E-13  3.124251E-14
         3   8 -6.699107E-05 -6.699107E-05  3.759196E-14  1.016709E-14 -1.092194E-13 -2.012204E-14
         4   1 -6.699107E-05 -6.699107E-05  1.481696E-13  1.679193E-13  2.048178E-15  5.176986E-14
         4   2 -6.699107E-05 -6.699107E-05  1.132305E-13  1.481911E-13 -9.905701E-15 -4.870144E-14
         4   3 -6.699107E-05 -6.699107E-05  2.329259E-13 -7.221020E-15 -4.037753E-15 -5.331435E-14
         4   4 -6.699107E-05 -6.699107E-05  1.098705E-13 -2.694922E-14  2.627823E-15  3.840667E-15
         4   5 -6.699107E-05 -6.699107E-05  7.052438E-14  2.124887E-13  1.959778E-14  9.939115E-15
         4   6 -6.699107E-05 -6.699107E-05 -1.483121E-13  2.188277E-13  7.643904E-15  6.249716E-14
         4   7 -6.699107E-05 -6.699107E-05  1.943815E-13  2.320251E-15 -2.173467E-14  6.248122E-14
         4   8 -6.699107E-05 -6.699107E-05 -1.125713E-13  8.659296E-15 -1.506910E-14  1.719599E-13
         5   1 -6.699107E-05 -6.699107E-05  1.647518E-13 -1.838974E-13 -1.641076E-13 -5.946825E-14
         5   2 -6.699107E-05 -6.699107E-05  5.480597E-14  2.627105E-14 -1.290796E-13  7.256622E-14
         5   3 -6.699107E-05 -6.699107E-05  6.490326E-14 -1.751404E-13 -1.018062E-14  1.331861E-13
         5   4 -6.699107E-05 -6.699107E-05 -5.717373E-14  7.881316E-14 -1.018062E-14  6.888593E-15
         5   5 -6.699107E-05 -6.699107E-05 -1.505008E-13 -2.101684E-13 -7.673072E-14  9.179345E-15
         5   6 -6.699107E-05 -6.699107E-05  1.539938E-14 -1.159098E-29 -2.418861E-14  1.529997E-13
         5   7 -6.699107E-05 -6.699107E-05 -1.452651E-13 -2.101684E-13 -1.080507E-13  4.420742E-14
         5   8 -6.699107E-05 -6.699107E-05  4.791047E-14  3.502807E-14 -5.550861E-14  3.040145E-14
         6   1 -6.699107E-05 -6.699107E-05  6.843410E-14 -3.502807E-14  1.024744E-13  1.507734E-13
         6   2 -6.699107E-05 -6.699107E-05 -1.933227E-15  3.236935E-31 -2.012383E-14 -4.546829E-14
         6   3 -6.699107E-05 -6.699107E-05 -1.505373E-13  6.486264E-31  1.558077E-13  1.157453E-13
         6   4 -6.699107E-05 -6.699107E-05 -1.746908E-13  2.802246E-13  8.575157E-14  2.896636E-14
         6   5 -6.699107E-05 -6.699107E-05  2.260604E-13  3.502807E-13  9.534432E-14  8.420168E-14
         6   6 -6.699107E-05 -6.699107E-05  2.082352E-13 -1.401123E-13 -2.549364E-13 -1.058143E-13
         6   7 -6.699107E-05 -6.699107E-05  1.647153E-13  3.502807E-13 -8.153612E-14  1.192297E-13
         6   8 -6.699107E-05 -6.699107E-05  4.295434E-13  1.401123E-13  1.286323E-13  8.246158E-14
         7   1 -6.699107E-05 -6.699107E-05  2.338747E-13  1.257233E-13 -1.506528E-14  1.515820E-13
         7   2 -6.699107E-05 -6.699107E-05 -2.918269E-13  8.641200E-14 -2.458688E-14 -1.170201E-13
         7   3 -6.699107E-05 -6.699107E-05  2.532473E-13 -1.438895E-14  1.326651E-14  1.515820E-13
         7   4 -6.699107E-05 -6.699107E-05 -1.332596E-13 -5.370028E-14  2.547093E-14 -3.178841E-15
         7   5 -6.699107E-05 -6.699107E-05  3.710939E-15 -3.255759E-15 -4.670278E-14  1.829178E-13
         7   6 -6.699107E-05 -6.699107E-05 -1.804670E-13 -1.215065E-14 -5.622438E-14 -1.175765E-13
         7   7 -6.699107E-05 -6.699107E-05  6.870820E-14 -3.255759E-15  3.730689E-14  4.280555E-14
         7   8 -6.699107E-05 -6.699107E-05  2.372493E-14 -1.215065E-14  4.951130E-14 -1.963897E-13
         8   1 -6.699107E-05 -6.699107E-05  2.016665E-13  1.401123E-13 -1.454531E-13  1.733256E-13
         8   2 -6.699107E-05 -6.699107E-05 -2.814202E-13  2.977386E-13 -3.161192E-14  2.626020E-13
         8   3 -6.699107E-05 -6.699107E-05  2.943558E-13  7.005614E-14 -1.239171E-14  1.382975E-13
         8   4 -6.699107E-05 -6.699107E-05 -1.055338E-13  6.129912E-14 -4.741978E-14  2.013028E-13
         8   5 -6.699107E-05 -6.699107E-05  1.491244E-13  7.005614E-14 -1.993238E-14  1.333396E-13
         8   6 -6.699107E-05 -6.699107E-05  7.561395E-15  2.451965E-13  5.888078E-14  2.821230E-14
         8   7 -6.699107E-05 -6.699107E-05  8.418739E-14 -2.101684E-13  2.380963E-14  2.734519E-13
         8   8 -6.699107E-05 -6.699107E-05 -4.495848E-16 -1.401123E-13 -4.624651E-14 -1.731991E-13
         9   1 -6.699107E-05 -6.699107E-05 -1.638862E-13 -1.401123E-13 -4.441785E-14 -5.550827E-14
         9   2 -6.699107E-05 -6.699107E-05 -1.785125E-14 -3.502807E-14  7.818039E-14 -1.320423E-13
         9   3 -6.699107E-05 -6.699107E-05  1.709739E-14 -2.802246E-13  2.293289E-13  4.957594E-14
         9   4 -6.699107E-05 -6.699107E-05 -1.729004E-13  8.757018E-14 -5.089571E-14  1.131542E-13
         9   5 -6.699107E-05 -6.699107E-05 -3.215126E-13 -1.401123E-13  1.050691E-13 -2.514850E-14
         9   6 -6.699107E-05 -6.699107E-05 -3.856460E-13 -7.005614E-14 -2.628613E-14 -1.888077E-13
         9   7 -6.699107E-05 -6.699107E-05 -8.798681E-14 -1.401123E-13  9.027920E-14  4.490764E-14
         9   8 -6.699107E-05 -6.699107E-05 -3.305267E-13  6.503266E-31  2.303915E-13  1.001738E-13

 strains (elem, integ.pnt.,exx,eyy,ezz,exy,exz,eyz) forset EALL and time  0.3907813E+00

         1   1 -2.233036E-10 -2.233036E-10  1.914031E-10  7.270142E-27 -1.332859E-26  1.130911E-26
         1   2 -2.233036E-10 -2.233036E-10  1.914031E-10 -2.908057E-26 -1.615587E-27 -8.885729E-27
         1   3 -2.233036E-10 -2.233036E-10  1.914031E-10  7.512480E-26  1.292470E-26  1.938705E-26
         1   4 -2.233036E-10 -2.233036E-10  1.914031E-10  3.877409E-26  8.724171E-26 -7.108583E-26
         1   5 -2.233036E-10 -2.233036E-10  1.914031E-10  1.292470E-26 -6.179621E-26  3.715850E-26
         1   6 -2.233036E-10 -2.233036E-10  1.914031E-10  7.431701E-26 -5.008320E-26  2.504160E-26
         1   7 -2.233036E-10 -2.233036E-10  1.914031E-10  3.231174E-27 -3.554292E-26  3.231174E-26
         1   8 -2.233036E-10 -2.233036E-10  1.914031E-10  6.462349E-26  3.877409E-26 -3.715850E-26
         2   1 -2.233036E-10 -2.233036E-10  1.914031E-10 -1.670724E-19 -7.480128E-19  1.169696E-21
         2   2 -2.233036E-10 -2.233036E-10  1.914031E-10  2.666084E-19 -2.330168E-19  1.005616E-20
         2   3 -2.233036E-10 -2.233036E-10  1.914031E-10 -3.110368E-20  3.489644E-19  5.568260E-21
         2   4 -2.233036E-10 -2.233036E-10  1.914031E-10  4.567873E-19 -1.931367E-19  3.830912E-21
         2   5 -2.233036E-10 -2.233036E-10  1.914031E-10  4.780049E-19 -1.014365E-18 -3.319547E-23
         2   6 -2.233036E-10 -2.233036E-10  1.914031E-10  2.611644E-19 -9.872596E-19  4.375533E-20
         2   7 -2.233036E-10 -2.233036E-10  1.914031E-10  5.991003E-19 -7.498471E-19  4.365375E-21
         2   8 -2.233036E-10 -2.233036E-10  1.914031E-10  3.822598E-19 -1.183528E-18  3.753008E-20
         3   1 -2.233036E-10 -2.233036E-10  1.914031E-10  4.293414E-19 -7.738752E-19  5.182299E-20
         3   2 -2.233036E-10 -2.233036E-10  1.914031E-10  7.546021E-19 -1.966498E-18 -3.337710E-20
         3   3 -2.233036E-10 -2.233036E-10  1.914031E-10  4.174858E-19  8.605026E-19  1.092508E-20
         3   4 -2.233036E-10 -2.233036E-10  1.914031E-10  9.222517E-20 -2.236996E-19 -3.289625E-20
         3   5 -2.233036E-10 -2.233036E-10  1.914031E-10  8.842262E-19  3.488966E-19  2.343039E-19
         3   6 -2.233036E-10 -2.233036E-10  1.914031E-10  1.317907E-18 -7.353055E-19 -1.250459E-19
         3   7 -2.233036E-10 -2.233036E-10  1.914031E-10  9.303009E-19  1.709125E-18  1.934060E-19
         3   8 -2.233036E-10 -2.233036E-10  1.914031E-10  6.293915E-20 -6.761201E-19 -1.245650E-19
         4   1 -2.233036E-10 -2.233036E-10  1.914031E-10  1.039501E-18  1.267920E-20  3.204801E-19
         4   2 -2.233036E-10 -2.233036E-10  1.914031E-10  9.173737E-19 -6.132101E-20 -3.014851E-19
         4   3 -2.233036E-10 -2.233036E-10  1.914031E-10 -4.470156E-20 -2.499561E-20 -3.300412E-19
         4   4 -2.233036E-10 -2.233036E-10  1.914031E-10 -1.668285E-19  1.626747E-20  2.377556E-20
         4   5 -2.233036E-10 -2.233036E-10  1.914031E-10  1.315406E-18  1.213196E-19  6.152785E-20
         4   6 -2.233036E-10 -2.233036E-10  1.914031E-10  1.354648E-18  4.731940E-20  3.868872E-19
         4   7 -2.233036E-10 -2.233036E-10  1.914031E-10  1.436346E-20 -1.345480E-19  3.867885E-19
         4   8 -2.233036E-10 -2.233036E-10  1.914031E-10  5.360517E-20 -9.328490E-20  1.064514E-18
         5   1 -2.233036E-10 -2.233036E-10  1.914031E-10 -1.138412E-18 -1.015904E-18 -3.681368E-19
         5   2 -2.233036E-10 -2.233036E-10  1.914031E-10  1.626303E-19 -7.990640E-19  4.492195E-19
         5   3 -2.233036E-10 -2.233036E-10  1.914031E-10 -1.084202E-18 -6.302286E-20  8.244856E-19
         5   4 -2.233036E-10 -2.233036E-10  1.914031E-10  4.878910E-19 -6.302286E-20  4.264367E-20
         5   5 -2.233036E-10 -2.233036E-10  1.914031E-10 -1.301043E-18 -4.749997E-19  5.682452E-20
         5   6 -2.233036E-10 -2.233036E-10  1.914031E-10  7.154357E-35 -1.497390E-19  9.471410E-19
         5   7 -2.233036E-10 -2.233036E-10  1.914031E-10 -1.301043E-18 -6.688854E-19  2.736650E-19
         5   8 -2.233036E-10 -2.233036E-10  1.914031E-10  2.168404E-19 -3.436247E-19  1.881995E-19
         6   1 -2.233036E-10 -2.233036E-10  1.914031E-10 -2.168404E-19  6.343654E-19  9.333592E-19
         6   2 -2.233036E-10 -2.233036E-10  1.914031E-10 -1.879578E-36 -1.245761E-19 -2.814704E-19
         6   3 -2.233036E-10 -2.233036E-10  1.914031E-10 -1.157787E-36  9.645239E-19  7.165188E-19
         6   4 -2.233036E-10 -2.233036E-10  1.914031E-10  1.734723E-18  5.308431E-19  1.793155E-19
         6   5 -2.233036E-10 -2.233036E-10  1.914031E-10  2.168404E-18  5.902267E-19  5.212485E-19
         6   6 -2.233036E-10 -2.233036E-10  1.914031E-10 -8.673617E-19 -1.578178E-18 -6.550409E-19
         6   7 -2.233036E-10 -2.233036E-10  1.914031E-10  2.168404E-18 -5.047474E-19  7.380889E-19
         6   8 -2.233036E-10 -2.233036E-10  1.914031E-10  8.673617E-19  7.962952E-19  5.104765E-19
         7   1 -2.233036E-10 -2.233036E-10  1.914031E-10  7.782873E-19 -9.326125E-20  9.383647E-19
         7   2 -2.233036E-10 -2.233036E-10  1.914031E-10  5.349315E-19 -1.522045E-19 -7.244099E-19
         7   3 -2.233036E-10 -2.233036E-10  1.914031E-10 -8.907443E-20  8.212604E-20  9.383647E-19
         7   4 -2.233036E-10 -2.233036E-10  1.914031E-10 -3.324303E-19  1.576772E-19 -1.967854E-20
         7   5 -2.233036E-10 -2.233036E-10  1.914031E-10 -2.015470E-20 -2.891124E-19  1.132349E-18
         7   6 -2.233036E-10 -2.233036E-10  1.914031E-10 -7.521834E-20 -3.480557E-19 -7.278547E-19
         7   7 -2.233036E-10 -2.233036E-10  1.914031E-10 -2.015470E-20  2.309474E-19  2.649868E-19
         7   8 -2.233036E-10 -2.233036E-10  1.914031E-10 -7.521834E-20  3.064986E-19 -1.215746E-18
         8   1 -2.233036E-10 -2.233036E-10  1.914031E-10  8.673617E-19 -9.004242E-19  1.072968E-18
         8   2 -2.233036E-10 -2.233036E-10  1.914031E-10  1.843144E-18 -1.956928E-19  1.625631E-18
         8   3 -2.233036E-10 -2.233036E-10  1.914031E-10  4.336809E-19 -7.671061E-20  8.561276E-19
         8   4 -2.233036E-10 -2.233036E-10  1.914031E-10  3.794708E-19 -2.935510E-19  1.246160E-18
         8   5 -2.233036E-10 -2.233036E-10  1.914031E-10  4.336809E-19 -1.233909E-19  8.254355E-19
         8   6 -2.233036E-10 -2.233036E-10  1.914031E-10  1.517883E-18  3.645000E-19  1.746476E-19
         8   7 -2.233036E-10 -2.233036E-10  1.914031E-10 -1.301043E-18  1.473930E-19  1.692797E-18
         8   8 -2.233036E-10 -2.233036E-10  1.914031E-10 -8.673617E-19 -2.862879E-19 -1.072185E-18
         9   1 -2.233036E-10 -2.233036E-10  1.914031E-10 -8.673617E-19 -2.749677E-19 -3.436226E-19
         9   2 -2.233036E-10 -2.233036E-10  1.914031E-10 -2.168404E-19  4.839739E-19 -8.174045E-19
         9   3 -2.233036E-10 -2.233036E-10  1.914031E-10 -1.734723E-18  1.419655E-18  3.068987E-19
         9   4 -2.233036E-10 -2.233036E-10  1.914031E-10  5.421011E-19 -3.150687E-19  7.004785E-19
         9   5 -2.233036E-10 -2.233036E-10  1.914031E-10 -8.673617E-19  6.504280E-19 -1.556812E-19
         9   6 -2.233036E-10 -2.233036E-10  1.914031E-10 -4.336809E-19 -1.627237E-19 -1.168810E-18
         9   7 -2.233036E-10 -2.233036E-10  1.914031E-10 -8.673617E-19  5.588712E-19  2.779997E-19
         9   8 -2.233036E-10 -2.233036E-10  1.914031E-10 -4.384587E-37  1.426233E-18  6.201238E-19

 displacements (vx,vy,vz) for set NALL and time  0.3997813E+00

         1  0.000000E+00  0.000000E+00  0.000000E+00
         2 -1.142232E-07  0.000000E+00  0.000000E+00
         3 -5.996719E+00  0.000000E+00  0.000000E+00
         4 -5.996719E+00  0.000000E+00  0.000000E+00
         5 -1.199344E+01  0.000000E+00  0.000000E+00
         6 -1.199344E+01  0.000000E+00  0.000000E+00
         7  0.000000E+00 -1.142232E-07  0.000000E+00
         8 -1.142232E-07 -1.142232E-07  0.000000E+00
         9 -5.996719E+00 -1.142232E-07  0.000000E+00
        10 -5.996719E+00 -1.142232E-07  0.000000E+00
        11 -1.199344E+01 -1.142232E-07  0.000000E+00
        12 -1.199344E+01 -1.142232E-07  0.000000E+00
        13  0.000000E+00 -5.996719E+00  0.000000E+00
        14 -1.142232E-07 -5.996719E+00  0.000000E+00
        15 -5.996719E+00 -5.996719E+00  0.000000E+00
        16 -5.996719E+00 -5.996719E+00  0.000000E+00
        17 -1.199344E+01 -5.996719E+00  0.000000E+00
        18 -1.199344E+01 -5.996719E+00  0.000000E+00
        19  0.000000E+00 -5.996719E+00  0.000000E+00
        20 -1.142232E-07 -5.996719E+00  0.000000E+00
        21 -5.996719E+00 -5.996719E+00  0.000000E+00
        22 -5.996719E+00 -5.996719E+00  0.000000E+00
        23 -1.199344E+01 -5.996719E+00  0.000000E+00
        24 -1.199344E+01 -5.996719E+00  0.000000E+00
        25  0.000000E+00 -1.199344E+01  0.000000E+00
        26 -1.142232E-07 -1.199344E+01  0.000000E+00
        27 -5.996719E+00 -1.199344E+01  0.000000E+00
        28 -5.996719E+00 -1.199344E+01  0.000000E+00
        29 -1.199344E+01 -1.199344E+01  0.000000E+00
        30 -1.199344E+01 -1.199344E+01  0.000000E+00
        31  0.000000E+00 -1.199344E+01  0.000000E+00
        32 -1.142232E-07 -1.199344E+01  0.000000E+00
        33 -5.996719E+00 -1.199344E+01  0.000000E+00
        34 -5.996719E+00 -1.199344E+01  0.000000E+00
        35 -1.199344E+01 -1.199344E+01  0.000000E+00
        36 -1.199344E+01 -1.199344E+01  0.000000E+00
        37  0.000000E+00  0.000000E+00  1.370679E-07
        38 -1.142232E-07  0.000000E+00  1.370679E-07
        39 -5.996719E+00  0.000000E+00  1.370679E-07
        40 -5.996719E+00  0.000000E+00  1.370679E-07
        41 -1.199344E+01  0.000000E+00  1.370679E-07
        42 -1.199344E+01  0.000000E+00  1.370679E-07
        43  0.000000E+00 -1.142232E-07  1.370679E-07
        44 -1.142232E-07 -1.142232E-07  1.370679E-07
        45 -5.996719E+00 -1.142232E-07  1.370679E-07
        46 -5.996719E+00 -1.142232E-07  1.370679E-07
        47 -1.199344E+01 -1.142232E-07  1.370679E-07
        48 -1.199344E+01 -1.142232E-07  1.370679E-07
        49  0.000000E+00 -5.996719E+00  1.370679E-07
        50 -1.142232E-07 -5.996719E+00  1.370679E-07
        51 -5.996719E+00 -5.996719E+00  1.370679E-07
        52 -5.996719E+00 -5.996719E+00  1.370679E-07
        53 -1.199344E+01 -5.996719E+00  1.370679E-07
        54 -1.199344E+01 -5.996719E+00  1.370679E-07
        55  0.000000E+00 -5.996719E+00  1.370679E-07
        56 -1.142232E-07 -5.996719E+00  1.370679E-07
        57 -5.996719E+00 -5.996719E+00  1.370679E-07
        58 -5.996719E+00 -5.996719E+00  1.370679E-07
        59 -1.199344E+01 -5.996719E+00  1.370679E-07
        60 -1.199344E+01 -5.996719E+00  1.370679E-07
        61  0.000000E+00 -1.199344E+01  1.370679E-07
        62 -1.142232E-07 -1.199344E+01  1.370679E-07
        63 -5.996719E+00 -1.199344E+01  1.370679E-07
        64 -5.996719E+00 -1.199344E+01  1.370679E-07
        65 -1.199344E+01 -1.199344E+01  1.370679E-07
        66 -1.199344E+01 -1.199344E+01  1.370679E-07
        67  0.000000E+00 -1.199344E+01  1.370679E-07
        68 -1.142232E-07 -1.199344E+01  1.370679E-07
        69 -5.996719E+00 -1.199344E+01  1.370679E-07
        70 -5.996719E+00 -1.199344E+01  1.370679E-07
        71 -1.199344E+01 -1.199344E+01  1.370679E-07
        72 -1.199344E+01 -1.199344E+01  1.370679E-07

 stresses (elem, integ.pnt.,sxx,syy,szz,sxy,sxz,syz) for set EALL and time  0.3997813E+00

         1   1 -6.853393E-05 -6.853393E-05  6.776264E-21 -1.435387E-21 -7.829384E-22  5.219589E-22
         1   2 -6.853393E-05 -6.853393E-05  6.776264E-21 -5.872038E-21 -7.046445E-21 -1.565877E-21
         1   3 -6.853393E-05 -6.853393E-05  4.385005E-47 -3.914692E-21  2.870774E-21  5.219589E-22
         1   4 -6.853393E-05 -6.853393E-05 -6.776264E-21 -8.351343E-21  7.829384E-21 -7.307425E-21
         1   5 -6.853393E-05 -6.853393E-05 -6.776264E-21  1.043918E-21  7.829384E-22  2.087836E-21
         1   6 -6.853393E-05 -6.853393E-05 -2.833388E-46  1.200506E-20 -5.480569E-21 -1.565877E-21
         1   7 -6.853393E-05 -6.853393E-05  1.079386E-46 -4.697630E-21  1.826856E-21  2.087836E-21
         1   8 -6.853393E-05 -6.853393E-05 -6.776264E-21  6.263507E-21  7.307425E-21 -7.307425E-21
         2   1 -6.853393E-05 -6.853393E-05  8.275021E-14 -3.258998E-14  2.482956E-15  4.300412E-15
         2   2 -6.853393E-05 -6.853393E-05  1.097006E-13  9.876528E-14 -6.274061E-15 -1.903929E-15
         2   3 -6.853393E-05 -6.853393E-05  2.916541E-14 -2.592899E-14  7.181027E-14  5.958006E-15
         2   4 -6.853393E-05 -6.853393E-05  5.113785E-14 -2.592899E-14 -3.327394E-14 -1.520573E-14
         2   5 -6.853393E-05 -6.853393E-05  1.125022E-13 -1.453399E-13  9.266518E-15  1.439176E-14
         2   6 -6.853393E-05 -6.853393E-05  1.080379E-13 -7.528377E-14 -6.516813E-14  6.196240E-15
         2   7 -6.853393E-05 -6.853393E-05  8.518848E-14 -1.950979E-14 -6.350963E-14  1.604936E-14
         2   8 -6.853393E-05 -6.853393E-05  7.574618E-14 -5.453786E-14 -1.096752E-14 -7.105560E-15
         3   1 -6.853393E-05 -6.853393E-05  2.910543E-14 -7.039458E-14 -4.657259E-14  7.009603E-15
         3   2 -6.853393E-05 -6.853393E-05 -5.113205E-14 -1.785247E-14  9.353969E-14 -3.725082E-15
         3   3 -6.853393E-05 -6.853393E-05  1.359180E-13 -7.131921E-14  9.948052E-14 -2.707325E-14
         3   4 -6.853393E-05 -6.853393E-05 -1.429891E-13 -5.380518E-14  2.045647E-13  1.233219E-14
         3   5 -6.853393E-05 -6.853393E-05 -6.873962E-14 -3.949817E-13  6.199949E-14  6.024305E-14
         3   6 -6.853393E-05 -6.853393E-05 -4.368282E-14  2.535515E-14  7.951352E-14 -2.995947E-14
         3   7 -6.853393E-05 -6.853393E-05 -4.074022E-14 -4.548558E-14 -1.152753E-14  2.616019E-14
         3   8 -6.853393E-05 -6.853393E-05 -2.143530E-13  9.462670E-14  2.350054E-14 -1.390219E-14
         4   1 -6.853393E-05 -6.853393E-05  2.225995E-14 -1.380738E-13 -9.600753E-16  3.333878E-14
         4   2 -6.853393E-05 -6.853393E-05 -3.477409E-15 -1.325044E-13  1.457679E-15  5.270274E-14
         4   3 -6.853393E-05 -6.853393E-05  1.907585E-14  2.038515E-15  1.871532E-15 -1.689293E-15
         4   4 -6.853393E-05 -6.853393E-05  3.587950E-14  7.607841E-15 -4.991017E-15 -4.800296E-14
         4   5 -6.853393E-05 -6.853393E-05 -1.302891E-13 -7.277318E-14 -6.000808E-15 -5.884664E-14
         4   6 -6.853393E-05 -6.853393E-05 -1.428909E-13 -8.019628E-14 -3.583054E-15  2.569732E-14
         4   7 -6.853393E-05 -6.853393E-05 -1.529618E-13 -2.717044E-15  1.384720E-14 -6.304531E-15
         4   8 -6.853393E-05 -6.853393E-05 -1.230227E-13 -1.014014E-14  6.984653E-15  3.445434E-14
         5   1 -6.853393E-05 -6.853393E-05 -3.474570E-13 -5.254211E-14 -1.131265E-13 -1.065522E-13
         5   2 -6.853393E-05 -6.853393E-05  1.935305E-14 -2.627105E-14 -1.175051E-13  2.130790E-14
         5   3 -6.853393E-05 -6.853393E-05 -1.065055E-13 -3.502807E-14  5.851869E-14 -1.240663E-13
         5   4 -6.853393E-05 -6.853393E-05  1.693514E-13  2.627105E-14 -2.905149E-14 -7.501930E-14
         5   5 -6.853393E-05 -6.853393E-05 -2.161017E-13  1.050842E-13 -1.222774E-13  4.237045E-14
         5   6 -6.853393E-05 -6.853393E-05 -4.632458E-14  2.802246E-13  1.783483E-14  1.172110E-13
         5   7 -6.853393E-05 -6.853393E-05 -2.115897E-13  7.500915E-32 -1.131145E-13 -1.017165E-14
         5   8 -6.853393E-05 -6.853393E-05 -1.327657E-13  7.005614E-14 -6.057240E-14  3.401936E-14
         6   1 -6.853393E-05 -6.853393E-05  2.702385E-13  3.502807E-14  1.827763E-13  2.708953E-14
         6   2 -6.853393E-05 -6.853393E-05 -8.801662E-15  1.401123E-13  1.302342E-13 -9.575516E-15
         6   3 -6.853393E-05 -6.853393E-05  8.466199E-14 -6.961992E-32 -1.151503E-14  6.211760E-14
         6   4 -6.853393E-05 -6.853393E-05 -1.122069E-13  7.005614E-14  2.336815E-13 -2.708955E-14
         6   5 -6.853393E-05 -6.853393E-05  4.541359E-13  2.101684E-13  1.079397E-13  7.545717E-14
         6   6 -6.853393E-05 -6.853393E-05  5.687597E-14  2.751136E-31 -1.722848E-13  3.838398E-14
         6   7 -6.853393E-05 -6.853393E-05  2.948304E-13  7.874947E-31  9.713759E-14  2.505975E-13
         6   8 -6.853393E-05 -6.853393E-05  6.012843E-15 -7.005614E-14 -7.800276E-14  6.465503E-14
         7   1 -6.853393E-05 -6.853393E-05 -1.731023E-14  9.850075E-16 -4.397880E-15 -1.530687E-13
         7   2 -6.853393E-05 -6.853393E-05 -1.640113E-13  3.676099E-15  2.125048E-14 -2.454471E-14
         7   3 -6.853393E-05 -6.853393E-05  1.374789E-13  9.850075E-16  1.573098E-14 -1.180406E-13
         7   4 -6.853393E-05 -6.853393E-05  1.508741E-13  3.676099E-15  3.233388E-14  2.206518E-13
         7   5 -6.853393E-05 -6.853393E-05 -1.736171E-13 -3.650208E-15 -4.206147E-14 -5.773959E-14
         7   6 -6.853393E-05 -6.853393E-05 -3.728603E-13 -1.362276E-14 -1.641311E-14 -2.679999E-13
         7   7 -6.853393E-05 -6.853393E-05 -3.782346E-14 -3.650208E-15  4.210593E-14  2.224850E-13
         7   8 -6.853393E-05 -6.853393E-05 -7.697030E-14 -1.362276E-14  5.870883E-14  6.476675E-14
         8   1 -6.853393E-05 -6.853393E-05  1.655589E-13  1.050842E-13  1.229037E-13 -1.084952E-13
         8   2 -6.853393E-05 -6.853393E-05 -4.520066E-15  1.313553E-13  1.781948E-14 -6.417101E-14
         8   3 -6.853393E-05 -6.853393E-05  1.816678E-13 -3.502807E-14 -7.912451E-15 -1.435233E-13
         8   4 -6.853393E-05 -6.853393E-05  2.064379E-13 -1.087097E-32 -7.912451E-15  1.109693E-13
         8   5 -6.853393E-05 -6.853393E-05  3.100497E-13  2.802246E-13  7.588896E-14 -1.178143E-13
         8   6 -6.853393E-05 -6.853393E-05  8.742862E-14  3.152526E-13  7.588896E-14  2.196360E-14
         8   7 -6.853393E-05 -6.853393E-05  2.867521E-13 -1.401123E-13 -9.958581E-14 -1.273004E-14
         8   8 -6.853393E-05 -6.853393E-05 -1.876278E-13 -7.005614E-14 -6.455774E-14  1.971040E-13
         9   1 -6.853393E-05 -6.853393E-05  1.337016E-13 -1.957177E-31  2.232399E-14 -2.134600E-13
         9   2 -6.853393E-05 -6.853393E-05  1.257443E-13  1.050842E-13 -4.773215E-14  3.513732E-13
         9   3 -6.853393E-05 -6.853393E-05  8.494894E-14 -7.005614E-14 -1.707707E-14 -3.291536E-15
         9   4 -6.853393E-05 -6.853393E-05 -2.155870E-13  1.860229E-30  2.631475E-13  2.725600E-13
         9   5 -6.853393E-05 -6.853393E-05  3.175990E-13 -1.401123E-13  1.627562E-13  9.280003E-14
         9   6 -6.853393E-05 -6.853393E-05 -1.895083E-13  2.802246E-13 -2.114122E-14 -2.860440E-14
         9   7 -6.853393E-05 -6.853393E-05  1.900331E-13 -5.869773E-31 -6.373249E-14  1.278281E-13
         9   8 -6.853393E-05 -6.853393E-05 -4.520264E-13  1.401123E-13  7.637979E-14 -1.687167E-13

 strains (elem, integ.pnt.,exx,eyy,ezz,exy,exz,eyz) forset EALL and time  0.3997813E+00

         1   1 -2.284464E-10 -2.284464E-10  1.958112E-10 -8.885729E-27 -4.846761E-27  3.231174E-27
         1   2 -2.284464E-10 -2.284464E-10  1.958112E-10 -3.635071E-26 -4.362085E-26 -9.693523E-27
         1   3 -2.284464E-10 -2.284464E-10  1.958112E-10 -2.423381E-26  1.777146E-26  3.231174E-27
         1   4 -2.284464E-10 -2.284464E-10  1.958112E-10 -5.169879E-26  4.846761E-26 -4.523644E-26
         1   5 -2.284464E-10 -2.284464E-10  1.958112E-10  6.462349E-27  4.846761E-27  1.292470E-26
         1   6 -2.284464E-10 -2.284464E-10  1.958112E-10  7.431701E-26 -3.392733E-26 -9.693523E-27
         1   7 -2.284464E-10 -2.284464E-10  1.958112E-10 -2.908057E-26  1.130911E-26  1.292470E-26
         1   8 -2.284464E-10 -2.284464E-10  1.958112E-10  3.877409E-26  4.523644E-26 -4.523644E-26
         2   1 -2.284464E-10 -2.284464E-10  1.958112E-10 -2.017475E-19  1.537068E-20  2.662160E-20
         2   2 -2.284464E-10 -2.284464E-10  1.958112E-10  6.114041E-19 -3.883943E-20 -1.178622E-20
         2   3 -2.284464E-10 -2.284464E-10  1.958112E-10 -1.605128E-19  4.445398E-19  3.688289E-20
         2   4 -2.284464E-10 -2.284464E-10  1.958112E-10 -1.605128E-19 -2.059815E-19 -9.413070E-20
         2   5 -2.284464E-10 -2.284464E-10  1.958112E-10 -8.997233E-19  5.736416E-20  8.909187E-20
         2   6 -2.284464E-10 -2.284464E-10  1.958112E-10 -4.660424E-19 -4.034218E-19  3.835767E-20
         2   7 -2.284464E-10 -2.284464E-10  1.958112E-10 -1.207749E-19 -3.931548E-19  9.935316E-20
         2   8 -2.284464E-10 -2.284464E-10  1.958112E-10 -3.376153E-19 -6.789420E-20 -4.398680E-20
         3   1 -2.284464E-10 -2.284464E-10  1.958112E-10 -4.357760E-19 -2.883065E-19  4.339278E-20
         3   2 -2.284464E-10 -2.284464E-10  1.958112E-10 -1.105153E-19  5.790552E-19 -2.306003E-20
         3   3 -2.284464E-10 -2.284464E-10  1.958112E-10 -4.414999E-19  6.158318E-19 -1.675963E-19
         3   4 -2.284464E-10 -2.284464E-10  1.958112E-10 -3.330797E-19  1.266353E-18  7.634215E-20
         3   5 -2.284464E-10 -2.284464E-10  1.958112E-10 -2.445125E-18  3.838063E-19  3.729332E-19
         3   6 -2.284464E-10 -2.284464E-10  1.958112E-10  1.569604E-19  4.922266E-19 -1.854634E-19
         3   7 -2.284464E-10 -2.284464E-10  1.958112E-10 -2.815774E-19 -7.136087E-20  1.619441E-19
         3   8 -2.284464E-10 -2.284464E-10  1.958112E-10  5.857843E-19  1.454796E-19 -8.606120E-20
         4   1 -2.284464E-10 -2.284464E-10  1.958112E-10 -8.547424E-19 -5.943323E-21  2.063829E-19
         4   2 -2.284464E-10 -2.284464E-10  1.958112E-10 -8.202656E-19  9.023727E-21  3.262550E-19
         4   3 -2.284464E-10 -2.284464E-10  1.958112E-10  1.261938E-20  1.158567E-20 -1.045753E-20
         4   4 -2.284464E-10 -2.284464E-10  1.958112E-10  4.709616E-20 -3.089677E-20 -2.971612E-19
         4   5 -2.284464E-10 -2.284464E-10  1.958112E-10 -4.505007E-19 -3.714786E-20 -3.642887E-19
         4   6 -2.284464E-10 -2.284464E-10  1.958112E-10 -4.964532E-19 -2.218081E-20  1.590787E-19
         4   7 -2.284464E-10 -2.284464E-10  1.958112E-10 -1.681979E-20  8.572077E-20 -3.902805E-20
         4   8 -2.284464E-10 -2.284464E-10  1.958112E-10 -6.277231E-20  4.323833E-20  2.132888E-19
         5   1 -2.284464E-10 -2.284464E-10  1.958112E-10 -3.252607E-19 -7.003072E-19 -6.596091E-19
         5   2 -2.284464E-10 -2.284464E-10  1.958112E-10 -1.626303E-19 -7.274122E-19  1.319060E-19
         5   3 -2.284464E-10 -2.284464E-10  1.958112E-10 -2.168404E-19  3.622585E-19 -7.680294E-19
         5   4 -2.284464E-10 -2.284464E-10  1.958112E-10  1.626303E-19 -1.798426E-19 -4.644052E-19
         5   5 -2.284464E-10 -2.284464E-10  1.958112E-10  6.505213E-19 -7.569556E-19  2.622933E-19
         5   6 -2.284464E-10 -2.284464E-10  1.958112E-10  1.734723E-18  1.104061E-19  7.255921E-19
         5   7 -2.284464E-10 -2.284464E-10  1.958112E-10 -1.976287E-37 -7.002326E-19 -6.296737E-20
         5   8 -2.284464E-10 -2.284464E-10  1.958112E-10  4.336809E-19 -3.749720E-19  2.105960E-19
         6   1 -2.284464E-10 -2.284464E-10  1.958112E-10  2.168404E-19  1.131472E-18  1.676971E-19
         6   2 -2.284464E-10 -2.284464E-10  1.958112E-10  8.673617E-19  8.062118E-19 -5.927700E-20
         6   3 -2.284464E-10 -2.284464E-10  1.958112E-10  3.831644E-37 -7.128355E-20  3.845375E-19
         6   4 -2.284464E-10 -2.284464E-10  1.958112E-10  4.336809E-19  1.446599E-18 -1.676972E-19
         6   5 -2.284464E-10 -2.284464E-10  1.958112E-10  1.301043E-18  6.681983E-19  4.671158E-19
         6   6 -2.284464E-10 -2.284464E-10  1.958112E-10 -2.489083E-36 -1.066525E-18  2.376151E-19
         6   7 -2.284464E-10 -2.284464E-10  1.958112E-10  9.758413E-38  6.013279E-19  1.551318E-18
         6   8 -2.284464E-10 -2.284464E-10  1.958112E-10 -4.336809E-19 -4.828742E-19  4.002454E-19
         7   1 -2.284464E-10 -2.284464E-10  1.958112E-10  6.097665E-21 -2.722497E-20 -9.475679E-19
         7   2 -2.284464E-10 -2.284464E-10  1.958112E-10  2.275680E-20  1.315506E-19 -1.519435E-19
         7   3 -2.284464E-10 -2.284464E-10  1.958112E-10  6.097665E-21  9.738228E-20 -7.307274E-19
         7   4 -2.284464E-10 -2.284464E-10  1.958112E-10  2.275680E-20  2.001621E-19  1.365940E-18
         7   5 -2.284464E-10 -2.284464E-10  1.958112E-10 -2.259653E-20 -2.603805E-19 -3.574356E-19
         7   6 -2.284464E-10 -2.284464E-10  1.958112E-10 -8.433137E-20 -1.016050E-19 -1.659047E-18
         7   7 -2.284464E-10 -2.284464E-10  1.958112E-10 -2.259653E-20  2.606558E-19  1.377288E-18
         7   8 -2.284464E-10 -2.284464E-10  1.958112E-10 -8.433137E-20  3.634356E-19  4.009370E-19
         8   1 -2.284464E-10 -2.284464E-10  1.958112E-10  6.505213E-19  7.608324E-19 -6.716370E-19
         8   2 -2.284464E-10 -2.284464E-10  1.958112E-10  8.131516E-19  1.103111E-19 -3.972491E-19
         8   3 -2.284464E-10 -2.284464E-10  1.958112E-10 -2.168404E-19 -4.898184E-20 -8.884775E-19
         8   4 -2.284464E-10 -2.284464E-10  1.958112E-10 -3.568989E-39 -4.898184E-20  6.869531E-19
         8   5 -2.284464E-10 -2.284464E-10  1.958112E-10  1.734723E-18  4.697888E-19 -7.293263E-19
         8   6 -2.284464E-10 -2.284464E-10  1.958112E-10  1.951564E-18  4.697888E-19  1.359652E-19
         8   7 -2.284464E-10 -2.284464E-10  1.958112E-10 -8.673617E-19 -6.164836E-19 -7.880502E-20
         8   8 -2.284464E-10 -2.284464E-10  1.958112E-10 -4.336809E-19 -3.996431E-19  1.220167E-18
         9   1 -2.284464E-10 -2.284464E-10  1.958112E-10  2.853236E-37  1.381961E-19 -1.321419E-18
         9   2 -2.284464E-10 -2.284464E-10  1.958112E-10  6.505213E-19 -2.954847E-19  2.175167E-18
         9   3 -2.284464E-10 -2.284464E-10  1.958112E-10 -4.336809E-19 -1.057152E-19 -2.037617E-20
         9   4 -2.284464E-10 -2.284464E-10  1.958112E-10  1.003175E-38  1.629008E-18  1.687276E-18
         9   5 -2.284464E-10 -2.284464E-10  1.958112E-10 -8.673617E-19  1.007538E-18  5.744764E-19
         9   6 -2.284464E-10 -2.284464E-10  1.958112E-10  1.734723E-18 -1.308742E-19 -1.770748E-19
         9   7 -2.284464E-10 -2.284464E-10  1.958112E-10  3.069270E-36 -3.945344E-19  7.913168E-19
         9   8 -2.284464E-10 -2.284464E-10  1.958112E-10  8.673617E-19  4.728273E-19 -1.044437E-18

 displacements (vx,vy,vz) for set NALL and time  0.4087813E+00

         1  0.000000E+00  0.000000E+00  0.000000E+00
         2 -1.167946E-07  0.000000E+00  0.000000E+00
         3 -6.131719E+00  0.000000E+00  0.000000E+00
         4 -6.131719E+00  0.000000E+00  0.000000E+00
         5 -1.226344E+01  0.000000E+00  0.000000E+00
         6 -1.226344E+01  0.000000E+00  0.000000E+00
         7  0.000000E+00 -1.167946E-07  0.000000E+00
         8 -1.167946E-07 -1.167946E-07  0.000000E+00
         9 -6.131719E+00 -1.167946E-07  0.000000E+00
        10 -6.131719E+00 -1.167946E-07  0.000000E+00
        11 -1.226344E+01 -1.167946E-07  0.000000E+00
        12 -1.226344E+01 -1.167946E-07  0.000000E+00
        13  0.000000E+00 -6.131719E+00  0.000000E+00
        14 -1.167946E-07 -6.131719E+00  0.000000E+00
        15 -6.131719E+00 -6.131719E+00  0.000000E+00
        16 -6.131719E+00 -6.131719E+00  0.000000E+00
        17 -1.226344E+01 -6.131719E+00  0.000000E+00
        18 -1.226344E+01 -6.131719E+00  0.000000E+00
        19  0.000000E+00 -6.131719E+00  0.000000E+00
        20 -1.167946E-07 -6.131719E+00  0.000000E+00
        21 -6.131719E+00 -6.131719E+00  0.000000E+00
        22 -6.131719E+00 -6.131719E+00  0.000000E+00
        23 -1.226344E+01 -6.131719E+00  0.000000E+00
        24 -1.226344E+01 -6.131719E+00  0.000000E+00
        25  0.000000E+00 -1.226344E+01  0.000000E+00
        26 -1.167946E-07 -1.226344E+01  0.000000E+00
        27 -6.131719E+00 -1.226344E+01  0.000000E+00
        28 -6.131719E+00 -1.226344E+01  0.000000E+00
        29 -1.226344E+01 -1.226344E+01  0.000000E+00
        30 -1.226344E+01 -1.226344E+01  0.000000E+00
        31  0.000000E+00 -1.226344E+01  0.000000E+00
        32 -1.167946E-07 -1.226344E+01  0.000000E+00
        33 -6.131719E+00 -1.226344E+01  0.000000E+00
        34 -6.131719E+00 -1.226344E+01  0.000000E+00
        35 -1.226344E+01 -1.226344E+01  0.000000E+00
        36 -1.226344E+01 -1.226344E+01  0.000000E+00
        37  0.000000E+00  0.000000E+00  1.401536E-07
        38 -1.167946E-07  0.000000E+00  1.401536E-07
        39 -6.131719E+00  0.000000E+00  1.401536E-07
        40 -6.131719E+00  0.000000E+00  1.401536E-07
        41 -1.226344E+01  0.000000E+00  1.401536E-07
        42 -1.226344E+01  0.000000E+00  1.401536E-07
        43  0.000000E+00 -1.167946E-07  1.401536E-07
        44 -1.167946E-07 -1.167946E-07  1.401536E-07
        45 -6.131719E+00 -1.167946E-07  1.401536E-07
        46 -6.131719E+00 -1.167946E-07  1.401536E-07
        47 -1.226344E+01 -1.167946E-07  1.401536E-07
        48 -1.226344E+01 -1.167946E-07  1.401536E-07
        49  0.000000E+00 -6.131719E+00  1.401536E-07
        50 -1.167946E-07 -6.131719E+00  1.401536E-07
        51 -6.131719E+00 -6.131719E+00  1.401536E-07
        52 -6.131719E+00 -6.131719E+00  1.401536E-07
        53 -1.226344E+01 -6.131719E+00  1.401536E-07
        54 -1.226344E+01 -6.131719E+00  1.401536E-07
        55  0.000000E+00 -6.131719E+00  1.401536E-07
        56 -1.167946E-07 -6.131719E+00  1.401536E-07
        57 -6.131719E+00 -6.131719E+00  1.401536E-07
        58 -6.131719E+00 -6.131719E+00  1.401536E-07
        59 -1.226344E+01 -6.131719E+00  1.401536E-07
        60 -1.226344E+01 -6.131719E+00  1.401536E-07
        61  0.000000E+00 -1.226344E+01  1.401536E-07
        62 -1.167946E-07 -1.226344E+01  1.401536E-07
        63 -6.131719E+00 -1.226344E+01  1.401536E-07
        64 -6.131719E+00 -1.226344E+01  1.401536E-07
        65 -1.226344E+01 -1.226344E+01  1.401536E-07
        66 -1.226344E+01 -1.226344E+01  1.401536E-07
        67  0.000000E+00 -1.226344E+01  1.401536E-07
        68 -1.167946E-07 -1.226344E+01  1.401536E-07
        69 -6.131719E+00 -1.226344E+01  1.401536E-07
        70 -6.131719E+00 -1.226344E+01  1.401536E-07
        71 -1.226344E+01 -1.226344E+01  1.401536E-07
        72 -1.226344E+01 -1.226344E+01  1.401536E-07

 stresses (elem, integ.pnt.,sxx,syy,szz,sxy,sxz,syz) for set EALL and time  0.4087813E+00

         1   1 -7.007678E-05 -7.007678E-05  1.355253E-20 -6.524486E-22 -2.609795E-22 -5.219589E-22
         1   2 -7.007678E-05 -7.007678E-05  1.355253E-20  9.134281E-22  3.914692E-22 -6.524487E-22
         1   3 -7.007678E-05 -7.007678E-05 -6.776264E-21 -3.131754E-21 -2.264303E-31 -5.219589E-22
         1   4 -7.007678E-05 -7.007678E-05  6.776264E-21 -1.565877E-21 -5.219589E-22 -1.435387E-21
         1   5 -7.007678E-05 -7.007678E-05  1.096251E-46 -2.087836E-21  1.304897E-22 -2.087836E-21
         1   6 -7.007678E-05 -7.007678E-05  5.059621E-47 -1.043918E-21  7.829384E-22 -1.565877E-21
         1   7 -7.007678E-05 -7.007678E-05 -6.776264E-21 -3.131754E-21  1.565877E-21 -2.087836E-21
         1   8 -7.007678E-05 -7.007678E-05 -6.776264E-21 -2.087836E-21  1.043918E-21 -2.348815E-21
         2   1 -7.007678E-05 -7.007678E-05 -1.052745E-13 -6.980568E-14  3.344669E-14  5.346400E-15
         2   2 -7.007678E-05 -7.007678E-05 -1.150492E-13  8.782064E-14 -1.909542E-14 -1.167257E-15
         2   3 -7.007678E-05 -7.007678E-05  5.077753E-14 -6.912140E-14 -1.482265E-13  4.820096E-15
         2   4 -7.007678E-05 -7.007678E-05 -3.617122E-15  9.726193E-14 -2.562824E-14 -1.641197E-15
         2   5 -7.007678E-05 -7.007678E-05 -9.324427E-14 -6.977884E-14  2.912627E-14  2.047934E-14
         2   6 -7.007678E-05 -7.007678E-05 -1.029089E-13  1.754176E-13 -1.066075E-13 -3.882329E-15
         2   7 -7.007678E-05 -7.007678E-05  4.967229E-14 -6.902126E-14 -1.003388E-13  1.995304E-14
         2   8 -7.007678E-05 -7.007678E-05 -4.612399E-15  2.112033E-13  1.098296E-13 -4.356269E-15
         3   1 -7.007678E-05 -7.007678E-05  1.801004E-13  7.713834E-14 -1.293395E-13  7.375693E-15
         3   2 -7.007678E-05 -7.007678E-05  2.827030E-13  7.713834E-14  1.952976E-14 -1.003890E-14
         3   3 -7.007678E-05 -7.007678E-05 -2.527054E-14  9.648727E-14  1.610000E-15  2.560748E-14
         3   4 -7.007678E-05 -7.007678E-05  1.474934E-14 -7.865308E-14  1.767504E-13 -1.435157E-14
         3   5 -7.007678E-05 -7.007678E-05  2.183872E-13 -4.470386E-15  5.176364E-15  9.294672E-15
         3   6 -7.007678E-05 -7.007678E-05  2.736464E-13  6.558575E-14 -2.137491E-13 -3.315301E-14
         3   7 -7.007678E-05 -7.007678E-05  3.282689E-13 -1.668371E-14 -1.341037E-13  2.752646E-14
         3   8 -7.007678E-05 -7.007678E-05  3.209454E-13 -1.567960E-13  1.110928E-13 -3.746568E-14
         4   1 -7.007678E-05 -7.007678E-05 -1.049646E-13  2.839305E-14 -4.670812E-15 -1.162785E-13
         4   2 -7.007678E-05 -7.007678E-05 -2.211472E-13  3.419046E-14  2.770272E-15 -3.744978E-14
         4   3 -7.007678E-05 -7.007678E-05 -1.727273E-13 -3.290607E-14  3.386044E-15 -1.119433E-14
         4   4 -7.007678E-05 -7.007678E-05 -2.289917E-13 -2.710867E-14  8.871618E-15 -1.075059E-13
         4   5 -7.007678E-05 -7.007678E-05 -3.679628E-14  3.614800E-14 -2.487279E-14 -5.929185E-14
         4   6 -7.007678E-05 -7.007678E-05 -1.398433E-13  3.920769E-14 -1.743171E-14 -1.009866E-13
         4   7 -7.007678E-05 -7.007678E-05 -1.086655E-13  1.119927E-15  7.151312E-15  1.683906E-13
         4   8 -7.007678E-05 -7.007678E-05 -1.517944E-13  4.179622E-15  1.263689E-14  4.350416E-14
         5   1 -7.007678E-05 -7.007678E-05 -4.914939E-14  8.757018E-15 -1.706652E-13 -1.336325E-14
         5   2 -7.007678E-05 -7.007678E-05 -3.601072E-13 -1.751404E-14  4.388174E-14 -1.350369E-13
         5   3 -7.007678E-05 -7.007678E-05 -1.376154E-13 -2.101684E-13 -1.649284E-14  9.172097E-14
         5   4 -7.007678E-05 -7.007678E-05 -5.261096E-13 -1.926544E-13 -1.390911E-13 -6.935931E-14
         5   5 -7.007678E-05 -7.007678E-05 -7.542046E-14  3.502807E-14 -1.934669E-13  1.079809E-14
         5   6 -7.007678E-05 -7.007678E-05  2.703981E-13 -1.050842E-13 -2.708357E-14 -7.621255E-14
         5   7 -7.007678E-05 -7.007678E-05 -1.901575E-13  2.101684E-13  8.504035E-15  8.085423E-14
         5   8 -7.007678E-05 -7.007678E-05  1.244699E-14  2.451965E-13  8.504035E-15  5.514271E-14
         6   1 -7.007678E-05 -7.007678E-05 -2.725529E-13  7.005614E-14  1.087603E-13  4.369527E-15
         6   2 -7.007678E-05 -7.007678E-05  5.467216E-14 -1.751404E-14  6.497518E-14 -1.282776E-13
         6   3 -7.007678E-05 -7.007678E-05 -3.477927E-13  7.005614E-14  2.607162E-13  1.444818E-13
         6   4 -7.007678E-05 -7.007678E-05 -2.577331E-13 -3.502807E-14  1.556320E-13  5.124127E-14
         6   5 -7.007678E-05 -7.007678E-05 -6.238446E-14 -1.401123E-13 -1.964492E-13  1.630730E-14
         6   6 -7.007678E-05 -7.007678E-05 -2.474449E-13 -1.401123E-13 -1.526641E-13 -1.534097E-13
         6   7 -7.007678E-05 -7.007678E-05  2.827126E-13  7.005614E-14 -2.129184E-13  1.564196E-13
         6   8 -7.007678E-05 -7.007678E-05 -1.657845E-13  7.005614E-14 -3.777804E-14  1.399504E-13
         7   1 -7.007678E-05 -7.007678E-05 -1.055441E-13 -4.081065E-15 -9.959387E-15  6.295494E-15
         7   2 -7.007678E-05 -7.007678E-05 -9.187409E-14 -1.523074E-14 -2.162008E-14  2.419289E-14
         7   3 -7.007678E-05 -7.007678E-05 -7.926957E-14 -4.081065E-15  1.221067E-14 -1.338168E-13
         7   4 -7.007678E-05 -7.007678E-05 -3.169638E-15 -1.523074E-14  3.614773E-14  8.549202E-14
         7   5 -7.007678E-05 -7.007678E-05 -1.300315E-13  1.416048E-14 -2.550825E-14  2.349510E-14
         7   6 -7.007678E-05 -7.007678E-05 -2.739879E-13  5.284764E-14 -3.716894E-14 -1.244867E-14
         7   7 -7.007678E-05 -7.007678E-05 -2.900175E-14  1.416048E-14  2.163380E-14  1.636074E-13
         7   8 -7.007678E-05 -7.007678E-05 -1.105281E-13  5.284764E-14  4.557085E-14 -1.244867E-14
         8   1 -7.007678E-05 -7.007678E-05 -9.663765E-14 -1.280666E-32 -8.728887E-14  1.185013E-14
         8   2 -7.007678E-05 -7.007678E-05  6.291001E-14  3.502807E-14  4.659814E-15  1.618410E-15
         8   3 -7.007678E-05 -7.007678E-05 -5.510635E-14 -1.302303E-32 -8.876357E-14  1.185013E-14
         8   4 -7.007678E-05 -7.007678E-05  1.016887E-15  4.378509E-14 -1.870743E-14 -7.138607E-15
         8   5 -7.007678E-05 -7.007678E-05 -2.411284E-13 -7.005614E-14 -1.646419E-14  4.422528E-14
         8   6 -7.007678E-05 -7.007678E-05  7.604554E-14 -3.502807E-14  2.294239E-14  5.217151E-14
         8   7 -7.007678E-05 -7.007678E-05 -1.076485E-13 -7.005614E-14  2.390551E-16  4.422528E-14
         8   8 -7.007678E-05 -7.007678E-05 -2.354226E-13  1.126777E-32 -3.478902E-14 -9.669779E-14
         9   1 -7.007678E-05 -7.007678E-05 -6.813685E-14  7.005614E-14 -1.992712E-13  2.273736E-14
         9   2 -7.007678E-05 -7.007678E-05  8.510551E-14 -7.005614E-14  2.841123E-14  2.417111E-14
         9   3 -7.007678E-05 -7.007678E-05 -9.673521E-14  1.401123E-13  1.261722E-13  1.628496E-13
         9   4 -7.007678E-05 -7.007678E-05 -2.707610E-13 -3.502807E-14  9.114411E-14  3.292813E-14
         9   5 -7.007678E-05 -7.007678E-05 -4.622027E-13 -1.401123E-13 -2.395557E-13  1.480082E-14
         9   6 -7.007678E-05 -7.007678E-05  3.256341E-14 -1.401123E-13 -1.607425E-13 -6.037918E-14
         9   7 -7.007678E-05 -7.007678E-05 -9.673521E-14 -1.401123E-13  8.808711E-14  8.485696E-14
         9   8 -7.007678E-05 -7.007678E-05 -8.686366E-14 -7.005614E-14  5.305904E-14  2.719100E-14

 strains (elem, integ.pnt.,exx,eyy,ezz,exy,exz,eyz) forset EALL and time  0.4087813E+00

         1   1 -2.335893E-10 -2.335893E-10  2.002194E-10 -4.038968E-27 -1.615587E-27 -3.231174E-27
         1   2 -2.335893E-10 -2.335893E-10  2.002194E-10  5.654555E-27  2.423381E-27 -4.038968E-27
         1   3 -2.335893E-10 -2.335893E-10  2.002194E-10 -1.938705E-26  1.401711E-36 -3.231174E-27
         1   4 -2.335893E-10 -2.335893E-10  2.002194E-10 -9.693523E-27 -3.231174E-27 -8.885729E-27
         1   5 -2.335893E-10 -2.335893E-10  2.002194E-10 -1.292470E-26  8.077936E-28 -1.292470E-26
         1   6 -2.335893E-10 -2.335893E-10  2.002194E-10 -6.462349E-27  4.846761E-27 -9.693523E-27
         1   7 -2.335893E-10 -2.335893E-10  2.002194E-10 -1.938705E-26  9.693523E-27 -1.292470E-26
         1   8 -2.335893E-10 -2.335893E-10  2.002194E-10 -1.292470E-26  6.462349E-27 -1.454028E-26
         2   1 -2.335893E-10 -2.335893E-10  2.002194E-10 -4.321304E-19  2.070509E-19  3.309676E-20
         2   2 -2.335893E-10 -2.335893E-10  2.002194E-10  5.436516E-19 -1.182097E-19 -7.225877E-21
         2   3 -2.335893E-10 -2.335893E-10  2.002194E-10 -4.278944E-19 -9.175925E-19  2.983869E-20
         2   4 -2.335893E-10 -2.335893E-10  2.002194E-10  6.020977E-19 -1.586510E-19 -1.015979E-20
         2   5 -2.335893E-10 -2.335893E-10  2.002194E-10 -4.319643E-19  1.803055E-19  1.267769E-19
         2   6 -2.335893E-10 -2.335893E-10  2.002194E-10  1.085919E-18 -6.599512E-19 -2.403347E-20
         2   7 -2.335893E-10 -2.335893E-10  2.002194E-10 -4.272745E-19 -6.211448E-19  1.235188E-19
         2   8 -2.335893E-10 -2.335893E-10  2.002194E-10  1.307449E-18  6.798978E-19 -2.696738E-20
         3   1 -2.335893E-10 -2.335893E-10  2.002194E-10  4.775231E-19 -8.006733E-19  4.565905E-20
         3   2 -2.335893E-10 -2.335893E-10  2.002194E-10  4.775231E-19  1.208985E-19 -6.214557E-20
         3   3 -2.335893E-10 -2.335893E-10  2.002194E-10  5.973021E-19  9.966667E-21  1.585225E-19
         3   4 -2.335893E-10 -2.335893E-10  2.002194E-10 -4.869000E-19  1.094169E-18 -8.884308E-20
         3   5 -2.335893E-10 -2.335893E-10  2.002194E-10 -2.767382E-20  3.204416E-20  5.753845E-20
         3   6 -2.335893E-10 -2.335893E-10  2.002194E-10  4.060071E-19 -1.323209E-18 -2.052329E-19
         3   7 -2.335893E-10 -2.335893E-10  2.002194E-10 -1.032801E-19 -8.301656E-19  1.704019E-19
         3   8 -2.335893E-10 -2.335893E-10  2.002194E-10 -9.706418E-19  6.877174E-19 -2.319304E-19
         4   1 -2.335893E-10 -2.335893E-10  2.002194E-10  1.757665E-19 -2.891455E-20 -7.198196E-19
         4   2 -2.335893E-10 -2.335893E-10  2.002194E-10  2.116552E-19  1.714930E-20 -2.318320E-19
         4   3 -2.335893E-10 -2.335893E-10  2.002194E-10 -2.037043E-19  2.096123E-20 -6.929825E-20
         4   4 -2.335893E-10 -2.335893E-10  2.002194E-10 -1.678155E-19  5.491954E-20 -6.655128E-19
         4   5 -2.335893E-10 -2.335893E-10  2.002194E-10  2.237733E-19 -1.539744E-19 -3.670448E-19
         4   6 -2.335893E-10 -2.335893E-10  2.002194E-10  2.427143E-19 -1.079106E-19 -6.251553E-19
         4   7 -2.335893E-10 -2.335893E-10  2.002194E-10  6.932879E-21  4.427003E-20  1.042418E-18
         4   8 -2.335893E-10 -2.335893E-10  2.002194E-10  2.587385E-20  7.822835E-20  2.693115E-19
         5   1 -2.335893E-10 -2.335893E-10  2.002194E-10  5.421011E-20 -1.056499E-18 -8.272485E-20
         5   2 -2.335893E-10 -2.335893E-10  2.002194E-10 -1.084202E-19  2.716489E-19 -8.359430E-19
         5   3 -2.335893E-10 -2.335893E-10  2.002194E-10 -1.301043E-18 -1.020985E-19  5.677965E-19
         5   4 -2.335893E-10 -2.335893E-10  2.002194E-10 -1.192622E-18 -8.610400E-19 -4.293672E-19
         5   5 -2.335893E-10 -2.335893E-10  2.002194E-10  2.168404E-19 -1.197652E-18  6.684531E-20
         5   6 -2.335893E-10 -2.335893E-10  2.002194E-10 -6.505213E-19 -1.676602E-19 -4.717920E-19
         5   7 -2.335893E-10 -2.335893E-10  2.002194E-10  1.301043E-18  5.264402E-20  5.005262E-19
         5   8 -2.335893E-10 -2.335893E-10  2.002194E-10  1.517883E-18  5.264402E-20  3.413596E-19
         6   1 -2.335893E-10 -2.335893E-10  2.002194E-10  4.336809E-19  6.732778E-19  2.704946E-20
         6   2 -2.335893E-10 -2.335893E-10  2.002194E-10 -1.084202E-19  4.022273E-19 -7.940993E-19
         6   3 -2.335893E-10 -2.335893E-10  2.002194E-10  4.336809E-19  1.613958E-18  8.944112E-19
         6   4 -2.335893E-10 -2.335893E-10  2.002194E-10 -2.168404E-19  9.634363E-19  3.172079E-19
         6   5 -2.335893E-10 -2.335893E-10  2.002194E-10 -8.673617E-19 -1.216114E-18  1.009499E-19
         6   6 -2.335893E-10 -2.335893E-10  2.002194E-10 -8.673617E-19 -9.450635E-19 -9.496791E-19
         6   7 -2.335893E-10 -2.335893E-10  2.002194E-10  4.336809E-19 -1.318066E-18  9.683117E-19
         6   8 -2.335893E-10 -2.335893E-10  2.002194E-10  4.336809E-19 -2.338640E-19  8.663595E-19
         7   1 -2.335893E-10 -2.335893E-10  2.002194E-10 -2.526374E-20 -6.165335E-20  3.897210E-20
         7   2 -2.335893E-10 -2.335893E-10  2.002194E-10 -9.428556E-20 -1.338386E-19  1.497655E-19
         7   3 -2.335893E-10 -2.335893E-10  2.002194E-10 -2.526374E-20  7.558989E-20 -8.283896E-19
         7   4 -2.335893E-10 -2.335893E-10  2.002194E-10 -9.428556E-20  2.237716E-19  5.292363E-19
         7   5 -2.335893E-10 -2.335893E-10  2.002194E-10  8.766013E-20 -1.579082E-19  1.454459E-19
         7   6 -2.335893E-10 -2.335893E-10  2.002194E-10  3.271521E-19 -2.300934E-19 -7.706317E-20
         7   7 -2.335893E-10 -2.335893E-10  2.002194E-10  8.766013E-20  1.339235E-19  1.012808E-18
         7   8 -2.335893E-10 -2.335893E-10  2.002194E-10  3.271521E-19  2.821053E-19 -7.706317E-20
         8   1 -2.335893E-10 -2.335893E-10  2.002194E-10  2.554931E-40 -5.403597E-19  7.335794E-20
         8   2 -2.335893E-10 -2.335893E-10  2.002194E-10  2.168404E-19  2.884647E-20  1.001873E-20
         8   3 -2.335893E-10 -2.335893E-10  2.002194E-10 -1.699086E-38 -5.494888E-19  7.335794E-20
         8   4 -2.335893E-10 -2.335893E-10  2.002194E-10  2.710505E-19 -1.158079E-19 -4.419138E-20
         8   5 -2.335893E-10 -2.335893E-10  2.002194E-10 -4.336809E-19 -1.019212E-19  2.737756E-19
         8   6 -2.335893E-10 -2.335893E-10  2.002194E-10 -2.168404E-19  1.420243E-19  3.229665E-19
         8   7 -2.335893E-10 -2.335893E-10  2.002194E-10 -4.336809E-19  1.479865E-21  2.737756E-19
         8   8 -2.335893E-10 -2.335893E-10  2.002194E-10  1.425611E-37 -2.153606E-19 -5.986054E-19
         9   1 -2.335893E-10 -2.335893E-10  2.002194E-10  4.336809E-19 -1.233584E-18  1.407551E-19
         9   2 -2.335893E-10 -2.335893E-10  2.002194E-10 -4.336809E-19  1.758790E-19  1.496307E-19
         9   3 -2.335893E-10 -2.335893E-10  2.002194E-10  8.673617E-19  7.810659E-19  1.008117E-18
         9   4 -2.335893E-10 -2.335893E-10  2.002194E-10 -2.168404E-19  5.642254E-19  2.038408E-19
         9   5 -2.335893E-10 -2.335893E-10  2.002194E-10 -8.673617E-19 -1.482964E-18  9.162415E-20
         9   6 -2.335893E-10 -2.335893E-10  2.002194E-10 -8.673617E-19 -9.950728E-19 -3.737759E-19
         9   7 -2.335893E-10 -2.335893E-10  2.002194E-10 -8.673617E-19  5.453012E-19  5.253050E-19
         9   8 -2.335893E-10 -2.335893E-10  2.002194E-10 -4.336809E-19  3.284607E-19  1.683252E-19

 displacements (vx,vy,vz) for set NALL and time  0.4177813E+00

         1  0.000000E+00  0.000000E+00  0.000000E+00
         2 -1.193661E-07  0.000000E+00  0.000000E+00
         3 -6.266719E+00  0.000000E+00  0.000000E+00
         4 -6.266719E+00  0.000000E+00  0.000000E+00
         5 -1.253344E+01  0.000000E+00  0.000000E+00
         6 -1.253344E+01  0.000000E+00  0.000000E+00
         7  0.000000E+00 -1.193661E-07  0.000000E+00
         8 -1.193661E-07 -1.193661E-07  0.000000E+00
         9 -6.266719E+00 -1.193661E-07  0.000000E+00
        10 -6.266719E+00 -1.193661E-07  0.000000E+00
        11 -1.253344E+01 -1.193661E-07  0.000000E+00
        12 -1.253344E+01 -1.193661E-07  0.000000E+00
        13  0.000000E+00 -6.266719E+00  0.000000E+00
        14 -1.193661E-07 -6.266719E+00  0.000000E+00
        15 -6.266719E+00 -6.266719E+00  0.000000E+00
        16 -6.266719E+00 -6.266719E+00  0.000000E+00
        17 -1.253344E+01 -6.266719E+00  0.000000E+00
        18 -1.253344E+01 -6.266719E+00  0.000000E+00
        19  0.000000E+00 -6.266719E+00  0.000000E+00
        20 -1.193661E-07 -6.266719E+00  0.000000E+00
        21 -6.266719E+00 -6.266719E+00  0.000000E+00
        22 -6.266719E+00 -6.266719E+00  0.000000E+00
        23 -1.253344E+01 -6.266719E+00  0.000000E+00
        24 -1.253344E+01 -6.266719E+00  0.000000E+00
        25  0.000000E+00 -1.253344E+01  0.000000E+00
        26 -1.193661E-07 -1.253344E+01  0.000000E+00
        27 -6.266719E+00 -1.253344E+01  0.000000E+00
        28 -6.266719E+00 -1.253344E+01  0.000000E+00
        29 -1.253344E+01 -1.253344E+01  0.000000E+00
        30 -1.253344E+01 -1.253344E+01  0.000000E+00
        31  0.000000E+00 -1.253344E+01  0.000000E+00
        32 -1.193661E-07 -1.253344E+01  0.000000E+00
        33 -6.266719E+00 -1.253344E+01  0.000000E+00
        34 -6.266719E+00 -1.253344E+01  0.000000E+00
        35 -1.253344E+01 -1.253344E+01  0.000000E+00
        36 -1.253344E+01 -1.253344E+01  0.000000E+00
        37  0.000000E+00  0.000000E+00  1.432393E-07
        38 -1.193661E-07  0.000000E+00  1.432393E-07
        39 -6.266719E+00  0.000000E+00  1.432393E-07
        40 -6.266719E+00  0.000000E+00  1.432393E-07
        41 -1.253344E+01  0.000000E+00  1.432393E-07
        42 -1.253344E+01  0.000000E+00  1.432393E-07
        43  0.000000E+00 -1.193661E-07  1.432393E-07
        44 -1.193661E-07 -1.193661E-07  1.432393E-07
        45 -6.266719E+00 -1.193661E-07  1.432393E-07
        46 -6.266719E+00 -1.193661E-07  1.432393E-07
        47 -1.253344E+01 -1.193661E-07  1.432393E-07
        48 -1.253344E+01 -1.193661E-07  1.432393E-07
        49  0.000000E+00 -6.266719E+00  1.432393E-07
        50 -1.193661E-07 -6.266719E+00  1.432393E-07
        51 -6.266719E+00 -6.266719E+00  1.432393E-07
        52 -6.266719E+00 -6.266719E+00  1.432393E-07
        53 -1.253344E+01 -6.266719E+00  1.432393E-07
        54 -1.253344E+01 -6.266719E+00  1.432393E-07
        55  0.000000E+00 -6.266719E+00  1.432393E-07
        56 -1.193661E-07 -6.266719E+00  1.432393E-07
        57 -6.266719E+00 -6.266719E+00  1.432393E-07
        58 -6.266719E+00 -6.266719E+00  1.432393E-07
        59 -1.253344E+01 -6.266719E+00  1.432393E-07
        60 -1.253344E+01 -6.266719E+00  1.432393E-07
        61  0.000000E+00 -1.253344E+01  1.432393E-07
        62 -1.193661E-07 -1.253344E+01  1.432393E-07
        63 -6.266719E+00 -1.253344E+01  1.432393E-07
        64 -6.266719E+00 -1.253344E+01  1.432393E-07
        65 -1.253344E+01 -1.253344E+01  1.432393E-07
        66 -1.253344E+01 -1.253344E+01  1.432393E-07
        67  0.000000E+00 -1.253344E+01  1.432393E-07
        68 -1.193661E-07 -1.253344E+01  1.432393E-07
        69 -6.266719E+00 -1.253344E+01  1.432393E-07
        70 -6.266719E+00 -1.253344E+01  1.432393E-07
        71 -1.253344E+01 -1.253344E+01  1.432393E-07
        72 -1.253344E+01 -1.253344E+01  1.432393E-07

 stresses (elem, integ.pnt.,sxx,syy,szz,sxy,sxz,syz) for set EALL and time  0.4177813E+00

         1   1 -7.161964E-05 -7.161964E-05  6.776264E-21  6.524486E-22  3.914692E-22  2.609795E-21
         1   2 -7.161964E-05 -7.161964E-05  1.355253E-20 -4.567141E-21 -1.174408E-21 -1.826856E-21
         1   3 -7.161964E-05 -7.161964E-05 -2.032879E-20  6.263507E-21 -2.609795E-22  5.219589E-21
         1   4 -7.161964E-05 -7.161964E-05  6.703997E-47  1.043918E-21  5.219589E-22 -3.262243E-21
         1   5 -7.161964E-05 -7.161964E-05 -6.776264E-21 -1.043918E-21  2.609795E-21  3.653712E-21
         1   6 -7.161964E-05 -7.161964E-05  3.946504E-46 -2.609795E-21  1.043918E-21 -4.045182E-21
         1   7 -7.161964E-05 -7.161964E-05 -1.355253E-20 -4.697630E-21 -1.826856E-21  7.307425E-21
         1   8 -7.161964E-05 -7.161964E-05 -2.710505E-20 -6.263507E-21  9.256622E-31 -5.480569E-21
         2   1 -7.161964E-05 -7.161964E-05  9.763959E-15  1.373323E-13  1.796031E-14  9.734088E-16
         2   2 -7.161964E-05 -7.161964E-05  1.419376E-15 -1.153702E-14  8.801645E-14  2.782319E-16
         2   3 -7.161964E-05 -7.161964E-05 -8.776140E-14  1.297372E-13  7.027344E-14  6.092555E-16
         2   4 -7.161964E-05 -7.161964E-05 -9.766986E-14  1.589592E-14  7.027344E-14 -1.359612E-15
         2   5 -7.161964E-05 -7.161964E-05 -4.354287E-14 -3.432691E-15  1.917956E-14  3.996961E-15
         2   6 -7.161964E-05 -7.161964E-05 -5.456220E-14 -7.348883E-14  1.505348E-13  2.676218E-15
         2   7 -7.161964E-05 -7.161964E-05 -3.598399E-14 -1.281098E-14  7.086712E-14  3.632809E-15
         2   8 -7.161964E-05 -7.161964E-05 -4.856724E-14 -4.783905E-14  8.838116E-14  1.038374E-15
         3   1 -7.161964E-05 -7.161964E-05  7.461416E-14 -5.986371E-14 -3.450758E-13  1.845271E-14
         3   2 -7.161964E-05 -7.161964E-05  1.519339E-13  2.770646E-14  1.396196E-14 -1.925418E-14
         3   3 -7.161964E-05 -7.161964E-05  6.134909E-14 -3.201749E-14  1.062980E-13  1.112195E-14
         3   4 -7.161964E-05 -7.161964E-05 -1.278377E-13 -4.953152E-14  7.126989E-14 -2.299948E-14
         3   5 -7.161964E-05 -7.161964E-05  3.219301E-13 -1.280825E-13 -1.907433E-13  7.619721E-14
         3   6 -7.161964E-05 -7.161964E-05  4.067793E-13  8.208588E-14 -9.441613E-14 -6.811229E-14
         3   7 -7.161964E-05 -7.161964E-05  2.561229E-13 -9.521667E-14  1.391550E-14  6.886646E-14
         3   8 -7.161964E-05 -7.161964E-05  7.446559E-14 -2.516053E-14  1.391550E-14 -7.185759E-14
         4   1 -7.161964E-05 -7.161964E-05 -1.479512E-14  3.149565E-14  2.644572E-15 -4.284304E-14
         4   2 -7.161964E-05 -7.161964E-05  2.508622E-13  2.184490E-14 -1.817444E-15  1.291553E-14
         4   3 -7.161964E-05 -7.161964E-05 -8.264847E-14  6.652372E-14 -3.544738E-16 -7.814967E-15
         4   4 -7.161964E-05 -7.161964E-05  1.451661E-13  5.687297E-14  2.127051E-15 -6.589763E-14
         4   5 -7.161964E-05 -7.161964E-05  1.860031E-13  2.569552E-17  1.433169E-14  1.284605E-13
         4   6 -7.161964E-05 -7.161964E-05  2.152209E-13  9.589847E-17  9.869677E-15 -6.297902E-14
         4   7 -7.161964E-05 -7.161964E-05  1.327311E-13  2.569552E-17 -3.804441E-15  4.089029E-14
         4   8 -7.161964E-05 -7.161964E-05  1.241062E-13  9.589847E-17 -1.322917E-15 -1.481543E-14
         5   1 -7.161964E-05 -7.161964E-05  4.149881E-14 -1.663833E-13 -3.323512E-14  7.109498E-14
         5   2 -7.161964E-05 -7.161964E-05  1.202814E-15 -8.757018E-14 -6.964063E-15  9.432129E-14
         5   3 -7.161964E-05 -7.161964E-05  1.059094E-14 -1.751404E-13  1.169680E-13  1.855287E-14
         5   4 -7.161964E-05 -7.161964E-05 -1.343522E-13 -1.926544E-13 -2.314433E-14 -5.892652E-14
         5   5 -7.161964E-05 -7.161964E-05 -3.262959E-13 -1.050842E-13  4.171947E-14  1.042683E-13
         5   6 -7.161964E-05 -7.161964E-05 -5.133930E-14 -1.050842E-13  1.073971E-13 -6.312915E-15
         5   7 -7.161964E-05 -7.161964E-05 -4.097459E-13 -2.902080E-31  5.373647E-14 -7.087203E-14
         5   8 -7.161964E-05 -7.161964E-05 -4.627404E-13  3.502807E-14 -3.383370E-14 -2.339954E-13
         6   1 -7.161964E-05 -7.161964E-05  1.309610E-13 -1.751404E-13 -1.211942E-13 -1.350456E-14
         6   2 -7.161964E-05 -7.161964E-05  2.733094E-13  3.502807E-14  7.146018E-14 -2.995652E-14
         6   3 -7.161964E-05 -7.161964E-05  1.203430E-13 -2.802246E-13  2.739337E-13 -4.853263E-14
         6   4 -7.161964E-05 -7.161964E-05  1.167819E-13  3.502807E-14  2.389056E-13 -5.622758E-14
         6   5 -7.161964E-05 -7.161964E-05  1.309610E-13 -7.005614E-14  7.060323E-14  2.778474E-14
         6   6 -7.161964E-05 -7.161964E-05  1.025475E-13  7.005614E-14 -9.578010E-14 -8.381050E-14
         6   7 -7.161964E-05 -7.161964E-05  4.881377E-13 -1.401123E-13 -2.347798E-14  1.503830E-13
         6   8 -7.161964E-05 -7.161964E-05  4.977121E-13  1.885133E-31  8.160623E-14  7.381581E-14
         7   1 -7.161964E-05 -7.161964E-05  3.245217E-13  1.305302E-13 -6.361366E-15 -7.843810E-14
         7   2 -7.161964E-05 -7.161964E-05 -5.653152E-15  1.043515E-13 -7.263642E-15  1.793830E-13
         7   3 -7.161964E-05 -7.161964E-05  2.280037E-13 -9.582078E-15  4.001682E-15 -8.381960E-15
         7   4 -7.161964E-05 -7.161964E-05 -7.575530E-14 -3.576080E-14  2.084546E-14  6.554172E-14
         7   5 -7.161964E-05 -7.161964E-05 -2.027942E-13 -4.883677E-16 -2.283866E-14  1.788865E-13
         7   6 -7.161964E-05 -7.161964E-05 -2.439874E-13 -1.822612E-15 -2.374094E-14  2.283485E-13
         7   7 -7.161964E-05 -7.161964E-05 -2.620454E-13 -4.883677E-16 -1.909298E-15  2.489427E-13
         7   8 -7.161964E-05 -7.161964E-05 -2.768228E-13 -1.822612E-15  1.493448E-14 -8.690418E-14
         8   1 -7.161964E-05 -7.161964E-05  2.906913E-13 -1.050842E-13 -7.658998E-14 -2.176327E-13
         8   2 -7.161964E-05 -7.161964E-05 -5.745614E-14  1.313553E-13 -6.345446E-14  1.785088E-13
         8   3 -7.161964E-05 -7.161964E-05  4.892843E-13 -1.751404E-13  4.808403E-14 -7.464287E-15
         8   4 -7.161964E-05 -7.161964E-05  1.815856E-13  1.050842E-13 -2.197211E-14  2.748360E-13
         8   5 -7.161964E-05 -7.161964E-05 -1.427811E-13 -2.802246E-13 -2.123461E-13  4.219904E-14
         8   6 -7.161964E-05 -7.161964E-05  1.133057E-13 -7.005614E-14 -9.412641E-14  2.338433E-13
         8   7 -7.161964E-05 -7.161964E-05 -3.613680E-14 -4.203368E-13 -1.194489E-14  1.122552E-13
         8   8 -7.161964E-05 -7.161964E-05 -8.112490E-14 -1.751404E-13 -1.170291E-13 -9.016637E-14
         9   1 -7.161964E-05 -7.161964E-05 -9.484298E-14 -2.101684E-13 -1.082480E-13  1.586839E-13
         9   2 -7.161964E-05 -7.161964E-05  3.855046E-13  2.846773E-31 -9.949099E-14 -1.270532E-13
         9   3 -7.161964E-05 -7.161964E-05 -1.256229E-13 -2.802246E-13  1.051650E-13  1.857159E-14
         9   4 -7.161964E-05 -7.161964E-05  1.611034E-13  3.502807E-14  7.013688E-14  1.269003E-13
         9   5 -7.161964E-05 -7.161964E-05 -3.575535E-13  5.046900E-31 -2.119317E-14 -7.080214E-14
         9   6 -7.161964E-05 -7.161964E-05 -3.483222E-14  2.101684E-13 -9.124931E-14  8.267636E-14
         9   7 -7.161964E-05 -7.161964E-05 -2.053873E-14  4.944248E-31  9.687082E-15  6.931014E-14
         9   8 -7.161964E-05 -7.161964E-05  5.601922E-14  7.005614E-14 -2.534099E-14 -4.893815E-15

 strains (elem, integ.pnt.,exx,eyy,ezz,exy,exz,eyz) forset EALL and time  0.4177813E+00

         1   1 -2.387321E-10 -2.387321E-10  2.046275E-10  4.038968E-27  2.423381E-27  1.615587E-26
         1   2 -2.387321E-10 -2.387321E-10  2.046275E-10 -2.827277E-26 -7.270142E-27 -1.130911E-26
         1   3 -2.387321E-10 -2.387321E-10  2.046275E-10  3.877409E-26 -1.615587E-27  3.231174E-26
         1   4 -2.387321E-10 -2.387321E-10  2.046275E-10  6.462349E-27  3.231174E-27 -2.019484E-26
         1   5 -2.387321E-10 -2.387321E-10  2.046275E-10 -6.462349E-27  1.615587E-26  2.261822E-26
         1   6 -2.387321E-10 -2.387321E-10  2.046275E-10 -1.615587E-26  6.462349E-27 -2.504160E-26
         1   7 -2.387321E-10 -2.387321E-10  2.046275E-10 -2.908057E-26 -1.130911E-26  4.523644E-26
         1   8 -2.387321E-10 -2.387321E-10  2.046275E-10 -3.877409E-26 -5.730290E-36 -3.392733E-26
         2   1 -2.387321E-10 -2.387321E-10  2.046275E-10  8.501522E-19  1.111829E-19  6.025864E-21
         2   2 -2.387321E-10 -2.387321E-10  2.046275E-10 -7.141968E-20  5.448637E-19  1.722388E-21
         2   3 -2.387321E-10 -2.387321E-10  2.046275E-10  8.031347E-19  4.350261E-19  3.771582E-21
         2   4 -2.387321E-10 -2.387321E-10  2.046275E-10  9.840333E-20  4.350261E-19 -8.416645E-21
         2   5 -2.387321E-10 -2.387321E-10  2.046275E-10 -2.124999E-20  1.187306E-19  2.474309E-20
         2   6 -2.387321E-10 -2.387321E-10  2.046275E-10 -4.549309E-19  9.318822E-19  1.656706E-20
         2   7 -2.387321E-10 -2.387321E-10  2.046275E-10 -7.930607E-20  4.387012E-19  2.248882E-20
         2   8 -2.387321E-10 -2.387321E-10  2.046275E-10 -2.961465E-19  5.471214E-19  6.428027E-21
         3   1 -2.387321E-10 -2.387321E-10  2.046275E-10 -3.705849E-19 -2.136183E-18  1.142311E-19
         3   2 -2.387321E-10 -2.387321E-10  2.046275E-10  1.715162E-19  8.643115E-20 -1.191926E-19
         3   3 -2.387321E-10 -2.387321E-10  2.046275E-10 -1.982035E-19  6.580350E-19  6.885018E-20
         3   4 -2.387321E-10 -2.387321E-10  2.046275E-10 -3.066237E-19  4.411945E-19 -1.423777E-19
         3   5 -2.387321E-10 -2.387321E-10  2.046275E-10 -7.928919E-19 -1.180792E-18  4.716970E-19
         3   6 -2.387321E-10 -2.387321E-10  2.046275E-10  5.081507E-19 -5.844808E-19 -4.216475E-19
         3   7 -2.387321E-10 -2.387321E-10  2.046275E-10 -5.894365E-19  8.614358E-20  4.263162E-19
         3   8 -2.387321E-10 -2.387321E-10  2.046275E-10 -1.557557E-19  8.614358E-20 -4.448327E-19
         4   1 -2.387321E-10 -2.387321E-10  2.046275E-10  1.949731E-19  1.637116E-20 -2.652188E-19
         4   2 -2.387321E-10 -2.387321E-10  2.046275E-10  1.352303E-19 -1.125085E-20  7.995327E-20
         4   3 -2.387321E-10 -2.387321E-10  2.046275E-10  4.118135E-19 -2.194362E-21 -4.837837E-20
         4   4 -2.387321E-10 -2.387321E-10  2.046275E-10  3.520707E-19  1.316746E-20 -4.079377E-19
         4   5 -2.387321E-10 -2.387321E-10  2.046275E-10  1.590675E-22  8.872000E-20  7.952314E-19
         4   6 -2.387321E-10 -2.387321E-10  2.046275E-10  5.936572E-22  6.109800E-20 -3.898701E-19
         4   7 -2.387321E-10 -2.387321E-10  2.046275E-10  1.590675E-22 -2.355130E-20  2.531304E-19
         4   8 -2.387321E-10 -2.387321E-10  2.046275E-10  5.936572E-22 -8.189489E-21 -9.171455E-20
         5   1 -2.387321E-10 -2.387321E-10  2.046275E-10 -1.029992E-18 -2.057412E-19  4.401118E-19
         5   2 -2.387321E-10 -2.387321E-10  2.046275E-10 -5.421011E-19 -4.311087E-20  5.838937E-19
         5   3 -2.387321E-10 -2.387321E-10  2.046275E-10 -1.084202E-18  7.240873E-19  1.148511E-19
         5   4 -2.387321E-10 -2.387321E-10  2.046275E-10 -1.192622E-18 -1.432744E-19 -3.647832E-19
         5   5 -2.387321E-10 -2.387321E-10  2.046275E-10 -6.505213E-19  2.582634E-19  6.454706E-19
         5   6 -2.387321E-10 -2.387321E-10  2.046275E-10 -6.505213E-19  6.648392E-19 -3.907995E-20
         5   7 -2.387321E-10 -2.387321E-10  2.046275E-10 -4.583834E-37  3.326544E-19 -4.387316E-19
         5   8 -2.387321E-10 -2.387321E-10  2.046275E-10  2.168404E-19 -2.094467E-19 -1.448543E-18
         6   1 -2.387321E-10 -2.387321E-10  2.046275E-10 -1.084202E-18 -7.502498E-19 -8.359963E-20
         6   2 -2.387321E-10 -2.387321E-10  2.046275E-10  2.168404E-19  4.423726E-19 -1.854451E-19
         6   3 -2.387321E-10 -2.387321E-10  2.046275E-10 -1.734723E-18  1.695780E-18 -3.004401E-19
         6   4 -2.387321E-10 -2.387321E-10  2.046275E-10  2.168404E-19  1.478939E-18 -3.480755E-19
         6   5 -2.387321E-10 -2.387321E-10  2.046275E-10 -4.336809E-19  4.370676E-19  1.720008E-19
         6   6 -2.387321E-10 -2.387321E-10  2.046275E-10  4.336809E-19 -5.929244E-19 -5.188269E-19
         6   7 -2.387321E-10 -2.387321E-10  2.046275E-10 -8.673617E-19 -1.453399E-19  9.309423E-19
         6   8 -2.387321E-10 -2.387321E-10  2.046275E-10  2.475023E-38  5.051814E-19  4.569550E-19
         7   1 -2.387321E-10 -2.387321E-10  2.046275E-10  8.080441E-19 -3.937988E-20 -4.855692E-19
         7   2 -2.387321E-10 -2.387321E-10  2.046275E-10  6.459854E-19 -4.496540E-20  1.110466E-18
         7   3 -2.387321E-10 -2.387321E-10  2.046275E-10 -5.931762E-20  2.477231E-20 -5.188832E-20
         7   4 -2.387321E-10 -2.387321E-10  2.046275E-10 -2.213764E-19  1.290433E-19  4.057345E-19
         7   5 -2.387321E-10 -2.387321E-10  2.046275E-10 -3.023229E-21 -1.413822E-19  1.107393E-18
         7   6 -2.387321E-10 -2.387321E-10  2.046275E-10 -1.128283E-20 -1.469677E-19  1.413586E-18
         7   7 -2.387321E-10 -2.387321E-10  2.046275E-10 -3.023229E-21 -1.181946E-20  1.541074E-18
         7   8 -2.387321E-10 -2.387321E-10  2.046275E-10 -1.128283E-20  9.245155E-20 -5.379783E-19
         8   1 -2.387321E-10 -2.387321E-10  2.046275E-10 -6.505213E-19 -4.741285E-19 -1.347250E-18
         8   2 -2.387321E-10 -2.387321E-10  2.046275E-10  8.131516E-19 -3.928133E-19  1.105055E-18
         8   3 -2.387321E-10 -2.387321E-10  2.046275E-10 -1.084202E-18  2.976630E-19 -4.620749E-20
         8   4 -2.387321E-10 -2.387321E-10  2.046275E-10  6.505213E-19 -1.360178E-19  1.701366E-18
         8   5 -2.387321E-10 -2.387321E-10  2.046275E-10 -1.734723E-18 -1.314524E-18  2.612322E-19
         8   6 -2.387321E-10 -2.387321E-10  2.046275E-10 -4.336809E-19 -5.826873E-19  1.447601E-18
         8   7 -2.387321E-10 -2.387321E-10  2.046275E-10 -2.602085E-18 -7.394458E-20  6.949130E-19
         8   8 -2.387321E-10 -2.387321E-10  2.046275E-10 -1.084202E-18 -7.244659E-19 -5.581728E-19
         9   1 -2.387321E-10 -2.387321E-10  2.046275E-10 -1.301043E-18 -6.701067E-19  9.823288E-19
         9   2 -2.387321E-10 -2.387321E-10  2.046275E-10 -1.178120E-37 -6.158966E-19 -7.865196E-19
         9   3 -2.387321E-10 -2.387321E-10  2.046275E-10 -1.734723E-18  6.510211E-19  1.149670E-19
         9   4 -2.387321E-10 -2.387321E-10  2.046275E-10  2.168404E-19  4.341807E-19  7.855735E-19
         9   5 -2.387321E-10 -2.387321E-10  2.046275E-10 -8.729100E-37 -1.311958E-19 -4.382990E-19
         9   6 -2.387321E-10 -2.387321E-10  2.046275E-10  1.301043E-18 -5.648767E-19  5.118060E-19
         9   7 -2.387321E-10 -2.387321E-10  2.046275E-10 -3.702111E-36  5.996765E-20  4.290628E-19
         9   8 -2.387321E-10 -2.387321E-10  2.046275E-10  4.336809E-19 -1.568728E-19 -3.029504E-20

 displacements (vx,vy,vz) for set NALL and time  0.4267813E+00

         1  0.000000E+00  0.000000E+00  0.000000E+00
         2 -1.219375E-07  0.000000E+00  0.000000E+00
         3 -6.401719E+00  0.000000E+00  0.000000E+00
         4 -6.401719E+00  0.000000E+00  0.000000E+00
         5 -1.280344E+01  0.000000E+00  0.000000E+00
         6 -1.280344E+01  0.000000E+00  0.000000E+00
         7  0.000000E+00 -1.219375E-07  0.000000E+00
         8 -1.219375E-07 -1.219375E-07  0.000000E+00
         9 -6.401719E+00 -1.219375E-07  0.000000E+00
        10 -6.401719E+00 -1.219375E-07  0.000000E+00
        11 -1.280344E+01 -1.219375E-07  0.000000E+00
        12 -1.280344E+01 -1.219375E-07  0.000000E+00
        13  0.000000E+00 -6.401719E+00  0.000000E+00
        14 -1.219375E-07 -6.401719E+00  0.000000E+00
        15 -6.401719E+00 -6.401719E+00  0.000000E+00
        16 -6.401719E+00 -6.401719E+00  0.000000E+00
        17 -1.280344E+01 -6.401719E+00  0.000000E+00
        18 -1.280344E+01 -6.401719E+00  0.000000E+00
        19  0.000000E+00 -6.401719E+00  0.000000E+00
        20 -1.219375E-07 -6.401719E+00  0.000000E+00
        21 -6.401719E+00 -6.401719E+00  0.000000E+00
        22 -6.401719E+00 -6.401719E+00  0.000000E+00
        23 -1.280344E+01 -6.401719E+00  0.000000E+00
        24 -1.280344E+01 -6.401719E+00  0.000000E+00
        25  0.000000E+00 -1.280344E+01  0.000000E+00
        26 -1.219375E-07 -1.280344E+01  0.000000E+00
        27 -6.401719E+00 -1.280344E+01  0.000000E+00
        28 -6.401719E+00 -1.280344E+01  0.000000E+00
        29 -1.280344E+01 -1.280344E+01  0.000000E+00
        30 -1.280344E+01 -1.280344E+01  0.000000E+00
        31  0.000000E+00 -1.280344E+01  0.000000E+00
        32 -1.219375E-07 -1.280344E+01  0.000000E+00
        33 -6.401719E+00 -1.280344E+01  0.000000E+00
        34 -6.401719E+00 -1.280344E+01  0.000000E+00
        35 -1.280344E+01 -1.280344E+01  0.000000E+00
        36 -1.280344E+01 -1.280344E+01  0.000000E+00
        37  0.000000E+00  0.000000E+00  1.463250E-07
        38 -1.219375E-07  0.000000E+00  1.463250E-07
        39 -6.401719E+00  0.000000E+00  1.463250E-07
        40 -6.401719E+00  0.000000E+00  1.463250E-07
        41 -1.280344E+01  0.000000E+00  1.463250E-07
        42 -1.280344E+01  0.000000E+00  1.463250E-07
        43  0.000000E+00 -1.219375E-07  1.463250E-07
        44 -1.219375E-07 -1.219375E-07  1.463250E-07
        45 -6.401719E+00 -1.219375E-07  1.463250E-07
        46 -6.401719E+00 -1.219375E-07  1.463250E-07
        47 -1.280344E+01 -1.219375E-07  1.463250E-07
        48 -1.280344E+01 -1.219375E-07  1.463250E-07
        49  0.000000E+00 -6.401719E+00  1.463250E-07
        50 -1.219375E-07 -6.401719E+00  1.463250E-07
        51 -6.401719E+00 -6.401719E+00  1.463250E-07
        52 -6.401719E+00 -6.401719E+00  1.463250E-07
        53 -1.280344E+01 -6.401719E+00  1.463250E-07
        54 -1.280344E+01 -6.401719E+00  1.463250E-07
        55  0.000000E+00 -6.401719E+00  1.463250E-07
        56 -1.219375E-07 -6.401719E+00  1.463250E-07
        57 -6.401719E+00 -6.401719E+00  1.463250E-07
        58 -6.401719E+00 -6.401719E+00  1.463250E-07
        59 -1.280344E+01 -6.401719E+00  1.463250E-07
        60 -1.280344E+01 -6.401719E+00  1.463250E-07
        61  0.000000E+00 -1.280344E+01  1.463250E-07
        62 -1.219375E-07 -1.280344E+01  1.463250E-07
        63 -6.401719E+00 -1.280344E+01  1.463250E-07
        64 -6.401719E+00 -1.280344E+01  1.463250E-07
        65 -1.280344E+01 -1.280344E+01  1.463250E-07
        66 -1.280344E+01 -1.280344E+01  1.463250E-07
        67  0.000000E+00 -1.280344E+01  1.463250E-07
        68 -1.219375E-07 -1.280344E+01  1.463250E-07
        69 -6.401719E+00 -1.280344E+01  1.463250E-07
        70 -6.401719E+00 -1.280344E+01  1.463250E-07
        71 -1.280344E+01 -1.280344E+01  1.463250E-07
        72 -1.280344E+01 -1.280344E+01  1.463250E-07

 stresses (elem, integ.pnt.,sxx,syy,szz,sxy,sxz,syz) for set EALL and time  0.4267813E+00

         1   1 -7.316250E-05 -7.316250E-05  1.355253E-20 -1.304897E-21  5.910020E-32 -7.092023E-31
         1   2 -7.316250E-05 -7.316250E-05  6.776264E-21 -4.958610E-21 -3.914692E-22 -1.304897E-21
         1   3 -7.316250E-05 -7.316250E-05 -1.686540E-46 -2.087836E-21 -5.219589E-22 -4.697630E-21
         1   4 -7.316250E-05 -7.316250E-05 -6.776264E-21 -5.741548E-21  2.087836E-21 -4.306161E-21
         1   5 -7.316250E-05 -7.316250E-05 -6.776264E-21  5.219589E-22 -3.914692E-22  5.219589E-22
         1   6 -7.316250E-05 -7.316250E-05 -1.355253E-20  1.043918E-21 -7.829384E-22 -1.304897E-22
         1   7 -7.316250E-05 -7.316250E-05 -6.776264E-21  1.565877E-21 -1.565877E-21 -3.131754E-21
         1   8 -7.316250E-05 -7.316250E-05 -2.032879E-20  2.087836E-21  1.043918E-21 -3.131754E-21
         2   1 -7.316250E-05 -7.316250E-05 -3.483731E-14 -3.811961E-15  7.466117E-14 -4.312550E-16
         2   2 -7.316250E-05 -7.316250E-05 -1.900608E-14  3.997313E-14  8.983539E-15  1.422336E-15
         2   3 -7.316250E-05 -7.316250E-05  1.706305E-13 -1.422643E-14 -2.433852E-15 -1.023764E-14
         2   4 -7.316250E-05 -7.316250E-05  1.383853E-13  7.334374E-14  8.513632E-14  1.591064E-14
         2   5 -7.316250E-05 -7.316250E-05 -2.915967E-14  8.637500E-15  8.724235E-14  8.196922E-15
         2   6 -7.316250E-05 -7.316250E-05  3.769039E-14 -9.644671E-14  1.529200E-13 -9.180069E-15
         2   7 -7.316250E-05 -7.316250E-05  2.025792E-13 -1.078767E-13 -9.083261E-15 -1.609465E-15
         2   8 -7.316250E-05 -7.316250E-05  2.213528E-13 -3.782055E-14  7.848691E-14  5.308231E-15
         3   1 -7.316250E-05 -7.316250E-05 -6.567162E-14 -1.915025E-13 -6.813084E-14  1.856097E-14
         3   2 -7.316250E-05 -7.316250E-05  2.397279E-14  3.339185E-13  4.571039E-14 -6.581437E-15
         3   3 -7.316250E-05 -7.316250E-05  3.396519E-14 -1.405063E-13  2.684945E-13  2.941574E-14
         3   4 -7.316250E-05 -7.316250E-05  3.034164E-14 -3.939897E-16  2.329800E-14 -2.710980E-14
         3   5 -7.316250E-05 -7.316250E-05 -3.581292E-13 -2.776405E-13  7.724147E-14  5.841570E-14
         3   6 -7.316250E-05 -7.316250E-05 -3.343894E-13  1.426964E-13 -2.029831E-13 -4.033894E-15
         3   7 -7.316250E-05 -7.316250E-05  5.676021E-14 -2.705806E-13  2.364473E-13  6.927047E-14
         3   8 -7.316250E-05 -7.316250E-05 -1.276792E-14 -6.041222E-14 -1.138334E-13 -2.456225E-14
         4   1 -7.316250E-05 -7.316250E-05 -6.397658E-14  3.277677E-14 -3.260594E-16  2.389328E-14
         4   2 -7.316250E-05 -7.316250E-05 -8.332023E-14  2.662609E-14  1.266371E-15  7.285968E-14
         4   3 -7.316250E-05 -7.316250E-05 -2.963159E-14 -2.251305E-15 -2.247137E-15  1.464915E-13
         4   4 -7.316250E-05 -7.316250E-05 -7.339774E-14 -8.401984E-15  3.865826E-15  1.254018E-13
         4   5 -7.316250E-05 -7.316250E-05 -2.182588E-13  6.517649E-17 -2.809300E-15  9.386380E-14
         4   6 -7.316250E-05 -7.316250E-05 -1.719248E-13  2.432454E-16 -1.216870E-15  2.359846E-14
         4   7 -7.316250E-05 -7.316250E-05 -1.744207E-13  6.517649E-17 -1.449939E-14  9.386380E-14
         4   8 -7.316250E-05 -7.316250E-05 -1.525092E-13  2.432454E-16 -8.386429E-15  8.051908E-14
         5   1 -7.316250E-05 -7.316250E-05  1.194453E-13  1.225982E-13  6.002328E-15  1.403244E-13
         5   2 -7.316250E-05 -7.316250E-05 -1.810817E-13  5.254211E-14  4.540891E-14 -1.332688E-14
         5   3 -7.316250E-05 -7.316250E-05 -1.046120E-14 -1.580920E-30  1.220345E-15 -6.984402E-14
         5   4 -7.316250E-05 -7.316250E-05 -3.305142E-13 -7.005614E-14 -8.634983E-14  8.300031E-14
         5   5 -7.316250E-05 -7.316250E-05 -2.220784E-13 -1.050842E-13 -3.014111E-14 -3.423644E-14
         5   6 -7.316250E-05 -7.316250E-05  2.908667E-14 -1.050842E-13 -3.889813E-14  1.359459E-14
         5   7 -7.316250E-05 -7.316250E-05 -4.307980E-13  3.994877E-33  4.554388E-15  7.084777E-14
         5   8 -7.316250E-05 -7.316250E-05 -1.597524E-13  3.502807E-14 -1.530719E-13  5.300117E-14
         6   1 -7.316250E-05 -7.316250E-05 -5.160873E-14 -2.189254E-13 -1.237847E-13  3.167967E-14
         6   2 -7.316250E-05 -7.316250E-05 -1.136578E-13 -6.129912E-14  7.762671E-14 -1.825506E-13
         6   3 -7.316250E-05 -7.316250E-05 -5.993986E-14 -1.050842E-13  2.399482E-13  8.422178E-14
         6   4 -7.316250E-05 -7.316250E-05 -1.248640E-13  1.050842E-13  1.348640E-13 -7.746637E-14
         6   5 -7.316250E-05 -7.316250E-05  1.585597E-13 -1.751404E-13 -3.476308E-14  1.229230E-13
         6   6 -7.316250E-05 -7.316250E-05  1.884593E-13 -1.050842E-13 -3.412587E-13 -2.465808E-13
         6   7 -7.316250E-05 -7.316250E-05  1.502286E-13 -1.401123E-13 -1.020109E-14  1.929792E-13
         6   8 -7.316250E-05 -7.316250E-05 -7.232189E-14 -2.802246E-13 -1.152853E-13 -2.765535E-14
         7   1 -7.316250E-05 -7.316250E-05  1.718707E-13  5.633767E-14 -1.297882E-14 -7.487946E-14
         7   2 -7.316250E-05 -7.316250E-05 -3.219336E-13  1.885810E-14 -8.542223E-15  1.323891E-13
         7   3 -7.316250E-05 -7.316250E-05  8.270741E-14 -1.371847E-14  6.768351E-16  1.352890E-13
         7   4 -7.316250E-05 -7.316250E-05 -3.112802E-13 -5.119804E-14  2.494707E-15  1.148751E-13
         7   5 -7.316250E-05 -7.316250E-05  7.610334E-14  2.651642E-13 -5.287422E-14 -5.302896E-14
         7   6 -7.316250E-05 -7.316250E-05 -2.338036E-13  2.240184E-13 -4.843762E-14  8.032505E-14
         7   7 -7.316250E-05 -7.316250E-05 -1.855928E-14 -1.506040E-14  7.081111E-16 -1.800088E-14
         7   8 -7.316250E-05 -7.316250E-05 -2.286495E-13 -5.620619E-14  2.525983E-15  1.511894E-15
         8   1 -7.316250E-05 -7.316250E-05 -2.901663E-13  1.401123E-13 -3.183606E-14 -9.249921E-14
         8   2 -7.316250E-05 -7.316250E-05 -1.738612E-14 -6.129912E-14 -5.565012E-15 -3.937462E-14
         8   3 -7.316250E-05 -7.316250E-05 -5.982749E-13  1.401123E-13  5.631659E-14 -1.275273E-13
         8   4 -7.316250E-05 -7.316250E-05 -4.556783E-13 -1.751404E-14  9.134466E-14  3.284201E-13
         8   5 -7.316250E-05 -7.316250E-05 -5.372680E-14 -1.401123E-13  1.648462E-13 -5.811637E-14
         8   6 -7.316250E-05 -7.316250E-05  2.978665E-13 -3.502807E-14  8.603301E-14 -1.691550E-13
         8   7 -7.316250E-05 -7.316250E-05 -1.779381E-13  1.092038E-32  1.877946E-14  4.696784E-14
         8   8 -7.316250E-05 -7.316250E-05  4.347170E-14 -3.502807E-14  1.877946E-14 -2.567252E-13
         9   1 -7.316250E-05 -7.316250E-05  1.490996E-13  7.005614E-14 -1.321819E-13  1.698850E-13
         9   2 -7.316250E-05 -7.316250E-05  1.936746E-14  2.276825E-13 -2.285091E-13  1.044020E-13
         9   3 -7.316250E-05 -7.316250E-05  8.120451E-15 -2.101684E-13  1.175877E-13 -5.255376E-15
         9   4 -7.316250E-05 -7.316250E-05 -3.558934E-13  8.097610E-32  4.753160E-14  3.434588E-14
         9   5 -7.316250E-05 -7.316250E-05  1.490996E-13 -2.802246E-13 -7.548776E-14  1.555270E-13
         9   6 -7.316250E-05 -7.316250E-05 -3.221562E-13  1.401123E-13  3.325401E-15 -2.120857E-13
         9   7 -7.316250E-05 -7.316250E-05  8.120451E-15 -2.802246E-13  1.961618E-13 -1.961333E-14
         9   8 -7.316250E-05 -7.316250E-05 -4.609776E-13 -7.005614E-14 -2.942311E-13  2.170082E-13

 strains (elem, integ.pnt.,exx,eyy,ezz,exy,exz,eyz) forset EALL and time  0.4267813E+00

         1   1 -2.438750E-10 -2.438750E-10  2.090357E-10 -8.077936E-27 -3.658584E-37  4.390300E-36
         1   2 -2.438750E-10 -2.438750E-10  2.090357E-10 -3.069616E-26 -2.423381E-27 -8.077936E-27
         1   3 -2.438750E-10 -2.438750E-10  2.090357E-10 -1.292470E-26 -3.231174E-27 -2.908057E-26
         1   4 -2.438750E-10 -2.438750E-10  2.090357E-10 -3.554292E-26  1.292470E-26 -2.665719E-26
         1   5 -2.438750E-10 -2.438750E-10  2.090357E-10  3.231174E-27 -2.423381E-27  3.231174E-27
         1   6 -2.438750E-10 -2.438750E-10  2.090357E-10  6.462349E-27 -4.846761E-27 -8.077936E-28
         1   7 -2.438750E-10 -2.438750E-10  2.090357E-10  9.693523E-27 -9.693523E-27 -1.938705E-26
         1   8 -2.438750E-10 -2.438750E-10  2.090357E-10  1.292470E-26  6.462349E-27 -1.938705E-26
         2   1 -2.438750E-10 -2.438750E-10  2.090357E-10 -2.359785E-20  4.621882E-19 -2.669674E-21
         2   2 -2.438750E-10 -2.438750E-10  2.090357E-10  2.474527E-19  5.561238E-20  8.804938E-21
         2   3 -2.438750E-10 -2.438750E-10  2.090357E-10 -8.806839E-20 -1.506670E-20 -6.337586E-20
         2   4 -2.438750E-10 -2.438750E-10  2.090357E-10  4.540327E-19  5.270344E-19  9.849443E-20
         2   5 -2.438750E-10 -2.438750E-10  2.090357E-10  5.347024E-20  5.400717E-19  5.074285E-20
         2   6 -2.438750E-10 -2.438750E-10  2.090357E-10 -5.970511E-19  9.466475E-19 -5.682900E-20
         2   7 -2.438750E-10 -2.438750E-10  2.090357E-10 -6.678081E-19 -5.622971E-20 -9.963352E-21
         2   8 -2.438750E-10 -2.438750E-10  2.090357E-10 -2.341272E-19  4.858714E-19  3.286048E-20
         3   1 -2.438750E-10 -2.438750E-10  2.090357E-10 -1.185492E-18 -4.217623E-19  1.149012E-19
         3   2 -2.438750E-10 -2.438750E-10  2.090357E-10  2.067115E-18  2.829691E-19 -4.074223E-20
         3   3 -2.438750E-10 -2.438750E-10  2.090357E-10 -8.698007E-19  1.662109E-18  1.820975E-19
         3   4 -2.438750E-10 -2.438750E-10  2.090357E-10 -2.438984E-21  1.442257E-19 -1.678226E-19
         3   5 -2.438750E-10 -2.438750E-10  2.090357E-10 -1.718727E-18  4.781615E-19  3.616210E-19
         3   6 -2.438750E-10 -2.438750E-10  2.090357E-10  8.833584E-19 -1.256562E-18 -2.497172E-20
         3   7 -2.438750E-10 -2.438750E-10  2.090357E-10 -1.675023E-18  1.463722E-18  4.288172E-19
         3   8 -2.438750E-10 -2.438750E-10  2.090357E-10 -3.739804E-19 -7.046828E-19 -1.520520E-19
         4   1 -2.438750E-10 -2.438750E-10  2.090357E-10  2.029038E-19 -2.018463E-21  1.479108E-19
         4   2 -2.438750E-10 -2.438750E-10  2.090357E-10  1.648282E-19  7.839441E-21  4.510361E-19
         4   3 -2.438750E-10 -2.438750E-10  2.090357E-10 -1.393665E-20 -1.391085E-20  9.068523E-19
         4   4 -2.438750E-10 -2.438750E-10  2.090357E-10 -5.201228E-20  2.393130E-20  7.762967E-19
         4   5 -2.438750E-10 -2.438750E-10  2.090357E-10  4.034735E-22 -1.739090E-20  5.810616E-19
         4   6 -2.438750E-10 -2.438750E-10  2.090357E-10  1.505805E-21 -7.533006E-21  1.460857E-19
         4   7 -2.438750E-10 -2.438750E-10  2.090357E-10  4.034735E-22 -8.975815E-20  5.810616E-19
         4   8 -2.438750E-10 -2.438750E-10  2.090357E-10  1.505805E-21 -5.191599E-20  4.984514E-19
         5   1 -2.438750E-10 -2.438750E-10  2.090357E-10  7.589415E-19  3.715727E-20  8.686749E-19
         5   2 -2.438750E-10 -2.438750E-10  2.090357E-10  3.252607E-19  2.811028E-19 -8.249975E-20
         5   3 -2.438750E-10 -2.438750E-10  2.090357E-10  9.780133E-36  7.554515E-21 -4.323678E-19
         5   4 -2.438750E-10 -2.438750E-10  2.090357E-10 -4.336809E-19 -5.345466E-19  5.138114E-19
         5   5 -2.438750E-10 -2.438750E-10  2.090357E-10 -6.505213E-19 -1.865878E-19 -2.119398E-19
         5   6 -2.438750E-10 -2.438750E-10  2.090357E-10 -6.505213E-19 -2.407979E-19  8.415700E-20
         5   7 -2.438750E-10 -2.438750E-10  2.090357E-10  2.763330E-40  2.819383E-20  4.385815E-19
         5   8 -2.438750E-10 -2.438750E-10  2.090357E-10  2.168404E-19 -9.475881E-19  3.281025E-19
         6   1 -2.438750E-10 -2.438750E-10  2.090357E-10 -1.355253E-18 -7.662862E-19  1.961123E-19
         6   2 -2.438750E-10 -2.438750E-10  2.090357E-10 -3.794708E-19  4.805463E-19 -1.130075E-18
         6   3 -2.438750E-10 -2.438750E-10  2.090357E-10 -6.505213E-19  1.485394E-18  5.213729E-19
         6   4 -2.438750E-10 -2.438750E-10  2.090357E-10  6.505213E-19  8.348724E-19 -4.795537E-19
         6   5 -2.438750E-10 -2.438750E-10  2.090357E-10 -1.084202E-18 -2.152000E-19  7.609520E-19
         6   6 -2.438750E-10 -2.438750E-10  2.090357E-10 -6.505213E-19 -2.112554E-18 -1.526453E-18
         6   7 -2.438750E-10 -2.438750E-10  2.090357E-10 -8.673617E-19 -6.314961E-20  1.194633E-18
         6   8 -2.438750E-10 -2.438750E-10  2.090357E-10 -1.734723E-18 -7.136709E-19 -1.711998E-19
         7   1 -2.438750E-10 -2.438750E-10  2.090357E-10  3.487570E-19 -8.034508E-20 -4.635395E-19
         7   2 -2.438750E-10 -2.438750E-10  2.090357E-10  1.167406E-19 -5.288043E-20  8.195516E-19
         7   3 -2.438750E-10 -2.438750E-10  2.090357E-10 -8.492388E-20  4.189932E-21  8.375031E-19
         7   4 -2.438750E-10 -2.438750E-10  2.090357E-10 -3.169402E-19  1.544342E-20  7.111313E-19
         7   5 -2.438750E-10 -2.438750E-10  2.090357E-10  1.641492E-18 -3.273166E-19 -3.282745E-19
         7   6 -2.438750E-10 -2.438750E-10  2.090357E-10  1.386780E-18 -2.998519E-19  4.972503E-19
         7   7 -2.438750E-10 -2.438750E-10  2.090357E-10 -9.323107E-20  4.383545E-21 -1.114340E-19
         7   8 -2.438750E-10 -2.438750E-10  2.090357E-10 -3.479431E-19  1.563704E-20  9.359342E-21
         8   1 -2.438750E-10 -2.438750E-10  2.090357E-10  8.673617E-19 -1.970804E-19 -5.726142E-19
         8   2 -2.438750E-10 -2.438750E-10  2.090357E-10 -3.794708E-19 -3.445008E-20 -2.437477E-19
         8   3 -2.438750E-10 -2.438750E-10  2.090357E-10  8.673617E-19  3.486265E-19 -7.894546E-19
         8   4 -2.438750E-10 -2.438750E-10  2.090357E-10 -1.084202E-19  5.654670E-19  2.033077E-18
         8   5 -2.438750E-10 -2.438750E-10  2.090357E-10 -8.673617E-19  1.020476E-18 -3.597680E-19
         8   6 -2.438750E-10 -2.438750E-10  2.090357E-10 -2.168404E-19  5.325853E-19 -1.047150E-18
         8   7 -2.438750E-10 -2.438750E-10  2.090357E-10 -1.845860E-37  1.162538E-19  2.907533E-19
         8   8 -2.438750E-10 -2.438750E-10  2.090357E-10 -2.168404E-19  1.162538E-19 -1.589251E-18
         9   1 -2.438750E-10 -2.438750E-10  2.090357E-10  4.336809E-19 -8.182691E-19  1.051669E-18
         9   2 -2.438750E-10 -2.438750E-10  2.090357E-10  1.409463E-18 -1.414580E-18  6.462982E-19
         9   3 -2.438750E-10 -2.438750E-10  2.090357E-10 -1.301043E-18  7.279241E-19 -3.253328E-20
         9   4 -2.438750E-10 -2.438750E-10  2.090357E-10  6.164915E-38  2.942432E-19  2.126173E-19
         9   5 -2.438750E-10 -2.438750E-10  2.090357E-10 -1.734723E-18 -4.673052E-19  9.627863E-19
         9   6 -2.438750E-10 -2.438750E-10  2.090357E-10  8.673617E-19  2.058581E-20 -1.312911E-18
         9   7 -2.438750E-10 -2.438750E-10  2.090357E-10 -1.734723E-18  1.214335E-18 -1.214159E-19
         9   8 -2.438750E-10 -2.438750E-10  2.090357E-10 -4.336809E-19 -1.821431E-18  1.343384E-18

 displacements (vx,vy,vz) for set NALL and time  0.4357813E+00

         1  0.000000E+00  0.000000E+00  0.000000E+00
         2 -1.245089E-07  0.000000E+00  0.000000E+00
         3 -6.536719E+00  0.000000E+00  0.000000E+00
         4 -6.536719E+00  0.000000E+00  0.000000E+00
         5 -1.307344E+01  0.000000E+00  0.000000E+00
         6 -1.307344E+01  0.000000E+00  0.000000E+00
         7  0.000000E+00 -1.245089E-07  0.000000E+00
         8 -1.245089E-07 -1.245089E-07  0.000000E+00
         9 -6.536719E+00 -1.245089E-07  0.000000E+00
        10 -6.536719E+00 -1.245089E-07  0.000000E+00
        11 -1.307344E+01 -1.245089E-07  0.000000E+00
        12 -1.307344E+01 -1.245089E-07  0.000000E+00
        13  0.000000E+00 -6.536719E+00  0.000000E+00
        14 -1.245089E-07 -6.536719E+00  0.000000E+00
        15 -6.536719E+00 -6.536719E+00  0.000000E+00
        16 -6.536719E+00 -6.536719E+00  0.000000E+00
        17 -1.307344E+01 -6.536719E+00  0.000000E+00
        18 -1.307344E+01 -6.536719E+00  0.000000E+00
        19  0.000000E+00 -6.536719E+00  0.000000E+00
        20 -1.245089E-07 -6.536719E+00  0.000000E+00
        21 -6.536719E+00 -6.536719E+00  0.000000E+00
        22 -6.536719E+00 -6.536719E+00  0.000000E+00
        23 -1.307344E+01 -6.536719E+00  0.000000E+00
        24 -1.307344E+01 -6.536719E+00  0.000000E+00
        25  0.000000E+00 -1.307344E+01  0.000000E+00
        26 -1.245089E-07 -1.307344E+01  0.000000E+00
        27 -6.536719E+00 -1.307344E+01  0.000000E+00
        28 -6.536719E+00 -1.307344E+01  0.000000E+00
        29 -1.307344E+01 -1.307344E+01  0.000000E+00
        30 -1.307344E+01 -1.307344E+01  0.000000E+00
        31  0.000000E+00 -1.307344E+01  0.000000E+00
        32 -1.245089E-07 -1.307344E+01  0.000000E+00
        33 -6.536719E+00 -1.307344E+01  0.000000E+00
        34 -6.536719E+00 -1.307344E+01  0.000000E+00
        35 -1.307344E+01 -1.307344E+01  0.000000E+00
        36 -1.307344E+01 -1.307344E+01  0.000000E+00
        37  0.000000E+00  0.000000E+00  1.494107E-07
        38 -1.245089E-07  0.000000E+00  1.494107E-07
        39 -6.536719E+00  0.000000E+00  1.494107E-07
        40 -6.536719E+00  0.000000E+00  1.494107E-07
        41 -1.307344E+01  0.000000E+00  1.494107E-07
        42 -1.307344E+01  0.000000E+00  1.494107E-07
        43  0.000000E+00 -1.245089E-07  1.494107E-07
        44 -1.245089E-07 -1.245089E-07  1.494107E-07
        45 -6.536719E+00 -1.245089E-07  1.494107E-07
        46 -6.536719E+00 -1.245089E-07  1.494107E-07
        47 -1.307344E+01 -1.245089E-07  1.494107E-07
        48 -1.307344E+01 -1.245089E-07  1.494107E-07
        49  0.000000E+00 -6.536719E+00  1.494107E-07
        50 -1.245089E-07 -6.536719E+00  1.494107E-07
        51 -6.536719E+00 -6.536719E+00  1.494107E-07
        52 -6.536719E+00 -6.536719E+00  1.494107E-07
        53 -1.307344E+01 -6.536719E+00  1.494107E-07
        54 -1.307344E+01 -6.536719E+00  1.494107E-07
        55  0.000000E+00 -6.536719E+00  1.494107E-07
        56 -1.245089E-07 -6.536719E+00  1.494107E-07
        57 -6.536719E+00 -6.536719E+00  1.494107E-07
        58 -6.536719E+00 -6.536719E+00  1.494107E-07
        59 -1.307344E+01 -6.536719E+00  1.494107E-07
        60 -1.307344E+01 -6.536719E+00  1.494107E-07
        61  0.000000E+00 -1.307344E+01  1.494107E-07
        62 -1.245089E-07 -1.307344E+01  1.494107E-07
        63 -6.536719E+00 -1.307344E+01  1.494107E-07
        64 -6.536719E+00 -1.307344E+01  1.494107E-07
        65 -1.307344E+01 -1.307344E+01  1.494107E-07
        66 -1.307344E+01 -1.307344E+01  1.494107E-07
        67  0.000000E+00 -1.307344E+01  1.494107E-07
        68 -1.245089E-07 -1.307344E+01  1.494107E-07
        69 -6.536719E+00 -1.307344E+01  1.494107E-07
        70 -6.536719E+00 -1.307344E+01  1.494107E-07
        71 -1.307344E+01 -1.307344E+01  1.494107E-07
        72 -1.307344E+01 -1.307344E+01  1.494107E-07

 stresses (elem, integ.pnt.,sxx,syy,szz,sxy,sxz,syz) for set EALL and time  0.4357813E+00

         1   1 -7.470536E-05 -7.470536E-05 -4.216351E-47  3.653712E-21 -1.304897E-22  1.565877E-21
         1   2 -7.470536E-05 -7.470536E-05  1.355253E-20  5.219589E-21 -3.131754E-21 -2.740284E-21
         1   3 -7.470536E-05 -7.470536E-05 -2.710505E-20  1.409289E-20  1.268278E-45  7.307425E-21
         1   4 -7.470536E-05 -7.470536E-05  1.117333E-46  1.565877E-20  1.043918E-21 -6.915956E-21
         1   5 -7.470536E-05 -7.470536E-05  2.361156E-46 -1.043918E-21  1.435387E-21 -1.565877E-21
         1   6 -7.470536E-05 -7.470536E-05 -1.355253E-20  5.741548E-21 -1.565877E-21 -7.307425E-21
         1   7 -7.470536E-05 -7.470536E-05 -2.032879E-20 -6.785466E-21 -5.194544E-46  5.219589E-21
         1   8 -7.470536E-05 -7.470536E-05 -1.355253E-20 -1.630668E-45  1.043918E-21 -1.148310E-20
         2   1 -7.470536E-05 -7.470536E-05 -2.094452E-13 -6.080522E-15 -6.938626E-15  2.740997E-15
         2   2 -7.470536E-05 -7.470536E-05 -1.621322E-13  9.024667E-14 -2.007415E-14  1.465726E-15
         2   3 -7.470536E-05 -7.470536E-05 -9.922550E-14 -2.269282E-14  7.572077E-14 -7.587276E-15
         2   4 -7.470536E-05 -7.470536E-05 -8.545378E-14  7.363437E-14 -8.190555E-14  1.069847E-15
         2   5 -7.470536E-05 -7.470536E-05 -2.705411E-13 -9.908111E-16  2.195393E-14  2.055781E-14
         2   6 -7.470536E-05 -7.470536E-05 -2.023701E-13  6.906533E-14  6.573902E-14  5.866045E-15
         2   7 -7.470536E-05 -7.470536E-05 -1.734570E-13 -3.697755E-15 -4.891545E-14  1.022954E-14
         2   8 -7.470536E-05 -7.470536E-05 -1.388272E-13 -7.375390E-14  9.119683E-14  5.470165E-15
         3   1 -7.470535E-05 -7.470535E-05  6.675672E-14  6.229511E-15 -1.979207E-13  1.580005E-14
         3   2 -7.470535E-05 -7.470535E-05  1.759392E-13 -1.163687E-13 -1.015935E-13  1.967416E-16
         3   3 -7.470535E-05 -7.470535E-05  2.440289E-13  2.324885E-14 -1.564680E-14 -1.194225E-14
         3   4 -7.470535E-05 -7.470535E-05  1.626882E-13  1.458471E-13 -1.564680E-14  6.034637E-15
         3   5 -7.470535E-05 -7.470535E-05  1.135821E-13 -2.567874E-13  1.157652E-13  8.670891E-14
         3   6 -7.470535E-05 -7.470535E-05  2.932830E-13 -1.166751E-13 -3.308426E-13 -5.103644E-15
         3   7 -7.470535E-05 -7.470535E-05  2.908542E-13  8.746882E-14 -1.985069E-13  5.896661E-14
         3   8 -7.470535E-05 -7.470535E-05  2.800320E-13 -1.927557E-13  1.517738E-13  7.342516E-16
         4   1 -7.470535E-05 -7.470535E-05  3.899346E-13  3.650001E-14 -3.133266E-15 -6.203488E-14
         4   2 -7.470535E-05 -7.470535E-05  2.091869E-13  4.052141E-14 -2.444986E-15  2.341470E-14
         4   3 -7.470535E-05 -7.470535E-05  3.311298E-13  1.471936E-15  3.501117E-15 -7.954891E-14
         4   4 -7.470535E-05 -7.470535E-05  1.957098E-13  5.493336E-15  4.183819E-15 -5.539845E-14
         4   5 -7.470535E-05 -7.470535E-05  7.612733E-14  1.415814E-13 -1.238179E-14 -3.994364E-16
         4   6 -7.470535E-05 -7.470535E-05  1.580902E-13  1.455950E-13 -1.169351E-14  1.163167E-13
         4   7 -7.470535E-05 -7.470535E-05  1.731087E-14  1.469076E-15  1.238364E-14 -3.542751E-14
         4   8 -7.470535E-05 -7.470535E-05  1.446014E-13  5.482671E-15  1.306634E-14  2.436803E-14
         5   1 -7.470536E-05 -7.470536E-05 -1.100711E-13 -7.881316E-14 -6.908762E-14 -2.139328E-13
         5   2 -7.470536E-05 -7.470536E-05 -1.428626E-13  1.225982E-13  3.599659E-14 -6.448424E-14
         5   3 -7.470535E-05 -7.470535E-05  7.438635E-14 -1.050842E-13  1.547749E-15  6.629180E-14
         5   4 -7.470535E-05 -7.470535E-05  1.112287E-13  1.401123E-13 -3.348032E-14  6.687103E-14
         5   5 -7.470535E-05 -7.470535E-05  4.755520E-14 -3.502807E-14 -3.141351E-14 -2.242171E-13
         5   6 -7.470535E-05 -7.470535E-05  1.067124E-13  2.101684E-13 -4.454904E-14  5.379063E-14
         5   7 -7.470535E-05 -7.470535E-05  7.438635E-14 -1.401123E-13  7.583242E-14 -1.404872E-14
         5   8 -7.470535E-05 -7.470535E-05  1.374998E-13  1.050842E-13 -4.676583E-14 -9.945718E-14
         6   1 -7.470535E-05 -7.470535E-05  6.514161E-14  3.502807E-14  2.211357E-13 -5.692784E-14
         6   2 -7.470536E-05 -7.470536E-05 -3.071200E-14  1.751404E-14 -6.784583E-14 -9.616518E-14
         6   3 -7.470536E-05 -7.470535E-05  2.345429E-14  7.005614E-14 -1.464897E-13 -5.692784E-14
         6   4 -7.470536E-05 -7.470536E-05 -9.891777E-14  1.751404E-13  9.870674E-14  2.059519E-13
         6   5 -7.470536E-05 -7.470535E-05 -6.621366E-14 -4.203368E-13  5.902551E-15  3.148145E-14
         6   6 -7.470536E-05 -7.470535E-05  6.123669E-14 -7.005614E-14  2.341659E-14 -7.703530E-14
         6   7 -7.470535E-05 -7.470535E-05  3.387069E-13 -8.406737E-13 -2.380103E-14 -2.106066E-14
         6   8 -7.470535E-05 -7.470535E-05  1.900638E-13  1.401123E-13 -5.882910E-14  1.418901E-13
         7   1 -7.470536E-05 -7.470536E-05 -3.556666E-13 -2.639027E-13  9.334155E-15 -1.998744E-13
         7   2 -7.470535E-05 -7.470535E-05  2.050992E-13 -2.193105E-13  1.018919E-14  3.062761E-14
         7   3 -7.470536E-05 -7.470536E-05 -2.184688E-13  1.632186E-14  6.190709E-16  1.504063E-13
         7   4 -7.470535E-05 -7.470535E-05  3.017433E-13  6.091402E-14 -6.114438E-15  2.495531E-13
         7   5 -7.470536E-05 -7.470536E-05 -2.487868E-13  1.243322E-14  3.398050E-14  3.389816E-15
         7   6 -7.470536E-05 -7.470536E-05 -8.208677E-14  4.640140E-14  3.483554E-14 -1.501244E-13
         7   7 -7.470536E-05 -7.470536E-05 -1.275250E-13  1.243322E-14  9.043915E-15  3.841789E-14
         7   8 -7.470536E-05 -7.470536E-05 -1.378638E-15  4.640140E-14  2.310405E-15 -2.989937E-13
         8   1 -7.470535E-05 -7.470535E-05  1.107607E-13  2.451965E-13  9.984622E-14 -1.959954E-13
         8   2 -7.470536E-05 -7.470536E-05 -1.469160E-13  1.926544E-13  9.546771E-14  1.394796E-13
         8   3 -7.470536E-05 -7.470535E-05  1.156154E-13 -3.502807E-14  1.113116E-13  1.542853E-13
         8   4 -7.470536E-05 -7.470536E-05 -3.963495E-13 -5.254211E-14 -6.382873E-14  1.832647E-13
         8   5 -7.470536E-05 -7.470536E-05 -4.015248E-13 -2.802246E-13  1.508990E-13 -2.623583E-13
         8   6 -7.470536E-05 -7.470536E-05 -2.125937E-13 -1.751404E-13  1.465205E-13  1.360335E-13
         8   7 -7.470536E-05 -7.470536E-05 -4.201094E-14 -2.802246E-13  1.026829E-13  5.289433E-14
         8   8 -7.470535E-05 -7.470535E-05 -2.855470E-14 -2.802246E-13 -1.249996E-13 -2.755464E-13
         9   1 -7.470535E-05 -7.470536E-05 -3.123663E-13 -5.443599E-31  8.457488E-14 -3.457757E-13
         9   2 -7.470536E-05 -7.470536E-05 -2.892079E-13  1.401123E-13  3.560424E-13 -1.037376E-13
         9   3 -7.470535E-05 -7.470536E-05  1.968957E-13  3.759775E-31 -1.637800E-13 -6.555115E-14
         9   4 -7.470535E-05 -7.470535E-05  3.242240E-13  2.627105E-13  1.514727E-13  7.140278E-14
         9   5 -7.470535E-05 -7.470535E-05  2.130548E-13  1.138179E-30 -2.525721E-14 -1.420709E-13
         9   6 -7.470535E-05 -7.470535E-05  3.412974E-13  1.401123E-13 -7.743172E-15 -3.875938E-14
         9   7 -7.470535E-05 -7.470535E-05  7.223167E-13 -1.510844E-31 -8.832900E-14  1.381536E-13
         9   8 -7.470535E-05 -7.470536E-05  1.403266E-13 -2.802246E-13 -5.330093E-14 -1.701146E-13

 strains (elem, integ.pnt.,exx,eyy,ezz,exy,exz,eyz) forset EALL and time  0.4357813E+00

         1   1 -2.490179E-10 -2.490179E-10  2.134439E-10  2.261822E-26 -8.077936E-28  9.693523E-27
         1   2 -2.490179E-10 -2.490179E-10  2.134439E-10  3.231174E-26 -1.938705E-26 -1.696366E-26
         1   3 -2.490179E-10 -2.490179E-10  2.134439E-10  8.724171E-26  8.686485E-51  4.523644E-26
         1   4 -2.490179E-10 -2.490179E-10  2.134439E-10  9.693523E-26  6.462349E-27 -4.281306E-26
         1   5 -2.490179E-10 -2.490179E-10  2.134439E-10 -6.462349E-27  8.885729E-27 -9.693523E-27
         1   6 -2.490179E-10 -2.490179E-10  2.134439E-10  3.554292E-26 -9.693523E-27 -4.523644E-26
         1   7 -2.490179E-10 -2.490179E-10  2.134439E-10 -4.200527E-26 -6.013721E-51  3.231174E-26
         1   8 -2.490179E-10 -2.490179E-10  2.134439E-10  5.345529E-51  6.462349E-27 -7.108583E-26
         2   1 -2.490179E-10 -2.490178E-10  2.134439E-10 -3.764133E-20 -4.295340E-20  1.696808E-20
         2   2 -2.490179E-10 -2.490179E-10  2.134439E-10  5.586699E-19 -1.242686E-19  9.073542E-21
         2   3 -2.490179E-10 -2.490178E-10  2.134439E-10 -1.404793E-19  4.687476E-19 -4.696885E-20
         2   4 -2.490179E-10 -2.490179E-10  2.134439E-10  4.558318E-19 -5.070343E-19  6.622860E-21
         2   5 -2.490179E-10 -2.490179E-10  2.134439E-10 -6.133593E-21  1.359053E-19  1.272627E-19
         2   6 -2.490179E-10 -2.490179E-10  2.134439E-10  4.275473E-19  4.069558E-19  3.631361E-20
         2   7 -2.490179E-10 -2.490179E-10  2.134439E-10 -2.289087E-20 -3.028099E-19  6.332575E-20
         2   8 -2.490179E-10 -2.490179E-10  2.134439E-10 -4.565717E-19  5.645518E-19  3.386293E-20
         3   1 -2.490178E-10 -2.490179E-10  2.134439E-10  3.856364E-20 -1.225223E-18  9.780986E-20
         3   2 -2.490178E-10 -2.490178E-10  2.134439E-10 -7.203779E-19 -6.289122E-19  1.217924E-21
         3   3 -2.490178E-10 -2.490179E-10  2.134439E-10  1.439215E-19 -9.686114E-20 -7.392824E-20
         3   4 -2.490178E-10 -2.490178E-10  2.134439E-10  9.028630E-19 -9.686114E-20  3.735728E-20
         3   5 -2.490178E-10 -2.490179E-10  2.134439E-10 -1.589636E-18  7.166420E-19  5.367695E-19
         3   6 -2.490178E-10 -2.490178E-10  2.134439E-10 -7.222743E-19 -2.048074E-18 -3.159398E-20
         3   7 -2.490178E-10 -2.490179E-10  2.134439E-10  5.414737E-19 -1.228852E-18  3.650314E-19
         3   8 -2.490178E-10 -2.490178E-10  2.134439E-10 -1.193250E-18  9.395519E-19  4.545367E-21
         4   1 -2.490179E-10 -2.490178E-10  2.134439E-10  2.259524E-19 -1.939641E-20 -3.840254E-19
         4   2 -2.490179E-10 -2.490178E-10  2.134439E-10  2.508468E-19 -1.513563E-20  1.449482E-19
         4   3 -2.490179E-10 -2.490178E-10  2.134439E-10  9.111983E-21  2.167358E-20 -4.924457E-19
         4   4 -2.490179E-10 -2.490178E-10  2.134439E-10  3.400637E-20  2.589983E-20 -3.429428E-19
         4   5 -2.490179E-10 -2.490178E-10  2.134439E-10  8.764560E-19 -7.664915E-20 -2.472701E-21
         4   6 -2.490179E-10 -2.490178E-10  2.134439E-10  9.013021E-19 -7.238837E-20  7.200559E-19
         4   7 -2.490179E-10 -2.490178E-10  2.134439E-10  9.094282E-21  7.666063E-20 -2.193131E-19
         4   8 -2.490179E-10 -2.490178E-10  2.134439E-10  3.394034E-20  8.088690E-20  1.508497E-19
         5   1 -2.490179E-10 -2.490179E-10  2.134439E-10 -4.878910E-19 -4.276853E-19 -1.324346E-18
         5   2 -2.490179E-10 -2.490179E-10  2.134439E-10  7.589415E-19  2.228360E-19 -3.991881E-19
         5   3 -2.490178E-10 -2.490179E-10  2.134439E-10 -6.505213E-19  9.581301E-21  4.103778E-19
         5   4 -2.490178E-10 -2.490178E-10  2.134439E-10  8.673617E-19 -2.072591E-19  4.139635E-19
         5   5 -2.490179E-10 -2.490178E-10  2.134439E-10 -2.168404E-19 -1.944646E-19 -1.388011E-18
         5   6 -2.490179E-10 -2.490178E-10  2.134439E-10  1.301043E-18 -2.757798E-19  3.329896E-19
         5   7 -2.490178E-10 -2.490178E-10  2.134439E-10 -8.673617E-19  4.694388E-19 -8.696827E-20
         5   8 -2.490178E-10 -2.490178E-10  2.134439E-10  6.505213E-19 -2.895027E-19 -6.156873E-19
         6   1 -2.490179E-10 -2.490178E-10  2.134439E-10  2.168404E-19  1.368936E-18 -3.524104E-19
         6   2 -2.490179E-10 -2.490179E-10  2.134439E-10  1.084202E-19 -4.199980E-19 -5.953083E-19
         6   3 -2.490179E-10 -2.490178E-10  2.134439E-10  4.336809E-19 -9.068413E-19 -3.524104E-19
         6   4 -2.490179E-10 -2.490178E-10  2.134439E-10  1.084202E-18  6.110417E-19  1.274940E-18
         6   5 -2.490179E-10 -2.490178E-10  2.134439E-10 -2.602085E-18  3.653960E-20  1.948852E-19
         6   6 -2.490179E-10 -2.490178E-10  2.134439E-10 -4.336809E-19  1.449598E-19 -4.768852E-19
         6   7 -2.490178E-10 -2.490178E-10  2.134439E-10 -5.204170E-18 -1.473397E-19 -1.303755E-19
         6   8 -2.490178E-10 -2.490179E-10  2.134439E-10  8.673617E-19 -3.641802E-19  8.783675E-19
         7   1 -2.490179E-10 -2.490179E-10  2.134439E-10 -1.633683E-18  5.778286E-20 -1.237318E-18
         7   2 -2.490179E-10 -2.490178E-10  2.134439E-10 -1.357637E-18  6.307597E-20  1.895995E-19
         7   3 -2.490178E-10 -2.490179E-10  2.134439E-10  1.010401E-19  3.832344E-21  9.310868E-19
         7   4 -2.490178E-10 -2.490178E-10  2.134439E-10  3.770868E-19 -3.785128E-20  1.544852E-18
         7   5 -2.490179E-10 -2.490179E-10  2.134439E-10  7.696754E-20  2.103555E-19  2.098458E-20
         7   6 -2.490179E-10 -2.490179E-10  2.134439E-10  2.872468E-19  2.156486E-19 -9.293417E-19
         7   7 -2.490178E-10 -2.490179E-10  2.134439E-10  7.696754E-20  5.598614E-20  2.378250E-19
         7   8 -2.490178E-10 -2.490179E-10  2.134439E-10  2.872468E-19  1.430251E-20 -1.850914E-18
         8   1 -2.490179E-10 -2.490178E-10  2.134439E-10  1.517883E-18  6.180956E-19 -1.213305E-18
         8   2 -2.490179E-10 -2.490179E-10  2.134439E-10  1.192622E-18  5.909906E-19  8.634453E-19
         8   3 -2.490179E-10 -2.490178E-10  2.134439E-10 -2.168404E-19  6.890719E-19  9.550993E-19
         8   4 -2.490179E-10 -2.490179E-10  2.134439E-10 -3.252607E-19 -3.951302E-19  1.134496E-18
         8   5 -2.490179E-10 -2.490179E-10  2.134439E-10 -1.734723E-18  9.341368E-19 -1.624123E-18
         8   6 -2.490179E-10 -2.490179E-10  2.134439E-10 -1.084202E-18  9.070317E-19  8.421119E-19
         8   7 -2.490178E-10 -2.490179E-10  2.134439E-10 -1.734723E-18  6.356560E-19  3.274411E-19
         8   8 -2.490178E-10 -2.490178E-10  2.134439E-10 -1.734723E-18 -7.738069E-19 -1.705763E-18
         9   1 -2.490178E-10 -2.490179E-10  2.134439E-10  2.831433E-37  5.235588E-19 -2.140516E-18
         9   2 -2.490178E-10 -2.490179E-10  2.134439E-10  8.673617E-19  2.204072E-18 -6.421850E-19
         9   3 -2.490178E-10 -2.490179E-10  2.134439E-10 -1.352528E-37 -1.013876E-18 -4.057928E-19
         9   4 -2.490178E-10 -2.490178E-10  2.134439E-10  1.626303E-18  9.376879E-19  4.420172E-19
         9   5 -2.490178E-10 -2.490178E-10  2.134439E-10  3.943677E-36 -1.563541E-19 -8.794866E-19
         9   6 -2.490178E-10 -2.490178E-10  2.134439E-10  8.673617E-19 -4.793392E-20 -2.399390E-19
         9   7 -2.490178E-10 -2.490178E-10  2.134439E-10 -1.883829E-36 -5.467986E-19  8.552368E-19
         9   8 -2.490178E-10 -2.490179E-10  2.134439E-10 -1.734723E-18 -3.299581E-19 -1.053091E-18

 displacements (vx,vy,vz) for set NALL and time  0.4447813E+00

         1  0.000000E+00  0.000000E+00  0.000000E+00
         2 -1.270804E-07  0.000000E+00  0.000000E+00
         3 -6.671719E+00  0.000000E+00  0.000000E+00
         4 -6.671719E+00  0.000000E+00  0.000000E+00
         5 -1.334344E+01  0.000000E+00  0.000000E+00
         6 -1.334344E+01  0.000000E+00  0.000000E+00
         7  0.000000E+00 -1.270804E-07  0.000000E+00
         8 -1.270804E-07 -1.270804E-07  0.000000E+00
         9 -6.671719E+00 -1.270804E-07  0.000000E+00
        10 -6.671719E+00 -1.270804E-07  0.000000E+00
        11 -1.334344E+01 -1.270804E-07  0.000000E+00
        12 -1.334344E+01 -1.270804E-07  0.000000E+00
        13  0.000000E+00 -6.671719E+00  0.000000E+00
        14 -1.270804E-07 -6.671719E+00  0.000000E+00
        15 -6.671719E+00 -6.671719E+00  0.000000E+00
        16 -6.671719E+00 -6.671719E+00  0.000000E+00
        17 -1.334344E+01 -6.671719E+00  0.000000E+00
        18 -1.334344E+01 -6.671719E+00  0.000000E+00
        19  0.000000E+00 -6.671719E+00  0.000000E+00
        20 -1.270804E-07 -6.671719E+00  0.000000E+00
        21 -6.671719E+00 -6.671719E+00  0.000000E+00
        22 -6.671719E+00 -6.671719E+00  0.000000E+00
        23 -1.334344E+01 -6.671719E+00  0.000000E+00
        24 -1.334344E+01 -6.671719E+00  0.000000E+00
        25  0.000000E+00 -1.334344E+01  0.000000E+00
        26 -1.270804E-07 -1.334344E+01  0.000000E+00
        27 -6.671719E+00 -1.334344E+01  0.000000E+00
        28 -6.671719E+00 -1.334344E+01  0.000000E+00
        29 -1.334344E+01 -1.334344E+01  0.000000E+00
        30 -1.334344E+01 -1.334344E+01  0.000000E+00
        31  0.000000E+00 -1.334344E+01  0.000000E+00
        32 -1.270804E-07 -1.334344E+01  0.000000E+00
        33 -6.671719E+00 -1.334344E+01  0.000000E+00
        34 -6.671719E+00 -1.334344E+01  0.000000E+00
        35 -1.334344E+01 -1.334344E+01  0.000000E+00
        36 -1.334344E+01 -1.334344E+01  0.000000E+00
        37  0.000000E+00  0.000000E+00  1.524964E-07
        38 -1.270804E-07  0.000000E+00  1.524964E-07
        39 -6.671719E+00  0.000000E+00  1.524964E-07
        40 -6.671719E+00  0.000000E+00  1.524964E-07
        41 -1.334344E+01  0.000000E+00  1.524964E-07
        42 -1.334344E+01  0.000000E+00  1.524964E-07
        43  0.000000E+00 -1.270804E-07  1.524964E-07
        44 -1.270804E-07 -1.270804E-07  1.524964E-07
        45 -6.671719E+00 -1.270804E-07  1.524964E-07
        46 -6.671719E+00 -1.270804E-07  1.524964E-07
        47 -1.334344E+01 -1.270804E-07  1.524964E-07
        48 -1.334344E+01 -1.270804E-07  1.524964E-07
        49  0.000000E+00 -6.671719E+00  1.524964E-07
        50 -1.270804E-07 -6.671719E+00  1.524964E-07
        51 -6.671719E+00 -6.671719E+00  1.524964E-07
        52 -6.671719E+00 -6.671719E+00  1.524964E-07
        53 -1.334344E+01 -6.671719E+00  1.524964E-07
        54 -1.334344E+01 -6.671719E+00  1.524964E-07
        55  0.000000E+00 -6.671719E+00  1.524964E-07
        56 -1.270804E-07 -6.671719E+00  1.524964E-07
        57 -6.671719E+00 -6.671719E+00  1.524964E-07
        58 -6.671719E+00 -6.671719E+00  1.524964E-07
        59 -1.334344E+01 -6.671719E+00  1.524964E-07
        60 -1.334344E+01 -6.671719E+00  1.524964E-07
        61  0.000000E+00 -1.334344E+01  1.524964E-07
        62 -1.270804E-07 -1.334344E+01  1.524964E-07
        63 -6.671719E+00 -1.334344E+01  1.524964E-07
        64 -6.671719E+00 -1.334344E+01  1.524964E-07
        65 -1.334344E+01 -1.334344E+01  1.524964E-07
        66 -1.334344E+01 -1.334344E+01  1.524964E-07
        67  0.000000E+00 -1.334344E+01  1.524964E-07
        68 -1.270804E-07 -1.334344E+01  1.524964E-07
        69 -6.671719E+00 -1.334344E+01  1.524964E-07
        70 -6.671719E+00 -1.334344E+01  1.524964E-07
        71 -1.334344E+01 -1.334344E+01  1.524964E-07
        72 -1.334344E+01 -1.334344E+01  1.524964E-07

 stresses (elem, integ.pnt.,sxx,syy,szz,sxy,sxz,syz) for set EALL and time  0.4447813E+00

         1   1 -7.624821E-05 -7.624821E-05  1.355253E-20 -2.609795E-22 -5.219589E-22  2.609795E-21
         1   2 -7.624821E-05 -7.624821E-05  1.355253E-20 -3.784202E-21  6.524487E-22 -2.479305E-21
         1   3 -7.624821E-05 -7.624821E-05  1.355253E-20  9.134281E-22 -5.219589E-22  2.609795E-21
         1   4 -7.624821E-05 -7.624821E-05 -6.139006E-46 -2.609795E-21  7.829384E-21 -7.307425E-21
         1   5 -7.624821E-05 -7.624821E-05  1.355253E-20  1.043918E-21  3.914692E-22  8.351343E-21
         1   6 -7.624821E-05 -7.624821E-05  7.943604E-46  1.096114E-20  1.565877E-21 -6.654976E-21
         1   7 -7.624821E-05 -7.624821E-05  1.355253E-20 -3.653712E-21 -9.395261E-21  9.395261E-21
         1   8 -7.624821E-05 -7.624821E-05  2.307187E-45  6.263507E-21 -3.131754E-21 -1.148310E-20
         2   1 -7.624821E-05 -7.624821E-05  1.398360E-13 -3.728309E-14 -6.890018E-14  5.499146E-15
         2   2 -7.624821E-05 -7.624821E-05  1.384901E-13  6.501997E-15 -8.203570E-14 -3.172834E-15
         2   3 -7.624821E-05 -7.624821E-05  2.471901E-13 -4.344392E-14 -8.122424E-14 -1.401715E-15
         2   4 -7.624821E-05 -7.624821E-05  1.616694E-13  3.536923E-14 -6.371020E-14 -9.603026E-17
         2   5 -7.624821E-05 -7.624821E-05 -8.482422E-14  2.857890E-15 -6.574202E-14  2.742395E-14
         2   6 -7.624821E-05 -7.624821E-05 -6.521700E-14  2.857890E-15 -1.576907E-13 -1.491798E-14
         2   7 -7.624821E-05 -7.624821E-05 -8.255431E-14  1.066579E-14  2.837624E-14  2.052309E-14
         2   8 -7.624821E-05 -7.624821E-05 -1.471220E-13  4.569386E-14 -2.168203E-13 -1.184118E-14
         3   1 -7.624821E-05 -7.624821E-05 -2.346234E-13  5.852778E-15 -1.943449E-13  1.336788E-14
         3   2 -7.624821E-05 -7.624821E-05 -1.025618E-13  9.342295E-14  6.836561E-14  8.009277E-17
         3   3 -7.624821E-05 -7.624821E-05 -1.428022E-13  2.184287E-14 -2.008601E-14 -1.836415E-14
         3   4 -7.624821E-05 -7.624821E-05 -2.560071E-13  9.189901E-14  1.550543E-13  3.015175E-14
         3   5 -7.624821E-05 -7.624821E-05  1.453472E-13 -2.427014E-13 -1.511143E-13  8.162164E-14
         3   6 -7.624821E-05 -7.624821E-05  4.071966E-13 -2.427014E-13 -2.824696E-13 -2.977275E-14
         3   7 -7.624821E-05 -7.624821E-05  1.058131E-13  1.400385E-13 -7.496200E-14  4.988961E-14
         3   8 -7.624821E-05 -7.624821E-05  1.223961E-13 -7.382378E-17  3.012221E-14  2.989113E-16
         4   1 -7.624821E-05 -7.624821E-05 -4.118791E-13  2.706841E-14  7.865619E-16 -1.989774E-13
         4   2 -7.624821E-05 -7.624821E-05 -2.170022E-13  5.322213E-15 -1.196476E-14  4.876381E-14
         4   3 -7.624821E-05 -7.624821E-05 -2.484389E-13 -4.298773E-14 -2.907003E-16  2.870510E-14
         4   4 -7.624821E-05 -7.624821E-05 -1.258989E-13 -6.473393E-14  1.294961E-14  1.811424E-14
         4   5 -7.624821E-05 -7.624821E-05 -1.832004E-14  1.454717E-13  1.568681E-14  1.071289E-13
         4   6 -7.624821E-05 -7.624821E-05 -1.912378E-13  1.601137E-13  2.935488E-15  5.884626E-14
         4   7 -7.624821E-05 -7.624821E-05  1.997026E-13 -1.347529E-13 -1.432522E-14  3.707276E-14
         4   8 -7.624821E-05 -7.624821E-05 -4.555214E-14 -1.201108E-13 -1.084908E-15  1.376594E-13
         5   1 -7.624821E-05 -7.624821E-05  1.270928E-13 -3.152526E-13 -1.664150E-13 -4.152476E-14
         5   2 -7.624821E-05 -7.624821E-05 -7.602230E-14 -1.138412E-13 -3.164676E-17 -1.610441E-14
         5   3 -7.624821E-05 -7.624821E-05  3.336979E-13 -4.553649E-13 -1.401788E-14 -1.290949E-13
         5   4 -7.624821E-05 -7.624821E-05 -6.416303E-14 -2.539535E-13  1.260944E-13 -2.923994E-14
         5   5 -7.624821E-05 -7.624821E-05  3.635323E-13 -1.401123E-13 -5.500665E-14 -2.215932E-13
         5   6 -7.624821E-05 -7.624821E-05  3.705856E-13 -3.502807E-14 -7.689919E-14  8.780436E-15
         5   7 -7.624821E-05 -7.624821E-05  2.286137E-13 -1.401123E-13 -1.223716E-13 -9.899500E-14
         5   8 -7.624821E-05 -7.624821E-05  2.904961E-13  2.634135E-30  8.779685E-14  1.313787E-13
         6   1 -7.624821E-05 -7.624821E-05  3.229667E-13  2.276825E-13  2.037686E-13  7.772304E-14
         6   2 -7.624821E-05 -7.624821E-05  2.557907E-13  3.502807E-14  1.337124E-13 -1.009879E-13
         6   3 -7.624821E-05 -7.624821E-05  1.008899E-13  7.005614E-14  1.170064E-13 -1.849875E-13
         6   4 -7.624821E-05 -7.624821E-05 -3.853145E-13 -1.751404E-14  2.921467E-13  1.485871E-13
         6   5 -7.624821E-05 -7.624821E-05 -5.439780E-13 -2.101684E-13  3.520385E-13 -2.862170E-14
         6   6 -7.624821E-05 -7.624821E-05  7.189332E-14  5.737953E-32 -6.999186E-15 -2.129391E-13
         6   7 -7.624821E-05 -7.624821E-05 -1.618206E-13  1.021481E-30 -8.623241E-14 -4.613574E-14
         6   8 -7.624821E-05 -7.624821E-05 -5.692635E-14  3.502807E-13 -1.913166E-13  5.986305E-15
         7   1 -7.624821E-05 -7.624821E-05  2.071771E-13  5.312035E-14 -2.199883E-15 -2.003787E-13
         7   2 -7.624821E-05 -7.624821E-05  2.199252E-13  6.850904E-15  1.821593E-14 -2.522987E-14
         7   3 -7.624821E-05 -7.624821E-05  2.046379E-13 -1.693579E-14 -9.825882E-16  9.789711E-15
         7   4 -7.624821E-05 -7.624821E-05  2.174440E-13 -6.320524E-14  2.273576E-14  1.499105E-13
         7   5 -7.624821E-05 -7.624821E-05 -2.753707E-13  2.649811E-13 -2.862589E-14 -3.352044E-14
         7   6 -7.624821E-05 -7.624821E-05 -2.363516E-13  2.233352E-13 -8.210077E-15 -5.100281E-14
         7   7 -7.624821E-05 -7.624821E-05  1.493622E-13 -1.524346E-14 -2.738542E-14  3.653570E-14
         7   8 -7.624821E-05 -7.624821E-05  1.884394E-13 -5.688936E-14 -3.667070E-15  3.656736E-14
         8   1 -7.624821E-05 -7.624821E-05 -4.582111E-13 -7.005614E-14 -9.499150E-14 -5.972888E-13
         8   2 -7.624821E-05 -7.624821E-05 -1.148339E-13  2.627105E-14  5.387780E-14 -1.570878E-13
         8   3 -7.624821E-05 -7.624821E-05  3.137242E-14 -1.401123E-13  4.747083E-14  3.321651E-14
         8   4 -7.624821E-05 -7.624821E-05 -1.228881E-13 -3.502807E-14 -7.512742E-14  1.231367E-13
         8   5 -7.624821E-05 -7.624821E-05 -3.787423E-14 -1.401123E-13 -4.521080E-14 -2.263150E-13
         8   6 -7.624821E-05 -7.624821E-05  1.652137E-14 -2.451965E-13 -1.425715E-15 -1.778236E-13
         8   7 -7.624821E-05 -7.624821E-05  3.466250E-13 -1.401123E-13 -1.423340E-14  1.239657E-13
         8   8 -7.624821E-05 -7.624821E-05 -1.780393E-14 -3.502807E-13  1.083648E-13  2.074852E-13
         9   1 -7.624821E-05 -7.624821E-05 -5.470727E-14  3.502807E-13 -2.196676E-13 -1.975121E-13
         9   2 -7.624821E-05 -7.624821E-05  2.247428E-13  1.576263E-13 -6.204124E-14 -2.831538E-14
         9   3 -7.624821E-05 -7.624821E-05 -4.674127E-13  2.802246E-13  1.509405E-13 -1.274559E-13
         9   4 -7.624821E-05 -7.624821E-05  3.946771E-13  1.926544E-13  2.209967E-13  2.781802E-13
         9   5 -7.624821E-05 -7.624821E-05 -1.335204E-13  2.802246E-13  9.527528E-14 -1.629342E-13
         9   6 -7.624821E-05 -7.624821E-05 -1.693230E-13  2.212688E-30 -6.235104E-14 -1.039567E-13
         9   7 -7.624821E-05 -7.624821E-05 -2.572442E-13  3.577038E-31 -9.970075E-14 -9.287806E-14
         9   8 -7.624821E-05 -7.624821E-05 -1.832860E-13 -1.401123E-13 -2.964460E-14 -7.629525E-15

 strains (elem, integ.pnt.,exx,eyy,ezz,exy,exz,eyz) forset EALL and time  0.4447813E+00

         1   1 -2.541607E-10 -2.541607E-10  2.178520E-10 -1.615587E-27 -3.231174E-27  1.615587E-26
         1   2 -2.541607E-10 -2.541607E-10  2.178520E-10 -2.342601E-26  4.038968E-27 -1.534808E-26
         1   3 -2.541607E-10 -2.541607E-10  2.178520E-10  5.654555E-27 -3.231174E-27  1.615587E-26
         1   4 -2.541607E-10 -2.541607E-10  2.178520E-10 -1.615587E-26  4.846761E-26 -4.523644E-26
         1   5 -2.541607E-10 -2.541607E-10  2.178520E-10  6.462349E-27  2.423381E-27  5.169879E-26
         1   6 -2.541607E-10 -2.541607E-10  2.178520E-10  6.785466E-26  9.693523E-27 -4.119747E-26
         1   7 -2.541607E-10 -2.541607E-10  2.178520E-10 -2.261822E-26 -5.816114E-26  5.816114E-26
         1   8 -2.541607E-10 -2.541607E-10  2.178520E-10  3.877409E-26 -1.938705E-26 -7.108583E-26
         2   1 -2.541607E-10 -2.541607E-10  2.178520E-10 -2.308001E-19 -4.265249E-19  3.404233E-20
         2   2 -2.541607E-10 -2.541607E-10  2.178520E-10  4.025046E-20 -5.078401E-19 -1.964136E-20
         2   3 -2.541607E-10 -2.541607E-10  2.178520E-10 -2.689386E-19 -5.028167E-19 -8.677286E-21
         2   4 -2.541607E-10 -2.541607E-10  2.178520E-10  2.189524E-19 -3.943965E-19 -5.944731E-22
         2   5 -2.541607E-10 -2.541607E-10  2.178520E-10  1.769170E-20 -4.069744E-19  1.697673E-19
         2   6 -2.541607E-10 -2.541607E-10  2.178520E-10  1.769170E-20 -9.761806E-19 -9.234942E-20
         2   7 -2.541607E-10 -2.541607E-10  2.178520E-10  6.602631E-20  1.756624E-19  1.270477E-19
         2   8 -2.541607E-10 -2.541607E-10  2.178520E-10  2.828667E-19 -1.342221E-18 -7.330254E-20
         3   1 -2.541607E-10 -2.541607E-10  2.178520E-10  3.623148E-20 -1.203088E-18  8.275354E-20
         3   2 -2.541607E-10 -2.541607E-10  2.178520E-10  5.783326E-19  4.232157E-19  4.958124E-22
         3   3 -2.541607E-10 -2.541607E-10  2.178520E-10  1.352177E-19 -1.243420E-19 -1.136829E-19
         3   4 -2.541607E-10 -2.541607E-10  2.178520E-10  5.688986E-19  9.598602E-19  1.866537E-19
         3   5 -2.541607E-10 -2.541607E-10  2.178520E-10 -1.502437E-18 -9.354695E-19  5.052768E-19
         3   6 -2.541607E-10 -2.541607E-10  2.178520E-10 -1.502437E-18 -1.748621E-18 -1.843075E-19
         3   7 -2.541607E-10 -2.541607E-10  2.178520E-10  8.669047E-19 -4.640505E-19  3.088404E-19
         3   8 -2.541607E-10 -2.541607E-10  2.178520E-10 -4.570044E-22  1.864708E-19  1.850403E-21
         4   1 -2.541607E-10 -2.541607E-10  2.178520E-10  1.675663E-19  4.869193E-21 -1.231765E-18
         4   2 -2.541607E-10 -2.541607E-10  2.178520E-10  3.294703E-20 -7.406756E-20  3.018712E-19
         4   3 -2.541607E-10 -2.541607E-10  2.178520E-10 -2.661145E-19 -1.799573E-21  1.776983E-19
         4   4 -2.541607E-10 -2.541607E-10  2.178520E-10 -4.007338E-19  8.016425E-20  1.121358E-19
         4   5 -2.541607E-10 -2.541607E-10  2.178520E-10  9.005388E-19  9.710882E-20  6.631789E-19
         4   6 -2.541607E-10 -2.541607E-10  2.178520E-10  9.911803E-19  1.817207E-20  3.642864E-19
         4   7 -2.541607E-10 -2.541607E-10  2.178520E-10 -8.341847E-19 -8.867992E-20  2.294980E-19
         4   8 -2.541607E-10 -2.541607E-10  2.178520E-10 -7.435432E-19 -6.716099E-21  8.521773E-19
         5   1 -2.541607E-10 -2.541607E-10  2.178520E-10 -1.951564E-18 -1.030188E-18 -2.570581E-19
         5   2 -2.541607E-10 -2.541607E-10  2.178520E-10 -7.047314E-19 -1.959085E-22 -9.969399E-20
         5   3 -2.541607E-10 -2.541607E-10  2.178520E-10 -2.818926E-18 -8.677733E-20 -7.991591E-19
         5   4 -2.541607E-10 -2.541607E-10  2.178520E-10 -1.572093E-18  7.805844E-19 -1.810092E-19
         5   5 -2.541607E-10 -2.541607E-10  2.178520E-10 -8.673617E-19 -3.405173E-19 -1.371768E-18
         5   6 -2.541607E-10 -2.541607E-10  2.178520E-10 -2.168404E-19 -4.760426E-19  5.435508E-20
         5   7 -2.541607E-10 -2.541607E-10  2.178520E-10 -8.673617E-19 -7.575383E-19 -6.128262E-19
         5   8 -2.541607E-10 -2.541607E-10  2.178520E-10 -1.336623E-35  5.435043E-19  8.132966E-19
         6   1 -2.541607E-10 -2.541607E-10  2.178520E-10  1.409463E-18  1.261425E-18  4.811427E-19
         6   2 -2.541607E-10 -2.541607E-10  2.178520E-10  2.168404E-19  8.277437E-19 -6.251629E-19
         6   3 -2.541607E-10 -2.541607E-10  2.178520E-10  4.336809E-19  7.243252E-19 -1.145161E-18
         6   4 -2.541607E-10 -2.541607E-10  2.178520E-10 -1.084202E-19  1.808527E-18  9.198252E-19
         6   5 -2.541607E-10 -2.541607E-10  2.178520E-10 -1.301043E-18  2.179286E-18 -1.771820E-19
         6   6 -2.541607E-10 -2.541607E-10  2.178520E-10 -5.917660E-38 -4.332830E-20 -1.318195E-18
         6   7 -2.541607E-10 -2.541607E-10  2.178520E-10 -6.639640E-36 -5.338197E-19 -2.856022E-19
         6   8 -2.541607E-10 -2.541607E-10  2.178520E-10  2.168404E-18 -1.184341E-18  3.705808E-20
         7   1 -2.541607E-10 -2.541607E-10  2.178520E-10  3.288402E-19 -1.361833E-20 -1.240440E-18
         7   2 -2.541607E-10 -2.541607E-10  2.178520E-10  4.241036E-20  1.127653E-19 -1.561849E-19
         7   3 -2.541607E-10 -2.541607E-10  2.178520E-10 -1.048406E-19 -6.082689E-21  6.060297E-20
         7   4 -2.541607E-10 -2.541607E-10  2.178520E-10 -3.912705E-19  1.407452E-19  9.280172E-19
         7   5 -2.541607E-10 -2.541607E-10  2.178520E-10  1.640359E-18 -1.772079E-19 -2.075075E-19
         7   6 -2.541607E-10 -2.541607E-10  2.178520E-10  1.382551E-18 -5.082429E-20 -3.157317E-19
         7   7 -2.541607E-10 -2.541607E-10  2.178520E-10 -9.436427E-20 -1.695288E-19  2.261734E-19
         7   8 -2.541607E-10 -2.541607E-10  2.178520E-10 -3.521722E-19 -2.270091E-20  2.263694E-19
         8   1 -2.541607E-10 -2.541607E-10  2.178520E-10 -4.336809E-19 -5.880426E-19 -3.697502E-18
         8   2 -2.541607E-10 -2.541607E-10  2.178520E-10  1.626303E-19  3.335292E-19 -9.724485E-19
         8   3 -2.541607E-10 -2.541607E-10  2.178520E-10 -8.673617E-19  2.938670E-19  2.056260E-19
         8   4 -2.541607E-10 -2.541607E-10  2.178520E-10 -2.168404E-19 -4.650745E-19  7.622750E-19
         8   5 -2.541607E-10 -2.541607E-10  2.178520E-10 -8.673617E-19 -2.798764E-19 -1.400998E-18
         8   6 -2.541607E-10 -2.541607E-10  2.178520E-10 -1.517883E-18 -8.825856E-21 -1.100813E-18
         8   7 -2.541607E-10 -2.541607E-10  2.178520E-10 -8.673617E-19 -8.811155E-20  7.674067E-19
         8   8 -2.541607E-10 -2.541607E-10  2.178520E-10 -2.168404E-18  6.708300E-19  1.284432E-18
         9   1 -2.541607E-10 -2.541607E-10  2.178520E-10  2.168404E-18 -1.359847E-18 -1.222694E-18
         9   2 -2.541607E-10 -2.541607E-10  2.178520E-10  9.757820E-19 -3.840648E-19 -1.752857E-19
         9   3 -2.541607E-10 -2.541607E-10  2.178520E-10  1.734723E-18  9.343937E-19 -7.890128E-19
         9   4 -2.541607E-10 -2.541607E-10  2.178520E-10  1.192622E-18  1.368075E-18  1.722068E-18
         9   5 -2.541607E-10 -2.541607E-10  2.178520E-10  1.734723E-18  5.897993E-19 -1.008640E-18
         9   6 -2.541607E-10 -2.541607E-10  2.178520E-10 -1.209278E-35 -3.859826E-19 -6.435416E-19
         9   7 -2.541607E-10 -2.541607E-10  2.178520E-10  1.462986E-37 -6.171951E-19 -5.749594E-19
         9   8 -2.541607E-10 -2.541607E-10  2.178520E-10 -8.673617E-19 -1.835142E-19 -4.723039E-20

 displacements (vx,vy,vz) for set NALL and time  0.4537813E+00

         1  0.000000E+00  0.000000E+00  0.000000E+00
         2 -1.296518E-07  0.000000E+00  0.000000E+00
         3 -6.806719E+00  0.000000E+00  0.000000E+00
         4 -6.806719E+00  0.000000E+00  0.000000E+00
         5 -1.361344E+01  0.000000E+00  0.000000E+00
         6 -1.361344E+01  0.000000E+00  0.000000E+00
         7  0.000000E+00 -1.296518E-07  0.000000E+00
         8 -1.296518E-07 -1.296518E-07  0.000000E+00
         9 -6.806719E+00 -1.296518E-07  0.000000E+00
        10 -6.806719E+00 -1.296518E-07  0.000000E+00
        11 -1.361344E+01 -1.296518E-07  0.000000E+00
        12 -1.361344E+01 -1.296518E-07  0.000000E+00
        13  0.000000E+00 -6.806719E+00  0.000000E+00
        14 -1.296518E-07 -6.806719E+00  0.000000E+00
        15 -6.806719E+00 -6.806719E+00  0.000000E+00
        16 -6.806719E+00 -6.806719E+00  0.000000E+00
        17 -1.361344E+01 -6.806719E+00  0.000000E+00
        18 -1.361344E+01 -6.806719E+00  0.000000E+00
        19  0.000000E+00 -6.806719E+00  0.000000E+00
        20 -1.296518E-07 -6.806719E+00  0.000000E+00
        21 -6.806719E+00 -6.806719E+00  0.000000E+00
        22 -6.806719E+00 -6.806719E+00  0.000000E+00
        23 -1.361344E+01 -6.806719E+00  0.000000E+00
        24 -1.361344E+01 -6.806719E+00  0.000000E+00
        25  0.000000E+00 -1.361344E+01  0.000000E+00
        26 -1.296518E-07 -1.361344E+01  0.000000E+00
        27 -6.806719E+00 -1.361344E+01  0.000000E+00
        28 -6.806719E+00 -1.361344E+01  0.000000E+00
        29 -1.361344E+01 -1.361344E+01  0.000000E+00
        30 -1.361344E+01 -1.361344E+01  0.000000E+00
        31  0.000000E+00 -1.361344E+01  0.000000E+00
        32 -1.296518E-07 -1.361344E+01  0.000000E+00
        33 -6.806719E+00 -1.361344E+01  0.000000E+00
        34 -6.806719E+00 -1.361344E+01  0.000000E+00
        35 -1.361344E+01 -1.361344E+01  0.000000E+00
        36 -1.361344E+01 -1.361344E+01  0.000000E+00
        37  0.000000E+00  0.000000E+00  1.555821E-07
        38 -1.296518E-07  0.000000E+00  1.555821E-07
        39 -6.806719E+00  0.000000E+00  1.555821E-07
        40 -6.806719E+00  0.000000E+00  1.555821E-07
        41 -1.361344E+01  0.000000E+00  1.555821E-07
        42 -1.361344E+01  0.000000E+00  1.555821E-07
        43  0.000000E+00 -1.296518E-07  1.555821E-07
        44 -1.296518E-07 -1.296518E-07  1.555821E-07
        45 -6.806719E+00 -1.296518E-07  1.555821E-07
        46 -6.806719E+00 -1.296518E-07  1.555821E-07
        47 -1.361344E+01 -1.296518E-07  1.555821E-07
        48 -1.361344E+01 -1.296518E-07  1.555821E-07
        49  0.000000E+00 -6.806719E+00  1.555821E-07
        50 -1.296518E-07 -6.806719E+00  1.555821E-07
        51 -6.806719E+00 -6.806719E+00  1.555821E-07
        52 -6.806719E+00 -6.806719E+00  1.555821E-07
        53 -1.361344E+01 -6.806719E+00  1.555821E-07
        54 -1.361344E+01 -6.806719E+00  1.555821E-07
        55  0.000000E+00 -6.806719E+00  1.555821E-07
        56 -1.296518E-07 -6.806719E+00  1.555821E-07
        57 -6.806719E+00 -6.806719E+00  1.555821E-07
        58 -6.806719E+00 -6.806719E+00  1.555821E-07
        59 -1.361344E+01 -6.806719E+00  1.555821E-07
        60 -1.361344E+01 -6.806719E+00  1.555821E-07
        61  0.000000E+00 -1.361344E+01  1.555821E-07
        62 -1.296518E-07 -1.361344E+01  1.555821E-07
        63 -6.806719E+00 -1.361344E+01  1.555821E-07
        64 -6.806719E+00 -1.361344E+01  1.555821E-07
        65 -1.361344E+01 -1.361344E+01  1.555821E-07
        66 -1.361344E+01 -1.361344E+01  1.555821E-07
        67  0.000000E+00 -1.361344E+01  1.555821E-07
        68 -1.296518E-07 -1.361344E+01  1.555821E-07
        69 -6.806719E+00 -1.361344E+01  1.555821E-07
        70 -6.806719E+00 -1.361344E+01  1.555821E-07
        71 -1.361344E+01 -1.361344E+01  1.555821E-07
        72 -1.361344E+01 -1.361344E+01  1.555821E-07

 stresses (elem, integ.pnt.,sxx,syy,szz,sxy,sxz,syz) for set EALL and time  0.4537813E+00

         1   1 -7.779107E-05 -7.779107E-05  1.016140E-46 -1.304897E-21  1.957346E-21  2.087836E-21
         1   2 -7.779107E-05 -7.779107E-05 -1.355253E-20 -1.304897E-22  7.698894E-21  5.219589E-22
         1   3 -7.779107E-05 -7.779107E-05 -6.071545E-47 -6.915956E-21  5.219589E-22 -1.043918E-21
         1   4 -7.779107E-05 -7.779107E-05 -6.703997E-47 -5.741548E-21  4.697630E-21 -3.914692E-22
         1   5 -7.779107E-05 -7.779107E-05  9.512087E-46 -2.087836E-21  1.565877E-21  6.263507E-21
         1   6 -7.779107E-05 -7.779107E-05  3.238157E-46 -3.653712E-21  7.307425E-21  4.045182E-21
         1   7 -7.779107E-05 -7.779107E-05  6.746161E-46 -7.307425E-21 -5.219589E-22  4.175671E-21
         1   8 -7.779107E-05 -7.779107E-05  1.079386E-46 -8.351343E-21  4.175671E-21  3.131754E-21
         2   1 -7.779107E-05 -7.779107E-05  1.316461E-13  1.498585E-13  1.097324E-13  2.771341E-17
         2   2 -7.779107E-05 -7.779107E-05  8.371109E-14  1.323444E-13  9.659684E-14  9.151101E-16
         2   3 -7.779107E-05 -7.779107E-05  1.859667E-13  1.764855E-13  6.761721E-14  9.900448E-15
         2   4 -7.779107E-05 -7.779107E-05  2.092491E-13  6.264430E-14  1.507510E-14 -1.527469E-14
         2   5 -7.779107E-05 -7.779107E-05  2.102357E-14 -1.437215E-13  7.458213E-14 -9.769307E-15
         2   6 -7.779107E-05 -7.779107E-05 -8.164275E-14 -3.609190E-15 -1.618573E-13  1.960504E-14
         2   7 -7.779107E-05 -7.779107E-05 -5.601109E-14 -1.535820E-13  1.310101E-13  1.034283E-16
         2   8 -7.779107E-05 -7.779107E-05 -8.746004E-14 -1.346968E-14  8.411817E-15  3.415233E-15
         3   1 -7.779107E-05 -7.779107E-05 -1.161956E-13 -6.754045E-14  7.750445E-14  4.156118E-15
         3   2 -7.779107E-05 -7.779107E-05 -5.501326E-14  2.652262E-13  1.037755E-13  1.786417E-14
         3   3 -7.779107E-05 -7.779107E-05  1.973183E-13 -6.066747E-14 -4.277313E-13 -3.633578E-14
         3   4 -7.779107E-05 -7.779107E-05  1.571223E-13  2.370711E-13  9.768971E-14  5.537470E-14
         3   5 -7.779107E-05 -7.779107E-05 -2.274997E-13 -2.377377E-13 -7.728674E-14  5.600273E-14
         3   6 -7.779107E-05 -7.779107E-05 -2.512205E-15 -2.756924E-14  1.028344E-14  2.915947E-14
         3   7 -7.779107E-05 -7.779107E-05 -9.788314E-14 -1.216613E-13 -2.759665E-14  1.551084E-14
         3   8 -7.779107E-05 -7.779107E-05  2.572604E-14 -5.160514E-14  1.475437E-13  6.667001E-14
         4   1 -7.779107E-05 -7.779107E-05  2.471974E-14 -1.073403E-13 -7.500222E-16  1.799836E-13
         4   2 -7.779107E-05 -7.779107E-05  3.219538E-13 -1.135039E-13 -6.100122E-15  2.681086E-14
         4   3 -7.779107E-05 -7.779107E-05  4.855452E-14  1.378562E-13 -2.746086E-15 -6.521286E-14
         4   4 -7.779107E-05 -7.779107E-05  3.163953E-13  1.316926E-13 -1.792221E-15 -1.570865E-13
         4   5 -7.779107E-05 -7.779107E-05 -3.017681E-13  9.743324E-16  2.550978E-15  3.558940E-14
         4   6 -7.779107E-05 -7.779107E-05 -1.884314E-13  3.636258E-15 -2.799120E-15  1.289913E-13
         4   7 -7.779107E-05 -7.779107E-05 -2.646950E-13  9.743324E-16 -1.120240E-14 -5.198077E-14
         4   8 -7.779107E-05 -7.779107E-05 -1.807516E-13  3.636258E-15 -1.024853E-14  2.014580E-15
         5   1 -7.779107E-05 -7.779107E-05  1.734878E-13  5.254211E-14 -1.135851E-13  5.302811E-14
         5   2 -7.779107E-05 -7.779107E-05  3.007263E-13 -6.162367E-31  3.090569E-14  1.257895E-13
         5   3 -7.779107E-05 -7.779107E-05  2.832948E-13  7.005614E-14  5.988195E-14  1.800004E-14
         5   4 -7.779107E-05 -7.779107E-05  3.320235E-13  6.129912E-14 -8.023033E-14 -1.870134E-14
         5   5 -7.779107E-05 -7.779107E-05  2.654364E-13  7.005614E-14 -1.890458E-14  4.966302E-14
         5   6 -7.779107E-05 -7.779107E-05  3.795395E-13 -1.401123E-13  1.124507E-13  3.935402E-14
         5   7 -7.779107E-05 -7.779107E-05 -8.449998E-14  1.401123E-13 -3.797059E-14 -2.879086E-15
         5   8 -7.779107E-05 -7.779107E-05 -4.890677E-14 -3.502807E-14 -5.548463E-14 -1.095153E-13
         6   1 -7.779107E-05 -7.779107E-05  1.949006E-13  3.853088E-13  1.213690E-13  1.234870E-13
         6   2 -7.779107E-05 -7.779107E-05 -2.615068E-13  2.802246E-13  1.301260E-13 -6.512993E-14
         6   3 -7.779107E-05 -7.779107E-05 -1.550914E-13  1.401123E-13 -2.905520E-13 -1.662524E-14
         6   4 -7.779107E-05 -7.779107E-05 -6.196946E-13 -1.401123E-13  2.348691E-13  1.494170E-13
         6   5 -7.779107E-05 -7.779107E-05  1.686295E-13 -3.285630E-31  2.102735E-13 -9.504145E-15
         6   6 -7.779107E-05 -7.779107E-05 -1.193185E-14  1.401123E-13 -1.400072E-13  1.532598E-13
         6   7 -7.779107E-05 -7.779107E-05  5.507702E-14 -2.802246E-13 -3.187670E-13 -6.204625E-14
         6   8 -7.779107E-05 -7.779107E-05 -1.730868E-13 -2.802246E-13  1.015699E-13  1.269887E-13
         7   1 -7.779107E-05 -7.779107E-05  4.688227E-13  3.961432E-13  2.121023E-14 -3.114172E-13
         7   2 -7.779107E-05 -7.779107E-05  7.151816E-14  3.300451E-13  5.943634E-14 -5.932788E-14
         7   3 -7.779107E-05 -7.779107E-05  8.743640E-13 -2.419361E-14 -2.389167E-14 -2.063330E-13
         7   4 -7.779107E-05 -7.779107E-05  2.250809E-13 -9.029179E-14 -8.094835E-15  2.471677E-13
         7   5 -7.779107E-05 -7.779107E-05  2.338450E-13  5.247620E-13  4.093155E-14  1.356547E-13
         7   6 -7.779107E-05 -7.779107E-05 -3.210438E-14  4.272628E-13  7.915766E-14 -1.078597E-14
         7   7 -7.779107E-05 -7.779107E-05  5.922847E-13 -3.568717E-14 -1.049618E-13  2.757670E-13
         7   8 -7.779107E-05 -7.779107E-05  7.435688E-14 -1.331863E-13 -8.916493E-14  6.802718E-14
         8   1 -7.779107E-05 -7.779107E-05  1.896495E-13  1.751404E-13  8.696216E-14 -3.823957E-13
         8   2 -7.779107E-05 -7.779107E-05  1.446868E-13  2.101684E-13  1.690602E-14 -1.708639E-13
         8   3 -7.779107E-05 -7.779107E-05  4.384632E-13  1.050842E-13  1.145967E-13 -2.072554E-13
         8   4 -7.779107E-05 -7.779107E-05  3.430016E-13  1.488693E-13  7.956861E-14  2.056879E-13
         8   5 -7.779107E-05 -7.779107E-05  6.231219E-13 -1.401123E-13 -5.011840E-14  6.215621E-14
         8   6 -7.779107E-05 -7.779107E-05 -2.362435E-13  1.751404E-13 -8.514647E-14 -6.176407E-14
         8   7 -7.779107E-05 -7.779107E-05  1.436763E-12 -4.203368E-13 -2.353378E-13  1.322124E-13
         8   8 -7.779107E-05 -7.779107E-05  6.319832E-13 -2.101684E-13 -1.652817E-13 -4.649455E-16
         9   1 -7.779107E-05 -7.779107E-05 -2.797027E-13  2.101684E-13  3.678163E-14 -3.593068E-13
         9   2 -7.779107E-05 -7.779107E-05 -5.475056E-14  3.152526E-13 -7.003461E-15  8.079012E-14
         9   3 -7.779107E-05 -7.779107E-05  1.108693E-13  2.101684E-13 -2.849820E-13 -7.908223E-14
         9   4 -7.779107E-05 -7.779107E-05  4.461702E-13  7.005614E-14 -1.448697E-13 -8.559321E-14
         9   5 -7.779107E-05 -7.779107E-05  9.278914E-15 -2.802246E-13  1.022428E-13  8.765497E-14
         9   6 -7.779107E-05 -7.779107E-05  4.706705E-13  2.101684E-13  2.342967E-14  5.522735E-14
         9   7 -7.779107E-05 -7.779107E-05  5.785059E-15 -2.802246E-13 -1.578672E-13  2.277672E-13
         9   8 -7.779107E-05 -7.779107E-05  3.936281E-13 -2.101684E-13  1.223573E-13 -1.724551E-13

 strains (elem, integ.pnt.,exx,eyy,ezz,exy,exz,eyz) forset EALL and time  0.4537813E+00

         1   1 -2.593036E-10 -2.593036E-10  2.222602E-10 -8.077936E-27  1.211690E-26  1.292470E-26
         1   2 -2.593036E-10 -2.593036E-10  2.222602E-10 -8.077936E-28  4.765982E-26  3.231174E-27
         1   3 -2.593036E-10 -2.593036E-10  2.222602E-10 -4.281306E-26  3.231174E-27 -6.462349E-27
         1   4 -2.593036E-10 -2.593036E-10  2.222602E-10 -3.554292E-26  2.908057E-26 -2.423381E-27
         1   5 -2.593036E-10 -2.593036E-10  2.222602E-10 -1.292470E-26  9.693523E-27  3.877409E-26
         1   6 -2.593036E-10 -2.593036E-10  2.222602E-10 -2.261822E-26  4.523644E-26  2.504160E-26
         1   7 -2.593036E-10 -2.593036E-10  2.222602E-10 -4.523644E-26 -3.231174E-27  2.584939E-26
         1   8 -2.593036E-10 -2.593036E-10  2.222602E-10 -5.169879E-26  2.584939E-26  1.938705E-26
         2   1 -2.593036E-10 -2.593036E-10  2.222602E-10  9.276952E-19  6.792956E-19  1.715592E-22
         2   2 -2.593036E-10 -2.593036E-10  2.222602E-10  8.192750E-19  5.979804E-19  5.664967E-21
         2   3 -2.593036E-10 -2.593036E-10  2.222602E-10  1.092529E-18  4.185827E-19  6.128849E-20
         2   4 -2.593036E-10 -2.593036E-10  2.222602E-10  3.877980E-19  9.332206E-20 -9.455762E-20
         2   5 -2.593036E-10 -2.593036E-10  2.222602E-10 -8.897043E-19  4.616989E-19 -6.047666E-20
         2   6 -2.593036E-10 -2.593036E-10  2.222602E-10 -2.234260E-20 -1.001974E-18  1.213645E-19
         2   7 -2.593036E-10 -2.593036E-10  2.222602E-10 -9.507455E-19  8.110147E-19  6.402701E-22
         2   8 -2.593036E-10 -2.593036E-10  2.222602E-10 -8.338372E-20  5.207315E-20  2.114192E-20
         3   1 -2.593036E-10 -2.593036E-10  2.222602E-10 -4.181076E-19  4.797895E-19  2.572835E-20
         3   2 -2.593036E-10 -2.593036E-10  2.222602E-10  1.641877E-18  6.424198E-19  1.105877E-19
         3   3 -2.593036E-10 -2.593036E-10  2.222602E-10 -3.755605E-19 -2.647861E-18 -2.249358E-19
         3   4 -2.593036E-10 -2.593036E-10  2.222602E-10  1.467583E-18  6.047458E-19  3.427958E-19
         3   5 -2.593036E-10 -2.593036E-10  2.222602E-10 -1.471709E-18 -4.784417E-19  3.466836E-19
         3   6 -2.593036E-10 -2.593036E-10  2.222602E-10 -1.706667E-19  6.365937E-20  1.805110E-19
         3   7 -2.593036E-10 -2.593036E-10  2.222602E-10 -7.531413E-19 -1.708364E-19  9.601947E-20
         3   8 -2.593036E-10 -2.593036E-10  2.222602E-10 -3.194604E-19  9.133657E-19  4.127191E-19
         4   1 -2.593036E-10 -2.593036E-10  2.222602E-10 -6.644873E-19 -4.642995E-21  1.114184E-18
         4   2 -2.593036E-10 -2.593036E-10  2.222602E-10 -7.026430E-19 -3.776266E-20  1.659720E-19
         4   3 -2.593036E-10 -2.593036E-10  2.222602E-10  8.533958E-19 -1.699958E-20 -4.036987E-19
         4   4 -2.593036E-10 -2.593036E-10  2.222602E-10  8.152400E-19 -1.109470E-20 -9.724403E-19
         4   5 -2.593036E-10 -2.593036E-10  2.222602E-10  6.031581E-21  1.579177E-20  2.203153E-19
         4   6 -2.593036E-10 -2.593036E-10  2.222602E-10  2.251017E-20 -1.732789E-20  7.985178E-19
         4   7 -2.593036E-10 -2.593036E-10  2.222602E-10  6.031581E-21 -6.934818E-20 -3.217857E-19
         4   8 -2.593036E-10 -2.593036E-10  2.222602E-10  2.251017E-20 -6.344331E-20  1.247121E-20
         5   1 -2.593036E-10 -2.593036E-10  2.222602E-10  3.252607E-19 -7.031458E-19  3.282692E-19
         5   2 -2.593036E-10 -2.593036E-10  2.222602E-10  4.324999E-36  1.913209E-19  7.786966E-19
         5   3 -2.593036E-10 -2.593036E-10  2.222602E-10  4.336809E-19  3.706978E-19  1.114288E-19
         5   4 -2.593036E-10 -2.593036E-10  2.222602E-10  3.794708E-19 -4.966639E-19 -1.157702E-19
         5   5 -2.593036E-10 -2.593036E-10  2.222602E-10  4.336809E-19 -1.170284E-19  3.074377E-19
         5   6 -2.593036E-10 -2.593036E-10  2.222602E-10 -8.673617E-19  6.961233E-19  2.436201E-19
         5   7 -2.593036E-10 -2.593036E-10  2.222602E-10  8.673617E-19 -2.350561E-19 -1.782291E-20
         5   8 -2.593036E-10 -2.593036E-10  2.222602E-10 -2.168404E-19 -3.434763E-19 -6.779517E-19
         6   1 -2.593036E-10 -2.593036E-10  2.222602E-10  2.385245E-18  7.513316E-19  7.644436E-19
         6   2 -2.593036E-10 -2.593036E-10  2.222602E-10  1.734723E-18  8.055417E-19 -4.031853E-19
         6   3 -2.593036E-10 -2.593036E-10  2.222602E-10  8.673617E-19 -1.798655E-18 -1.029182E-19
         6   4 -2.593036E-10 -2.593036E-10  2.222602E-10 -8.673617E-19  1.453951E-18  9.249624E-19
         6   5 -2.593036E-10 -2.593036E-10  2.222602E-10  3.341916E-36  1.301693E-18 -5.883519E-20
         6   6 -2.593036E-10 -2.593036E-10  2.222602E-10  8.673617E-19 -8.667112E-19  9.487510E-19
         6   7 -2.593036E-10 -2.593036E-10  2.222602E-10 -1.734723E-18 -1.973319E-18 -3.840958E-19
         6   8 -2.593036E-10 -2.593036E-10  2.222602E-10 -1.734723E-18  6.287660E-19  7.861207E-19
         7   1 -2.593036E-10 -2.593036E-10  2.222602E-10  2.452315E-18  1.313014E-19 -1.927821E-18
         7   2 -2.593036E-10 -2.593036E-10  2.222602E-10  2.043136E-18  3.679392E-19 -3.672678E-19
         7   3 -2.593036E-10 -2.593036E-10  2.222602E-10 -1.497700E-19 -1.479008E-19 -1.277300E-18
         7   4 -2.593036E-10 -2.593036E-10  2.222602E-10 -5.589492E-19 -5.011089E-20  1.530086E-18
         7   5 -2.593036E-10 -2.593036E-10  2.222602E-10  3.248526E-18  2.533858E-19  8.397670E-19
         7   6 -2.593036E-10 -2.593036E-10  2.222602E-10  2.644960E-18  4.900236E-19 -6.677032E-20
         7   7 -2.593036E-10 -2.593036E-10  2.222602E-10 -2.209206E-19 -6.497633E-19  1.707129E-18
         7   8 -2.593036E-10 -2.593036E-10  2.222602E-10 -8.244868E-19 -5.519734E-19  4.211207E-19
         8   1 -2.593036E-10 -2.593036E-10  2.222602E-10  1.084202E-18  5.383372E-19 -2.367212E-18
         8   2 -2.593036E-10 -2.593036E-10  2.222602E-10  1.301043E-18  1.046563E-19 -1.057729E-18
         8   3 -2.593036E-10 -2.593036E-10  2.222602E-10  6.505213E-19  7.094080E-19 -1.283010E-18
         8   4 -2.593036E-10 -2.593036E-10  2.222602E-10  9.215718E-19  4.925676E-19  1.273306E-18
         8   5 -2.593036E-10 -2.593036E-10  2.222602E-10 -8.673617E-19 -3.102567E-19  3.847766E-19
         8   6 -2.593036E-10 -2.593036E-10  2.222602E-10  1.084202E-18 -5.270972E-19 -3.823490E-19
         8   7 -2.593036E-10 -2.593036E-10  2.222602E-10 -2.602085E-18 -1.456853E-18  8.184574E-19
         8   8 -2.593036E-10 -2.593036E-10  2.222602E-10 -1.301043E-18 -1.023172E-18 -2.878232E-21
         9   1 -2.593036E-10 -2.593036E-10  2.222602E-10  1.301043E-18  2.276958E-19 -2.224280E-18
         9   2 -2.593036E-10 -2.593036E-10  2.222602E-10  1.951564E-18 -4.335476E-20  5.001293E-19
         9   3 -2.593036E-10 -2.593036E-10  2.222602E-10  1.301043E-18 -1.764174E-18 -4.895567E-19
         9   4 -2.593036E-10 -2.593036E-10  2.222602E-10  4.336809E-19 -8.968125E-19 -5.298628E-19
         9   5 -2.593036E-10 -2.593036E-10  2.222602E-10 -1.734723E-18  6.329318E-19  5.426260E-19
         9   6 -2.593036E-10 -2.593036E-10  2.222602E-10  1.301043E-18  1.450408E-19  3.418836E-19
         9   7 -2.593036E-10 -2.593036E-10  2.222602E-10 -1.734723E-18 -9.772734E-19  1.409988E-18
         9   8 -2.593036E-10 -2.593036E-10  2.222602E-10 -1.301043E-18  7.574501E-19 -1.067579E-18

 displacements (vx,vy,vz) for set NALL and time  0.4627813E+00

         1  0.000000E+00  0.000000E+00  0.000000E+00
         2 -1.322232E-07  0.000000E+00  0.000000E+00
         3 -6.941719E+00  0.000000E+00  0.000000E+00
         4 -6.941719E+00  0.000000E+00  0.000000E+00
         5 -1.388344E+01  0.000000E+00  0.000000E+00
         6 -1.388344E+01  0.000000E+00  0.000000E+00
         7  0.000000E+00 -1.322232E-07  0.000000E+00
         8 -1.322232E-07 -1.322232E-07  0.000000E+00
         9 -6.941719E+00 -1.322232E-07  0.000000E+00
        10 -6.941719E+00 -1.322232E-07  0.000000E+00
        11 -1.388344E+01 -1.322232E-07  0.000000E+00
        12 -1.388344E+01 -1.322232E-07  0.000000E+00
        13  0.000000E+00 -6.941719E+00  0.000000E+00
        14 -1.322232E-07 -6.941719E+00  0.000000E+00
        15 -6.941719E+00 -6.941719E+00  0.000000E+00
        16 -6.941719E+00 -6.941719E+00  0.000000E+00
        17 -1.388344E+01 -6.941719E+00  0.000000E+00
        18 -1.388344E+01 -6.941719E+00  0.000000E+00
        19  0.000000E+00 -6.941719E+00  0.000000E+00
        20 -1.322232E-07 -6.941719E+00  0.000000E+00
        21 -6.941719E+00 -6.941719E+00  0.000000E+00
        22 -6.941719E+00 -6.941719E+00  0.000000E+00
        23 -1.388344E+01 -6.941719E+00  0.000000E+00
        24 -1.388344E+01 -6.941719E+00  0.000000E+00
        25  0.000000E+00 -1.388344E+01  0.000000E+00
        26 -1.322232E-07 -1.388344E+01  0.000000E+00
        27 -6.941719E+00 -1.388344E+01  0.000000E+00
        28 -6.941719E+00 -1.388344E+01  0.000000E+00
        29 -1.388344E+01 -1.388344E+01  0.000000E+00
        30 -1.388344E+01 -1.388344E+01  0.000000E+00
        31  0.000000E+00 -1.388344E+01  0.000000E+00
        32 -1.322232E-07 -1.388344E+01  0.000000E+00
        33 -6.941719E+00 -1.388344E+01  0.000000E+00
        34 -6.941719E+00 -1.388344E+01  0.000000E+00
        35 -1.388344E+01 -1.388344E+01  0.000000E+00
        36 -1.388344E+01 -1.388344E+01  0.000000E+00
        37  0.000000E+00  0.000000E+00  1.586679E-07
        38 -1.322232E-07  0.000000E+00  1.586679E-07
        39 -6.941719E+00  0.000000E+00  1.586679E-07
        40 -6.941719E+00  0.000000E+00  1.586679E-07
        41 -1.388344E+01  0.000000E+00  1.586679E-07
        42 -1.388344E+01  0.000000E+00  1.586679E-07
        43  0.000000E+00 -1.322232E-07  1.586679E-07
        44 -1.322232E-07 -1.322232E-07  1.586679E-07
        45 -6.941719E+00 -1.322232E-07  1.586679E-07
        46 -6.941719E+00 -1.322232E-07  1.586679E-07
        47 -1.388344E+01 -1.322232E-07  1.586679E-07
        48 -1.388344E+01 -1.322232E-07  1.586679E-07
        49  0.000000E+00 -6.941719E+00  1.586679E-07
        50 -1.322232E-07 -6.941719E+00  1.586679E-07
        51 -6.941719E+00 -6.941719E+00  1.586679E-07
        52 -6.941719E+00 -6.941719E+00  1.586679E-07
        53 -1.388344E+01 -6.941719E+00  1.586679E-07
        54 -1.388344E+01 -6.941719E+00  1.586679E-07
        55  0.000000E+00 -6.941719E+00  1.586679E-07
        56 -1.322232E-07 -6.941719E+00  1.586679E-07
        57 -6.941719E+00 -6.941719E+00  1.586679E-07
        58 -6.941719E+00 -6.941719E+00  1.586679E-07
        59 -1.388344E+01 -6.941719E+00  1.586679E-07
        60 -1.388344E+01 -6.941719E+00  1.586679E-07
        61  0.000000E+00 -1.388344E+01  1.586679E-07
        62 -1.322232E-07 -1.388344E+01  1.586679E-07
        63 -6.941719E+00 -1.388344E+01  1.586679E-07
        64 -6.941719E+00 -1.388344E+01  1.586679E-07
        65 -1.388344E+01 -1.388344E+01  1.586679E-07
        66 -1.388344E+01 -1.388344E+01  1.586679E-07
        67  0.000000E+00 -1.388344E+01  1.586679E-07
        68 -1.322232E-07 -1.388344E+01  1.586679E-07
        69 -6.941719E+00 -1.388344E+01  1.586679E-07
        70 -6.941719E+00 -1.388344E+01  1.586679E-07
        71 -1.388344E+01 -1.388344E+01  1.586679E-07
        72 -1.388344E+01 -1.388344E+01  1.586679E-07

 stresses (elem, integ.pnt.,sxx,syy,szz,sxy,sxz,syz) for set EALL and time  0.4627813E+00

         1   1 -7.933393E-05 -7.933393E-05  6.830488E-47  3.392733E-21  1.696366E-21  5.219589E-22
         1   2 -7.933393E-05 -7.933393E-05  4.680149E-47  9.525750E-21  7.829384E-22 -2.218325E-21
         1   3 -7.933393E-05 -7.933393E-05  1.355253E-20  6.915956E-21  5.219589E-22 -3.131754E-21
         1   4 -7.933393E-05 -7.933393E-05  2.710505E-20  1.304897E-20  2.087836E-21 -9.264771E-21
         1   5 -7.933393E-05 -7.933393E-05  6.510045E-46  1.043918E-21  3.523223E-21  3.653712E-21
         1   6 -7.933393E-05 -7.933393E-05  2.327426E-46  9.395261E-21  2.609795E-21 -2.348815E-21
         1   7 -7.933393E-05 -7.933393E-05  2.158771E-46 -2.087836E-21  5.219589E-22  2.087836E-21
         1   8 -7.933393E-05 -7.933393E-05  1.214309E-46  6.263507E-21  2.087836E-21 -9.395261E-21
         2   1 -7.933393E-05 -7.933393E-05  1.182760E-14 -4.221335E-15  8.253877E-14  4.436920E-15
         2   2 -7.933393E-05 -7.933393E-05  7.978618E-14  4.535683E-15 -3.130246E-14 -2.460771E-15
         2   3 -7.933393E-05 -7.933393E-05  1.161068E-14 -1.575424E-14  2.748892E-13 -1.487969E-14
         2   4 -7.933393E-05 -7.933393E-05 -4.212964E-14  2.803085E-14  1.522910E-13  8.057344E-15
         2   5 -7.933393E-05 -7.933393E-05  1.026180E-13 -1.290452E-13  1.166419E-13  3.587542E-14
         2   6 -7.933393E-05 -7.933393E-05  2.332295E-13  8.112318E-14  2.042121E-13 -1.970183E-14
         2   7 -7.933393E-05 -7.933393E-05 -2.391226E-13 -9.880953E-14  2.603128E-13  1.655881E-14
         2   8 -7.933393E-05 -7.933393E-05 -2.302100E-13  6.274681E-15 -2.397683E-15 -9.183721E-15
         3   1 -7.933393E-05 -7.933393E-05  8.462579E-14  6.643355E-14  2.312570E-13  9.227031E-15
         3   2 -7.933393E-05 -7.933393E-05  2.138179E-13  6.643355E-14  1.261728E-13 -7.829552E-15
         3   3 -7.933393E-05 -7.933393E-05  4.739401E-14  5.653645E-14  1.325987E-13 -2.423049E-14
         3   4 -7.933393E-05 -7.933393E-05 -1.877066E-14 -3.103372E-14  2.751445E-14 -9.743805E-15
         3   5 -7.933393E-05 -7.933393E-05  4.063603E-14  1.254130E-14 -2.638050E-14  6.789327E-14
         3   6 -7.933393E-05 -7.933393E-05  2.360690E-13  1.526536E-13 -3.513752E-14 -2.730603E-14
         3   7 -7.933393E-05 -7.933393E-05 -2.330352E-13  4.680478E-14  2.521833E-13  3.443574E-14
         3   8 -7.933393E-05 -7.933393E-05 -2.329590E-13 -2.325136E-14 -6.306929E-14 -2.922028E-14
         4   1 -7.933393E-05 -7.933393E-05 -1.714011E-14  4.617055E-15  1.207732E-15  1.327129E-13
         4   2 -7.933393E-05 -7.933393E-05 -3.982641E-15  1.723108E-14  1.500696E-14  1.517809E-13
         4   3 -7.933393E-05 -7.933393E-05 -4.875779E-14  3.964512E-14  2.052339E-15 -7.399380E-15
         4   4 -7.933393E-05 -7.933393E-05  4.919540E-15  5.225915E-14  1.951134E-15  6.858928E-14
         4   5 -7.933393E-05 -7.933393E-05 -4.084986E-13 -1.075902E-13 -9.291910E-15  5.995531E-14
         4   6 -7.933393E-05 -7.933393E-05 -1.441085E-14 -1.144368E-13  4.507315E-15 -1.674792E-13
         4   7 -7.933393E-05 -7.933393E-05 -4.693072E-13 -2.506019E-15  7.760637E-15 -2.761486E-14
         4   8 -7.933393E-05 -7.933393E-05 -2.448680E-13 -9.352591E-15  7.659432E-15 -5.801651E-14
         5   1 -7.933393E-05 -7.933393E-05  3.813827E-13 -7.881316E-14 -8.265048E-14 -7.906914E-14
         5   2 -7.933393E-05 -7.933393E-05  2.442230E-13 -1.576263E-13 -1.089215E-13  7.588014E-14
         5   3 -7.933393E-05 -7.933393E-05  5.711223E-14 -1.751404E-13  2.242661E-15 -9.013000E-15
         5   4 -7.933393E-05 -7.933393E-05 -3.265430E-14 -3.152526E-13  7.229880E-14 -1.342883E-13
         5   5 -7.933393E-05 -7.933393E-05 -1.440383E-13 -2.101684E-13  8.465198E-16  1.890513E-14
         5   6 -7.933393E-05 -7.933393E-05 -5.789409E-14  7.005614E-14 -1.786723E-13  1.008630E-13
         5   7 -7.933393E-05 -7.933393E-05  1.096543E-13 -2.802246E-13  8.369726E-15  1.064753E-13
         5   8 -7.933393E-05 -7.933393E-05  2.300562E-13  3.502807E-14  6.091183E-14 -1.136839E-13
         6   1 -7.933393E-05 -7.933393E-05 -5.540337E-13 -2.189254E-13 -3.104575E-14 -3.977943E-14
         6   2 -7.933393E-05 -7.933393E-05 -1.299615E-13  9.632719E-14  1.791227E-13 -1.551233E-14
         6   3 -7.933393E-05 -7.933393E-05 -1.516104E-13 -3.502807E-13  1.201981E-13 -5.729346E-14
         6   4 -7.933393E-05 -7.933393E-05 -1.431359E-13 -1.225982E-13 -1.600265E-13  2.340627E-13
         6   5 -7.933393E-05 -7.933393E-05 -2.861268E-14  7.005614E-14  7.553263E-14 -3.993922E-14
         6   6 -7.933393E-05 -7.933393E-05 -1.299615E-13  7.005614E-14 -7.333667E-14 -1.109794E-13
         6   7 -7.933393E-05 -7.933393E-05 -4.652619E-14  2.802246E-13 -2.144330E-13 -9.248133E-14
         6   8 -7.933393E-05 -7.933393E-05 -2.491623E-14  1.401123E-13  2.409319E-13  3.788989E-14
         7   1 -7.933393E-05 -7.933393E-05  9.594678E-14  1.584109E-15 -6.929016E-15 -1.031657E-13
         7   2 -7.933393E-05 -7.933393E-05  4.680624E-14  5.911976E-15  4.305192E-15 -2.264540E-13
         7   3 -7.933393E-05 -7.933393E-05 -1.237038E-13  1.584109E-15 -7.711630E-16  1.070027E-13
         7   4 -7.933393E-05 -7.933393E-05 -1.177462E-13  5.911976E-15  5.247353E-15  4.501353E-14
         7   5 -7.933393E-05 -7.933393E-05 -9.062980E-14 -1.088596E-15 -3.709364E-14  5.157387E-14
         7   6 -7.933393E-05 -7.933393E-05 -6.095715E-14 -4.062696E-15 -2.585944E-14 -6.718924E-14
         7   7 -7.933393E-05 -7.933393E-05 -3.212333E-13 -1.088596E-15 -8.896535E-15  1.654580E-14
         7   8 -7.933393E-05 -7.933393E-05 -2.364626E-13 -4.062696E-15 -2.878017E-15  1.167081E-13
         8   1 -7.933393E-05 -7.933393E-05  3.787336E-13  1.751404E-13  2.903088E-14 -2.224358E-13
         8   2 -7.933393E-05 -7.933393E-05  2.444200E-13 -3.502807E-14 -1.618681E-15 -8.055577E-14
         8   3 -7.933393E-05 -7.933393E-05 -7.171157E-15 -1.751404E-13  1.096118E-13  1.278449E-13
         8   4 -7.933393E-05 -7.933393E-05 -4.782041E-13 -3.415237E-13 -1.298648E-14 -1.925664E-14
         8   5 -7.933393E-05 -7.933393E-05  2.867849E-13 -4.691654E-31 -7.023105E-14 -1.075433E-14
         8   6 -7.933393E-05 -7.933393E-05 -1.890524E-13  3.502807E-14  2.171763E-14  7.700253E-14
         8   7 -7.933393E-05 -7.933393E-05  2.029973E-13 -2.802246E-13 -4.377332E-14 -4.578240E-14
         8   8 -7.933393E-05 -7.933393E-05 -2.154935E-13 -2.101684E-13 -1.313435E-13 -3.170633E-13
         9   1 -7.933393E-05 -7.933393E-05 -4.313237E-13 -2.101684E-13 -3.049728E-13 -3.345456E-13
         9   2 -7.933393E-05 -7.933393E-05 -9.840040E-14  5.254211E-14  2.554764E-13  1.054596E-13
         9   3 -7.933393E-05 -7.933393E-05  1.518349E-13 -2.101684E-13  1.087614E-13  1.908755E-13
         9   4 -7.933393E-05 -7.933393E-05 -3.602466E-14 -3.502807E-14  1.788175E-13 -9.595177E-14
         9   5 -7.933393E-05 -7.933393E-05 -6.152210E-13 -5.686330E-31 -1.718035E-13  2.244789E-13
         9   6 -7.933393E-05 -7.933393E-05 -3.348399E-13  1.401123E-13  6.463602E-14  5.159677E-14
         9   7 -7.933393E-05 -7.933393E-05 -2.685020E-13 -2.744404E-31 -1.170031E-13  1.894508E-13
         9   8 -7.933393E-05 -7.933393E-05 -1.673799E-13 -7.005614E-14 -1.520312E-13  2.092231E-13

 strains (elem, integ.pnt.,exx,eyy,ezz,exy,exz,eyz) forset EALL and time  0.4627813E+00

         1   1 -2.644464E-10 -2.644464E-10  2.266684E-10  2.100263E-26  1.050132E-26  3.231174E-27
         1   2 -2.644464E-10 -2.644464E-10  2.266684E-10  5.896893E-26  4.846761E-27 -1.373249E-26
         1   3 -2.644464E-10 -2.644464E-10  2.266684E-10  4.281306E-26  3.231174E-27 -1.938705E-26
         1   4 -2.644464E-10 -2.644464E-10  2.266684E-10  8.077936E-26  1.292470E-26 -5.735334E-26
         1   5 -2.644464E-10 -2.644464E-10  2.266684E-10  6.462349E-27  2.181043E-26  2.261822E-26
         1   6 -2.644464E-10 -2.644464E-10  2.266684E-10  5.816114E-26  1.615587E-26 -1.454028E-26
         1   7 -2.644464E-10 -2.644464E-10  2.266684E-10 -1.292470E-26  3.231174E-27  1.292470E-26
         1   8 -2.644464E-10 -2.644464E-10  2.266684E-10  3.877409E-26  1.292470E-26 -5.816114E-26
         2   1 -2.644464E-10 -2.644464E-10  2.266684E-10 -2.613207E-20  5.109543E-19  2.746665E-20
         2   2 -2.644464E-10 -2.644464E-10  2.266684E-10  2.807804E-20 -1.937771E-19 -1.523334E-20
         2   3 -2.644464E-10 -2.644464E-10  2.266684E-10 -9.752622E-20  1.701695E-18 -9.211235E-20
         2   4 -2.644464E-10 -2.644464E-10  2.266684E-10  1.735243E-19  9.427537E-19  4.987880E-20
         2   5 -2.644464E-10 -2.644464E-10  2.266684E-10 -7.988515E-19  7.220692E-19  2.220859E-19
         2   6 -2.644464E-10 -2.644464E-10  2.266684E-10  5.021911E-19  1.264170E-18 -1.219637E-19
         2   7 -2.644464E-10 -2.644464E-10  2.266684E-10 -6.116780E-19  1.611460E-18  1.025069E-19
         2   8 -2.644464E-10 -2.644464E-10  2.266684E-10  3.884326E-20 -1.484280E-20 -5.685161E-20
         3   1 -2.644464E-10 -2.644464E-10  2.266684E-10  4.112553E-19  1.431591E-18  5.711971E-20
         3   2 -2.644464E-10 -2.644464E-10  2.266684E-10  4.112553E-19  7.810698E-19 -4.846866E-20
         3   3 -2.644464E-10 -2.644464E-10  2.266684E-10  3.499876E-19  8.208488E-19 -1.499983E-19
         3   4 -2.644464E-10 -2.644464E-10  2.266684E-10 -1.921135E-19  1.703275E-19 -6.031879E-20
         3   5 -2.644464E-10 -2.644464E-10  2.266684E-10  7.763664E-20 -1.633079E-19  4.202917E-19
         3   6 -2.644464E-10 -2.644464E-10  2.266684E-10  9.449984E-19 -2.175180E-19 -1.690373E-19
         3   7 -2.644464E-10 -2.644464E-10  2.266684E-10  2.897439E-19  1.561135E-18  2.131737E-19
         3   8 -2.644464E-10 -2.644464E-10  2.266684E-10 -1.439370E-19 -3.904290E-19 -1.808875E-19
         4   1 -2.644464E-10 -2.644464E-10  2.266684E-10  2.858177E-20  7.476436E-21  8.215561E-19
         4   2 -2.644464E-10 -2.644464E-10  2.266684E-10  1.066686E-19  9.290021E-20  9.395963E-19
         4   3 -2.644464E-10 -2.644464E-10  2.266684E-10  2.454222E-19  1.270495E-20 -4.580569E-20
         4   4 -2.644464E-10 -2.644464E-10  2.266684E-10  3.235091E-19  1.207845E-20  4.246003E-19
         4   5 -2.644464E-10 -2.644464E-10  2.266684E-10 -6.660348E-19 -5.752135E-20  3.711519E-19
         4   6 -2.644464E-10 -2.644464E-10  2.266684E-10 -7.084183E-19  2.790243E-20 -1.036776E-18
         4   7 -2.644464E-10 -2.644464E-10  2.266684E-10 -1.551345E-20  4.804204E-20 -1.709492E-19
         4   8 -2.644464E-10 -2.644464E-10  2.266684E-10 -5.789699E-20  4.741553E-20 -3.591498E-19
         5   1 -2.644464E-10 -2.644464E-10  2.266684E-10 -4.878910E-19 -5.116458E-19 -4.894756E-19
         5   2 -2.644464E-10 -2.644464E-10  2.266684E-10 -9.757820E-19 -6.742761E-19  4.697342E-19
         5   3 -2.644464E-10 -2.644464E-10  2.266684E-10 -1.084202E-18  1.388314E-20 -5.579476E-20
         5   4 -2.644464E-10 -2.644464E-10  2.266684E-10 -1.951564E-18  4.475640E-19 -8.313084E-19
         5   5 -2.644464E-10 -2.644464E-10  2.266684E-10 -1.301043E-18  5.240360E-21  1.170318E-19
         5   6 -2.644464E-10 -2.644464E-10  2.266684E-10  4.336809E-19 -1.106067E-18  6.243899E-19
         5   7 -2.644464E-10 -2.644464E-10  2.266684E-10 -1.734723E-18  5.181259E-20  6.591329E-19
         5   8 -2.644464E-10 -2.644464E-10  2.266684E-10  2.168404E-19  3.770732E-19 -7.037578E-19
         6   1 -2.644464E-10 -2.644464E-10  2.266684E-10 -1.355253E-18 -1.921880E-19 -2.462536E-19
         6   2 -2.644464E-10 -2.644464E-10  2.266684E-10  5.963112E-19  1.108855E-18 -9.602871E-20
         6   3 -2.644464E-10 -2.644464E-10  2.266684E-10 -2.168404E-18  7.440835E-19 -3.546738E-19
         6   4 -2.644464E-10 -2.644464E-10  2.266684E-10 -7.589415E-19 -9.906400E-19  1.448959E-18
         6   5 -2.644464E-10 -2.644464E-10  2.266684E-10  4.336809E-19  4.675830E-19 -2.472428E-19
         6   6 -2.644464E-10 -2.644464E-10  2.266684E-10  4.336809E-19 -4.539889E-19 -6.870154E-19
         6   7 -2.644464E-10 -2.644464E-10  2.266684E-10  1.734723E-18 -1.327442E-18 -5.725035E-19
         6   8 -2.644464E-10 -2.644464E-10  2.266684E-10  8.673617E-19  1.491483E-18  2.345565E-19
         7   1 -2.644464E-10 -2.644464E-10  2.266684E-10  9.806392E-21 -4.289391E-20 -6.386447E-19
         7   2 -2.644464E-10 -2.644464E-10  2.266684E-10  3.659795E-20  2.665119E-20 -1.401858E-18
         7   3 -2.644464E-10 -2.644464E-10  2.266684E-10  9.806392E-21 -4.773866E-21  6.623979E-19
         7   4 -2.644464E-10 -2.644464E-10  2.266684E-10  3.659795E-20  3.248362E-20  2.786552E-19
         7   5 -2.644464E-10 -2.644464E-10  2.266684E-10 -6.738931E-21 -2.296273E-19  3.192668E-19
         7   6 -2.644464E-10 -2.644464E-10  2.266684E-10 -2.515003E-20 -1.600822E-19 -4.159334E-19
         7   7 -2.644464E-10 -2.644464E-10  2.266684E-10 -6.738931E-21 -5.507379E-20  1.024264E-19
         7   8 -2.644464E-10 -2.644464E-10  2.266684E-10 -2.515003E-20 -1.781629E-20  7.224789E-19
         8   1 -2.644464E-10 -2.644464E-10  2.266684E-10  1.084202E-18  1.797150E-19 -1.376983E-18
         8   2 -2.644464E-10 -2.644464E-10  2.266684E-10 -2.168404E-19 -1.002041E-20 -4.986786E-19
         8   3 -2.644464E-10 -2.644464E-10  2.266684E-10 -1.084202E-18  6.785490E-19  7.914210E-19
         8   4 -2.644464E-10 -2.644464E-10  2.266684E-10 -2.114194E-18 -8.039247E-20 -1.192078E-19
         8   5 -2.644464E-10 -2.644464E-10  2.266684E-10  3.317158E-36 -4.347636E-19 -6.657440E-20
         8   6 -2.644464E-10 -2.644464E-10  2.266684E-10  2.168404E-19  1.344425E-19  4.766823E-19
         8   7 -2.644464E-10 -2.644464E-10  2.266684E-10 -1.734723E-18 -2.709777E-19 -2.834148E-19
         8   8 -2.644464E-10 -2.644464E-10  2.266684E-10 -1.301043E-18 -8.130788E-19 -1.962773E-18
         9   1 -2.644464E-10 -2.644464E-10  2.266684E-10 -1.301043E-18 -1.887927E-18 -2.070996E-18
         9   2 -2.644464E-10 -2.644464E-10  2.266684E-10  3.252607E-19  1.581520E-18  6.528454E-19
         9   3 -2.644464E-10 -2.644464E-10  2.266684E-10 -1.301043E-18  6.732848E-19  1.181610E-18
         9   4 -2.644464E-10 -2.644464E-10  2.266684E-10 -2.168404E-19  1.106966E-18 -5.939871E-19
         9   5 -2.644464E-10 -2.644464E-10  2.266684E-10  5.570696E-37 -1.063545E-18  1.389631E-18
         9   6 -2.644464E-10 -2.644464E-10  2.266684E-10  8.673617E-19  4.001277E-19  3.194086E-19
         9   7 -2.644464E-10 -2.644464E-10  2.266684E-10 -1.698917E-36 -7.243051E-19  1.172791E-18
         9   8 -2.644464E-10 -2.644464E-10  2.266684E-10 -4.336809E-19 -9.411455E-19  1.295191E-18

 displacements (vx,vy,vz) for set NALL and time  0.4717813E+00

         1  0.000000E+00  0.000000E+00  0.000000E+00
         2 -1.347946E-07  0.000000E+00  0.000000E+00
         3 -7.076719E+00  0.000000E+00  0.000000E+00
         4 -7.076719E+00  0.000000E+00  0.000000E+00
         5 -1.415344E+01  0.000000E+00  0.000000E+00
         6 -1.415344E+01  0.000000E+00  0.000000E+00
         7  0.000000E+00 -1.347946E-07  0.000000E+00
         8 -1.347946E-07 -1.347946E-07  0.000000E+00
         9 -7.076719E+00 -1.347946E-07  0.000000E+00
        10 -7.076719E+00 -1.347946E-07  0.000000E+00
        11 -1.415344E+01 -1.347946E-07  0.000000E+00
        12 -1.415344E+01 -1.347946E-07  0.000000E+00
        13  0.000000E+00 -7.076719E+00  0.000000E+00
        14 -1.347946E-07 -7.076719E+00  0.000000E+00
        15 -7.076719E+00 -7.076719E+00  0.000000E+00
        16 -7.076719E+00 -7.076719E+00  0.000000E+00
        17 -1.415344E+01 -7.076719E+00  0.000000E+00
        18 -1.415344E+01 -7.076719E+00  0.000000E+00
        19  0.000000E+00 -7.076719E+00  0.000000E+00
        20 -1.347946E-07 -7.076719E+00  0.000000E+00
        21 -7.076719E+00 -7.076719E+00  0.000000E+00
        22 -7.076719E+00 -7.076719E+00  0.000000E+00
        23 -1.415344E+01 -7.076719E+00  0.000000E+00
        24 -1.415344E+01 -7.076719E+00  0.000000E+00
        25  0.000000E+00 -1.415344E+01  0.000000E+00
        26 -1.347946E-07 -1.415344E+01  0.000000E+00
        27 -7.076719E+00 -1.415344E+01  0.000000E+00
        28 -7.076719E+00 -1.415344E+01  0.000000E+00
        29 -1.415344E+01 -1.415344E+01  0.000000E+00
        30 -1.415344E+01 -1.415344E+01  0.000000E+00
        31  0.000000E+00 -1.415344E+01  0.000000E+00
        32 -1.347946E-07 -1.415344E+01  0.000000E+00
        33 -7.076719E+00 -1.415344E+01  0.000000E+00
        34 -7.076719E+00 -1.415344E+01  0.000000E+00
        35 -1.415344E+01 -1.415344E+01  0.000000E+00
        36 -1.415344E+01 -1.415344E+01  0.000000E+00
        37  0.000000E+00  0.000000E+00  1.617536E-07
        38 -1.347946E-07  0.000000E+00  1.617536E-07
        39 -7.076719E+00  0.000000E+00  1.617536E-07
        40 -7.076719E+00  0.000000E+00  1.617536E-07
        41 -1.415344E+01  0.000000E+00  1.617536E-07
        42 -1.415344E+01  0.000000E+00  1.617536E-07
        43  0.000000E+00 -1.347946E-07  1.617536E-07
        44 -1.347946E-07 -1.347946E-07  1.617536E-07
        45 -7.076719E+00 -1.347946E-07  1.617536E-07
        46 -7.076719E+00 -1.347946E-07  1.617536E-07
        47 -1.415344E+01 -1.347946E-07  1.617536E-07
        48 -1.415344E+01 -1.347946E-07  1.617536E-07
        49  0.000000E+00 -7.076719E+00  1.617536E-07
        50 -1.347946E-07 -7.076719E+00  1.617536E-07
        51 -7.076719E+00 -7.076719E+00  1.617536E-07
        52 -7.076719E+00 -7.076719E+00  1.617536E-07
        53 -1.415344E+01 -7.076719E+00  1.617536E-07
        54 -1.415344E+01 -7.076719E+00  1.617536E-07
        55  0.000000E+00 -7.076719E+00  1.617536E-07
        56 -1.347946E-07 -7.076719E+00  1.617536E-07
        57 -7.076719E+00 -7.076719E+00  1.617536E-07
        58 -7.076719E+00 -7.076719E+00  1.617536E-07
        59 -1.415344E+01 -7.076719E+00  1.617536E-07
        60 -1.415344E+01 -7.076719E+00  1.617536E-07
        61  0.000000E+00 -1.415344E+01  1.617536E-07
        62 -1.347946E-07 -1.415344E+01  1.617536E-07
        63 -7.076719E+00 -1.415344E+01  1.617536E-07
        64 -7.076719E+00 -1.415344E+01  1.617536E-07
        65 -1.415344E+01 -1.415344E+01  1.617536E-07
        66 -1.415344E+01 -1.415344E+01  1.617536E-07
        67  0.000000E+00 -1.415344E+01  1.617536E-07
        68 -1.347946E-07 -1.415344E+01  1.617536E-07
        69 -7.076719E+00 -1.415344E+01  1.617536E-07
        70 -7.076719E+00 -1.415344E+01  1.617536E-07
        71 -1.415344E+01 -1.415344E+01  1.617536E-07
        72 -1.415344E+01 -1.415344E+01  1.617536E-07

 stresses (elem, integ.pnt.,sxx,syy,szz,sxy,sxz,syz) for set EALL and time  0.4717813E+00

         1   1 -8.087678E-05 -8.087678E-05 -1.355253E-20 -2.609795E-22  2.348815E-21 -5.219589E-22
         1   2 -8.087678E-05 -8.087678E-05 -4.065758E-20  5.089099E-21  7.829384E-21 -6.524486E-22
         1   3 -8.087678E-05 -8.087678E-05 -3.373080E-47 -6.915956E-21 -1.043918E-21 -5.741548E-21
         1   4 -8.087678E-05 -8.087678E-05 -2.710505E-20 -1.565877E-21  5.219589E-22  3.784202E-21
         1   5 -8.087678E-05 -8.087678E-05 -1.355253E-20 -1.214309E-46  2.348815E-21 -3.131754E-21
         1   6 -8.087678E-05 -8.087678E-05 -1.355253E-20  1.043918E-21  7.829384E-21 -7.046445E-21
         1   7 -8.087678E-05 -8.087678E-05 -1.355253E-20  3.131754E-21 -7.829384E-21 -4.175671E-21
         1   8 -8.087678E-05 -8.087678E-05 -2.710505E-20  4.175671E-21 -6.263507E-21 -2.609795E-21
         2   1 -8.087678E-05 -8.087678E-05 -1.752998E-14 -1.437116E-13 -1.379634E-15  5.296104E-15
         2   2 -8.087678E-05 -8.087678E-05 -4.170329E-14  2.267175E-14 -1.195994E-13 -1.605919E-15
         2   3 -8.087678E-05 -8.087678E-05  6.888502E-14 -1.535451E-13 -1.001957E-14  9.619567E-16
         2   4 -8.087678E-05 -8.087678E-05 -1.430017E-14  4.786633E-14 -4.504764E-14 -1.191990E-15
         2   5 -8.087678E-05 -8.087678E-05  6.531697E-14 -1.412785E-13 -5.148865E-15  2.409947E-14
         2   6 -8.087678E-05 -8.087678E-05  5.111464E-14  1.739741E-13 -6.206948E-14 -6.407306E-15
         2   7 -8.087678E-05 -8.087678E-05  5.978330E-14 -1.444647E-13 -1.775058E-13  1.976533E-14
         2   8 -8.087678E-05 -8.087678E-05 -1.343093E-14  2.058160E-13 -5.490759E-14 -5.993379E-15
         3   1 -8.087678E-05 -8.087678E-05 -2.476012E-13 -1.199431E-15  7.015915E-14 -4.192108E-15
         3   2 -8.087678E-05 -8.087678E-05 -2.518130E-13  1.631460E-14 -1.487663E-13  6.262730E-15
         3   3 -8.087678E-05 -8.087678E-05  1.117024E-14 -4.476336E-15  3.121930E-15 -1.406953E-14
         3   4 -8.087678E-05 -8.087678E-05  2.757805E-14 -1.621027E-13 -3.190614E-14  1.670060E-14
         3   5 -8.087678E-05 -8.087678E-05 -2.158017E-13 -2.710137E-13 -2.798401E-13 -5.767740E-15
         3   6 -8.087678E-05 -8.087678E-05 -1.773514E-13  9.210848E-15  5.292652E-14  1.293496E-14
         3   7 -8.087678E-05 -8.087678E-05 -4.299092E-13 -2.458492E-13  1.517635E-13 -1.564516E-14
         3   8 -8.087678E-05 -8.087678E-05 -3.708393E-13 -1.057369E-13 -1.284611E-13  2.337283E-14
         4   1 -8.087678E-05 -8.087678E-05  2.565654E-13  1.665856E-13 -2.472526E-16 -4.254878E-14
         4   2 -8.087678E-05 -8.087678E-05 -6.123872E-15  1.671381E-13  4.322937E-15 -1.020604E-13
         4   3 -8.087678E-05 -8.087678E-05  2.060268E-13 -3.482583E-14 -2.600256E-15 -7.757685E-14
         4   4 -8.087678E-05 -8.087678E-05 -4.445377E-14 -3.427330E-14 -9.342080E-15 -5.827534E-14
         4   5 -8.087678E-05 -8.087678E-05  2.661628E-13  1.345178E-13 -5.492944E-15 -1.055364E-14
         4   6 -8.087678E-05 -8.087678E-05  4.288013E-14  1.192336E-13 -9.227597E-16 -3.453223E-14
         4   7 -8.087678E-05 -8.087678E-05  1.918689E-13 -5.594436E-15 -2.962464E-15 -2.806767E-14
         4   8 -8.087678E-05 -8.087678E-05 -1.920502E-14 -2.087872E-14 -9.704287E-15  8.368750E-14
         5   1 -8.087678E-05 -8.087678E-05 -1.918201E-13 -2.627105E-14 -9.386290E-14 -7.131265E-14
         5   2 -8.087678E-05 -8.087678E-05 -2.230680E-13 -6.129912E-14  1.338196E-13  1.228655E-13
         5   3 -8.087678E-05 -8.087678E-05 -3.580285E-13 -3.502807E-14  4.339467E-14  1.388558E-13
         5   4 -8.087678E-05 -8.087678E-05 -5.532652E-13 -6.129912E-14 -2.666147E-14 -7.416735E-14
         5   5 -8.087678E-05 -8.087678E-05  1.234326E-13  3.152526E-13 -3.630594E-14 -7.474549E-14
         5   6 -8.087678E-05 -8.087678E-05 -3.544233E-13  2.451965E-13 -1.003489E-14  1.729326E-13
         5   7 -8.087678E-05 -8.087678E-05 -9.531797E-14  4.698357E-30 -1.695581E-13  1.354229E-13
         5   8 -8.087678E-05 -8.087678E-05 -7.502981E-13 -3.502807E-14 -1.870721E-13 -1.029134E-13
         6   1 -8.087678E-05 -8.087678E-05 -1.425265E-13 -2.802246E-13  1.387719E-13 -1.755698E-13
         6   2 -8.087678E-05 -8.087678E-05  1.373004E-13 -7.005614E-14 -9.766754E-14 -3.033338E-14
         6   3 -8.087678E-05 -8.087678E-05  2.368741E-13 -1.401123E-13  3.672000E-13 -5.297152E-14
         6   4 -8.087678E-05 -8.087678E-05  1.497888E-13 -3.502807E-14  5.194736E-14  1.404285E-13
         6   5 -8.087678E-05 -8.087678E-05  6.764192E-14 -2.802246E-13  1.000820E-13  9.878874E-14
         6   6 -8.087678E-05 -8.087678E-05 -4.659702E-14 -7.005614E-14 -4.003031E-14 -9.451846E-14
         6   7 -8.087678E-05 -8.087678E-05 -2.583638E-14 -2.802246E-13 -1.983094E-13  1.338168E-13
         6   8 -8.087678E-05 -8.087678E-05 -3.887678E-13 -2.101684E-13  4.688705E-14  4.559382E-14
         7   1 -8.087678E-05 -8.087678E-05 -1.243107E-13 -1.478113E-13  1.872673E-14 -2.334878E-13
         7   2 -8.087678E-05 -8.087678E-05 -1.070521E-13 -1.688453E-13  7.349410E-14  5.067950E-14
         7   3 -8.087678E-05 -8.087678E-05  1.633562E-13 -7.698976E-15 -1.775841E-14  4.670736E-13
         7   4 -8.087678E-05 -8.087678E-05  8.792123E-14 -2.873297E-14 -2.559289E-14  1.382497E-13
         7   5 -8.087678E-05 -8.087678E-05 -4.296360E-13  2.404462E-13  1.512175E-14 -7.077258E-14
         7   6 -8.087678E-05 -8.087678E-05  8.677255E-14  1.317696E-13  6.988912E-14 -1.914774E-13
         7   7 -8.087678E-05 -8.087678E-05 -2.734330E-13  2.404462E-13 -5.844083E-14 -1.058006E-13
         7   8 -8.087678E-05 -8.087678E-05  1.502820E-13  1.317696E-13 -6.627531E-14  3.689717E-13
         8   1 -8.087678E-05 -8.087678E-05 -4.929711E-14  7.005614E-14  3.875483E-14 -4.766388E-13
         8   2 -8.087678E-05 -8.087678E-05 -2.222791E-13  6.129912E-14  1.175680E-13 -9.137248E-14
         8   3 -8.087678E-05 -8.087678E-05 -7.896421E-15 -7.005614E-14  2.138527E-13  4.340910E-13
         8   4 -8.087678E-05 -8.087678E-05  6.980992E-14 -3.502807E-14  3.871237E-14  6.625383E-14
         8   5 -8.087678E-05 -8.087678E-05 -4.696340E-13  1.401123E-13 -1.390250E-13 -1.238090E-13
         8   6 -8.087678E-05 -8.087678E-05 -3.838177E-14  1.751404E-13  2.735833E-14 -7.611826E-14
         8   7 -8.087678E-05 -8.087678E-05 -3.231491E-13 -4.203368E-13 -1.964184E-13 -8.878097E-14
         8   8 -8.087678E-05 -8.087678E-05  3.325205E-13 -3.853088E-13 -7.382018E-14  4.647999E-14
         9   1 -8.087678E-05 -8.087678E-05 -2.779602E-13  2.101684E-13  1.937907E-13 -1.049620E-13
         9   2 -8.087678E-05 -8.087678E-05  7.050255E-15  5.604491E-13  1.865033E-14  5.235503E-14
         9   3 -8.087678E-05 -8.087678E-05  4.349998E-13 -2.101684E-13  4.211638E-13 -1.049620E-13
         9   4 -8.087678E-05 -8.087678E-05  3.618350E-13  1.225982E-13  4.211638E-13  2.274954E-13
         9   5 -8.087678E-05 -8.087678E-05 -8.559234E-13  1.146173E-31  6.960399E-14 -1.490418E-13
         9   6 -8.087678E-05 -8.087678E-05 -5.183708E-13  2.802246E-13 -4.521480E-16 -2.593446E-13
         9   7 -8.087678E-05 -8.087678E-05 -3.005897E-13  1.432369E-30  2.833109E-13  1.311827E-13
         9   8 -8.087678E-05 -8.087678E-05  2.031136E-14  1.401123E-13 -1.019979E-13  2.748335E-13

 strains (elem, integ.pnt.,exx,eyy,ezz,exy,exz,eyz) forset EALL and time  0.4717813E+00

         1   1 -2.695893E-10 -2.695893E-10  2.310765E-10 -1.615587E-27  1.454028E-26 -3.231174E-27
         1   2 -2.695893E-10 -2.695893E-10  2.310765E-10  3.150395E-26  4.846761E-26 -4.038968E-27
         1   3 -2.695893E-10 -2.695893E-10  2.310765E-10 -4.281306E-26 -6.462349E-27 -3.554292E-26
         1   4 -2.695893E-10 -2.695893E-10  2.310765E-10 -9.693523E-27  3.231174E-27  2.342601E-26
         1   5 -2.695893E-10 -2.695893E-10  2.310765E-10  0.000000E+00  1.454028E-26 -1.938705E-26
         1   6 -2.695893E-10 -2.695893E-10  2.310765E-10  6.462349E-27  4.846761E-26 -4.362085E-26
         1   7 -2.695893E-10 -2.695893E-10  2.310765E-10  1.938705E-26 -4.846761E-26 -2.584939E-26
         1   8 -2.695893E-10 -2.695893E-10  2.310765E-10  2.584939E-26 -3.877409E-26 -1.615587E-26
         2   1 -2.695893E-10 -2.695893E-10  2.310765E-10 -8.896431E-19 -8.540591E-21  3.278540E-20
         2   2 -2.695893E-10 -2.695893E-10  2.310765E-10  1.403489E-19 -7.403771E-19 -9.941403E-21
         2   3 -2.695893E-10 -2.695893E-10  2.310765E-10 -9.505171E-19 -6.202594E-20  5.954970E-21
         2   4 -2.695893E-10 -2.695893E-10  2.310765E-10  2.963154E-19 -2.788664E-19 -7.378985E-21
         2   5 -2.695893E-10 -2.695893E-10  2.310765E-10 -8.745812E-19 -3.187393E-20  1.491872E-19
         2   6 -2.695893E-10 -2.695893E-10  2.310765E-10  1.076983E-18 -3.842396E-19 -3.966428E-20
         2   7 -2.695893E-10 -2.695893E-10  2.310765E-10 -8.943051E-19 -1.098846E-18  1.223568E-19
         2   8 -2.695893E-10 -2.695893E-10  2.310765E-10  1.274099E-18 -3.399042E-19 -3.710187E-20
         3   1 -2.695893E-10 -2.695893E-10  2.310765E-10 -7.425047E-21  4.343185E-19 -2.595115E-20
         3   2 -2.695893E-10 -2.695893E-10  2.310765E-10  1.009952E-19 -9.209342E-19  3.876928E-20
         3   3 -2.695893E-10 -2.695893E-10  2.310765E-10 -2.771065E-20  1.932623E-20 -8.709708E-20
         3   4 -2.695893E-10 -2.695893E-10  2.310765E-10 -1.003493E-18 -1.975142E-19  1.033847E-19
         3   5 -2.695893E-10 -2.695893E-10  2.310765E-10 -1.677704E-18 -1.732344E-18 -3.570506E-20
         3   6 -2.695893E-10 -2.695893E-10  2.310765E-10  5.701953E-20  3.276404E-19  8.007354E-20
         3   7 -2.695893E-10 -2.695893E-10  2.310765E-10 -1.521924E-18  9.394882E-19 -9.685098E-20
         3   8 -2.695893E-10 -2.695893E-10  2.310765E-10 -6.545620E-19 -7.952353E-19  1.446889E-19
         4   1 -2.695893E-10 -2.695893E-10  2.310765E-10  1.031244E-18 -1.530611E-21 -2.633972E-19
         4   2 -2.695893E-10 -2.695893E-10  2.310765E-10  1.034664E-18  2.676104E-20 -6.318026E-19
         4   3 -2.695893E-10 -2.695893E-10  2.310765E-10 -2.155885E-19 -1.609682E-20 -4.802376E-19
         4   4 -2.695893E-10 -2.695893E-10  2.310765E-10 -2.121680E-19 -5.783192E-20 -3.607521E-19
         4   5 -2.695893E-10 -2.695893E-10  2.310765E-10  8.327295E-19 -3.400394E-20 -6.533204E-20
         4   6 -2.695893E-10 -2.695893E-10  2.310765E-10  7.381125E-19 -5.712322E-21 -2.137710E-19
         4   7 -2.695893E-10 -2.695893E-10  2.310765E-10 -3.463222E-20 -1.833906E-20 -1.737523E-19
         4   8 -2.695893E-10 -2.695893E-10  2.310765E-10 -1.292492E-19 -6.007416E-20  5.180655E-19
         5   1 -2.695893E-10 -2.695893E-10  2.310765E-10 -1.626303E-19 -5.810561E-19 -4.414592E-19
         5   2 -2.695893E-10 -2.695893E-10  2.310765E-10 -3.794708E-19  8.284068E-19  7.605962E-19
         5   3 -2.695893E-10 -2.695893E-10  2.310765E-10 -2.168404E-19  2.686337E-19  8.595834E-19
         5   4 -2.695893E-10 -2.695893E-10  2.310765E-10 -3.794708E-19 -1.650472E-19 -4.591312E-19
         5   5 -2.695893E-10 -2.695893E-10  2.310765E-10  1.951564E-18 -2.247511E-19 -4.627102E-19
         5   6 -2.695893E-10 -2.695893E-10  2.310765E-10  1.517883E-18 -6.212073E-20  1.070535E-18
         5   7 -2.695893E-10 -2.695893E-10  2.310765E-10 -3.156153E-35 -1.049645E-18  8.383324E-19
         5   8 -2.695893E-10 -2.695893E-10  2.310765E-10 -2.168404E-19 -1.158066E-18 -6.370831E-19
         6   1 -2.695893E-10 -2.695893E-10  2.310765E-10 -1.734723E-18  8.590644E-19 -1.086860E-18
         6   2 -2.695893E-10 -2.695893E-10  2.310765E-10 -4.336809E-19 -6.046086E-19 -1.877781E-19
         6   3 -2.695893E-10 -2.695893E-10  2.310765E-10 -8.673617E-19  2.273143E-18 -3.279189E-19
         6   4 -2.695893E-10 -2.695893E-10  2.310765E-10 -2.168404E-19  3.215789E-19  8.693191E-19
         6   5 -2.695893E-10 -2.695893E-10  2.310765E-10 -1.734723E-18  6.195551E-19  6.115494E-19
         6   6 -2.695893E-10 -2.695893E-10  2.310765E-10 -4.336809E-19 -2.478067E-19 -5.851143E-19
         6   7 -2.695893E-10 -2.695893E-10  2.310765E-10 -1.734723E-18 -1.227630E-18  8.283898E-19
         6   8 -2.695893E-10 -2.695893E-10  2.310765E-10 -1.301043E-18  2.902532E-19  2.822475E-19
         7   1 -2.695893E-10 -2.695893E-10  2.310765E-10 -9.150221E-19  1.159274E-19 -1.445401E-18
         7   2 -2.695893E-10 -2.695893E-10  2.310765E-10 -1.045233E-18  4.549635E-19  3.137302E-19
         7   3 -2.695893E-10 -2.695893E-10  2.310765E-10 -4.766033E-20 -1.099330E-19  2.891408E-18
         7   4 -2.695893E-10 -2.695893E-10  2.310765E-10 -1.778708E-19 -1.584322E-19  8.558313E-19
         7   5 -2.695893E-10 -2.695893E-10  2.310765E-10  1.488476E-18  9.361083E-20 -4.381160E-19
         7   6 -2.695893E-10 -2.695893E-10  2.310765E-10  8.157166E-19  4.326469E-19 -1.185336E-18
         7   7 -2.695893E-10 -2.695893E-10  2.310765E-10  1.488476E-18 -3.617766E-19 -6.549564E-19
         7   8 -2.695893E-10 -2.695893E-10  2.310765E-10  8.157166E-19 -4.102757E-19  2.284110E-18
         8   1 -2.695893E-10 -2.695893E-10  2.310765E-10  4.336809E-19  2.399108E-19 -2.950621E-18
         8   2 -2.695893E-10 -2.695893E-10  2.310765E-10  3.794708E-19  7.278018E-19 -5.656392E-19
         8   3 -2.695893E-10 -2.695893E-10  2.310765E-10 -4.336809E-19  1.323850E-18  2.687230E-18
         8   4 -2.695893E-10 -2.695893E-10  2.310765E-10 -2.168404E-19  2.396480E-19  4.101428E-19
         8   5 -2.695893E-10 -2.695893E-10  2.310765E-10  8.673617E-19 -8.606310E-19 -7.664369E-19
         8   6 -2.695893E-10 -2.695893E-10  2.310765E-10  1.084202E-18  1.693611E-19 -4.712083E-19
         8   7 -2.695893E-10 -2.695893E-10  2.310765E-10 -2.602085E-18 -1.215924E-18 -5.495965E-19
         8   8 -2.695893E-10 -2.695893E-10  2.310765E-10 -2.385245E-18 -4.569821E-19  2.877333E-19
         9   1 -2.695893E-10 -2.695893E-10  2.310765E-10  1.301043E-18  1.199657E-18 -6.497646E-19
         9   2 -2.695893E-10 -2.695893E-10  2.310765E-10  3.469447E-18  1.154544E-19  3.241026E-19
         9   3 -2.695893E-10 -2.695893E-10  2.310765E-10 -1.301043E-18  2.607205E-18 -6.497646E-19
         9   4 -2.695893E-10 -2.695893E-10  2.310765E-10  7.589415E-19  2.607205E-18  1.408305E-18
         9   5 -2.695893E-10 -2.695893E-10  2.310765E-10 -8.048085E-37  4.308819E-19 -9.226398E-19
         9   6 -2.695893E-10 -2.695893E-10  2.310765E-10  1.734723E-18 -2.799011E-21 -1.605466E-18
         9   7 -2.695893E-10 -2.695893E-10  2.310765E-10 -5.987500E-36  1.753829E-18  8.120836E-19
         9   8 -2.695893E-10 -2.695893E-10  2.310765E-10  8.673617E-19 -6.314154E-19  1.701350E-18

 displacements (vx,vy,vz) for set NALL and time  0.4807813E+00

         1  0.000000E+00  0.000000E+00  0.000000E+00
         2 -1.373661E-07  0.000000E+00  0.000000E+00
         3 -7.211719E+00  0.000000E+00  0.000000E+00
         4 -7.211719E+00  0.000000E+00  0.000000E+00
         5 -1.442344E+01  0.000000E+00  0.000000E+00
         6 -1.442344E+01  0.000000E+00  0.000000E+00
         7  0.000000E+00 -1.373661E-07  0.000000E+00
         8 -1.373661E-07 -1.373661E-07  0.000000E+00
         9 -7.211719E+00 -1.373661E-07  0.000000E+00
        10 -7.211719E+00 -1.373661E-07  0.000000E+00
        11 -1.442344E+01 -1.373661E-07  0.000000E+00
        12 -1.442344E+01 -1.373661E-07  0.000000E+00
        13  0.000000E+00 -7.211719E+00  0.000000E+00
        14 -1.373661E-07 -7.211719E+00  0.000000E+00
        15 -7.211719E+00 -7.211719E+00  0.000000E+00
        16 -7.211719E+00 -7.211719E+00  0.000000E+00
        17 -1.442344E+01 -7.211719E+00  0.000000E+00
        18 -1.442344E+01 -7.211719E+00  0.000000E+00
        19  0.000000E+00 -7.211719E+00  0.000000E+00
        20 -1.373661E-07 -7.211719E+00  0.000000E+00
        21 -7.211719E+00 -7.211719E+00  0.000000E+00
        22 -7.211719E+00 -7.211719E+00  0.000000E+00
        23 -1.442344E+01 -7.211719E+00  0.000000E+00
        24 -1.442344E+01 -7.211719E+00  0.000000E+00
        25  0.000000E+00 -1.442344E+01  0.000000E+00
        26 -1.373661E-07 -1.442344E+01  0.000000E+00
        27 -7.211719E+00 -1.442344E+01  0.000000E+00
        28 -7.211719E+00 -1.442344E+01  0.000000E+00
        29 -1.442344E+01 -1.442344E+01  0.000000E+00
        30 -1.442344E+01 -1.442344E+01  0.000000E+00
        31  0.000000E+00 -1.442344E+01  0.000000E+00
        32 -1.373661E-07 -1.442344E+01  0.000000E+00
        33 -7.211719E+00 -1.442344E+01  0.000000E+00
        34 -7.211719E+00 -1.442344E+01  0.000000E+00
        35 -1.442344E+01 -1.442344E+01  0.000000E+00
        36 -1.442344E+01 -1.442344E+01  0.000000E+00
        37  0.000000E+00  0.000000E+00  1.648393E-07
        38 -1.373661E-07  0.000000E+00  1.648393E-07
        39 -7.211719E+00  0.000000E+00  1.648393E-07
        40 -7.211719E+00  0.000000E+00  1.648393E-07
        41 -1.442344E+01  0.000000E+00  1.648393E-07
        42 -1.442344E+01  0.000000E+00  1.648393E-07
        43  0.000000E+00 -1.373661E-07  1.648393E-07
        44 -1.373661E-07 -1.373661E-07  1.648393E-07
        45 -7.211719E+00 -1.373661E-07  1.648393E-07
        46 -7.211719E+00 -1.373661E-07  1.648393E-07
        47 -1.442344E+01 -1.373661E-07  1.648393E-07
        48 -1.442344E+01 -1.373661E-07  1.648393E-07
        49  0.000000E+00 -7.211719E+00  1.648393E-07
        50 -1.373661E-07 -7.211719E+00  1.648393E-07
        51 -7.211719E+00 -7.211719E+00  1.648393E-07
        52 -7.211719E+00 -7.211719E+00  1.648393E-07
        53 -1.442344E+01 -7.211719E+00  1.648393E-07
        54 -1.442344E+01 -7.211719E+00  1.648393E-07
        55  0.000000E+00 -7.211719E+00  1.648393E-07
        56 -1.373661E-07 -7.211719E+00  1.648393E-07
        57 -7.211719E+00 -7.211719E+00  1.648393E-07
        58 -7.211719E+00 -7.211719E+00  1.648393E-07
        59 -1.442344E+01 -7.211719E+00  1.648393E-07
        60 -1.442344E+01 -7.211719E+00  1.648393E-07
        61  0.000000E+00 -1.442344E+01  1.648393E-07
        62 -1.373661E-07 -1.442344E+01  1.648393E-07
        63 -7.211719E+00 -1.442344E+01  1.648393E-07
        64 -7.211719E+00 -1.442344E+01  1.648393E-07
        65 -1.442344E+01 -1.442344E+01  1.648393E-07
        66 -1.442344E+01 -1.442344E+01  1.648393E-07
        67  0.000000E+00 -1.442344E+01  1.648393E-07
        68 -1.373661E-07 -1.442344E+01  1.648393E-07
        69 -7.211719E+00 -1.442344E+01  1.648393E-07
        70 -7.211719E+00 -1.442344E+01  1.648393E-07
        71 -1.442344E+01 -1.442344E+01  1.648393E-07
        72 -1.442344E+01 -1.442344E+01  1.648393E-07

 stresses (elem, integ.pnt.,sxx,syy,szz,sxy,sxz,syz) for set EALL and time  0.4807813E+00

         1   1 -8.241964E-05 -8.241964E-05 -1.355253E-20  5.219589E-21 -3.653712E-21  3.653712E-21
         1   2 -8.241964E-05 -8.241964E-05  4.065758E-20 -3.262243E-21 -1.070016E-20 -6.524487E-22
         1   3 -8.241964E-05 -8.241964E-05 -4.065758E-20  2.257472E-20  3.131754E-21  1.409289E-20
         1   4 -8.241964E-05 -8.241964E-05  2.710505E-20  1.409289E-20  8.351343E-21 -9.134281E-21
         1   5 -8.241964E-05 -8.241964E-05  9.781933E-46 -1.043918E-21 -7.568404E-21  4.175671E-21
         1   6 -8.241964E-05 -8.241964E-05  4.152262E-45  8.873302E-21 -1.461485E-20  7.959874E-21
         1   7 -8.241964E-05 -8.241964E-05  2.050833E-45 -1.409289E-20  9.917219E-21  1.670269E-20
         1   8 -8.241964E-05 -8.241964E-05  1.355253E-20 -4.175671E-21  1.461485E-20 -5.219589E-22
         2   1 -8.241964E-05 -8.241964E-05 -8.140691E-14  1.795735E-13 -6.839355E-14 -6.410361E-15
         2   2 -8.241964E-05 -8.241964E-05 -5.188384E-14  8.324631E-14 -1.585145E-14  4.800259E-15
         2   3 -8.241964E-05 -8.241964E-05 -1.265529E-13  1.916851E-13  2.011099E-14  4.643021E-15
         2   4 -8.241964E-05 -8.241964E-05  2.897510E-14 -9.692756E-16 -6.745919E-14 -3.920352E-15
         2   5 -8.241964E-05 -8.241964E-05  2.307868E-13  2.745248E-13 -6.385128E-14 -3.497717E-14
         2   6 -8.241964E-05 -8.241964E-05  2.187844E-13  6.435640E-14  4.998995E-14  2.663542E-14
         2   7 -8.241964E-05 -8.241964E-05 -2.084250E-13  1.188406E-13  4.999095E-15 -2.392379E-14
         2   8 -8.241964E-05 -8.241964E-05 -9.442238E-14 -5.629980E-14 -6.505705E-14  1.791481E-14
         3   1 -8.241964E-05 -8.241964E-05 -2.282800E-13 -3.093221E-14 -4.791059E-14 -3.475229E-15
         3   2 -8.241964E-05 -8.241964E-05 -2.037857E-13  1.266941E-13  2.235570E-13  1.077684E-14
         3   3 -8.241964E-05 -8.241964E-05  6.251105E-14 -1.154406E-13  1.400152E-13 -6.623564E-14
         3   4 -8.241964E-05 -8.241964E-05 -6.491445E-14  2.348401E-13  1.400152E-13  4.772176E-14
         3   5 -8.241964E-05 -8.241964E-05 -3.075348E-13 -5.402888E-13 -5.746396E-14  4.979068E-14
         3   6 -8.241964E-05 -8.241964E-05 -7.365923E-14 -1.199519E-13 -1.100061E-13  3.274794E-15
         3   7 -8.241964E-05 -8.241964E-05 -1.743700E-13 -4.852097E-13  1.397500E-13 -1.296974E-14
         3   8 -8.241964E-05 -8.241964E-05 -9.241433E-14  7.523945E-14  3.466583E-14  4.021972E-14
         4   1 -8.241964E-05 -8.241964E-05  1.940911E-13 -1.471808E-15 -1.928351E-15  8.023037E-14
         4   2 -8.241964E-05 -8.241964E-05  5.003028E-14 -5.492859E-15 -7.368702E-15 -7.542847E-15
         4   3 -8.241964E-05 -8.241964E-05  1.379277E-13 -3.649988E-14  2.502269E-15  6.271633E-14
         4   4 -8.241964E-05 -8.241964E-05 -7.519904E-15 -4.052093E-14  9.721318E-15 -7.759899E-14
         4   5 -8.241964E-05 -8.241964E-05  7.758212E-14 -3.001275E-14 -1.756353E-15  1.477478E-13
         4   6 -8.241964E-05 -8.241964E-05  2.356384E-13 -1.631064E-14 -7.196704E-15 -6.317836E-14
         4   7 -8.241964E-05 -8.241964E-05  4.800347E-14  5.015320E-15  2.119542E-15 -9.744867E-14
         4   8 -8.241964E-05 -8.241964E-05  2.046730E-13  1.871743E-14  9.338595E-15 -8.069240E-14
         5   1 -8.241964E-05 -8.241964E-05 -2.270256E-13  4.378509E-14 -5.604140E-15 -6.429108E-14
         5   2 -8.241964E-05 -8.241964E-05  1.695731E-13 -7.005614E-14  7.531386E-15 -3.390350E-15
         5   3 -8.241964E-05 -8.241964E-05 -4.226857E-13  3.152526E-13 -8.481569E-14  9.333524E-14
         5   4 -8.241964E-05 -8.241964E-05 -1.425650E-13  2.451965E-13  1.954089E-13  1.016939E-13
         5   5 -8.241964E-05 -8.241964E-05 -3.721687E-15 -1.401123E-13  4.444834E-14  1.682263E-14
         5   6 -8.241964E-05 -8.241964E-05  2.508230E-14  7.005614E-14  9.699044E-14  4.426766E-14
         5   7 -8.241964E-05 -8.241964E-05  2.078196E-13 -1.401123E-13 -1.251395E-13  8.687877E-14
         5   8 -8.241964E-05 -8.241964E-05  1.070100E-13  7.005614E-14  6.751485E-14  4.861078E-15
         6   1 -8.241964E-05 -8.241964E-05 -7.623329E-13 -9.632719E-14  3.131703E-13 -1.554234E-13
         6   2 -8.241964E-05 -8.241964E-05 -3.008696E-13  1.138412E-13 -2.835335E-14 -1.028520E-13
         6   3 -8.241964E-05 -8.241964E-05 -4.700372E-13 -2.101684E-13 -1.518856E-14  1.971697E-14
         6   4 -8.241964E-05 -8.241964E-05 -8.776244E-14 -3.677947E-13 -1.518856E-14  1.992651E-13
         6   5 -8.241964E-05 -8.241964E-05 -3.945381E-13 -4.203368E-13  1.787108E-14  7.358473E-14
         6   6 -8.241964E-05 -8.241964E-05  9.319620E-14  2.101684E-13 -1.572693E-13  6.032831E-14
         6   7 -8.241964E-05 -8.241964E-05 -4.970033E-14 -2.802246E-13  8.342782E-14  3.528586E-15
         6   8 -8.241964E-05 -8.241964E-05 -4.835586E-14 -7.005614E-14 -5.668446E-14  5.157129E-14
         7   1 -8.241964E-05 -8.241964E-05 -2.514302E-13  5.170331E-14  3.135969E-14 -2.840426E-13
         7   2 -8.241964E-05 -8.241964E-05 -2.400192E-13  1.562450E-15  8.094629E-14 -3.789081E-13
         7   3 -8.241964E-05 -8.241964E-05  3.650196E-13 -1.835283E-14 -2.322355E-14 -1.789583E-13
         7   4 -8.241964E-05 -8.241964E-05  2.754482E-14 -6.849369E-14  1.679317E-14  5.018580E-14
         7   5 -8.241964E-05 -8.241964E-05 -3.574668E-13  2.569678E-13  6.744935E-14 -2.876026E-13
         7   6 -8.241964E-05 -8.241964E-05 -1.621584E-13  1.934291E-13  1.170360E-13 -4.914353E-14
         7   7 -8.241964E-05 -8.241964E-05  2.388863E-13 -2.325678E-14 -1.266882E-13  9.770612E-14
         7   8 -8.241964E-05 -8.241964E-05  8.530890E-14 -8.679547E-14 -8.667148E-14  4.718367E-14
         8   1 -8.241964E-05 -8.241964E-05 -6.664646E-14  9.223055E-31 -1.099262E-13 -2.758500E-13
         8   2 -8.241964E-05 -8.241964E-05 -7.344666E-14  3.502807E-14  1.046208E-13 -9.115707E-14
         8   3 -8.241964E-05 -8.241964E-05  4.445312E-13 -7.005614E-14  1.346765E-14 -1.707658E-13
         8   4 -8.241964E-05 -8.241964E-05  1.105667E-13 -1.663833E-13 -9.161656E-14  2.678806E-13
         8   5 -8.241964E-05 -8.241964E-05 -4.037542E-14  4.203368E-13 -1.406687E-13 -2.570277E-13
         8   6 -8.241964E-05 -8.241964E-05  3.163755E-14  1.751404E-13  3.885015E-14 -3.856855E-14
         8   7 -8.241964E-05 -8.241964E-05  1.818207E-13  1.401123E-13 -1.022703E-15  1.282811E-13
         8   8 -8.241964E-05 -8.241964E-05  5.482526E-15 -1.050842E-13 -2.287052E-13 -6.483961E-14
         9   1 -8.241964E-05 -8.241964E-05 -2.924090E-13  7.005614E-14  3.059039E-13 -2.897505E-13
         9   2 -8.241964E-05 -8.241964E-05  2.507787E-13  2.802246E-13  8.697844E-14  3.018135E-13
         9   3 -8.241964E-05 -8.241964E-05  3.939992E-14  2.101684E-13 -2.672155E-13 -1.146102E-13
         9   4 -8.241964E-05 -8.241964E-05  3.384222E-13  5.254211E-14 -9.207511E-14 -1.623085E-13
         9   5 -8.241964E-05 -8.241964E-05 -8.703722E-13  3.837256E-30 -7.930383E-14 -5.353301E-13
         9   6 -8.241964E-05 -8.241964E-05 -4.848108E-13  4.203368E-13  5.205143E-14  2.317867E-13
         9   7 -8.241964E-05 -8.241964E-05 -6.961896E-13 -5.604491E-13  4.855064E-14  2.352874E-13
         9   8 -8.241964E-05 -8.241964E-05 -2.920831E-13  1.052917E-30 -3.367581E-13 -9.222300E-14

 strains (elem, integ.pnt.,exx,eyy,ezz,exy,exz,eyz) forset EALL and time  0.4807813E+00

         1   1 -2.747321E-10 -2.747321E-10  2.354847E-10  3.231174E-26 -2.261822E-26  2.261822E-26
         1   2 -2.747321E-10 -2.747321E-10  2.354847E-10 -2.019484E-26 -6.623907E-26 -4.038968E-27
         1   3 -2.747321E-10 -2.747321E-10  2.354847E-10  1.397483E-25  1.938705E-26  8.724171E-26
         1   4 -2.747321E-10 -2.747321E-10  2.354847E-10  8.724171E-26  5.169879E-26 -5.654555E-26
         1   5 -2.747321E-10 -2.747321E-10  2.354847E-10 -6.462349E-27 -4.685203E-26  2.584939E-26
         1   6 -2.747321E-10 -2.747321E-10  2.354847E-10  5.492996E-26 -9.047288E-26  4.927541E-26
         1   7 -2.747321E-10 -2.747321E-10  2.354847E-10 -8.724171E-26  6.139231E-26  1.033976E-25
         1   8 -2.747321E-10 -2.747321E-10  2.354847E-10 -2.584939E-26  9.047288E-26 -3.231174E-27
         2   1 -2.747321E-10 -2.747321E-10  2.354847E-10  1.111646E-18 -4.233887E-19 -3.968319E-20
         2   2 -2.747321E-10 -2.747321E-10  2.354847E-10  5.153343E-19 -9.812801E-20  2.971589E-20
         2   3 -2.747321E-10 -2.747321E-10  2.354847E-10  1.186622E-18  1.244966E-19  2.874251E-20
         2   4 -2.747321E-10 -2.747321E-10  2.354847E-10 -6.000278E-21 -4.176045E-19 -2.426884E-20
         2   5 -2.747321E-10 -2.747321E-10  2.354847E-10  1.699439E-18 -3.952698E-19 -2.165254E-19
         2   6 -2.747321E-10 -2.747321E-10  2.354847E-10  3.983968E-19  3.094616E-19  1.648859E-19
         2   7 -2.747321E-10 -2.747321E-10  2.354847E-10  7.356796E-19  3.094678E-20 -1.480996E-19
         2   8 -2.747321E-10 -2.747321E-10  2.354847E-10 -3.485225E-19 -4.027341E-19  1.109012E-19
         3   1 -2.747321E-10 -2.747321E-10  2.354847E-10 -1.914851E-19 -2.965894E-19 -2.151332E-20
         3   2 -2.747321E-10 -2.747321E-10  2.354847E-10  7.842969E-19  1.383924E-18  6.671377E-20
         3   3 -2.747321E-10 -2.747321E-10  2.354847E-10 -7.146321E-19  8.667609E-19 -4.100301E-19
         3   4 -2.747321E-10 -2.747321E-10  2.354847E-10  1.453772E-18  8.667609E-19  2.954204E-19
         3   5 -2.747321E-10 -2.747321E-10  2.354847E-10 -3.344645E-18 -3.557293E-19  3.082280E-19
         3   6 -2.747321E-10 -2.747321E-10  2.354847E-10 -7.425596E-19 -6.809899E-19  2.027253E-20
         3   7 -2.747321E-10 -2.747321E-10  2.354847E-10 -3.003679E-18  8.651193E-19 -8.028884E-20
         3   8 -2.747321E-10 -2.747321E-10  2.354847E-10  4.657680E-19  2.145980E-19  2.489792E-19
         4   1 -2.747321E-10 -2.747321E-10  2.354847E-10 -9.111192E-21 -1.193741E-20  4.966642E-19
         4   2 -2.747321E-10 -2.747321E-10  2.354847E-10 -3.400341E-20 -4.561577E-20 -4.669382E-20
         4   3 -2.747321E-10 -2.747321E-10  2.354847E-10 -2.259516E-19  1.549024E-20  3.882440E-19
         4   4 -2.747321E-10 -2.747321E-10  2.354847E-10 -2.508438E-19  6.017959E-20 -4.803747E-19
         4   5 -2.747321E-10 -2.747321E-10  2.354847E-10 -1.857932E-19 -1.087266E-20  9.146294E-19
         4   6 -2.747321E-10 -2.747321E-10  2.354847E-10 -1.009706E-19 -4.455102E-20 -3.911041E-19
         4   7 -2.747321E-10 -2.747321E-10  2.354847E-10  3.104722E-20  1.312097E-20 -6.032536E-19
         4   8 -2.747321E-10 -2.747321E-10  2.354847E-10  1.158698E-19  5.781035E-20 -4.995244E-19
         5   1 -2.747321E-10 -2.747321E-10  2.354847E-10  2.710505E-19 -3.469229E-20 -3.979924E-19
         5   2 -2.747321E-10 -2.747321E-10  2.354847E-10 -4.336809E-19  4.662287E-20 -2.098788E-20
         5   3 -2.747321E-10 -2.747321E-10  2.354847E-10  1.951564E-18 -5.250495E-19  5.777896E-19
         5   4 -2.747321E-10 -2.747321E-10  2.354847E-10  1.517883E-18  1.209674E-18  6.295334E-19
         5   5 -2.747321E-10 -2.747321E-10  2.354847E-10 -8.673617E-19  2.751564E-19  1.041401E-19
         5   6 -2.747321E-10 -2.747321E-10  2.354847E-10  4.336809E-19  6.004170E-19  2.740379E-19
         5   7 -2.747321E-10 -2.747321E-10  2.354847E-10 -8.673617E-19 -7.746733E-19  5.378209E-19
         5   8 -2.747321E-10 -2.747321E-10  2.354847E-10  4.336809E-19  4.179491E-19  3.009238E-20
         6   1 -2.747321E-10 -2.747321E-10  2.354847E-10 -5.963112E-19  1.938673E-18 -9.621447E-19
         6   2 -2.747321E-10 -2.747321E-10  2.354847E-10  7.047314E-19 -1.755208E-19 -6.367029E-19
         6   3 -2.747321E-10 -2.747321E-10  2.354847E-10 -1.301043E-18 -9.402439E-20  1.220574E-19
         6   4 -2.747321E-10 -2.747321E-10  2.354847E-10 -2.276825E-18 -9.402439E-20  1.233546E-18
         6   5 -2.747321E-10 -2.747321E-10  2.354847E-10 -2.602085E-18  1.106305E-19  4.555245E-19
         6   6 -2.747321E-10 -2.747321E-10  2.354847E-10  1.301043E-18 -9.735717E-19  3.734610E-19
         6   7 -2.747321E-10 -2.747321E-10  2.354847E-10 -1.734723E-18  5.164579E-19  2.184363E-20
         6   8 -2.747321E-10 -2.747321E-10  2.354847E-10 -4.336809E-19 -3.509038E-19  3.192508E-19
         7   1 -2.747321E-10 -2.747321E-10  2.354847E-10  3.200681E-19  1.941314E-19 -1.758359E-18
         7   2 -2.747321E-10 -2.747321E-10  2.354847E-10  9.672307E-21  5.010961E-19 -2.345621E-18
         7   3 -2.747321E-10 -2.747321E-10  2.354847E-10 -1.136128E-19 -1.437649E-19 -1.107837E-18
         7   4 -2.747321E-10 -2.747321E-10  2.354847E-10 -4.240086E-19  1.039577E-19  3.106740E-19
         7   5 -2.747321E-10 -2.747321E-10  2.354847E-10  1.590753E-18  4.175436E-19 -1.780397E-18
         7   6 -2.747321E-10 -2.747321E-10  2.354847E-10  1.197418E-18  7.245083E-19 -3.042218E-19
         7   7 -2.747321E-10 -2.747321E-10  2.354847E-10 -1.439705E-19 -7.842603E-19  6.048474E-19
         7   8 -2.747321E-10 -2.747321E-10  2.354847E-10 -5.373053E-19 -5.365378E-19  2.920894E-19
         8   1 -2.747321E-10 -2.747321E-10  2.354847E-10 -3.227396E-37 -6.804954E-19 -1.707643E-18
         8   2 -2.747321E-10 -2.747321E-10  2.354847E-10  2.168404E-19  6.476523E-19 -5.643057E-19
         8   3 -2.747321E-10 -2.747321E-10  2.354847E-10 -4.336809E-19  8.337116E-20 -1.057122E-18
         8   4 -2.747321E-10 -2.747321E-10  2.354847E-10 -1.029992E-18 -5.671501E-19  1.658309E-18
         8   5 -2.747321E-10 -2.747321E-10  2.354847E-10  2.602085E-18 -8.708063E-19 -1.591124E-18
         8   6 -2.747321E-10 -2.747321E-10  2.354847E-10  1.084202E-18  2.405009E-19 -2.387577E-19
         8   7 -2.747321E-10 -2.747321E-10  2.354847E-10  8.673617E-19 -6.331021E-21  7.941208E-19
         8   8 -2.747321E-10 -2.747321E-10  2.354847E-10 -6.505213E-19 -1.415794E-18 -4.013880E-19
         9   1 -2.747321E-10 -2.747321E-10  2.354847E-10  4.336809E-19  1.893691E-18 -1.793694E-18
         9   2 -2.747321E-10 -2.747321E-10  2.354847E-10  1.734723E-18  5.384380E-19  1.868369E-18
         9   3 -2.747321E-10 -2.747321E-10  2.354847E-10  1.301043E-18 -1.654191E-18 -7.094915E-19
         9   4 -2.747321E-10 -2.747321E-10  2.354847E-10  3.252607E-19 -5.699888E-19 -1.004767E-18
         9   5 -2.747321E-10 -2.747321E-10  2.354847E-10 -1.133797E-35 -4.909285E-19 -3.313948E-18
         9   6 -2.747321E-10 -2.747321E-10  2.354847E-10  2.602085E-18  3.222231E-19  1.434870E-18
         9   7 -2.747321E-10 -2.747321E-10  2.354847E-10 -3.469447E-18  3.005516E-19  1.456541E-18
         9   8 -2.747321E-10 -2.747321E-10  2.354847E-10  1.782015E-37 -2.084693E-18 -5.709043E-19

 displacements (vx,vy,vz) for set NALL and time  0.4897813E+00

         1  0.000000E+00  0.000000E+00  0.000000E+00
         2 -1.399375E-07  0.000000E+00  0.000000E+00
         3 -7.346719E+00  0.000000E+00  0.000000E+00
         4 -7.346719E+00  0.000000E+00  0.000000E+00
         5 -1.469344E+01  0.000000E+00  0.000000E+00
         6 -1.469344E+01  0.000000E+00  0.000000E+00
         7  0.000000E+00 -1.399375E-07  0.000000E+00
         8 -1.399375E-07 -1.399375E-07  0.000000E+00
         9 -7.346719E+00 -1.399375E-07  0.000000E+00
        10 -7.346719E+00 -1.399375E-07  0.000000E+00
        11 -1.469344E+01 -1.399375E-07  0.000000E+00
        12 -1.469344E+01 -1.399375E-07  0.000000E+00
        13  0.000000E+00 -7.346719E+00  0.000000E+00
        14 -1.399375E-07 -7.346719E+00  0.000000E+00
        15 -7.346719E+00 -7.346719E+00  0.000000E+00
        16 -7.346719E+00 -7.346719E+00  0.000000E+00
        17 -1.469344E+01 -7.346719E+00  0.000000E+00
        18 -1.469344E+01 -7.346719E+00  0.000000E+00
        19  0.000000E+00 -7.346719E+00  0.000000E+00
        20 -1.399375E-07 -7.346719E+00  0.000000E+00
        21 -7.346719E+00 -7.346719E+00  0.000000E+00
        22 -7.346719E+00 -7.346719E+00  0.000000E+00
        23 -1.469344E+01 -7.346719E+00  0.000000E+00
        24 -1.469344E+01 -7.346719E+00  0.000000E+00
        25  0.000000E+00 -1.469344E+01  0.000000E+00
        26 -1.399375E-07 -1.469344E+01  0.000000E+00
        27 -7.346719E+00 -1.469344E+01  0.000000E+00
        28 -7.346719E+00 -1.469344E+01  0.000000E+00
        29 -1.469344E+01 -1.469344E+01  0.000000E+00
        30 -1.469344E+01 -1.469344E+01  0.000000E+00
        31  0.000000E+00 -1.469344E+01  0.000000E+00
        32 -1.399375E-07 -1.469344E+01  0.000000E+00
        33 -7.346719E+00 -1.469344E+01  0.000000E+00
        34 -7.346719E+00 -1.469344E+01  0.000000E+00
        35 -1.469344E+01 -1.469344E+01  0.000000E+00
        36 -1.469344E+01 -1.469344E+01  0.000000E+00
        37  0.000000E+00  0.000000E+00  1.679250E-07
        38 -1.399375E-07  0.000000E+00  1.679250E-07
        39 -7.346719E+00  0.000000E+00  1.679250E-07
        40 -7.346719E+00  0.000000E+00  1.679250E-07
        41 -1.469344E+01  0.000000E+00  1.679250E-07
        42 -1.469344E+01  0.000000E+00  1.679250E-07
        43  0.000000E+00 -1.399375E-07  1.679250E-07
        44 -1.399375E-07 -1.399375E-07  1.679250E-07
        45 -7.346719E+00 -1.399375E-07  1.679250E-07
        46 -7.346719E+00 -1.399375E-07  1.679250E-07
        47 -1.469344E+01 -1.399375E-07  1.679250E-07
        48 -1.469344E+01 -1.399375E-07  1.679250E-07
        49  0.000000E+00 -7.346719E+00  1.679250E-07
        50 -1.399375E-07 -7.346719E+00  1.679250E-07
        51 -7.346719E+00 -7.346719E+00  1.679250E-07
        52 -7.346719E+00 -7.346719E+00  1.679250E-07
        53 -1.469344E+01 -7.346719E+00  1.679250E-07
        54 -1.469344E+01 -7.346719E+00  1.679250E-07
        55  0.000000E+00 -7.346719E+00  1.679250E-07
        56 -1.399375E-07 -7.346719E+00  1.679250E-07
        57 -7.346719E+00 -7.346719E+00  1.679250E-07
        58 -7.346719E+00 -7.346719E+00  1.679250E-07
        59 -1.469344E+01 -7.346719E+00  1.679250E-07
        60 -1.469344E+01 -7.346719E+00  1.679250E-07
        61  0.000000E+00 -1.469344E+01  1.679250E-07
        62 -1.399375E-07 -1.469344E+01  1.679250E-07
        63 -7.346719E+00 -1.469344E+01  1.679250E-07
        64 -7.346719E+00 -1.469344E+01  1.679250E-07
        65 -1.469344E+01 -1.469344E+01  1.679250E-07
        66 -1.469344E+01 -1.469344E+01  1.679250E-07
        67  0.000000E+00 -1.469344E+01  1.679250E-07
        68 -1.399375E-07 -1.469344E+01  1.679250E-07
        69 -7.346719E+00 -1.469344E+01  1.679250E-07
        70 -7.346719E+00 -1.469344E+01  1.679250E-07
        71 -1.469344E+01 -1.469344E+01  1.679250E-07
        72 -1.469344E+01 -1.469344E+01  1.679250E-07

 stresses (elem, integ.pnt.,sxx,syy,szz,sxy,sxz,syz) for set EALL and time  0.4897813E+00

         1   1 -8.396250E-05 -8.396250E-05  2.710505E-20 -1.435387E-21  1.304897E-22  4.175671E-21
         1   2 -8.396250E-05 -8.396250E-05  1.355253E-20 -1.474534E-20  1.304897E-21 -3.001264E-21
         1   3 -8.396250E-05 -8.396250E-05 -1.355253E-20  9.134281E-21  2.087836E-21  9.395261E-21
         1   4 -8.396250E-05 -8.396250E-05 -1.011924E-45 -4.175671E-21  1.565877E-20 -7.829384E-21
         1   5 -8.396250E-05 -8.396250E-05  2.710505E-20 -5.219589E-22  9.134281E-22  9.395261E-21
         1   6 -8.396250E-05 -8.396250E-05  8.011066E-46  3.131754E-21  2.087836E-21 -6.654976E-21
         1   7 -8.396250E-05 -8.396250E-05  4.065758E-20 -3.653712E-21 -7.829384E-21  1.461485E-20
         1   8 -8.396250E-05 -8.396250E-05  4.047697E-47 -2.725449E-45  4.175671E-21 -1.148310E-20
         2   1 -8.396250E-05 -8.396250E-05 -1.151360E-14 -3.422705E-15 -1.192963E-14  3.204787E-15
         2   2 -8.396250E-05 -8.396250E-05  1.260210E-14 -1.172639E-13 -8.636428E-14 -2.803103E-15
         2   3 -8.396250E-05 -8.396250E-05 -2.151503E-14 -1.277371E-14  6.602488E-14 -5.055852E-15
         2   4 -8.396250E-05 -8.396250E-05 -6.307551E-14 -8.282985E-14  6.602488E-14 -1.207125E-15
         2   5 -8.396250E-05 -8.396250E-05 -1.864873E-13 -1.384841E-13  3.327245E-15  2.022106E-14
         2   6 -8.396250E-05 -8.396250E-05 -1.416727E-13  1.417405E-13 -9.808281E-15 -1.205730E-14
         2   7 -8.396250E-05 -8.396250E-05 -9.140446E-14  1.461887E-13  5.501128E-14  1.196042E-14
         2   8 -8.396250E-05 -8.396250E-05 -1.122661E-13  1.812168E-13  1.951236E-13 -1.046133E-14
         3   1 -8.396250E-05 -8.396250E-05  1.823591E-13 -1.254981E-13  1.677968E-13  3.134945E-14
         3   2 -8.396250E-05 -8.396250E-05  1.920917E-13 -2.041385E-14  6.271255E-14 -3.351421E-14
         3   3 -8.396250E-05 -8.396250E-05 -2.085604E-14 -8.557126E-14 -1.972148E-13  4.065747E-14
         3   4 -8.396250E-05 -8.396250E-05 -3.509830E-13  2.121673E-13  2.931782E-13 -6.547317E-14
         3   5 -8.396250E-05 -8.396250E-05  1.230928E-13 -6.532445E-15 -6.243470E-14  1.076897E-13
         3   6 -8.396250E-05 -8.396250E-05  4.616475E-14 -6.532445E-15 -3.514163E-13 -9.311778E-14
         3   7 -8.396250E-05 -8.396250E-05 -1.063934E-13 -2.437942E-14  2.072275E-13  1.169977E-13
         3   8 -8.396250E-05 -8.396250E-05 -5.231811E-13  1.157329E-13  6.711521E-14 -1.250767E-13
         4   1 -8.396250E-05 -8.396250E-05  1.134213E-13  3.484088E-15  7.075497E-15  1.238383E-13
         4   2 -8.396250E-05 -8.396250E-05  1.338473E-13 -1.092182E-14  7.727295E-15 -2.483438E-14
         4   3 -8.396250E-05 -8.396250E-05  1.002825E-13 -5.272930E-15 -6.291368E-15 -1.388722E-13
         4   4 -8.396250E-05 -8.396250E-05  2.427989E-15 -1.967884E-14  5.153670E-15  8.900685E-14
         4   5 -8.396250E-05 -8.396250E-05  1.147901E-13 -1.398544E-13  2.575431E-14  4.628114E-15
         4   6 -8.396250E-05 -8.396250E-05  1.089450E-13 -1.391497E-13  2.640611E-14 -1.081651E-13
         4   7 -8.396250E-05 -8.396250E-05 -8.585138E-14  2.579103E-16 -3.492474E-14  7.468425E-14
         4   8 -8.396250E-05 -8.396250E-05  1.914972E-16  9.625361E-16 -2.347970E-14 -2.176279E-13
         5   1 -8.396250E-05 -8.396250E-05  4.538296E-13  2.276825E-13 -1.466664E-13 -5.708315E-14
         5   2 -8.396250E-05 -8.396250E-05  2.777087E-13  1.663833E-13  1.510722E-13  9.989751E-14
         5   3 -8.396250E-05 -8.396250E-05  5.147623E-13  3.502807E-14 -6.412040E-14 -4.541043E-15
         5   4 -8.396250E-05 -8.396250E-05  2.269160E-13  1.751404E-14  5.935736E-15 -9.713538E-14
         5   5 -8.396250E-05 -8.396250E-05  5.983203E-13  3.502807E-14 -6.946340E-15 -1.570597E-13
         5   6 -8.396250E-05 -8.396250E-05  4.484705E-13  1.401123E-13 -8.575950E-14  3.842245E-14
         5   7 -8.396250E-05 -8.396250E-05  1.995097E-13  1.005097E-32 -4.790367E-14 -1.694741E-14
         5   8 -8.396250E-05 -8.396250E-05  1.875094E-13  9.215394E-31  4.638432E-15 -2.287667E-14
         6   1 -8.396250E-05 -8.396250E-05  2.110296E-13  1.751404E-13 -5.151522E-14  6.258344E-14
         6   2 -8.396250E-05 -8.396250E-05 -5.920604E-14 -8.757018E-14  9.735408E-14 -1.179543E-13
         6   3 -8.396250E-05 -8.396250E-05 -2.340757E-13  1.751404E-13  2.364474E-13 -7.472698E-15
         6   4 -8.396250E-05 -8.396250E-05 -5.068079E-13  1.050842E-13 -1.138333E-13  1.578917E-13
         6   5 -8.396250E-05 -8.396250E-05  1.322164E-13  1.751404E-13  2.186937E-13 -6.291656E-14
         6   6 -8.396250E-05 -8.396250E-05  1.960711E-14  1.751404E-13 -1.578581E-13 -1.822781E-13
         6   7 -8.396250E-05 -8.396250E-05 -1.289915E-13  1.401123E-13 -2.326613E-14  4.216765E-14
         6   8 -8.396250E-05 -8.396250E-05 -5.330789E-13 -7.005614E-14  1.869023E-13  1.037627E-14
         7   1 -8.396250E-05 -8.396250E-05 -9.160828E-14 -4.739066E-13  2.360453E-14 -1.279086E-13
         7   2 -8.396250E-05 -8.396250E-05  1.732224E-13 -4.288648E-13  6.622839E-14  1.649950E-13
         7   3 -8.396250E-05 -8.396250E-05  5.930698E-14  1.648642E-14 -1.148187E-14 -1.279086E-13
         7   4 -8.396250E-05 -8.396250E-05  2.313023E-13  6.152816E-14 -2.758167E-14 -1.415007E-13
         7   5 -8.396250E-05 -8.396250E-05 -3.173508E-13 -2.938302E-13  4.546945E-14 -4.098202E-13
         7   6 -8.396250E-05 -8.396250E-05  1.576483E-13 -3.310016E-13  8.809331E-14  7.363169E-14
         7   7 -8.396250E-05 -8.396250E-05 -2.897552E-13 -1.360567E-14 -2.675111E-14  1.856570E-13
         7   8 -8.396250E-05 -8.396250E-05  9.240849E-14 -5.077706E-14 -4.285092E-14 -5.181467E-15
         8   1 -8.396250E-05 -8.396250E-05 -4.685057E-14 -1.751404E-13 -2.448885E-13 -1.899721E-13
         8   2 -8.396250E-05 -8.396250E-05  1.508824E-13 -1.488693E-13 -3.034160E-14 -2.177710E-13
         8   3 -8.396250E-05 -8.396250E-05 -8.560860E-16 -1.751404E-13  1.388924E-13 -1.199160E-13
         8   4 -8.396250E-05 -8.396250E-05 -9.188126E-15 -1.050842E-13 -5.376200E-14 -4.542105E-13
         8   5 -8.396250E-05 -8.396250E-05 -3.489677E-13  4.965945E-31 -1.868122E-13 -9.976679E-14
         8   6 -8.396250E-05 -8.396250E-05 -4.615049E-14 -2.101684E-13 -1.298916E-13  5.622162E-14
         8   7 -8.396250E-05 -8.396250E-05 -3.161087E-13 -1.401123E-13 -7.460885E-14  2.154858E-13
         8   8 -8.396250E-05 -8.396250E-05  2.009803E-13 -2.101684E-13 -3.958078E-14 -5.077495E-15
         9   1 -8.396250E-05 -8.396250E-05 -2.570656E-14  2.101684E-13 -5.945608E-14 -2.590708E-13
         9   2 -8.396250E-05 -8.396250E-05 -5.839101E-14  8.757018E-14  3.521237E-13  2.049760E-13
         9   3 -8.396250E-05 -8.396250E-05 -6.512087E-14  1.401123E-13  1.506372E-13  1.612661E-13
         9   4 -8.396250E-05 -8.396250E-05  2.957472E-13  2.627105E-13 -5.953122E-14 -1.394943E-14
         9   5 -8.396250E-05 -8.396250E-05  2.107329E-13  6.969374E-31 -6.552423E-14 -1.662495E-13
         9   6 -8.396250E-05 -8.396250E-05 -3.211995E-14  2.802246E-13 -1.530944E-13 -1.227448E-13
         9   7 -8.396250E-05 -8.396250E-05  2.501318E-13 -5.165309E-31 -1.008328E-13  2.190593E-13
         9   8 -8.396250E-05 -8.396250E-05  2.169341E-13  4.203368E-13 -3.077662E-14  7.866657E-14

 strains (elem, integ.pnt.,exx,eyy,ezz,exy,exz,eyz) forset EALL and time  0.4897813E+00

         1   1 -2.798750E-10 -2.798750E-10  2.398929E-10 -8.885729E-27  8.077936E-28  2.584939E-26
         1   2 -2.798750E-10 -2.798750E-10  2.398929E-10 -9.128067E-26  8.077936E-27 -1.857925E-26
         1   3 -2.798750E-10 -2.798750E-10  2.398929E-10  5.654555E-26  1.292470E-26  5.816114E-26
         1   4 -2.798750E-10 -2.798750E-10  2.398929E-10 -2.584939E-26  9.693523E-26 -4.846761E-26
         1   5 -2.798750E-10 -2.798750E-10  2.398929E-10 -3.231174E-27  5.654555E-27  5.816114E-26
         1   6 -2.798750E-10 -2.798750E-10  2.398929E-10  1.938705E-26  1.292470E-26 -4.119747E-26
         1   7 -2.798750E-10 -2.798750E-10  2.398929E-10 -2.261822E-26 -4.846761E-26  9.047288E-26
         1   8 -2.798750E-10 -2.798750E-10  2.398929E-10  1.119220E-50  2.584939E-26 -7.108583E-26
         2   1 -2.798750E-10 -2.798750E-10  2.398929E-10 -2.118818E-20 -7.385010E-20  1.983916E-20
         2   2 -2.798750E-10 -2.798750E-10  2.398929E-10 -7.259196E-19 -5.346360E-19 -1.735254E-20
         2   3 -2.798750E-10 -2.798750E-10  2.398929E-10 -7.907535E-20  4.087255E-19 -3.129813E-20
         2   4 -2.798750E-10 -2.798750E-10  2.398929E-10 -5.127562E-19  4.087255E-19 -7.472680E-21
         2   5 -2.798750E-10 -2.798750E-10  2.398929E-10 -8.572826E-19  2.059723E-20  1.251780E-19
         2   6 -2.798750E-10 -2.798750E-10  2.398929E-10  8.774409E-19 -6.071793E-20 -7.464045E-20
         2   7 -2.798750E-10 -2.798750E-10  2.398929E-10  9.049778E-19  3.405460E-19  7.404072E-20
         2   8 -2.798750E-10 -2.798750E-10  2.398929E-10  1.121818E-18  1.207908E-18 -6.476059E-20
         3   1 -2.798750E-10 -2.798750E-10  2.398929E-10 -7.768927E-19  1.038742E-18  1.940680E-19
         3   2 -2.798750E-10 -2.798750E-10  2.398929E-10 -1.263714E-19  3.882206E-19 -2.074689E-19
         3   3 -2.798750E-10 -2.798750E-10  2.398929E-10 -5.297268E-19 -1.220853E-18  2.516891E-19
         3   4 -2.798750E-10 -2.798750E-10  2.398928E-10  1.313417E-18  1.814913E-18 -4.053101E-19
         3   5 -2.798750E-10 -2.798750E-10  2.398929E-10 -4.043895E-20 -3.865006E-19  6.666505E-19
         3   6 -2.798750E-10 -2.798750E-10  2.398929E-10 -4.043895E-20 -2.175434E-18 -5.764434E-19
         3   7 -2.798750E-10 -2.798750E-10  2.398929E-10 -1.509202E-19  1.282837E-18  7.242716E-19
         3   8 -2.798750E-10 -2.798750E-10  2.398928E-10  7.164415E-19  4.154751E-19 -7.742846E-19
         4   1 -2.798750E-10 -2.798750E-10  2.398929E-10  2.156816E-20  4.380070E-20  7.666183E-19
         4   2 -2.798750E-10 -2.798750E-10  2.398929E-10 -6.761130E-20  4.783564E-20 -1.537366E-19
         4   3 -2.798750E-10 -2.798750E-10  2.398929E-10 -3.264195E-20 -3.894656E-20 -8.596849E-19
         4   4 -2.798750E-10 -2.798750E-10  2.398929E-10 -1.218214E-19  3.190367E-20  5.509948E-19
         4   5 -2.798750E-10 -2.798750E-10  2.398929E-10 -8.657651E-19  1.594315E-19  2.865023E-20
         4   6 -2.798750E-10 -2.798750E-10  2.398929E-10 -8.614032E-19  1.634664E-19 -6.695937E-19
         4   7 -2.798750E-10 -2.798750E-10  2.398929E-10  1.596588E-21 -2.162008E-19  4.623311E-19
         4   8 -2.798750E-10 -2.798750E-10  2.398929E-10  5.958557E-21 -1.453505E-19 -1.347220E-18
         5   1 -2.798750E-10 -2.798750E-10  2.398929E-10  1.409463E-18 -9.079350E-19 -3.533719E-19
         5   2 -2.798750E-10 -2.798750E-10  2.398929E-10  1.029992E-18  9.352087E-19  6.184132E-19
         5   3 -2.798750E-10 -2.798750E-10  2.398929E-10  2.168404E-19 -3.969358E-19 -2.811122E-20
         5   4 -2.798750E-10 -2.798750E-10  2.398929E-10  1.084202E-19  3.674503E-20 -6.013143E-19
         5   5 -2.798750E-10 -2.798750E-10  2.398929E-10  2.168404E-19 -4.300115E-20 -9.722743E-19
         5   6 -2.798750E-10 -2.798750E-10  2.398929E-10  8.673617E-19 -5.308921E-19  2.378533E-19
         5   7 -2.798750E-10 -2.798750E-10  2.398929E-10 -2.877421E-38 -2.965466E-19 -1.049125E-19
         5   8 -2.798750E-10 -2.798750E-10  2.398929E-10 -5.592005E-36  2.871410E-20 -1.416175E-19
         6   1 -2.798750E-10 -2.798750E-10  2.398929E-10  1.084202E-18 -3.189037E-19  3.874213E-19
         6   2 -2.798750E-10 -2.798750E-10  2.398929E-10 -5.421011E-19  6.026681E-19 -7.301935E-19
         6   3 -2.798750E-10 -2.798750E-10  2.398929E-10  1.084202E-18  1.463722E-18 -4.625956E-20
         6   4 -2.798750E-10 -2.798750E-10  2.398928E-10  6.505213E-19 -7.046820E-19  9.774250E-19
         6   5 -2.798750E-10 -2.798750E-10  2.398929E-10  1.084202E-18  1.353818E-18 -3.894835E-19
         6   6 -2.798750E-10 -2.798750E-10  2.398929E-10  1.084202E-18 -9.772167E-19 -1.128388E-18
         6   7 -2.798750E-10 -2.798750E-10  2.398929E-10  8.673617E-19 -1.440284E-19  2.610378E-19
         6   8 -2.798750E-10 -2.798750E-10  2.398928E-10 -4.336809E-19  1.157014E-18  6.423402E-20
         7   1 -2.798750E-10 -2.798750E-10  2.398929E-10 -2.933707E-18  1.461233E-19 -7.918152E-19
         7   2 -2.798750E-10 -2.798750E-10  2.398929E-10 -2.654877E-18  4.099852E-19  1.021397E-18
         7   3 -2.798750E-10 -2.798750E-10  2.398929E-10  1.020588E-19 -7.107823E-20 -7.918152E-19
         7   4 -2.798750E-10 -2.798750E-10  2.398929E-10  3.808886E-19 -1.707437E-19 -8.759564E-19
         7   5 -2.798750E-10 -2.798750E-10  2.398929E-10 -1.818949E-18  2.814776E-19 -2.536982E-18
         7   6 -2.798750E-10 -2.798750E-10  2.398929E-10 -2.049058E-18  5.453395E-19  4.558152E-19
         7   7 -2.798750E-10 -2.798750E-10  2.398929E-10 -8.422559E-20 -1.656021E-19  1.149305E-18
         7   8 -2.798750E-10 -2.798750E-10  2.398929E-10 -3.143342E-19 -2.652676E-19 -3.207575E-20
         8   1 -2.798750E-10 -2.798750E-10  2.398929E-10 -1.084202E-18 -1.515977E-18 -1.176018E-18
         8   2 -2.798750E-10 -2.798750E-10  2.398928E-10 -9.215718E-19 -1.878290E-19 -1.348106E-18
         8   3 -2.798750E-10 -2.798750E-10  2.398929E-10 -1.084202E-18  8.598100E-19 -7.423371E-19
         8   4 -2.798750E-10 -2.798750E-10  2.398929E-10 -6.505213E-19 -3.328124E-19 -2.811779E-18
         8   5 -2.798750E-10 -2.798750E-10  2.398929E-10 -3.709594E-37 -1.156456E-18 -6.176040E-19
         8   6 -2.798750E-10 -2.798750E-10  2.398928E-10 -1.301043E-18 -8.040907E-19  3.480386E-19
         8   7 -2.798750E-10 -2.798750E-10  2.398929E-10 -8.673617E-19 -4.618643E-19  1.333960E-18
         8   8 -2.798750E-10 -2.798750E-10  2.398929E-10 -1.301043E-18 -2.450239E-19 -3.143211E-20
         9   1 -2.798750E-10 -2.798750E-10  2.398928E-10  1.301043E-18 -3.680614E-19 -1.603771E-18
         9   2 -2.798750E-10 -2.798750E-10  2.398929E-10  5.421011E-19  2.179814E-18  1.268899E-18
         9   3 -2.798750E-10 -2.798750E-10  2.398929E-10  8.673617E-19  9.325160E-19  9.983138E-19
         9   4 -2.798750E-10 -2.798750E-10  2.398929E-10  1.626303E-18 -3.685266E-19 -8.635359E-20
         9   5 -2.798750E-10 -2.798750E-10  2.398928E-10 -1.265263E-36 -4.056262E-19 -1.029163E-18
         9   6 -2.798750E-10 -2.798750E-10  2.398929E-10  1.734723E-18 -9.477273E-19 -7.598490E-19
         9   7 -2.798750E-10 -2.798750E-10  2.398929E-10  2.376731E-37 -6.242028E-19  1.356081E-18
         9   8 -2.798750E-10 -2.798750E-10  2.398929E-10  2.602085E-18 -1.905219E-19  4.869835E-19

 displacements (vx,vy,vz) for set NALL and time  0.4987813E+00

         1  0.000000E+00  0.000000E+00  0.000000E+00
         2 -1.425089E-07  0.000000E+00  0.000000E+00
         3 -7.481719E+00  0.000000E+00  0.000000E+00
         4 -7.481719E+00  0.000000E+00  0.000000E+00
         5 -1.496344E+01  0.000000E+00  0.000000E+00
         6 -1.496344E+01  0.000000E+00  0.000000E+00
         7  0.000000E+00 -1.425089E-07  0.000000E+00
         8 -1.425089E-07 -1.425089E-07  0.000000E+00
         9 -7.481719E+00 -1.425089E-07  0.000000E+00
        10 -7.481719E+00 -1.425089E-07  0.000000E+00
        11 -1.496344E+01 -1.425089E-07  0.000000E+00
        12 -1.496344E+01 -1.425089E-07  0.000000E+00
        13  0.000000E+00 -7.481719E+00  0.000000E+00
        14 -1.425089E-07 -7.481719E+00  0.000000E+00
        15 -7.481719E+00 -7.481719E+00  0.000000E+00
        16 -7.481719E+00 -7.481719E+00  0.000000E+00
        17 -1.496344E+01 -7.481719E+00  0.000000E+00
        18 -1.496344E+01 -7.481719E+00  0.000000E+00
        19  0.000000E+00 -7.481719E+00  0.000000E+00
        20 -1.425089E-07 -7.481719E+00  0.000000E+00
        21 -7.481719E+00 -7.481719E+00  0.000000E+00
        22 -7.481719E+00 -7.481719E+00  0.000000E+00
        23 -1.496344E+01 -7.481719E+00  0.000000E+00
        24 -1.496344E+01 -7.481719E+00  0.000000E+00
        25  0.000000E+00 -1.496344E+01  0.000000E+00
        26 -1.425089E-07 -1.496344E+01  0.000000E+00
        27 -7.481719E+00 -1.496344E+01  0.000000E+00
        28 -7.481719E+00 -1.496344E+01  0.000000E+00
        29 -1.496344E+01 -1.496344E+01  0.000000E+00
        30 -1.496344E+01 -1.496344E+01  0.000000E+00
        31  0.000000E+00 -1.496344E+01  0.000000E+00
        32 -1.425089E-07 -1.496344E+01  0.000000E+00
        33 -7.481719E+00 -1.496344E+01  0.000000E+00
        34 -7.481719E+00 -1.496344E+01  0.000000E+00
        35 -1.496344E+01 -1.496344E+01  0.000000E+00
        36 -1.496344E+01 -1.496344E+01  0.000000E+00
        37  0.000000E+00  0.000000E+00  1.710107E-07
        38 -1.425089E-07  0.000000E+00  1.710107E-07
        39 -7.481719E+00  0.000000E+00  1.710107E-07
        40 -7.481719E+00  0.000000E+00  1.710107E-07
        41 -1.496344E+01  0.000000E+00  1.710107E-07
        42 -1.496344E+01  0.000000E+00  1.710107E-07
        43  0.000000E+00 -1.425089E-07  1.710107E-07
        44 -1.425089E-07 -1.425089E-07  1.710107E-07
        45 -7.481719E+00 -1.425089E-07  1.710107E-07
        46 -7.481719E+00 -1.425089E-07  1.710107E-07
        47 -1.496344E+01 -1.425089E-07  1.710107E-07
        48 -1.496344E+01 -1.425089E-07  1.710107E-07
        49  0.000000E+00 -7.481719E+00  1.710107E-07
        50 -1.425089E-07 -7.481719E+00  1.710107E-07
        51 -7.481719E+00 -7.481719E+00  1.710107E-07
        52 -7.481719E+00 -7.481719E+00  1.710107E-07
        53 -1.496344E+01 -7.481719E+00  1.710107E-07
        54 -1.496344E+01 -7.481719E+00  1.710107E-07
        55  0.000000E+00 -7.481719E+00  1.710107E-07
        56 -1.425089E-07 -7.481719E+00  1.710107E-07
        57 -7.481719E+00 -7.481719E+00  1.710107E-07
        58 -7.481719E+00 -7.481719E+00  1.710107E-07
        59 -1.496344E+01 -7.481719E+00  1.710107E-07
        60 -1.496344E+01 -7.481719E+00  1.710107E-07
        61  0.000000E+00 -1.496344E+01  1.710107E-07
        62 -1.425089E-07 -1.496344E+01  1.710107E-07
        63 -7.481719E+00 -1.496344E+01  1.710107E-07
        64 -7.481719E+00 -1.496344E+01  1.710107E-07
        65 -1.496344E+01 -1.496344E+01  1.710107E-07
        66 -1.496344E+01 -1.496344E+01  1.710107E-07
        67  0.000000E+00 -1.496344E+01  1.710107E-07
        68 -1.425089E-07 -1.496344E+01  1.710107E-07
        69 -7.481719E+00 -1.496344E+01  1.710107E-07
        70 -7.481719E+00 -1.496344E+01  1.710107E-07
        71 -1.496344E+01 -1.496344E+01  1.710107E-07
        72 -1.496344E+01 -1.496344E+01  1.710107E-07

 stresses (elem, integ.pnt.,sxx,syy,szz,sxy,sxz,syz) for set EALL and time  0.4987813E+00

         1   1 -8.550535E-05 -8.550535E-05  1.355253E-20 -1.826856E-21 -2.609795E-22  1.565877E-21
         1   2 -8.550535E-05 -8.550535E-05  1.129982E-46 -1.200506E-20 -5.219589E-22 -2.870774E-21
         1   3 -8.550535E-05 -8.550535E-05 -1.355253E-20  7.829384E-22  2.087836E-21  3.131754E-21
         1   4 -8.550535E-05 -8.550535E-05 -2.710505E-20 -9.395261E-21  1.879052E-20 -9.656240E-21
         1   5 -8.550535E-05 -8.550535E-05  1.355253E-20  2.087836E-21 -4.436651E-21  6.785466E-21
         1   6 -8.550535E-05 -8.550535E-05 -1.355253E-20  1.096114E-20 -4.697630E-21 -4.697630E-21
         1   7 -8.550535E-05 -8.550535E-05  2.710505E-20 -2.609795E-21 -6.785466E-21  8.351343E-21
         1   8 -8.550535E-05 -8.550535E-05 -1.355253E-20  6.263507E-21  8.351343E-21 -1.148310E-20
         2   1 -8.550535E-05 -8.550535E-05 -1.106447E-13 -7.257675E-15  4.386230E-14  2.773940E-15
         2   2 -8.550535E-05 -8.550535E-05 -8.004827E-14 -2.477171E-14  5.261932E-14 -4.078375E-15
         2   3 -8.550536E-05 -8.550535E-05 -3.030361E-13 -2.708601E-14  6.942468E-14 -2.012555E-15
         2   4 -8.550536E-05 -8.550536E-05 -3.370915E-13 -8.149595E-16  1.920229E-13 -1.724991E-15
         2   5 -8.550536E-05 -8.550535E-05 -1.863740E-13 -3.598945E-15  6.799788E-14  1.513898E-14
         2   6 -8.550536E-05 -8.550535E-05 -1.407838E-13  6.645720E-14 -2.058260E-15 -1.757409E-14
         2   7 -8.550535E-05 -8.550535E-05 -5.037717E-14 -1.535437E-13 -2.356640E-15  1.035249E-14
         2   8 -8.550535E-05 -8.550535E-05 -6.943885E-14  9.165276E-14 -7.241278E-14 -1.522071E-14
         3   1 -8.550536E-05 -8.550535E-05 -2.787961E-13 -2.938446E-13  2.295171E-14  2.311358E-15
         3   2 -8.550536E-05 -8.550535E-05 -1.778491E-13  1.790343E-13 -2.083338E-14  5.696274E-15
         3   3 -8.550536E-05 -8.550535E-05 -1.613056E-13 -3.310554E-13  8.643074E-15 -1.735324E-14
         3   4 -8.550536E-05 -8.550535E-05 -1.580884E-13  5.425341E-14 -2.638500E-14  3.437136E-14
         3   5 -8.550535E-05 -8.550535E-05  4.770304E-14  1.115090E-14 -8.948342E-14  2.829070E-14
         3   6 -8.550535E-05 -8.550535E-05  2.501633E-13 -1.289614E-13 -6.321236E-14 -7.416297E-15
         3   7 -8.550536E-05 -8.550536E-05 -5.178539E-13  4.161571E-14  3.225639E-14  8.626104E-15
         3   8 -8.550536E-05 -8.550536E-05 -4.131234E-13  4.161571E-14  2.073967E-13  2.125879E-14
         4   1 -8.550535E-05 -8.550536E-05 -1.388764E-13 -1.416512E-13  3.008108E-15 -7.837150E-14
         4   2 -8.550535E-05 -8.550535E-05  1.851147E-13 -1.458557E-13 -8.031611E-15  3.146347E-14
         4   3 -8.550535E-05 -8.550536E-05 -2.019782E-13 -1.538952E-15  1.076187E-15 -7.837150E-14
         4   4 -8.550535E-05 -8.550535E-05  6.474393E-14 -5.743447E-15  7.665961E-15 -8.675627E-14
         4   5 -8.550536E-05 -8.550536E-05 -2.671441E-13  7.495028E-15  2.226613E-14 -3.103336E-14
         4   6 -8.550535E-05 -8.550535E-05  4.371151E-14  2.797183E-14  1.122641E-14 -4.919020E-14
         4   7 -8.550535E-05 -8.550536E-05 -2.932238E-13  7.495028E-15 -2.573390E-15 -3.103336E-14
         4   8 -8.550535E-05 -8.550535E-05 -3.963728E-14  2.797183E-14  4.016386E-15 -4.481169E-14
         5   1 -8.550536E-05 -8.550536E-05 -2.434592E-13 -2.539535E-13  4.502977E-15 -8.400191E-14
         5   2 -8.550535E-05 -8.550535E-05  3.666632E-13 -1.926544E-13  1.446153E-13  5.541075E-14
         5   3 -8.550536E-05 -8.550536E-05 -2.453585E-13 -1.751404E-13  1.395371E-13  3.568268E-15
         5   4 -8.550535E-05 -8.550535E-05  6.596572E-14 -1.050842E-13  8.699502E-14 -3.653793E-14
         5   5 -8.550535E-05 -8.550535E-05 -5.956185E-14 -1.050842E-13 -7.545771E-14 -3.922515E-14
         5   6 -8.550535E-05 -8.550535E-05  9.081714E-14  7.005614E-14  1.259537E-13 -2.198675E-13
         5   7 -8.550535E-05 -8.550535E-05  2.800625E-13 -1.401123E-13 -2.146502E-15  1.331695E-14
         5   8 -8.550535E-05 -8.550535E-05  1.185078E-13 -7.005614E-14 -2.146502E-15 -1.760824E-13
         6   1 -8.550535E-05 -8.550535E-05  2.183270E-13  3.765518E-13  1.054617E-13 -1.733954E-13
         6   2 -8.550535E-05 -8.550535E-05  2.387255E-14  3.765518E-13 -2.886041E-13  7.398853E-14
         6   3 -8.550535E-05 -8.550535E-05  2.302451E-13  1.050842E-13 -2.951736E-13 -1.383674E-13
         6   4 -8.550535E-05 -8.550535E-05  7.559898E-14 -5.254211E-14  3.003036E-13  1.265306E-13
         6   5 -8.550535E-05 -8.550535E-05 -9.692563E-14  2.101684E-13  1.415212E-13 -9.857205E-14
         6   6 -8.550535E-05 -8.550535E-05 -9.434719E-14  2.101684E-13 -2.262736E-13 -6.820141E-14
         6   7 -8.550535E-05 -8.550535E-05 -8.500755E-14  1.401123E-13 -1.959029E-13 -6.354398E-14
         6   8 -8.550536E-05 -8.550536E-05 -3.447379E-13  2.802246E-13  1.543778E-13  3.688280E-14
         7   1 -8.550535E-05 -8.550535E-05 -7.784360E-14  5.644880E-14  4.225214E-15 -4.106223E-13
         7   2 -8.550535E-05 -8.550536E-05 -3.322276E-13  1.927286E-14  2.294652E-14 -2.756639E-13
         7   3 -8.550535E-05 -8.550535E-05  1.719902E-13 -1.360734E-14 -2.181948E-15  1.848549E-13
         7   4 -8.550535E-05 -8.550536E-05 -1.175952E-13 -5.078328E-14  1.311526E-14 -6.549545E-14
         7   5 -8.550535E-05 -8.550535E-05 -1.436131E-13 -1.536197E-14 -2.952586E-15 -3.584393E-13
         7   6 -8.550535E-05 -8.550535E-05 -1.615576E-13 -5.733165E-14  1.576872E-14 -2.463185E-13
         7   7 -8.550535E-05 -8.550535E-05  9.903015E-14 -1.536197E-14 -2.344035E-14  2.686943E-14
         7   8 -8.550535E-05 -8.550535E-05  4.588415E-14 -5.733165E-14 -8.143140E-15  1.827753E-13
         8   1 -8.550535E-05 -8.550535E-05 -1.859914E-13 -1.751404E-13 -9.224935E-14 -2.916195E-13
         8   2 -8.550535E-05 -8.550536E-05 -2.296829E-13 -2.014114E-13 -7.035681E-14 -3.080912E-13
         8   3 -8.550535E-05 -8.550535E-05 -5.084510E-14 -1.751404E-13  1.364754E-13  1.637454E-13
         8   4 -8.550535E-05 -8.550535E-05 -7.568531E-14 -1.926544E-13 -5.617897E-14  1.472737E-13
         8   5 -8.550535E-05 -8.550535E-05 -1.071782E-13 -1.401123E-13 -9.221193E-14 -2.971087E-13
         8   6 -8.550535E-05 -8.550535E-05 -1.951450E-14 -3.502807E-14  1.923911E-13 -1.133855E-13
         8   7 -8.550535E-05 -8.550535E-05  1.593233E-13 -1.401123E-13 -8.362909E-14  8.820009E-14
         8   8 -8.550535E-05 -8.550535E-05  2.395673E-13  1.295780E-31  2.145512E-14  2.018671E-13
         9   1 -8.550535E-05 -8.550535E-05 -1.091241E-14 -3.502807E-13  1.031453E-13 -9.043591E-14
         9   2 -8.550535E-05 -8.550535E-05  2.910974E-13 -1.401123E-13  7.687428E-14 -2.203669E-13
         9   3 -8.550535E-05 -8.550535E-05  6.436361E-13 -1.401123E-13  2.575647E-14 -2.305482E-13
         9   4 -8.550535E-05 -8.550535E-05  1.003453E-12 -1.751404E-14  9.581261E-14  3.575963E-13
         9   5 -8.550535E-05 -8.550535E-05 -3.261650E-13 -5.604491E-13  6.282014E-14 -1.999140E-13
         9   6 -8.550535E-05 -8.550535E-05 -2.343236E-13 -2.101684E-13 -3.137316E-13  1.661569E-13
         9   7 -8.550535E-05 -8.550535E-05  1.313085E-14 -5.604491E-13 -4.398784E-14  4.528245E-14
         9   8 -8.550535E-05 -8.550535E-05  5.043034E-13 -7.005614E-14 -7.901591E-14  3.237832E-13

 strains (elem, integ.pnt.,exx,eyy,ezz,exy,exz,eyz) forset EALL and time  0.4987813E+00

         1   1 -2.850178E-10 -2.850178E-10  2.443010E-10 -1.130911E-26 -1.615587E-27  9.693523E-27
         1   2 -2.850178E-10 -2.850178E-10  2.443010E-10 -7.431701E-26 -3.231174E-27 -1.777146E-26
         1   3 -2.850178E-10 -2.850178E-10  2.443010E-10  4.846761E-27  1.292470E-26  1.938705E-26
         1   4 -2.850178E-10 -2.850178E-10  2.443010E-10 -5.816114E-26  1.163223E-25 -5.977672E-26
         1   5 -2.850178E-10 -2.850178E-10  2.443010E-10  1.292470E-26 -2.746498E-26  4.200527E-26
         1   6 -2.850178E-10 -2.850178E-10  2.443010E-10  6.785466E-26 -2.908057E-26 -2.908057E-26
         1   7 -2.850178E-10 -2.850178E-10  2.443010E-10 -1.615587E-26 -4.200527E-26  5.169879E-26
         1   8 -2.850178E-10 -2.850178E-10  2.443010E-10  3.877409E-26  5.169879E-26 -7.108583E-26
         2   1 -2.850178E-10 -2.850178E-10  2.443010E-10 -4.492847E-20  2.715286E-19  1.717201E-20
         2   2 -2.850178E-10 -2.850178E-10  2.443010E-10 -1.533487E-19  3.257387E-19 -2.524708E-20
         2   3 -2.850179E-10 -2.850178E-10  2.443010E-10 -1.676753E-19  4.297718E-19 -1.245867E-20
         2   4 -2.850179E-10 -2.850178E-10  2.443010E-10 -5.044987E-21  1.188713E-18 -1.067851E-20
         2   5 -2.850179E-10 -2.850178E-10  2.443010E-10 -2.227918E-20  4.209393E-19  9.371752E-20
         2   6 -2.850179E-10 -2.850178E-10  2.443010E-10  4.114017E-19 -1.274161E-20 -1.087920E-19
         2   7 -2.850178E-10 -2.850178E-10  2.443010E-10 -9.505088E-19 -1.458873E-20  6.408684E-20
         2   8 -2.850178E-10 -2.850178E-10  2.443010E-10  5.673742E-19 -4.482696E-19 -9.422342E-20
         3   1 -2.850179E-10 -2.850178E-10  2.443010E-10 -1.819038E-18  1.420820E-19  1.430841E-20
         3   2 -2.850179E-10 -2.850178E-10  2.443010E-10  1.108308E-18 -1.289685E-19  3.526265E-20
         3   3 -2.850179E-10 -2.850178E-10  2.443010E-10 -2.049390E-18  5.350475E-20 -1.074248E-19
         3   4 -2.850179E-10 -2.850178E-10  2.443010E-10  3.358544E-19 -1.633357E-19  2.127751E-19
         3   5 -2.850178E-10 -2.850178E-10  2.443010E-10  6.902936E-20 -5.539450E-19  1.751329E-19
         3   6 -2.850178E-10 -2.850178E-10  2.443010E-10 -7.983324E-19 -3.913146E-19 -4.591041E-20
         3   7 -2.850179E-10 -2.850178E-10  2.443010E-10  2.576211E-19  1.996824E-19  5.339969E-20
         3   8 -2.850179E-10 -2.850178E-10  2.443010E-10  2.576211E-19  1.283885E-18  1.316020E-19
         4   1 -2.850178E-10 -2.850179E-10  2.443010E-10 -8.768886E-19  1.862162E-20 -4.851569E-19
         4   2 -2.850178E-10 -2.850178E-10  2.443010E-10 -9.029164E-19 -4.971950E-20  1.947739E-19
         4   3 -2.850178E-10 -2.850179E-10  2.443010E-10 -9.526847E-21  6.662109E-21 -4.851569E-19
         4   4 -2.850178E-10 -2.850178E-10  2.443010E-10 -3.555467E-20  4.745595E-20 -5.370626E-19
         4   5 -2.850178E-10 -2.850179E-10  2.443010E-10  4.639779E-20  1.378380E-19 -1.921112E-19
         4   6 -2.850178E-10 -2.850178E-10  2.443010E-10  1.731589E-19  6.949682E-20 -3.045107E-19
         4   7 -2.850178E-10 -2.850179E-10  2.443010E-10  4.639779E-20 -1.593051E-20 -1.921112E-19
         4   8 -2.850178E-10 -2.850178E-10  2.443010E-10  1.731589E-19  2.486334E-20 -2.774057E-19
         5   1 -2.850178E-10 -2.850178E-10  2.443010E-10 -1.572093E-18  2.787557E-20 -5.200118E-19
         5   2 -2.850178E-10 -2.850178E-10  2.443010E-10 -1.192622E-18  8.952373E-19  3.430189E-19
         5   3 -2.850178E-10 -2.850178E-10  2.443010E-10 -1.084202E-18  8.638013E-19  2.208928E-20
         5   4 -2.850178E-10 -2.850178E-10  2.443010E-10 -6.505213E-19  5.385406E-19 -2.261872E-19
         5   5 -2.850178E-10 -2.850178E-10  2.443010E-10 -6.505213E-19 -4.671191E-19 -2.428224E-19
         5   6 -2.850178E-10 -2.850178E-10  2.443010E-10  4.336809E-19  7.797134E-19 -1.361084E-18
         5   7 -2.850178E-10 -2.850178E-10  2.443010E-10 -8.673617E-19 -1.328787E-20  8.243828E-20
         5   8 -2.850178E-10 -2.850178E-10  2.443010E-10 -4.336809E-19 -1.328787E-20 -1.090034E-18
         6   1 -2.850178E-10 -2.850178E-10  2.443010E-10  2.331035E-18  6.528583E-19 -1.073400E-18
         6   2 -2.850178E-10 -2.850178E-10  2.443010E-10  2.331035E-18 -1.786597E-18  4.580243E-19
         6   3 -2.850178E-10 -2.850178E-10  2.443010E-10  6.505213E-19 -1.827265E-18 -8.565598E-19
         6   4 -2.850178E-10 -2.850178E-10  2.443010E-10 -3.252607E-19  1.859022E-18  7.832849E-19
         6   5 -2.850178E-10 -2.850178E-10  2.443010E-10  1.301043E-18  8.760834E-19 -6.102079E-19
         6   6 -2.850178E-10 -2.850178E-10  2.443010E-10  1.301043E-18 -1.400741E-18 -4.221992E-19
         6   7 -2.850178E-10 -2.850178E-10  2.443010E-10  8.673617E-19 -1.212732E-18 -3.933675E-19
         6   8 -2.850178E-10 -2.850179E-10  2.443010E-10  1.734723E-18  9.556718E-19  2.283221E-19
         7   1 -2.850178E-10 -2.850178E-10  2.443010E-10  3.494450E-19  2.615609E-20 -2.541948E-18
         7   2 -2.850178E-10 -2.850179E-10  2.443010E-10  1.193082E-19  1.420499E-19 -1.706491E-18
         7   3 -2.850178E-10 -2.850178E-10  2.443010E-10 -8.423591E-20 -1.350730E-20  1.144340E-18
         7   4 -2.850178E-10 -2.850179E-10  2.443010E-10 -3.143727E-19  8.118969E-20 -4.054480E-19
         7   5 -2.850178E-10 -2.850178E-10  2.443010E-10 -9.509790E-20 -1.827792E-20 -2.218910E-18
         7   6 -2.850178E-10 -2.850178E-10  2.443010E-10 -3.549102E-19  9.761587E-20 -1.524829E-18
         7   7 -2.850178E-10 -2.850178E-10  2.443010E-10 -9.509790E-20 -1.451069E-19  1.663346E-19
         7   8 -2.850178E-10 -2.850178E-10  2.443010E-10 -3.549102E-19 -5.040991E-20  1.131466E-18
         8   1 -2.850178E-10 -2.850178E-10  2.443010E-10 -1.084202E-18 -5.710674E-19 -1.805264E-18
         8   2 -2.850178E-10 -2.850179E-10  2.443010E-10 -1.246832E-18 -4.355421E-19 -1.907231E-18
         8   3 -2.850178E-10 -2.850178E-10  2.443010E-10 -1.084202E-18  8.448478E-19  1.013662E-18
         8   4 -2.850178E-10 -2.850178E-10  2.443010E-10 -1.192622E-18 -3.477745E-19  9.116943E-19
         8   5 -2.850178E-10 -2.850178E-10  2.443010E-10 -8.673617E-19 -5.708358E-19 -1.839244E-18
         8   6 -2.850178E-10 -2.850178E-10  2.443010E-10 -2.168404E-19  1.190993E-18 -7.019102E-19
         8   7 -2.850178E-10 -2.850178E-10  2.443010E-10 -8.673617E-19 -5.177039E-19  5.460005E-19
         8   8 -2.850178E-10 -2.850178E-10  2.443010E-10 -2.780348E-38  1.328174E-19  1.249654E-18
         9   1 -2.850178E-10 -2.850178E-10  2.443010E-10 -2.168404E-18  6.385187E-19 -5.598414E-19
         9   2 -2.850178E-10 -2.850178E-10  2.443010E-10 -8.673617E-19  4.758884E-19 -1.364176E-18
         9   3 -2.850178E-10 -2.850178E-10  2.443010E-10 -8.673617E-19  1.594448E-19 -1.427203E-18
         9   4 -2.850178E-10 -2.850178E-10  2.443010E-10 -1.084202E-19  5.931257E-19  2.213691E-18
         9   5 -2.850178E-10 -2.850178E-10  2.443010E-10 -3.469447E-18  3.888866E-19 -1.237563E-18
         9   6 -2.850178E-10 -2.850178E-10  2.443010E-10 -1.301043E-18 -1.942148E-18  1.028590E-18
         9   7 -2.850178E-10 -2.850178E-10  2.443010E-10 -3.469447E-18 -2.723057E-19  2.803199E-19
         9   8 -2.850178E-10 -2.850178E-10  2.443010E-10 -4.336809E-19 -4.891461E-19  2.004372E-18

 displacements (vx,vy,vz) for set NALL and time  0.5077813E+00

         1  0.000000E+00  0.000000E+00  0.000000E+00
         2 -1.450804E-07  0.000000E+00  0.000000E+00
         3 -7.616719E+00  0.000000E+00  0.000000E+00
         4 -7.616719E+00  0.000000E+00  0.000000E+00
         5 -1.523344E+01  0.000000E+00  0.000000E+00
         6 -1.523344E+01  0.000000E+00  0.000000E+00
         7  0.000000E+00 -1.450804E-07  0.000000E+00
         8 -1.450804E-07 -1.450804E-07  0.000000E+00
         9 -7.616719E+00 -1.450804E-07  0.000000E+00
        10 -7.616719E+00 -1.450804E-07  0.000000E+00
        11 -1.523344E+01 -1.450804E-07  0.000000E+00
        12 -1.523344E+01 -1.450804E-07  0.000000E+00
        13  0.000000E+00 -7.616719E+00  0.000000E+00
        14 -1.450804E-07 -7.616719E+00  0.000000E+00
        15 -7.616719E+00 -7.616719E+00  0.000000E+00
        16 -7.616719E+00 -7.616719E+00  0.000000E+00
        17 -1.523344E+01 -7.616719E+00  0.000000E+00
        18 -1.523344E+01 -7.616719E+00  0.000000E+00
        19  0.000000E+00 -7.616719E+00  0.000000E+00
        20 -1.450804E-07 -7.616719E+00  0.000000E+00
        21 -7.616719E+00 -7.616719E+00  0.000000E+00
        22 -7.616719E+00 -7.616719E+00  0.000000E+00
        23 -1.523344E+01 -7.616719E+00  0.000000E+00
        24 -1.523344E+01 -7.616719E+00  0.000000E+00
        25  0.000000E+00 -1.523344E+01  0.000000E+00
        26 -1.450804E-07 -1.523344E+01  0.000000E+00
        27 -7.616719E+00 -1.523344E+01  0.000000E+00
        28 -7.616719E+00 -1.523344E+01  0.000000E+00
        29 -1.523344E+01 -1.523344E+01  0.000000E+00
        30 -1.523344E+01 -1.523344E+01  0.000000E+00
        31  0.000000E+00 -1.523344E+01  0.000000E+00
        32 -1.450804E-07 -1.523344E+01  0.000000E+00
        33 -7.616719E+00 -1.523344E+01  0.000000E+00
        34 -7.616719E+00 -1.523344E+01  0.000000E+00
        35 -1.523344E+01 -1.523344E+01  0.000000E+00
        36 -1.523344E+01 -1.523344E+01  0.000000E+00
        37  0.000000E+00  0.000000E+00  1.740964E-07
        38 -1.450804E-07  0.000000E+00  1.740964E-07
        39 -7.616719E+00  0.000000E+00  1.740964E-07
        40 -7.616719E+00  0.000000E+00  1.740964E-07
        41 -1.523344E+01  0.000000E+00  1.740964E-07
        42 -1.523344E+01  0.000000E+00  1.740964E-07
        43  0.000000E+00 -1.450804E-07  1.740964E-07
        44 -1.450804E-07 -1.450804E-07  1.740964E-07
        45 -7.616719E+00 -1.450804E-07  1.740964E-07
        46 -7.616719E+00 -1.450804E-07  1.740964E-07
        47 -1.523344E+01 -1.450804E-07  1.740964E-07
        48 -1.523344E+01 -1.450804E-07  1.740964E-07
        49  0.000000E+00 -7.616719E+00  1.740964E-07
        50 -1.450804E-07 -7.616719E+00  1.740964E-07
        51 -7.616719E+00 -7.616719E+00  1.740964E-07
        52 -7.616719E+00 -7.616719E+00  1.740964E-07
        53 -1.523344E+01 -7.616719E+00  1.740964E-07
        54 -1.523344E+01 -7.616719E+00  1.740964E-07
        55  0.000000E+00 -7.616719E+00  1.740964E-07
        56 -1.450804E-07 -7.616719E+00  1.740964E-07
        57 -7.616719E+00 -7.616719E+00  1.740964E-07
        58 -7.616719E+00 -7.616719E+00  1.740964E-07
        59 -1.523344E+01 -7.616719E+00  1.740964E-07
        60 -1.523344E+01 -7.616719E+00  1.740964E-07
        61  0.000000E+00 -1.523344E+01  1.740964E-07
        62 -1.450804E-07 -1.523344E+01  1.740964E-07
        63 -7.616719E+00 -1.523344E+01  1.740964E-07
        64 -7.616719E+00 -1.523344E+01  1.740964E-07
        65 -1.523344E+01 -1.523344E+01  1.740964E-07
        66 -1.523344E+01 -1.523344E+01  1.740964E-07
        67  0.000000E+00 -1.523344E+01  1.740964E-07
        68 -1.450804E-07 -1.523344E+01  1.740964E-07
        69 -7.616719E+00 -1.523344E+01  1.740964E-07
        70 -7.616719E+00 -1.523344E+01  1.740964E-07
        71 -1.523344E+01 -1.523344E+01  1.740964E-07
        72 -1.523344E+01 -1.523344E+01  1.740964E-07

 stresses (elem, integ.pnt.,sxx,syy,szz,sxy,sxz,syz) for set EALL and time  0.5077813E+00

         1   1 -8.704821E-05 -8.704821E-05  1.355253E-20  2.087836E-21 -2.609795E-22 -5.219589E-22
         1   2 -8.704821E-05 -8.704821E-05 -1.355253E-20  6.263507E-21  1.043918E-21 -2.348815E-21
         1   3 -8.704821E-05 -8.704821E-05  1.355253E-20  2.087836E-21 -2.609795E-21  1.565877E-21
         1   4 -8.704821E-05 -8.704821E-05 -2.710505E-20  6.263507E-21 -4.697630E-21 -1.565877E-21
         1   5 -8.704821E-05 -8.704821E-05  3.508004E-46  0.000000E+00 -3.392733E-21  0.000000E+00
         1   6 -8.704821E-05 -8.704821E-05  1.227801E-45  2.087836E-21 -2.087836E-21 -6.524486E-21
         1   7 -8.704821E-05 -8.704821E-05 -1.355253E-20  0.000000E+00 -7.829384E-21  0.000000E+00
         1   8 -8.704821E-05 -8.704821E-05 -4.065758E-20  2.087836E-21 -1.043918E-20 -5.741548E-21
         2   1 -8.704821E-05 -8.704821E-05  6.400363E-14  1.389532E-13 -6.975090E-14  2.747009E-15
         2   2 -8.704821E-05 -8.704821E-05  6.133863E-14  1.635500E-14 -7.850792E-14 -1.050023E-15
         2   3 -8.704821E-05 -8.704821E-05  1.160771E-13  1.357867E-13 -1.434936E-13 -6.899462E-17
         2   4 -8.704821E-05 -8.704821E-05  8.823245E-14  2.194549E-14 -1.434936E-13 -4.167842E-15
         2   5 -8.704821E-05 -8.704821E-05 -1.783495E-13 -1.414260E-13 -6.891698E-14  1.306798E-14
         2   6 -8.704821E-05 -8.704821E-05 -1.816483E-13 -3.634176E-14 -1.564872E-13 -8.009183E-16
         2   7 -8.704821E-05 -8.704821E-05  5.079297E-15 -4.902764E-15 -8.267540E-14  1.025198E-14
         2   8 -8.704821E-05 -8.704821E-05 -2.339917E-14 -4.902764E-15 -1.352175E-13 -3.918741E-15
         3   1 -8.704821E-05 -8.704821E-05 -1.113984E-13 -2.767054E-13 -3.034692E-14  1.020173E-14
         3   2 -8.704821E-05 -8.704821E-05  1.742426E-13  5.606131E-14  3.095220E-14 -3.571657E-15
         3   3 -8.704821E-05 -8.704821E-05 -2.232600E-13 -2.670907E-13  3.027235E-13  1.976752E-14
         3   4 -8.704821E-05 -8.704821E-05 -5.516742E-14 -2.189422E-14  1.626112E-13  1.538387E-14
         3   5 -8.704821E-05 -8.704821E-05 -3.540207E-13  8.330844E-15  2.182530E-13  2.850760E-14
         3   6 -8.704821E-05 -8.704821E-05 -4.866127E-14  8.330844E-15  2.559859E-14 -3.228514E-14
         3   7 -8.704821E-05 -8.704821E-05 -3.082561E-13  3.109113E-14  8.396721E-14  3.807339E-14
         3   8 -8.704821E-05 -8.704821E-05 -1.204450E-13 -1.090211E-13  1.540234E-13 -1.332961E-14
         4   1 -8.704821E-05 -8.704821E-05  1.699595E-15 -4.720347E-14  2.223676E-15  1.563911E-13
         4   2 -8.704821E-05 -8.704821E-05 -5.815841E-14 -5.654265E-14  7.168067E-16 -1.102913E-13
         4   3 -8.704821E-05 -8.704821E-05 -2.074602E-14 -3.844645E-14 -3.036776E-15  6.882090E-14
         4   4 -8.704821E-05 -8.704821E-05 -1.675439E-13 -4.778563E-14  1.586050E-14 -1.365624E-13
         4   5 -8.704821E-05 -8.704821E-05 -1.464825E-15 -1.681029E-13  9.805740E-15 -1.096942E-13
         4   6 -8.704821E-05 -8.704821E-05  3.327430E-13 -1.488763E-13  8.298871E-15 -1.834701E-13
         4   7 -8.704821E-05 -8.704821E-05  2.291067E-13 -1.330749E-13 -3.023068E-14 -4.609972E-15
         4   8 -8.704821E-05 -8.704821E-05  2.662061E-13 -1.138482E-13 -1.133340E-14 -8.714290E-14
         5   1 -8.704821E-05 -8.704821E-05  9.150635E-14  2.889816E-13  1.116218E-13 -1.706909E-13
         5   2 -8.704821E-05 -8.704821E-05 -2.724455E-13  2.101684E-13 -1.335747E-13  2.258734E-14
         5   3 -8.704821E-05 -8.704821E-05 -2.735728E-13  3.502807E-14 -6.289461E-14 -1.306463E-14
         5   4 -8.704821E-05 -8.704821E-05 -6.581310E-13  3.847527E-30  4.218960E-14  2.258734E-14
         5   5 -8.704821E-05 -8.704821E-05 -2.368818E-13  1.050842E-13 -5.936453E-15 -1.363280E-13
         5   6 -8.704821E-05 -8.704821E-05 -4.169363E-13  7.005614E-14 -1.022636E-13 -4.236528E-14
         5   7 -8.704821E-05 -8.704821E-05 -2.735728E-13 -2.802246E-13 -4.332896E-14 -4.875786E-14
         5   8 -8.704821E-05 -8.704821E-05 -2.772008E-13 -1.401123E-13  1.142974E-13  8.898999E-14
         6   1 -8.704821E-05 -8.704821E-05 -1.501377E-13  8.757018E-15  1.868250E-13  7.276912E-14
         6   2 -8.704821E-05 -8.704821E-05 -2.936337E-13 -2.627105E-14  5.546979E-14 -8.444981E-14
         6   3 -8.704821E-05 -8.704821E-05  4.055744E-14 -1.401123E-13 -1.499127E-13 -4.982913E-14
         6   4 -8.704821E-05 -8.704821E-05 -5.265200E-14  1.751404E-14  2.704241E-13 -1.258147E-15
         6   5 -8.704821E-05 -8.704821E-05 -3.077640E-13  1.401123E-13  8.579817E-15  2.294613E-14
         6   6 -8.704821E-05 -8.704821E-05 -4.381245E-13 -1.401123E-13 -1.315325E-13 -5.723757E-14
         6   7 -8.704821E-05 -8.704821E-05 -1.696110E-13 -2.802246E-13  2.436487E-13 -6.462405E-14
         6   8 -8.704821E-05 -8.704821E-05 -3.416336E-13 -2.101684E-13 -1.416600E-13 -5.723758E-14
         7   1 -8.704821E-05 -8.704821E-05 -5.449443E-14 -2.603848E-13 -1.160580E-16 -1.068253E-13
         7   2 -8.704821E-05 -8.704821E-05 -1.754210E-13 -2.061817E-13 -4.604609E-15  5.916270E-14
         7   3 -8.704821E-05 -8.704821E-05  1.491813E-14  1.983973E-14  2.917607E-15  2.784834E-13
         7   4 -8.704821E-05 -8.704821E-05 -4.889684E-14  7.404288E-14 -1.612744E-14  2.518171E-13
         7   5 -8.704821E-05 -8.704821E-05  1.462480E-13  1.238046E-14  4.055414E-15 -1.115822E-13
         7   6 -8.704821E-05 -8.704821E-05  1.566767E-13  4.620450E-14 -4.331340E-16 -1.031969E-14
         7   7 -8.704821E-05 -8.704821E-05 -2.352449E-13  1.238046E-14  2.993371E-14 -6.497975E-15
         7   8 -8.704821E-05 -8.704821E-05  2.526322E-13  4.620450E-14  1.088866E-14 -1.504320E-13
         8   1 -8.704821E-05 -8.704821E-05 -5.357734E-15 -1.050842E-13 -1.888708E-13 -4.622364E-14
         8   2 -8.704821E-05 -8.704821E-05  2.043817E-13  7.005614E-14  1.701669E-13  1.692176E-13
         8   3 -8.704821E-05 -8.704821E-05 -3.011737E-15 -1.751404E-13  6.159847E-14  2.690290E-13
         8   4 -8.704821E-05 -8.704821E-05 -1.658629E-13  4.378509E-14  7.911251E-14  1.517036E-13
         8   5 -8.704821E-05 -8.704821E-05  2.091332E-14 -2.802246E-13 -7.344980E-14 -7.681050E-14
         8   6 -8.704821E-05 -8.704821E-05  4.675542E-14  7.005614E-14 -1.215067E-14  1.029126E-16
         8   7 -8.704821E-05 -8.704821E-05 -2.657222E-13 -2.802246E-13  3.849169E-14 -4.178243E-14
         8   8 -8.704821E-05 -8.704821E-05 -2.184050E-13 -3.502807E-14 -6.659252E-14  1.227012E-13
         9   1 -8.704821E-05 -8.704821E-05 -1.539861E-13 -1.401123E-13 -2.962459E-13 -8.090091E-14
         9   2 -8.704821E-05 -8.704821E-05  4.252470E-13 -1.751404E-13 -1.035915E-13 -6.966209E-14
         9   3 -8.704821E-05 -8.704821E-05  1.978930E-13  2.019247E-31  2.754421E-13  5.921137E-14
         9   4 -8.704821E-05 -8.704821E-05 -1.762958E-13  1.576263E-13 -4.782502E-15  7.045019E-14
         9   5 -8.704821E-05 -8.704821E-05 -2.065282E-13  1.976076E-30 -1.836481E-13 -2.343851E-13
         9   6 -8.704821E-05 -8.704821E-05 -1.527162E-13  2.802246E-13  2.191747E-13  3.780224E-13
         9   7 -8.704821E-05 -8.704821E-05  9.280879E-14  8.515807E-31  1.222637E-13  8.086756E-14
         9   8 -8.704821E-05 -8.704821E-05  3.753963E-13  1.401123E-13 -2.630450E-13 -2.086978E-13

 strains (elem, integ.pnt.,exx,eyy,ezz,exy,exz,eyz) forset EALL and time  0.5077813E+00

         1   1 -2.901607E-10 -2.901607E-10  2.487092E-10  1.292470E-26 -1.615587E-27 -3.231174E-27
         1   2 -2.901607E-10 -2.901607E-10  2.487092E-10  3.877409E-26  6.462349E-27 -1.454028E-26
         1   3 -2.901607E-10 -2.901607E-10  2.487092E-10  1.292470E-26 -1.615587E-26  9.693523E-27
         1   4 -2.901607E-10 -2.901607E-10  2.487092E-10  3.877409E-26 -2.908057E-26 -9.693523E-27
         1   5 -2.901607E-10 -2.901607E-10  2.487092E-10  0.000000E+00 -2.100263E-26  0.000000E+00
         1   6 -2.901607E-10 -2.901607E-10  2.487092E-10  1.292470E-26 -1.292470E-26 -4.038968E-26
         1   7 -2.901607E-10 -2.901607E-10  2.487092E-10  0.000000E+00 -4.846761E-26  0.000000E+00
         1   8 -2.901607E-10 -2.901607E-10  2.487092E-10  1.292470E-26 -6.462349E-26 -3.554292E-26
         2   1 -2.901607E-10 -2.901607E-10  2.487092E-10  8.601868E-19 -4.317913E-19  1.700529E-20
         2   2 -2.901607E-10 -2.901607E-10  2.487092E-10  1.012453E-19 -4.860014E-19 -6.500140E-21
         2   3 -2.901607E-10 -2.901607E-10  2.487092E-10  8.405844E-19 -8.882937E-19 -4.271095E-22
         2   4 -2.901607E-10 -2.901607E-10  2.487092E-10  1.358530E-19 -8.882937E-19 -2.580093E-20
         2   5 -2.901607E-10 -2.901607E-10  2.487092E-10 -8.754941E-19 -4.266289E-19  8.089703E-20
         2   6 -2.901607E-10 -2.901607E-10  2.487092E-10 -2.249728E-19 -9.687300E-19 -4.958066E-21
         2   7 -2.901607E-10 -2.901607E-10  2.487092E-10 -3.035045E-20 -5.118001E-19  6.346464E-20
         2   8 -2.901607E-10 -2.901607E-10  2.487092E-10 -3.035045E-20 -8.370608E-19 -2.425887E-20
         3   1 -2.901607E-10 -2.901607E-10  2.487092E-10 -1.712938E-18 -1.878619E-19  6.315359E-20
         3   2 -2.901607E-10 -2.901607E-10  2.487092E-10  3.470462E-19  1.916089E-19 -2.211026E-20
         3   3 -2.901607E-10 -2.901607E-10  2.487092E-10 -1.653419E-18  1.874003E-18  1.223704E-19
         3   4 -2.901607E-10 -2.901607E-10  2.487092E-10 -1.355356E-19  1.006641E-18  9.523350E-20
         3   5 -2.901607E-10 -2.901607E-10  2.487092E-10  5.157189E-20  1.351090E-18  1.764756E-19
         3   6 -2.901607E-10 -2.901607E-10  2.487092E-10  5.157189E-20  1.584675E-19 -1.998604E-19
         3   7 -2.901607E-10 -2.901607E-10  2.487092E-10  1.924689E-19  5.197970E-19  2.356924E-19
         3   8 -2.901607E-10 -2.901607E-10  2.487092E-10 -6.748928E-19  9.534779E-19 -8.251660E-20
         4   1 -2.901607E-10 -2.901607E-10  2.487092E-10 -2.922119E-19  1.376561E-20  9.681352E-19
         4   2 -2.901607E-10 -2.901607E-10  2.487092E-10 -3.500259E-19  4.437375E-21 -6.827558E-19
         4   3 -2.901607E-10 -2.901607E-10  2.487092E-10 -2.380018E-19 -1.879909E-20  4.260342E-19
         4   4 -2.901607E-10 -2.901607E-10  2.487092E-10 -2.958158E-19  9.818404E-20 -8.453861E-19
         4   5 -2.901607E-10 -2.901607E-10  2.487092E-10 -1.040637E-18  6.070220E-20 -6.790592E-19
         4   6 -2.901607E-10 -2.901607E-10  2.487092E-10 -9.216152E-19  5.137396E-20 -1.135767E-18
         4   7 -2.901607E-10 -2.901607E-10  2.487092E-10 -8.237967E-19 -1.871423E-19 -2.853793E-20
         4   8 -2.901607E-10 -2.901607E-10  2.487092E-10 -7.047748E-19 -7.015916E-20 -5.394560E-19
         5   1 -2.901607E-10 -2.901607E-10  2.487092E-10  1.788934E-18  6.909923E-19 -1.056658E-18
         5   2 -2.901607E-10 -2.901607E-10  2.487092E-10  1.301043E-18 -8.268907E-19  1.398264E-19
         5   3 -2.901607E-10 -2.901607E-10  2.487092E-10  2.168404E-19 -3.893476E-19 -8.087628E-20
         5   4 -2.901607E-10 -2.901607E-10  2.487092E-10 -2.369518E-35  2.611737E-19  1.398264E-19
         5   5 -2.901607E-10 -2.901607E-10  2.487092E-10  6.505213E-19 -3.674947E-20 -8.439354E-19
         5   6 -2.901607E-10 -2.901607E-10  2.487092E-10  4.336809E-19 -6.330607E-19 -2.622612E-19
         5   7 -2.901607E-10 -2.901607E-10  2.487092E-10 -1.734723E-18 -2.682269E-19 -3.018344E-19
         5   8 -2.901607E-10 -2.901607E-10  2.487092E-10 -8.673617E-19  7.075551E-19  5.508904E-19
         6   1 -2.901607E-10 -2.901607E-10  2.487092E-10  5.421011E-20  1.156536E-18  4.504755E-19
         6   2 -2.901607E-10 -2.901607E-10  2.487092E-10 -1.626303E-19  3.433844E-19 -5.227846E-19
         6   3 -2.901607E-10 -2.901607E-10  2.487092E-10 -8.673617E-19 -9.280313E-19 -3.084660E-19
         6   4 -2.901607E-10 -2.901607E-10  2.487092E-10  1.084202E-19  1.674054E-18 -7.788527E-21
         6   5 -2.901607E-10 -2.901607E-10  2.487092E-10  8.673617E-19  5.311315E-20  1.420475E-19
         6   6 -2.901607E-10 -2.901607E-10  2.487092E-10 -8.673617E-19 -8.142486E-19 -3.543278E-19
         6   7 -2.901607E-10 -2.901607E-10  2.487092E-10 -1.734723E-18  1.508302E-18 -4.000536E-19
         6   8 -2.901607E-10 -2.901607E-10  2.487092E-10 -1.301043E-18 -8.769430E-19 -3.543278E-19
         7   1 -2.901607E-10 -2.901607E-10  2.487092E-10 -1.611906E-18 -7.184540E-22 -6.612997E-19
         7   2 -2.901607E-10 -2.901607E-10  2.487092E-10 -1.276363E-18 -2.850472E-20  3.662453E-19
         7   3 -2.901607E-10 -2.901607E-10  2.487092E-10  1.228174E-19  1.806138E-20  1.723945E-18
         7   4 -2.901607E-10 -2.901607E-10  2.487092E-10  4.583607E-19 -9.983656E-20  1.558868E-18
         7   5 -2.901607E-10 -2.901607E-10  2.487092E-10  7.664093E-20  2.510495E-20 -6.907469E-19
         7   6 -2.901607E-10 -2.901607E-10  2.487092E-10  2.860278E-19 -2.681306E-21 -6.388382E-20
         7   7 -2.901607E-10 -2.901607E-10  2.487092E-10  7.664093E-20  1.853039E-19 -4.022556E-20
         7   8 -2.901607E-10 -2.901607E-10  2.487092E-10  2.860278E-19  6.740598E-20 -9.312456E-19
         8   1 -2.901607E-10 -2.901607E-10  2.487092E-10 -6.505213E-19 -1.169200E-18 -2.861463E-19
         8   2 -2.901607E-10 -2.901607E-10  2.487092E-10  4.336809E-19  1.053414E-18  1.047538E-18
         8   3 -2.901607E-10 -2.901607E-10  2.487092E-10 -1.084202E-18  3.813239E-19  1.665418E-18
         8   4 -2.901607E-10 -2.901607E-10  2.487092E-10  2.710505E-19  4.897441E-19  9.391173E-19
         8   5 -2.901607E-10 -2.901607E-10  2.487092E-10 -1.734723E-18 -4.546892E-19 -4.754936E-19
         8   6 -2.901607E-10 -2.901607E-10  2.487092E-10  4.336809E-19 -7.521845E-20  6.370774E-22
         8   7 -2.901607E-10 -2.901607E-10  2.487092E-10 -1.734723E-18  2.382819E-19 -2.586531E-19
         8   8 -2.901607E-10 -2.901607E-10  2.487092E-10 -2.168404E-19 -4.122394E-19  7.595786E-19
         9   1 -2.901607E-10 -2.901607E-10  2.487092E-10 -8.673617E-19 -1.833903E-18 -5.008152E-19
         9   2 -2.901607E-10 -2.901607E-10  2.487092E-10 -1.084202E-18 -6.412807E-19 -4.312415E-19
         9   3 -2.901607E-10 -2.901607E-10  2.487092E-10 -2.170393E-38  1.705118E-18  3.665466E-19
         9   4 -2.901607E-10 -2.901607E-10  2.487092E-10  9.757820E-19 -2.960597E-20  4.361202E-19
         9   5 -2.901607E-10 -2.901607E-10  2.487092E-10  7.929380E-36 -1.136869E-18 -1.450955E-18
         9   6 -2.901607E-10 -2.901607E-10  2.487092E-10  1.734723E-18  1.356796E-18  2.340139E-18
         9   7 -2.901607E-10 -2.901607E-10  2.487092E-10 -6.320828E-36  7.568708E-19  5.006087E-19
         9   8 -2.901607E-10 -2.901607E-10  2.487092E-10  8.673617E-19 -1.628374E-18 -1.291939E-18

 displacements (vx,vy,vz) for set NALL and time  0.5167813E+00

         1  0.000000E+00  0.000000E+00  0.000000E+00
         2 -1.476518E-07  0.000000E+00  0.000000E+00
         3 -7.751719E+00  0.000000E+00  0.000000E+00
         4 -7.751719E+00  0.000000E+00  0.000000E+00
         5 -1.550344E+01  0.000000E+00  0.000000E+00
         6 -1.550344E+01  0.000000E+00  0.000000E+00
         7  0.000000E+00 -1.476518E-07  0.000000E+00
         8 -1.476518E-07 -1.476518E-07  0.000000E+00
         9 -7.751719E+00 -1.476518E-07  0.000000E+00
        10 -7.751719E+00 -1.476518E-07  0.000000E+00
        11 -1.550344E+01 -1.476518E-07  0.000000E+00
        12 -1.550344E+01 -1.476518E-07  0.000000E+00
        13  0.000000E+00 -7.751719E+00  0.000000E+00
        14 -1.476518E-07 -7.751719E+00  0.000000E+00
        15 -7.751719E+00 -7.751719E+00  0.000000E+00
        16 -7.751719E+00 -7.751719E+00  0.000000E+00
        17 -1.550344E+01 -7.751719E+00  0.000000E+00
        18 -1.550344E+01 -7.751719E+00  0.000000E+00
        19  0.000000E+00 -7.751719E+00  0.000000E+00
        20 -1.476518E-07 -7.751719E+00  0.000000E+00
        21 -7.751719E+00 -7.751719E+00  0.000000E+00
        22 -7.751719E+00 -7.751719E+00  0.000000E+00
        23 -1.550344E+01 -7.751719E+00  0.000000E+00
        24 -1.550344E+01 -7.751719E+00  0.000000E+00
        25  0.000000E+00 -1.550344E+01  0.000000E+00
        26 -1.476518E-07 -1.550344E+01  0.000000E+00
        27 -7.751719E+00 -1.550344E+01  0.000000E+00
        28 -7.751719E+00 -1.550344E+01  0.000000E+00
        29 -1.550344E+01 -1.550344E+01  0.000000E+00
        30 -1.550344E+01 -1.550344E+01  0.000000E+00
        31  0.000000E+00 -1.550344E+01  0.000000E+00
        32 -1.476518E-07 -1.550344E+01  0.000000E+00
        33 -7.751719E+00 -1.550344E+01  0.000000E+00
        34 -7.751719E+00 -1.550344E+01  0.000000E+00
        35 -1.550344E+01 -1.550344E+01  0.000000E+00
        36 -1.550344E+01 -1.550344E+01  0.000000E+00
        37  0.000000E+00  0.000000E+00  1.771821E-07
        38 -1.476518E-07  0.000000E+00  1.771821E-07
        39 -7.751719E+00  0.000000E+00  1.771821E-07
        40 -7.751719E+00  0.000000E+00  1.771821E-07
        41 -1.550344E+01  0.000000E+00  1.771821E-07
        42 -1.550344E+01  0.000000E+00  1.771821E-07
        43  0.000000E+00 -1.476518E-07  1.771821E-07
        44 -1.476518E-07 -1.476518E-07  1.771821E-07
        45 -7.751719E+00 -1.476518E-07  1.771821E-07
        46 -7.751719E+00 -1.476518E-07  1.771821E-07
        47 -1.550344E+01 -1.476518E-07  1.771821E-07
        48 -1.550344E+01 -1.476518E-07  1.771821E-07
        49  0.000000E+00 -7.751719E+00  1.771821E-07
        50 -1.476518E-07 -7.751719E+00  1.771821E-07
        51 -7.751719E+00 -7.751719E+00  1.771821E-07
        52 -7.751719E+00 -7.751719E+00  1.771821E-07
        53 -1.550344E+01 -7.751719E+00  1.771821E-07
        54 -1.550344E+01 -7.751719E+00  1.771821E-07
        55  0.000000E+00 -7.751719E+00  1.771821E-07
        56 -1.476518E-07 -7.751719E+00  1.771821E-07
        57 -7.751719E+00 -7.751719E+00  1.771821E-07
        58 -7.751719E+00 -7.751719E+00  1.771821E-07
        59 -1.550344E+01 -7.751719E+00  1.771821E-07
        60 -1.550344E+01 -7.751719E+00  1.771821E-07
        61  0.000000E+00 -1.550344E+01  1.771821E-07
        62 -1.476518E-07 -1.550344E+01  1.771821E-07
        63 -7.751719E+00 -1.550344E+01  1.771821E-07
        64 -7.751719E+00 -1.550344E+01  1.771821E-07
        65 -1.550344E+01 -1.550344E+01  1.771821E-07
        66 -1.550344E+01 -1.550344E+01  1.771821E-07
        67  0.000000E+00 -1.550344E+01  1.771821E-07
        68 -1.476518E-07 -1.550344E+01  1.771821E-07
        69 -7.751719E+00 -1.550344E+01  1.771821E-07
        70 -7.751719E+00 -1.550344E+01  1.771821E-07
        71 -1.550344E+01 -1.550344E+01  1.771821E-07
        72 -1.550344E+01 -1.550344E+01  1.771821E-07

 stresses (elem, integ.pnt.,sxx,syy,szz,sxy,sxz,syz) for set EALL and time  0.5167813E+00

         1   1 -8.859107E-05 -8.859107E-05  3.373080E-47 -9.134281E-22 -5.219589E-22 -1.043918E-21
         1   2 -8.859107E-05 -8.859107E-05 -1.355253E-20  1.826856E-21 -6.263507E-21  2.479305E-21
         1   3 -8.859107E-05 -8.859107E-05 -1.355253E-20 -6.393997E-21  1.043918E-21  2.087836E-21
         1   4 -8.859107E-05 -8.859107E-05  1.355253E-20 -3.653712E-21 -1.043918E-21  1.226603E-20
         1   5 -8.859107E-05 -8.859107E-05 -1.355253E-20  5.741548E-21  1.043918E-21 -7.307425E-21
         1   6 -8.859107E-05 -8.859107E-05 -4.553659E-46  1.722464E-20 -4.697630E-21  1.174408E-21
         1   7 -8.859107E-05 -8.859107E-05  1.834956E-45  1.148310E-20  6.263507E-21 -4.175671E-21
         1   8 -8.859107E-05 -8.859107E-05  1.355253E-20  2.296619E-20  4.175671E-21  1.096114E-20
         2   1 -8.859107E-05 -8.859107E-05 -3.722068E-13  3.060844E-14 -7.499081E-14  2.316728E-15
         2   2 -8.859107E-05 -8.859107E-05 -3.044001E-13  3.371041E-13 -4.934672E-15 -4.156710E-16
         2   3 -8.859107E-05 -8.859107E-05  2.020844E-13  1.853380E-14 -2.148195E-16 -1.090192E-14
         2   4 -8.859107E-05 -8.859107E-05  1.825052E-13  3.337864E-13 -2.804394E-13  1.385499E-14
         2   5 -8.859107E-05 -8.859107E-05  1.254551E-13  9.666870E-15 -4.062335E-14  2.186479E-14
         2   6 -8.859107E-05 -8.859107E-05  2.509893E-13 -6.038927E-14 -4.938037E-14 -1.582196E-14
         2   7 -8.859107E-05 -8.859107E-05 -1.934695E-13  3.607725E-14 -8.017143E-16  8.646145E-15
         2   8 -8.859107E-05 -8.859107E-05 -1.553212E-13  1.049179E-15 -1.409140E-13 -1.551306E-15
         3   1 -8.859107E-05 -8.859107E-05 -6.073312E-14  4.124245E-16 -1.180667E-13  2.974502E-14
         3   2 -8.859107E-05 -8.859107E-05  9.153119E-14 -6.964372E-14 -1.355807E-13 -1.950284E-14
         3   3 -8.859107E-05 -8.859107E-05 -1.222439E-13  1.539190E-15  9.716328E-14  9.513185E-15
         3   4 -8.859107E-05 -8.859107E-05 -4.139009E-13  1.241374E-13  1.321914E-13  3.286200E-15
         3   5 -8.859107E-05 -8.859107E-05 -4.184726E-13 -2.577667E-13  4.724717E-14  1.312418E-13
         3   6 -8.859107E-05 -8.859107E-05 -1.758645E-13 -1.176544E-13 -1.804353E-13 -9.557460E-14
         3   7 -8.859107E-05 -8.859107E-05  1.505219E-13 -1.964107E-13  2.600490E-13  1.110099E-13
         3   8 -8.859107E-05 -8.859107E-05 -5.079128E-14  8.381383E-14  2.250209E-13 -7.278557E-14
         4   1 -8.859107E-05 -8.859107E-05  2.288006E-13  1.312846E-14 -4.112421E-15 -8.090974E-14
         4   2 -8.859107E-05 -8.859107E-05  7.751224E-14  2.507147E-14 -2.120308E-15  1.344996E-13
         4   3 -8.859107E-05 -8.859107E-05  1.725837E-13  4.371443E-15 -2.316071E-15 -8.090974E-14
         4   4 -8.859107E-05 -8.859107E-05  5.709155E-14  1.631445E-14 -9.734743E-15  1.190137E-14
         4   5 -8.859107E-05 -8.859107E-05 -3.449791E-13 -4.509772E-16 -1.733988E-14  1.171201E-13
         4   6 -8.859107E-05 -8.859107E-05 -6.279508E-14 -1.683069E-15 -1.534776E-14  8.413745E-14
         4   7 -8.859107E-05 -8.859107E-05 -4.209587E-13 -4.509772E-16 -1.225027E-15 -1.806185E-13
         4   8 -8.859107E-05 -8.859107E-05 -1.029785E-13 -1.683069E-15 -8.643698E-15 -1.260310E-13
         5   1 -8.859107E-05 -8.859107E-05 -2.144633E-13 -7.881316E-14 -1.326703E-13 -9.958661E-15
         5   2 -8.859107E-05 -8.859107E-05 -5.714599E-14  1.751404E-14  5.998409E-14  2.340297E-13
         5   3 -8.859107E-05 -8.859107E-05  7.902695E-15 -1.401123E-13 -4.630821E-14  7.555374E-15
         5   4 -8.859107E-05 -8.859107E-05  2.226462E-13 -3.502807E-14 -1.338784E-13 -1.116675E-14
         5   5 -8.859107E-05 -8.859107E-05  1.664670E-13  2.802246E-13  4.059504E-14  8.073915E-14
         5   6 -8.859107E-05 -8.859107E-05 -8.341707E-14  2.451965E-13  3.295766E-13  3.126700E-13
         5   7 -8.859107E-05 -8.859107E-05 -2.022657E-13 -1.401123E-13  1.586846E-13 -4.185910E-14
         5   8 -8.859107E-05 -8.859107E-05 -4.078591E-13 -2.802246E-13  5.360042E-14  5.871645E-14
         6   1 -8.859107E-05 -8.859107E-05  2.960320E-13 -1.401123E-13  2.181673E-13 -2.877383E-14
         6   2 -8.859107E-05 -8.859107E-05 -1.993607E-14 -3.502807E-14  1.481112E-13  2.461211E-14
         6   3 -8.859107E-05 -8.859107E-05  6.131920E-13 -2.451965E-13 -1.487836E-13 -8.131594E-14
         6   4 -8.859107E-05 -8.859107E-05  3.569328E-13 -2.977386E-13  2.715532E-13  1.822384E-13
         6   5 -8.859107E-05 -8.859107E-05 -4.549166E-14 -1.401123E-13  1.793502E-13 -5.953618E-14
         6   6 -8.859107E-05 -8.859107E-05 -8.080677E-13  2.101684E-13 -4.161270E-13  7.903248E-14
         6   7 -8.859107E-05 -8.859107E-05  7.182762E-13 -7.005614E-13 -3.236182E-14 -4.202214E-14
         6   8 -8.859107E-05 -8.859107E-05 -2.399745E-14 -2.101684E-13  1.427785E-13  1.315746E-13
         7   1 -8.859107E-05 -8.859107E-05  6.665055E-13  1.433808E-13 -1.229673E-14 -7.519280E-14
         7   2 -8.859107E-05 -8.859107E-05  1.428346E-13  1.523106E-13 -2.557524E-14 -3.196243E-13
         7   3 -8.859107E-05 -8.859107E-05  6.448162E-13  3.268523E-15  1.686057E-14  4.152002E-13
         7   4 -8.859107E-05 -8.859107E-05  2.459931E-13  1.219829E-14  3.330214E-14  1.182265E-13
         7   5 -8.859107E-05 -8.859107E-05  8.115402E-15  1.849815E-14 -3.261351E-14  1.909982E-13
         7   6 -8.859107E-05 -8.859107E-05  2.725761E-13  6.903603E-14 -4.589202E-14 -9.106440E-14
         7   7 -8.859107E-05 -8.859107E-05  4.883817E-14  1.849815E-14  4.648293E-14 -1.917026E-14
         7   8 -8.859107E-05 -8.859107E-05  4.381467E-13  6.903603E-14  6.292450E-14  1.401981E-14
         8   1 -8.859107E-05 -8.859107E-05 -5.756136E-14  2.802246E-13  6.043861E-14 -4.460998E-13
         8   2 -8.859107E-05 -8.859107E-05 -5.616933E-14  2.101684E-13  2.180649E-13  2.626060E-13
         8   3 -8.859107E-05 -8.859107E-05  1.530177E-13  1.401123E-13  6.858307E-14  1.844054E-13
         8   4 -8.859107E-05 -8.859107E-05  2.217696E-13  1.138412E-13  3.355500E-14 -4.904975E-13
         8   5 -8.859107E-05 -8.859107E-05  4.809952E-13  2.802246E-13 -4.058598E-14 -1.149203E-13
         8   6 -8.859107E-05 -8.859107E-05  4.298451E-13  3.502807E-14  4.698420E-14  2.529348E-13
         8   7 -8.859107E-05 -8.859107E-05 -4.249454E-13  2.802246E-13 -7.555371E-14  2.519198E-14
         8   8 -8.859107E-05 -8.859107E-05 -1.466985E-14  7.005614E-14 -2.331800E-13  6.028038E-14
         9   1 -8.859107E-05 -8.859107E-05 -9.629323E-14  3.502807E-13 -1.510452E-13 -4.517668E-13
         9   2 -8.859107E-05 -8.859107E-05  3.863394E-13  2.627105E-13  4.160923E-14 -3.159693E-13
         9   3 -8.859107E-05 -8.859107E-05 -2.528086E-13  2.101684E-13  3.000050E-13  1.787384E-13
         9   4 -8.859107E-05 -8.859107E-05 -1.702479E-13  3.502807E-14 -1.903880E-13  2.094517E-13
         9   5 -8.859107E-05 -8.859107E-05  3.240436E-13  2.802246E-13 -5.957352E-14 -6.601366E-14
         9   6 -8.859107E-05 -8.859107E-05  3.075262E-13  1.401123E-13 -1.821718E-13 -1.427870E-13
         9   7 -8.859107E-05 -8.859107E-05 -3.578928E-13  3.818233E-31  2.139338E-13  1.441548E-13
         9   8 -8.859107E-05 -8.859107E-05  4.077153E-13  1.232503E-31 -1.013188E-13 -3.770281E-14

 strains (elem, integ.pnt.,exx,eyy,ezz,exy,exz,eyz) forset EALL and time  0.5167813E+00

         1   1 -2.953036E-10 -2.953036E-10  2.531173E-10 -5.654555E-27 -3.231174E-27 -6.462349E-27
         1   2 -2.953036E-10 -2.953036E-10  2.531173E-10  1.130911E-26 -3.877409E-26  1.534808E-26
         1   3 -2.953036E-10 -2.953036E-10  2.531173E-10 -3.958188E-26  6.462349E-27  1.292470E-26
         1   4 -2.953036E-10 -2.953036E-10  2.531173E-10 -2.261822E-26 -6.462349E-27  7.593260E-26
         1   5 -2.953036E-10 -2.953036E-10  2.531173E-10  3.554292E-26  6.462349E-27 -4.523644E-26
         1   6 -2.953036E-10 -2.953036E-10  2.531173E-10  1.066288E-25 -2.908057E-26  7.270142E-27
         1   7 -2.953036E-10 -2.953036E-10  2.531173E-10  7.108583E-26  3.877409E-26 -2.584939E-26
         1   8 -2.953036E-10 -2.953036E-10  2.531173E-10  1.421717E-25  2.584939E-26  6.785466E-26
         2   1 -2.953036E-10 -2.953036E-10  2.531173E-10  1.894808E-19 -4.642288E-19  1.434165E-20
         2   2 -2.953036E-10 -2.953036E-10  2.531173E-10  2.086835E-18 -3.054797E-20 -2.573201E-21
         2   3 -2.953036E-10 -2.953036E-10  2.531173E-10  1.147330E-19 -1.329835E-21 -6.748805E-20
         2   4 -2.953036E-10 -2.953036E-10  2.531173E-10  2.066297E-18 -1.736053E-18  8.576896E-20
         2   5 -2.953036E-10 -2.953036E-10  2.531173E-10  5.984253E-20 -2.514779E-19  1.353535E-19
         2   6 -2.953036E-10 -2.953036E-10  2.531173E-10 -3.738383E-19 -3.056880E-19 -9.794548E-20
         2   7 -2.953036E-10 -2.953036E-10  2.531173E-10  2.233354E-19 -4.962993E-21  5.352376E-20
         2   8 -2.953036E-10 -2.953036E-10  2.531173E-10  6.494919E-21 -8.723247E-19 -9.603321E-21
         3   1 -2.953036E-10 -2.953036E-10  2.531173E-10  2.553104E-21 -7.308891E-19  1.841358E-19
         3   2 -2.953036E-10 -2.953036E-10  2.531173E-10 -4.311278E-19 -8.393093E-19 -1.207318E-19
         3   3 -2.953036E-10 -2.953036E-10  2.531173E-10  9.528316E-21  6.014870E-19  5.889114E-20
         3   4 -2.953036E-10 -2.953036E-10  2.531173E-10  7.684698E-19  8.183274E-19  2.034314E-20
         3   5 -2.953036E-10 -2.953036E-10  2.531173E-10 -1.595699E-18  2.924825E-19  8.124490E-19
         3   6 -2.953036E-10 -2.953036E-10  2.531173E-10 -7.283370E-19 -1.116980E-18 -5.916523E-19
         3   7 -2.953036E-10 -2.953036E-10  2.531173E-10 -1.215876E-18  1.609827E-18  6.872043E-19
         3   8 -2.953036E-10 -2.953036E-10  2.531173E-10  5.188475E-19  1.392987E-18 -4.505773E-19
         4   1 -2.953036E-10 -2.953036E-10  2.531173E-10  8.127142E-20 -2.545784E-20 -5.008698E-19
         4   2 -2.953036E-10 -2.953036E-10  2.531173E-10  1.552043E-19 -1.312571E-20  8.326166E-19
         4   3 -2.953036E-10 -2.953036E-10  2.531173E-10  2.706131E-20 -1.433758E-20 -5.008698E-19
         4   4 -2.953036E-10 -2.953036E-10  2.531173E-10  1.009942E-19 -6.026269E-20  7.367512E-20
         4   5 -2.953036E-10 -2.953036E-10  2.531173E-10 -2.791764E-21 -1.073421E-19  7.250293E-19
         4   6 -2.953036E-10 -2.953036E-10  2.531173E-10 -1.041900E-20 -9.500997E-20  5.208509E-19
         4   7 -2.953036E-10 -2.953036E-10  2.531173E-10 -2.791764E-21 -7.583498E-21 -1.118114E-18
         4   8 -2.953036E-10 -2.953036E-10  2.531173E-10 -1.041900E-20 -5.350861E-20 -7.801918E-19
         5   1 -2.953036E-10 -2.953036E-10  2.531173E-10 -4.878910E-19 -8.212923E-19 -6.164885E-20
         5   2 -2.953036E-10 -2.953036E-10  2.531173E-10  1.084202E-19  3.713301E-19  1.448756E-18
         5   3 -2.953036E-10 -2.953036E-10  2.531173E-10 -8.673617E-19 -2.866699E-19  4.677136E-20
         5   4 -2.953036E-10 -2.953036E-10  2.531173E-10 -2.168404E-19 -8.287710E-19 -6.912752E-20
         5   5 -2.953036E-10 -2.953036E-10  2.531173E-10  1.734723E-18  2.513026E-19  4.998138E-19
         5   6 -2.953036E-10 -2.953036E-10  2.531173E-10  1.517883E-18  2.040236E-18  1.935576E-18
         5   7 -2.953036E-10 -2.953036E-10  2.531173E-10 -8.673617E-19  9.823334E-19 -2.591277E-19
         5   8 -2.953036E-10 -2.953036E-10  2.531173E-10 -1.734723E-18  3.318121E-19  3.634828E-19
         6   1 -2.953036E-10 -2.953036E-10  2.531173E-10 -8.673617E-19  1.350559E-18 -1.781237E-19
         6   2 -2.953036E-10 -2.953036E-10  2.531173E-10 -2.168404E-19  9.168786E-19  1.523607E-19
         6   3 -2.953036E-10 -2.953036E-10  2.531173E-10 -1.517883E-18 -9.210414E-19 -5.033844E-19
         6   4 -2.953036E-10 -2.953036E-10  2.531173E-10 -1.843144E-18  1.681044E-18  1.128143E-18
         6   5 -2.953036E-10 -2.953036E-10  2.531173E-10 -8.673617E-19  1.110263E-18 -3.685573E-19
         6   6 -2.953036E-10 -2.953036E-10  2.531173E-10  1.301043E-18 -2.576024E-18  4.892487E-19
         6   7 -2.953036E-10 -2.953036E-10  2.531173E-10 -4.336809E-18 -2.003351E-19 -2.601371E-19
         6   8 -2.953036E-10 -2.953036E-10  2.531173E-10 -1.301043E-18  8.838671E-19  8.145094E-19
         7   1 -2.953036E-10 -2.953036E-10  2.531173E-10  8.875955E-19 -7.612260E-20 -4.654792E-19
         7   2 -2.953036E-10 -2.953036E-10  2.531173E-10  9.428750E-19 -1.583229E-19 -1.978627E-18
         7   3 -2.953036E-10 -2.953036E-10  2.531173E-10  2.023372E-20  1.043750E-19  2.570287E-18
         7   4 -2.953036E-10 -2.953036E-10  2.531173E-10  7.551324E-20  2.061561E-19  7.318786E-19
         7   5 -2.953036E-10 -2.953036E-10  2.531173E-10  1.145123E-19 -2.018931E-19  1.182370E-18
         7   6 -2.953036E-10 -2.953036E-10  2.531173E-10  4.273659E-19 -2.840934E-19 -5.637320E-19
         7   7 -2.953036E-10 -2.953036E-10  2.531173E-10  1.145123E-19  2.877515E-19 -1.186730E-19
         7   8 -2.953036E-10 -2.953036E-10  2.531173E-10  4.273659E-19  3.895326E-19  8.678930E-20
         8   1 -2.953036E-10 -2.953036E-10  2.531173E-10  1.734723E-18  3.741438E-19 -2.761570E-18
         8   2 -2.953036E-10 -2.953036E-10  2.531173E-10  1.301043E-18  1.349926E-18  1.625656E-18
         8   3 -2.953036E-10 -2.953036E-10  2.531173E-10  8.673617E-19  4.245619E-19  1.141557E-18
         8   4 -2.953036E-10 -2.953036E-10  2.531173E-10  7.047314E-19  2.077214E-19 -3.036413E-18
         8   5 -2.953036E-10 -2.953036E-10  2.531173E-10  1.734723E-18 -2.512465E-19 -7.114114E-19
         8   6 -2.953036E-10 -2.953036E-10  2.531173E-10  2.168404E-19  2.908546E-19  1.565787E-18
         8   7 -2.953036E-10 -2.953036E-10  2.531173E-10  1.734723E-18 -4.677135E-19  1.559503E-19
         8   8 -2.953036E-10 -2.953036E-10  2.531173E-10  4.336809E-19 -1.443495E-18  3.731642E-19
         9   1 -2.953036E-10 -2.953036E-10  2.531173E-10  2.168404E-18 -9.350414E-19 -2.796652E-18
         9   2 -2.953036E-10 -2.953036E-10  2.531173E-10  1.626303E-18  2.575810E-19 -1.956001E-18
         9   3 -2.953036E-10 -2.953036E-10  2.531173E-10  1.301043E-18  1.857174E-18  1.106476E-18
         9   4 -2.953036E-10 -2.953036E-10  2.531173E-10  2.168404E-19 -1.178592E-18  1.296606E-18
         9   5 -2.953036E-10 -2.953036E-10  2.531173E-10  1.734723E-18 -3.687885E-19 -4.086560E-19
         9   6 -2.953036E-10 -2.953036E-10  2.531173E-10  8.673617E-19 -1.127730E-18 -8.839197E-19
         9   7 -2.953036E-10 -2.953036E-10  2.531173E-10  8.156243E-37  1.324352E-18  8.923866E-19
         9   8 -2.953036E-10 -2.953036E-10  2.531173E-10 -1.513363E-38 -6.272117E-19 -2.333984E-19

 displacements (vx,vy,vz) for set NALL and time  0.5257813E+00

         1  0.000000E+00  0.000000E+00  0.000000E+00
         2 -1.502232E-07  0.000000E+00  0.000000E+00
         3 -7.886719E+00  0.000000E+00  0.000000E+00
         4 -7.886719E+00  0.000000E+00  0.000000E+00
         5 -1.577344E+01  0.000000E+00  0.000000E+00
         6 -1.577344E+01  0.000000E+00  0.000000E+00
         7  0.000000E+00 -1.502232E-07  0.000000E+00
         8 -1.502232E-07 -1.502232E-07  0.000000E+00
         9 -7.886719E+00 -1.502232E-07  0.000000E+00
        10 -7.886719E+00 -1.502232E-07  0.000000E+00
        11 -1.577344E+01 -1.502232E-07  0.000000E+00
        12 -1.577344E+01 -1.502232E-07  0.000000E+00
        13  0.000000E+00 -7.886719E+00  0.000000E+00
        14 -1.502232E-07 -7.886719E+00  0.000000E+00
        15 -7.886719E+00 -7.886719E+00  0.000000E+00
        16 -7.886719E+00 -7.886719E+00  0.000000E+00
        17 -1.577344E+01 -7.886719E+00  0.000000E+00
        18 -1.577344E+01 -7.886719E+00  0.000000E+00
        19  0.000000E+00 -7.886719E+00  0.000000E+00
        20 -1.502232E-07 -7.886719E+00  0.000000E+00
        21 -7.886719E+00 -7.886719E+00  0.000000E+00
        22 -7.886719E+00 -7.886719E+00  0.000000E+00
        23 -1.577344E+01 -7.886719E+00  0.000000E+00
        24 -1.577344E+01 -7.886719E+00  0.000000E+00
        25  0.000000E+00 -1.577344E+01  0.000000E+00
        26 -1.502232E-07 -1.577344E+01  0.000000E+00
        27 -7.886719E+00 -1.577344E+01  0.000000E+00
        28 -7.886719E+00 -1.577344E+01  0.000000E+00
        29 -1.577344E+01 -1.577344E+01  0.000000E+00
        30 -1.577344E+01 -1.577344E+01  0.000000E+00
        31  0.000000E+00 -1.577344E+01  0.000000E+00
        32 -1.502232E-07 -1.577344E+01  0.000000E+00
        33 -7.886719E+00 -1.577344E+01  0.000000E+00
        34 -7.886719E+00 -1.577344E+01  0.000000E+00
        35 -1.577344E+01 -1.577344E+01  0.000000E+00
        36 -1.577344E+01 -1.577344E+01  0.000000E+00
        37  0.000000E+00  0.000000E+00  1.802679E-07
        38 -1.502232E-07  0.000000E+00  1.802679E-07
        39 -7.886719E+00  0.000000E+00  1.802679E-07
        40 -7.886719E+00  0.000000E+00  1.802679E-07
        41 -1.577344E+01  0.000000E+00  1.802679E-07
        42 -1.577344E+01  0.000000E+00  1.802679E-07
        43  0.000000E+00 -1.502232E-07  1.802679E-07
        44 -1.502232E-07 -1.502232E-07  1.802679E-07
        45 -7.886719E+00 -1.502232E-07  1.802679E-07
        46 -7.886719E+00 -1.502232E-07  1.802679E-07
        47 -1.577344E+01 -1.502232E-07  1.802679E-07
        48 -1.577344E+01 -1.502232E-07  1.802679E-07
        49  0.000000E+00 -7.886719E+00  1.802679E-07
        50 -1.502232E-07 -7.886719E+00  1.802679E-07
        51 -7.886719E+00 -7.886719E+00  1.802679E-07
        52 -7.886719E+00 -7.886719E+00  1.802679E-07
        53 -1.577344E+01 -7.886719E+00  1.802679E-07
        54 -1.577344E+01 -7.886719E+00  1.802679E-07
        55  0.000000E+00 -7.886719E+00  1.802679E-07
        56 -1.502232E-07 -7.886719E+00  1.802679E-07
        57 -7.886719E+00 -7.886719E+00  1.802679E-07
        58 -7.886719E+00 -7.886719E+00  1.802679E-07
        59 -1.577344E+01 -7.886719E+00  1.802679E-07
        60 -1.577344E+01 -7.886719E+00  1.802679E-07
        61  0.000000E+00 -1.577344E+01  1.802679E-07
        62 -1.502232E-07 -1.577344E+01  1.802679E-07
        63 -7.886719E+00 -1.577344E+01  1.802679E-07
        64 -7.886719E+00 -1.577344E+01  1.802679E-07
        65 -1.577344E+01 -1.577344E+01  1.802679E-07
        66 -1.577344E+01 -1.577344E+01  1.802679E-07
        67  0.000000E+00 -1.577344E+01  1.802679E-07
        68 -1.502232E-07 -1.577344E+01  1.802679E-07
        69 -7.886719E+00 -1.577344E+01  1.802679E-07
        70 -7.886719E+00 -1.577344E+01  1.802679E-07
        71 -1.577344E+01 -1.577344E+01  1.802679E-07
        72 -1.577344E+01 -1.577344E+01  1.802679E-07

 stresses (elem, integ.pnt.,sxx,syy,szz,sxy,sxz,syz) for set EALL and time  0.5257813E+00

         1   1 -9.013393E-05 -9.013393E-05  2.710505E-20 -1.957346E-21 -2.912384E-31  1.043918E-21
         1   2 -9.013393E-05 -9.013393E-05  2.710505E-20 -1.200506E-20 -5.219589E-22 -3.784202E-21
         1   3 -9.013393E-05 -9.013393E-05  2.710505E-20  5.872038E-21  3.131754E-21 -5.219589E-21
         1   4 -9.013393E-05 -9.013393E-05 -1.355253E-20 -4.175671E-21  2.296619E-20 -1.122212E-20
         1   5 -9.013393E-05 -9.013393E-05 -1.355253E-20  6.785466E-21  5.219589E-22  1.461485E-20
         1   6 -9.013393E-05 -9.013393E-05  1.129982E-45  2.557599E-20 -5.824768E-31 -8.742812E-21
         1   7 -9.013393E-05 -9.013393E-05  5.421011E-20  8.351343E-21 -1.304897E-20  1.043918E-20
         1   8 -9.013393E-05 -9.013393E-05  1.355253E-20  2.714186E-20  6.263507E-21 -1.618073E-20
         2   1 -9.013393E-05 -9.013393E-05 -2.442585E-13 -2.446257E-13 -1.527059E-13  2.803627E-15
         2   2 -9.013393E-05 -9.013393E-05 -2.083118E-13  1.231691E-13 -1.702199E-13 -2.217690E-15
         2   3 -9.013393E-05 -9.013393E-05  1.963407E-13 -2.430661E-13 -2.761862E-16 -2.895874E-15
         2   4 -9.013393E-05 -9.013393E-05  1.967936E-13  1.685137E-13 -1.403885E-13 -7.438173E-15
         2   5 -9.013393E-05 -9.013393E-05 -4.269893E-13 -1.392960E-13 -1.392629E-13  1.616278E-14
         2   6 -9.013393E-05 -9.013393E-05 -3.900366E-13  1.059005E-13 -2.355901E-13 -3.056053E-15
         2   7 -9.013393E-05 -9.013393E-05 -1.308809E-13 -1.370658E-13 -1.030742E-15  1.046328E-14
         2   8 -9.013393E-05 -9.013393E-05 -1.294220E-13  1.431587E-13 -1.411430E-13 -8.276537E-15
         3   1 -9.013393E-05 -9.013393E-05  5.747818E-14  2.632824E-13  7.219745E-15 -1.882477E-15
         3   2 -9.013393E-05 -9.013393E-05  3.735951E-14  5.311394E-14  2.473378E-14  4.853522E-15
         3   3 -9.013393E-05 -9.013393E-05 -1.546722E-13  2.169954E-13 -2.956007E-13 -3.775799E-14
         3   4 -9.013393E-05 -9.013393E-05 -3.291232E-13 -8.074319E-14 -8.543223E-14  4.911406E-14
         3   5 -9.013393E-05 -9.013393E-05  1.134948E-13 -2.561022E-13 -1.832240E-13  2.885002E-14
         3   6 -9.013393E-05 -9.013393E-05  2.616619E-13 -1.860461E-13 -6.062572E-14 -2.614694E-14
         3   7 -9.013393E-05 -9.013393E-05  2.954103E-13 -1.901987E-13 -3.376089E-13 -7.025498E-15
         3   8 -9.013393E-05 -9.013393E-05  2.892449E-13 -5.008639E-14  8.272793E-14  1.811360E-14
         4   1 -9.013393E-05 -9.013393E-05  1.000920E-13 -8.155418E-15  2.882017E-16  6.417878E-14
         4   2 -9.013393E-05 -9.013393E-05  7.759825E-14 -6.511818E-15  4.818860E-15  4.322018E-14
         4   3 -9.013393E-05 -9.013393E-05  6.241421E-14  6.015993E-16 -1.430901E-15  1.342349E-13
         4   4 -9.013393E-05 -9.013393E-05  1.639373E-14  2.245200E-15  7.813787E-15  2.533886E-13
         4   5 -9.013393E-05 -9.013393E-05  3.197748E-13  1.431295E-13 -3.455070E-15 -1.795609E-13
         4   6 -9.013393E-05 -9.013393E-05 -1.099203E-13  1.513728E-13  1.075587E-15 -1.727585E-14
         4   7 -9.013393E-05 -9.013393E-05  2.919965E-13 -1.370950E-13 -1.458489E-14  4.812152E-14
         4   8 -9.013393E-05 -9.013393E-05 -1.612253E-13 -1.288518E-13 -5.340201E-15 -3.478988E-14
         5   1 -9.013393E-05 -9.013393E-05 -2.810544E-13 -1.751404E-14  1.003328E-13 -7.361654E-14
         5   2 -9.013393E-05 -9.013393E-05 -2.609651E-13  4.378509E-14 -4.751427E-15  6.442205E-14
         5   3 -9.013393E-05 -9.013393E-05  1.268693E-14 -8.348840E-31 -3.309617E-14 -3.858847E-14
         5   4 -9.013393E-05 -9.013393E-05 -9.514435E-14  1.050842E-13  1.070161E-13  2.063696E-14
         5   5 -9.013393E-05 -9.013393E-05 -9.715701E-14 -3.502807E-14 -1.773257E-14 -1.102435E-13
         5   6 -9.013393E-05 -9.013393E-05  2.381849E-13  1.050842E-13  1.836788E-13 -1.459714E-13
         5   7 -9.013393E-05 -9.013393E-05  1.177711E-13  1.401123E-13 -1.235166E-13  1.874951E-13
         5   8 -9.013393E-05 -9.013393E-05  3.120570E-13  3.152526E-13 -2.110867E-13 -5.840121E-14
         6   1 -9.013393E-05 -9.013393E-05 -3.660018E-13 -4.816360E-13 -1.260614E-13 -1.094068E-13
         6   2 -9.013393E-05 -9.013393E-05 -2.045749E-14 -1.488693E-13 -1.961175E-13  1.558987E-13
         6   3 -9.013393E-05 -9.013393E-05  2.757894E-13 -2.101684E-13  2.530854E-13  2.233598E-13
         6   4 -9.013393E-05 -9.013392E-05  5.370332E-13 -3.502807E-14  3.231415E-13  7.708557E-14
         6   5 -9.013393E-05 -9.013393E-05  4.484008E-13  3.502807E-14 -1.761753E-14 -7.336720E-14
         6   6 -9.013393E-05 -9.013393E-05 -3.359299E-14  3.152526E-13 -8.767367E-14  2.545454E-13
         6   7 -9.013393E-05 -9.013393E-05  2.232473E-13 -2.802246E-13 -1.012848E-13  1.192872E-13
         6   8 -9.013393E-05 -9.013393E-05 -4.349957E-13 -1.401123E-13 -1.363129E-13 -6.946428E-14
         7   1 -9.013393E-05 -9.013392E-05  7.061695E-13  5.993560E-13 -1.395111E-14 -1.166756E-13
         7   2 -9.013393E-05 -9.013393E-05 -2.308632E-13  5.142545E-13 -3.014222E-15 -2.248862E-13
         7   3 -9.013393E-05 -9.013392E-05  7.385925E-13 -3.114930E-14  8.323803E-15  3.036612E-13
         7   4 -9.013393E-05 -9.013393E-05 -1.001702E-13 -1.162508E-13  4.080886E-14  3.782437E-14
         7   5 -9.013393E-05 -9.013393E-05 -1.115367E-13 -2.010725E-14 -6.300314E-14 -1.227017E-13
         7   6 -9.013393E-05 -9.013393E-05 -3.392510E-13 -7.504128E-14 -5.206625E-14 -2.091182E-13
         7   7 -9.013393E-05 -9.013393E-05 -3.386256E-14  2.601173E-13 -1.420205E-15  8.746673E-14
         7   8 -9.013393E-05 -9.013393E-05  2.570300E-13  2.051833E-13  3.106486E-14  2.812748E-13
         8   1 -9.013393E-05 -9.013393E-05 -3.388189E-14  3.502807E-14 -7.205922E-14 -1.009095E-13
         8   2 -9.013393E-05 -9.013393E-05  8.379209E-14 -7.005614E-14  5.929605E-14 -2.406420E-13
         8   3 -9.013393E-05 -9.013393E-05 -4.196821E-14 -3.152526E-13  1.910311E-13  3.194273E-13
         8   4 -9.013393E-05 -9.013393E-05 -3.303050E-13 -3.765518E-13 -1.592496E-13 -3.282122E-13
         8   5 -9.013393E-05 -9.013393E-05 -4.701742E-14 -2.802246E-13 -7.753173E-14 -6.386176E-14
         8   6 -9.013393E-05 -9.013393E-05  2.545539E-13 -4.203368E-13  1.413937E-13 -2.854340E-13
         8   7 -9.013393E-05 -9.013393E-05 -3.046787E-13 -2.802246E-13 -1.414777E-13  1.463067E-13
         8   8 -9.013393E-05 -9.013393E-05 -4.353892E-13 -3.853088E-13  8.620479E-14  3.275572E-13
         9   1 -9.013393E-05 -9.013393E-05 -2.722915E-13  3.502807E-13 -1.761898E-13 -3.684481E-14
         9   2 -9.013393E-05 -9.013393E-05  3.275813E-13 -1.576263E-13 -8.861966E-14 -4.007230E-13
         9   3 -9.013393E-05 -9.013393E-05 -5.736817E-13  5.604491E-13  2.038113E-14  4.185201E-13
         9   4 -9.013393E-05 -9.013393E-05  2.223004E-13 -3.502807E-14 -1.547592E-13  8.967002E-14
         9   5 -9.013393E-05 -9.013393E-05 -3.585205E-14 -1.381872E-31  1.618379E-13 -3.570609E-13
         9   6 -9.013393E-05 -9.013393E-05  1.962260E-13  7.005614E-14 -1.008727E-13  1.252959E-14
         9   7 -9.013393E-05 -9.013393E-05  5.682356E-14 -2.802246E-13 -6.404885E-14  2.734444E-13
         9   8 -9.013393E-05 -9.013393E-05 -1.413911E-14 -1.401123E-13 -6.404885E-14  8.258573E-14

 strains (elem, integ.pnt.,exx,eyy,ezz,exy,exz,eyz) forset EALL and time  0.5257813E+00

         1   1 -3.004464E-10 -3.004464E-10  2.575255E-10 -1.211690E-26  1.802905E-36  6.462349E-27
         1   2 -3.004464E-10 -3.004464E-10  2.575255E-10 -7.431701E-26 -3.231174E-27 -2.342601E-26
         1   3 -3.004464E-10 -3.004464E-10  2.575255E-10  3.635071E-26  1.938705E-26 -3.231174E-26
         1   4 -3.004464E-10 -3.004464E-10  2.575255E-10 -2.584939E-26  1.421717E-25 -6.947025E-26
         1   5 -3.004464E-10 -3.004464E-10  2.575255E-10  4.200527E-26  3.231174E-27  9.047288E-26
         1   6 -3.004464E-10 -3.004464E-10  2.575255E-10  1.583275E-25  3.605809E-36 -5.412217E-26
         1   7 -3.004464E-10 -3.004464E-10  2.575255E-10  5.169879E-26 -8.077936E-26  6.462349E-26
         1   8 -3.004464E-10 -3.004464E-10  2.575255E-10  1.680211E-25  3.877409E-26 -1.001664E-25
         2   1 -3.004464E-10 -3.004464E-10  2.575255E-10 -1.514349E-18 -9.453219E-19  1.735578E-20
         2   2 -3.004464E-10 -3.004464E-10  2.575255E-10  7.624752E-19 -1.053742E-18 -1.372856E-20
         2   3 -3.004464E-10 -3.004464E-10  2.575255E-10 -1.504695E-18 -1.709724E-21 -1.792684E-20
         2   4 -3.004464E-10 -3.004464E-10  2.575255E-10  1.043180E-18 -8.690715E-19 -4.604583E-20
         2   5 -3.004464E-10 -3.004464E-10  2.575255E-10 -8.623085E-19 -8.621036E-19  1.000553E-19
         2   6 -3.004464E-10 -3.004464E-10  2.575255E-10  6.555745E-19 -1.458415E-18 -1.891842E-20
         2   7 -3.004464E-10 -3.004464E-10  2.575255E-10 -8.485028E-19 -6.380781E-21  6.477266E-20
         2   8 -3.004464E-10 -3.004464E-10  2.575255E-10  8.862207E-19 -8.737425E-19 -5.123570E-20
         3   1 -3.004464E-10 -3.004464E-10  2.575255E-10  1.629843E-18  4.469366E-20 -1.165343E-20
         3   2 -3.004464E-10 -3.004464E-10  2.575255E-10  3.288006E-19  1.531139E-19  3.004561E-20
         3   3 -3.004464E-10 -3.004464E-10  2.575255E-10  1.343305E-18 -1.829909E-18 -2.337400E-19
         3   4 -3.004464E-10 -3.004464E-10  2.575255E-10 -4.998388E-19 -5.288662E-19  3.040394E-19
         3   5 -3.004464E-10 -3.004464E-10  2.575255E-10 -1.585395E-18 -1.134244E-18  1.785954E-19
         3   6 -3.004464E-10 -3.004464E-10  2.575255E-10 -1.151714E-18 -3.753021E-19 -1.618620E-19
         3   7 -3.004464E-10 -3.004464E-10  2.575255E-10 -1.177420E-18 -2.089960E-18 -4.349118E-20
         3   8 -3.004464E-10 -3.004464E-10  2.575255E-10 -3.100586E-19  5.121253E-19  1.121318E-19
         4   1 -3.004464E-10 -3.004464E-10  2.575255E-10 -5.048592E-20  1.784106E-21  3.972972E-19
         4   2 -3.004464E-10 -3.004464E-10  2.575255E-10 -4.031125E-20  2.983104E-20  2.675535E-19
         4   3 -3.004464E-10 -3.004464E-10  2.575255E-10  3.724186E-21 -8.857961E-21  8.309781E-19
         4   4 -3.004464E-10 -3.004464E-10  2.575255E-10  1.389886E-20  4.837106E-20  1.568596E-18
         4   5 -3.004464E-10 -3.004464E-10  2.575255E-10  8.860399E-19 -2.138853E-20 -1.111568E-18
         4   6 -3.004464E-10 -3.004464E-10  2.575255E-10  9.370695E-19  6.658397E-21 -1.069457E-19
         4   7 -3.004464E-10 -3.004464E-10  2.575255E-10 -8.486836E-19 -9.028741E-20  2.978952E-19
         4   8 -3.004464E-10 -3.004464E-10  2.575255E-10 -7.976540E-19 -3.305839E-20 -2.153660E-19
         5   1 -3.004464E-10 -3.004464E-10  2.575255E-10 -1.084202E-19  6.211077E-19 -4.557215E-19
         5   2 -3.004464E-10 -3.004464E-10  2.575255E-10  2.710505E-19 -2.941359E-20  3.988032E-19
         5   3 -3.004464E-10 -3.004464E-10  2.575255E-10  5.186393E-36 -2.048810E-19 -2.388810E-19
         5   4 -3.004464E-10 -3.004464E-10  2.575255E-10  6.505213E-19  6.624807E-19  1.277526E-19
         5   5 -3.004464E-10 -3.004464E-10  2.575255E-10 -2.168404E-19 -1.097730E-19 -6.824599E-19
         5   6 -3.004464E-10 -3.004464E-10  2.575255E-10  6.505213E-19  1.137059E-18 -9.036324E-19
         5   7 -3.004464E-10 -3.004464E-10  2.575255E-10  8.673617E-19 -7.646264E-19  1.160684E-18
         5   8 -3.004464E-10 -3.004464E-10  2.575255E-10  1.951564E-18 -1.306727E-18 -3.615313E-19
         6   1 -3.004464E-10 -3.004464E-10  2.575255E-10 -2.981556E-18 -7.803801E-19 -6.772804E-19
         6   2 -3.004464E-10 -3.004464E-10  2.575255E-10 -9.215718E-19 -1.214061E-18  9.650874E-19
         6   3 -3.004464E-10 -3.004464E-10  2.575255E-10 -1.301043E-18  1.566719E-18  1.382704E-18
         6   4 -3.004464E-10 -3.004464E-10  2.575255E-10 -2.168404E-19  2.000400E-18  4.771964E-19
         6   5 -3.004464E-10 -3.004464E-10  2.575255E-10  2.168404E-19 -1.090609E-19 -4.541779E-19
         6   6 -3.004464E-10 -3.004464E-10  2.575255E-10  1.951564E-18 -5.427418E-19  1.575757E-18
         6   7 -3.004464E-10 -3.004464E-10  2.575255E-10 -1.734723E-18 -6.270011E-19  7.384445E-19
         6   8 -3.004464E-10 -3.004464E-10  2.575255E-10 -8.673617E-19 -8.438415E-19 -4.300170E-19
         7   1 -3.004464E-10 -3.004464E-10  2.575255E-10  3.710299E-18 -8.636401E-20 -7.222778E-19
         7   2 -3.004464E-10 -3.004464E-10  2.575255E-10  3.183480E-18 -1.865947E-20 -1.392152E-18
         7   3 -3.004464E-10 -3.004464E-10  2.575255E-10 -1.928290E-19  5.152831E-20  1.879807E-18
         7   4 -3.004464E-10 -3.004464E-10  2.575255E-10 -7.196476E-19  2.526263E-19  2.341509E-19
         7   5 -3.004464E-10 -3.004464E-10  2.575255E-10 -1.244735E-19 -3.900194E-19 -7.595819E-19
         7   6 -3.004464E-10 -3.004464E-10  2.575255E-10 -4.645412E-19 -3.223149E-19 -1.294541E-18
         7   7 -3.004464E-10 -3.004464E-10  2.575255E-10  1.610250E-18 -8.791747E-21  5.414607E-19
         7   8 -3.004464E-10 -3.004464E-10  2.575255E-10  1.270182E-18  1.923063E-19  1.741225E-18
         8   1 -3.004464E-10 -3.004464E-10  2.575255E-10  2.168404E-19 -4.460809E-19 -6.246780E-19
         8   2 -3.004464E-10 -3.004464E-10  2.575255E-10 -4.336809E-19  3.670708E-19 -1.489689E-18
         8   3 -3.004464E-10 -3.004464E-10  2.575255E-10 -1.951564E-18  1.182573E-18  1.977407E-18
         8   4 -3.004464E-10 -3.004464E-10  2.575255E-10 -2.331035E-18 -9.858310E-19 -2.031790E-18
         8   5 -3.004464E-10 -3.004464E-10  2.575255E-10 -1.734723E-18 -4.799583E-19 -3.953347E-19
         8   6 -3.004464E-10 -3.004464E-10  2.575255E-10 -2.602085E-18  8.752944E-19 -1.766972E-18
         8   7 -3.004464E-10 -3.004464E-10  2.575255E-10 -1.734723E-18 -8.758142E-19  9.057079E-19
         8   8 -3.004464E-10 -3.004464E-10  2.575255E-10 -2.385245E-18  5.336487E-19  2.027735E-18
         9   1 -3.004464E-10 -3.004464E-10  2.575255E-10  2.168404E-18 -1.090699E-18 -2.280869E-19
         9   2 -3.004464E-10 -3.004464E-10  2.575255E-10 -9.757820E-19 -5.485979E-19 -2.480666E-18
         9   3 -3.004464E-10 -3.004464E-10  2.575255E-10  3.469447E-18  1.261689E-19  2.590839E-18
         9   4 -3.004464E-10 -3.004464E-10  2.575255E-10 -2.168404E-19 -9.580333E-19  5.551001E-19
         9   5 -3.004464E-10 -3.004464E-10  2.575255E-10 -4.579796E-36  1.001853E-18 -2.210377E-18
         9   6 -3.004464E-10 -3.004464E-10  2.575255E-10  4.336809E-19 -6.244498E-19  7.756414E-20
         9   7 -3.004464E-10 -3.004464E-10  2.575255E-10 -1.734723E-18 -3.964929E-19  1.692751E-18
         9   8 -3.004464E-10 -3.004464E-10  2.575255E-10 -8.673617E-19 -3.964929E-19  5.112450E-19

 displacements (vx,vy,vz) for set NALL and time  0.5347813E+00

         1  0.000000E+00  0.000000E+00  0.000000E+00
         2 -1.527946E-07  0.000000E+00  0.000000E+00
         3 -8.021719E+00  0.000000E+00  0.000000E+00
         4 -8.021719E+00  0.000000E+00  0.000000E+00
         5 -1.604344E+01  0.000000E+00  0.000000E+00
         6 -1.604344E+01  0.000000E+00  0.000000E+00
         7  0.000000E+00 -1.527946E-07  0.000000E+00
         8 -1.527946E-07 -1.527946E-07  0.000000E+00
         9 -8.021719E+00 -1.527946E-07  0.000000E+00
        10 -8.021719E+00 -1.527946E-07  0.000000E+00
        11 -1.604344E+01 -1.527946E-07  0.000000E+00
        12 -1.604344E+01 -1.527946E-07  0.000000E+00
        13  0.000000E+00 -8.021719E+00  0.000000E+00
        14 -1.527946E-07 -8.021719E+00  0.000000E+00
        15 -8.021719E+00 -8.021719E+00  0.000000E+00
        16 -8.021719E+00 -8.021719E+00  0.000000E+00
        17 -1.604344E+01 -8.021719E+00  0.000000E+00
        18 -1.604344E+01 -8.021719E+00  0.000000E+00
        19  0.000000E+00 -8.021719E+00  0.000000E+00
        20 -1.527946E-07 -8.021719E+00  0.000000E+00
        21 -8.021719E+00 -8.021719E+00  0.000000E+00
        22 -8.021719E+00 -8.021719E+00  0.000000E+00
        23 -1.604344E+01 -8.021719E+00  0.000000E+00
        24 -1.604344E+01 -8.021719E+00  0.000000E+00
        25  0.000000E+00 -1.604344E+01  0.000000E+00
        26 -1.527946E-07 -1.604344E+01  0.000000E+00
        27 -8.021719E+00 -1.604344E+01  0.000000E+00
        28 -8.021719E+00 -1.604344E+01  0.000000E+00
        29 -1.604344E+01 -1.604344E+01  0.000000E+00
        30 -1.604344E+01 -1.604344E+01  0.000000E+00
        31  0.000000E+00 -1.604344E+01  0.000000E+00
        32 -1.527946E-07 -1.604344E+01  0.000000E+00
        33 -8.021719E+00 -1.604344E+01  0.000000E+00
        34 -8.021719E+00 -1.604344E+01  0.000000E+00
        35 -1.604344E+01 -1.604344E+01  0.000000E+00
        36 -1.604344E+01 -1.604344E+01  0.000000E+00
        37  0.000000E+00  0.000000E+00  1.833536E-07
        38 -1.527946E-07  0.000000E+00  1.833536E-07
        39 -8.021719E+00  0.000000E+00  1.833536E-07
        40 -8.021719E+00  0.000000E+00  1.833536E-07
        41 -1.604344E+01  0.000000E+00  1.833536E-07
        42 -1.604344E+01  0.000000E+00  1.833536E-07
        43  0.000000E+00 -1.527946E-07  1.833536E-07
        44 -1.527946E-07 -1.527946E-07  1.833536E-07
        45 -8.021719E+00 -1.527946E-07  1.833536E-07
        46 -8.021719E+00 -1.527946E-07  1.833536E-07
        47 -1.604344E+01 -1.527946E-07  1.833536E-07
        48 -1.604344E+01 -1.527946E-07  1.833536E-07
        49  0.000000E+00 -8.021719E+00  1.833536E-07
        50 -1.527946E-07 -8.021719E+00  1.833536E-07
        51 -8.021719E+00 -8.021719E+00  1.833536E-07
        52 -8.021719E+00 -8.021719E+00  1.833536E-07
        53 -1.604344E+01 -8.021719E+00  1.833536E-07
        54 -1.604344E+01 -8.021719E+00  1.833536E-07
        55  0.000000E+00 -8.021719E+00  1.833536E-07
        56 -1.527946E-07 -8.021719E+00  1.833536E-07
        57 -8.021719E+00 -8.021719E+00  1.833536E-07
        58 -8.021719E+00 -8.021719E+00  1.833536E-07
        59 -1.604344E+01 -8.021719E+00  1.833536E-07
        60 -1.604344E+01 -8.021719E+00  1.833536E-07
        61  0.000000E+00 -1.604344E+01  1.833536E-07
        62 -1.527946E-07 -1.604344E+01  1.833536E-07
        63 -8.021719E+00 -1.604344E+01  1.833536E-07
        64 -8.021719E+00 -1.604344E+01  1.833536E-07
        65 -1.604344E+01 -1.604344E+01  1.833536E-07
        66 -1.604344E+01 -1.604344E+01  1.833536E-07
        67  0.000000E+00 -1.604344E+01  1.833536E-07
        68 -1.527946E-07 -1.604344E+01  1.833536E-07
        69 -8.021719E+00 -1.604344E+01  1.833536E-07
        70 -8.021719E+00 -1.604344E+01  1.833536E-07
        71 -1.604344E+01 -1.604344E+01  1.833536E-07
        72 -1.604344E+01 -1.604344E+01  1.833536E-07

 stresses (elem, integ.pnt.,sxx,syy,szz,sxy,sxz,syz) for set EALL and time  0.5347813E+00

         1   1 -9.167678E-05 -9.167678E-05 -9.528952E-47 -1.435387E-21  4.045182E-21 -1.565877E-21
         1   2 -9.167678E-05 -9.167678E-05 -1.355253E-20  1.135261E-20  1.174408E-20  4.045182E-21
         1   3 -9.167678E-05 -9.167678E-05  2.710505E-20 -1.905150E-20 -3.653712E-21 -1.357093E-20
         1   4 -9.167678E-05 -9.167678E-05 -1.355253E-20 -6.263507E-21 -7.307425E-21  1.278799E-20
         1   5 -9.167678E-05 -9.167678E-05 -1.355253E-20  2.087836E-21  4.828120E-21  3.653712E-21
         1   6 -9.167678E-05 -9.167678E-05  2.710505E-20 -2.087836E-21  1.252701E-20  3.784202E-21
         1   7 -9.167678E-05 -9.167678E-05 -4.317543E-46  1.670269E-20 -8.351343E-21 -1.043918E-20
         1   8 -9.167678E-05 -9.167678E-05  1.355253E-20  1.252701E-20 -1.252701E-20  1.252701E-20
         2   1 -9.167678E-05 -9.167678E-05  5.395555E-14 -8.933416E-15 -8.181321E-14  8.762292E-15
         2   2 -9.167678E-05 -9.167678E-05  5.666653E-14 -1.227746E-13  5.829907E-14 -7.377825E-15
         2   3 -9.167678E-05 -9.167678E-05  3.310914E-14 -3.333996E-14 -8.419734E-14  4.260402E-15
         2   4 -9.167678E-05 -9.167678E-05 -1.000868E-13 -1.033961E-13 -8.419734E-14 -1.612546E-15
         2   5 -9.167678E-05 -9.167678E-05 -2.050734E-13 -1.437844E-13 -6.608489E-14  3.720322E-14
         2   6 -9.167678E-05 -9.167678E-05 -1.808014E-13 -1.087564E-13 -1.448981E-13 -3.329970E-14
         2   7 -9.167678E-05 -9.167678E-05 -2.888690E-14 -1.538169E-13  1.728046E-14  3.270133E-14
         2   8 -9.167678E-05 -9.167678E-05 -1.405219E-13 -8.376080E-14 -1.228318E-13 -2.753442E-14
         3   1 -9.167678E-05 -9.167678E-05 -3.566319E-13 -2.946562E-13  1.652905E-13 -2.808541E-16
         3   2 -9.167678E-05 -9.167678E-05 -2.438032E-13  1.607087E-13  1.828046E-13  2.510551E-15
         3   3 -9.167678E-05 -9.167678E-05 -4.279908E-14 -3.340842E-13  3.054858E-13 -4.802408E-16
         3   4 -9.167678E-05 -9.167678E-05  7.059671E-14  3.371051E-14  3.405139E-13  9.710594E-15
         3   5 -9.167678E-05 -9.167678E-05 -3.570506E-13 -1.063992E-14  2.691069E-13 -8.487757E-16
         3   6 -9.167678E-05 -9.167678E-05 -2.286831E-13 -8.069606E-14  1.465087E-13  2.169462E-15
         3   7 -9.167678E-05 -9.167678E-05 -3.584704E-13 -3.970873E-14  3.745010E-13 -1.048162E-15
         3   8 -9.167678E-05 -9.167678E-05 -2.295358E-13 -2.498772E-13  5.924834E-14  9.369501E-15
         4   1 -9.167678E-05 -9.167678E-05 -2.278827E-13 -2.660569E-15  1.669755E-15 -9.174919E-14
         4   2 -9.167678E-05 -9.167678E-05 -2.466218E-13 -9.929380E-15  8.473032E-15 -2.457562E-13
         4   3 -9.167678E-05 -9.167678E-05 -1.477061E-13 -2.660569E-15 -3.329039E-15 -1.267773E-13
         4   4 -9.167678E-05 -9.167678E-05 -2.015365E-13 -9.929380E-15  3.853816E-15 -1.319150E-13
         4   5 -9.167678E-05 -9.167678E-05  1.016568E-13 -2.466060E-15 -5.716679E-16 -1.779155E-13
         4   6 -9.167678E-05 -9.167678E-05  9.605324E-14 -9.203457E-15  6.231610E-15 -2.583889E-13
         4   7 -9.167678E-05 -9.167678E-05  1.826306E-13 -2.466060E-15 -1.960700E-14  4.976696E-14
         4   8 -9.167678E-05 -9.167678E-05  1.419357E-13 -9.203457E-15 -1.242414E-14  4.810673E-14
         5   1 -9.167678E-05 -9.167678E-05  2.250067E-13  2.364395E-13 -2.694992E-14  5.260550E-14
         5   2 -9.167678E-05 -9.167678E-05 -2.991850E-13  2.889816E-13  8.078149E-15  2.447295E-13
         5   3 -9.167678E-05 -9.167678E-05  2.135729E-15 -1.751404E-13 -1.413215E-13  7.011953E-14
         5   4 -9.167678E-05 -9.167678E-05 -4.001892E-13 -7.881316E-14 -1.238075E-13  6.083216E-14
         5   5 -9.167678E-05 -9.167678E-05  4.745817E-13  3.502807E-13 -1.928415E-13  5.277869E-14
         5   6 -9.167678E-05 -9.167678E-05  4.233866E-14  2.101684E-13  4.359795E-14 -9.165935E-14
         5   7 -9.167678E-05 -9.167678E-05  5.467782E-14 -4.622403E-30 -1.446252E-13  7.029273E-14
         5   8 -9.167678E-05 -9.167678E-05 -2.688340E-13 -1.050842E-13 -2.146813E-13 -4.089175E-15
         6   1 -9.167678E-05 -9.167678E-05  6.141367E-14  3.677947E-13 -1.467153E-14  9.224013E-14
         6   2 -9.167678E-05 -9.167678E-05  1.188316E-13  2.451965E-13 -8.472767E-14 -1.038849E-13
         6   3 -9.167678E-05 -9.167678E-05 -4.321111E-13  4.203368E-13  2.708394E-13  2.148384E-13
         6   4 -9.167678E-05 -9.167678E-05 -1.809600E-13  2.101684E-13 -1.144693E-13  2.026107E-13
         6   5 -9.167678E-05 -9.167678E-05  6.141364E-14  3.502807E-13  2.254697E-13  1.225127E-13
         6   6 -9.167678E-05 -9.167678E-05  1.374734E-14 -7.005614E-14 -5.475490E-14 -4.165550E-14
         6   7 -9.167678E-05 -9.167678E-05 -3.270269E-13  4.203368E-13 -3.502573E-14  1.575408E-13
         6   8 -9.167678E-05 -9.167678E-05 -2.335021E-13  1.401123E-13  3.503041E-14  3.173822E-13
         7   1 -9.167678E-05 -9.167678E-05  6.149995E-14  2.842942E-13  2.494492E-15 -5.099839E-13
         7   2 -9.167678E-05 -9.167678E-05 -2.422866E-13  2.954126E-13  4.675680E-14 -3.982204E-14
         7   3 -9.167678E-05 -9.167678E-05  1.836156E-13  4.069620E-15  3.747300E-16 -4.048996E-13
         7   4 -9.167678E-05 -9.167678E-05 -1.910622E-14  1.518803E-14 -1.580134E-15 -1.098782E-13
         7   5 -9.167678E-05 -9.167678E-05  1.544508E-13 -1.961370E-14 -3.495274E-14  9.264048E-14
         7   6 -9.167678E-05 -9.167678E-05 -1.493357E-13 -7.319934E-14  9.309570E-15 -4.479113E-14
         7   7 -9.167678E-05 -9.167678E-05  1.795104E-13 -1.961370E-14  3.353381E-15  1.977247E-13
         7   8 -9.167678E-05 -9.167678E-05 -2.321144E-14 -7.319934E-14  1.398518E-15 -1.673894E-13
         8   1 -9.167678E-05 -9.167678E-05  3.887722E-13  5.254211E-13 -3.858422E-14 -5.052885E-13
         8   2 -9.167678E-05 -9.167678E-05  3.469175E-14  3.677947E-13 -3.858422E-14 -4.677669E-14
         8   3 -9.167678E-05 -9.167678E-05  2.767050E-13  2.451965E-13 -8.797943E-14 -4.002043E-13
         8   4 -9.167678E-05 -9.167678E-05 -2.961065E-14 -8.757018E-15  1.710478E-14 -1.868890E-13
         8   5 -9.167678E-05 -9.167678E-05 -1.842913E-14 -4.203368E-13  2.644922E-14  1.101638E-13
         8   6 -9.167678E-05 -9.167678E-05 -3.725096E-13 -3.502807E-14 -1.486911E-13 -8.826027E-14
         8   7 -9.167678E-05 -9.167678E-05  5.919577E-13 -4.203368E-13 -1.369468E-13  2.152480E-13
         8   8 -9.167678E-05 -9.167678E-05  3.644551E-13  3.586740E-31 -1.544608E-13 -8.826027E-14
         9   1 -9.167678E-05 -9.167678E-05 -1.965201E-13  7.005614E-14 -3.436151E-13 -8.071023E-14
         9   2 -9.167678E-05 -9.167678E-05 -3.348909E-13  3.677947E-13  2.417960E-14 -2.956735E-13
         9   3 -9.167678E-05 -9.167678E-05  1.801256E-13 -2.101684E-13  2.996093E-13  3.045985E-13
         9   4 -9.167678E-05 -9.167678E-05  1.023572E-13  7.005614E-14  2.295531E-13  2.065047E-15
         9   5 -9.167678E-05 -9.167678E-05  1.187325E-13 -1.506768E-30 -3.954606E-13  1.960491E-13
         9   6 -9.167678E-05 -9.167678E-05  5.917491E-14 -7.005614E-14 -6.269395E-14 -1.919291E-14
         9   7 -9.167678E-05 -9.167678E-05 -1.351270E-13  8.508861E-31  2.124570E-13  2.310772E-13
         9   8 -9.167678E-05 -9.167678E-05 -3.179796E-13  7.005614E-14  3.731662E-14 -1.417912E-13

 strains (elem, integ.pnt.,exx,eyy,ezz,exy,exz,eyz) forset EALL and time  0.5347813E+00

         1   1 -3.055893E-10 -3.055893E-10  2.619337E-10 -8.885729E-27  2.504160E-26 -9.693523E-27
         1   2 -3.055893E-10 -3.055893E-10  2.619337E-10  7.027804E-26  7.270142E-26  2.504160E-26
         1   3 -3.055893E-10 -3.055893E-10  2.619337E-10 -1.179379E-25 -2.261822E-26 -8.401053E-26
         1   4 -3.055893E-10 -3.055893E-10  2.619337E-10 -3.877409E-26 -4.523644E-26  7.916377E-26
         1   5 -3.055893E-10 -3.055893E-10  2.619337E-10  1.292470E-26  2.988836E-26  2.261822E-26
         1   6 -3.055893E-10 -3.055893E-10  2.619337E-10 -1.292470E-26  7.754818E-26  2.342601E-26
         1   7 -3.055893E-10 -3.055893E-10  2.619337E-10  1.033976E-25 -5.169879E-26 -6.462349E-26
         1   8 -3.055893E-10 -3.055893E-10  2.619337E-10  7.754818E-26 -7.754818E-26  7.754818E-26
         2   1 -3.055893E-10 -3.055893E-10  2.619337E-10 -5.530210E-20 -5.064627E-19  5.424276E-20
         2   2 -3.055893E-10 -3.055893E-10  2.619337E-10 -7.600335E-19  3.608990E-19 -4.567225E-20
         2   3 -3.055893E-10 -3.055893E-10  2.619337E-10 -2.063903E-19 -5.212216E-19  2.637392E-20
         2   4 -3.055893E-10 -3.055893E-10  2.619337E-10 -6.400711E-19 -5.212216E-19 -9.982430E-21
         2   5 -3.055893E-10 -3.055893E-10  2.619337E-10 -8.900941E-19 -4.090970E-19  2.303056E-19
         2   6 -3.055893E-10 -3.055893E-10  2.619337E-10 -6.732537E-19 -8.969879E-19 -2.061410E-19
         2   7 -3.055893E-10 -3.055893E-10  2.619337E-10 -9.522001E-19  1.069743E-19  2.024368E-19
         2   8 -3.055893E-10 -3.055893E-10  2.619337E-10 -5.185193E-19 -7.603874E-19 -1.704512E-19
         3   1 -3.055893E-10 -3.055893E-10  2.619337E-10 -1.824062E-18  1.023227E-18 -1.738621E-21
         3   2 -3.055893E-10 -3.055893E-10  2.619337E-10  9.948634E-19  1.131647E-18  1.554151E-20
         3   3 -3.055893E-10 -3.055893E-10  2.619337E-10 -2.068140E-18  1.891103E-18 -2.972919E-21
         3   4 -3.055893E-10 -3.055893E-10  2.619337E-10  2.086841E-19  2.107943E-18  6.011320E-20
         3   5 -3.055893E-10 -3.055893E-10  2.619337E-10 -6.586619E-20  1.665900E-18 -5.254326E-21
         3   6 -3.055893E-10 -3.055893E-10  2.619337E-10 -4.995471E-19  9.069583E-19  1.343000E-20
         3   7 -3.055893E-10 -3.055893E-10  2.619337E-10 -2.458160E-19  2.318339E-18 -6.488624E-21
         3   8 -3.055893E-10 -3.055893E-10  2.619337E-10 -1.546859E-18  3.667754E-19  5.800168E-20
         4   1 -3.055893E-10 -3.055893E-10  2.619337E-10 -1.647019E-20  1.033658E-20 -5.679712E-19
         4   2 -3.055893E-10 -3.055893E-10  2.619337E-10 -6.146759E-20  5.245210E-20 -1.521348E-18
         4   3 -3.055893E-10 -3.055893E-10  2.619337E-10 -1.647019E-20 -2.060834E-20 -7.848116E-19
         4   4 -3.055893E-10 -3.055893E-10  2.619337E-10 -6.146759E-20  2.385696E-20 -8.166166E-19
         4   5 -3.055893E-10 -3.055893E-10  2.619337E-10 -1.526608E-20 -3.538897E-21 -1.101382E-18
         4   6 -3.055893E-10 -3.055893E-10  2.619337E-10 -5.697378E-20  3.857663E-20 -1.599550E-18
         4   7 -3.055893E-10 -3.055893E-10  2.619337E-10 -1.526608E-20 -1.213767E-19  3.080812E-19
         4   8 -3.055893E-10 -3.055893E-10  2.619337E-10 -5.697378E-20 -7.691136E-20  2.978036E-19
         5   1 -3.055893E-10 -3.055893E-10  2.619337E-10  1.463673E-18 -1.668328E-19  3.256531E-19
         5   2 -3.055893E-10 -3.055893E-10  2.619337E-10  1.788934E-18  5.000759E-20  1.514992E-18
         5   3 -3.055893E-10 -3.055893E-10  2.619337E-10 -1.084202E-18 -8.748474E-19  4.340733E-19
         5   4 -3.055893E-10 -3.055893E-10  2.619337E-10 -4.878910E-19 -7.664272E-19  3.765800E-19
         5   5 -3.055893E-10 -3.055893E-10  2.619337E-10  2.168404E-18 -1.193781E-18  3.267252E-19
         5   6 -3.055893E-10 -3.055893E-10  2.619337E-10  1.301043E-18  2.698921E-19 -5.674150E-19
         5   7 -3.055893E-10 -3.055893E-10  2.619337E-10  2.708331E-35 -8.952987E-19  4.351455E-19
         5   8 -3.055893E-10 -3.055893E-10  2.619337E-10 -6.505213E-19 -1.328980E-18 -2.531394E-20
         6   1 -3.055893E-10 -3.055893E-10  2.619337E-10  2.276825E-18 -9.082376E-20  5.710103E-19
         6   2 -3.055893E-10 -3.055893E-10  2.619337E-10  1.517883E-18 -5.245046E-19 -6.430968E-19
         6   3 -3.055893E-10 -3.055893E-10  2.619337E-10  2.602085E-18  1.676625E-18  1.329952E-18
         6   4 -3.055893E-10 -3.055893E-10  2.619337E-10  1.301043E-18 -7.086196E-19  1.254257E-18
         6   5 -3.055893E-10 -3.055893E-10  2.619337E-10  2.168404E-18  1.395765E-18  7.584119E-19
         6   6 -3.055893E-10 -3.055893E-10  2.619337E-10 -4.336809E-19 -3.389589E-19 -2.578674E-19
         6   7 -3.055893E-10 -3.055893E-10  2.619337E-10  2.602085E-18 -2.168260E-19  9.752524E-19
         6   8 -3.055893E-10 -3.055893E-10  2.619337E-10  8.673617E-19  2.168549E-19  1.964747E-18
         7   1 -3.055893E-10 -3.055893E-10  2.619337E-10  1.759916E-18  1.544209E-20 -3.157043E-18
         7   2 -3.055893E-10 -3.055893E-10  2.619337E-10  1.828745E-18  2.894468E-19 -2.465174E-19
         7   3 -3.055893E-10 -3.055893E-10  2.619337E-10  2.519289E-20  2.319757E-21 -2.506522E-18
         7   4 -3.055893E-10 -3.055893E-10  2.619337E-10  9.402113E-20 -9.781779E-21 -6.801983E-19
         7   5 -3.055893E-10 -3.055893E-10  2.619337E-10 -1.214182E-19 -2.163741E-19  5.734887E-19
         7   6 -3.055893E-10 -3.055893E-10  2.619337E-10 -4.531388E-19  5.763067E-20 -2.772784E-19
         7   7 -3.055893E-10 -3.055893E-10  2.619337E-10 -1.214182E-19  2.075903E-20  1.224010E-18
         7   8 -3.055893E-10 -3.055893E-10  2.619337E-10 -4.531388E-19  8.657492E-21 -1.036220E-18
         8   1 -3.055893E-10 -3.055893E-10  2.619337E-10  3.252607E-18 -2.388547E-19 -3.127976E-18
         8   2 -3.055893E-10 -3.055893E-10  2.619337E-10  2.276825E-18 -2.388547E-19 -2.895700E-19
         8   3 -3.055893E-10 -3.055893E-10  2.619337E-10  1.517883E-18 -5.446345E-19 -2.477455E-18
         8   4 -3.055893E-10 -3.055893E-10  2.619337E-10 -5.421011E-20  1.058868E-19 -1.156932E-18
         8   5 -3.055893E-10 -3.055893E-10  2.619337E-10 -2.602085E-18  1.637333E-19  6.819662E-19
         8   6 -3.055893E-10 -3.055893E-10  2.619337E-10 -2.168404E-19 -9.204689E-19 -5.463731E-19
         8   7 -3.055893E-10 -3.055893E-10  2.619337E-10 -2.602085E-18 -8.477656E-19  1.332487E-18
         8   8 -3.055893E-10 -3.055893E-10  2.619337E-10 -4.454136E-37 -9.561858E-19 -5.463731E-19
         9   1 -3.055893E-10 -3.055893E-10  2.619337E-10  4.336809E-19 -2.127141E-18 -4.996348E-19
         9   2 -3.055893E-10 -3.055893E-10  2.619337E-10  2.276825E-18  1.496832E-19 -1.830360E-18
         9   3 -3.055893E-10 -3.055893E-10  2.619337E-10 -1.301043E-18  1.854724E-18  1.885610E-18
         9   4 -3.055893E-10 -3.055893E-10  2.619337E-10  4.336809E-19  1.421043E-18  1.278362E-20
         9   5 -3.055893E-10 -3.055893E-10  2.619337E-10  1.734349E-37 -2.448090E-18  1.213638E-18
         9   6 -3.055893E-10 -3.055893E-10  2.619337E-10 -4.336809E-19 -3.881054E-19 -1.188133E-19
         9   7 -3.055893E-10 -3.055893E-10  2.619337E-10  5.043811E-37  1.315210E-18  1.430478E-18
         9   8 -3.055893E-10 -3.055893E-10  2.619337E-10  4.336809E-19  2.310077E-19 -8.777548E-19

 displacements (vx,vy,vz) for set NALL and time  0.5437813E+00

         1  0.000000E+00  0.000000E+00  0.000000E+00
         2 -1.553661E-07  0.000000E+00  0.000000E+00
         3 -8.156719E+00  0.000000E+00  0.000000E+00
         4 -8.156719E+00  0.000000E+00  0.000000E+00
         5 -1.631344E+01  0.000000E+00  0.000000E+00
         6 -1.631344E+01  0.000000E+00  0.000000E+00
         7  0.000000E+00 -1.553661E-07  0.000000E+00
         8 -1.553661E-07 -1.553661E-07  0.000000E+00
         9 -8.156719E+00 -1.553661E-07  0.000000E+00
        10 -8.156719E+00 -1.553661E-07  0.000000E+00
        11 -1.631344E+01 -1.553661E-07  0.000000E+00
        12 -1.631344E+01 -1.553661E-07  0.000000E+00
        13  0.000000E+00 -8.156719E+00  0.000000E+00
        14 -1.553661E-07 -8.156719E+00  0.000000E+00
        15 -8.156719E+00 -8.156719E+00  0.000000E+00
        16 -8.156719E+00 -8.156719E+00  0.000000E+00
        17 -1.631344E+01 -8.156719E+00  0.000000E+00
        18 -1.631344E+01 -8.156719E+00  0.000000E+00
        19  0.000000E+00 -8.156719E+00  0.000000E+00
        20 -1.553661E-07 -8.156719E+00  0.000000E+00
        21 -8.156719E+00 -8.156719E+00  0.000000E+00
        22 -8.156719E+00 -8.156719E+00  0.000000E+00
        23 -1.631344E+01 -8.156719E+00  0.000000E+00
        24 -1.631344E+01 -8.156719E+00  0.000000E+00
        25  0.000000E+00 -1.631344E+01  0.000000E+00
        26 -1.553661E-07 -1.631344E+01  0.000000E+00
        27 -8.156719E+00 -1.631344E+01  0.000000E+00
        28 -8.156719E+00 -1.631344E+01  0.000000E+00
        29 -1.631344E+01 -1.631344E+01  0.000000E+00
        30 -1.631344E+01 -1.631344E+01  0.000000E+00
        31  0.000000E+00 -1.631344E+01  0.000000E+00
        32 -1.553661E-07 -1.631344E+01  0.000000E+00
        33 -8.156719E+00 -1.631344E+01  0.000000E+00
        34 -8.156719E+00 -1.631344E+01  0.000000E+00
        35 -1.631344E+01 -1.631344E+01  0.000000E+00
        36 -1.631344E+01 -1.631344E+01  0.000000E+00
        37  0.000000E+00  0.000000E+00  1.864393E-07
        38 -1.553661E-07  0.000000E+00  1.864393E-07
        39 -8.156719E+00  0.000000E+00  1.864393E-07
        40 -8.156719E+00  0.000000E+00  1.864393E-07
        41 -1.631344E+01  0.000000E+00  1.864393E-07
        42 -1.631344E+01  0.000000E+00  1.864393E-07
        43  0.000000E+00 -1.553661E-07  1.864393E-07
        44 -1.553661E-07 -1.553661E-07  1.864393E-07
        45 -8.156719E+00 -1.553661E-07  1.864393E-07
        46 -8.156719E+00 -1.553661E-07  1.864393E-07
        47 -1.631344E+01 -1.553661E-07  1.864393E-07
        48 -1.631344E+01 -1.553661E-07  1.864393E-07
        49  0.000000E+00 -8.156719E+00  1.864393E-07
        50 -1.553661E-07 -8.156719E+00  1.864393E-07
        51 -8.156719E+00 -8.156719E+00  1.864393E-07
        52 -8.156719E+00 -8.156719E+00  1.864393E-07
        53 -1.631344E+01 -8.156719E+00  1.864393E-07
        54 -1.631344E+01 -8.156719E+00  1.864393E-07
        55  0.000000E+00 -8.156719E+00  1.864393E-07
        56 -1.553661E-07 -8.156719E+00  1.864393E-07
        57 -8.156719E+00 -8.156719E+00  1.864393E-07
        58 -8.156719E+00 -8.156719E+00  1.864393E-07
        59 -1.631344E+01 -8.156719E+00  1.864393E-07
        60 -1.631344E+01 -8.156719E+00  1.864393E-07
        61  0.000000E+00 -1.631344E+01  1.864393E-07
        62 -1.553661E-07 -1.631344E+01  1.864393E-07
        63 -8.156719E+00 -1.631344E+01  1.864393E-07
        64 -8.156719E+00 -1.631344E+01  1.864393E-07
        65 -1.631344E+01 -1.631344E+01  1.864393E-07
        66 -1.631344E+01 -1.631344E+01  1.864393E-07
        67  0.000000E+00 -1.631344E+01  1.864393E-07
        68 -1.553661E-07 -1.631344E+01  1.864393E-07
        69 -8.156719E+00 -1.631344E+01  1.864393E-07
        70 -8.156719E+00 -1.631344E+01  1.864393E-07
        71 -1.631344E+01 -1.631344E+01  1.864393E-07
        72 -1.631344E+01 -1.631344E+01  1.864393E-07

 stresses (elem, integ.pnt.,sxx,syy,szz,sxy,sxz,syz) for set EALL and time  0.5437813E+00

         1   1 -9.321964E-05 -9.321964E-05  9.191644E-47  2.870774E-21  1.174408E-21 -5.219589E-22
         1   2 -9.321964E-05 -9.321964E-05  1.355253E-20  1.357093E-20  2.870774E-21 -2.479305E-21
         1   3 -9.321964E-05 -9.321964E-05 -1.355253E-20 -1.826856E-21 -2.087836E-21  6.263507E-21
         1   4 -9.321964E-05 -9.321964E-05 -2.710505E-20  8.873302E-21 -2.087836E-21  1.539779E-20
         1   5 -9.321964E-05 -9.321964E-05  2.710505E-20  4.697630E-21  3.001264E-21 -1.304897E-20
         1   6 -9.321964E-05 -9.321964E-05  5.421011E-20  1.409289E-20  4.697630E-21 -2.727235E-20
         1   7 -9.321964E-05 -9.321964E-05  4.749297E-45  9.395261E-21 -1.252701E-20 -2.087836E-21
         1   8 -9.321964E-05 -9.321964E-05 -1.355253E-20  2.087836E-20 -1.252701E-20 -9.395261E-21
         2   1 -9.321964E-05 -9.321964E-05 -7.870450E-14  2.796215E-14  1.484199E-13  6.080994E-15
         2   2 -9.321964E-05 -9.321964E-05 -5.091922E-14  4.547619E-14  3.457865E-14 -1.077743E-15
         2   3 -9.321964E-05 -9.321964E-05 -8.483543E-14  8.657711E-15  2.739074E-13 -1.163253E-14
         2   4 -9.321964E-05 -9.321964E-05 -1.569389E-13  6.995683E-14 -6.317129E-15  1.606196E-15
         2   5 -9.321964E-05 -9.321964E-05 -1.027674E-13  3.386468E-15  1.711167E-13  4.040810E-14
         2   6 -9.321964E-05 -9.321964E-05 -3.214742E-14  7.344261E-14  1.185746E-13 -6.706132E-15
         2   7 -9.321964E-05 -9.321964E-05 -2.271180E-13  1.263847E-14 -9.363199E-14  2.269458E-14
         2   8 -9.321964E-05 -9.321964E-05 -2.563868E-13 -2.238960E-14 -1.636881E-13 -4.022195E-15
         3   1 -9.321964E-05 -9.321964E-05  1.274870E-13  1.513309E-13 -1.909367E-14  1.262130E-14
         3   2 -9.321964E-05 -9.321964E-05  4.304947E-14  9.878877E-14 -1.066638E-13 -1.154641E-14
         3   3 -9.321964E-05 -9.321964E-05 -1.939638E-13  1.819806E-13 -1.851836E-13 -2.959531E-15
         3   4 -9.321964E-05 -9.321964E-05 -4.558322E-13  1.119245E-13  1.300690E-13 -2.218229E-14
         3   5 -9.321964E-05 -9.321964E-05  5.939172E-13  2.939771E-13 -3.164550E-13  6.268415E-14
         3   6 -9.321964E-05 -9.321964E-05  5.198641E-13  8.380870E-14 -2.639129E-13 -3.245590E-14
         3   7 -9.321964E-05 -9.321964E-05  8.856911E-14  3.315498E-13  1.120160E-13  4.710332E-14
         3   8 -9.321964E-05 -9.321964E-05 -1.629149E-13 -1.873089E-14 -6.312434E-14 -4.309178E-14
         4   1 -9.321964E-05 -9.321964E-05  2.301412E-13  5.548277E-14  2.533490E-15  1.185091E-13
         4   2 -9.321964E-05 -9.321964E-05  3.755599E-14  6.351680E-14  7.676024E-15  1.446696E-15
         4   3 -9.321964E-05 -9.321964E-05  2.142629E-13 -6.711548E-14 -2.950012E-15  1.360231E-13
         4   4 -9.321964E-05 -9.321964E-05 -3.233769E-16 -5.908145E-14 -3.988239E-15  8.025985E-14
         4   5 -9.321964E-05 -9.321964E-05  1.883984E-13  1.048576E-13  4.312575E-15  1.248514E-13
         4   6 -9.321964E-05 -9.321964E-05 -1.732230E-14  1.042386E-13  9.455110E-15 -5.355354E-14
         4   7 -9.321964E-05 -9.321964E-05  1.595405E-13 -1.403389E-13 -9.971369E-15  1.949076E-13
         4   8 -9.321964E-05 -9.321964E-05 -6.818129E-14 -1.409579E-13 -1.100959E-14  1.478579E-13
         5   1 -9.321964E-05 -9.321964E-05 -4.776799E-13 -4.466079E-13 -2.282688E-13 -1.640254E-13
         5   2 -9.321964E-05 -9.321964E-05 -4.291427E-13 -1.313553E-13  8.170667E-15  1.884832E-13
         5   3 -9.321964E-05 -9.321964E-05 -4.710441E-14 -4.203368E-13 -1.384707E-13  8.117106E-14
         5   4 -9.321964E-05 -9.321964E-05  2.978520E-14 -6.129912E-14 -8.592863E-14 -9.174139E-14
         5   5 -9.321964E-05 -9.321964E-05 -1.793655E-14 -1.751404E-13 -1.247865E-13 -1.336589E-13
         5   6 -9.321964E-05 -9.321964E-05 -2.194139E-14  1.050842E-13  6.786785E-14  1.476802E-14
         5   7 -9.321964E-05 -9.321964E-05  1.630640E-13 -1.401123E-13 -1.339859E-13  1.115376E-13
         5   8 -9.321964E-05 -9.321964E-05  2.268181E-13  3.502807E-14  1.112106E-13 -2.746019E-15
         6   1 -9.321964E-05 -9.321964E-05  2.275788E-13  8.757018E-15 -3.334123E-15  1.443230E-13
         6   2 -9.321964E-05 -9.321964E-05  4.966744E-15  2.889816E-13  2.068343E-13 -1.331837E-13
         6   3 -9.321964E-05 -9.321964E-05  1.989909E-14  3.502807E-14 -4.440138E-14 -6.584542E-14
         6   4 -9.321964E-05 -9.321964E-05 -3.096390E-13  2.977386E-13 -9.373312E-15  1.382838E-13
         6   5 -9.321964E-05 -9.321964E-05 -1.664870E-13 -2.451965E-13 -7.311351E-14  2.433971E-13
         6   6 -9.321964E-05 -9.321964E-05 -2.183372E-13  3.502807E-14 -1.081416E-13  3.696114E-14
         6   7 -9.321964E-05 -9.321964E-05  7.244120E-14 -1.401123E-13 -2.559593E-14 -5.434152E-14
         6   8 -9.321964E-05 -9.321964E-05  8.442674E-14 -9.227149E-32  4.446021E-14  8.074623E-14
         7   1 -9.321964E-05 -9.321964E-05 -2.841491E-13 -7.114615E-15  2.611544E-15 -1.321009E-14
         7   2 -9.321964E-05 -9.321964E-05 -2.454444E-13 -2.655211E-14  3.629820E-14 -1.419566E-13
         7   3 -9.321964E-05 -9.321964E-05 -4.035319E-13 -7.114615E-15 -1.016694E-14  1.269022E-13
         7   4 -9.321964E-05 -9.321964E-05 -2.871973E-13 -2.655211E-14 -4.244372E-14  1.732961E-13
         7   5 -9.321964E-05 -9.321964E-05 -3.184913E-13 -4.091663E-14 -2.394024E-14 -1.543849E-13
         7   6 -9.321964E-05 -9.321964E-05 -1.747024E-13 -1.527029E-13  9.746419E-15  4.565916E-14
         7   7 -9.321964E-05 -9.321964E-05 -5.763974E-13 -4.091663E-14 -5.666757E-15 -4.930072E-14
         7   8 -9.321964E-05 -9.321964E-05 -3.549785E-13 -1.527029E-13 -3.794354E-14  2.814513E-14
         8   1 -9.321964E-05 -9.321964E-05 -4.327289E-13 -2.802246E-13 -1.688889E-13  3.690681E-15
         8   2 -9.321964E-05 -9.321964E-05  1.228523E-15 -8.757018E-15  1.463638E-13  1.524712E-13
         8   3 -9.321964E-05 -9.321964E-05 -1.973527E-13 -2.802246E-13  1.900601E-13  2.839152E-13
         8   4 -9.321964E-05 -9.321964E-05 -9.825592E-14 -1.050842E-13 -7.265048E-14 -1.627814E-13
         8   5 -9.321964E-05 -9.321964E-05 -4.327289E-13 -1.401123E-13 -2.311525E-15 -9.131040E-14
         8   6 -9.321964E-05 -9.321964E-05 -4.191083E-13 -1.401123E-13 -1.249098E-13  8.115216E-14
         8   7 -9.321964E-05 -9.321964E-05 -6.176895E-13 -1.401123E-13 -4.989318E-15 -4.065630E-13
         8   8 -9.321964E-05 -9.321964E-05 -4.397796E-13 -1.050842E-13 -1.100735E-13  1.862364E-13
         9   1 -9.321964E-05 -9.321964E-05 -8.340376E-14 -4.203368E-13 -2.516089E-13 -1.056513E-14
         9   2 -9.321964E-05 -9.321964E-05  5.295748E-13  1.401123E-13 -2.340949E-13 -1.187673E-13
         9   3 -9.321964E-05 -9.321964E-05  2.675786E-13 -4.203368E-13  2.531801E-13  2.446294E-14
         9   4 -9.321964E-05 -9.321964E-05  7.133666E-13  1.225982E-13  3.232362E-13  2.840555E-13
         9   5 -9.321964E-05 -9.321964E-05  1.004936E-13  2.802246E-13 -5.895961E-14 -1.378728E-14
         9   6 -9.321964E-05 -9.321964E-05  3.719485E-13  7.005614E-14 -7.647365E-14  6.683921E-14
         9   7 -9.321964E-05 -9.321964E-05  5.741017E-14  2.802246E-13  1.792932E-13  9.129693E-14
         9   8 -9.321964E-05 -9.321964E-05 -2.222282E-14 -7.005614E-14  4.152849E-15  4.932518E-14

 strains (elem, integ.pnt.,exx,eyy,ezz,exy,exz,eyz) forset EALL and time  0.5437813E+00

         1   1 -3.107321E-10 -3.107321E-10  2.663418E-10  1.777146E-26  7.270142E-27 -3.231174E-27
         1   2 -3.107321E-10 -3.107321E-10  2.663418E-10  8.401053E-26  1.777146E-26 -1.534808E-26
         1   3 -3.107321E-10 -3.107321E-10  2.663418E-10 -1.130911E-26 -1.292470E-26  3.877409E-26
         1   4 -3.107321E-10 -3.107321E-10  2.663418E-10  5.492996E-26 -1.292470E-26  9.531964E-26
         1   5 -3.107321E-10 -3.107321E-10  2.663418E-10  2.908057E-26  1.857925E-26 -8.077936E-26
         1   6 -3.107321E-10 -3.107321E-10  2.663418E-10  8.724171E-26  2.908057E-26 -1.688289E-25
         1   7 -3.107321E-10 -3.107321E-10  2.663418E-10  5.816114E-26 -7.754818E-26 -1.292470E-26
         1   8 -3.107321E-10 -3.107321E-10  2.663418E-10  1.292470E-25 -7.754818E-26 -5.816114E-26
         2   1 -3.107321E-10 -3.107321E-10  2.663418E-10  1.730990E-19  9.187897E-19  3.764425E-20
         2   2 -3.107321E-10 -3.107321E-10  2.663418E-10  2.815193E-19  2.140583E-19 -6.671743E-21
         2   3 -3.107321E-10 -3.107321E-10  2.663418E-10  5.359535E-20  1.695617E-18 -7.201088E-20
         2   4 -3.107321E-10 -3.107321E-10  2.663418E-10  4.330661E-19 -3.910604E-20  9.943118E-21
         2   5 -3.107321E-10 -3.107321E-10  2.663418E-10  2.096385E-20  1.059294E-18  2.501454E-19
         2   6 -3.107321E-10 -3.107321E-10  2.663418E-10  4.546447E-19  7.340329E-19 -4.151415E-20
         2   7 -3.107321E-10 -3.107321E-10  2.663418E-10  7.823817E-20 -5.796266E-19  1.404903E-19
         2   8 -3.107321E-10 -3.107321E-10  2.663418E-10 -1.386023E-19 -1.013307E-18 -2.489930E-20
         3   1 -3.107321E-10 -3.107321E-10  2.663418E-10  9.368102E-19 -1.181989E-19  7.813183E-20
         3   2 -3.107321E-10 -3.107321E-10  2.663418E-10  6.115495E-19 -6.603000E-19 -7.147777E-20
         3   3 -3.107321E-10 -3.107321E-10  2.663418E-10  1.126547E-18 -1.146375E-18 -1.832091E-20
         3   4 -3.107321E-10 -3.107321E-10  2.663418E-10  6.928660E-19  8.051891E-19 -1.373190E-19
         3   5 -3.107321E-10 -3.107321E-10  2.663418E-10  1.819858E-18 -1.959007E-18  3.880447E-19
         3   6 -3.107321E-10 -3.107321E-10  2.663418E-10  5.188158E-19 -1.633747E-18 -2.009175E-19
         3   7 -3.107321E-10 -3.107321E-10  2.663418E-10  2.052451E-18  6.934324E-19  2.915920E-19
         3   8 -3.107321E-10 -3.107321E-10  2.663418E-10 -1.159531E-19 -3.907697E-19 -2.667587E-19
         4   1 -3.107321E-10 -3.107321E-10  2.663418E-10  3.434647E-19  1.568351E-20  7.336278E-19
         4   2 -3.107321E-10 -3.107321E-10  2.663418E-10  3.931992E-19  4.751824E-20  8.955737E-21
         4   3 -3.107321E-10 -3.107321E-10  2.663418E-10 -4.154768E-19 -1.826198E-20  8.420480E-19
         4   4 -3.107321E-10 -3.107321E-10  2.663418E-10 -3.657423E-19 -2.468910E-20  4.968467E-19
         4   5 -3.107321E-10 -3.107321E-10  2.663418E-10  6.491187E-19  2.669689E-20  7.728898E-19
         4   6 -3.107321E-10 -3.107321E-10  2.663418E-10  6.452866E-19  5.853163E-20 -3.315219E-19
         4   7 -3.107321E-10 -3.107321E-10  2.663418E-10 -8.687644E-19 -6.172752E-20  1.206571E-18
         4   8 -3.107321E-10 -3.107321E-10  2.663418E-10 -8.725965E-19 -6.815463E-20  9.153106E-19
         5   1 -3.107321E-10 -3.107321E-10  2.663418E-10 -2.764716E-18 -1.413093E-18 -1.015396E-18
         5   2 -3.107321E-10 -3.107321E-10  2.663418E-10 -8.131516E-19  5.058032E-20  1.166801E-18
         5   3 -3.107321E-10 -3.107321E-10  2.663418E-10 -2.602085E-18 -8.571998E-19  5.024875E-19
         5   4 -3.107321E-10 -3.107321E-10  2.663418E-10 -3.794708E-19 -5.319391E-19 -5.679229E-19
         5   5 -3.107321E-10 -3.107321E-10  2.663418E-10 -1.084202E-18 -7.724881E-19 -8.274122E-19
         5   6 -3.107321E-10 -3.107321E-10  2.663418E-10  6.505213E-19  4.201343E-19  9.142106E-20
         5   7 -3.107321E-10 -3.107321E-10  2.663418E-10 -8.673617E-19 -8.294368E-19  6.904708E-19
         5   8 -3.107321E-10 -3.107321E-10  2.663418E-10  2.168404E-19  6.884463E-19 -1.699916E-20
         6   1 -3.107321E-10 -3.107321E-10  2.663418E-10  5.421011E-20 -2.063981E-20  8.934281E-19
         6   2 -3.107321E-10 -3.107321E-10  2.663418E-10  1.788934E-18  1.280403E-18 -8.244707E-19
         6   3 -3.107321E-10 -3.107321E-10  2.663418E-10  2.168404E-19 -2.748657E-19 -4.076145E-19
         6   4 -3.107321E-10 -3.107321E-10  2.663418E-10  1.843144E-18 -5.802527E-20  8.560426E-19
         6   5 -3.107321E-10 -3.107321E-10  2.663418E-10 -1.517883E-18 -4.526075E-19  1.506744E-18
         6   6 -3.107321E-10 -3.107321E-10  2.663418E-10  2.168404E-19 -6.694479E-19  2.288071E-19
         6   7 -3.107321E-10 -3.107321E-10  2.663418E-10 -8.673617E-19 -1.584510E-19 -3.363999E-19
         6   8 -3.107321E-10 -3.107321E-10  2.663418E-10  2.343617E-36  2.752299E-19  4.998576E-19
         7   1 -3.107321E-10 -3.107321E-10  2.663418E-10 -4.404286E-20  1.616670E-20 -8.177674E-20
         7   2 -3.107321E-10 -3.107321E-10  2.663418E-10 -1.643702E-19  2.247032E-19 -8.787787E-19
         7   3 -3.107321E-10 -3.107321E-10  2.663418E-10 -4.404286E-20 -6.293819E-20  7.855850E-19
         7   4 -3.107321E-10 -3.107321E-10  2.663418E-10 -1.643702E-19 -2.627468E-19  1.072785E-18
         7   5 -3.107321E-10 -3.107321E-10  2.663418E-10 -2.532934E-19 -1.482015E-19 -9.557163E-19
         7   6 -3.107321E-10 -3.107321E-10  2.663418E-10 -9.453039E-19  6.033497E-20  2.826520E-19
         7   7 -3.107321E-10 -3.107321E-10  2.663418E-10 -2.532934E-19 -3.507992E-20 -3.051950E-19
         7   8 -3.107321E-10 -3.107321E-10  2.663418E-10 -9.453039E-19 -2.348886E-19  1.742317E-19
         8   1 -3.107321E-10 -3.107321E-10  2.663418E-10 -1.734723E-18 -1.045503E-18  2.284707E-20
         8   2 -3.107321E-10 -3.107321E-10  2.663418E-10 -5.421011E-20  9.060613E-19  9.438693E-19
         8   3 -3.107321E-10 -3.107321E-10  2.663418E-10 -1.734723E-18  1.176562E-18  1.757571E-18
         8   4 -3.107321E-10 -3.107321E-10  2.663418E-10 -6.505213E-19 -4.497410E-19 -1.007695E-18
         8   5 -3.107321E-10 -3.107321E-10  2.663418E-10 -8.673617E-19 -1.430944E-20 -5.652549E-19
         8   6 -3.107321E-10 -3.107321E-10  2.663418E-10 -8.673617E-19 -7.732510E-19  5.023705E-19
         8   7 -3.107321E-10 -3.107321E-10  2.663418E-10 -8.673617E-19 -3.088625E-20 -2.516819E-18
         8   8 -3.107321E-10 -3.107321E-10  2.663418E-10 -6.505213E-19 -6.814076E-19  1.152892E-18
         9   1 -3.107321E-10 -3.107321E-10  2.663418E-10 -2.602085E-18 -1.557579E-18 -6.540320E-20
         9   2 -3.107321E-10 -3.107321E-10  2.663418E-10  8.673617E-19 -1.449159E-18 -7.352264E-19
         9   3 -3.107321E-10 -3.107321E-10  2.663418E-10 -2.602085E-18  1.567305E-18  1.514372E-19
         9   4 -3.107321E-10 -3.107321E-10  2.663418E-10  7.589415E-19  2.000986E-18  1.758439E-18
         9   5 -3.107321E-10 -3.107321E-10  2.663418E-10  1.734723E-18 -3.649881E-19 -8.534984E-20
         9   6 -3.107321E-10 -3.107321E-10  2.663418E-10  4.336809E-19 -4.734083E-19  4.137666E-19
         9   7 -3.107321E-10 -3.107321E-10  2.663418E-10  1.734723E-18  1.109910E-18  5.651715E-19
         9   8 -3.107321E-10 -3.107321E-10  2.663418E-10 -4.336809E-19  2.570811E-20  3.053463E-19

 displacements (vx,vy,vz) for set NALL and time  0.5527813E+00

         1  0.000000E+00  0.000000E+00  0.000000E+00
         2 -1.579375E-07  0.000000E+00  0.000000E+00
         3 -8.291719E+00  0.000000E+00  0.000000E+00
         4 -8.291719E+00  0.000000E+00  0.000000E+00
         5 -1.658344E+01  0.000000E+00  0.000000E+00
         6 -1.658344E+01  0.000000E+00  0.000000E+00
         7  0.000000E+00 -1.579375E-07  0.000000E+00
         8 -1.579375E-07 -1.579375E-07  0.000000E+00
         9 -8.291719E+00 -1.579375E-07  0.000000E+00
        10 -8.291719E+00 -1.579375E-07  0.000000E+00
        11 -1.658344E+01 -1.579375E-07  0.000000E+00
        12 -1.658344E+01 -1.579375E-07  0.000000E+00
        13  0.000000E+00 -8.291719E+00  0.000000E+00
        14 -1.579375E-07 -8.291719E+00  0.000000E+00
        15 -8.291719E+00 -8.291719E+00  0.000000E+00
        16 -8.291719E+00 -8.291719E+00  0.000000E+00
        17 -1.658344E+01 -8.291719E+00  0.000000E+00
        18 -1.658344E+01 -8.291719E+00  0.000000E+00
        19  0.000000E+00 -8.291719E+00  0.000000E+00
        20 -1.579375E-07 -8.291719E+00  0.000000E+00
        21 -8.291719E+00 -8.291719E+00  0.000000E+00
        22 -8.291719E+00 -8.291719E+00  0.000000E+00
        23 -1.658344E+01 -8.291719E+00  0.000000E+00
        24 -1.658344E+01 -8.291719E+00  0.000000E+00
        25  0.000000E+00 -1.658344E+01  0.000000E+00
        26 -1.579375E-07 -1.658344E+01  0.000000E+00
        27 -8.291719E+00 -1.658344E+01  0.000000E+00
        28 -8.291719E+00 -1.658344E+01  0.000000E+00
        29 -1.658344E+01 -1.658344E+01  0.000000E+00
        30 -1.658344E+01 -1.658344E+01  0.000000E+00
        31  0.000000E+00 -1.658344E+01  0.000000E+00
        32 -1.579375E-07 -1.658344E+01  0.000000E+00
        33 -8.291719E+00 -1.658344E+01  0.000000E+00
        34 -8.291719E+00 -1.658344E+01  0.000000E+00
        35 -1.658344E+01 -1.658344E+01  0.000000E+00
        36 -1.658344E+01 -1.658344E+01  0.000000E+00
        37  0.000000E+00  0.000000E+00  1.895250E-07
        38 -1.579375E-07  0.000000E+00  1.895250E-07
        39 -8.291719E+00  0.000000E+00  1.895250E-07
        40 -8.291719E+00  0.000000E+00  1.895250E-07
        41 -1.658344E+01  0.000000E+00  1.895250E-07
        42 -1.658344E+01  0.000000E+00  1.895250E-07
        43  0.000000E+00 -1.579375E-07  1.895250E-07
        44 -1.579375E-07 -1.579375E-07  1.895250E-07
        45 -8.291719E+00 -1.579375E-07  1.895250E-07
        46 -8.291719E+00 -1.579375E-07  1.895250E-07
        47 -1.658344E+01 -1.579375E-07  1.895250E-07
        48 -1.658344E+01 -1.579375E-07  1.895250E-07
        49  0.000000E+00 -8.291719E+00  1.895250E-07
        50 -1.579375E-07 -8.291719E+00  1.895250E-07
        51 -8.291719E+00 -8.291719E+00  1.895250E-07
        52 -8.291719E+00 -8.291719E+00  1.895250E-07
        53 -1.658344E+01 -8.291719E+00  1.895250E-07
        54 -1.658344E+01 -8.291719E+00  1.895250E-07
        55  0.000000E+00 -8.291719E+00  1.895250E-07
        56 -1.579375E-07 -8.291719E+00  1.895250E-07
        57 -8.291719E+00 -8.291719E+00  1.895250E-07
        58 -8.291719E+00 -8.291719E+00  1.895250E-07
        59 -1.658344E+01 -8.291719E+00  1.895250E-07
        60 -1.658344E+01 -8.291719E+00  1.895250E-07
        61  0.000000E+00 -1.658344E+01  1.895250E-07
        62 -1.579375E-07 -1.658344E+01  1.895250E-07
        63 -8.291719E+00 -1.658344E+01  1.895250E-07
        64 -8.291719E+00 -1.658344E+01  1.895250E-07
        65 -1.658344E+01 -1.658344E+01  1.895250E-07
        66 -1.658344E+01 -1.658344E+01  1.895250E-07
        67  0.000000E+00 -1.658344E+01  1.895250E-07
        68 -1.579375E-07 -1.658344E+01  1.895250E-07
        69 -8.291719E+00 -1.658344E+01  1.895250E-07
        70 -8.291719E+00 -1.658344E+01  1.895250E-07
        71 -1.658344E+01 -1.658344E+01  1.895250E-07
        72 -1.658344E+01 -1.658344E+01  1.895250E-07

 stresses (elem, integ.pnt.,sxx,syy,szz,sxy,sxz,syz) for set EALL and time  0.5527813E+00

         1   1 -9.476250E-05 -9.476250E-05  2.710505E-20 -6.785466E-21 -3.131754E-21  4.175671E-21
         1   2 -9.476250E-05 -9.476250E-05  2.710505E-20 -2.205276E-20 -1.565877E-20  4.045182E-21
         1   3 -9.476250E-05 -9.476250E-05  2.710505E-20 -8.220853E-21  3.653712E-21  1.043918E-21
         1   4 -9.476250E-05 -9.476250E-05  4.065758E-20 -2.348815E-20  1.148310E-20  5.219589E-22
         1   5 -9.476250E-05 -9.476250E-05 -1.355253E-20  3.131754E-21  1.565877E-21  1.565877E-20
         1   6 -9.476250E-05 -9.476250E-05 -1.355253E-20  1.409289E-20 -1.096114E-20  2.074787E-20
         1   7 -9.476250E-05 -9.476250E-05  2.710505E-20  1.565877E-21  1.043918E-20  1.252701E-20
         1   8 -9.476250E-05 -9.476250E-05  2.710505E-20  1.252701E-20  1.879052E-20  1.722464E-20
         2   1 -9.476250E-05 -9.476250E-05 -5.160080E-14  3.864654E-15  7.233578E-14 -3.139424E-15
         2   2 -9.476250E-05 -9.476250E-05 -2.019291E-14 -1.364938E-14 -1.115616E-13  2.263957E-15
         2   3 -9.476250E-05 -9.476250E-05 -1.369906E-13  1.442309E-14  8.336779E-14 -3.831623E-15
         2   4 -9.476250E-05 -9.476250E-05 -3.023267E-14  5.666068E-15  1.331165E-14 -1.380595E-14
         2   5 -9.476250E-05 -9.476250E-05  3.889426E-14 -1.441277E-13  7.856388E-14 -1.102429E-14
         2   6 -9.476250E-05 -9.476250E-05  3.800898E-14 -3.904350E-14 -6.154840E-14  2.451911E-14
         2   7 -9.476250E-05 -9.476250E-05 -3.336002E-14 -1.550981E-13 -2.037637E-14 -1.171648E-14
         2   8 -9.476250E-05 -9.476250E-05  4.110475E-14 -1.498578E-14 -9.043251E-14  8.449200E-15
         3   1 -9.476250E-05 -9.476250E-05  4.522300E-13  5.421992E-13  2.939961E-14 -1.142003E-14
         3   2 -9.476250E-05 -9.476250E-05  5.782435E-13  1.393764E-13  1.344838E-13  1.915234E-14
         3   3 -9.476250E-05 -9.476250E-05 -2.240743E-13  4.923395E-13 -1.178801E-13 -6.633420E-14
         3   4 -9.476250E-05 -9.476250E-05 -1.470156E-13  7.200268E-14  2.223213E-14  6.734535E-14
         3   5 -9.476250E-05 -9.476250E-05 -2.935950E-13 -2.456387E-13  1.797770E-13  1.229404E-14
         3   6 -9.476250E-05 -9.476250E-05  4.894356E-14 -1.055264E-13 -4.857564E-13  2.328451E-14
         3   7 -9.476250E-05 -9.476250E-05  5.012796E-13 -7.115975E-13 -1.972531E-13 -4.262013E-14
         3   8 -9.476250E-05 -9.476250E-05  7.948634E-13 -1.511483E-13 -5.714083E-14  7.147752E-14
         4   1 -9.476250E-05 -9.476250E-05 -4.921745E-14 -4.772495E-15 -1.168447E-15 -9.204783E-14
         4   2 -9.476250E-05 -9.476250E-05 -3.207325E-14  6.113423E-15  9.798453E-15 -2.648528E-13
         4   3 -9.476250E-05 -9.476250E-05  5.615156E-14 -3.104355E-14  2.854108E-15  1.303638E-14
         4   4 -9.476250E-05 -9.476250E-05  8.924697E-14 -2.015763E-14  1.843036E-14 -8.971241E-14
         4   5 -9.476250E-05 -9.476250E-05 -2.618695E-14 -2.868155E-14 -1.532761E-14 -1.264879E-13
         4   6 -9.476250E-05 -9.476250E-05 -1.666691E-13 -1.134255E-14 -4.360705E-15 -2.403703E-13
         4   7 -9.476250E-05 -9.476250E-05  8.886167E-14 -1.337658E-13 -4.924570E-15  1.887647E-13
         4   8 -9.476250E-05 -9.476250E-05 -3.566924E-14 -1.164268E-13  1.065168E-14 -1.268781E-14
         5   1 -9.476250E-05 -9.476250E-05  1.727629E-13  1.663833E-13 -1.045024E-13  7.452816E-14
         5   2 -9.476250E-05 -9.476250E-05 -1.122451E-13  1.488693E-13 -6.947437E-14  1.540778E-13
         5   3 -9.476250E-05 -9.476250E-05  1.770363E-13 -1.401123E-13  1.318250E-15  1.445843E-13
         5   4 -9.476250E-05 -9.476250E-05  1.527829E-14 -1.138412E-13 -2.789063E-13  4.023657E-14
         5   5 -9.476250E-05 -9.476250E-05 -2.213029E-13  3.984746E-30 -1.379411E-13  1.217740E-13
         5   6 -9.476250E-05 -9.476250E-05 -3.224135E-13  1.401123E-13 -6.585820E-15  8.949452E-14
         5   7 -9.476250E-05 -9.476250E-05  1.941000E-14 -1.401123E-13  1.450321E-13  8.674595E-14
         5   8 -9.476250E-05 -9.476250E-05  2.841382E-14  3.502807E-14 -1.001644E-13  5.446645E-14
         6   1 -9.476250E-05 -9.476250E-05 -6.499585E-13 -5.604491E-13  1.635215E-13  4.309936E-14
         6   2 -9.476250E-05 -9.476250E-05  3.535043E-14  1.401123E-13 -1.342171E-13 -1.835434E-13
         6   3 -9.476250E-05 -9.476250E-05  2.458430E-13 -2.101684E-13  2.871595E-13  7.812743E-14
         6   4 -9.476250E-05 -9.476250E-05  7.529527E-13  4.028228E-13  6.934889E-15 -7.845918E-14
         6   5 -9.476250E-05 -9.476250E-05 -5.974164E-13 -8.406737E-13  2.975328E-13  6.515052E-14
         6   6 -9.476250E-05 -9.476250E-05 -1.222759E-13 -2.101684E-13 -2.057907E-16 -1.714729E-13
         6   7 -9.476250E-05 -9.476250E-05  1.933009E-13 -7.005614E-13  1.659936E-13  2.402909E-13
         6   8 -9.476250E-05 -9.476250E-05  4.508355E-13  7.005614E-14  9.593750E-14 -1.364448E-13
         7   1 -9.476250E-05 -9.476250E-05 -3.169321E-13 -4.818111E-13  2.596671E-14 -4.658252E-13
         7   2 -9.476250E-05 -9.476250E-05  6.201259E-13 -4.583649E-13  4.784694E-14  1.083508E-13
         7   3 -9.476250E-05 -9.476250E-05 -1.139618E-13  7.863803E-14 -1.916095E-14  3.047923E-13
         7   4 -9.476250E-05 -9.476250E-05  5.579830E-13  1.020842E-13 -1.452649E-14  1.959209E-13
         7   5 -9.476250E-05 -9.476250E-05  5.696901E-13  5.601937E-13  7.502886E-14 -1.184802E-13
         7   6 -9.476250E-05 -9.476250E-05 -3.584967E-13  5.594957E-13  9.690908E-14 -1.814430E-14
         7   7 -9.476250E-05 -9.476250E-05  7.364442E-13 -2.554603E-16 -7.614410E-14  9.168820E-14
         7   8 -9.476250E-05 -9.476250E-05 -4.568558E-13 -9.533893E-16 -7.150965E-14  2.971083E-13
         8   1 -9.476250E-05 -9.476250E-05 -4.337434E-13 -1.050842E-13 -1.505336E-13 -4.605300E-13
         8   2 -9.476250E-05 -9.476250E-05  5.487264E-13 -8.757018E-15  1.472050E-13  1.249308E-13
         8   3 -9.476250E-05 -9.476250E-05 -2.429113E-13  1.751404E-13 -2.130921E-13  5.903121E-13
         8   4 -9.476250E-05 -9.476250E-05  6.828776E-13  3.152526E-13 -2.481202E-13  1.424448E-13
         8   5 -9.476250E-05 -9.476250E-05  4.988790E-13  4.203368E-13  9.183360E-14 -9.871842E-14
         8   6 -9.476250E-05 -9.476250E-05  3.644086E-14  3.853088E-13  2.844880E-13 -8.808929E-15
         8   7 -9.476250E-05 -9.476250E-05  4.926782E-13 -4.983934E-31 -3.611920E-13  1.114500E-13
         8   8 -9.476250E-05 -9.476250E-05 -4.730488E-13 -2.802246E-13 -1.159955E-13  2.188735E-13
         9   1 -9.476250E-05 -9.476250E-05  4.126948E-13 -3.611146E-30  5.200711E-14 -4.179621E-13
         9   2 -9.476250E-05 -9.476250E-05  1.235176E-12 -3.502807E-13  2.271475E-13  1.210928E-13
         9   3 -9.476250E-05 -9.476250E-05 -3.066748E-13  5.604491E-13 -3.196678E-13  2.374748E-15
         9   4 -9.476250E-05 -9.476250E-05  2.383252E-13  1.225982E-13  1.707251E-13  3.312612E-13
         9   5 -9.476250E-05 -9.476250E-05  6.228632E-13  2.802246E-13 -6.735991E-14 -2.013057E-13
         9   6 -9.476250E-05 -9.476250E-05 -4.461718E-13  4.203368E-13 -2.074722E-13 -3.595366E-14
         9   7 -9.476250E-05 -9.476250E-05  1.374673E-12 -8.406737E-13 -1.472043E-13  2.890872E-13
         9   8 -9.476250E-05 -9.476250E-05 -5.065638E-14 -2.802246E-13 -1.472043E-13  2.792990E-13

 strains (elem, integ.pnt.,exx,eyy,ezz,exy,exz,eyz) forset EALL and time  0.5527813E+00

         1   1 -3.158750E-10 -3.158750E-10  2.707500E-10 -4.200527E-26 -1.938705E-26  2.584939E-26
         1   2 -3.158750E-10 -3.158750E-10  2.707500E-10 -1.365171E-25 -9.693523E-26  2.504160E-26
         1   3 -3.158750E-10 -3.158750E-10  2.707500E-10 -5.089099E-26  2.261822E-26  6.462349E-27
         1   4 -3.158750E-10 -3.158750E-10  2.707500E-10 -1.454028E-25  7.108583E-26  3.231174E-27
         1   5 -3.158750E-10 -3.158750E-10  2.707500E-10  1.938705E-26  9.693523E-27  9.693523E-26
         1   6 -3.158750E-10 -3.158750E-10  2.707500E-10  8.724171E-26 -6.785466E-26  1.284392E-25
         1   7 -3.158750E-10 -3.158750E-10  2.707500E-10  9.693523E-27  6.462349E-26  7.754818E-26
         1   8 -3.158750E-10 -3.158750E-10  2.707500E-10  7.754818E-26  1.163223E-25  1.066288E-25
         2   1 -3.158750E-10 -3.158750E-10  2.707500E-10  2.392405E-20  4.477929E-19 -1.943453E-20
         2   2 -3.158750E-10 -3.158750E-10  2.707500E-10 -8.449617E-20 -6.906193E-19  1.401497E-20
         2   3 -3.158750E-10 -3.158750E-10  2.707500E-10  8.928577E-20  5.160863E-19 -2.371957E-20
         2   4 -3.158750E-10 -3.158750E-10  2.707500E-10  3.507566E-20  8.240546E-20 -8.546540E-20
         2   5 -3.158750E-10 -3.158750E-10  2.707500E-10 -8.922192E-19  4.863478E-19 -6.824558E-20
         2   6 -3.158750E-10 -3.158750E-10  2.707500E-10 -2.416978E-19 -3.810139E-19  1.517850E-19
         2   7 -3.158750E-10 -3.158750E-10  2.707500E-10 -9.601309E-19 -1.261395E-19 -7.253062E-20
         2   8 -3.158750E-10 -3.158750E-10  2.707500E-10 -9.276913E-20 -5.598203E-19  5.230457E-20
         3   1 -3.158750E-10 -3.158750E-10  2.707500E-10  3.356471E-18  1.819976E-19 -7.069543E-20
         3   2 -3.158750E-10 -3.158750E-10  2.707500E-10  8.628063E-19  8.325189E-19  1.185621E-19
         3   3 -3.158750E-10 -3.158750E-10  2.707500E-10  3.047816E-18 -7.297342E-19 -4.106403E-19
         3   4 -3.158750E-10 -3.158750E-10  2.707500E-10  4.457309E-19  1.376275E-19  4.168998E-19
         3   5 -3.158750E-10 -3.158750E-10  2.707500E-10 -1.520620E-18  1.112905E-18  7.610597E-20
         3   6 -3.158750E-10 -3.158750E-10  2.707500E-10 -6.532587E-19 -3.007063E-18  1.441422E-19
         3   7 -3.158750E-10 -3.158750E-10  2.707500E-10 -4.405127E-18 -1.221091E-18 -2.638389E-19
         3   8 -3.158750E-10 -3.158750E-10  2.707500E-10 -9.356802E-19 -3.537289E-19  4.424799E-19
         4   1 -3.158750E-10 -3.158750E-10  2.707500E-10 -2.954402E-20 -7.233240E-21 -5.698199E-19
         4   2 -3.158750E-10 -3.158750E-10  2.707500E-10  3.784500E-20  6.065709E-20 -1.639565E-18
         4   3 -3.158750E-10 -3.158750E-10  2.707500E-10 -1.921743E-19  1.766829E-20  8.070141E-20
         4   4 -3.158750E-10 -3.158750E-10  2.707500E-10 -1.247853E-19  1.140927E-19 -5.553626E-19
         4   5 -3.158750E-10 -3.158750E-10  2.707500E-10 -1.775525E-19 -9.488517E-20 -7.830204E-19
         4   6 -3.158750E-10 -3.158750E-10  2.707500E-10 -7.021578E-20 -2.699484E-20 -1.488006E-18
         4   7 -3.158750E-10 -3.158750E-10  2.707500E-10 -8.280738E-19 -3.048543E-20  1.168543E-18
         4   8 -3.158750E-10 -3.158750E-10  2.707500E-10 -7.207371E-19  6.593896E-20 -7.854358E-20
         5   1 -3.158750E-10 -3.158750E-10  2.707500E-10  1.029992E-18 -6.469199E-19  4.613648E-19
         5   2 -3.158750E-10 -3.158750E-10  2.707500E-10  9.215718E-19 -4.300794E-19  9.538149E-19
         5   3 -3.158750E-10 -3.158750E-10  2.707500E-10 -8.673617E-19  8.160596E-21  8.950457E-19
         5   4 -3.158750E-10 -3.158750E-10  2.707500E-10 -7.047314E-19 -1.726563E-18  2.490835E-19
         5   5 -3.158750E-10 -3.158750E-10  2.707500E-10 -2.708061E-35 -8.539210E-19  7.538392E-19
         5   6 -3.158750E-10 -3.158750E-10  2.707500E-10  8.673617E-19 -4.076936E-20  5.540137E-19
         5   7 -3.158750E-10 -3.158750E-10  2.707500E-10 -8.673617E-19  8.978175E-19  5.369987E-19
         5   8 -3.158750E-10 -3.158750E-10  2.707500E-10  2.168404E-19 -6.200655E-19  3.371733E-19
         6   1 -3.158750E-10 -3.158750E-10  2.707500E-10 -3.469447E-18  1.012276E-18  2.668055E-19
         6   2 -3.158750E-10 -3.158750E-10  2.707500E-10  8.673617E-19 -8.308678E-19 -1.136221E-18
         6   3 -3.158750E-10 -3.158750E-10  2.707500E-10 -1.301043E-18  1.777654E-18  4.836460E-19
         6   4 -3.158750E-10 -3.158750E-10  2.707500E-10  2.493665E-18  4.293027E-20 -4.856997E-19
         6   5 -3.158750E-10 -3.158750E-10  2.707500E-10 -5.204170E-18  1.841870E-18  4.033127E-19
         6   6 -3.158750E-10 -3.158750E-10  2.707500E-10 -1.301043E-18 -1.273942E-21 -1.061499E-18
         6   7 -3.158750E-10 -3.158750E-10  2.707500E-10 -4.336809E-18  1.027580E-18  1.487515E-18
         6   8 -3.158750E-10 -3.158750E-10  2.707500E-10  4.336809E-19  5.938988E-19 -8.446582E-19
         7   1 -3.158750E-10 -3.158750E-10  2.707500E-10 -2.982640E-18  1.607463E-19 -2.883680E-18
         7   2 -3.158750E-10 -3.158750E-10  2.707500E-10 -2.837497E-18  2.961953E-19  6.707428E-19
         7   3 -3.158750E-10 -3.158750E-10  2.707500E-10  4.868068E-19 -1.186154E-19  1.886810E-18
         7   4 -3.158750E-10 -3.158750E-10  2.707500E-10  6.319497E-19 -8.992592E-20  1.212844E-18
         7   5 -3.158750E-10 -3.158750E-10  2.707500E-10  3.467866E-18  4.644643E-19 -7.334490E-19
         7   6 -3.158750E-10 -3.158750E-10  2.707500E-10  3.463545E-18  5.999134E-19 -1.123218E-19
         7   7 -3.158750E-10 -3.158750E-10  2.707500E-10 -1.581421E-21 -4.713683E-19  5.675936E-19
         7   8 -3.158750E-10 -3.158750E-10  2.707500E-10 -5.901934E-21 -4.426788E-19  1.839242E-18
         8   1 -3.158750E-10 -3.158750E-10  2.707500E-10 -6.505213E-19 -9.318747E-19 -2.850900E-18
         8   2 -3.158750E-10 -3.158750E-10  2.707500E-10 -5.421011E-20  9.112689E-19  7.733810E-19
         8   3 -3.158750E-10 -3.158750E-10  2.707500E-10  1.084202E-18 -1.319142E-18  3.654313E-18
         8   4 -3.158750E-10 -3.158750E-10  2.707500E-10  1.951564E-18 -1.535982E-18  8.818012E-19
         8   5 -3.158750E-10 -3.158750E-10  2.707500E-10  2.602085E-18  5.684937E-19 -6.111140E-19
         8   6 -3.158750E-10 -3.158750E-10  2.707500E-10  2.385245E-18  1.761116E-18 -5.453147E-20
         8   7 -3.158750E-10 -3.158750E-10  2.707500E-10 -9.320404E-38 -2.235950E-18  6.899286E-19
         8   8 -3.158750E-10 -3.158750E-10  2.707500E-10 -1.734723E-18 -7.180675E-19  1.354931E-18
         9   1 -3.158750E-10 -3.158750E-10  2.707500E-10  1.842847E-35  3.219488E-19 -2.587384E-18
         9   2 -3.158750E-10 -3.158750E-10  2.707500E-10 -2.168404E-18  1.406151E-18  7.496220E-19
         9   3 -3.158750E-10 -3.158750E-10  2.707500E-10  3.469447E-18 -1.978896E-18  1.470082E-20
         9   4 -3.158750E-10 -3.158750E-10  2.707500E-10  7.589415E-19  1.056870E-18  2.050665E-18
         9   5 -3.158750E-10 -3.158750E-10  2.707500E-10  1.734723E-18 -4.169899E-19 -1.246178E-18
         9   6 -3.158750E-10 -3.158750E-10  2.707500E-10  2.602085E-18 -1.284352E-18 -2.225703E-19
         9   7 -3.158750E-10 -3.158750E-10  2.707500E-10 -5.204170E-18 -9.112648E-19  1.789588E-18
         9   8 -3.158750E-10 -3.158750E-10  2.707500E-10 -1.734723E-18 -9.112648E-19  1.728994E-18

 displacements (vx,vy,vz) for set NALL and time  0.5617813E+00

         1  0.000000E+00  0.000000E+00  0.000000E+00
         2 -1.605089E-07  0.000000E+00  0.000000E+00
         3 -8.426719E+00  0.000000E+00  0.000000E+00
         4 -8.426719E+00  0.000000E+00  0.000000E+00
         5 -1.685344E+01  0.000000E+00  0.000000E+00
         6 -1.685344E+01  0.000000E+00  0.000000E+00
         7  0.000000E+00 -1.605089E-07  0.000000E+00
         8 -1.605089E-07 -1.605089E-07  0.000000E+00
         9 -8.426719E+00 -1.605089E-07  0.000000E+00
        10 -8.426719E+00 -1.605089E-07  0.000000E+00
        11 -1.685344E+01 -1.605089E-07  0.000000E+00
        12 -1.685344E+01 -1.605089E-07  0.000000E+00
        13  0.000000E+00 -8.426719E+00  0.000000E+00
        14 -1.605089E-07 -8.426719E+00  0.000000E+00
        15 -8.426719E+00 -8.426719E+00  0.000000E+00
        16 -8.426719E+00 -8.426719E+00  0.000000E+00
        17 -1.685344E+01 -8.426719E+00  0.000000E+00
        18 -1.685344E+01 -8.426719E+00  0.000000E+00
        19  0.000000E+00 -8.426719E+00  0.000000E+00
        20 -1.605089E-07 -8.426719E+00  0.000000E+00
        21 -8.426719E+00 -8.426719E+00  0.000000E+00
        22 -8.426719E+00 -8.426719E+00  0.000000E+00
        23 -1.685344E+01 -8.426719E+00  0.000000E+00
        24 -1.685344E+01 -8.426719E+00  0.000000E+00
        25  0.000000E+00 -1.685344E+01  0.000000E+00
        26 -1.605089E-07 -1.685344E+01  0.000000E+00
        27 -8.426719E+00 -1.685344E+01  0.000000E+00
        28 -8.426719E+00 -1.685344E+01  0.000000E+00
        29 -1.685344E+01 -1.685344E+01  0.000000E+00
        30 -1.685344E+01 -1.685344E+01  0.000000E+00
        31  0.000000E+00 -1.685344E+01  0.000000E+00
        32 -1.605089E-07 -1.685344E+01  0.000000E+00
        33 -8.426719E+00 -1.685344E+01  0.000000E+00
        34 -8.426719E+00 -1.685344E+01  0.000000E+00
        35 -1.685344E+01 -1.685344E+01  0.000000E+00
        36 -1.685344E+01 -1.685344E+01  0.000000E+00
        37  0.000000E+00  0.000000E+00  1.926107E-07
        38 -1.605089E-07  0.000000E+00  1.926107E-07
        39 -8.426719E+00  0.000000E+00  1.926107E-07
        40 -8.426719E+00  0.000000E+00  1.926107E-07
        41 -1.685344E+01  0.000000E+00  1.926107E-07
        42 -1.685344E+01  0.000000E+00  1.926107E-07
        43  0.000000E+00 -1.605089E-07  1.926107E-07
        44 -1.605089E-07 -1.605089E-07  1.926107E-07
        45 -8.426719E+00 -1.605089E-07  1.926107E-07
        46 -8.426719E+00 -1.605089E-07  1.926107E-07
        47 -1.685344E+01 -1.605089E-07  1.926107E-07
        48 -1.685344E+01 -1.605089E-07  1.926107E-07
        49  0.000000E+00 -8.426719E+00  1.926107E-07
        50 -1.605089E-07 -8.426719E+00  1.926107E-07
        51 -8.426719E+00 -8.426719E+00  1.926107E-07
        52 -8.426719E+00 -8.426719E+00  1.926107E-07
        53 -1.685344E+01 -8.426719E+00  1.926107E-07
        54 -1.685344E+01 -8.426719E+00  1.926107E-07
        55  0.000000E+00 -8.426719E+00  1.926107E-07
        56 -1.605089E-07 -8.426719E+00  1.926107E-07
        57 -8.426719E+00 -8.426719E+00  1.926107E-07
        58 -8.426719E+00 -8.426719E+00  1.926107E-07
        59 -1.685344E+01 -8.426719E+00  1.926107E-07
        60 -1.685344E+01 -8.426719E+00  1.926107E-07
        61  0.000000E+00 -1.685344E+01  1.926107E-07
        62 -1.605089E-07 -1.685344E+01  1.926107E-07
        63 -8.426719E+00 -1.685344E+01  1.926107E-07
        64 -8.426719E+00 -1.685344E+01  1.926107E-07
        65 -1.685344E+01 -1.685344E+01  1.926107E-07
        66 -1.685344E+01 -1.685344E+01  1.926107E-07
        67  0.000000E+00 -1.685344E+01  1.926107E-07
        68 -1.605089E-07 -1.685344E+01  1.926107E-07
        69 -8.426719E+00 -1.685344E+01  1.926107E-07
        70 -8.426719E+00 -1.685344E+01  1.926107E-07
        71 -1.685344E+01 -1.685344E+01  1.926107E-07
        72 -1.685344E+01 -1.685344E+01  1.926107E-07

 stresses (elem, integ.pnt.,sxx,syy,szz,sxy,sxz,syz) for set EALL and time  0.5617813E+00

         1   1 -9.630535E-05 -9.630535E-05  1.355253E-20  6.524486E-21 -3.262243E-21  5.741548E-21
         1   2 -9.630535E-05 -9.630535E-05  1.214309E-46 -4.697630E-21 -6.263507E-21 -6.263507E-21
         1   3 -9.630535E-05 -9.630535E-05  1.700033E-45  3.784202E-20 -2.087836E-21  1.148310E-20
         1   4 -9.630535E-05 -9.630535E-05  1.355253E-20  2.661990E-20  6.263507E-21 -3.001264E-20
         1   5 -9.630535E-05 -9.630535E-05  1.172820E-44 -2.087836E-21 -1.370142E-20  1.722464E-20
         1   6 -9.630535E-05 -9.630535E-05 -4.065758E-20 -3.653712E-21 -1.670269E-20 -1.304897E-21
         1   7 -9.630535E-05 -9.630535E-05  1.355253E-20 -8.873302E-21 -1.409289E-20  2.087836E-20
         1   8 -9.630535E-05 -9.630535E-05 -2.710505E-20 -8.351343E-21 -6.263507E-21 -2.505403E-20
         2   1 -9.630535E-05 -9.630535E-05  1.525822E-13 -6.521230E-14  8.930601E-14  2.781678E-15
         2   2 -9.630535E-05 -9.630535E-05  6.466552E-14  4.843839E-15 -5.080627E-14  5.007695E-16
         2   3 -9.630535E-05 -9.630535E-05  2.551977E-13 -5.197869E-14 -1.389656E-14  6.114622E-15
         2   4 -9.630535E-05 -9.630535E-05  1.801329E-13  6.186254E-14 -8.395270E-14 -7.538584E-15
         2   5 -9.630535E-05 -9.630535E-05  1.989880E-13 -9.837308E-16  4.619917E-14  7.048419E-15
         2   6 -9.630535E-05 -9.630535E-05  8.718945E-14 -9.837308E-16 -1.552122E-13  9.908247E-15
         2   7 -9.630535E-05 -9.630535E-05  1.045706E-13 -3.671332E-15  8.824962E-14  1.038136E-14
         2   8 -9.630535E-05 -9.630535E-05  5.623946E-15  3.135674E-14  1.583058E-13  1.868894E-15
         3   1 -9.630535E-05 -9.630535E-05  1.442733E-13  2.505785E-13  2.794003E-14 -8.925958E-15
         3   2 -9.630535E-05 -9.630535E-05  2.136156E-13  1.805224E-13  1.505383E-13  1.014245E-14
         3   3 -9.630535E-05 -9.630535E-05  7.985556E-16  1.695841E-13 -1.097665E-13 -2.846433E-14
         3   4 -9.630535E-05 -9.630535E-05  8.657253E-14  2.921823E-13  5.207388E-13  3.612727E-14
         3   5 -9.630535E-05 -9.630535E-05  7.697167E-14  5.541308E-13  1.743298E-13 -1.377375E-14
         3   6 -9.630535E-05 -9.630535E-05  2.419127E-13  1.337940E-13 -1.234088E-13  1.186734E-14
         3   7 -9.630536E-05 -9.630535E-05 -4.605689E-13  5.368688E-13 -2.686022E-14 -3.331213E-14
         3   8 -9.630536E-05 -9.630535E-05 -2.791962E-13 -2.358032E-14 -2.686022E-14  3.785215E-14
         4   1 -9.630535E-05 -9.630535E-05  1.910988E-13  3.606259E-13  4.755604E-15  2.266200E-14
         4   2 -9.630535E-05 -9.630535E-05  1.999708E-14  3.649648E-13  2.121455E-15  1.066257E-14
         4   3 -9.630535E-05 -9.630535E-05  1.131453E-13  3.661623E-14 -3.265750E-15  1.277462E-13
         4   4 -9.630535E-05 -9.630535E-05 -1.399140E-13  4.095516E-14  4.968402E-15  1.066257E-14
         4   5 -9.630535E-05 -9.630535E-05  2.906512E-13  4.625224E-13  2.038230E-14  2.390533E-14
         4   6 -9.630535E-05 -9.630535E-05  3.822601E-13  4.820769E-13  1.774816E-14 -1.084473E-13
         4   7 -9.630535E-05 -9.630535E-05  2.355212E-13  2.873820E-13 -2.042209E-14 -1.162070E-13
         4   8 -9.630535E-05 -9.630535E-05  2.451724E-13  3.069366E-13 -1.218794E-14  1.192351E-13
         5   1 -9.630535E-05 -9.630536E-05 -2.310425E-13 -8.757018E-15 -4.100728E-14 -3.717727E-14
         5   2 -9.630535E-05 -9.630535E-05  1.090490E-13 -1.050842E-13  2.904886E-14 -2.820444E-14
         5   3 -9.630535E-05 -9.630536E-05 -3.770771E-13  6.695425E-30  1.431059E-13 -2.149199E-15
         5   4 -9.630535E-05 -9.630535E-05 -1.201908E-13 -4.378509E-14  3.802169E-14  6.823632E-15
         5   5 -9.630535E-05 -9.630535E-05  2.681075E-13  2.451965E-13 -5.734280E-14 -1.131051E-13
         5   6 -9.630535E-05 -9.630535E-05 -3.544184E-14  2.451965E-13  2.141247E-13  5.173719E-14
         5   7 -9.630535E-05 -9.630535E-05  9.580185E-14 -2.802246E-13  1.512846E-13  6.203522E-14
         5   8 -9.630535E-05 -9.630535E-05 -9.391977E-14 -1.050842E-13 -5.888381E-14 -2.197304E-13
         6   1 -9.630535E-05 -9.630535E-05 -5.957501E-14 -4.203368E-13 -1.956703E-14 -4.170494E-14
         6   2 -9.630535E-05 -9.630535E-05 -6.186500E-14  1.751404E-14 -1.071372E-13 -7.916299E-14
         6   3 -9.630535E-05 -9.630535E-05  2.363448E-13 -4.203368E-13 -5.736891E-13  1.334354E-13
         6   4 -9.630535E-05 -9.630535E-05  2.247272E-13 -5.254211E-14 -1.323999E-14  1.397625E-13
         6   5 -9.630535E-05 -9.630535E-05 -1.383882E-13 -5.604491E-13  2.071994E-13  8.016580E-14
         6   6 -9.630535E-05 -9.630535E-05 -2.194913E-13 -2.802246E-13 -9.053917E-14 -3.633365E-14
         6   7 -9.630535E-05 -9.630535E-05 -7.890780E-14 -5.604491E-13 -4.941229E-14 -9.497455E-14
         6   8 -9.630535E-05 -9.630535E-05 -1.171228E-14 -1.401123E-13  9.069999E-14  1.037786E-13
         7   1 -9.630535E-05 -9.630536E-05 -4.463065E-13 -7.295079E-15  8.751250E-15 -7.449614E-14
         7   2 -9.630535E-05 -9.630536E-05 -2.494063E-13 -2.722561E-14  2.745897E-14  8.902064E-15
         7   3 -9.630535E-05 -9.630536E-05 -5.065280E-13 -7.295079E-15 -8.669291E-15  1.356723E-13
         7   4 -9.630535E-05 -9.630536E-05 -3.381229E-13 -2.722561E-14 -2.615733E-14  1.315003E-13
         7   5 -9.630536E-05 -9.630536E-05 -7.222729E-13 -2.584307E-14  1.395240E-14  1.235420E-13
         7   6 -9.630535E-05 -9.630536E-05 -4.991016E-13 -9.644766E-14  3.266011E-14 -1.021965E-13
         7   7 -9.630536E-05 -9.630536E-05 -8.585055E-13 -2.584307E-14 -1.486620E-14 -1.566826E-13
         7   8 -9.630536E-05 -9.630536E-05 -6.638294E-13 -9.644766E-14 -3.235424E-14 -3.214032E-14
         8   1 -9.630535E-05 -9.630536E-05 -4.222926E-13  3.502807E-14 -1.557401E-13 -3.583565E-13
         8   2 -9.630535E-05 -9.630536E-05 -3.160574E-13  1.401123E-13  1.069704E-13 -8.032522E-16
         8   3 -9.630535E-05 -9.630536E-05 -2.935538E-13 -3.502807E-14  7.921489E-14 -1.481881E-13
         8   4 -9.630535E-05 -9.630535E-05 -1.259142E-13  1.138412E-13  4.418682E-14  5.173885E-14
         8   5 -9.630535E-05 -9.630535E-05  2.431527E-14  2.802246E-13 -1.727937E-13 -1.702515E-13
         8   6 -9.630535E-05 -9.630535E-05 -5.334685E-14  3.502807E-13  1.249449E-13 -1.209032E-13
         8   7 -9.630535E-05 -9.630535E-05 -1.884696E-13  4.653978E-32  3.418093E-14  1.099731E-13
         8   8 -9.630535E-05 -9.630535E-05 -2.309984E-13  3.060063E-31 -3.587521E-14 -2.785295E-13
         9   1 -9.630535E-05 -9.630535E-05 -2.070849E-13 -1.401123E-13 -2.277286E-13 -6.405920E-13
         9   2 -9.630535E-05 -9.630535E-05 -2.219389E-13  5.254211E-14  2.451504E-13 -2.520748E-13
         9   3 -9.630535E-05 -9.630535E-05 -9.208102E-14 -1.401123E-13 -1.435176E-14  1.300256E-13
         9   4 -9.630535E-05 -9.630535E-05 -6.208006E-15 -3.502807E-14  5.570438E-14  2.032901E-13
         9   5 -9.630535E-05 -9.630535E-05  2.920651E-13  1.284971E-31 -2.757038E-13 -3.764407E-14
         9   6 -9.630535E-05 -9.630535E-05  6.704271E-14 -1.401123E-13  3.723155E-13 -3.759509E-13
         9   7 -9.630536E-05 -9.630535E-05 -3.022494E-13  1.178778E-31 -5.356151E-14 -1.777564E-13
         9   8 -9.630536E-05 -9.630535E-05 -1.901054E-13 -2.750766E-32  8.655077E-14 -2.567016E-14

 strains (elem, integ.pnt.,exx,eyy,ezz,exy,exz,eyz) forset EALL and time  0.5617813E+00

         1   1 -3.210178E-10 -3.210178E-10  2.751582E-10  4.038968E-26 -2.019484E-26  3.554292E-26
         1   2 -3.210178E-10 -3.210178E-10  2.751582E-10 -2.908057E-26 -3.877409E-26 -3.877409E-26
         1   3 -3.210178E-10 -3.210178E-10  2.751582E-10  2.342601E-25 -1.292470E-26  7.108583E-26
         1   4 -3.210178E-10 -3.210178E-10  2.751582E-10  1.647899E-25  3.877409E-26 -1.857925E-25
         1   5 -3.210178E-10 -3.210178E-10  2.751582E-10 -1.292470E-26 -8.481832E-26  1.066288E-25
         1   6 -3.210178E-10 -3.210178E-10  2.751582E-10 -2.261822E-26 -1.033976E-25 -8.077936E-27
         1   7 -3.210178E-10 -3.210178E-10  2.751582E-10 -5.492996E-26 -8.724171E-26  1.292470E-25
         1   8 -3.210178E-10 -3.210178E-10  2.751582E-10 -5.169879E-26 -3.877409E-26 -1.550964E-25
         2   1 -3.210178E-10 -3.210178E-10  2.751582E-10 -4.036952E-19  5.528467E-19  1.721991E-20
         2   2 -3.210178E-10 -3.210178E-10  2.751582E-10  2.998567E-20 -3.145150E-19  3.100002E-21
         2   3 -3.210178E-10 -3.210178E-10  2.751582E-10 -3.217728E-19 -8.602631E-20  3.785242E-20
         2   4 -3.210178E-10 -3.210178E-10  2.751582E-10  3.829586E-19 -5.197072E-19 -4.666743E-20
         2   5 -3.210178E-10 -3.210178E-10  2.751582E-10 -6.089762E-21  2.859948E-19  4.363307E-20
         2   6 -3.210178E-10 -3.210178E-10  2.751582E-10 -6.089762E-21 -9.608377E-19  6.133677E-20
         2   7 -3.210178E-10 -3.210178E-10  2.751582E-10 -2.272729E-20  5.463072E-19  6.426559E-20
         2   8 -3.210178E-10 -3.210178E-10  2.751582E-10  1.941131E-19  9.799880E-19  1.156934E-20
         3   1 -3.210178E-10 -3.210178E-10  2.751582E-10  1.551200E-18  1.729621E-19 -5.525593E-20
         3   2 -3.210178E-10 -3.210178E-10  2.751582E-10  1.117520E-18  9.319036E-19  6.278661E-20
         3   3 -3.210178E-10 -3.210178E-10  2.751582E-10  1.049806E-18 -6.795068E-19 -1.762078E-19
         3   4 -3.210178E-10 -3.210178E-10  2.751582E-10  1.808748E-18  3.223621E-18  2.236450E-19
         3   5 -3.210178E-10 -3.210178E-10  2.751582E-10  3.430333E-18  1.079184E-18 -8.526608E-20
         3   6 -3.210178E-10 -3.210178E-10  2.751582E-10  8.282483E-19 -7.639595E-19  7.346447E-20
         3   7 -3.210179E-10 -3.210178E-10  2.751582E-10  3.323474E-18 -1.662775E-19 -2.062179E-19
         3   8 -3.210179E-10 -3.210178E-10  2.751582E-10 -1.459734E-19 -1.662775E-19  2.343229E-19
         4   1 -3.210178E-10 -3.210178E-10  2.751582E-10  2.232446E-18  2.943945E-20  1.402886E-19
         4   2 -3.210178E-10 -3.210178E-10  2.751582E-10  2.259306E-18  1.313282E-20  6.600639E-20
         4   3 -3.210178E-10 -3.210178E-10  2.751582E-10  2.266719E-19 -2.021655E-20  7.908099E-19
         4   4 -3.210178E-10 -3.210178E-10  2.751582E-10  2.535319E-19  3.075677E-20  6.600639E-20
         4   5 -3.210178E-10 -3.210178E-10  2.751582E-10  2.863234E-18  1.261762E-19  1.479854E-19
         4   6 -3.210178E-10 -3.210178E-10  2.751582E-10  2.984286E-18  1.098695E-19 -6.713405E-19
         4   7 -3.210178E-10 -3.210178E-10  2.751582E-10  1.779032E-18 -1.264225E-19 -7.193764E-19
         4   8 -3.210178E-10 -3.210178E-10  2.751582E-10  1.900084E-18 -7.544916E-20  7.381223E-19
         5   1 -3.210178E-10 -3.210179E-10  2.751582E-10 -5.421011E-20 -2.538546E-19 -2.301450E-19
         5   2 -3.210178E-10 -3.210178E-10  2.751582E-10 -6.505213E-19  1.798263E-19 -1.745989E-19
         5   3 -3.210178E-10 -3.210179E-10  2.751582E-10 -4.147193E-35  8.858937E-19 -1.330457E-20
         5   4 -3.210178E-10 -3.210178E-10  2.751582E-10 -2.710505E-19  2.353724E-19  4.224153E-20
         5   5 -3.210178E-10 -3.210178E-10  2.751582E-10  1.517883E-18 -3.549792E-19 -7.001746E-19
         5   6 -3.210178E-10 -3.210178E-10  2.751582E-10  1.517883E-18  1.325534E-18  3.202779E-19
         5   7 -3.210178E-10 -3.210178E-10  2.751582E-10 -1.734723E-18  9.365238E-19  3.840275E-19
         5   8 -3.210178E-10 -3.210178E-10  2.751582E-10 -6.505213E-19 -3.645188E-19 -1.360236E-18
         6   1 -3.210178E-10 -3.210178E-10  2.751582E-10 -2.602085E-18 -1.211292E-19 -2.581734E-19
         6   2 -3.210178E-10 -3.210178E-10  2.751582E-10  1.084202E-19 -6.632303E-19 -4.900566E-19
         6   3 -3.210178E-10 -3.210178E-10  2.751582E-10 -2.602085E-18 -3.551409E-18  8.260288E-19
         6   4 -3.210178E-10 -3.210178E-10  2.751582E-10 -3.252607E-19 -8.196182E-20  8.651961E-19
         6   5 -3.210178E-10 -3.210178E-10  2.751582E-10 -3.469447E-18  1.282663E-18  4.962645E-19
         6   6 -3.210178E-10 -3.210178E-10  2.751582E-10 -1.734723E-18 -5.604806E-19 -2.249226E-19
         6   7 -3.210178E-10 -3.210178E-10  2.751582E-10 -3.469447E-18 -3.058856E-19 -5.879377E-19
         6   8 -3.210178E-10 -3.210178E-10  2.751582E-10 -8.673617E-19  5.614761E-19  6.424392E-19
         7   1 -3.210178E-10 -3.210179E-10  2.751582E-10 -4.516001E-20  5.417441E-20 -4.611666E-19
         7   2 -3.210178E-10 -3.210179E-10  2.751582E-10 -1.685395E-19  1.699841E-19  5.510801E-20
         7   3 -3.210178E-10 -3.210179E-10  2.751582E-10 -4.516001E-20 -5.366704E-20  8.398761E-19
         7   4 -3.210178E-10 -3.210179E-10  2.751582E-10 -1.685395E-19 -1.619263E-19  8.140495E-19
         7   5 -3.210178E-10 -3.210179E-10  2.751582E-10 -1.599809E-19  8.637200E-20  7.647838E-19
         7   6 -3.210178E-10 -3.210179E-10  2.751582E-10 -5.970569E-19  2.021817E-19 -6.326447E-19
         7   7 -3.210178E-10 -3.210179E-10  2.751582E-10 -1.599809E-19 -9.202884E-20 -9.699397E-19
         7   8 -3.210178E-10 -3.210179E-10  2.751582E-10 -5.970569E-19 -2.002881E-19 -1.989639E-19
         8   1 -3.210178E-10 -3.210179E-10  2.751582E-10  2.168404E-19 -9.641053E-19 -2.218397E-18
         8   2 -3.210178E-10 -3.210179E-10  2.751582E-10  8.673617E-19  6.621980E-19 -4.972514E-21
         8   3 -3.210178E-10 -3.210179E-10  2.751582E-10 -2.168404E-19  4.903779E-19 -9.173546E-19
         8   4 -3.210178E-10 -3.210178E-10  2.751582E-10  7.047314E-19  2.735375E-19  3.202881E-19
         8   5 -3.210178E-10 -3.210178E-10  2.751582E-10  1.734723E-18 -1.069675E-18 -1.053938E-18
         8   6 -3.210178E-10 -3.210178E-10  2.751582E-10  2.168404E-18  7.734684E-19 -7.484481E-19
         8   7 -3.210178E-10 -3.210178E-10  2.751582E-10 -7.895750E-38  2.115962E-19  6.807859E-19
         8   8 -3.210178E-10 -3.210178E-10  2.751582E-10 -1.790897E-37 -2.220847E-19 -1.724230E-18
         9   1 -3.210178E-10 -3.210178E-10  2.751582E-10 -8.673617E-19 -1.409748E-18 -3.965569E-18
         9   2 -3.210178E-10 -3.210178E-10  2.751582E-10  3.252607E-19  1.517597E-18 -1.560463E-18
         9   3 -3.210178E-10 -3.210178E-10  2.751582E-10 -8.673617E-19 -8.884424E-20  8.049203E-19
         9   4 -3.210178E-10 -3.210178E-10  2.751582E-10 -2.168404E-19  3.448366E-19  1.258463E-18
         9   5 -3.210178E-10 -3.210178E-10  2.751582E-10  1.890823E-37 -1.706738E-18 -2.330347E-19
         9   6 -3.210178E-10 -3.210178E-10  2.751582E-10 -8.673617E-19  2.304810E-18 -2.327315E-18
         9   7 -3.210179E-10 -3.210178E-10  2.751582E-10  1.545352E-37 -3.315712E-19 -1.100396E-18
         9   8 -3.210179E-10 -3.210178E-10  2.751582E-10  1.053803E-37  5.357905E-19 -1.589105E-19

 displacements (vx,vy,vz) for set NALL and time  0.5707813E+00

         1  0.000000E+00  0.000000E+00  0.000000E+00
         2 -1.630804E-07  0.000000E+00  0.000000E+00
         3 -8.561719E+00  0.000000E+00  0.000000E+00
         4 -8.561719E+00  0.000000E+00  0.000000E+00
         5 -1.712344E+01  0.000000E+00  0.000000E+00
         6 -1.712344E+01  0.000000E+00  0.000000E+00
         7  0.000000E+00 -1.630804E-07  0.000000E+00
         8 -1.630804E-07 -1.630804E-07  0.000000E+00
         9 -8.561719E+00 -1.630804E-07  0.000000E+00
        10 -8.561719E+00 -1.630804E-07  0.000000E+00
        11 -1.712344E+01 -1.630804E-07  0.000000E+00
        12 -1.712344E+01 -1.630804E-07  0.000000E+00
        13  0.000000E+00 -8.561719E+00  0.000000E+00
        14 -1.630804E-07 -8.561719E+00  0.000000E+00
        15 -8.561719E+00 -8.561719E+00  0.000000E+00
        16 -8.561719E+00 -8.561719E+00  0.000000E+00
        17 -1.712344E+01 -8.561719E+00  0.000000E+00
        18 -1.712344E+01 -8.561719E+00  0.000000E+00
        19  0.000000E+00 -8.561719E+00  0.000000E+00
        20 -1.630804E-07 -8.561719E+00  0.000000E+00
        21 -8.561719E+00 -8.561719E+00  0.000000E+00
        22 -8.561719E+00 -8.561719E+00  0.000000E+00
        23 -1.712344E+01 -8.561719E+00  0.000000E+00
        24 -1.712344E+01 -8.561719E+00  0.000000E+00
        25  0.000000E+00 -1.712344E+01  0.000000E+00
        26 -1.630804E-07 -1.712344E+01  0.000000E+00
        27 -8.561719E+00 -1.712344E+01  0.000000E+00
        28 -8.561719E+00 -1.712344E+01  0.000000E+00
        29 -1.712344E+01 -1.712344E+01  0.000000E+00
        30 -1.712344E+01 -1.712344E+01  0.000000E+00
        31  0.000000E+00 -1.712344E+01  0.000000E+00
        32 -1.630804E-07 -1.712344E+01  0.000000E+00
        33 -8.561719E+00 -1.712344E+01  0.000000E+00
        34 -8.561719E+00 -1.712344E+01  0.000000E+00
        35 -1.712344E+01 -1.712344E+01  0.000000E+00
        36 -1.712344E+01 -1.712344E+01  0.000000E+00
        37  0.000000E+00  0.000000E+00  1.956964E-07
        38 -1.630804E-07  0.000000E+00  1.956964E-07
        39 -8.561719E+00  0.000000E+00  1.956964E-07
        40 -8.561719E+00  0.000000E+00  1.956964E-07
        41 -1.712344E+01  0.000000E+00  1.956964E-07
        42 -1.712344E+01  0.000000E+00  1.956964E-07
        43  0.000000E+00 -1.630804E-07  1.956964E-07
        44 -1.630804E-07 -1.630804E-07  1.956964E-07
        45 -8.561719E+00 -1.630804E-07  1.956964E-07
        46 -8.561719E+00 -1.630804E-07  1.956964E-07
        47 -1.712344E+01 -1.630804E-07  1.956964E-07
        48 -1.712344E+01 -1.630804E-07  1.956964E-07
        49  0.000000E+00 -8.561719E+00  1.956964E-07
        50 -1.630804E-07 -8.561719E+00  1.956964E-07
        51 -8.561719E+00 -8.561719E+00  1.956964E-07
        52 -8.561719E+00 -8.561719E+00  1.956964E-07
        53 -1.712344E+01 -8.561719E+00  1.956964E-07
        54 -1.712344E+01 -8.561719E+00  1.956964E-07
        55  0.000000E+00 -8.561719E+00  1.956964E-07
        56 -1.630804E-07 -8.561719E+00  1.956964E-07
        57 -8.561719E+00 -8.561719E+00  1.956964E-07
        58 -8.561719E+00 -8.561719E+00  1.956964E-07
        59 -1.712344E+01 -8.561719E+00  1.956964E-07
        60 -1.712344E+01 -8.561719E+00  1.956964E-07
        61  0.000000E+00 -1.712344E+01  1.956964E-07
        62 -1.630804E-07 -1.712344E+01  1.956964E-07
        63 -8.561719E+00 -1.712344E+01  1.956964E-07
        64 -8.561719E+00 -1.712344E+01  1.956964E-07
        65 -1.712344E+01 -1.712344E+01  1.956964E-07
        66 -1.712344E+01 -1.712344E+01  1.956964E-07
        67  0.000000E+00 -1.712344E+01  1.956964E-07
        68 -1.630804E-07 -1.712344E+01  1.956964E-07
        69 -8.561719E+00 -1.712344E+01  1.956964E-07
        70 -8.561719E+00 -1.712344E+01  1.956964E-07
        71 -1.712344E+01 -1.712344E+01  1.956964E-07
        72 -1.712344E+01 -1.712344E+01  1.956964E-07

 stresses (elem, integ.pnt.,sxx,syy,szz,sxy,sxz,syz) for set EALL and time  0.5707813E+00

         1   1 -9.784821E-05 -9.784821E-05  1.355253E-20  3.653712E-21 -2.609795E-21 -2.125041E-46
         1   2 -9.784821E-05 -9.784821E-05 -1.355253E-20  7.307425E-21  5.219589E-22  3.914692E-21
         1   3 -9.784821E-05 -9.784821E-05  4.047697E-47  9.395261E-21  1.565877E-21  2.833388E-46
         1   4 -9.784821E-05 -9.784821E-05  1.355253E-20  1.304897E-20  3.131754E-21 -5.219589E-22
         1   5 -9.784821E-05 -9.784821E-05  1.355253E-20  5.219589E-22 -8.351343E-21  6.746161E-48
         1   6 -9.784821E-05 -9.784821E-05 -1.355253E-20  3.653712E-21 -5.219589E-21  1.226603E-20
         1   7 -9.784821E-05 -9.784821E-05 -1.355253E-20  5.219589E-22  4.697630E-21  3.035772E-47
         1   8 -9.784821E-05 -9.784821E-05  1.355253E-20  4.175671E-21  4.175671E-21  7.829384E-21
         2   1 -9.784821E-05 -9.784821E-05  1.231770E-13 -5.443672E-15 -2.362049E-14 -7.702908E-16
         2   2 -9.784821E-05 -9.784821E-05  1.787837E-13  3.313346E-15 -1.024336E-13  6.145753E-15
         2   3 -9.784821E-05 -9.784821E-05 -1.534712E-13 -2.031606E-14 -1.935900E-13 -2.553923E-15
         2   4 -9.784821E-05 -9.784821E-05 -6.254673E-14  3.222605E-14  8.663460E-14  9.129984E-15
         2   5 -9.784821E-05 -9.784821E-05  5.375373E-14 -3.000447E-15  7.545605E-15 -1.091134E-15
         2   6 -9.784821E-05 -9.784821E-05  1.193729E-13  6.705569E-14 -1.325667E-13  1.995202E-14
         2   7 -9.784821E-05 -9.784821E-05  5.295161E-14 -1.119782E-14  2.019840E-13 -2.874764E-15
         2   8 -9.784821E-05 -9.784821E-05  1.538886E-13  9.388639E-14  1.319278E-13  2.293626E-14
         3   1 -9.784821E-05 -9.784821E-05  1.812999E-13  2.665974E-13  6.192248E-14 -4.508623E-15
         3   2 -9.784821E-05 -9.784821E-05  6.990082E-14  1.615132E-13  3.596611E-13  3.304665E-15
         3   3 -9.784821E-05 -9.784821E-05  1.235031E-13  2.293674E-13 -1.076152E-14 -4.216141E-15
         3   4 -9.784821E-05 -9.784821E-05 -5.844514E-15  3.671297E-14 -1.076152E-14  3.212289E-14
         3   5 -9.784821E-05 -9.784821E-05  3.658114E-13 -2.792341E-13 -1.704675E-13 -1.711889E-14
         3   6 -9.784821E-05 -9.784821E-05  3.143164E-13 -1.391218E-13  2.148413E-13 -1.648504E-14
         3   7 -9.784821E-05 -9.784821E-05  3.342858E-13 -2.765281E-13 -1.802748E-13 -1.682641E-14
         3   8 -9.784821E-05 -9.784821E-05  2.648422E-13  3.696427E-15  4.502305E-13  1.233318E-14
         4   1 -9.784821E-05 -9.784821E-05  7.198303E-14 -6.086457E-15  7.690100E-16  9.501317E-14
         4   2 -9.784821E-05 -9.784821E-05  4.816815E-14  1.209650E-15  7.141728E-15  1.811931E-13
         4   3 -9.784821E-05 -9.784821E-05  1.414065E-14 -6.738558E-14 -7.743036E-16  2.000974E-13
         4   4 -9.784821E-05 -9.784821E-05 -1.916952E-14 -6.008947E-14  5.180122E-15  1.286510E-13
         4   5 -9.784821E-05 -9.784821E-05  1.379078E-13 -3.257186E-14 -3.502738E-15 -3.758566E-14
         4   6 -9.784821E-05 -9.784821E-05 -3.039783E-14 -2.586136E-14  2.869979E-15  1.323664E-13
         4   7 -9.784821E-05 -9.784821E-05  7.918706E-14 -1.376561E-13 -8.844164E-15  1.025266E-13
         4   8 -9.784821E-05 -9.784821E-05 -9.861392E-14 -1.309456E-13 -2.889740E-15 -3.229985E-13
         5   1 -9.784821E-05 -9.784821E-05  7.629658E-14  4.728789E-13 -1.000396E-13  1.422919E-13
         5   2 -9.784821E-05 -9.784821E-05 -2.045010E-13  3.765518E-13  1.363998E-13  7.191002E-14
         5   3 -9.784821E-05 -9.784821E-05 -7.649182E-16  2.101684E-13  5.726092E-14 -1.379326E-13
         5   4 -9.784821E-05 -9.784821E-05 -3.377329E-13  1.751404E-14 -2.579917E-13 -8.571630E-14
         5   5 -9.784821E-05 -9.784821E-05 -1.732784E-13  1.401123E-13 -1.913418E-13  4.316259E-14
         5   6 -9.784821E-05 -9.784821E-05 -2.964497E-13  1.050842E-13  7.136872E-14 -1.810428E-13
         5   7 -9.784821E-05 -9.784821E-05 -2.109333E-13 -1.401123E-13  9.235987E-14  7.819066E-14
         5   8 -9.784821E-05 -9.784821E-05 -5.610369E-13 -1.401123E-13 -3.630050E-13 -2.335849E-13
         6   1 -9.784821E-05 -9.784821E-05  3.369544E-13  1.702603E-31  9.178948E-14  4.288145E-14
         6   2 -9.784821E-05 -9.784821E-05 -4.563854E-14  8.757018E-14 -2.059491E-13 -4.843036E-14
         6   3 -9.784821E-05 -9.784821E-05  1.250767E-13 -4.730130E-32  1.405900E-13 -2.717470E-14
         6   4 -9.784821E-05 -9.784821E-05  1.283393E-13  5.245834E-31  1.405900E-13  1.617381E-13
         6   5 -9.784821E-05 -9.784821E-05  3.632255E-13 -2.802246E-13  2.399937E-13 -6.638927E-14
         6   6 -9.784821E-05 -9.784821E-05  3.317461E-14 -2.101684E-13  1.231124E-14  4.568045E-14
         6   7 -9.784821E-05 -9.784821E-05  1.776188E-13 -2.802246E-13  1.782724E-15  3.869494E-14
         6   8 -9.784821E-05 -9.784821E-05  1.283393E-13 -7.005614E-14 -2.784418E-13  4.568045E-14
         7   1 -9.784821E-05 -9.784821E-05 -3.987801E-14 -9.220248E-15  8.783785E-15  1.140890E-13
         7   2 -9.784821E-05 -9.784821E-05  6.589916E-15 -3.441044E-14  2.470278E-14 -1.972422E-13
         7   3 -9.784821E-05 -9.784821E-05  2.230865E-13 -9.220248E-15 -5.398470E-15 -9.607945E-14
         7   4 -9.784821E-05 -9.784821E-05  1.767152E-13 -3.441044E-14  8.909565E-15 -1.797282E-13
         7   5 -9.784821E-05 -9.784821E-05 -2.166165E-13 -1.004576E-14  1.686254E-14 -1.158918E-13
         7   6 -9.784821E-05 -9.784821E-05 -9.133545E-14 -3.749129E-14  3.278153E-14  7.857639E-14
         7   7 -9.784821E-05 -9.784821E-05  4.296494E-14 -1.004576E-14 -3.445540E-14  2.422047E-14
         7   8 -9.784821E-05 -9.784821E-05  7.540684E-14 -3.749129E-14 -2.014737E-14  4.354832E-14
         8   1 -9.784821E-05 -9.784821E-05 -3.278176E-13 -2.101684E-13 -1.935480E-13 -2.756560E-13
         8   2 -9.784821E-05 -9.784821E-05  2.214113E-14 -2.189254E-13 -5.343577E-14 -6.985963E-14
         8   3 -9.784821E-05 -9.784821E-05  2.212849E-13  2.101684E-13 -1.103499E-13 -6.548762E-14
         8   4 -9.784821E-05 -9.784821E-05  2.087840E-13  7.005614E-14 -1.103499E-13 -2.625140E-13
         8   5 -9.784821E-05 -9.784821E-05  1.319258E-13  7.005614E-13  2.700001E-14 -2.118900E-13
         8   6 -9.784821E-05 -9.784821E-05 -4.901444E-13  8.406737E-13  2.021404E-13  1.186388E-13
         8   7 -9.784821E-05 -9.784821E-05  6.941638E-13  2.802246E-13 -2.204344E-13  1.383907E-13
         8   8 -9.784821E-05 -9.784821E-05 -2.115528E-13  3.502807E-13 -2.204344E-13  1.361528E-13
         9   1 -9.784821E-05 -9.784821E-05  1.054251E-13  7.005614E-14  1.457417E-13  9.711608E-14
         9   2 -9.784821E-05 -9.784821E-05  3.015008E-13  1.225982E-13 -1.188464E-14  6.513585E-14
         9   3 -9.784821E-05 -9.784821E-05  2.114347E-13  7.005614E-14 -2.635084E-14 -1.130523E-13
         9   4 -9.784821E-05 -9.784821E-05  5.772616E-14  3.502807E-14 -9.640698E-14 -7.497643E-14
         9   5 -9.784821E-05 -9.784821E-05  2.661188E-14  2.967690E-30  3.712899E-13  3.812136E-13
         9   6 -9.784821E-05 -9.784821E-05  2.752298E-13 -7.005614E-14  1.786355E-13  8.672142E-14
         9   7 -9.784821E-05 -9.784821E-05 -1.038179E-13  1.029041E-30  1.818819E-13  2.411013E-13
         9   8 -9.784821E-05 -9.784821E-05 -2.837975E-13  7.005614E-14 -9.834267E-14 -8.841893E-14

 strains (elem, integ.pnt.,exx,eyy,ezz,exy,exz,eyz) forset EALL and time  0.5707813E+00

         1   1 -3.261607E-10 -3.261607E-10  2.795663E-10  2.261822E-26 -1.615587E-26  1.252858E-52
         1   2 -3.261607E-10 -3.261607E-10  2.795663E-10  4.523644E-26  3.231174E-27  2.423381E-26
         1   3 -3.261607E-10 -3.261607E-10  2.795663E-10  5.816114E-26  9.693523E-27  6.264292E-53
         1   4 -3.261607E-10 -3.261607E-10  2.795663E-10  8.077936E-26  1.938705E-26 -3.231174E-27
         1   5 -3.261607E-10 -3.261607E-10  2.795663E-10  3.231174E-27 -5.169879E-26  8.352390E-53
         1   6 -3.261607E-10 -3.261607E-10  2.795663E-10  2.261822E-26 -3.231174E-26  7.593260E-26
         1   7 -3.261607E-10 -3.261607E-10  2.795663E-10  3.231174E-27  2.908057E-26  2.088097E-53
         1   8 -3.261607E-10 -3.261607E-10  2.795663E-10  2.584939E-26  2.584939E-26  4.846761E-26
         2   1 -3.261607E-10 -3.261607E-10  2.795663E-10 -3.369892E-20 -1.462221E-19 -4.768467E-21
         2   2 -3.261607E-10 -3.261607E-10  2.795663E-10  2.051119E-20 -6.341130E-19  3.804514E-20
         2   3 -3.261607E-10 -3.261607E-10  2.795663E-10 -1.257661E-19 -1.198414E-18 -1.581000E-20
         2   4 -3.261607E-10 -3.261607E-10  2.795663E-10  1.994946E-19  5.363095E-19  5.651895E-20
         2   5 -3.261607E-10 -3.261607E-10  2.795663E-10 -1.857420E-20  4.671089E-20 -6.754637E-21
         2   6 -3.261607E-10 -3.261607E-10  2.795663E-10  4.151067E-19 -8.206508E-19  1.235125E-19
         2   7 -3.261607E-10 -3.261607E-10  2.795663E-10 -6.931987E-20  1.250377E-18 -1.779616E-20
         2   8 -3.261607E-10 -3.261607E-10  2.795663E-10  5.812014E-19  8.166960E-19  1.419864E-19
         3   1 -3.261607E-10 -3.261607E-10  2.795663E-10  1.650365E-18  3.833296E-19 -2.791052E-20
         3   2 -3.261607E-10 -3.261607E-10  2.795663E-10  9.998436E-19  2.226473E-18  2.045745E-20
         3   3 -3.261607E-10 -3.261607E-10  2.795663E-10  1.419893E-18 -6.661892E-20 -2.609992E-20
         3   4 -3.261607E-10 -3.261607E-10  2.795663E-10  2.272708E-19 -6.661892E-20  1.988560E-19
         3   5 -3.261607E-10 -3.261607E-10  2.795663E-10 -1.728592E-18 -1.055275E-18 -1.059741E-19
         3   6 -3.261607E-10 -3.261607E-10  2.795663E-10 -8.612304E-19  1.329970E-18 -1.020503E-19
         3   7 -3.261607E-10 -3.261607E-10  2.795663E-10 -1.711841E-18 -1.115987E-18 -1.041635E-19
         3   8 -3.261607E-10 -3.261607E-10  2.795663E-10  2.288265E-20  2.787141E-18  7.634826E-20
         4   1 -3.261607E-10 -3.261607E-10  2.795663E-10 -3.767807E-20  4.760538E-21  5.881767E-19
         4   2 -3.261607E-10 -3.261607E-10  2.795663E-10  7.488308E-21  4.421070E-20  1.121672E-18
         4   3 -3.261607E-10 -3.261607E-10  2.795663E-10 -4.171488E-19 -4.793308E-21  1.238698E-18
         4   4 -3.261607E-10 -3.261607E-10  2.795663E-10 -3.719825E-19  3.206742E-20  7.964111E-19
         4   5 -3.261607E-10 -3.261607E-10  2.795663E-10 -2.016353E-19 -2.168361E-20 -2.326731E-19
         4   6 -3.261607E-10 -3.261607E-10  2.795663E-10 -1.600941E-19  1.776653E-20  8.194109E-19
         4   7 -3.261607E-10 -3.261607E-10  2.795663E-10 -8.521566E-19 -5.474959E-20  6.346886E-19
         4   8 -3.261607E-10 -3.261607E-10  2.795663E-10 -8.106154E-19 -1.788887E-20 -1.999515E-18
         5   1 -3.261607E-10 -3.261607E-10  2.795663E-10  2.927346E-18 -6.192930E-19  8.808547E-19
         5   2 -3.261607E-10 -3.261607E-10  2.795663E-10  2.331035E-18  8.443800E-19  4.451572E-19
         5   3 -3.261607E-10 -3.261607E-10  2.795663E-10  1.301043E-18  3.544724E-19 -8.538687E-19
         5   4 -3.261607E-10 -3.261607E-10  2.795663E-10  1.084202E-19 -1.597092E-18 -5.306247E-19
         5   5 -3.261607E-10 -3.261607E-10  2.795663E-10  8.673617E-19 -1.184497E-18  2.671970E-19
         5   6 -3.261607E-10 -3.261607E-10  2.795663E-10  6.505213E-19  4.418064E-19 -1.120741E-18
         5   7 -3.261607E-10 -3.261607E-10  2.795663E-10 -8.673617E-19  5.717516E-19  4.840374E-19
         5   8 -3.261607E-10 -3.261607E-10  2.795663E-10 -8.673617E-19 -2.247174E-18 -1.446002E-18
         6   1 -3.261607E-10 -3.261607E-10  2.795663E-10  1.006456E-37  5.682206E-19  2.654566E-19
         6   2 -3.261607E-10 -3.261607E-10  2.795663E-10  5.421011E-19 -1.274923E-18 -2.998070E-19
         6   3 -3.261607E-10 -3.261607E-10  2.795663E-10 -9.948968E-40  8.703188E-19 -1.682243E-19
         6   4 -3.261607E-10 -3.261607E-10  2.795663E-10  7.917448E-40  8.703188E-19  1.001236E-18
         6   5 -3.261607E-10 -3.261607E-10  2.795663E-10 -1.734723E-18  1.485675E-18 -4.109812E-19
         6   6 -3.261607E-10 -3.261607E-10  2.795663E-10 -1.301043E-18  7.621245E-20  2.827837E-19
         6   7 -3.261607E-10 -3.261607E-10  2.795663E-10 -1.734723E-18  1.103591E-20  2.395401E-19
         6   8 -3.261607E-10 -3.261607E-10  2.795663E-10 -4.336809E-19 -1.723688E-18  2.827837E-19
         7   1 -3.261607E-10 -3.261607E-10  2.795663E-10 -5.707772E-20  5.437581E-20  7.062650E-19
         7   2 -3.261607E-10 -3.261607E-10  2.795663E-10 -2.130170E-19  1.529220E-19 -1.221023E-18
         7   3 -3.261607E-10 -3.261607E-10  2.795663E-10 -5.707772E-20 -3.341910E-20 -5.947776E-19
         7   4 -3.261607E-10 -3.261607E-10  2.795663E-10 -2.130170E-19  5.515445E-20 -1.112603E-18
         7   5 -3.261607E-10 -3.261607E-10  2.795663E-10 -6.218804E-20  1.043872E-19 -7.174255E-19
         7   6 -3.261607E-10 -3.261607E-10  2.795663E-10 -2.320889E-19  2.029333E-19  4.864253E-19
         7   7 -3.261607E-10 -3.261607E-10  2.795663E-10 -6.218804E-20 -2.132954E-19  1.499362E-19
         7   8 -3.261607E-10 -3.261607E-10  2.795663E-10 -2.320889E-19 -1.247218E-19  2.695849E-19
         8   1 -3.261607E-10 -3.261607E-10  2.795663E-10 -1.301043E-18 -1.198155E-18 -1.706442E-18
         8   2 -3.261607E-10 -3.261607E-10  2.795663E-10 -1.355253E-18 -3.307929E-19 -4.324644E-19
         8   3 -3.261607E-10 -3.261607E-10  2.795663E-10  1.301043E-18 -6.831183E-19 -4.053996E-19
         8   4 -3.261607E-10 -3.261607E-10  2.795663E-10  4.336809E-19 -6.831183E-19 -1.625087E-18
         8   5 -3.261607E-10 -3.261607E-10  2.795663E-10  4.336809E-18  1.671429E-19 -1.311700E-18
         8   6 -3.261607E-10 -3.261607E-10  2.795663E-10  5.204170E-18  1.251345E-18  7.344304E-19
         8   7 -3.261607E-10 -3.261607E-10  2.795663E-10  1.734723E-18 -1.364594E-18  8.567046E-19
         8   8 -3.261607E-10 -3.261607E-10  2.795663E-10  2.168404E-18 -1.364594E-18  8.428506E-19
         9   1 -3.261607E-10 -3.261607E-10  2.795663E-10  4.336809E-19  9.022104E-19  6.011948E-19
         9   2 -3.261607E-10 -3.261607E-10  2.795663E-10  7.589415E-19 -7.357159E-20  4.032219E-19
         9   3 -3.261607E-10 -3.261607E-10  2.795663E-10  4.336809E-19 -1.631242E-19 -6.998478E-19
         9   4 -3.261607E-10 -3.261607E-10  2.795663E-10  2.168404E-19 -5.968051E-19 -4.641398E-19
         9   5 -3.261607E-10 -3.261607E-10  2.795663E-10  1.626154E-37  2.298461E-18  2.359894E-18
         9   6 -3.261607E-10 -3.261607E-10  2.795663E-10 -4.336809E-19  1.105839E-18  5.368469E-19
         9   7 -3.261607E-10 -3.261607E-10  2.795663E-10 -7.611924E-37  1.125936E-18  1.492532E-18
         9   8 -3.261607E-10 -3.261607E-10  2.795663E-10  4.336809E-19 -6.087879E-19 -5.473553E-19

 displacements (vx,vy,vz) for set NALL and time  0.5797813E+00

         1  0.000000E+00  0.000000E+00  0.000000E+00
         2 -1.656518E-07  0.000000E+00  0.000000E+00
         3 -8.696719E+00  0.000000E+00  0.000000E+00
         4 -8.696719E+00  0.000000E+00  0.000000E+00
         5 -1.739344E+01  0.000000E+00  0.000000E+00
         6 -1.739344E+01  0.000000E+00  0.000000E+00
         7  0.000000E+00 -1.656518E-07  0.000000E+00
         8 -1.656518E-07 -1.656518E-07  0.000000E+00
         9 -8.696719E+00 -1.656518E-07  0.000000E+00
        10 -8.696719E+00 -1.656518E-07  0.000000E+00
        11 -1.739344E+01 -1.656518E-07  0.000000E+00
        12 -1.739344E+01 -1.656518E-07  0.000000E+00
        13  0.000000E+00 -8.696719E+00  0.000000E+00
        14 -1.656518E-07 -8.696719E+00  0.000000E+00
        15 -8.696719E+00 -8.696719E+00  0.000000E+00
        16 -8.696719E+00 -8.696719E+00  0.000000E+00
        17 -1.739344E+01 -8.696719E+00  0.000000E+00
        18 -1.739344E+01 -8.696719E+00  0.000000E+00
        19  0.000000E+00 -8.696719E+00  0.000000E+00
        20 -1.656518E-07 -8.696719E+00  0.000000E+00
        21 -8.696719E+00 -8.696719E+00  0.000000E+00
        22 -8.696719E+00 -8.696719E+00  0.000000E+00
        23 -1.739344E+01 -8.696719E+00  0.000000E+00
        24 -1.739344E+01 -8.696719E+00  0.000000E+00
        25  0.000000E+00 -1.739344E+01  0.000000E+00
        26 -1.656518E-07 -1.739344E+01  0.000000E+00
        27 -8.696719E+00 -1.739344E+01  0.000000E+00
        28 -8.696719E+00 -1.739344E+01  0.000000E+00
        29 -1.739344E+01 -1.739344E+01  0.000000E+00
        30 -1.739344E+01 -1.739344E+01  0.000000E+00
        31  0.000000E+00 -1.739344E+01  0.000000E+00
        32 -1.656518E-07 -1.739344E+01  0.000000E+00
        33 -8.696719E+00 -1.739344E+01  0.000000E+00
        34 -8.696719E+00 -1.739344E+01  0.000000E+00
        35 -1.739344E+01 -1.739344E+01  0.000000E+00
        36 -1.739344E+01 -1.739344E+01  0.000000E+00
        37  0.000000E+00  0.000000E+00  1.987821E-07
        38 -1.656518E-07  0.000000E+00  1.987821E-07
        39 -8.696719E+00  0.000000E+00  1.987821E-07
        40 -8.696719E+00  0.000000E+00  1.987821E-07
        41 -1.739344E+01  0.000000E+00  1.987821E-07
        42 -1.739344E+01  0.000000E+00  1.987821E-07
        43  0.000000E+00 -1.656518E-07  1.987821E-07
        44 -1.656518E-07 -1.656518E-07  1.987821E-07
        45 -8.696719E+00 -1.656518E-07  1.987821E-07
        46 -8.696719E+00 -1.656518E-07  1.987821E-07
        47 -1.739344E+01 -1.656518E-07  1.987821E-07
        48 -1.739344E+01 -1.656518E-07  1.987821E-07
        49  0.000000E+00 -8.696719E+00  1.987821E-07
        50 -1.656518E-07 -8.696719E+00  1.987821E-07
        51 -8.696719E+00 -8.696719E+00  1.987821E-07
        52 -8.696719E+00 -8.696719E+00  1.987821E-07
        53 -1.739344E+01 -8.696719E+00  1.987821E-07
        54 -1.739344E+01 -8.696719E+00  1.987821E-07
        55  0.000000E+00 -8.696719E+00  1.987821E-07
        56 -1.656518E-07 -8.696719E+00  1.987821E-07
        57 -8.696719E+00 -8.696719E+00  1.987821E-07
        58 -8.696719E+00 -8.696719E+00  1.987821E-07
        59 -1.739344E+01 -8.696719E+00  1.987821E-07
        60 -1.739344E+01 -8.696719E+00  1.987821E-07
        61  0.000000E+00 -1.739344E+01  1.987821E-07
        62 -1.656518E-07 -1.739344E+01  1.987821E-07
        63 -8.696719E+00 -1.739344E+01  1.987821E-07
        64 -8.696719E+00 -1.739344E+01  1.987821E-07
        65 -1.739344E+01 -1.739344E+01  1.987821E-07
        66 -1.739344E+01 -1.739344E+01  1.987821E-07
        67  0.000000E+00 -1.739344E+01  1.987821E-07
        68 -1.656518E-07 -1.739344E+01  1.987821E-07
        69 -8.696719E+00 -1.739344E+01  1.987821E-07
        70 -8.696719E+00 -1.739344E+01  1.987821E-07
        71 -1.739344E+01 -1.739344E+01  1.987821E-07
        72 -1.739344E+01 -1.739344E+01  1.987821E-07

 stresses (elem, integ.pnt.,sxx,syy,szz,sxy,sxz,syz) for set EALL and time  0.5797813E+00

         1   1 -9.939107E-05 -9.939107E-05  4.065758E-20  7.307425E-21 -5.219589E-22  7.307425E-21
         1   2 -9.939107E-05 -9.939107E-05  6.776264E-20 -1.304897E-21 -2.087836E-21 -3.653712E-20
         1   3 -9.939107E-05 -9.939107E-05  8.131516E-20  3.732006E-20  2.557599E-20 -6.422997E-30
         1   4 -9.939107E-05 -9.939107E-05  1.897354E-19  2.870774E-20  6.889858E-20 -1.944297E-19
         1   5 -9.939107E-05 -9.939107E-05  3.997775E-44 -4.749826E-20 -1.565877E-21  3.862496E-20
         1   6 -9.939107E-05 -9.939107E-05 -2.846031E-19  8.351343E-21 -3.131754E-21  2.270521E-20
         1   7 -9.939107E-05 -9.939107E-05  1.490778E-19 -2.312278E-19  5.271785E-20  3.131754E-20
         1   8 -9.939107E-05 -9.939107E-05 -5.421011E-20 -1.753782E-19  9.604044E-20 -1.351874E-19
         2   1 -9.939107E-05 -9.939107E-05 -4.456156E-13  1.271593E-15 -1.360428E-13  2.431571E-15
         2   2 -9.939107E-05 -9.939107E-05 -4.126095E-13  7.132773E-14  1.704528E-13 -8.720891E-16
         2   3 -9.939107E-05 -9.939107E-05 -4.647855E-13  4.745649E-15 -7.316056E-14 -9.528375E-15
         2   4 -9.939107E-05 -9.939107E-05 -4.807779E-13  1.185869E-13 -1.782448E-13 -2.258354E-15
         2   5 -9.939107E-05 -9.939107E-05 -4.838671E-13 -1.334224E-13 -1.249248E-13  2.103469E-14
         2   6 -9.939107E-05 -9.939107E-05 -4.286561E-13  7.674606E-14  1.202717E-13 -1.868422E-15
         2   7 -9.939107E-05 -9.939107E-05 -4.899013E-13 -1.151451E-13  5.847030E-14  9.074751E-15
         2   8 -9.939107E-05 -9.939107E-05 -4.836891E-13 -1.006093E-14 -4.661391E-14 -3.254682E-15
         3   1 -9.939107E-05 -9.939107E-05  2.358644E-14  5.172428E-13 -4.335784E-14 -7.599215E-15
         3   2 -9.939107E-05 -9.939107E-05  2.887651E-14  1.669621E-13 -1.484420E-13  1.373806E-14
         3   3 -9.939107E-05 -9.939107E-05 -2.241089E-13  3.992010E-13 -2.748027E-13 -5.538357E-14
         3   4 -9.939107E-05 -9.939107E-05 -3.641395E-13  2.415747E-13 -6.463426E-14  8.237648E-14
         3   5 -9.939107E-05 -9.939107E-05  2.384919E-13 -2.637717E-13 -1.805851E-13  1.942369E-14
         3   6 -9.939107E-05 -9.939107E-05  4.882698E-13  8.650901E-14 -1.455571E-13 -1.736729E-14
         3   7 -9.939107E-05 -9.939107E-05  9.588076E-14 -2.188216E-13 -4.001021E-13 -2.836066E-14
         3   8 -9.939107E-05 -9.939107E-05  2.003380E-13  2.715713E-13  4.405716E-13  5.127112E-14
         4   1 -9.939107E-05 -9.939107E-05 -1.211670E-13 -2.234051E-13  1.093208E-15  1.779895E-14
         4   2 -9.939107E-05 -9.939107E-05 -9.267229E-14 -2.356438E-13 -2.063749E-15  8.392310E-14
         4   3 -9.939107E-05 -9.939107E-05 -1.795588E-14 -3.950774E-14 -1.824683E-15  1.579112E-13
         4   4 -9.939107E-05 -9.939107E-05 -1.631724E-14 -5.174642E-14 -2.211045E-15 -2.116111E-14
         4   5 -9.939107E-05 -9.939107E-05 -1.277966E-13  6.699622E-14  7.236864E-15  6.642660E-14
         4   6 -9.939107E-05 -9.939107E-05 -2.700637E-13  5.863637E-14  4.079905E-15  3.845189E-13
         4   7 -9.939107E-05 -9.939107E-05 -1.876724E-14 -1.431722E-13 -6.423440E-15  1.364827E-13
         4   8 -9.939107E-05 -9.939107E-05 -1.878904E-13 -1.515320E-13 -6.809806E-15  1.672412E-14
         5   1 -9.939107E-05 -9.939107E-05 -3.497995E-13 -7.005614E-14 -7.303677E-14  8.943495E-16
         5   2 -9.939107E-05 -9.939107E-05  1.683990E-13 -3.502807E-14 -9.930782E-14  1.335436E-13
         5   3 -9.939107E-05 -9.939107E-05 -5.801305E-13  2.101684E-13  1.582743E-14 -1.392179E-13
         5   4 -9.939107E-05 -9.939107E-05  1.322071E-13  2.889816E-13  1.582743E-14 -8.538180E-14
         5   5 -9.939107E-05 -9.939107E-05 -4.286126E-13 -1.050842E-13 -1.162081E-13  3.337760E-15
         5   6 -9.939107E-05 -9.939107E-05 -4.489707E-13 -3.502807E-14 -3.739492E-14 -2.279680E-14
         5   7 -9.939107E-05 -9.939107E-05 -1.597936E-13 -2.802246E-13 -1.510997E-13  3.337760E-15
         5   8 -9.939107E-05 -9.939107E-05  8.518441E-16 -1.751404E-13  3.042653E-13 -3.155382E-14
         6   1 -9.939107E-05 -9.939107E-05  6.733721E-14  2.889816E-13  3.411952E-15 -1.720886E-13
         6   2 -9.939107E-05 -9.939107E-05  2.745387E-13 -1.663833E-13 -8.415822E-14  5.254766E-14
         6   3 -9.939107E-05 -9.939107E-05 -2.270719E-13  4.903930E-13 -1.485035E-13 -2.071167E-13
         6   4 -9.939107E-05 -9.939107E-05  4.400319E-14  2.451965E-13 -2.185596E-13  2.714731E-13
         6   5 -9.939107E-05 -9.939107E-05  2.775056E-13  3.502807E-14  2.929581E-13 -1.637512E-13
         6   6 -9.939107E-05 -9.939107E-05  5.635202E-13  3.502807E-14 -1.448927E-13 -6.389859E-15
         6   7 -9.939107E-05 -9.939107E-05  8.818072E-14  1.401123E-13 -3.131645E-14 -2.688355E-13
         6   8 -9.939107E-05 -9.939107E-05  1.884940E-13  4.945732E-31  1.788520E-13  7.242330E-14
         7   1 -9.939107E-05 -9.939107E-05 -9.558194E-13 -1.078049E-14  7.197669E-15 -2.744387E-13
         7   2 -9.939107E-05 -9.939107E-05 -1.033753E-12 -4.023334E-14  6.854391E-14 -5.268037E-13
         7   3 -9.939107E-05 -9.939107E-05 -4.819883E-13 -1.078049E-14  9.153269E-15 -6.427029E-14
         7   4 -9.939107E-05 -9.939107E-05 -4.892602E-13 -4.023334E-14  4.757766E-14 -5.392471E-14
         7   5 -9.939107E-05 -9.939107E-05 -8.269923E-13 -2.252646E-14 -3.448417E-14 -3.474591E-13
         7   6 -9.939107E-05 -9.939107E-05 -4.057759E-13 -8.406990E-14  2.686207E-14 -9.868045E-14
         7   7 -9.939107E-05 -9.939107E-05  1.903982E-14 -2.252646E-14 -4.263936E-15  1.429339E-13
         7   8 -9.939107E-05 -9.939107E-05  9.058103E-14 -8.406990E-14  3.416046E-14  3.216564E-13
         8   1 -9.939107E-05 -9.939107E-05 -6.385732E-13  7.005614E-14 -2.718225E-14 -5.235162E-13
         8   2 -9.939107E-05 -9.939107E-05 -1.008129E-12  7.005614E-14  1.660284E-14 -1.530164E-13
         8   3 -9.939107E-05 -9.939107E-05 -5.045366E-13 -7.005614E-14 -2.447717E-14  1.770452E-13
         8   4 -9.939107E-05 -9.939107E-05 -7.242609E-13 -6.129912E-14 -1.295614E-13  1.096941E-13
         8   5 -9.939107E-05 -9.939107E-05  2.940492E-13  7.005614E-13 -1.364736E-13 -7.728944E-13
         8   6 -9.939107E-05 -9.939107E-05 -6.271985E-13  6.305053E-13  4.742377E-14 -1.147796E-13
         8   7 -9.939107E-05 -9.939107E-05  2.835950E-13  1.401123E-13  1.188184E-13 -1.423891E-13
         8   8 -9.939107E-05 -9.939107E-05 -9.344293E-13  1.050842E-13 -5.632196E-14  2.179871E-13
         9   1 -9.939107E-05 -9.939107E-05 -6.978835E-13  7.005614E-13 -5.663668E-15 -5.149171E-13
         9   2 -9.939107E-05 -9.939107E-05 -7.891092E-13  2.451965E-13  2.395328E-13 -2.694384E-13
         9   3 -9.939107E-05 -9.939107E-05 -7.021468E-13  5.604491E-13 -1.454937E-13 -9.458029E-14
         9   4 -9.939107E-05 -9.939107E-05 -8.177157E-13  3.152526E-13  6.467473E-14 -3.044665E-13
         9   5 -9.939107E-05 -9.939107E-05  3.529586E-13  2.252315E-30 -9.119324E-14 -8.108583E-13
         9   6 -9.939107E-05 -9.939107E-05  1.041067E-13  3.502807E-13  1.189752E-13 -9.172944E-14
         9   7 -9.939107E-05 -9.939107E-05  4.537795E-13 -2.802246E-13 -1.601960E-13 -2.504091E-13
         9   8 -9.939107E-05 -9.939107E-05  4.170238E-13  2.101684E-13 -1.601960E-13  1.709811E-13

 strains (elem, integ.pnt.,exx,eyy,ezz,exy,exz,eyz) forset EALL and time  0.5797813E+00

         1   1 -3.313036E-10 -3.313036E-10  2.839745E-10  4.523644E-26 -3.231174E-27  4.523644E-26
         1   2 -3.313036E-10 -3.313036E-10  2.839745E-10 -8.077936E-27 -1.292470E-26 -2.261822E-25
         1   3 -3.313036E-10 -3.313036E-10  2.839745E-10  2.310290E-25  1.583275E-25  3.976141E-35
         1   4 -3.313036E-10 -3.313036E-10  2.839745E-10  1.777146E-25  4.265150E-25 -1.203612E-24
         1   5 -3.313036E-10 -3.313036E-10  2.839745E-10 -2.940369E-25 -9.693523E-27  2.391069E-25
         1   6 -3.313036E-10 -3.313036E-10  2.839745E-10  5.169879E-26 -1.938705E-26  1.405561E-25
         1   7 -3.313036E-10 -3.313036E-10  2.839745E-10 -1.431410E-24  3.263486E-25  1.938705E-25
         1   8 -3.313036E-10 -3.313036E-10  2.839745E-10 -1.085675E-24  5.945361E-25 -8.368741E-25
         2   1 -3.313036E-10 -3.313036E-10  2.839745E-10  7.871767E-21 -8.421697E-19  1.505258E-20
         2   2 -3.313036E-10 -3.313036E-10  2.839745E-10  4.415526E-19  1.055184E-18 -5.398647E-21
         2   3 -3.313036E-10 -3.313036E-10  2.839745E-10  2.937783E-20 -4.528987E-19 -5.898518E-20
         2   4 -3.313036E-10 -3.313036E-10  2.839745E-10  7.341092E-19 -1.103420E-18 -1.398029E-20
         2   5 -3.313036E-10 -3.313036E-10  2.839745E-10 -8.259479E-19 -7.733438E-19  1.302148E-19
         2   6 -3.313036E-10 -3.313036E-10  2.839745E-10  4.750947E-19  7.445392E-19 -1.156642E-20
         2   7 -3.313036E-10 -3.313036E-10  2.839745E-10 -7.128033E-19  3.619590E-19  5.617703E-20
         2   8 -3.313036E-10 -3.313036E-10  2.839745E-10 -6.228197E-20 -2.885623E-19 -2.014803E-20
         3   1 -3.313036E-10 -3.313036E-10  2.839745E-10  3.201979E-18 -2.684056E-19 -4.704276E-20
         3   2 -3.313036E-10 -3.313036E-10  2.839745E-10  1.033575E-18 -9.189270E-19  8.504512E-20
         3   3 -3.313036E-10 -3.313036E-10  2.839745E-10  2.471244E-18 -1.701159E-18 -3.428507E-19
         3   4 -3.313036E-10 -3.313036E-10  2.839745E-10  1.495462E-18 -4.001168E-19  5.099496E-19
         3   5 -3.313036E-10 -3.313036E-10  2.839745E-10 -1.632872E-18 -1.117908E-18  1.202419E-19
         3   6 -3.313036E-10 -3.313036E-10  2.839745E-10  5.355319E-19 -9.010675E-19 -1.075118E-19
         3   7 -3.313036E-10 -3.313036E-10  2.839745E-10 -1.354610E-18 -2.476822E-18 -1.755660E-19
         3   8 -3.313036E-10 -3.313036E-10  2.839745E-10  1.681156E-18  2.727348E-18  3.173927E-19
         4   1 -3.313036E-10 -3.313036E-10  2.839745E-10 -1.382984E-18  6.767480E-21  1.101840E-19
         4   2 -3.313036E-10 -3.313036E-10  2.839745E-10 -1.458747E-18 -1.277559E-20  5.195239E-19
         4   3 -3.313036E-10 -3.313036E-10  2.839745E-10 -2.445717E-19 -1.129566E-20  9.775457E-19
         4   4 -3.313036E-10 -3.313036E-10  2.839745E-10 -3.203350E-19 -1.368742E-20 -1.309974E-19
         4   5 -3.313036E-10 -3.313036E-10  2.839745E-10  4.147385E-19  4.479963E-20  4.112123E-19
         4   6 -3.313036E-10 -3.313036E-10  2.839745E-10  3.629871E-19  2.525655E-20  2.380355E-18
         4   7 -3.313036E-10 -3.313036E-10  2.839745E-10 -8.863041E-19 -3.976416E-20  8.448932E-19
         4   8 -3.313036E-10 -3.313036E-10  2.839745E-10 -9.380555E-19 -4.215594E-20  1.035302E-19
         5   1 -3.313036E-10 -3.313036E-10  2.839745E-10 -4.336809E-19 -4.521324E-19  5.536449E-21
         5   2 -3.313036E-10 -3.313036E-10  2.839745E-10 -2.168404E-19 -6.147627E-19  8.266987E-19
         5   3 -3.313036E-10 -3.313036E-10  2.839745E-10  1.301043E-18  9.797931E-20 -8.618253E-19
         5   4 -3.313036E-10 -3.313036E-10  2.839745E-10  1.788934E-18  9.797931E-20 -5.285540E-19
         5   5 -3.313036E-10 -3.313036E-10  2.839745E-10 -6.505213E-19 -7.193833E-19  2.066233E-20
         5   6 -3.313036E-10 -3.313036E-10  2.839745E-10 -2.168404E-19 -2.314924E-19 -1.411231E-19
         5   7 -3.313036E-10 -3.313036E-10  2.839745E-10 -1.734723E-18 -9.353789E-19  2.066233E-20
         5   8 -3.313036E-10 -3.313036E-10  2.839745E-10 -1.084202E-18  1.883547E-18 -1.953332E-19
         6   1 -3.313036E-10 -3.313036E-10  2.839745E-10  1.788934E-18  2.112161E-20 -1.065311E-18
         6   2 -3.313036E-10 -3.313036E-10  2.839745E-10 -1.029992E-18 -5.209795E-19  3.252950E-19
         6   3 -3.313036E-10 -3.313036E-10  2.839745E-10  3.035766E-18 -9.193074E-19 -1.282151E-18
         6   4 -3.313036E-10 -3.313036E-10  2.839745E-10  1.517883E-18 -1.352988E-18  1.680548E-18
         6   5 -3.313036E-10 -3.313036E-10  2.839745E-10  2.168404E-19  1.813550E-18 -1.013698E-18
         6   6 -3.313036E-10 -3.313036E-10  2.839745E-10  2.168404E-19 -8.969550E-19 -3.955627E-20
         6   7 -3.313036E-10 -3.313036E-10  2.839745E-10  8.673617E-19 -1.938637E-19 -1.664219E-18
         6   8 -3.313036E-10 -3.313036E-10  2.839745E-10 -2.977649E-37  1.107179E-18  4.483347E-19
         7   1 -3.313036E-10 -3.313036E-10  2.839745E-10 -6.673638E-20  4.455700E-20 -1.698906E-18
         7   2 -3.313036E-10 -3.313036E-10  2.839745E-10 -2.490636E-19  4.243194E-19 -3.261165E-18
         7   3 -3.313036E-10 -3.313036E-10  2.839745E-10 -6.673638E-20  5.666309E-20 -3.978637E-19
         7   4 -3.313036E-10 -3.313036E-10  2.839745E-10 -2.490636E-19  2.945284E-19 -3.338196E-19
         7   5 -3.313036E-10 -3.313036E-10  2.839745E-10 -1.394495E-19 -2.134735E-19 -2.150937E-18
         7   6 -3.313036E-10 -3.313036E-10  2.839745E-10 -5.204327E-19  1.662890E-19 -6.108790E-19
         7   7 -3.313036E-10 -3.313036E-10  2.839745E-10 -1.394495E-19 -2.639580E-20  8.848288E-19
         7   8 -3.313036E-10 -3.313036E-10  2.839745E-10 -5.204327E-19  2.114695E-19  1.991206E-18
         8   1 -3.313036E-10 -3.313036E-10  2.839745E-10  4.336809E-19 -1.682711E-19 -3.240815E-18
         8   2 -3.313036E-10 -3.313036E-10  2.839745E-10  4.336809E-19  1.027795E-19 -9.472445E-19
         8   3 -3.313036E-10 -3.313036E-10  2.839745E-10 -4.336809E-19 -1.515253E-19  1.095994E-18
         8   4 -3.313036E-10 -3.313036E-10  2.839745E-10 -3.794708E-19 -8.020466E-19  6.790588E-19
         8   5 -3.313036E-10 -3.313036E-10  2.839745E-10  4.336809E-18 -8.448366E-19 -4.784584E-18
         8   6 -3.313036E-10 -3.313036E-10  2.839745E-10  3.903128E-18  2.935757E-19 -7.105404E-19
         8   7 -3.313036E-10 -3.313036E-10  2.839745E-10  8.673617E-19  7.355424E-19 -8.814565E-19
         8   8 -3.313036E-10 -3.313036E-10  2.839745E-10  6.505213E-19 -3.486598E-19  1.349444E-18
         9   1 -3.313036E-10 -3.313036E-10  2.839745E-10  4.336809E-18 -3.506080E-20 -3.187582E-18
         9   2 -3.313036E-10 -3.313036E-10  2.839745E-10  1.517883E-18  1.482822E-18 -1.667952E-18
         9   3 -3.313036E-10 -3.313036E-10  2.839745E-10  3.469447E-18 -9.006753E-19 -5.854970E-19
         9   4 -3.313036E-10 -3.313036E-10  2.839745E-10  1.951564E-18  4.003673E-19 -1.884792E-18
         9   5 -3.313036E-10 -3.313036E-10  2.839745E-10 -3.284554E-36 -5.645296E-19 -5.019599E-18
         9   6 -3.313036E-10 -3.313036E-10  2.839745E-10  2.168404E-18  7.365130E-19 -5.678489E-19
         9   7 -3.313036E-10 -3.313036E-10  2.839745E-10 -1.734723E-18 -9.916895E-19 -1.550152E-18
         9   8 -3.313036E-10 -3.313036E-10  2.839745E-10  1.301043E-18 -9.916895E-19  1.058454E-18

 displacements (vx,vy,vz) for set NALL and time  0.5887813E+00

         1  0.000000E+00  0.000000E+00  0.000000E+00
         2 -1.682232E-07  0.000000E+00  0.000000E+00
         3 -8.831719E+00  0.000000E+00  0.000000E+00
         4 -8.831719E+00  0.000000E+00  0.000000E+00
         5 -1.766344E+01  0.000000E+00  0.000000E+00
         6 -1.766344E+01  0.000000E+00  0.000000E+00
         7  0.000000E+00 -1.682232E-07  0.000000E+00
         8 -1.682232E-07 -1.682232E-07  0.000000E+00
         9 -8.831719E+00 -1.682232E-07  0.000000E+00
        10 -8.831719E+00 -1.682232E-07  0.000000E+00
        11 -1.766344E+01 -1.682232E-07  0.000000E+00
        12 -1.766344E+01 -1.682232E-07  0.000000E+00
        13  0.000000E+00 -8.831719E+00  0.000000E+00
        14 -1.682232E-07 -8.831719E+00  0.000000E+00
        15 -8.831719E+00 -8.831719E+00  0.000000E+00
        16 -8.831719E+00 -8.831719E+00  0.000000E+00
        17 -1.766344E+01 -8.831719E+00  0.000000E+00
        18 -1.766344E+01 -8.831719E+00  0.000000E+00
        19  0.000000E+00 -8.831719E+00  0.000000E+00
        20 -1.682232E-07 -8.831719E+00  0.000000E+00
        21 -8.831719E+00 -8.831719E+00  0.000000E+00
        22 -8.831719E+00 -8.831719E+00  0.000000E+00
        23 -1.766344E+01 -8.831719E+00  0.000000E+00
        24 -1.766344E+01 -8.831719E+00  0.000000E+00
        25  0.000000E+00 -1.766344E+01  0.000000E+00
        26 -1.682232E-07 -1.766344E+01  0.000000E+00
        27 -8.831719E+00 -1.766344E+01  0.000000E+00
        28 -8.831719E+00 -1.766344E+01  0.000000E+00
        29 -1.766344E+01 -1.766344E+01  0.000000E+00
        30 -1.766344E+01 -1.766344E+01  0.000000E+00
        31  0.000000E+00 -1.766344E+01  0.000000E+00
        32 -1.682232E-07 -1.766344E+01  0.000000E+00
        33 -8.831719E+00 -1.766344E+01  0.000000E+00
        34 -8.831719E+00 -1.766344E+01  0.000000E+00
        35 -1.766344E+01 -1.766344E+01  0.000000E+00
        36 -1.766344E+01 -1.766344E+01  0.000000E+00
        37  0.000000E+00  0.000000E+00  2.018679E-07
        38 -1.682232E-07  0.000000E+00  2.018679E-07
        39 -8.831719E+00  0.000000E+00  2.018679E-07
        40 -8.831719E+00  0.000000E+00  2.018679E-07
        41 -1.766344E+01  0.000000E+00  2.018679E-07
        42 -1.766344E+01  0.000000E+00  2.018679E-07
        43  0.000000E+00 -1.682232E-07  2.018679E-07
        44 -1.682232E-07 -1.682232E-07  2.018679E-07
        45 -8.831719E+00 -1.682232E-07  2.018679E-07
        46 -8.831719E+00 -1.682232E-07  2.018679E-07
        47 -1.766344E+01 -1.682232E-07  2.018679E-07
        48 -1.766344E+01 -1.682232E-07  2.018679E-07
        49  0.000000E+00 -8.831719E+00  2.018679E-07
        50 -1.682232E-07 -8.831719E+00  2.018679E-07
        51 -8.831719E+00 -8.831719E+00  2.018679E-07
        52 -8.831719E+00 -8.831719E+00  2.018679E-07
        53 -1.766344E+01 -8.831719E+00  2.018679E-07
        54 -1.766344E+01 -8.831719E+00  2.018679E-07
        55  0.000000E+00 -8.831719E+00  2.018679E-07
        56 -1.682232E-07 -8.831719E+00  2.018679E-07
        57 -8.831719E+00 -8.831719E+00  2.018679E-07
        58 -8.831719E+00 -8.831719E+00  2.018679E-07
        59 -1.766344E+01 -8.831719E+00  2.018679E-07
        60 -1.766344E+01 -8.831719E+00  2.018679E-07
        61  0.000000E+00 -1.766344E+01  2.018679E-07
        62 -1.682232E-07 -1.766344E+01  2.018679E-07
        63 -8.831719E+00 -1.766344E+01  2.018679E-07
        64 -8.831719E+00 -1.766344E+01  2.018679E-07
        65 -1.766344E+01 -1.766344E+01  2.018679E-07
        66 -1.766344E+01 -1.766344E+01  2.018679E-07
        67  0.000000E+00 -1.766344E+01  2.018679E-07
        68 -1.682232E-07 -1.766344E+01  2.018679E-07
        69 -8.831719E+00 -1.766344E+01  2.018679E-07
        70 -8.831719E+00 -1.766344E+01  2.018679E-07
        71 -1.766344E+01 -1.766344E+01  2.018679E-07
        72 -1.766344E+01 -1.766344E+01  2.018679E-07

 stresses (elem, integ.pnt.,sxx,syy,szz,sxy,sxz,syz) for set EALL and time  0.5887813E+00

         1   1 -1.009339E-04 -1.009339E-04  4.747611E-46 -7.046445E-21  3.001264E-21  5.219589E-22
         1   2 -1.009339E-04 -1.009339E-04  2.710505E-20 -1.435387E-20 -4.958610E-21  7.829384E-22
         1   3 -1.009339E-04 -1.009339E-04  5.421011E-20 -1.983444E-20 -1.043918E-21 -9.395261E-21
         1   4 -1.009339E-04 -1.009339E-04  2.710505E-20 -2.714186E-20 -1.043918E-21  4.697630E-21
         1   5 -1.009339E-04 -1.009339E-04 -4.065758E-20  3.131754E-21  1.944297E-20  1.200506E-20
         1   6 -1.009339E-04 -1.009339E-04  2.710505E-20  3.131754E-21  1.148310E-20 -2.348815E-21
         1   7 -1.009339E-04 -1.009339E-04  8.635086E-46  1.252701E-20 -5.219589E-22  2.087836E-21
         1   8 -1.009339E-04 -1.009339E-04  1.355253E-20  1.252701E-20  2.428618E-46  1.565877E-21
         2   1 -1.009339E-04 -1.009339E-04 -9.682382E-14 -1.786039E-13 -1.382027E-13  6.944946E-15
         2   2 -1.009339E-04 -1.009339E-04 -9.797514E-14 -1.698469E-13  7.196573E-14 -3.093044E-15
         2   3 -1.009339E-04 -1.009339E-04  9.309913E-14 -1.880666E-13  1.250541E-13 -2.762409E-15
         2   4 -1.009339E-04 -1.009339E-04 -2.394383E-14 -1.705526E-13 -1.551704E-13  6.131962E-15
         2   5 -1.009339E-04 -1.009339E-04  2.637210E-13  1.463503E-13 -1.329856E-13  3.562625E-14
         2   6 -1.009339E-04 -1.009339E-04  3.023276E-13 -2.879004E-14 -8.920052E-14 -2.076841E-14
         2   7 -1.009339E-04 -1.009339E-04  2.017161E-14  1.633929E-13  8.391457E-14  2.591890E-14
         2   8 -1.009339E-04 -1.009339E-04 -5.711340E-14  5.830873E-14  1.385843E-14 -1.154340E-14
         3   1 -1.009339E-04 -1.009339E-04  3.583947E-13  1.642506E-13  1.052822E-13  1.927865E-14
         3   2 -1.009339E-04 -1.009339E-04  2.194214E-13 -1.088970E-14  1.771200E-14 -1.741066E-14
         3   3 -1.009339E-04 -1.009339E-04  6.587267E-14  2.301979E-13 -7.749468E-14  2.082296E-14
         3   4 -1.009339E-04 -1.009339E-04 -3.645049E-13  5.505755E-14 -7.438537E-15  4.583460E-16
         3   5 -1.009339E-04 -1.009339E-04 -1.637834E-13  3.250373E-14  8.018068E-14  7.040460E-14
         3   6 -1.009339E-04 -1.009339E-04 -2.684747E-13  1.025599E-13  2.202930E-13 -8.284647E-14
         3   7 -1.009339E-04 -1.009339E-04  1.741999E-13  1.213056E-13 -2.892141E-13  7.194891E-14
         3   8 -1.009339E-04 -1.009339E-04 -2.218958E-13 -2.289751E-13  1.311228E-13 -6.497747E-14
         4   1 -1.009339E-04 -1.009339E-04 -2.005713E-14 -5.511342E-15 -1.660016E-15 -8.753272E-14
         4   2 -1.009339E-04 -1.009339E-04  4.006874E-14 -2.056861E-14  1.279645E-15 -1.296891E-13
         4   3 -1.009339E-04 -1.009339E-04  7.723583E-14 -5.511342E-15  1.595156E-15  1.755149E-14
         4   4 -1.009339E-04 -1.009339E-04  1.484860E-13 -2.056861E-14  8.978378E-15  1.242644E-13
         4   5 -1.009339E-04 -1.009339E-04 -6.642599E-14 -3.234303E-15 -9.134933E-15 -1.446654E-13
         4   6 -1.009339E-04 -1.009339E-04  1.775973E-13 -1.207058E-14 -6.195270E-15 -2.474569E-14
         4   7 -1.009339E-04 -1.009339E-04  4.019849E-14 -3.234304E-15 -1.430022E-15 -7.460923E-14
         4   8 -1.009339E-04 -1.009339E-04  2.953461E-13 -1.207058E-14  5.953200E-15  3.655343E-14
         5   1 -1.009339E-04 -1.009339E-04 -2.977915E-13 -1.225982E-13 -9.419422E-14 -1.295696E-13
         5   2 -1.009339E-04 -1.009339E-04  2.072542E-13  3.502807E-14 -4.165211E-14  1.119536E-13
         5   3 -1.009339E-04 -1.009339E-04 -6.815710E-14  7.005614E-14  1.035439E-13  1.054272E-14
         5   4 -1.009339E-04 -1.009339E-04  4.176657E-13  9.632719E-14 -1.416526E-13 -1.069718E-13
         5   5 -1.009339E-04 -1.009339E-04  2.801717E-13  3.502807E-13 -9.008453E-14 -1.708225E-13
         5   6 -1.009339E-04 -1.009339E-04  1.022129E-14  4.553649E-13  1.288409E-13  2.798349E-14
         5   7 -1.009339E-04 -1.009339E-04  2.996376E-13 -1.631366E-30  1.437495E-13  3.934596E-14
         5   8 -1.009339E-04 -1.009339E-04 -2.128396E-13  2.802246E-13 -1.014470E-13 -2.522411E-13
         6   1 -1.009339E-04 -1.009339E-04  6.230514E-14 -1.926544E-13  5.924523E-14 -2.474626E-15
         6   2 -1.009339E-04 -1.009339E-04  6.727843E-14 -3.502807E-14  5.924523E-14 -1.291145E-13
         6   3 -1.009339E-04 -1.009339E-04  4.540312E-14 -1.401123E-13  2.916431E-13 -1.425869E-13
         6   4 -1.009339E-04 -1.009339E-04  1.365287E-13  2.802246E-13  8.147467E-14 -2.604697E-13
         6   5 -1.009339E-04 -1.009339E-04 -4.631159E-13  7.005614E-14 -4.034687E-14 -7.929157E-14
         6   6 -1.009339E-04 -1.009339E-04 -6.407685E-14 -2.101684E-13  1.172794E-13 -1.802275E-13
         6   7 -1.009339E-04 -1.009339E-04 -2.698495E-13  2.802246E-13  3.228391E-13 -1.493477E-13
         6   8 -1.009339E-04 -1.009339E-04  2.284773E-13  1.401123E-13 -2.376100E-13  3.669828E-15
         7   1 -1.009339E-04 -1.009339E-04 -1.241022E-13  4.848418E-14  1.353350E-14 -6.354638E-14
         7   2 -1.009339E-04 -1.009339E-04 -6.260841E-14 -1.045151E-14  2.591020E-14 -2.355559E-14
         7   3 -1.009339E-04 -1.009339E-04  3.104491E-13 -2.157196E-14 -2.042965E-14 -2.036587E-13
         7   4 -1.009339E-04 -1.009339E-04  1.665927E-13 -8.050765E-14 -1.870193E-14  1.165567E-13
         7   5 -1.009339E-04 -1.009339E-04  2.171415E-13  2.531957E-13  3.813101E-14 -4.148136E-13
         7   6 -1.009339E-04 -1.009339E-04  3.837195E-13  1.793514E-13  5.050771E-14  1.591610E-14
         7   7 -1.009339E-04 -1.009339E-04  6.293299E-13 -2.702888E-14 -7.797221E-14 -2.747013E-13
         7   8 -1.009339E-04 -1.009339E-04  5.905578E-13 -1.008731E-13 -7.624449E-14 -3.662600E-14
         8   1 -1.009339E-04 -1.009339E-04 -2.566538E-13 -1.401123E-13  5.025418E-14  2.090085E-13
         8   2 -1.009339E-04 -1.009339E-04 -4.757331E-14  8.757018E-15 -1.980196E-14  2.086539E-13
         8   3 -1.009339E-04 -1.009339E-04  3.584066E-13 -1.401123E-13  8.492772E-14 -2.113284E-13
         8   4 -1.009339E-04 -1.009339E-04  1.128443E-13  5.254211E-14  4.989965E-14 -7.157064E-14
         8   5 -1.009339E-04 -1.009339E-04 -6.901262E-13 -1.401123E-13  2.179655E-14 -1.632128E-13
         8   6 -1.009339E-04 -1.009339E-04  3.596280E-13  1.751404E-13  1.268808E-13  6.440394E-14
         8   7 -1.009339E-04 -1.009339E-04  2.533224E-13 -1.401123E-13 -6.583931E-14 -2.310055E-14
         8   8 -1.009339E-04 -1.009339E-04  5.069101E-13  2.101684E-13  1.093010E-13 -1.457645E-13
         9   1 -1.009339E-04 -1.009339E-04 -1.833463E-13 -2.101684E-13 -5.079480E-13 -2.670128E-13
         9   2 -1.009339E-04 -1.009339E-04 -6.680985E-14 -5.254211E-14  3.152116E-13  2.660193E-13
         9   3 -1.009339E-04 -1.009339E-04 -9.310798E-14 -2.101684E-13  2.877946E-13  1.321180E-14
         9   4 -1.009339E-04 -1.009339E-04  8.995157E-14  2.101684E-13  7.762617E-14  3.833686E-14
         9   5 -1.009339E-04 -1.009339E-04 -7.087673E-13  1.075102E-30 -4.157970E-13 -9.080516E-14
         9   6 -1.009339E-04 -1.009339E-04 -1.981651E-13  7.005614E-14  1.621662E-13  2.656734E-13
         9   7 -1.009339E-04 -1.009339E-04 -4.083606E-13  1.724682E-32  2.825174E-14  4.930712E-14
         9   8 -1.009339E-04 -1.009339E-04  6.368053E-14 -3.502807E-13 -2.519728E-13 -2.072056E-13

 strains (elem, integ.pnt.,exx,eyy,ezz,exy,exz,eyz) forset EALL and time  0.5887813E+00

         1   1 -3.364464E-10 -3.364464E-10  2.883826E-10 -4.362085E-26  1.857925E-26  3.231174E-27
         1   2 -3.364464E-10 -3.364464E-10  2.883826E-10 -8.885729E-26 -3.069616E-26  4.846761E-27
         1   3 -3.364464E-10 -3.364464E-10  2.883826E-10 -1.227846E-25 -6.462349E-27 -5.816114E-26
         1   4 -3.364464E-10 -3.364464E-10  2.883826E-10 -1.680211E-25 -6.462349E-27  2.908057E-26
         1   5 -3.364464E-10 -3.364464E-10  2.883826E-10  1.938705E-26  1.203612E-25  7.431701E-26
         1   6 -3.364464E-10 -3.364464E-10  2.883826E-10  1.938705E-26  7.108583E-26 -1.454028E-26
         1   7 -3.364464E-10 -3.364464E-10  2.883826E-10  7.754818E-26 -3.231174E-27  1.292470E-26
         1   8 -3.364464E-10 -3.364464E-10  2.883826E-10  7.754818E-26  5.512577E-51  9.693523E-27
         2   1 -3.364464E-10 -3.364464E-10  2.883826E-10 -1.105643E-18 -8.555405E-19  4.299252E-20
         2   2 -3.364464E-10 -3.364464E-10  2.883826E-10 -1.051433E-18  4.455021E-19 -1.914742E-20
         2   3 -3.364464E-10 -3.364464E-10  2.883826E-10 -1.164222E-18  7.741447E-19 -1.710063E-20
         2   4 -3.364464E-10 -3.364464E-10  2.883826E-10 -1.055802E-18 -9.605787E-19  3.795977E-20
         2   5 -3.364464E-10 -3.364464E-10  2.883826E-10  9.059781E-19 -8.232442E-19  2.205435E-19
         2   6 -3.364464E-10 -3.364464E-10  2.883826E-10 -1.782240E-19 -5.521937E-19 -1.285663E-19
         2   7 -3.364464E-10 -3.364464E-10  2.883826E-10  1.011480E-18  5.194712E-19  1.604503E-19
         2   8 -3.364464E-10 -3.364464E-10  2.883826E-10  3.609588E-19  8.579029E-20 -7.145916E-20
         3   1 -3.364464E-10 -3.364464E-10  2.883826E-10  1.016790E-18  6.517468E-19  1.193440E-19
         3   2 -3.364464E-10 -3.364464E-10  2.883826E-10 -6.741244E-20  1.096457E-19 -1.077803E-19
         3   3 -3.364464E-10 -3.364464E-10  2.883826E-10  1.425035E-18 -4.797290E-19  1.289040E-19
         3   4 -3.364464E-10 -3.364464E-10  2.883826E-10  3.408324E-19 -4.604809E-20  2.837380E-21
         3   5 -3.364464E-10 -3.364464E-10  2.883826E-10  2.012135E-19  4.963566E-19  4.358380E-19
         3   6 -3.364464E-10 -3.364464E-10  2.883826E-10  6.348944E-19  1.363718E-18 -5.128591E-19
         3   7 -3.364464E-10 -3.364464E-10  2.883826E-10  7.509392E-19 -1.790373E-18  4.453980E-19
         3   8 -3.364464E-10 -3.364464E-10  2.883826E-10 -1.417465E-18  8.117124E-19 -4.022415E-19
         4   1 -3.364464E-10 -3.364464E-10  2.883826E-10 -3.411783E-20 -1.027629E-20 -5.418692E-19
         4   2 -3.364464E-10 -3.364464E-10  2.883826E-10 -1.273295E-19  7.921613E-21 -8.028372E-19
         4   3 -3.364464E-10 -3.364464E-10  2.883826E-10 -3.411783E-20  9.874776E-21  1.086521E-19
         4   4 -3.364464E-10 -3.364464E-10  2.883826E-10 -1.273295E-19  5.558044E-20  7.692559E-19
         4   5 -3.364464E-10 -3.364464E-10  2.883826E-10 -2.002188E-20 -5.654958E-20 -8.955476E-19
         4   6 -3.364464E-10 -3.364464E-10  2.883826E-10 -7.472265E-20 -3.835167E-20 -1.531876E-19
         4   7 -3.364464E-10 -3.364464E-10  2.883826E-10 -2.002188E-20 -8.852519E-21 -4.618667E-19
         4   8 -3.364464E-10 -3.364464E-10  2.883826E-10 -7.472265E-20  3.685315E-20  2.262832E-19
         5   1 -3.364464E-10 -3.364464E-10  2.883826E-10 -7.589415E-19 -5.831071E-19 -8.020973E-19
         5   2 -3.364464E-10 -3.364464E-10  2.883826E-10  2.168404E-19 -2.578464E-19  6.930463E-19
         5   3 -3.364464E-10 -3.364464E-10  2.883826E-10  4.336809E-19  6.409860E-19  6.526445E-20
         5   4 -3.364464E-10 -3.364464E-10  2.883826E-10  5.963112E-19 -8.768970E-19 -6.622064E-19
         5   5 -3.364464E-10 -3.364464E-10  2.883826E-10  2.168404E-18 -5.576662E-19 -1.057472E-18
         5   6 -3.364464E-10 -3.364464E-10  2.883826E-10  2.818926E-18  7.975866E-19  1.732311E-19
         5   7 -3.364464E-10 -3.364464E-10  2.883826E-10  1.012087E-35  8.898777E-19  2.435703E-19
         5   8 -3.364464E-10 -3.364464E-10  2.883826E-10  1.734723E-18 -6.280053E-19 -1.561492E-18
         6   1 -3.364464E-10 -3.364464E-10  2.883826E-10 -1.192622E-18  3.667562E-19 -1.531911E-20
         6   2 -3.364464E-10 -3.364464E-10  2.883826E-10 -2.168404E-19  3.667562E-19 -7.992801E-19
         6   3 -3.364464E-10 -3.364464E-10  2.883826E-10 -8.673617E-19  1.805410E-18 -8.826809E-19
         6   4 -3.364464E-10 -3.364464E-10  2.883826E-10  1.734723E-18  5.043670E-19 -1.612432E-18
         6   5 -3.364464E-10 -3.364464E-10  2.883826E-10  4.336809E-19 -2.497663E-19 -4.908526E-19
         6   6 -3.364464E-10 -3.364464E-10  2.883826E-10 -1.301043E-18  7.260156E-19 -1.115694E-18
         6   7 -3.364464E-10 -3.364464E-10  2.883826E-10  1.734723E-18  1.998528E-18 -9.245334E-19
         6   8 -3.364464E-10 -3.364464E-10  2.883826E-10  8.673617E-19 -1.470919E-18  2.271799E-20
         7   1 -3.364464E-10 -3.364464E-10  2.883826E-10  3.001402E-19  8.377881E-20 -3.933823E-19
         7   2 -3.364464E-10 -3.364464E-10  2.883826E-10 -6.469983E-20  1.603965E-19 -1.458203E-19
         7   3 -3.364464E-10 -3.364464E-10  2.883826E-10 -1.335407E-19 -1.264693E-19 -1.260744E-18
         7   4 -3.364464E-10 -3.364464E-10  2.883826E-10 -4.983807E-19 -1.157739E-19  7.215414E-19
         7   5 -3.364464E-10 -3.364464E-10  2.883826E-10  1.567402E-18  2.360491E-19 -2.567893E-18
         7   6 -3.364464E-10 -3.364464E-10  2.883826E-10  1.110271E-18  3.126668E-19  9.852824E-20
         7   7 -3.364464E-10 -3.364464E-10  2.883826E-10 -1.673216E-19 -4.826851E-19 -1.700532E-18
         7   8 -3.364464E-10 -3.364464E-10  2.883826E-10 -6.244528E-19 -4.719897E-19 -2.267324E-19
         8   1 -3.364464E-10 -3.364464E-10  2.883826E-10 -8.673617E-19  3.110973E-19  1.293862E-18
         8   2 -3.364464E-10 -3.364464E-10  2.883826E-10  5.421011E-20 -1.225836E-19  1.291667E-18
         8   3 -3.364464E-10 -3.364464E-10  2.883826E-10 -8.673617E-19  5.257430E-19 -1.308223E-18
         8   4 -3.364464E-10 -3.364464E-10  2.883826E-10  3.252607E-19  3.089026E-19 -4.430564E-19
         8   5 -3.364464E-10 -3.364464E-10  2.883826E-10 -8.673617E-19  1.349310E-19 -1.010365E-18
         8   6 -3.364464E-10 -3.364464E-10  2.883826E-10  1.084202E-18  7.854523E-19  3.986910E-19
         8   7 -3.364464E-10 -3.364464E-10  2.883826E-10 -8.673617E-19 -4.075767E-19 -1.430034E-19
         8   8 -3.364464E-10 -3.364464E-10  2.883826E-10  1.301043E-18  6.766255E-19 -9.023516E-19
         9   1 -3.364464E-10 -3.364464E-10  2.883826E-10 -1.301043E-18 -3.144440E-18 -1.652936E-18
         9   2 -3.364464E-10 -3.364464E-10  2.883826E-10 -3.252607E-19  1.951310E-18  1.646786E-18
         9   3 -3.364464E-10 -3.364464E-10  2.883826E-10 -1.301043E-18  1.781586E-18  8.178735E-20
         9   4 -3.364464E-10 -3.364464E-10  2.883826E-10  1.301043E-18  4.805430E-19  2.373234E-19
         9   5 -3.364464E-10 -3.364464E-10  2.883826E-10 -2.475921E-37 -2.573981E-18 -5.621272E-19
         9   6 -3.364464E-10 -3.364464E-10  2.883826E-10  4.336809E-19  1.003886E-18  1.644645E-18
         9   7 -3.364464E-10 -3.364464E-10  2.883826E-10  1.067660E-37  1.748918E-19  3.052346E-19
         9   8 -3.364464E-10 -3.364464E-10  2.883826E-10 -2.168404E-18 -1.559832E-18 -1.282701E-18

 displacements (vx,vy,vz) for set NALL and time  0.5977813E+00

         1  0.000000E+00  0.000000E+00  0.000000E+00
         2 -1.707946E-07  0.000000E+00  0.000000E+00
         3 -8.966719E+00  0.000000E+00  0.000000E+00
         4 -8.966719E+00  0.000000E+00  0.000000E+00
         5 -1.793344E+01  0.000000E+00  0.000000E+00
         6 -1.793344E+01  0.000000E+00  0.000000E+00
         7  0.000000E+00 -1.707946E-07  0.000000E+00
         8 -1.707946E-07 -1.707946E-07  0.000000E+00
         9 -8.966719E+00 -1.707946E-07  0.000000E+00
        10 -8.966719E+00 -1.707946E-07  0.000000E+00
        11 -1.793344E+01 -1.707946E-07  0.000000E+00
        12 -1.793344E+01 -1.707946E-07  0.000000E+00
        13  0.000000E+00 -8.966719E+00  0.000000E+00
        14 -1.707946E-07 -8.966719E+00  0.000000E+00
        15 -8.966719E+00 -8.966719E+00  0.000000E+00
        16 -8.966719E+00 -8.966719E+00  0.000000E+00
        17 -1.793344E+01 -8.966719E+00  0.000000E+00
        18 -1.793344E+01 -8.966719E+00  0.000000E+00
        19  0.000000E+00 -8.966719E+00  0.000000E+00
        20 -1.707946E-07 -8.966719E+00  0.000000E+00
        21 -8.966719E+00 -8.966719E+00  0.000000E+00
        22 -8.966719E+00 -8.966719E+00  0.000000E+00
        23 -1.793344E+01 -8.966719E+00  0.000000E+00
        24 -1.793344E+01 -8.966719E+00  0.000000E+00
        25  0.000000E+00 -1.793344E+01  0.000000E+00
        26 -1.707946E-07 -1.793344E+01  0.000000E+00
        27 -8.966719E+00 -1.793344E+01  0.000000E+00
        28 -8.966719E+00 -1.793344E+01  0.000000E+00
        29 -1.793344E+01 -1.793344E+01  0.000000E+00
        30 -1.793344E+01 -1.793344E+01  0.000000E+00
        31  0.000000E+00 -1.793344E+01  0.000000E+00
        32 -1.707946E-07 -1.793344E+01  0.000000E+00
        33 -8.966719E+00 -1.793344E+01  0.000000E+00
        34 -8.966719E+00 -1.793344E+01  0.000000E+00
        35 -1.793344E+01 -1.793344E+01  0.000000E+00
        36 -1.793344E+01 -1.793344E+01  0.000000E+00
        37  0.000000E+00  0.000000E+00  2.049536E-07
        38 -1.707946E-07  0.000000E+00  2.049536E-07
        39 -8.966719E+00  0.000000E+00  2.049536E-07
        40 -8.966719E+00  0.000000E+00  2.049536E-07
        41 -1.793344E+01  0.000000E+00  2.049536E-07
        42 -1.793344E+01  0.000000E+00  2.049536E-07
        43  0.000000E+00 -1.707946E-07  2.049536E-07
        44 -1.707946E-07 -1.707946E-07  2.049536E-07
        45 -8.966719E+00 -1.707946E-07  2.049536E-07
        46 -8.966719E+00 -1.707946E-07  2.049536E-07
        47 -1.793344E+01 -1.707946E-07  2.049536E-07
        48 -1.793344E+01 -1.707946E-07  2.049536E-07
        49  0.000000E+00 -8.966719E+00  2.049536E-07
        50 -1.707946E-07 -8.966719E+00  2.049536E-07
        51 -8.966719E+00 -8.966719E+00  2.049536E-07
        52 -8.966719E+00 -8.966719E+00  2.049536E-07
        53 -1.793344E+01 -8.966719E+00  2.049536E-07
        54 -1.793344E+01 -8.966719E+00  2.049536E-07
        55  0.000000E+00 -8.966719E+00  2.049536E-07
        56 -1.707946E-07 -8.966719E+00  2.049536E-07
        57 -8.966719E+00 -8.966719E+00  2.049536E-07
        58 -8.966719E+00 -8.966719E+00  2.049536E-07
        59 -1.793344E+01 -8.966719E+00  2.049536E-07
        60 -1.793344E+01 -8.966719E+00  2.049536E-07
        61  0.000000E+00 -1.793344E+01  2.049536E-07
        62 -1.707946E-07 -1.793344E+01  2.049536E-07
        63 -8.966719E+00 -1.793344E+01  2.049536E-07
        64 -8.966719E+00 -1.793344E+01  2.049536E-07
        65 -1.793344E+01 -1.793344E+01  2.049536E-07
        66 -1.793344E+01 -1.793344E+01  2.049536E-07
        67  0.000000E+00 -1.793344E+01  2.049536E-07
        68 -1.707946E-07 -1.793344E+01  2.049536E-07
        69 -8.966719E+00 -1.793344E+01  2.049536E-07
        70 -8.966719E+00 -1.793344E+01  2.049536E-07
        71 -1.793344E+01 -1.793344E+01  2.049536E-07
        72 -1.793344E+01 -1.793344E+01  2.049536E-07

 stresses (elem, integ.pnt.,sxx,syy,szz,sxy,sxz,syz) for set EALL and time  0.5977813E+00

         1   1 -1.024768E-04 -1.024768E-04  1.548244E-45 -2.348815E-21 -3.262243E-21  8.351343E-21
         1   2 -1.024768E-04 -1.024768E-04  2.453916E-46 -2.087836E-20 -1.565877E-21 -2.740284E-21
         1   3 -1.024768E-04 -1.024768E-04  1.355253E-20  9.656240E-21 -4.175671E-21  1.670269E-20
         1   4 -1.024768E-04 -1.024768E-04 -5.421011E-20 -8.873302E-21  1.774660E-20 -6.524487E-21
         1   5 -1.024768E-04 -1.024768E-04  2.014066E-44  2.609795E-21 -1.161359E-20  2.714186E-20
         1   6 -1.024768E-04 -1.024768E-04  5.218155E-45  9.917219E-21 -9.917219E-21 -1.030869E-20
         1   7 -1.024768E-04 -1.024768E-04  5.421011E-20 -1.043918E-21 -3.810300E-20  3.340537E-20
         1   8 -1.024768E-04 -1.024768E-04 -2.710505E-20  8.351343E-21 -1.670269E-20 -1.409289E-20
         2   1 -1.024768E-04 -1.024768E-04  5.220726E-14 -2.835651E-13 -3.912054E-14  6.003780E-16
         2   2 -1.024768E-04 -1.024768E-04  1.056521E-14  1.893138E-13  4.664547E-15 -7.455347E-16
         2   3 -1.024768E-04 -1.024768E-04  4.036872E-13 -2.926918E-13 -1.038314E-14 -1.750448E-14
         2   4 -1.024768E-04 -1.024768E-04  3.190790E-13  2.239723E-13 -2.906077E-13 -5.341071E-15
         2   5 -1.024768E-04 -1.024768E-04  1.051527E-15 -1.365302E-13 -5.030138E-14  2.034550E-14
         2   6 -1.024768E-04 -1.024768E-04 -1.222092E-14  7.363822E-14  2.240728E-15  1.813162E-15
         2   7 -1.024768E-04 -1.024768E-04  5.041433E-14 -1.267438E-13 -3.875040E-14  2.240642E-15
         2   8 -1.024768E-04 -1.024768E-04 -5.824212E-15  1.184527E-13 -1.088065E-13 -2.782376E-15
         3   1 -1.024768E-04 -1.024768E-04 -1.165435E-13 -1.297058E-14 -5.571219E-14  9.806172E-15
         3   2 -1.024768E-04 -1.024768E-04 -7.172687E-14  1.621698E-13  4.937202E-14 -4.806924E-15
         3   3 -1.024768E-04 -1.024768E-04  3.459593E-14 -4.840685E-14  2.581928E-13 -2.385863E-14
         3   4 -1.024768E-04 -1.024768E-04 -1.690381E-13  3.916332E-14  1.881367E-13  2.098479E-14
         3   5 -1.024768E-04 -1.024768E-04 -2.923238E-13 -2.627275E-13  1.235885E-13  7.026194E-14
         3   6 -1.024768E-04 -1.024768E-04 -1.226485E-13 -1.226152E-13 -1.040940E-13 -4.373140E-14
         3   7 -1.024768E-04 -1.024768E-04 -1.411844E-13 -2.149246E-13 -8.222357E-14  3.659714E-14
         3   8 -1.024768E-04 -1.024768E-04 -2.199597E-13  6.529992E-14  1.980010E-13 -1.793969E-14
         4   1 -1.024768E-04 -1.024768E-04  1.599774E-13  2.064584E-13  3.614582E-15  1.822760E-13
         4   2 -1.024768E-04 -1.024768E-04 -3.842988E-14  1.963225E-13  3.531135E-15 -1.171770E-13
         4   3 -1.024768E-04 -1.024768E-04  1.935109E-13 -3.873808E-14 -2.203063E-15  7.135652E-15
         4   4 -1.024768E-04 -1.024768E-04 -7.641766E-14 -4.887400E-14  1.042791E-14 -7.339193E-14
         4   5 -1.024768E-04 -1.024768E-04 -2.079926E-13 -2.774192E-13  1.357326E-14  6.165869E-14
         4   6 -1.024768E-04 -1.024768E-04  2.707250E-14 -2.697550E-13  1.348981E-14 -2.138608E-13
         4   7 -1.024768E-04 -1.024768E-04 -1.477588E-13 -1.373070E-13 -2.085291E-14  2.663062E-14
         4   8 -1.024768E-04 -1.024768E-04  1.578499E-14 -1.296427E-13 -8.221945E-15 -8.250550E-14
         5   1 -1.024768E-04 -1.024768E-04  3.170068E-13 -7.881316E-14  4.973591E-14 -2.373799E-13
         5   2 -1.024768E-04 -1.024768E-04  4.437343E-13 -1.488693E-13  6.724995E-14  1.157763E-13
         5   3 -1.024768E-04 -1.024768E-04  1.470908E-13 -1.401123E-13  1.401817E-13 -1.322957E-13
         5   4 -1.024768E-04 -1.024768E-04  2.395134E-13 -3.064956E-13 -6.998676E-14 -7.687806E-14
         5   5 -1.024768E-04 -1.024768E-04 -1.690077E-13  7.005614E-14 -8.522187E-14 -7.591246E-14
         5   6 -1.024768E-04 -1.024768E-04  8.907504E-14  1.050842E-13 -1.114929E-13  1.832535E-14
         5   7 -1.024768E-04 -1.024768E-04 -1.681618E-13  1.401123E-13  1.403712E-13 -1.109405E-13
         5   8 -1.024768E-04 -1.024768E-04  4.248045E-14  7.005614E-14 -1.048253E-13  1.847087E-13
         6   1 -1.024768E-04 -1.024768E-04  4.325055E-14  5.995231E-31  9.443084E-14  2.009496E-13
         6   2 -1.024768E-04 -1.024768E-04 -4.657924E-13  8.757018E-14  9.443084E-14 -8.964157E-14
         6   3 -1.024768E-04 -1.024768E-04 -1.971496E-14  1.812553E-30  2.504475E-13  2.710058E-13
         6   4 -1.024768E-04 -1.024768E-04  2.081262E-16 -2.802246E-13  1.803914E-13  1.467979E-13
         6   5 -1.024768E-04 -1.024768E-04 -9.291586E-15 -2.802246E-13  1.797952E-13  1.057073E-13
         6   6 -1.024768E-04 -1.024768E-04 -4.789279E-13  7.005614E-14  3.968297E-14 -2.759100E-14
         6   7 -1.024768E-04 -1.024768E-04 -7.225706E-14 -1.454414E-31 -1.111294E-13  1.057073E-13
         6   8 -1.024768E-04 -1.024768E-04 -1.180116E-13 -3.502807E-13  2.898290E-14  2.701476E-13
         7   1 -1.024768E-04 -1.024768E-04 -2.408577E-13 -9.588169E-15  9.180448E-15  2.617891E-13
         7   2 -1.024768E-04 -1.024768E-04 -1.884349E-13 -3.578353E-14  1.329274E-14 -1.411981E-13
         7   3 -1.024768E-04 -1.024768E-04  7.242511E-14 -9.588169E-15 -9.151615E-15 -2.286039E-13
         7   4 -1.024768E-04 -1.024768E-04  4.102214E-15 -3.578353E-14 -6.825128E-15 -1.762261E-13
         7   5 -1.024768E-04 -1.024768E-04 -3.373061E-13 -1.050328E-14  3.014961E-14 -8.757348E-14
         7   6 -1.024768E-04 -1.024768E-04 -1.797991E-13 -3.919878E-14  3.426190E-14  1.441884E-13
         7   7 -1.024768E-04 -1.024768E-04 -2.777346E-14 -1.050328E-14 -3.648078E-14 -8.757348E-14
         7   8 -1.024768E-04 -1.024768E-04  8.987846E-15 -3.919878E-14 -3.415429E-14 -8.349408E-14
         8   1 -1.024768E-04 -1.024768E-04  9.846644E-14  2.802246E-13  7.305297E-14 -1.896044E-14
         8   2 -1.024768E-04 -1.024768E-04  1.385095E-14  2.451965E-13  1.168381E-13 -1.430663E-13
         8   3 -1.024768E-04 -1.024768E-04  2.372881E-13  1.401123E-13 -1.602479E-14  5.109570E-14
         8   4 -1.024768E-04 -1.024768E-04  1.541079E-13  1.488693E-13 -8.608093E-14 -2.481505E-13
         8   5 -1.024768E-04 -1.024768E-04 -5.320388E-13  1.401123E-13 -2.384377E-14 -3.697574E-13
         8   6 -1.024768E-04 -1.024768E-04 -4.064859E-13  2.802246E-13  5.496939E-14  1.547302E-13
         8   7 -1.024768E-04 -1.024768E-04 -1.830487E-13 -1.401123E-13  8.030697E-14  1.906918E-13
         8   8 -1.024768E-04 -1.024768E-04 -8.233159E-14  3.502807E-14 -5.980531E-14 -2.041014E-14
         9   1 -1.024768E-04 -1.024768E-04 -1.598311E-13  7.005614E-14  1.776841E-13 -1.274279E-13
         9   2 -1.024768E-04 -1.024768E-04  1.230600E-13  1.576263E-13  7.259985E-14 -1.105910E-13
         9   3 -1.024768E-04 -1.024768E-04 -7.319537E-14  1.720217E-30 -2.258159E-13 -2.675402E-13
         9   4 -1.024768E-04 -1.024768E-04 -2.269980E-13 -2.802246E-13  2.645771E-13  9.957742E-14
         9   5 -1.024768E-04 -1.024768E-04 -5.801679E-13 -2.826814E-31  1.402198E-13 -1.628298E-13
         9   6 -1.024768E-04 -1.024768E-04 -1.133795E-13  1.401123E-13 -1.925469E-13  1.452030E-13
         9   7 -1.024768E-04 -1.024768E-04 -4.935322E-13 -2.802246E-13 -7.716850E-14  3.275632E-13
         9   8 -1.024768E-04 -1.024768E-04 -1.219138E-13  1.527928E-31  6.294378E-14  4.011878E-14

 strains (elem, integ.pnt.,exx,eyy,ezz,exy,exz,eyz) forset EALL and time  0.5977813E+00

         1   1 -3.415893E-10 -3.415893E-10  2.927908E-10 -1.454028E-26 -2.019484E-26  5.169879E-26
         1   2 -3.415893E-10 -3.415893E-10  2.927908E-10 -1.292470E-25 -9.693523E-27 -1.696366E-26
         1   3 -3.415893E-10 -3.415893E-10  2.927908E-10  5.977672E-26 -2.584939E-26  1.033976E-25
         1   4 -3.415893E-10 -3.415893E-10  2.927908E-10 -5.492996E-26  1.098599E-25 -4.038968E-26
         1   5 -3.415893E-10 -3.415893E-10  2.927908E-10  1.615587E-26 -7.189363E-26  1.680211E-25
         1   6 -3.415893E-10 -3.415893E-10  2.927908E-10  6.139231E-26 -6.139231E-26 -6.381569E-26
         1   7 -3.415893E-10 -3.415893E-10  2.927908E-10 -6.462349E-27 -2.358757E-25  2.067952E-25
         1   8 -3.415893E-10 -3.415893E-10  2.927908E-10  5.169879E-26 -1.033976E-25 -8.724171E-26
         2   1 -3.415893E-10 -3.415893E-10  2.927908E-10 -1.755403E-18 -2.421748E-19  3.716626E-21
         2   2 -3.415893E-10 -3.415893E-10  2.927908E-10  1.171943E-18  2.887577E-20 -4.615215E-21
         2   3 -3.415893E-10 -3.415893E-10  2.927908E-10 -1.811901E-18 -6.427658E-20 -1.083610E-19
         2   4 -3.415893E-10 -3.415893E-10  2.927908E-10  1.386495E-18 -1.799000E-18 -3.306377E-20
         2   5 -3.415893E-10 -3.415893E-10  2.927908E-10 -8.451870E-19 -3.113895E-19  1.259483E-19
         2   6 -3.415893E-10 -3.415893E-10  2.927908E-10  4.558556E-19  1.387117E-20  1.122434E-20
         2   7 -3.415893E-10 -3.415893E-10  2.927908E-10 -7.846044E-19 -2.398834E-19  1.387064E-20
         2   8 -3.415893E-10 -3.415893E-10  2.927908E-10  7.332786E-19 -6.735643E-19 -1.722423E-20
         3   1 -3.415893E-10 -3.415893E-10  2.927908E-10 -8.029405E-20 -3.448850E-19  6.070488E-20
         3   2 -3.415893E-10 -3.415893E-10  2.927908E-10  1.003908E-18  3.056363E-19 -2.975715E-20
         3   3 -3.415893E-10 -3.415893E-10  2.927908E-10 -2.996615E-19  1.598337E-18 -1.476963E-19
         3   4 -3.415893E-10 -3.415893E-10  2.927908E-10  2.424396E-19  1.164656E-18  1.299059E-19
         3   5 -3.415893E-10 -3.415893E-10  2.927908E-10 -1.626408E-18  7.650717E-19  4.349549E-19
         3   6 -3.415893E-10 -3.415893E-10  2.927908E-10 -7.590466E-19 -6.443911E-19 -2.707182E-19
         3   7 -3.415893E-10 -3.415893E-10  2.927908E-10 -1.330486E-18 -5.090031E-19  2.265537E-19
         3   8 -3.415893E-10 -3.415893E-10  2.927908E-10  4.042376E-19  1.225720E-18 -1.110552E-19
         4   1 -3.415893E-10 -3.415893E-10  2.927908E-10  1.278076E-18  2.237599E-20  1.128375E-18
         4   2 -3.415893E-10 -3.415893E-10  2.927908E-10  1.215330E-18  2.185941E-20 -7.253816E-19
         4   3 -3.415893E-10 -3.415893E-10  2.927908E-10 -2.398071E-19 -1.363801E-20  4.417309E-20
         4   4 -3.415893E-10 -3.415893E-10  2.927908E-10 -3.025533E-19  6.455370E-20 -4.543310E-19
         4   5 -3.415893E-10 -3.415893E-10  2.927908E-10 -1.717357E-18  8.402492E-20  3.816967E-19
         4   6 -3.415893E-10 -3.415893E-10  2.927908E-10 -1.669912E-18  8.350833E-20 -1.323900E-18
         4   7 -3.415893E-10 -3.415893E-10  2.927908E-10 -8.499955E-19 -1.290895E-19  1.648562E-19
         4   8 -3.415893E-10 -3.415893E-10  2.927908E-10 -8.025501E-19 -5.089775E-20 -5.107483E-19
         5   1 -3.415893E-10 -3.415893E-10  2.927908E-10 -4.878910E-19  3.078890E-19 -1.469495E-18
         5   2 -3.415893E-10 -3.415893E-10  2.927908E-10 -9.215718E-19  4.163092E-19  7.167106E-19
         5   3 -3.415893E-10 -3.415893E-10  2.927908E-10 -8.673617E-19  8.677912E-19 -8.189736E-19
         5   4 -3.415893E-10 -3.415893E-10  2.927908E-10 -1.897354E-18 -4.332514E-19 -4.759118E-19
         5   5 -3.415893E-10 -3.415893E-10  2.927908E-10  4.336809E-19 -5.275639E-19 -4.699343E-19
         5   6 -3.415893E-10 -3.415893E-10  2.927908E-10  6.505213E-19 -6.901943E-19  1.134426E-19
         5   7 -3.415893E-10 -3.415893E-10  2.927908E-10  8.673617E-19  8.689646E-19 -6.867747E-19
         5   8 -3.415893E-10 -3.415893E-10  2.927908E-10  4.336809E-19 -6.489185E-19  1.143435E-18
         6   1 -3.415893E-10 -3.415893E-10  2.927908E-10  3.227689E-38  5.845719E-19  1.243974E-18
         6   2 -3.415893E-10 -3.415893E-10  2.927908E-10  5.421011E-19  5.845719E-19 -5.549240E-19
         6   3 -3.415893E-10 -3.415893E-10  2.927908E-10  2.103939E-38  1.550390E-18  1.677655E-18
         6   4 -3.415893E-10 -3.415893E-10  2.927908E-10 -1.734723E-18  1.116709E-18  9.087490E-19
         6   5 -3.415893E-10 -3.415893E-10  2.927908E-10 -1.734723E-18  1.113018E-18  6.543785E-19
         6   6 -3.415893E-10 -3.415893E-10  2.927908E-10  4.336809E-19  2.456565E-19 -1.708014E-19
         6   7 -3.415893E-10 -3.415893E-10  2.927908E-10  2.930409E-37 -6.879438E-19  6.543785E-19
         6   8 -3.415893E-10 -3.415893E-10  2.927908E-10 -2.168404E-18  1.794180E-19  1.672342E-18
         7   1 -3.415893E-10 -3.415893E-10  2.927908E-10 -5.935533E-20  5.683135E-20  1.620599E-18
         7   2 -3.415893E-10 -3.415893E-10  2.927908E-10 -2.215171E-19  8.228842E-20 -8.740832E-19
         7   3 -3.415893E-10 -3.415893E-10  2.927908E-10 -5.935533E-20 -5.665285E-20 -1.415167E-18
         7   4 -3.415893E-10 -3.415893E-10  2.927908E-10 -2.215171E-19 -4.225079E-20 -1.090924E-18
         7   5 -3.415893E-10 -3.415893E-10  2.927908E-10 -6.502031E-20  1.866404E-19 -5.421216E-19
         7   6 -3.415893E-10 -3.415893E-10  2.927908E-10 -2.426591E-19  2.120975E-19  8.925947E-19
         7   7 -3.415893E-10 -3.415893E-10  2.927908E-10 -6.502031E-20 -2.258334E-19 -5.421216E-19
         7   8 -3.415893E-10 -3.415893E-10  2.927908E-10 -2.426591E-19 -2.114313E-19 -5.168681E-19
         8   1 -3.415893E-10 -3.415893E-10  2.927908E-10  1.734723E-18  4.522326E-19 -1.173741E-19
         8   2 -3.415893E-10 -3.415893E-10  2.927908E-10  1.517883E-18  7.232832E-19 -8.856483E-19
         8   3 -3.415893E-10 -3.415893E-10  2.927908E-10  8.673617E-19 -9.920105E-20  3.163067E-19
         8   4 -3.415893E-10 -3.415893E-10  2.927908E-10  9.215718E-19 -5.328819E-19 -1.536170E-18
         8   5 -3.415893E-10 -3.415893E-10  2.927908E-10  8.673617E-19 -1.476043E-19 -2.288974E-18
         8   6 -3.415893E-10 -3.415893E-10  2.927908E-10  1.734723E-18  3.402867E-19  9.578537E-19
         8   7 -3.415893E-10 -3.415893E-10  2.927908E-10 -8.673617E-19  4.971384E-19  1.180473E-18
         8   8 -3.415893E-10 -3.415893E-10  2.927908E-10  2.168404E-19 -3.702233E-19 -1.263485E-19
         9   1 -3.415893E-10 -3.415893E-10  2.927908E-10  4.336809E-19  1.099949E-18 -7.888396E-19
         9   2 -3.415893E-10 -3.415893E-10  2.927908E-10  9.757820E-19  4.494276E-19 -6.846110E-19
         9   3 -3.415893E-10 -3.415893E-10  2.927908E-10  5.289501E-38 -1.397908E-18 -1.656201E-18
         9   4 -3.415893E-10 -3.415893E-10  2.927908E-10 -1.734723E-18  1.637858E-18  6.164316E-19
         9   5 -3.415893E-10 -3.415893E-10  2.927908E-10  5.087485E-37  8.680272E-19 -1.007994E-18
         9   6 -3.415893E-10 -3.415893E-10  2.927908E-10  8.673617E-19 -1.191957E-18  8.988756E-19
         9   7 -3.415893E-10 -3.415893E-10  2.927908E-10 -1.734723E-18 -4.777098E-19  2.027772E-18
         9   8 -3.415893E-10 -3.415893E-10  2.927908E-10  1.714655E-36  3.896520E-19  2.483543E-19

 displacements (vx,vy,vz) for set NALL and time  0.6067813E+00

         1  0.000000E+00  0.000000E+00  0.000000E+00
         2 -1.733661E-07  0.000000E+00  0.000000E+00
         3 -9.101719E+00  0.000000E+00  0.000000E+00
         4 -9.101719E+00  0.000000E+00  0.000000E+00
         5 -1.820344E+01  0.000000E+00  0.000000E+00
         6 -1.820344E+01  0.000000E+00  0.000000E+00
         7  0.000000E+00 -1.733661E-07  0.000000E+00
         8 -1.733661E-07 -1.733661E-07  0.000000E+00
         9 -9.101719E+00 -1.733661E-07  0.000000E+00
        10 -9.101719E+00 -1.733661E-07  0.000000E+00
        11 -1.820344E+01 -1.733661E-07  0.000000E+00
        12 -1.820344E+01 -1.733661E-07  0.000000E+00
        13  0.000000E+00 -9.101719E+00  0.000000E+00
        14 -1.733661E-07 -9.101719E+00  0.000000E+00
        15 -9.101719E+00 -9.101719E+00  0.000000E+00
        16 -9.101719E+00 -9.101719E+00  0.000000E+00
        17 -1.820344E+01 -9.101719E+00  0.000000E+00
        18 -1.820344E+01 -9.101719E+00  0.000000E+00
        19  0.000000E+00 -9.101719E+00  0.000000E+00
        20 -1.733661E-07 -9.101719E+00  0.000000E+00
        21 -9.101719E+00 -9.101719E+00  0.000000E+00
        22 -9.101719E+00 -9.101719E+00  0.000000E+00
        23 -1.820344E+01 -9.101719E+00  0.000000E+00
        24 -1.820344E+01 -9.101719E+00  0.000000E+00
        25  0.000000E+00 -1.820344E+01  0.000000E+00
        26 -1.733661E-07 -1.820344E+01  0.000000E+00
        27 -9.101719E+00 -1.820344E+01  0.000000E+00
        28 -9.101719E+00 -1.820344E+01  0.000000E+00
        29 -1.820344E+01 -1.820344E+01  0.000000E+00
        30 -1.820344E+01 -1.820344E+01  0.000000E+00
        31  0.000000E+00 -1.820344E+01  0.000000E+00
        32 -1.733661E-07 -1.820344E+01  0.000000E+00
        33 -9.101719E+00 -1.820344E+01  0.000000E+00
        34 -9.101719E+00 -1.820344E+01  0.000000E+00
        35 -1.820344E+01 -1.820344E+01  0.000000E+00
        36 -1.820344E+01 -1.820344E+01  0.000000E+00
        37  0.000000E+00  0.000000E+00  2.080393E-07
        38 -1.733661E-07  0.000000E+00  2.080393E-07
        39 -9.101719E+00  0.000000E+00  2.080393E-07
        40 -9.101719E+00  0.000000E+00  2.080393E-07
        41 -1.820344E+01  0.000000E+00  2.080393E-07
        42 -1.820344E+01  0.000000E+00  2.080393E-07
        43  0.000000E+00 -1.733661E-07  2.080393E-07
        44 -1.733661E-07 -1.733661E-07  2.080393E-07
        45 -9.101719E+00 -1.733661E-07  2.080393E-07
        46 -9.101719E+00 -1.733661E-07  2.080393E-07
        47 -1.820344E+01 -1.733661E-07  2.080393E-07
        48 -1.820344E+01 -1.733661E-07  2.080393E-07
        49  0.000000E+00 -9.101719E+00  2.080393E-07
        50 -1.733661E-07 -9.101719E+00  2.080393E-07
        51 -9.101719E+00 -9.101719E+00  2.080393E-07
        52 -9.101719E+00 -9.101719E+00  2.080393E-07
        53 -1.820344E+01 -9.101719E+00  2.080393E-07
        54 -1.820344E+01 -9.101719E+00  2.080393E-07
        55  0.000000E+00 -9.101719E+00  2.080393E-07
        56 -1.733661E-07 -9.101719E+00  2.080393E-07
        57 -9.101719E+00 -9.101719E+00  2.080393E-07
        58 -9.101719E+00 -9.101719E+00  2.080393E-07
        59 -1.820344E+01 -9.101719E+00  2.080393E-07
        60 -1.820344E+01 -9.101719E+00  2.080393E-07
        61  0.000000E+00 -1.820344E+01  2.080393E-07
        62 -1.733661E-07 -1.820344E+01  2.080393E-07
        63 -9.101719E+00 -1.820344E+01  2.080393E-07
        64 -9.101719E+00 -1.820344E+01  2.080393E-07
        65 -1.820344E+01 -1.820344E+01  2.080393E-07
        66 -1.820344E+01 -1.820344E+01  2.080393E-07
        67  0.000000E+00 -1.820344E+01  2.080393E-07
        68 -1.733661E-07 -1.820344E+01  2.080393E-07
        69 -9.101719E+00 -1.820344E+01  2.080393E-07
        70 -9.101719E+00 -1.820344E+01  2.080393E-07
        71 -1.820344E+01 -1.820344E+01  2.080393E-07
        72 -1.820344E+01 -1.820344E+01  2.080393E-07

 stresses (elem, integ.pnt.,sxx,syy,szz,sxy,sxz,syz) for set EALL and time  0.6067813E+00

         1   1 -1.040196E-04 -1.040196E-04  2.603175E-45 -4.958610E-21  5.089099E-21 -6.263507E-21
         1   2 -1.040196E-04 -1.040196E-04 -1.355253E-20  9.656240E-21  7.829384E-22  1.565877E-21
         1   3 -1.040196E-04 -1.040196E-04 -6.776264E-20 -3.131754E-20 -1.096114E-20  7.307425E-21
         1   4 -1.040196E-04 -1.040196E-04 -1.219727E-19 -1.670269E-20 -3.862496E-20  5.741548E-20
         1   5 -1.040196E-04 -1.040196E-04  1.355253E-20  3.653712E-21  2.570648E-20 -3.653712E-20
         1   6 -1.040196E-04 -1.040196E-04  9.486769E-20 -1.252701E-20  2.140032E-20 -5.323981E-20
         1   7 -1.040196E-04 -1.040196E-04 -1.084202E-19  3.497125E-20 -1.357093E-20 -2.296619E-20
         1   8 -1.040196E-04 -1.040196E-04 -6.776264E-20  1.879052E-20 -4.175671E-20  2.609795E-21
         2   1 -1.040196E-04 -1.040196E-04 -2.376405E-13 -1.140921E-13 -6.577748E-14  3.557991E-15
         2   2 -1.040196E-04 -1.040196E-04 -2.453320E-13 -9.007940E-15  5.682077E-14 -2.263989E-15
         2   3 -1.040196E-04 -1.040196E-04  2.348277E-13 -1.387023E-13 -1.863383E-14 -3.384501E-14
         2   4 -1.040196E-04 -1.040196E-04  7.064102E-14 -1.610405E-14  8.645038E-14  7.025173E-15
         2   5 -1.040196E-04 -1.040196E-04  1.435566E-13  1.550311E-13 -5.408796E-14  5.068160E-14
         2   6 -1.040196E-04 -1.040196E-04  2.339187E-13 -9.016542E-14  1.823515E-13 -1.773848E-14
         2   7 -1.040196E-04 -1.040196E-04 -1.064291E-13  1.957899E-13  7.056986E-14  1.327860E-14
         2   8 -1.040196E-04 -1.040196E-04 -1.725623E-13 -1.437848E-14  1.055979E-13 -8.449320E-15
         3   1 -1.040196E-04 -1.040196E-04  2.191874E-13  2.421113E-13  7.368815E-14 -1.055226E-14
         3   2 -1.040196E-04 -1.040196E-04  8.780350E-14  1.545411E-13 -1.539943E-13  6.327247E-15
         3   3 -1.040196E-04 -1.040196E-04  7.981858E-13  1.379840E-13 -1.523017E-14 -5.030408E-14
         3   4 -1.040196E-04 -1.040196E-04  5.379708E-13  1.204700E-13 -1.553425E-13  6.422353E-14
         3   5 -1.040196E-04 -1.040196E-04 -1.532731E-13 -2.682994E-13  1.536671E-13  3.702683E-16
         3   6 -1.040196E-04 -1.040196E-04 -7.959588E-14 -1.982433E-13  1.361531E-13 -3.428267E-14
         3   7 -1.040196E-04 -1.040196E-04 -3.361352E-13 -2.357194E-13  2.233848E-13 -3.938156E-14
         3   8 -1.040196E-04 -1.040196E-04 -3.912891E-13 -2.555097E-14  1.533286E-13  2.361361E-14
         4   1 -1.040196E-04 -1.040196E-04  5.102322E-14 -2.001841E-13 -3.554679E-15  1.638310E-14
         4   2 -1.040196E-04 -1.040196E-04 -9.927892E-14 -1.729065E-13  4.820927E-15 -3.284859E-14
         4   3 -1.040196E-04 -1.040196E-04 -3.540787E-14  9.984301E-15  5.806733E-15  2.615796E-13
         4   4 -1.040196E-04 -1.040196E-04 -4.347637E-14  3.726192E-14 -1.713527E-14  7.223562E-14
         4   5 -1.040196E-04 -1.040196E-04 -8.901433E-14  1.340483E-13 -2.164185E-14  1.405845E-13
         4   6 -1.040196E-04 -1.040196E-04  1.284783E-13  1.174813E-13 -1.326625E-14  2.564798E-14
         4   7 -1.040196E-04 -1.040196E-04 -2.412124E-13 -6.063953E-15  4.461302E-14 -6.958396E-14
         4   8 -1.040196E-04 -1.040196E-04  1.185139E-13 -2.263098E-14  2.167102E-14  7.819008E-14
         5   1 -1.040196E-04 -1.040196E-04  1.825843E-13  8.757018E-15 -1.104582E-14 -9.022540E-14
         5   2 -1.040196E-04 -1.040196E-04  2.832675E-14 -7.005614E-14  2.954498E-13  2.542330E-13
         5   3 -1.040196E-04 -1.040196E-04  3.449678E-14 -1.401123E-13 -2.562509E-14  1.485881E-14
         5   4 -1.040196E-04 -1.040196E-04 -2.062035E-13 -1.401123E-13  1.144872E-13  3.530760E-14
         5   5 -1.040196E-04 -1.040196E-04  1.431777E-13  3.502807E-14  6.386066E-14  1.605380E-13
         5   6 -1.040196E-04 -1.040196E-04 -1.424351E-13  1.026455E-30  1.952159E-13  4.482832E-14
         5   7 -1.040196E-04 -1.040196E-04  3.449678E-14 -1.401123E-13  4.447812E-14  3.356784E-13
         5   8 -1.040196E-04 -1.040196E-04 -2.981522E-13 -1.401123E-13  4.447812E-14  1.411555E-13
         6   1 -1.040196E-04 -1.040196E-04  1.628148E-13  2.276825E-13 -9.862015E-15 -4.713408E-14
         6   2 -1.040196E-04 -1.040196E-04  8.232042E-14  3.502807E-14 -1.674883E-13 -3.916666E-14
         6   3 -1.040196E-04 -1.040196E-04  3.193753E-13  3.853088E-13 -5.443670E-14  2.292206E-14
         6   4 -1.040196E-04 -1.040196E-04 -1.181119E-13  1.050842E-13 -2.646051E-13  2.235439E-13
         6   5 -1.040196E-04 -1.040196E-04 -1.524379E-13 -5.254211E-13  3.835313E-13  5.051822E-14
         6   6 -1.040196E-04 -1.040196E-04 -2.723388E-13 -1.050842E-13 -1.243757E-13 -5.453764E-14
         6   7 -1.040196E-04 -1.040196E-04  1.092069E-13 -4.203368E-13 -2.031605E-13 -5.456599E-14
         6   8 -1.040196E-04 -1.040196E-04  1.078646E-16 -1.401123E-13  7.706404E-14 -1.075255E-14
         7   1 -1.040196E-04 -1.040196E-04 -9.523204E-14 -8.858329E-15  1.326486E-14 -4.418536E-13
         7   2 -1.040196E-04 -1.040196E-04 -1.231912E-13 -3.305974E-14  5.018038E-14 -4.390563E-13
         7   3 -1.040196E-04 -1.040196E-04  1.999961E-13 -8.858329E-15 -1.115804E-15 -2.316852E-13
         7   4 -1.040196E-04 -1.040196E-04  7.151938E-14 -3.305974E-14  3.671802E-14 -3.865142E-13
         7   5 -1.040196E-04 -1.040196E-04 -1.770944E-14 -8.387764E-15  1.258960E-14 -5.194099E-13
         7   6 -1.040196E-04 -1.040196E-04  8.568663E-14 -3.130356E-14  4.950512E-14 -4.342214E-13
         7   7 -1.040196E-04 -1.040196E-04  2.794471E-13 -8.387764E-15 -4.199806E-14  1.811515E-13
         7   8 -1.040196E-04 -1.040196E-04  2.823257E-13 -3.130356E-14 -4.164243E-15  2.663400E-13
         8   1 -1.040196E-04 -1.040196E-04 -3.975765E-13  7.005614E-14 -3.874976E-14 -3.866003E-13
         8   2 -1.040196E-04 -1.040196E-04 -2.100210E-13  6.129912E-14  7.509147E-14 -1.792801E-13
         8   3 -1.040196E-04 -1.040196E-04 -1.408805E-13 -3.339884E-32  1.094414E-14 -2.464880E-13
         8   4 -1.040196E-04 -1.040196E-04 -3.985960E-14  3.502807E-14  4.597221E-14 -1.967941E-13
         8   5 -1.040196E-04 -1.040196E-04 -4.763897E-13  2.802246E-13  4.678085E-14 -5.746549E-13
         8   6 -1.040196E-04 -1.040196E-04 -1.574789E-13  3.152526E-13  2.657063E-13 -2.828530E-13
         8   7 -1.040196E-04 -1.040196E-04 -4.561331E-13 -2.802246E-13  4.084407E-14  4.061311E-13
         8   8 -1.040196E-04 -1.040196E-04 -5.915517E-13 -2.101684E-13  5.816000E-15  5.403066E-13
         9   1 -1.040196E-04 -1.040196E-04  2.306786E-14  4.903930E-13 -1.154121E-13 -5.206664E-13
         9   2 -1.040196E-04 -1.040196E-04 -1.553638E-13  2.977386E-13 -2.204963E-13 -1.223660E-13
         9   3 -1.040196E-04 -1.040196E-04  2.947888E-13  4.903930E-13 -3.236433E-14  3.978271E-14
         9   4 -1.040196E-04 -1.040196E-04  7.373637E-14  2.101684E-13  3.179164E-13  4.030550E-13
         9   5 -1.040196E-04 -1.040196E-04  2.306786E-14 -2.802246E-13 -2.915848E-14 -3.419219E-13
         9   6 -1.040196E-04 -1.040196E-04 -7.655069E-14 -7.005614E-14  3.911784E-13 -3.634926E-13
         9   7 -1.040196E-04 -1.040196E-04  3.998730E-13 -2.802246E-13 -1.207853E-13  1.484711E-13
         9   8 -1.040196E-04 -1.040196E-04  1.788206E-13 -1.401123E-13 -1.207853E-13 -8.326802E-14

 strains (elem, integ.pnt.,exx,eyy,ezz,exy,exz,eyz) forset EALL and time  0.6067813E+00

         1   1 -3.467321E-10 -3.467321E-10  2.971990E-10 -3.069616E-26  3.150395E-26 -3.877409E-26
         1   2 -3.467321E-10 -3.467321E-10  2.971990E-10  5.977672E-26  4.846761E-27  9.693523E-27
         1   3 -3.467321E-10 -3.467321E-10  2.971990E-10 -1.938705E-25 -6.785466E-26  4.523644E-26
         1   4 -3.467321E-10 -3.467321E-10  2.971990E-10 -1.033976E-25 -2.391069E-25  3.554292E-25
         1   5 -3.467321E-10 -3.467321E-10  2.971990E-10  2.261822E-26  1.591353E-25 -2.261822E-25
         1   6 -3.467321E-10 -3.467321E-10  2.971990E-10 -7.754818E-26  1.324781E-25 -3.295798E-25
         1   7 -3.467321E-10 -3.467321E-10  2.971990E-10  2.164887E-25 -8.401053E-26 -1.421717E-25
         1   8 -3.467321E-10 -3.467321E-10  2.971990E-10  1.163223E-25 -2.584939E-25  1.615587E-26
         2   1 -3.467321E-10 -3.467321E-10  2.971990E-10 -7.062847E-19 -4.071939E-19  2.202566E-20
         2   2 -3.467321E-10 -3.467321E-10  2.971990E-10 -5.576344E-20  3.517476E-19 -1.401517E-20
         2   3 -3.467321E-10 -3.467321E-10  2.971990E-10 -8.586333E-19 -1.153523E-19 -2.095167E-19
         2   4 -3.467321E-10 -3.467321E-10  2.971990E-10 -9.969176E-20  5.351690E-19  4.348916E-20
         2   5 -3.467321E-10 -3.467321E-10  2.971990E-10  9.597161E-19 -3.348302E-19  3.137432E-19
         2   6 -3.467321E-10 -3.467321E-10  2.971990E-10 -5.581669E-19  1.128843E-18 -1.098096E-19
         2   7 -3.467321E-10 -3.467321E-10  2.971990E-10  1.212033E-18  4.368610E-19  8.220085E-20
         2   8 -3.467321E-10 -3.467321E-10  2.971990E-10 -8.900961E-20  6.537015E-19 -5.230532E-20
         3   1 -3.467321E-10 -3.467321E-10  2.971990E-10  1.498784E-18  4.561648E-19 -6.532350E-20
         3   2 -3.467321E-10 -3.467321E-10  2.971990E-10  9.566833E-19 -9.532981E-19  3.916867E-20
         3   3 -3.467321E-10 -3.467321E-10  2.971990E-10  8.541868E-19 -9.428202E-20 -3.114062E-19
         3   4 -3.467321E-10 -3.467321E-10  2.971990E-10  7.457666E-19 -9.616438E-19  3.975742E-19
         3   5 -3.467321E-10 -3.467321E-10  2.971990E-10 -1.660901E-18  9.512727E-19  2.292137E-21
         3   6 -3.467321E-10 -3.467321E-10  2.971990E-10 -1.227220E-18  8.428525E-19 -2.122261E-19
         3   7 -3.467321E-10 -3.467321E-10  2.971990E-10 -1.459215E-18  1.382858E-18 -2.437906E-19
         3   8 -3.467321E-10 -3.467321E-10  2.971990E-10 -1.581726E-19  9.491773E-19  1.461795E-19
         4   1 -3.467321E-10 -3.467321E-10  2.971990E-10 -1.239235E-18 -2.200515E-20  1.014192E-19
         4   2 -3.467321E-10 -3.467321E-10  2.971990E-10 -1.070374E-18  2.984383E-20 -2.033484E-19
         4   3 -3.467321E-10 -3.467321E-10  2.971990E-10  6.180758E-20  3.594644E-20  1.619302E-18
         4   4 -3.467321E-10 -3.467321E-10  2.971990E-10  2.306690E-19 -1.060755E-19  4.471729E-19
         4   5 -3.467321E-10 -3.467321E-10  2.971990E-10  8.298230E-19 -1.339734E-19  8.702847E-19
         4   6 -3.467321E-10 -3.467321E-10  2.971990E-10  7.272652E-19 -8.212438E-20  1.587732E-19
         4   7 -3.467321E-10 -3.467321E-10  2.971990E-10 -3.753876E-20  2.761759E-19 -4.307579E-19
         4   8 -3.467321E-10 -3.467321E-10  2.971990E-10 -1.400965E-19  1.341540E-19  4.840338E-19
         5   1 -3.467321E-10 -3.467321E-10  2.971990E-10  5.421011E-20 -6.837887E-20 -5.585382E-19
         5   2 -3.467321E-10 -3.467321E-10  2.971990E-10 -4.336809E-19  1.828975E-18  1.573824E-18
         5   3 -3.467321E-10 -3.467321E-10  2.971990E-10 -8.673617E-19 -1.586315E-19  9.198311E-20
         5   4 -3.467321E-10 -3.467321E-10  2.971990E-10 -8.673617E-19  7.087302E-19  2.185709E-19
         5   5 -3.467321E-10 -3.467321E-10  2.971990E-10  2.168404E-19  3.953279E-19  9.938070E-19
         5   6 -3.467321E-10 -3.467321E-10  2.971990E-10 -4.893353E-36  1.208480E-18  2.775086E-19
         5   7 -3.467321E-10 -3.467321E-10  2.971990E-10 -8.673617E-19  2.753408E-19  2.078009E-18
         5   8 -3.467321E-10 -3.467321E-10  2.971990E-10 -8.673617E-19  2.753408E-19  8.738199E-19
         6   1 -3.467321E-10 -3.467321E-10  2.971990E-10  1.409463E-18 -6.105057E-20 -2.917824E-19
         6   2 -3.467321E-10 -3.467321E-10  2.971990E-10  2.168404E-19 -1.036833E-18 -2.424603E-19
         6   3 -3.467321E-10 -3.467321E-10  2.971990E-10  2.385245E-18 -3.369891E-19  1.418985E-19
         6   4 -3.467321E-10 -3.467321E-10  2.971990E-10  6.505213E-19 -1.638032E-18  1.383843E-18
         6   5 -3.467321E-10 -3.467321E-10  2.971990E-10 -3.252607E-18  2.374241E-18  3.127319E-19
         6   6 -3.467321E-10 -3.467321E-10  2.971990E-10 -6.505213E-19 -7.699449E-19 -3.376140E-19
         6   7 -3.467321E-10 -3.467321E-10  2.971990E-10 -2.602085E-18 -1.257660E-18 -3.377894E-19
         6   8 -3.467321E-10 -3.467321E-10  2.971990E-10 -8.673617E-19  4.770631E-19 -6.656341E-20
         7   1 -3.467321E-10 -3.467321E-10  2.971990E-10 -5.483728E-20  8.211579E-20 -2.735284E-18
         7   2 -3.467321E-10 -3.467321E-10  2.971990E-10 -2.046555E-19  3.106405E-19 -2.717968E-18
         7   3 -3.467321E-10 -3.467321E-10  2.971990E-10 -5.483728E-20 -6.907359E-21 -1.434241E-18
         7   4 -3.467321E-10 -3.467321E-10  2.971990E-10 -2.046555E-19  2.273020E-19 -2.392707E-18
         7   5 -3.467321E-10 -3.467321E-10  2.971990E-10 -5.192425E-20  7.793563E-20 -3.215395E-18
         7   6 -3.467321E-10 -3.467321E-10  2.971990E-10 -1.937839E-19  3.064603E-19 -2.688037E-18
         7   7 -3.467321E-10 -3.467321E-10  2.971990E-10 -5.192425E-20 -2.599880E-19  1.121414E-18
         7   8 -3.467321E-10 -3.467321E-10  2.971990E-10 -1.937839E-19 -2.577864E-20  1.648771E-18
         8   1 -3.467321E-10 -3.467321E-10  2.971990E-10  4.336809E-19 -2.398795E-19 -2.393240E-18
         8   2 -3.467321E-10 -3.467321E-10  2.971990E-10  3.794708E-19  4.648519E-19 -1.109829E-18
         8   3 -3.467321E-10 -3.467321E-10  2.971990E-10  2.829830E-38  6.774941E-20 -1.525878E-18
         8   4 -3.467321E-10 -3.467321E-10  2.971990E-10  2.168404E-19  2.845898E-19 -1.218249E-18
         8   5 -3.467321E-10 -3.467321E-10  2.971990E-10  1.734723E-18  2.895957E-19 -3.557387E-18
         8   6 -3.467321E-10 -3.467321E-10  2.971990E-10  1.951564E-18  1.644848E-18 -1.750995E-18
         8   7 -3.467321E-10 -3.467321E-10  2.971990E-10 -1.734723E-18  2.528442E-19  2.514145E-18
         8   8 -3.467321E-10 -3.467321E-10  2.971990E-10 -1.301043E-18  3.600381E-20  3.344755E-18
         9   1 -3.467321E-10 -3.467321E-10  2.971990E-10  3.035766E-18 -7.144559E-19 -3.223173E-18
         9   2 -3.467321E-10 -3.467321E-10  2.971990E-10  1.843144E-18 -1.364977E-18 -7.575038E-19
         9   3 -3.467321E-10 -3.467321E-10  2.971990E-10  3.035766E-18 -2.003506E-19  2.462739E-19
         9   4 -3.467321E-10 -3.467321E-10  2.971990E-10  1.301043E-18  1.968054E-18  2.495103E-18
         9   5 -3.467321E-10 -3.467321E-10  2.971990E-10 -1.734723E-18 -1.805049E-19 -2.116659E-18
         9   6 -3.467321E-10 -3.467321E-10  2.971990E-10 -4.336809E-19  2.421580E-18 -2.250192E-18
         9   7 -3.467321E-10 -3.467321E-10  2.971990E-10 -1.734723E-18 -7.477186E-19  9.191068E-19
         9   8 -3.467321E-10 -3.467321E-10  2.971990E-10 -8.673617E-19 -7.477186E-19 -5.154687E-19

 displacements (vx,vy,vz) for set NALL and time  0.6157813E+00

         1  0.000000E+00  0.000000E+00  0.000000E+00
         2 -1.759375E-07  0.000000E+00  0.000000E+00
         3 -9.236719E+00  0.000000E+00  0.000000E+00
         4 -9.236719E+00  0.000000E+00  0.000000E+00
         5 -1.847344E+01  0.000000E+00  0.000000E+00
         6 -1.847344E+01  0.000000E+00  0.000000E+00
         7  0.000000E+00 -1.759375E-07  0.000000E+00
         8 -1.759375E-07 -1.759375E-07  0.000000E+00
         9 -9.236719E+00 -1.759375E-07  0.000000E+00
        10 -9.236719E+00 -1.759375E-07  0.000000E+00
        11 -1.847344E+01 -1.759375E-07  0.000000E+00
        12 -1.847344E+01 -1.759375E-07  0.000000E+00
        13  0.000000E+00 -9.236719E+00  0.000000E+00
        14 -1.759375E-07 -9.236719E+00  0.000000E+00
        15 -9.236719E+00 -9.236719E+00  0.000000E+00
        16 -9.236719E+00 -9.236719E+00  0.000000E+00
        17 -1.847344E+01 -9.236719E+00  0.000000E+00
        18 -1.847344E+01 -9.236719E+00  0.000000E+00
        19  0.000000E+00 -9.236719E+00  0.000000E+00
        20 -1.759375E-07 -9.236719E+00  0.000000E+00
        21 -9.236719E+00 -9.236719E+00  0.000000E+00
        22 -9.236719E+00 -9.236719E+00  0.000000E+00
        23 -1.847344E+01 -9.236719E+00  0.000000E+00
        24 -1.847344E+01 -9.236719E+00  0.000000E+00
        25  0.000000E+00 -1.847344E+01  0.000000E+00
        26 -1.759375E-07 -1.847344E+01  0.000000E+00
        27 -9.236719E+00 -1.847344E+01  0.000000E+00
        28 -9.236719E+00 -1.847344E+01  0.000000E+00
        29 -1.847344E+01 -1.847344E+01  0.000000E+00
        30 -1.847344E+01 -1.847344E+01  0.000000E+00
        31  0.000000E+00 -1.847344E+01  0.000000E+00
        32 -1.759375E-07 -1.847344E+01  0.000000E+00
        33 -9.236719E+00 -1.847344E+01  0.000000E+00
        34 -9.236719E+00 -1.847344E+01  0.000000E+00
        35 -1.847344E+01 -1.847344E+01  0.000000E+00
        36 -1.847344E+01 -1.847344E+01  0.000000E+00
        37  0.000000E+00  0.000000E+00  2.111250E-07
        38 -1.759375E-07  0.000000E+00  2.111250E-07
        39 -9.236719E+00  0.000000E+00  2.111250E-07
        40 -9.236719E+00  0.000000E+00  2.111250E-07
        41 -1.847344E+01  0.000000E+00  2.111250E-07
        42 -1.847344E+01  0.000000E+00  2.111250E-07
        43  0.000000E+00 -1.759375E-07  2.111250E-07
        44 -1.759375E-07 -1.759375E-07  2.111250E-07
        45 -9.236719E+00 -1.759375E-07  2.111250E-07
        46 -9.236719E+00 -1.759375E-07  2.111250E-07
        47 -1.847344E+01 -1.759375E-07  2.111250E-07
        48 -1.847344E+01 -1.759375E-07  2.111250E-07
        49  0.000000E+00 -9.236719E+00  2.111250E-07
        50 -1.759375E-07 -9.236719E+00  2.111250E-07
        51 -9.236719E+00 -9.236719E+00  2.111250E-07
        52 -9.236719E+00 -9.236719E+00  2.111250E-07
        53 -1.847344E+01 -9.236719E+00  2.111250E-07
        54 -1.847344E+01 -9.236719E+00  2.111250E-07
        55  0.000000E+00 -9.236719E+00  2.111250E-07
        56 -1.759375E-07 -9.236719E+00  2.111250E-07
        57 -9.236719E+00 -9.236719E+00  2.111250E-07
        58 -9.236719E+00 -9.236719E+00  2.111250E-07
        59 -1.847344E+01 -9.236719E+00  2.111250E-07
        60 -1.847344E+01 -9.236719E+00  2.111250E-07
        61  0.000000E+00 -1.847344E+01  2.111250E-07
        62 -1.759375E-07 -1.847344E+01  2.111250E-07
        63 -9.236719E+00 -1.847344E+01  2.111250E-07
        64 -9.236719E+00 -1.847344E+01  2.111250E-07
        65 -1.847344E+01 -1.847344E+01  2.111250E-07
        66 -1.847344E+01 -1.847344E+01  2.111250E-07
        67  0.000000E+00 -1.847344E+01  2.111250E-07
        68 -1.759375E-07 -1.847344E+01  2.111250E-07
        69 -9.236719E+00 -1.847344E+01  2.111250E-07
        70 -9.236719E+00 -1.847344E+01  2.111250E-07
        71 -1.847344E+01 -1.847344E+01  2.111250E-07
        72 -1.847344E+01 -1.847344E+01  2.111250E-07

 stresses (elem, integ.pnt.,sxx,syy,szz,sxy,sxz,syz) for set EALL and time  0.6157813E+00

         1   1 -1.055625E-04 -1.055625E-04  1.355253E-20 -8.351343E-21  5.219589E-21  3.653712E-21
         1   2 -1.055625E-04 -1.055625E-04  1.797852E-45  1.565877E-21 -1.043918E-21 -4.958610E-21
         1   3 -1.055625E-04 -1.055625E-04  2.710505E-20 -4.123475E-20 -1.357093E-20 -2.728727E-30
         1   4 -1.055625E-04 -1.055625E-04 -9.486769E-20 -3.131754E-20 -1.357093E-20  2.766382E-20
         1   5 -1.055625E-04 -1.055625E-04 -1.355253E-20  1.043918E-20  2.401011E-20  1.618073E-20
         1   6 -1.055625E-04 -1.055625E-04  4.065758E-20  2.818578E-20  1.774660E-20 -4.932512E-20
         1   7 -1.055625E-04 -1.055625E-04  1.355253E-20  2.609795E-20 -4.593238E-20  1.461485E-20
         1   8 -1.055625E-04 -1.055625E-04 -4.065758E-20  4.384455E-20 -4.593238E-20 -1.670269E-20
         2   1 -1.055625E-04 -1.055625E-04 -2.929162E-13 -5.194339E-15  7.694767E-15  7.641989E-15
         2   2 -1.055625E-04 -1.055625E-04 -2.616468E-13 -1.395136E-14  1.478070E-13 -3.730562E-15
         2   3 -1.055625E-04 -1.055625E-04 -9.214599E-14 -1.938554E-14 -9.956435E-15 -4.499919E-15
         2   4 -1.055625E-04 -1.055625E-04 -1.814365E-13  1.564253E-14  9.512778E-14  1.281124E-15
         2   5 -1.055625E-04 -1.055625E-04 -2.527366E-13 -1.365165E-13  2.871726E-14  4.066219E-14
         2   6 -1.055625E-04 -1.055625E-04 -1.854446E-13  3.595774E-15  2.446212E-15 -1.893433E-14
         2   7 -1.055625E-04 -1.055625E-04 -2.752703E-13 -1.266927E-13 -3.715792E-14  2.852029E-14
         2   8 -1.055625E-04 -1.055625E-04 -3.285382E-13  4.844768E-14 -2.129851E-15 -1.392265E-14
         3   1 -1.055625E-04 -1.055625E-04 -5.680428E-13 -4.992790E-13 -2.569410E-13 -3.892997E-15
         3   2 -1.055625E-04 -1.055625E-04 -4.454285E-13  2.187964E-13  1.458818E-13  9.773536E-15
         3   3 -1.055625E-04 -1.055625E-04  1.750341E-13 -5.235561E-13  3.123176E-13 -2.803227E-14
         3   4 -1.055625E-04 -1.055625E-04  3.578183E-13  1.770053E-13  1.021492E-13 -1.095998E-15
         3   5 -1.055625E-04 -1.055625E-04  9.058311E-14  2.781384E-13 -1.232728E-13  9.610405E-15
         3   6 -1.055625E-04 -1.055625E-04  2.410639E-13  2.080823E-13 -2.633851E-13  4.734487E-14
         3   7 -1.055625E-04 -1.055625E-04 -6.112479E-13  2.724390E-13  1.197730E-13 -1.452886E-14
         3   8 -1.055625E-04 -1.055625E-04 -4.005972E-13  1.323267E-13 -2.033930E-14  3.647534E-14
         4   1 -1.055625E-04 -1.055625E-04 -3.493826E-13  6.435224E-14  2.014197E-15 -9.106735E-14
         4   2 -1.055625E-04 -1.055625E-04 -2.835567E-13  4.876889E-14  7.457756E-15 -1.657250E-13
         4   3 -1.055625E-04 -1.055625E-04 -2.770207E-13  1.344084E-13  1.575957E-15  1.541291E-13
         4   4 -1.055625E-04 -1.055625E-04 -2.426238E-13  1.188250E-13  1.839387E-14 -2.561275E-14
         4   5 -1.055625E-04 -1.055625E-04 -1.277827E-13  1.247221E-16  2.073524E-15  1.728355E-14
         4   6 -1.055625E-04 -1.055625E-04 -2.255019E-14  4.654663E-16  7.517083E-15  5.265247E-14
         4   7 -1.055625E-04 -1.055625E-04 -3.153467E-14  1.402370E-13 -1.093635E-14  1.924239E-13
         4   8 -1.055625E-04 -1.055625E-04  4.226876E-14  1.405777E-13  5.881554E-15  3.513844E-14
         5   1 -1.055625E-04 -1.055625E-04  4.740776E-13 -2.539535E-13 -1.381359E-13 -8.869234E-14
         5   2 -1.055625E-04 -1.055625E-04  3.562214E-13 -1.488693E-13  1.070606E-13 -1.804530E-13
         5   3 -1.055625E-04 -1.055625E-04  5.334940E-13 -1.050842E-13  3.918517E-13 -1.237204E-13
         5   4 -1.055625E-04 -1.055625E-04  2.863947E-13 -9.632719E-14  1.116271E-13 -2.242381E-13
         5   5 -1.055625E-04 -1.055625E-04 -5.134349E-14 -3.502807E-14  1.124602E-13 -1.139651E-13
         5   6 -1.055625E-04 -1.055625E-04  5.926608E-13 -1.401123E-13  3.138716E-13 -1.575930E-13
         5   7 -1.055625E-04 -1.055625E-04 -3.071797E-13  1.401123E-13  3.380425E-14  2.012876E-13
         5   8 -1.055625E-04 -1.055625E-04 -2.885794E-14  1.050842E-13 -1.413361E-13 -1.575930E-13
         6   1 -1.055625E-04 -1.055625E-04 -1.870156E-13  4.378509E-14 -1.513023E-13 -4.223688E-14
         6   2 -1.055625E-04 -1.055625E-04  9.121442E-14 -4.378509E-14 -8.124615E-14  1.434758E-13
         6   3 -1.055625E-04 -1.055625E-04 -3.385303E-13  1.751404E-13  2.445788E-13  2.781926E-14
         6   4 -1.055625E-04 -1.055625E-04 -4.506403E-13  8.757018E-14  3.441035E-14 -6.669267E-14
         6   5 -1.055625E-04 -1.055625E-04 -3.183709E-13  1.751404E-13  5.887436E-13  1.038229E-13
         6   6 -1.055625E-04 -1.055625E-04 -4.998842E-13  3.502807E-14 -3.044722E-13  1.964500E-13
         6   7 -1.055625E-04 -1.055625E-04 -4.436145E-13 -1.401123E-13  4.274172E-13 -3.628940E-14
         6   8 -1.055625E-04 -1.055625E-04 -8.972482E-13 -7.005614E-14 -1.330319E-13 -9.253157E-14
         7   1 -1.055625E-04 -1.055625E-04 -1.329308E-13 -7.389312E-15  1.601199E-14 -3.086868E-13
         7   2 -1.055625E-04 -1.055625E-04 -1.353424E-13 -2.757729E-14  5.021379E-14 -5.404734E-13
         7   3 -1.055625E-04 -1.055625E-04  1.208788E-13 -7.389312E-15 -4.870990E-15  4.159391E-14
         7   4 -1.055625E-04 -1.055625E-04 -2.918743E-14 -2.757729E-14  3.133930E-14  1.600880E-13
         7   5 -1.055625E-04 -1.055625E-04 -1.661913E-13 -6.360087E-15  2.555578E-14 -4.752747E-13
         7   6 -1.055625E-04 -1.055625E-04 -3.724760E-14 -2.373617E-14  5.975757E-14 -3.107582E-13
         7   7 -1.055625E-04 -1.055625E-04  9.183623E-14 -6.360087E-15 -5.438907E-14  1.552306E-13
         7   8 -1.055625E-04 -1.055625E-04  7.312526E-14 -2.373617E-14 -1.817877E-14  2.146628E-13
         8   1 -1.055625E-04 -1.055625E-04  3.712084E-13  1.401123E-13  2.371398E-14 -3.308889E-13
         8   2 -1.055625E-04 -1.055625E-04  1.625765E-13  1.926544E-13 -2.882813E-14 -2.720108E-13
         8   3 -1.055625E-04 -1.055625E-04  5.036569E-13 -8.343538E-32 -2.249213E-14  2.996164E-13
         8   4 -1.055625E-04 -1.055625E-04  3.500328E-13  6.129912E-14  1.253594E-14 -4.821792E-13
         8   5 -1.055625E-04 -1.055625E-04 -2.067548E-13  1.401123E-13 -1.122809E-13 -4.880779E-13
         8   6 -1.055625E-04 -1.055625E-04 -1.789472E-13  2.101684E-13 -9.476688E-14 -3.940192E-14
         8   7 -1.055625E-04 -1.055625E-04 -7.430623E-14 -1.401123E-13  5.617050E-14  3.525958E-13
         8   8 -1.055625E-04 -1.055625E-04 -4.380988E-13 -3.502807E-14 -1.189699E-13  2.408226E-13
         9   1 -1.055625E-04 -1.055625E-04 -4.767594E-13  7.005614E-14 -4.847243E-13 -7.414518E-13
         9   2 -1.055625E-04 -1.055625E-04 -9.634626E-13  2.451965E-13  1.107529E-13 -5.126477E-13
         9   3 -1.055625E-04 -1.055625E-04  1.953253E-13 -9.873703E-32 -2.734342E-13  2.916575E-14
         9   4 -1.055625E-04 -1.055625E-04  3.153570E-14  1.576263E-13  7.684648E-14 -3.900495E-13
         9   5 -1.055625E-04 -1.055625E-04  5.215406E-13 -4.488859E-32  2.115586E-14 -1.713765E-13
         9   6 -1.055625E-04 -1.055625E-04  3.500900E-13  4.203368E-13  2.115586E-14 -2.547607E-13
         9   7 -1.055625E-04 -1.055625E-04  7.207463E-13 -2.802246E-13 -2.548827E-13  1.088481E-13
         9   8 -1.055625E-04 -1.055625E-04  7.671252E-13 -1.621237E-31 -4.471426E-14  1.830902E-13

 strains (elem, integ.pnt.,exx,eyy,ezz,exy,exz,eyz) forset EALL and time  0.6157813E+00

         1   1 -3.518750E-10 -3.518750E-10  3.016071E-10 -5.169879E-26  3.231174E-26  2.261822E-26
         1   2 -3.518750E-10 -3.518750E-10  3.016071E-10  9.693523E-27 -6.462349E-27 -3.069616E-26
         1   3 -3.518750E-10 -3.518750E-10  3.016071E-10 -2.552628E-25 -8.401053E-26  1.689212E-35
         1   4 -3.518750E-10 -3.518750E-10  3.016071E-10 -1.938705E-25 -8.401053E-26  1.712522E-25
         1   5 -3.518750E-10 -3.518750E-10  3.016071E-10  6.462349E-26  1.486340E-25  1.001664E-25
         1   6 -3.518750E-10 -3.518750E-10  3.016071E-10  1.744834E-25  1.098599E-25 -3.053460E-25
         1   7 -3.518750E-10 -3.518750E-10  3.016071E-10  1.615587E-25 -2.843433E-25  9.047288E-26
         1   8 -3.518750E-10 -3.518750E-10  3.016071E-10  2.714186E-25 -2.843433E-25 -1.033976E-25
         2   1 -3.518750E-10 -3.518750E-10  3.016071E-10 -3.215543E-20  4.763427E-20  4.730755E-20
         2   2 -3.518750E-10 -3.518750E-10  3.016071E-10 -8.636554E-20  9.149960E-19 -2.309395E-20
         2   3 -3.518750E-10 -3.518750E-10  3.016071E-10 -1.200057E-19 -6.163508E-20 -2.785664E-20
         2   4 -3.518750E-10 -3.518750E-10  3.016071E-10  9.683472E-20  5.888862E-19  7.930767E-21
         2   5 -3.518750E-10 -3.518750E-10  3.016071E-10 -8.451022E-19  1.777735E-19  2.517183E-19
         2   6 -3.518750E-10 -3.518750E-10  3.016071E-10  2.225955E-20  1.514321E-20 -1.172125E-19
         2   7 -3.518750E-10 -3.518750E-10  3.016071E-10 -7.842880E-19 -2.300252E-19  1.765542E-19
         2   8 -3.518750E-10 -3.518750E-10  3.016071E-10  2.999142E-19 -1.318479E-20 -8.618781E-20
         3   1 -3.518750E-10 -3.518750E-10  3.016071E-10 -3.090775E-18 -1.590587E-18 -2.409951E-20
         3   2 -3.518750E-10 -3.518750E-10  3.016071E-10  1.354454E-18  9.030781E-19  6.050284E-20
         3   3 -3.518750E-10 -3.518750E-10  3.016071E-10 -3.241061E-18  1.933395E-18 -1.735331E-19
         3   4 -3.518750E-10 -3.518750E-10  3.016071E-10  1.095747E-18  6.323523E-19 -6.784747E-21
         3   5 -3.518750E-10 -3.518750E-10  3.016071E-10  1.721809E-18 -7.631176E-19  5.949298E-20
         3   6 -3.518750E-10 -3.518750E-10  3.016071E-10  1.288128E-18 -1.630479E-18  2.930873E-19
         3   7 -3.518750E-10 -3.518750E-10  3.016071E-10  1.686527E-18  7.414518E-19 -8.994059E-20
         3   8 -3.518750E-10 -3.518750E-10  3.016071E-10  8.191654E-19 -1.259099E-19  2.257997E-19
         4   1 -3.518750E-10 -3.518750E-10  3.016071E-10  3.983710E-19  1.246884E-20 -5.637503E-19
         4   2 -3.518750E-10 -3.518750E-10  3.016071E-10  3.019027E-19  4.616706E-20 -1.025917E-18
         4   3 -3.518750E-10 -3.518750E-10  3.016071E-10  8.320519E-19  9.755926E-21  9.541328E-19
         4   4 -3.518750E-10 -3.518750E-10  3.016071E-10  7.355835E-19  1.138668E-19 -1.585551E-19
         4   5 -3.518750E-10 -3.518750E-10  3.016071E-10  7.720891E-22  1.283610E-20  1.069934E-19
         4   6 -3.518750E-10 -3.518750E-10  3.016071E-10  2.881458E-21  4.653432E-20  3.259439E-19
         4   7 -3.518750E-10 -3.518750E-10  3.016071E-10  8.681338E-19 -6.770124E-20  1.191196E-18
         4   8 -3.518750E-10 -3.518750E-10  3.016071E-10  8.702432E-19  3.640962E-20  2.175237E-19
         5   1 -3.518750E-10 -3.518750E-10  3.016071E-10 -1.572093E-18 -8.551269E-19 -5.490478E-19
         5   2 -3.518750E-10 -3.518750E-10  3.016071E-10 -9.215718E-19  6.627561E-19 -1.117090E-18
         5   3 -3.518750E-10 -3.518750E-10  3.016071E-10 -6.505213E-19  2.425749E-18 -7.658883E-19
         5   4 -3.518750E-10 -3.518750E-10  3.016071E-10 -5.963112E-19  6.910251E-19 -1.388141E-18
         5   5 -3.518750E-10 -3.518750E-10  3.016071E-10 -2.168404E-19  6.961823E-19 -7.054980E-19
         5   6 -3.518750E-10 -3.518750E-10  3.016071E-10 -8.673617E-19  1.943015E-18 -9.755755E-19
         5   7 -3.518750E-10 -3.518750E-10  3.016071E-10  8.673617E-19  2.092644E-19  1.246066E-18
         5   8 -3.518750E-10 -3.518750E-10  3.016071E-10  6.505213E-19 -8.749378E-19 -9.755755E-19
         6   1 -3.518750E-10 -3.518750E-10  3.016071E-10  2.710505E-19 -9.366332E-19 -2.614664E-19
         6   2 -3.518750E-10 -3.518750E-10  3.016071E-10 -2.710505E-19 -5.029523E-19  8.881832E-19
         6   3 -3.518750E-10 -3.518750E-10  3.016071E-10  1.084202E-18  1.514059E-18  1.722144E-19
         6   4 -3.518750E-10 -3.518750E-10  3.016071E-10  5.421011E-19  2.130164E-19 -4.128594E-19
         6   5 -3.518750E-10 -3.518750E-10  3.016071E-10  1.084202E-18  3.644603E-18  6.427131E-19
         6   6 -3.518750E-10 -3.518750E-10  3.016071E-10  2.168404E-19 -1.884828E-18  1.216119E-18
         6   7 -3.518750E-10 -3.518750E-10  3.016071E-10 -8.673617E-19  2.645916E-18 -2.246487E-19
         6   8 -3.518750E-10 -3.518750E-10  3.016071E-10 -4.336809E-19 -8.235309E-19 -5.728145E-19
         7   1 -3.518750E-10 -3.518750E-10  3.016071E-10 -4.574336E-20  9.912186E-20 -1.910918E-18
         7   2 -3.518750E-10 -3.518750E-10  3.016071E-10 -1.707166E-19  3.108472E-19 -3.345787E-18
         7   3 -3.518750E-10 -3.518750E-10  3.016071E-10 -4.574336E-20 -3.015374E-20  2.574861E-19
         7   4 -3.518750E-10 -3.518750E-10  3.016071E-10 -1.707166E-19  1.940052E-19  9.910212E-19
         7   5 -3.518750E-10 -3.518750E-10  3.016071E-10 -3.937197E-20  1.582024E-19 -2.942177E-18
         7   6 -3.518750E-10 -3.518750E-10  3.016071E-10 -1.469382E-19  3.699278E-19 -1.923741E-18
         7   7 -3.518750E-10 -3.518750E-10  3.016071E-10 -3.937197E-20 -3.366942E-19  9.609511E-19
         7   8 -3.518750E-10 -3.518750E-10  3.016071E-10 -1.469382E-19 -1.125353E-19  1.328865E-18
         8   1 -3.518750E-10 -3.518750E-10  3.016071E-10  8.673617E-19  1.468008E-19 -2.048360E-18
         8   2 -3.518750E-10 -3.518750E-10  3.016071E-10  1.192622E-18 -1.784599E-19 -1.683876E-18
         8   3 -3.518750E-10 -3.518750E-10  3.016071E-10 -3.342929E-38 -1.392370E-19  1.854768E-18
         8   4 -3.518750E-10 -3.518750E-10  3.016071E-10  3.794708E-19  7.760342E-20 -2.984919E-18
         8   5 -3.518750E-10 -3.518750E-10  3.016071E-10  8.673617E-19 -6.950723E-19 -3.021435E-18
         8   6 -3.518750E-10 -3.518750E-10  3.016071E-10  1.301043E-18 -5.866521E-19 -2.439167E-19
         8   7 -3.518750E-10 -3.518750E-10  3.016071E-10 -8.673617E-19  3.477221E-19  2.182736E-18
         8   8 -3.518750E-10 -3.518750E-10  3.016071E-10 -2.168404E-19 -7.364801E-19  1.490807E-18
         9   1 -3.518750E-10 -3.518750E-10  3.016071E-10  4.336809E-19 -3.000674E-18 -4.589940E-18
         9   2 -3.518750E-10 -3.518750E-10  3.016071E-10  1.517883E-18  6.856132E-19 -3.173533E-18
         9   3 -3.518750E-10 -3.518750E-10  3.016071E-10  1.517898E-38 -1.692688E-18  1.805499E-19
         9   4 -3.518750E-10 -3.518750E-10  3.016071E-10  9.757820E-19  4.757163E-19 -2.414592E-18
         9   5 -3.518750E-10 -3.518750E-10  3.016071E-10  1.764938E-37  1.309648E-19 -1.060902E-18
         9   6 -3.518750E-10 -3.518750E-10  3.016071E-10  2.602085E-18  1.309648E-19 -1.577090E-18
         9   7 -3.518750E-10 -3.518750E-10  3.016071E-10 -1.734723E-18 -1.577845E-18  6.738213E-19
         9   8 -3.518750E-10 -3.518750E-10  3.016071E-10  2.195464E-37 -2.768026E-19  1.133416E-18

 displacements (vx,vy,vz) for set NALL and time  0.6247813E+00

         1  0.000000E+00  0.000000E+00  0.000000E+00
         2 -1.785089E-07  0.000000E+00  0.000000E+00
         3 -9.371719E+00  0.000000E+00  0.000000E+00
         4 -9.371719E+00  0.000000E+00  0.000000E+00
         5 -1.874344E+01  0.000000E+00  0.000000E+00
         6 -1.874344E+01  0.000000E+00  0.000000E+00
         7  0.000000E+00 -1.785089E-07  0.000000E+00
         8 -1.785089E-07 -1.785089E-07  0.000000E+00
         9 -9.371719E+00 -1.785089E-07  0.000000E+00
        10 -9.371719E+00 -1.785089E-07  0.000000E+00
        11 -1.874344E+01 -1.785089E-07  0.000000E+00
        12 -1.874344E+01 -1.785089E-07  0.000000E+00
        13  0.000000E+00 -9.371719E+00  0.000000E+00
        14 -1.785089E-07 -9.371719E+00  0.000000E+00
        15 -9.371719E+00 -9.371719E+00  0.000000E+00
        16 -9.371719E+00 -9.371719E+00  0.000000E+00
        17 -1.874344E+01 -9.371719E+00  0.000000E+00
        18 -1.874344E+01 -9.371719E+00  0.000000E+00
        19  0.000000E+00 -9.371719E+00  0.000000E+00
        20 -1.785089E-07 -9.371719E+00  0.000000E+00
        21 -9.371719E+00 -9.371719E+00  0.000000E+00
        22 -9.371719E+00 -9.371719E+00  0.000000E+00
        23 -1.874344E+01 -9.371719E+00  0.000000E+00
        24 -1.874344E+01 -9.371719E+00  0.000000E+00
        25  0.000000E+00 -1.874344E+01  0.000000E+00
        26 -1.785089E-07 -1.874344E+01  0.000000E+00
        27 -9.371719E+00 -1.874344E+01  0.000000E+00
        28 -9.371719E+00 -1.874344E+01  0.000000E+00
        29 -1.874344E+01 -1.874344E+01  0.000000E+00
        30 -1.874344E+01 -1.874344E+01  0.000000E+00
        31  0.000000E+00 -1.874344E+01  0.000000E+00
        32 -1.785089E-07 -1.874344E+01  0.000000E+00
        33 -9.371719E+00 -1.874344E+01  0.000000E+00
        34 -9.371719E+00 -1.874344E+01  0.000000E+00
        35 -1.874344E+01 -1.874344E+01  0.000000E+00
        36 -1.874344E+01 -1.874344E+01  0.000000E+00
        37  0.000000E+00  0.000000E+00  2.142107E-07
        38 -1.785089E-07  0.000000E+00  2.142107E-07
        39 -9.371719E+00  0.000000E+00  2.142107E-07
        40 -9.371719E+00  0.000000E+00  2.142107E-07
        41 -1.874344E+01  0.000000E+00  2.142107E-07
        42 -1.874344E+01  0.000000E+00  2.142107E-07
        43  0.000000E+00 -1.785089E-07  2.142107E-07
        44 -1.785089E-07 -1.785089E-07  2.142107E-07
        45 -9.371719E+00 -1.785089E-07  2.142107E-07
        46 -9.371719E+00 -1.785089E-07  2.142107E-07
        47 -1.874344E+01 -1.785089E-07  2.142107E-07
        48 -1.874344E+01 -1.785089E-07  2.142107E-07
        49  0.000000E+00 -9.371719E+00  2.142107E-07
        50 -1.785089E-07 -9.371719E+00  2.142107E-07
        51 -9.371719E+00 -9.371719E+00  2.142107E-07
        52 -9.371719E+00 -9.371719E+00  2.142107E-07
        53 -1.874344E+01 -9.371719E+00  2.142107E-07
        54 -1.874344E+01 -9.371719E+00  2.142107E-07
        55  0.000000E+00 -9.371719E+00  2.142107E-07
        56 -1.785089E-07 -9.371719E+00  2.142107E-07
        57 -9.371719E+00 -9.371719E+00  2.142107E-07
        58 -9.371719E+00 -9.371719E+00  2.142107E-07
        59 -1.874344E+01 -9.371719E+00  2.142107E-07
        60 -1.874344E+01 -9.371719E+00  2.142107E-07
        61  0.000000E+00 -1.874344E+01  2.142107E-07
        62 -1.785089E-07 -1.874344E+01  2.142107E-07
        63 -9.371719E+00 -1.874344E+01  2.142107E-07
        64 -9.371719E+00 -1.874344E+01  2.142107E-07
        65 -1.874344E+01 -1.874344E+01  2.142107E-07
        66 -1.874344E+01 -1.874344E+01  2.142107E-07
        67  0.000000E+00 -1.874344E+01  2.142107E-07
        68 -1.785089E-07 -1.874344E+01  2.142107E-07
        69 -9.371719E+00 -1.874344E+01  2.142107E-07
        70 -9.371719E+00 -1.874344E+01  2.142107E-07
        71 -1.874344E+01 -1.874344E+01  2.142107E-07
        72 -1.874344E+01 -1.874344E+01  2.142107E-07

 stresses (elem, integ.pnt.,sxx,syy,szz,sxy,sxz,syz) for set EALL and time  0.6247813E+00

         1   1 -1.071054E-04 -1.071054E-04 -1.355253E-20  4.436651E-21 -6.785466E-21  2.087836E-21
         1   2 -1.071054E-04 -1.071054E-04 -5.421011E-20 -2.035640E-20  7.046445E-21 -4.436651E-21
         1   3 -1.071054E-04 -1.071054E-04 -4.065758E-20  3.940790E-20  4.697630E-21 -2.087836E-21
         1   4 -1.071054E-04 -1.071054E-04 -6.776264E-20  1.461485E-20  4.280063E-20 -3.236145E-20
         1   5 -1.071054E-04 -1.071054E-04  1.355253E-20  4.175671E-21 -3.523223E-20  1.461485E-20
         1   6 -1.071054E-04 -1.071054E-04 -8.131516E-20  1.357093E-20 -2.140032E-20  7.568404E-21
         1   7 -1.071054E-04 -1.071054E-04  1.355253E-20  7.307425E-21 -2.035640E-20  1.043918E-20
         1   8 -1.071054E-04 -1.071054E-04 -6.776264E-20  1.670269E-20  1.879052E-20 -2.035640E-20
         2   1 -1.071054E-04 -1.071054E-04 -1.143512E-14 -2.768205E-13  2.718012E-14  3.203849E-15
         2   2 -1.071054E-04 -1.071054E-04 -5.108739E-14 -1.542222E-13  9.090687E-16 -1.300593E-15
         2   3 -1.071054E-04 -1.071054E-04 -8.512757E-14 -2.675203E-13 -5.421455E-15  9.908633E-15
         2   4 -1.071054E-04 -1.071054E-04 -1.082066E-13 -1.361651E-13 -4.044952E-14 -1.353149E-14
         2   5 -1.071054E-04 -1.071054E-04  8.145806E-14 -1.464115E-13  5.739122E-15  5.252142E-15
         2   6 -1.071054E-04 -1.071054E-04  2.040889E-15 -6.299224E-15 -1.869153E-13  7.377014E-15
         2   7 -1.071054E-04 -1.071054E-04 -1.850541E-14 -1.636213E-13  2.599914E-13  1.195692E-14
         2   8 -1.071054E-04 -1.071054E-04 -8.134933E-14 -1.285932E-13  2.950195E-13 -4.853878E-15
         3   1 -1.071054E-04 -1.071054E-04 -3.277992E-14 -9.167489E-14 -1.370805E-13  3.510220E-15
         3   2 -1.071054E-04 -1.071054E-04 -1.006678E-13  1.710356E-13  9.060195E-14  1.932938E-15
         3   3 -1.071054E-04 -1.071054E-04  3.610246E-14 -1.507384E-13 -2.892386E-14 -5.648631E-14
         3   4 -1.071054E-04 -1.071054E-04 -2.500465E-13  9.445809E-14  1.111884E-13  2.493159E-14
         3   5 -1.071054E-04 -1.071054E-04 -2.638569E-13 -2.593136E-13 -5.874141E-14  7.309686E-14
         3   6 -1.071054E-04 -1.071054E-04 -1.574549E-13 -4.914520E-14 -1.638256E-13 -1.578483E-14
         3   7 -1.071054E-04 -1.071054E-04  2.253623E-13 -2.021839E-13 -1.079453E-13  1.310032E-14
         3   8 -1.071054E-04 -1.071054E-04  1.135034E-13  2.181530E-13 -1.780014E-13  7.213819E-15
         4   1 -1.071054E-04 -1.071054E-04  3.977472E-14 -4.770166E-15 -2.098666E-15 -6.319945E-14
         4   2 -1.071054E-04 -1.071054E-04  2.493567E-14 -1.780250E-14 -1.240513E-14  6.584192E-14
         4   3 -1.071054E-04 -1.071054E-04  6.705827E-14 -4.770166E-15  4.631519E-16  2.870813E-13
         4   4 -1.071054E-04 -1.071054E-04  3.641506E-14 -1.780250E-14  3.477371E-15 -1.005414E-13
         4   5 -1.071054E-04 -1.071054E-04 -8.695308E-14  2.055825E-15  2.474139E-15  1.306737E-13
         4   6 -1.071054E-04 -1.071054E-04 -7.552105E-14  7.672445E-15 -7.832326E-15 -9.317095E-15
         4   7 -1.071054E-04 -1.071054E-04 -3.169609E-14  2.055825E-15 -1.285712E-15  2.558951E-14
         4   8 -1.071054E-04 -1.071054E-04 -3.606825E-14  7.672445E-15  1.728507E-15  5.198203E-14
         5   1 -1.071054E-04 -1.071054E-04 -4.248831E-14  3.502807E-14  1.315443E-13 -1.975685E-14
         5   2 -1.071054E-04 -1.071054E-04  8.288846E-14  1.751404E-14  3.521708E-14 -1.465885E-13
         5   3 -1.071054E-04 -1.071054E-04 -1.614879E-13  1.751404E-13 -2.155840E-14  1.527122E-14
         5   4 -1.071054E-04 -1.071054E-04 -1.117016E-13  2.451965E-13  1.535820E-13 -2.078876E-13
         5   5 -1.071054E-04 -1.071054E-04 -6.335870E-13 -1.401123E-13  1.781922E-13 -1.306316E-14
         5   6 -1.071054E-04 -1.071054E-04 -5.344813E-13  1.050842E-13 -5.824730E-14 -7.030098E-14
         5   7 -1.071054E-04 -1.071054E-04 -2.140300E-13  1.541134E-30 -8.045704E-14 -8.311930E-14
         5   8 -1.071054E-04 -1.071054E-04 -3.087345E-13  1.401123E-13 -8.045704E-14  7.856832E-14
         6   1 -1.071054E-04 -1.071054E-04 -5.912672E-13 -1.751404E-13  1.691171E-13 -1.696591E-13
         6   2 -1.071054E-04 -1.071054E-04 -1.698563E-13  3.502807E-13  1.340891E-13 -2.405040E-13
         6   3 -1.071054E-04 -1.071054E-04 -4.196679E-13 -2.451965E-13  1.945908E-14  4.050928E-14
         6   4 -1.071054E-04 -1.071054E-04 -6.345591E-14  2.627105E-13 -1.206532E-13  6.599157E-14
         6   5 -1.071054E-04 -1.071054E-04 -1.330406E-14  1.401123E-13  3.884722E-13 -2.395766E-14
         6   6 -1.071054E-04 -1.071054E-04 -4.457024E-13  2.802246E-13 -2.595471E-13 -1.121251E-13
         6   7 -1.071054E-04 -1.071054E-04  5.786321E-13 -1.401123E-13  3.528469E-13  1.511827E-13
         6   8 -1.071054E-04 -1.071054E-04  2.386612E-13  2.101684E-13 -1.375461E-13  1.155573E-13
         7   1 -1.071054E-04 -1.071054E-04 -4.800191E-14 -8.721221E-15 -5.026856E-15 -9.392908E-14
         7   2 -1.071054E-04 -1.071054E-04  1.187415E-13 -3.254804E-14  9.117938E-15 -1.453808E-13
         7   3 -1.071054E-04 -1.071054E-04 -2.467974E-13 -8.721221E-15  7.487490E-16 -2.387294E-14
         7   4 -1.071054E-04 -1.071054E-04 -7.260636E-14 -3.254804E-14  2.769375E-14 -1.628948E-13
         7   5 -1.071054E-04 -1.071054E-04 -5.437189E-13 -2.161938E-15 -3.290527E-14 -3.693196E-13
         7   6 -1.071054E-04 -1.071054E-04  1.221745E-13 -8.068462E-15 -1.876048E-14 -1.496944E-14
         7   7 -1.071054E-04 -1.071054E-04 -7.156339E-13 -2.161938E-15 -2.415064E-14  1.911295E-13
         7   8 -1.071054E-04 -1.071054E-04 -4.626297E-13 -8.068460E-15  2.794370E-15  3.353113E-13
         8   1 -1.071054E-04 -1.071054E-04 -1.382005E-13  1.751404E-13  8.147697E-14 -2.681044E-13
         8   2 -1.071054E-04 -1.071054E-04  1.762447E-13  1.751404E-13  2.391033E-13 -1.549427E-13
         8   3 -1.071054E-04 -1.071054E-04 -2.914753E-14  3.502807E-14 -3.304373E-14  1.212012E-14
         8   4 -1.071054E-04 -1.071054E-04  7.870102E-15  1.138412E-13  3.701241E-14  3.771169E-14
         8   5 -1.071054E-04 -1.071054E-04 -6.845273E-15  4.203368E-13  2.878196E-13 -2.349917E-13
         8   6 -1.071054E-04 -1.071054E-04 -3.392372E-14  6.655333E-13  3.403617E-13  1.770275E-13
         8   7 -1.071054E-04 -1.071054E-04  1.810209E-13 -4.203368E-13  1.569037E-13  3.254575E-13
         8   8 -1.071054E-04 -1.071054E-04 -7.802615E-13 -1.401123E-13 -1.233209E-13  3.696819E-13
         9   1 -1.071054E-04 -1.071054E-04 -1.075697E-13 -5.604491E-13 -2.806530E-13 -1.212523E-13
         9   2 -1.071054E-04 -1.071054E-04 -3.262781E-13 -3.502807E-14  1.708555E-14 -4.445161E-14
         9   3 -1.071054E-04 -1.071054E-04 -8.383801E-14 -2.802246E-13  2.515126E-13  2.990845E-13
         9   4 -1.071054E-04 -1.071054E-04  1.929345E-13  2.276825E-13  1.814564E-13  1.306887E-13
         9   5 -1.071054E-04 -1.071054E-04 -7.380750E-13 -2.802246E-13  1.717238E-14 -2.798944E-13
         9   6 -1.071054E-04 -1.071054E-04 -6.940729E-13 -7.005614E-14  1.717238E-14  3.138541E-13
         9   7 -1.071054E-04 -1.071054E-04 -2.940064E-13 -2.802246E-13 -1.071546E-13  3.506109E-13
         9   8 -1.071054E-04 -1.071054E-04  2.454766E-13  1.401123E-13  3.295771E-14 -5.394062E-14

 strains (elem, integ.pnt.,exx,eyy,ezz,exy,exz,eyz) forset EALL and time  0.6247813E+00

         1   1 -3.570178E-10 -3.570178E-10  3.060153E-10  2.746498E-26 -4.200527E-26  1.292470E-26
         1   2 -3.570178E-10 -3.570178E-10  3.060153E-10 -1.260158E-25  4.362085E-26 -2.746498E-26
         1   3 -3.570178E-10 -3.570178E-10  3.060153E-10  2.439537E-25  2.908057E-26 -1.292470E-26
         1   4 -3.570178E-10 -3.570178E-10  3.060153E-10  9.047288E-26  2.649563E-25 -2.003328E-25
         1   5 -3.570178E-10 -3.570178E-10  3.060153E-10  2.584939E-26 -2.181043E-25  9.047288E-26
         1   6 -3.570178E-10 -3.570178E-10  3.060153E-10  8.401053E-26 -1.324781E-25  4.685203E-26
         1   7 -3.570178E-10 -3.570178E-10  3.060153E-10  4.523644E-26 -1.260158E-25  6.462349E-26
         1   8 -3.570178E-10 -3.570178E-10  3.060153E-10  1.033976E-25  1.163223E-25 -1.260158E-25
         2   1 -3.570178E-10 -3.570178E-10  3.060153E-10 -1.713651E-18  1.682579E-19  1.983335E-20
         2   2 -3.570178E-10 -3.570178E-10  3.060153E-10 -9.547090E-19  5.627568E-21 -8.051293E-21
         2   3 -3.570178E-10 -3.570178E-10  3.060153E-10 -1.656078E-18 -3.356139E-20  6.133916E-20
         2   4 -3.570178E-10 -3.570178E-10  3.060153E-10 -8.429266E-19 -2.504018E-19 -8.376634E-20
         2   5 -3.570178E-10 -3.570178E-10  3.060153E-10 -9.063569E-19  3.552790E-20  3.251326E-20
         2   6 -3.570178E-10 -3.570178E-10  3.060153E-10 -3.899519E-20 -1.157094E-18  4.566723E-20
         2   7 -3.570178E-10 -3.570178E-10  3.060153E-10 -1.012894E-18  1.609471E-18  7.401906E-20
         2   8 -3.570178E-10 -3.570178E-10  3.060153E-10 -7.960533E-19  1.826311E-18 -3.004781E-20
         3   1 -3.570178E-10 -3.570178E-10  3.060153E-10 -5.675112E-19 -8.485936E-19  2.172993E-20
         3   2 -3.570178E-10 -3.570178E-10  3.060153E-10  1.058792E-18  5.608692E-19  1.196580E-20
         3   3 -3.570178E-10 -3.570178E-10  3.060153E-10 -9.331425E-19 -1.790525E-19 -3.496772E-19
         3   4 -3.570178E-10 -3.570178E-10  3.060153E-10  5.847406E-19  6.883093E-19  1.543384E-19
         3   5 -3.570178E-10 -3.570178E-10  3.060153E-10 -1.605275E-18 -3.636373E-19  4.525044E-19
         3   6 -3.570178E-10 -3.570178E-10  3.060153E-10 -3.042322E-19 -1.014159E-18 -9.771563E-20
         3   7 -3.570178E-10 -3.570178E-10  3.060153E-10 -1.251614E-18 -6.682329E-19  8.109724E-20
         3   8 -3.570178E-10 -3.570178E-10  3.060153E-10  1.350471E-18 -1.101914E-18  4.465697E-20
         4   1 -3.570178E-10 -3.570178E-10  3.060153E-10 -2.952960E-20 -1.299174E-20 -3.912347E-19
         4   2 -3.570178E-10 -3.570178E-10  3.060153E-10 -1.102060E-19 -7.679367E-20  4.075929E-19
         4   3 -3.570178E-10 -3.570178E-10  3.060153E-10 -2.952960E-20  2.867131E-21  1.777170E-18
         4   4 -3.570178E-10 -3.570178E-10  3.060153E-10 -1.102060E-19  2.152658E-20 -6.223992E-19
         4   5 -3.570178E-10 -3.570178E-10  3.060153E-10  1.272654E-20  1.531610E-20  8.089326E-19
         4   6 -3.570178E-10 -3.570178E-10  3.060153E-10  4.749609E-20 -4.848583E-20 -5.767726E-20
         4   7 -3.570178E-10 -3.570178E-10  3.060153E-10  1.272654E-20 -7.959171E-21  1.584113E-19
         4   8 -3.570178E-10 -3.570178E-10  3.060153E-10  4.749609E-20  1.070028E-20  3.217935E-19
         5   1 -3.570178E-10 -3.570178E-10  3.060153E-10  2.168404E-19  8.143217E-19 -1.223043E-19
         5   2 -3.570178E-10 -3.570178E-10  3.060153E-10  1.084202E-19  2.180105E-19 -9.074524E-19
         5   3 -3.570178E-10 -3.570178E-10  3.060153E-10  1.084202E-18 -1.334568E-19  9.453614E-20
         5   4 -3.570178E-10 -3.570178E-10  3.060153E-10  1.517883E-18  9.507454E-19 -1.286923E-18
         5   5 -3.570179E-10 -3.570178E-10  3.060153E-10 -8.673617E-19  1.103094E-18 -8.086719E-20
         5   6 -3.570179E-10 -3.570178E-10  3.060153E-10  6.505213E-19 -3.605785E-19 -4.351965E-19
         5   7 -3.570178E-10 -3.570178E-10  3.060153E-10 -9.379247E-36 -4.980674E-19 -5.145481E-19
         5   8 -3.570178E-10 -3.570178E-10  3.060153E-10  8.673617E-19 -4.980674E-19  4.863753E-19
         6   1 -3.570178E-10 -3.570178E-10  3.060153E-10 -1.084202E-18  1.046916E-18 -1.050271E-18
         6   2 -3.570178E-10 -3.570178E-10  3.060153E-10  2.168404E-18  8.300752E-19 -1.488835E-18
         6   3 -3.570178E-10 -3.570178E-10  3.060153E-10 -1.517883E-18  1.204610E-19  2.507717E-19
         6   4 -3.570178E-10 -3.570178E-10  3.060153E-10  1.626303E-18 -7.469007E-19  4.085192E-19
         6   5 -3.570178E-10 -3.570178E-10  3.060153E-10  8.673617E-19  2.404828E-18 -1.483093E-19
         6   6 -3.570178E-10 -3.570178E-10  3.060153E-10  1.734723E-18 -1.606720E-18 -6.941079E-19
         6   7 -3.570178E-10 -3.570178E-10  3.060153E-10 -8.673617E-19  2.184290E-18  9.358929E-19
         6   8 -3.570178E-10 -3.570178E-10  3.060153E-10  1.301043E-18 -8.514760E-19  7.153550E-19
         7   1 -3.570178E-10 -3.570178E-10  3.060153E-10 -5.398851E-20 -3.111863E-20 -5.814657E-19
         7   2 -3.570178E-10 -3.570178E-10  3.060153E-10 -2.014879E-19  5.644438E-20 -8.999763E-19
         7   3 -3.570178E-10 -3.570178E-10  3.060153E-10 -5.398851E-20  4.635113E-21 -1.477849E-19
         7   4 -3.570178E-10 -3.570178E-10  3.060153E-10 -2.014879E-19  1.714375E-19 -1.008396E-18
         7   5 -3.570178E-10 -3.570179E-10  3.060153E-10 -1.338343E-20 -2.036993E-19 -2.286264E-18
         7   6 -3.570178E-10 -3.570178E-10  3.060153E-10 -4.994762E-20 -1.161363E-19 -9.266797E-20
         7   7 -3.570178E-10 -3.570179E-10  3.060153E-10 -1.338343E-20 -1.495039E-19  1.183183E-18
         7   8 -3.570178E-10 -3.570179E-10  3.060153E-10 -4.994761E-20  1.729848E-20  2.075736E-18
         8   1 -3.570178E-10 -3.570178E-10  3.060153E-10  1.084202E-18  5.043813E-19 -1.659694E-18
         8   2 -3.570178E-10 -3.570178E-10  3.060153E-10  1.084202E-18  1.480163E-18 -9.591690E-19
         8   3 -3.570178E-10 -3.570178E-10  3.060153E-10  2.168404E-19 -2.045564E-19  7.502931E-20
         8   4 -3.570178E-10 -3.570178E-10  3.060153E-10  7.047314E-19  2.291244E-19  2.334533E-19
         8   5 -3.570178E-10 -3.570178E-10  3.060153E-10  2.602085E-18  1.781740E-18 -1.454710E-18
         8   6 -3.570178E-10 -3.570179E-10  3.060153E-10  4.119968E-18  2.107001E-18  1.095884E-18
         8   7 -3.570178E-10 -3.570178E-10  3.060153E-10 -2.602085E-18  9.713085E-19  2.014737E-18
         8   8 -3.570178E-10 -3.570179E-10  3.060153E-10 -8.673617E-19 -7.634150E-19  2.288507E-18
         9   1 -3.570178E-10 -3.570178E-10  3.060153E-10 -3.469447E-18 -1.737376E-18 -7.506096E-19
         9   2 -3.570178E-10 -3.570178E-10  3.060153E-10 -2.168404E-19  1.057677E-19 -2.751766E-19
         9   3 -3.570178E-10 -3.570178E-10  3.060153E-10 -1.734723E-18  1.556983E-18  1.851476E-18
         9   4 -3.570178E-10 -3.570178E-10  3.060153E-10  1.409463E-18  1.123302E-18  8.090255E-19
         9   5 -3.570178E-10 -3.570179E-10  3.060153E-10 -1.734723E-18  1.063052E-19 -1.732679E-18
         9   6 -3.570178E-10 -3.570178E-10  3.060153E-10 -4.336809E-19  1.063052E-19  1.942906E-18
         9   7 -3.570178E-10 -3.570179E-10  3.060153E-10 -1.734723E-18 -6.633378E-19  2.170448E-18
         9   8 -3.570178E-10 -3.570178E-10  3.060153E-10  8.673617E-19  2.040239E-19 -3.339181E-19

 displacements (vx,vy,vz) for set NALL and time  0.6337813E+00

         1  0.000000E+00  0.000000E+00  0.000000E+00
         2 -1.810804E-07  0.000000E+00  0.000000E+00
         3 -9.506719E+00  0.000000E+00  0.000000E+00
         4 -9.506719E+00  0.000000E+00  0.000000E+00
         5 -1.901344E+01  0.000000E+00  0.000000E+00
         6 -1.901344E+01  0.000000E+00  0.000000E+00
         7  0.000000E+00 -1.810804E-07  0.000000E+00
         8 -1.810804E-07 -1.810804E-07  0.000000E+00
         9 -9.506719E+00 -1.810804E-07  0.000000E+00
        10 -9.506719E+00 -1.810804E-07  0.000000E+00
        11 -1.901344E+01 -1.810804E-07  0.000000E+00
        12 -1.901344E+01 -1.810804E-07  0.000000E+00
        13  0.000000E+00 -9.506719E+00  0.000000E+00
        14 -1.810804E-07 -9.506719E+00  0.000000E+00
        15 -9.506719E+00 -9.506719E+00  0.000000E+00
        16 -9.506719E+00 -9.506719E+00  0.000000E+00
        17 -1.901344E+01 -9.506719E+00  0.000000E+00
        18 -1.901344E+01 -9.506719E+00  0.000000E+00
        19  0.000000E+00 -9.506719E+00  0.000000E+00
        20 -1.810804E-07 -9.506719E+00  0.000000E+00
        21 -9.506719E+00 -9.506719E+00  0.000000E+00
        22 -9.506719E+00 -9.506719E+00  0.000000E+00
        23 -1.901344E+01 -9.506719E+00  0.000000E+00
        24 -1.901344E+01 -9.506719E+00  0.000000E+00
        25  0.000000E+00 -1.901344E+01  0.000000E+00
        26 -1.810804E-07 -1.901344E+01  0.000000E+00
        27 -9.506719E+00 -1.901344E+01  0.000000E+00
        28 -9.506719E+00 -1.901344E+01  0.000000E+00
        29 -1.901344E+01 -1.901344E+01  0.000000E+00
        30 -1.901344E+01 -1.901344E+01  0.000000E+00
        31  0.000000E+00 -1.901344E+01  0.000000E+00
        32 -1.810804E-07 -1.901344E+01  0.000000E+00
        33 -9.506719E+00 -1.901344E+01  0.000000E+00
        34 -9.506719E+00 -1.901344E+01  0.000000E+00
        35 -1.901344E+01 -1.901344E+01  0.000000E+00
        36 -1.901344E+01 -1.901344E+01  0.000000E+00
        37  0.000000E+00  0.000000E+00  2.172964E-07
        38 -1.810804E-07  0.000000E+00  2.172964E-07
        39 -9.506719E+00  0.000000E+00  2.172964E-07
        40 -9.506719E+00  0.000000E+00  2.172964E-07
        41 -1.901344E+01  0.000000E+00  2.172964E-07
        42 -1.901344E+01  0.000000E+00  2.172964E-07
        43  0.000000E+00 -1.810804E-07  2.172964E-07
        44 -1.810804E-07 -1.810804E-07  2.172964E-07
        45 -9.506719E+00 -1.810804E-07  2.172964E-07
        46 -9.506719E+00 -1.810804E-07  2.172964E-07
        47 -1.901344E+01 -1.810804E-07  2.172964E-07
        48 -1.901344E+01 -1.810804E-07  2.172964E-07
        49  0.000000E+00 -9.506719E+00  2.172964E-07
        50 -1.810804E-07 -9.506719E+00  2.172964E-07
        51 -9.506719E+00 -9.506719E+00  2.172964E-07
        52 -9.506719E+00 -9.506719E+00  2.172964E-07
        53 -1.901344E+01 -9.506719E+00  2.172964E-07
        54 -1.901344E+01 -9.506719E+00  2.172964E-07
        55  0.000000E+00 -9.506719E+00  2.172964E-07
        56 -1.810804E-07 -9.506719E+00  2.172964E-07
        57 -9.506719E+00 -9.506719E+00  2.172964E-07
        58 -9.506719E+00 -9.506719E+00  2.172964E-07
        59 -1.901344E+01 -9.506719E+00  2.172964E-07
        60 -1.901344E+01 -9.506719E+00  2.172964E-07
        61  0.000000E+00 -1.901344E+01  2.172964E-07
        62 -1.810804E-07 -1.901344E+01  2.172964E-07
        63 -9.506719E+00 -1.901344E+01  2.172964E-07
        64 -9.506719E+00 -1.901344E+01  2.172964E-07
        65 -1.901344E+01 -1.901344E+01  2.172964E-07
        66 -1.901344E+01 -1.901344E+01  2.172964E-07
        67  0.000000E+00 -1.901344E+01  2.172964E-07
        68 -1.810804E-07 -1.901344E+01  2.172964E-07
        69 -9.506719E+00 -1.901344E+01  2.172964E-07
        70 -9.506719E+00 -1.901344E+01  2.172964E-07
        71 -1.901344E+01 -1.901344E+01  2.172964E-07
        72 -1.901344E+01 -1.901344E+01  2.172964E-07

 stresses (elem, integ.pnt.,sxx,syy,szz,sxy,sxz,syz) for set EALL and time  0.6337813E+00

         1   1 -1.086482E-04 -1.086482E-04 -2.710505E-20 -5.480569E-21 -1.304897E-22  4.175671E-21
         1   2 -1.086482E-04 -1.086482E-04 -4.065758E-20 -1.748562E-20  1.304897E-21 -1.813807E-20
         1   3 -1.086482E-04 -1.086482E-04 -5.421011E-20 -6.785466E-21 -1.618073E-20  9.395261E-21
         1   4 -1.086482E-04 -1.086482E-04 -2.303930E-19 -1.879052E-20  1.565877E-20  1.304897E-21
         1   5 -1.086482E-04 -1.086482E-04 -4.065758E-20  1.879052E-20 -1.435387E-21  9.395261E-21
         1   6 -1.086482E-04 -1.086482E-04  1.355253E-20  5.115197E-20  7.021226E-31 -8.677567E-20
         1   7 -1.086482E-04 -1.086482E-04  2.710505E-20  3.862496E-20 -9.290869E-20  1.252701E-20
         1   8 -1.086482E-04 -1.086482E-04 -1.219727E-19  7.098641E-20 -6.054723E-20 -6.733270E-20
         2   1 -1.086482E-04 -1.086482E-04 -1.434904E-13 -3.255680E-15  3.589063E-14  6.091981E-15
         2   2 -1.086482E-04 -1.086482E-04 -1.509411E-13 -2.952673E-14 -1.304927E-13 -1.640641E-15
         2   3 -1.086482E-04 -1.086482E-04 -1.508059E-13 -1.215036E-14 -1.585092E-14 -5.863518E-15
         2   4 -1.086482E-04 -1.086482E-04 -2.724117E-13  4.039174E-14  1.592894E-13  1.094004E-14
         2   5 -1.086482E-04 -1.086482E-04 -1.948680E-13 -1.307948E-13  3.824720E-14  3.469108E-14
         2   6 -1.086482E-04 -1.086482E-04 -1.507927E-13 -2.571054E-14  1.608454E-13 -1.870363E-14
         2   7 -1.086482E-04 -1.086482E-04 -1.759124E-13 -1.053388E-13 -5.915645E-14  2.273558E-14
         2   8 -1.086482E-04 -1.086482E-04 -2.459923E-13  6.980157E-14 -1.292126E-13 -6.122955E-15
         3   1 -1.086482E-04 -1.086482E-04  3.273325E-13  1.700406E-13  1.795989E-13 -1.774013E-14
         3   2 -1.086482E-04 -1.086482E-04  4.325846E-13  9.998447E-14  1.445709E-13  2.285741E-14
         3   3 -1.086482E-04 -1.086482E-04  9.412099E-14  6.040939E-14  4.823642E-14 -4.648144E-14
         3   4 -1.086482E-04 -1.086482E-04  2.591350E-13 -9.646746E-15  1.182926E-13  8.112587E-14
         3   5 -1.086482E-04 -1.086482E-04  8.307833E-14 -2.757655E-13  2.874785E-13 -3.746578E-14
         3   6 -1.086482E-04 -1.086482E-04  3.710509E-13 -1.356532E-13  4.228200E-14  2.703656E-14
         3   7 -1.086482E-04 -1.086482E-04 -5.967410E-13  1.664155E-14 -1.002038E-13 -6.620709E-14
         3   8 -1.086482E-04 -1.086482E-04 -2.490065E-13  1.664155E-14  3.990849E-14  8.530502E-14
         4   1 -1.086482E-04 -1.086482E-04 -1.051788E-13 -1.714403E-14  5.662379E-16 -3.773528E-14
         4   2 -1.086482E-04 -1.086482E-04 -4.829015E-14 -1.613314E-14  3.745883E-16  1.446102E-13
         4   3 -1.086482E-04 -1.086482E-04 -1.221531E-13 -3.465806E-14 -3.295743E-16  1.374051E-13
         4   4 -1.086482E-04 -1.086482E-04 -7.586373E-14 -3.364718E-14  1.271110E-15  6.579708E-14
         4   5 -1.086482E-04 -1.086482E-04  2.096713E-13 -3.373961E-14  2.304873E-15 -1.010343E-14
         4   6 -1.086482E-04 -1.086482E-04 -4.869259E-14 -3.021946E-14  2.113226E-15 -8.595116E-14
         4   7 -1.086482E-04 -1.086482E-04 -2.238758E-13 -2.789361E-13 -2.830676E-15  1.300088E-13
         4   8 -1.086482E-04 -1.086482E-04 -7.250229E-14 -2.754159E-13 -1.229990E-15  5.416112E-14
         5   1 -1.086482E-04 -1.086482E-04  1.018825E-13 -3.327667E-13 -1.011349E-13 -3.748880E-14
         5   2 -1.086482E-04 -1.086482E-04  4.178380E-13 -1.050842E-13  4.773436E-14 -1.271544E-13
         5   3 -1.086482E-04 -1.086482E-04  3.477859E-13 -3.502807E-14 -6.903159E-15  1.376516E-13
         5   4 -1.086482E-04 -1.086482E-04  7.209733E-13  2.714675E-13 -4.193123E-14  5.674298E-14
         5   5 -1.086482E-04 -1.086482E-04 -1.082860E-13 -4.203368E-13  1.198231E-13 -1.492958E-13
         5   6 -1.086482E-04 -1.086482E-04  4.441091E-13 -3.502807E-14  1.285801E-13  3.788480E-14
         5   7 -1.086482E-04 -1.086482E-04  4.003280E-13 -2.802246E-13  1.143493E-13 -9.183554E-15
         5   8 -1.086482E-04 -1.086482E-04  9.836838E-13  1.401123E-13 -9.581908E-14 -1.547696E-13
         6   1 -1.086482E-04 -1.086482E-04  1.355518E-13 -3.415237E-13 -1.055926E-13 -1.284461E-13
         6   2 -1.086482E-04 -1.086482E-04  6.734428E-13  9.632719E-14 -3.507891E-13 -2.720659E-13
         6   3 -1.086482E-04 -1.086482E-04  1.889623E-13 -2.101684E-13  2.225516E-14 -1.284461E-13
         6   4 -1.086482E-04 -1.086482E-04  4.723231E-13  2.276825E-13  2.225516E-14  1.395139E-13
         6   5 -1.086482E-04 -1.086482E-04  5.673863E-14 -2.101684E-13  4.090538E-13 -6.154540E-14
         6   6 -1.086482E-04 -1.086482E-04  5.552230E-13  7.005614E-14 -1.689094E-13 -8.980321E-14
         6   7 -1.086482E-04 -1.086482E-04  1.364202E-13 -2.802246E-13  8.305738E-14 -3.767980E-13
         6   8 -1.086482E-04 -1.086482E-04  4.985942E-13 -1.401123E-13 -2.672233E-13  1.028512E-13
         7   1 -1.086482E-04 -1.086482E-04 -3.040084E-13 -7.067911E-14 -7.418079E-15 -2.600448E-13
         7   2 -1.086482E-04 -1.086482E-04  8.145702E-14 -7.238111E-14 -3.227672E-15 -4.555467E-13
         7   3 -1.086482E-04 -1.086482E-04 -1.687309E-13 -6.229742E-16  2.049981E-14 -2.600448E-13
         7   4 -1.086482E-04 -1.086482E-04  3.169089E-13 -2.324973E-15  6.089358E-14 -1.052660E-13
         7   5 -1.086482E-04 -1.086482E-04 -5.053770E-13 -5.425202E-13 -3.187505E-14 -4.150810E-13
         7   6 -1.086482E-04 -1.086482E-04  1.690700E-13 -4.935375E-13 -2.768465E-14 -1.676903E-13
         7   7 -1.086482E-04 -1.086482E-04 -2.940724E-13  1.792892E-14  3.611256E-14  7.531200E-14
         7   8 -1.086482E-04 -1.086482E-04  4.805489E-13  6.691163E-14  7.650633E-14 -1.006402E-14
         8   1 -1.086482E-04 -1.086482E-04 -4.051969E-13 -1.401123E-13  1.001287E-13 -1.878116E-13
         8   2 -1.086482E-04 -1.086482E-04  3.664218E-14 -1.751404E-14  5.634364E-14  4.586876E-14
         8   3 -1.086482E-04 -1.086482E-04  3.648472E-14 -1.401123E-13  2.637529E-13  3.025814E-13
         8   4 -1.086482E-04 -1.086482E-04  1.866919E-13 -7.881316E-14  8.861258E-14  4.586876E-14
         8   5 -1.086482E-04 -1.086482E-04 -4.840100E-13 -1.401123E-13  1.822886E-13 -3.369000E-13
         8   6 -1.086482E-04 -1.086482E-04 -3.836947E-13 -3.502807E-14  6.844735E-14 -9.026854E-14
         8   7 -1.086482E-04 -1.086482E-04 -1.736837E-13 -1.401123E-13  2.187516E-13  8.343687E-14
         8   8 -1.086482E-04 -1.086482E-04 -1.811028E-13  6.244665E-31  1.136674E-13  1.198999E-13
         9   1 -1.086482E-04 -1.086482E-04  3.216292E-13  7.005614E-14 -8.023094E-14 -1.603872E-13
         9   2 -1.086482E-04 -1.086482E-04  3.046761E-13  4.028228E-13  9.490941E-14 -1.808973E-13
         9   3 -1.086482E-04 -1.086482E-04 -1.058323E-13  1.401123E-13  3.020817E-13  2.599497E-13
         9   4 -1.086482E-04 -1.086482E-04  5.163336E-13  3.327667E-13  1.619694E-13  1.518693E-13
         9   5 -1.086482E-04 -1.086482E-04  2.428161E-13 -2.316128E-30  1.021394E-13 -5.610724E-15
         9   6 -1.086482E-04 -1.086482E-04  6.987419E-13 -1.401123E-13  2.422517E-13  2.636390E-14
         9   7 -1.086482E-04 -1.086482E-04 -9.465060E-13  5.604491E-13  8.157192E-14 -7.566686E-14
         9   8 -1.086482E-04 -1.086482E-04 -6.162958E-14 -3.636919E-31 -1.285965E-13  1.139341E-13

 strains (elem, integ.pnt.,exx,eyy,ezz,exy,exz,eyz) forset EALL and time  0.6337813E+00

         1   1 -3.621607E-10 -3.621607E-10  3.104235E-10 -3.392733E-26 -8.077936E-28  2.584939E-26
         1   2 -3.621607E-10 -3.621607E-10  3.104235E-10 -1.082443E-25  8.077936E-27 -1.122833E-25
         1   3 -3.621607E-10 -3.621607E-10  3.104235E-10 -4.200527E-26 -1.001664E-25  5.816114E-26
         1   4 -3.621607E-10 -3.621607E-10  3.104235E-10 -1.163223E-25  9.693523E-26  8.077936E-27
         1   5 -3.621607E-10 -3.621607E-10  3.104235E-10  1.163223E-25 -8.885729E-27  5.816114E-26
         1   6 -3.621607E-10 -3.621607E-10  3.104235E-10  3.166551E-25 -4.346473E-36 -5.371827E-25
         1   7 -3.621607E-10 -3.621607E-10  3.104235E-10  2.391069E-25 -5.751490E-25  7.754818E-26
         1   8 -3.621607E-10 -3.621607E-10  3.104235E-10  4.394397E-25 -3.748162E-25 -4.168215E-25
         2   1 -3.621607E-10 -3.621607E-10  3.104235E-10 -2.015421E-20  2.221801E-19  3.771227E-20
         2   2 -3.621607E-10 -3.621607E-10  3.104235E-10 -1.827845E-19 -8.078119E-19 -1.015635E-20
         2   3 -3.621607E-10 -3.621607E-10  3.104235E-10 -7.521654E-20 -9.812476E-20 -3.629797E-20
         2   4 -3.621607E-10 -3.621607E-10  3.104235E-10  2.500441E-19  9.860774E-19  6.772404E-20
         2   5 -3.621607E-10 -3.621607E-10  3.104235E-10 -8.096818E-19  2.367684E-19  2.147543E-19
         2   6 -3.621607E-10 -3.621607E-10  3.104235E-10 -1.591605E-19  9.957099E-19 -1.157844E-19
         2   7 -3.621607E-10 -3.621607E-10  3.104235E-10 -6.520972E-19 -3.662066E-19  1.407441E-19
         2   8 -3.621607E-10 -3.621607E-10  3.104235E-10  4.321049E-19 -7.998875E-19 -3.790401E-20
         3   1 -3.621607E-10 -3.621607E-10  3.104235E-10  1.052632E-18  1.111803E-18 -1.098199E-19
         3   2 -3.621607E-10 -3.621607E-10  3.104235E-10  6.189515E-19  8.949625E-19  1.414983E-19
         3   3 -3.621607E-10 -3.621607E-10  3.104235E-10  3.739629E-19  2.986064E-19 -2.877423E-19
         3   4 -3.621607E-10 -3.621607E-10  3.104235E-10 -5.971795E-20  7.322873E-19  5.022078E-19
         3   5 -3.621607E-10 -3.621607E-10  3.104235E-10 -1.707120E-18  1.779629E-18 -2.319310E-19
         3   6 -3.621607E-10 -3.621607E-10  3.104235E-10 -8.397579E-19  2.617457E-19  1.673692E-19
         3   7 -3.621607E-10 -3.621607E-10  3.104235E-10  1.030191E-19 -6.203092E-19 -4.098534E-19
         3   8 -3.621607E-10 -3.621607E-10  3.104235E-10  1.030191E-19  2.470526E-19  5.280787E-19
         4   1 -3.621607E-10 -3.621607E-10  3.104235E-10 -1.061297E-19  3.505282E-21 -2.335993E-19
         4   2 -3.621607E-10 -3.621607E-10  3.104235E-10 -9.987185E-20  2.318880E-21  8.952063E-19
         4   3 -3.621607E-10 -3.621607E-10  3.104235E-10 -2.145499E-19 -2.040222E-21  8.506028E-19
         4   4 -3.621607E-10 -3.621607E-10  3.104235E-10 -2.082921E-19  7.868775E-21  4.073153E-19
         4   5 -3.621607E-10 -3.621607E-10  3.104235E-10 -2.088642E-19  1.426826E-20 -6.254506E-20
         4   6 -3.621607E-10 -3.621607E-10  3.104235E-10 -1.870728E-19  1.308187E-20 -5.320786E-19
         4   7 -3.621607E-10 -3.621607E-10  3.104235E-10 -1.726747E-18 -1.752323E-20  8.048167E-19
         4   8 -3.621607E-10 -3.621607E-10  3.104235E-10 -1.704956E-18 -7.614223E-21  3.352831E-19
         5   1 -3.621607E-10 -3.621607E-10  3.104235E-10 -2.059984E-18 -6.260734E-19 -2.320735E-19
         5   2 -3.621607E-10 -3.621607E-10  3.104235E-10 -6.505213E-19  2.954984E-19 -7.871462E-19
         5   3 -3.621607E-10 -3.621607E-10  3.104235E-10 -2.168404E-19 -4.273384E-20  8.521287E-19
         5   4 -3.621607E-10 -3.621607E-10  3.104235E-10  1.680513E-18 -2.595743E-19  3.512661E-19
         5   5 -3.621607E-10 -3.621607E-10  3.104235E-10 -2.602085E-18  7.417620E-19 -9.242123E-19
         5   6 -3.621607E-10 -3.621607E-10  3.104235E-10 -2.168404E-19  7.959721E-19  2.345250E-19
         5   7 -3.621607E-10 -3.621607E-10  3.104235E-10 -1.734723E-18  7.078769E-19 -5.685057E-20
         5   8 -3.621607E-10 -3.621607E-10  3.104235E-10  8.673617E-19 -5.931657E-19 -9.580974E-19
         6   1 -3.621607E-10 -3.621607E-10  3.104235E-10 -2.114194E-18 -6.536684E-19 -7.951425E-19
         6   2 -3.621607E-10 -3.621607E-10  3.104235E-10  5.963112E-19 -2.171551E-18 -1.684217E-18
         6   3 -3.621607E-10 -3.621607E-10  3.104235E-10 -1.301043E-18  1.377700E-19 -7.951425E-19
         6   4 -3.621607E-10 -3.621607E-10  3.104235E-10  1.409463E-18  1.377700E-19  8.636577E-19
         6   5 -3.621607E-10 -3.621607E-10  3.104235E-10 -1.301043E-18  2.532238E-18 -3.809953E-19
         6   6 -3.621607E-10 -3.621607E-10  3.104235E-10  4.336809E-19 -1.045629E-18 -5.559247E-19
         6   7 -3.621607E-10 -3.621607E-10  3.104235E-10 -1.734723E-18  5.141647E-19 -2.332559E-18
         6   8 -3.621607E-10 -3.621607E-10  3.104235E-10 -8.673617E-19 -1.654240E-18  6.366978E-19
         7   1 -3.621607E-10 -3.621607E-10  3.104235E-10 -4.375374E-19 -4.592144E-20 -1.609801E-18
         7   2 -3.621607E-10 -3.621607E-10  3.104235E-10 -4.480736E-19 -1.998083E-20 -2.820051E-18
         7   3 -3.621607E-10 -3.621607E-10  3.104235E-10 -3.856507E-21  1.269036E-19 -1.609801E-18
         7   4 -3.621607E-10 -3.621607E-10  3.104235E-10 -1.439269E-20  3.769603E-19 -6.516464E-19
         7   5 -3.621607E-10 -3.621607E-10  3.104235E-10 -3.358458E-18 -1.973217E-19 -2.569549E-18
         7   6 -3.621607E-10 -3.621607E-10  3.104235E-10 -3.055232E-18 -1.713811E-19 -1.038083E-18
         7   7 -3.621607E-10 -3.621607E-10  3.104235E-10  1.109885E-19  2.235539E-19  4.662172E-19
         7   8 -3.621607E-10 -3.621607E-10  3.104235E-10  4.142148E-19  4.736106E-19 -6.230105E-20
         8   1 -3.621607E-10 -3.621607E-10  3.104235E-10 -8.673617E-19  6.198445E-19 -1.162643E-18
         8   2 -3.621607E-10 -3.621607E-10  3.104235E-10 -1.084202E-19  3.487940E-19  2.839495E-19
         8   3 -3.621607E-10 -3.621607E-10  3.104235E-10 -8.673617E-19  1.632756E-18  1.873123E-18
         8   4 -3.621607E-10 -3.621607E-10  3.104235E-10 -4.878910E-19  5.485541E-19  2.839495E-19
         8   5 -3.621607E-10 -3.621607E-10  3.104235E-10 -8.673617E-19  1.128453E-18 -2.085571E-18
         8   6 -3.621607E-10 -3.621607E-10  3.104235E-10 -2.168404E-19  4.237217E-19 -5.588052E-19
         8   7 -3.621607E-10 -3.621607E-10  3.104235E-10 -8.673617E-19  1.354177E-18  5.165139E-19
         8   8 -3.621607E-10 -3.621607E-10  3.104235E-10  4.253032E-37  7.036552E-19  7.422374E-19
         9   1 -3.621607E-10 -3.621607E-10  3.104235E-10  4.336809E-19 -4.966677E-19 -9.928729E-19
         9   2 -3.621607E-10 -3.621607E-10  3.104235E-10  2.493665E-18  5.875344E-19 -1.119841E-18
         9   3 -3.621607E-10 -3.621607E-10  3.104235E-10  8.673617E-19  1.870030E-18  1.609212E-18
         9   4 -3.621607E-10 -3.621607E-10  3.104235E-10  2.059984E-18  1.002668E-18  9.401435E-19
         9   5 -3.621607E-10 -3.621607E-10  3.104235E-10  1.526655E-35  6.322915E-19 -3.473306E-20
         9   6 -3.621607E-10 -3.621607E-10  3.104235E-10 -8.673617E-19  1.499653E-18  1.632051E-19
         9   7 -3.621607E-10 -3.621607E-10  3.104235E-10  3.469447E-18  5.049691E-19 -4.684139E-19
         9   8 -3.621607E-10 -3.621607E-10  3.104235E-10  2.743247E-37 -7.960736E-19  7.053062E-19

 displacements (vx,vy,vz) for set NALL and time  0.6427813E+00

         1  0.000000E+00  0.000000E+00  0.000000E+00
         2 -1.836518E-07  0.000000E+00  0.000000E+00
         3 -9.641719E+00  0.000000E+00  0.000000E+00
         4 -9.641719E+00  0.000000E+00  0.000000E+00
         5 -1.928344E+01  0.000000E+00  0.000000E+00
         6 -1.928344E+01  0.000000E+00  0.000000E+00
         7  0.000000E+00 -1.836518E-07  0.000000E+00
         8 -1.836518E-07 -1.836518E-07  0.000000E+00
         9 -9.641719E+00 -1.836518E-07  0.000000E+00
        10 -9.641719E+00 -1.836518E-07  0.000000E+00
        11 -1.928344E+01 -1.836518E-07  0.000000E+00
        12 -1.928344E+01 -1.836518E-07  0.000000E+00
        13  0.000000E+00 -9.641719E+00  0.000000E+00
        14 -1.836518E-07 -9.641719E+00  0.000000E+00
        15 -9.641719E+00 -9.641719E+00  0.000000E+00
        16 -9.641719E+00 -9.641719E+00  0.000000E+00
        17 -1.928344E+01 -9.641719E+00  0.000000E+00
        18 -1.928344E+01 -9.641719E+00  0.000000E+00
        19  0.000000E+00 -9.641719E+00  0.000000E+00
        20 -1.836518E-07 -9.641719E+00  0.000000E+00
        21 -9.641719E+00 -9.641719E+00  0.000000E+00
        22 -9.641719E+00 -9.641719E+00  0.000000E+00
        23 -1.928344E+01 -9.641719E+00  0.000000E+00
        24 -1.928344E+01 -9.641719E+00  0.000000E+00
        25  0.000000E+00 -1.928344E+01  0.000000E+00
        26 -1.836518E-07 -1.928344E+01  0.000000E+00
        27 -9.641719E+00 -1.928344E+01  0.000000E+00
        28 -9.641719E+00 -1.928344E+01  0.000000E+00
        29 -1.928344E+01 -1.928344E+01  0.000000E+00
        30 -1.928344E+01 -1.928344E+01  0.000000E+00
        31  0.000000E+00 -1.928344E+01  0.000000E+00
        32 -1.836518E-07 -1.928344E+01  0.000000E+00
        33 -9.641719E+00 -1.928344E+01  0.000000E+00
        34 -9.641719E+00 -1.928344E+01  0.000000E+00
        35 -1.928344E+01 -1.928344E+01  0.000000E+00
        36 -1.928344E+01 -1.928344E+01  0.000000E+00
        37  0.000000E+00  0.000000E+00  2.203821E-07
        38 -1.836518E-07  0.000000E+00  2.203821E-07
        39 -9.641719E+00  0.000000E+00  2.203821E-07
        40 -9.641719E+00  0.000000E+00  2.203821E-07
        41 -1.928344E+01  0.000000E+00  2.203821E-07
        42 -1.928344E+01  0.000000E+00  2.203821E-07
        43  0.000000E+00 -1.836518E-07  2.203821E-07
        44 -1.836518E-07 -1.836518E-07  2.203821E-07
        45 -9.641719E+00 -1.836518E-07  2.203821E-07
        46 -9.641719E+00 -1.836518E-07  2.203821E-07
        47 -1.928344E+01 -1.836518E-07  2.203821E-07
        48 -1.928344E+01 -1.836518E-07  2.203821E-07
        49  0.000000E+00 -9.641719E+00  2.203821E-07
        50 -1.836518E-07 -9.641719E+00  2.203821E-07
        51 -9.641719E+00 -9.641719E+00  2.203821E-07
        52 -9.641719E+00 -9.641719E+00  2.203821E-07
        53 -1.928344E+01 -9.641719E+00  2.203821E-07
        54 -1.928344E+01 -9.641719E+00  2.203821E-07
        55  0.000000E+00 -9.641719E+00  2.203821E-07
        56 -1.836518E-07 -9.641719E+00  2.203821E-07
        57 -9.641719E+00 -9.641719E+00  2.203821E-07
        58 -9.641719E+00 -9.641719E+00  2.203821E-07
        59 -1.928344E+01 -9.641719E+00  2.203821E-07
        60 -1.928344E+01 -9.641719E+00  2.203821E-07
        61  0.000000E+00 -1.928344E+01  2.203821E-07
        62 -1.836518E-07 -1.928344E+01  2.203821E-07
        63 -9.641719E+00 -1.928344E+01  2.203821E-07
        64 -9.641719E+00 -1.928344E+01  2.203821E-07
        65 -1.928344E+01 -1.928344E+01  2.203821E-07
        66 -1.928344E+01 -1.928344E+01  2.203821E-07
        67  0.000000E+00 -1.928344E+01  2.203821E-07
        68 -1.836518E-07 -1.928344E+01  2.203821E-07
        69 -9.641719E+00 -1.928344E+01  2.203821E-07
        70 -9.641719E+00 -1.928344E+01  2.203821E-07
        71 -1.928344E+01 -1.928344E+01  2.203821E-07
        72 -1.928344E+01 -1.928344E+01  2.203821E-07

 stresses (elem, integ.pnt.,sxx,syy,szz,sxy,sxz,syz) for set EALL and time  0.6427813E+00

         1   1 -1.101911E-04 -1.101911E-04 -4.065758E-20 -9.917219E-21  6.263507E-21 -3.653712E-21
         1   2 -1.101911E-04 -1.101911E-04  1.013105E-44 -2.609795E-21 -7.046445E-21 -1.461485E-20
         1   3 -1.101911E-04 -1.101911E-04 -8.131516E-20 -4.488847E-20 -2.035640E-20  5.219589E-21
         1   4 -1.101911E-04 -1.101911E-04 -2.439455E-19 -3.758104E-20 -3.236145E-20  3.758104E-20
         1   5 -1.101911E-04 -1.101911E-04 -5.421011E-20  1.252701E-20  3.784202E-20 -2.557599E-20
         1   6 -1.101911E-04 -1.101911E-04  6.776264E-20  2.296619E-20  2.453207E-20 -1.096114E-19
         1   7 -1.101911E-04 -1.101911E-04 -9.486769E-20  3.549321E-20 -6.315703E-20 -1.252701E-20
         1   8 -1.101911E-04 -1.101911E-04 -1.626303E-19  4.384455E-20 -7.516208E-20 -5.741548E-20
         2   1 -1.101911E-04 -1.101911E-04  4.103666E-14  6.468288E-14  1.507379E-13  5.884223E-15
         2   2 -1.101911E-04 -1.101911E-04  9.159065E-14  9.971095E-14  1.682519E-13  5.807892E-16
         2   3 -1.101911E-04 -1.101911E-04  2.179097E-15  5.000284E-14  1.385338E-13  7.237587E-16
         2   4 -1.101911E-04 -1.101911E-04 -3.062217E-14 -4.632435E-14 -2.117469E-13  1.427318E-14
         2   5 -1.101911E-04 -1.101911E-04 -9.206896E-15  4.287608E-15  1.797675E-13  2.712069E-14
         2   6 -1.101911E-04 -1.101911E-04  8.093809E-14  4.287608E-15  6.592626E-14 -1.152486E-14
         2   7 -1.101911E-04 -1.101911E-04 -1.662842E-13  1.561138E-13 -5.890970E-15  2.196023E-14
         2   8 -1.101911E-04 -1.101911E-04 -1.594945E-13  5.102964E-14 -5.890970E-15  2.167525E-15
         3   1 -1.101911E-04 -1.101911E-04  1.077515E-13 -4.931442E-13 -1.050193E-13 -3.190838E-15
         3   2 -1.101911E-04 -1.101911E-04 -1.423263E-13 -3.355179E-13  1.401772E-13  3.156136E-15
         3   3 -1.101911E-04 -1.101911E-04  4.180489E-13 -5.006607E-13  2.382487E-13 -3.094311E-14
         3   4 -1.101911E-04 -1.101911E-04  1.200739E-13 -6.280980E-14 -4.197583E-14  1.190297E-14
         3   5 -1.101911E-04 -1.101911E-04  3.121822E-13  1.595222E-14 -1.304844E-13  1.584391E-14
         3   6 -1.101911E-04 -1.101911E-04  1.387526E-13 -4.744408E-13  3.423945E-13  3.032018E-15
         3   7 -1.101911E-04 -1.101911E-04 -6.056776E-14  5.953451E-14 -1.566559E-13 -1.190837E-14
         3   8 -1.101911E-04 -1.101911E-04 -2.818946E-13 -1.052163E-14 -8.659979E-14  1.177886E-14
         4   1 -1.101911E-04 -1.101911E-04  1.291270E-13  3.436269E-14  3.033957E-15  3.885331E-14
         4   2 -1.101911E-04 -1.101911E-04  3.218020E-14  3.254484E-14  1.332212E-14  2.330853E-13
         4   3 -1.101911E-04 -1.101911E-04  1.525271E-13 -6.653794E-16 -2.112613E-15  2.840498E-13
         4   4 -1.101911E-04 -1.101911E-04  6.635557E-14 -2.483229E-15 -1.019525E-14  7.545899E-14
         4   5 -1.101911E-04 -1.101911E-04  4.659848E-13  2.701453E-13  1.034718E-15  4.930406E-14
         4   6 -1.101911E-04 -1.101911E-04  3.559024E-13  2.426083E-13  1.132288E-14  1.602760E-13
         4   7 -1.101911E-04 -1.101911E-04  4.508061E-13 -1.007923E-14  1.982598E-16  2.945005E-13
         4   8 -1.101911E-04 -1.101911E-04  3.514991E-13 -3.761622E-14 -7.884379E-15  9.021985E-14
         5   1 -1.101911E-04 -1.101911E-04  2.473717E-13 -2.627105E-14  6.224046E-14 -9.943513E-14
         5   2 -1.101911E-04 -1.101911E-04 -8.185646E-14  2.627105E-14 -1.657270E-14 -3.865386E-14
         5   3 -1.101911E-04 -1.101911E-04  2.043358E-13 -1.050842E-13  1.668068E-13 -2.937899E-14
         5   4 -1.101911E-04 -1.101911E-04  2.290365E-13 -4.378509E-14  2.669454E-14 -2.989684E-14
         5   5 -1.101911E-04 -1.101911E-04  4.049980E-13 -2.101684E-13 -2.916851E-14 -7.461581E-14
         5   6 -1.101911E-04 -1.101911E-04  4.567001E-13 -3.502807E-14 -1.079817E-13 -1.034482E-13
         5   7 -1.101911E-04 -1.101911E-04  1.517936E-13 -2.802246E-13 -4.048692E-14 -1.096439E-13
         5   8 -1.101911E-04 -1.101911E-04  2.815786E-13 -7.005614E-14  6.459729E-14  8.920614E-14
         6   1 -1.101911E-04 -1.101911E-04  2.157595E-13 -1.401123E-13  8.381066E-14  2.558049E-14
         6   2 -1.101911E-04 -1.101911E-04 -6.370353E-14  7.005614E-14 -7.381565E-14 -1.490121E-13
         6   3 -1.101911E-04 -1.101911E-04  2.268266E-14 -7.005614E-14 -4.699685E-14  2.558049E-14
         6   4 -1.101911E-04 -1.101911E-04 -8.814337E-14  1.401123E-13 -4.699685E-14 -1.052270E-13
         6   5 -1.101911E-04 -1.101911E-04  5.835542E-13 -9.806541E-31  7.010406E-14 -1.497288E-13
         6   6 -1.101911E-04 -1.101911E-04  4.138068E-14 -1.475632E-30  1.401602E-13 -1.500310E-13
         6   7 -1.101911E-04 -1.101911E-04  3.379353E-13 -2.073131E-31 -1.753946E-13  9.546767E-14
         6   8 -1.101911E-04 -1.101911E-04 -3.560128E-14  1.401123E-13 -2.454508E-13  9.516546E-14
         7   1 -1.101911E-04 -1.101911E-04 -2.808014E-13 -1.415444E-13 -2.212141E-14 -1.420167E-13
         7   2 -1.101911E-04 -1.101911E-04  1.117654E-14 -1.454572E-13 -3.121468E-14  6.804093E-14
         7   3 -1.101911E-04 -1.101911E-04 -2.996780E-13 -7.148829E-14  3.105379E-14 -2.821290E-13
         7   4 -1.101911E-04 -1.101911E-04  2.307894E-13 -7.540101E-14  7.184208E-14 -3.172678E-13
         7   5 -1.101911E-04 -1.101911E-04 -1.948130E-13 -2.560956E-13 -7.346498E-14 -7.107439E-15
         7   6 -1.101911E-04 -1.101911E-04 -4.282562E-13 -1.901742E-13 -8.255825E-14 -2.095610E-13
         7   7 -1.101911E-04 -1.101911E-04 -1.089384E-13 -2.560956E-13  7.510604E-14  2.731171E-13
         7   8 -1.101911E-04 -1.101911E-04 -1.038920E-13 -1.901742E-13  1.158943E-13  5.314952E-14
         8   1 -1.101911E-04 -1.101911E-04 -9.788722E-14 -2.802246E-13 -1.443377E-13 -3.352072E-13
         8   2 -1.101911E-04 -1.101911E-04 -1.267477E-13 -7.005614E-14 -4.801055E-14  3.686912E-14
         8   3 -1.101911E-04 -1.101911E-04  5.760859E-14 -3.502807E-13  1.226544E-13  2.952980E-13
         8   4 -1.101911E-04 -1.101911E-04  2.010796E-13 -1.313553E-13 -8.751403E-14  1.419533E-13
         8   5 -1.101911E-04 -1.101911E-04 -3.080556E-13 -1.401123E-13  1.925844E-14 -1.539135E-13
         8   6 -1.101911E-04 -1.101911E-04 -4.420003E-13  1.751404E-13 -1.296109E-13  1.820112E-13
         8   7 -1.101911E-04 -1.101911E-04 -4.747560E-14 -4.203368E-13 -6.515371E-14  5.625496E-14
         8   8 -1.101911E-04 -1.101911E-04 -6.163096E-14 -7.005614E-14  7.495857E-14  6.870878E-15
         9   1 -1.101911E-04 -1.101911E-04  1.861151E-13  7.005614E-14 -2.785089E-13 -2.457868E-13
         9   2 -1.101911E-04 -1.101911E-04 -1.794847E-14  4.203368E-13  1.067999E-13 -1.957289E-13
         9   3 -1.101911E-04 -1.101911E-04  2.055475E-13 -2.101684E-13 -1.828254E-14 -3.561840E-14
         9   4 -1.101911E-04 -1.101911E-04  5.272833E-13  1.401123E-13  5.177360E-14 -1.256727E-13
         9   5 -1.101911E-04 -1.101911E-04  3.437415E-13 -4.059548E-31 -4.652186E-13  7.182606E-15
         9   6 -1.101911E-04 -1.101911E-04  4.023884E-13 -4.903930E-13  9.523056E-14  1.886102E-14
         9   7 -1.101911E-04 -1.101911E-04  5.208001E-13  1.122949E-31 -6.823137E-14 -1.329297E-13
         9   8 -1.101911E-04 -1.101911E-04 -1.294930E-13 -7.005614E-14 -6.823137E-14 -1.562793E-13

 strains (elem, integ.pnt.,exx,eyy,ezz,exy,exz,eyz) forset EALL and time  0.6427813E+00

         1   1 -3.673036E-10 -3.673036E-10  3.148316E-10 -6.139231E-26  3.877409E-26 -2.261822E-26
         1   2 -3.673036E-10 -3.673036E-10  3.148316E-10 -1.615587E-26 -4.362085E-26 -9.047288E-26
         1   3 -3.673036E-10 -3.673036E-10  3.148316E-10 -2.778810E-25 -1.260158E-25  3.231174E-26
         1   4 -3.673036E-10 -3.673036E-10  3.148316E-10 -2.326445E-25 -2.003328E-25  2.326445E-25
         1   5 -3.673036E-10 -3.673036E-10  3.148316E-10  7.754818E-26  2.342601E-25 -1.583275E-25
         1   6 -3.673036E-10 -3.673036E-10  3.148316E-10  1.421717E-25  1.518652E-25 -6.785466E-25
         1   7 -3.673036E-10 -3.673036E-10  3.148316E-10  2.197199E-25 -3.909721E-25 -7.754818E-26
         1   8 -3.673036E-10 -3.673036E-10  3.148316E-10  2.714186E-25 -4.652891E-25 -3.554292E-25
         2   1 -3.673036E-10 -3.673036E-10  3.148316E-10  4.004178E-19  9.331391E-19  3.642615E-20
         2   2 -3.673036E-10 -3.673036E-10  3.148316E-10  6.172582E-19  1.041559E-18  3.595362E-21
         2   3 -3.673036E-10 -3.673036E-10  3.148316E-10  3.095414E-19  8.575902E-19  4.480411E-21
         2   4 -3.673036E-10 -3.673036E-10  3.148316E-10 -2.867698E-19 -1.310814E-18  8.835777E-20
         2   5 -3.673036E-10 -3.673036E-10  3.148316E-10  2.654233E-20  1.112846E-18  1.678900E-19
         2   6 -3.673036E-10 -3.673036E-10  3.148316E-10  2.654233E-20  4.081149E-19 -7.134438E-20
         2   7 -3.673036E-10 -3.673036E-10  3.148316E-10  9.664191E-19 -3.646791E-20  1.359443E-19
         2   8 -3.673036E-10 -3.673036E-10  3.148316E-10  3.158978E-19 -3.646791E-20  1.341801E-20
         3   1 -3.673036E-10 -3.673036E-10  3.148316E-10 -3.052797E-18 -6.501197E-19 -1.975280E-20
         3   2 -3.673036E-10 -3.673036E-10  3.148316E-10 -2.077015E-18  8.677633E-19  1.953799E-20
         3   3 -3.673036E-10 -3.673036E-10  3.148316E-10 -3.099328E-18  1.474873E-18 -1.915526E-19
         3   4 -3.673036E-10 -3.673036E-10  3.148316E-10 -3.888226E-19 -2.598504E-19  7.368508E-20
         3   5 -3.673036E-10 -3.673036E-10  3.148316E-10  9.875187E-20 -8.077608E-19  9.808135E-20
         3   6 -3.673036E-10 -3.673036E-10  3.148316E-10 -2.937014E-18  2.119585E-18  1.876964E-20
         3   7 -3.673036E-10 -3.673036E-10  3.148316E-10  3.685470E-19 -9.697748E-19 -7.371845E-20
         3   8 -3.673036E-10 -3.673036E-10  3.148316E-10 -6.513389E-20 -5.360939E-19  7.291673E-20
         4   1 -3.673036E-10 -3.673036E-10  3.148316E-10  2.127214E-19  1.878164E-20  2.405205E-19
         4   2 -3.673036E-10 -3.673036E-10  3.148316E-10  2.014681E-19  8.247028E-20  1.442909E-18
         4   3 -3.673036E-10 -3.673036E-10  3.148316E-10 -4.119015E-21 -1.307808E-20  1.758404E-18
         4   4 -3.673036E-10 -3.673036E-10  3.148316E-10 -1.537237E-20 -6.311347E-20  4.671271E-19
         4   5 -3.673036E-10 -3.673036E-10  3.148316E-10  1.672328E-18  6.405397E-21  3.052156E-19
         4   6 -3.673036E-10 -3.673036E-10  3.148316E-10  1.501861E-18  7.009405E-20  9.921847E-19
         4   7 -3.673036E-10 -3.673036E-10  3.148316E-10 -6.239526E-20  1.227323E-21  1.823099E-18
         4   8 -3.673036E-10 -3.673036E-10  3.148316E-10 -2.328623E-19 -4.880806E-20  5.585038E-19
         5   1 -3.673036E-10 -3.673036E-10  3.148316E-10 -1.626303E-19  3.852981E-19 -6.155508E-19
         5   2 -3.673036E-10 -3.673036E-10  3.148316E-10  1.626303E-19 -1.025929E-19 -2.392858E-19
         5   3 -3.673036E-10 -3.673036E-10  3.148316E-10 -6.505213E-19  1.032614E-18 -1.818699E-19
         5   4 -3.673036E-10 -3.673036E-10  3.148316E-10 -2.710505E-19  1.652519E-19 -1.850757E-19
         5   5 -3.673036E-10 -3.673036E-10  3.148316E-10 -1.301043E-18 -1.805670E-19 -4.619074E-19
         5   6 -3.673036E-10 -3.673036E-10  3.148316E-10 -2.168404E-19 -6.684580E-19 -6.403939E-19
         5   7 -3.673036E-10 -3.673036E-10  3.148316E-10 -1.734723E-18 -2.506333E-19 -6.787478E-19
         5   8 -3.673036E-10 -3.673036E-10  3.148316E-10 -4.336809E-19  3.998880E-19  5.522285E-19
         6   1 -3.673036E-10 -3.673036E-10  3.148316E-10 -8.673617E-19  5.188279E-19  1.583554E-19
         6   2 -3.673036E-10 -3.673036E-10  3.148316E-10  4.336809E-19 -4.569541E-19 -9.224560E-19
         6   3 -3.673036E-10 -3.673036E-10  3.148316E-10 -4.336809E-19 -2.909329E-19  1.583554E-19
         6   4 -3.673036E-10 -3.673036E-10  3.148316E-10  8.673617E-19 -2.909329E-19 -6.514054E-19
         6   5 -3.673036E-10 -3.673036E-10  3.148316E-10 -1.537457E-36  4.339775E-19 -9.268927E-19
         6   6 -3.673036E-10 -3.673036E-10  3.148316E-10 -2.096698E-36  8.676584E-19 -9.287635E-19
         6   7 -3.673036E-10 -3.673036E-10  3.148316E-10 -1.283367E-36 -1.085776E-18  5.909904E-19
         6   8 -3.673036E-10 -3.673036E-10  3.148316E-10  8.673617E-19 -1.519457E-18  5.891195E-19
         7   1 -3.673036E-10 -3.673036E-10  3.148316E-10 -8.762275E-19 -1.369421E-19 -8.791511E-19
         7   2 -3.673036E-10 -3.673036E-10  3.148316E-10 -9.004491E-19 -1.932337E-19  4.212058E-19
         7   3 -3.673036E-10 -3.673036E-10  3.148316E-10 -4.425466E-19  1.922378E-19 -1.746513E-18
         7   4 -3.673036E-10 -3.673036E-10  3.148316E-10 -4.667682E-19  4.447367E-19 -1.964039E-18
         7   5 -3.673036E-10 -3.673036E-10  3.148316E-10 -1.585354E-18 -4.547832E-19 -4.399843E-20
         7   6 -3.673036E-10 -3.673036E-10  3.148316E-10 -1.177269E-18 -5.110749E-19 -1.297282E-18
         7   7 -3.673036E-10 -3.673036E-10  3.148316E-10 -1.585354E-18  4.649421E-19  1.690725E-18
         7   8 -3.673036E-10 -3.673036E-10  3.148316E-10 -1.177269E-18  7.174411E-19  3.290209E-19
         8   1 -3.673036E-10 -3.673036E-10  3.148316E-10 -1.734723E-18 -8.935194E-19 -2.075092E-18
         8   2 -3.673036E-10 -3.673036E-10  3.148316E-10 -4.336809E-19 -2.972082E-19  2.282374E-19
         8   3 -3.673036E-10 -3.673036E-10  3.148316E-10 -2.168404E-18  7.592891E-19  1.828035E-18
         8   4 -3.673036E-10 -3.673036E-10  3.148316E-10 -8.131516E-19 -5.417535E-19  8.787587E-19
         8   5 -3.673036E-10 -3.673036E-10  3.148316E-10 -8.673617E-19  1.192189E-19 -9.527976E-19
         8   6 -3.673036E-10 -3.673036E-10  3.148316E-10  1.084202E-18 -8.023530E-19  1.126736E-18
         8   7 -3.673036E-10 -3.673036E-10  3.148316E-10 -2.602085E-18 -4.033325E-19  3.482450E-19
         8   8 -3.673036E-10 -3.673036E-10  3.148316E-10 -4.336809E-19  4.640292E-19  4.253401E-20
         9   1 -3.673036E-10 -3.673036E-10  3.148316E-10  4.336809E-19 -1.724103E-18 -1.521537E-18
         9   2 -3.673036E-10 -3.673036E-10  3.148316E-10  2.602085E-18  6.611421E-19 -1.211655E-18
         9   3 -3.673036E-10 -3.673036E-10  3.148316E-10 -1.301043E-18 -1.131776E-19 -2.204949E-19
         9   4 -3.673036E-10 -3.673036E-10  3.148316E-10  8.673617E-19  3.205032E-19 -7.779741E-19
         9   5 -3.673036E-10 -3.673036E-10  3.148316E-10  2.598517E-36 -2.879924E-18  4.446375E-20
         9   6 -3.673036E-10 -3.673036E-10  3.148316E-10 -3.035766E-18  5.895225E-19  1.167587E-19
         9   7 -3.673036E-10 -3.673036E-10  3.148316E-10  6.951590E-37 -4.223847E-19 -8.228980E-19
         9   8 -3.673036E-10 -3.673036E-10  3.148316E-10 -4.336809E-19 -4.223847E-19 -9.674435E-19

 displacements (vx,vy,vz) for set NALL and time  0.6517813E+00

         1  0.000000E+00  0.000000E+00  0.000000E+00
         2 -1.862232E-07  0.000000E+00  0.000000E+00
         3 -9.776719E+00  0.000000E+00  0.000000E+00
         4 -9.776719E+00  0.000000E+00  0.000000E+00
         5 -1.955344E+01  0.000000E+00  0.000000E+00
         6 -1.955344E+01  0.000000E+00  0.000000E+00
         7  0.000000E+00 -1.862232E-07  0.000000E+00
         8 -1.862232E-07 -1.862232E-07  0.000000E+00
         9 -9.776719E+00 -1.862232E-07  0.000000E+00
        10 -9.776719E+00 -1.862232E-07  0.000000E+00
        11 -1.955344E+01 -1.862232E-07  0.000000E+00
        12 -1.955344E+01 -1.862232E-07  0.000000E+00
        13  0.000000E+00 -9.776719E+00  0.000000E+00
        14 -1.862232E-07 -9.776719E+00  0.000000E+00
        15 -9.776719E+00 -9.776719E+00  0.000000E+00
        16 -9.776719E+00 -9.776719E+00  0.000000E+00
        17 -1.955344E+01 -9.776719E+00  0.000000E+00
        18 -1.955344E+01 -9.776719E+00  0.000000E+00
        19  0.000000E+00 -9.776719E+00  0.000000E+00
        20 -1.862232E-07 -9.776719E+00  0.000000E+00
        21 -9.776719E+00 -9.776719E+00  0.000000E+00
        22 -9.776719E+00 -9.776719E+00  0.000000E+00
        23 -1.955344E+01 -9.776719E+00  0.000000E+00
        24 -1.955344E+01 -9.776719E+00  0.000000E+00
        25  0.000000E+00 -1.955344E+01  0.000000E+00
        26 -1.862232E-07 -1.955344E+01  0.000000E+00
        27 -9.776719E+00 -1.955344E+01  0.000000E+00
        28 -9.776719E+00 -1.955344E+01  0.000000E+00
        29 -1.955344E+01 -1.955344E+01  0.000000E+00
        30 -1.955344E+01 -1.955344E+01  0.000000E+00
        31  0.000000E+00 -1.955344E+01  0.000000E+00
        32 -1.862232E-07 -1.955344E+01  0.000000E+00
        33 -9.776719E+00 -1.955344E+01  0.000000E+00
        34 -9.776719E+00 -1.955344E+01  0.000000E+00
        35 -1.955344E+01 -1.955344E+01  0.000000E+00
        36 -1.955344E+01 -1.955344E+01  0.000000E+00
        37  0.000000E+00  0.000000E+00  2.234679E-07
        38 -1.862232E-07  0.000000E+00  2.234679E-07
        39 -9.776719E+00  0.000000E+00  2.234679E-07
        40 -9.776719E+00  0.000000E+00  2.234679E-07
        41 -1.955344E+01  0.000000E+00  2.234679E-07
        42 -1.955344E+01  0.000000E+00  2.234679E-07
        43  0.000000E+00 -1.862232E-07  2.234679E-07
        44 -1.862232E-07 -1.862232E-07  2.234679E-07
        45 -9.776719E+00 -1.862232E-07  2.234679E-07
        46 -9.776719E+00 -1.862232E-07  2.234679E-07
        47 -1.955344E+01 -1.862232E-07  2.234679E-07
        48 -1.955344E+01 -1.862232E-07  2.234678E-07
        49  0.000000E+00 -9.776719E+00  2.234679E-07
        50 -1.862232E-07 -9.776719E+00  2.234679E-07
        51 -9.776719E+00 -9.776719E+00  2.234679E-07
        52 -9.776719E+00 -9.776719E+00  2.234679E-07
        53 -1.955344E+01 -9.776719E+00  2.234679E-07
        54 -1.955344E+01 -9.776719E+00  2.234679E-07
        55  0.000000E+00 -9.776719E+00  2.234679E-07
        56 -1.862232E-07 -9.776719E+00  2.234679E-07
        57 -9.776719E+00 -9.776719E+00  2.234679E-07
        58 -9.776719E+00 -9.776719E+00  2.234679E-07
        59 -1.955344E+01 -9.776719E+00  2.234679E-07
        60 -1.955344E+01 -9.776719E+00  2.234679E-07
        61  0.000000E+00 -1.955344E+01  2.234679E-07
        62 -1.862232E-07 -1.955344E+01  2.234679E-07
        63 -9.776719E+00 -1.955344E+01  2.234679E-07
        64 -9.776719E+00 -1.955344E+01  2.234679E-07
        65 -1.955344E+01 -1.955344E+01  2.234679E-07
        66 -1.955344E+01 -1.955344E+01  2.234679E-07
        67  0.000000E+00 -1.955344E+01  2.234679E-07
        68 -1.862232E-07 -1.955344E+01  2.234679E-07
        69 -9.776719E+00 -1.955344E+01  2.234679E-07
        70 -9.776719E+00 -1.955344E+01  2.234679E-07
        71 -1.955344E+01 -1.955344E+01  2.234679E-07
        72 -1.955344E+01 -1.955344E+01  2.234679E-07

 stresses (elem, integ.pnt.,sxx,syy,szz,sxy,sxz,syz) for set EALL and time  0.6517813E+00

         1   1 -1.117339E-04 -1.117339E-04  4.065758E-20 -9.134281E-21  2.870774E-21  1.565877E-21
         1   2 -1.117339E-04 -1.117339E-04  3.271045E-45  1.122212E-20  3.131754E-21  2.466256E-20
         1   3 -1.117339E-04 -1.117339E-04  9.486769E-20 -5.480569E-20 -9.395261E-21 -1.043918E-20
         1   4 -1.117339E-04 -1.117339E-04  4.065758E-20 -3.444929E-20 -3.862496E-20  7.803286E-20
         1   5 -1.117339E-04 -1.117339E-04  2.543977E-44  9.395261E-21  1.748562E-20  2.453207E-20
         1   6 -1.117339E-04 -1.117339E-04  8.131516E-20 -8.351343E-21  1.774660E-20  3.327488E-20
         1   7 -1.117339E-04 -1.117339E-04  8.365240E-45  5.532765E-20 -6.785466E-21  1.252701E-20
         1   8 -1.117339E-04 -1.117339E-04  8.131516E-20  3.758104E-20 -3.549321E-20  8.664518E-20
         2   1 -1.117339E-04 -1.117339E-04  8.363468E-15 -4.173444E-14  7.297802E-14 -1.501812E-15
         2   2 -1.117339E-04 -1.117339E-04  8.370583E-16  8.962082E-14 -6.713426E-14 -5.487613E-18
         2   3 -1.117339E-04 -1.117339E-04  3.029459E-14 -6.005660E-14 -6.540921E-15 -2.488571E-14
         2   4 -1.117339E-04 -1.117339E-04 -4.186397E-14  8.005569E-14 -1.116251E-13  6.551498E-15
         2   5 -1.117339E-04 -1.117339E-04  3.807044E-14  8.636400E-15  8.096075E-14  1.777906E-14
         2   6 -1.117339E-04 -1.117339E-04  9.341989E-14  7.869254E-14  2.035590E-13 -6.577473E-15
         2   7 -1.117339E-04 -1.117339E-04 -1.238958E-13 -1.078808E-13  1.157012E-13 -5.604828E-15
         2   8 -1.117339E-04 -1.117339E-04 -1.331785E-13  1.373157E-13  8.067316E-14 -2.048740E-17
         3   1 -1.117339E-04 -1.117339E-04  1.554667E-14 -1.090222E-13 -1.740595E-13  2.439209E-14
         3   2 -1.117339E-04 -1.117339E-04 -8.890719E-14  2.237445E-13 -6.897525E-14 -1.628433E-14
         3   3 -1.117339E-04 -1.117339E-04 -1.483362E-13 -2.408236E-14 -6.915838E-14  3.048461E-14
         3   4 -1.117339E-04 -1.117339E-04 -4.932871E-13  1.094571E-14  1.410100E-13 -2.512306E-14
         3   5 -1.117339E-04 -1.117339E-04 -1.818275E-13  2.343882E-14 -2.668049E-13  8.493999E-14
         3   6 -1.117339E-04 -1.117339E-04 -3.176369E-13 -4.661732E-14  1.360179E-13 -5.193522E-14
         3   7 -1.117339E-04 -1.117339E-04  2.847949E-13  8.747486E-14  2.212196E-14  9.103251E-14
         3   8 -1.117339E-04 -1.117339E-04 -9.151157E-14 -5.263743E-14  9.217810E-14 -6.077395E-14
         4   1 -1.117339E-04 -1.117339E-04 -5.012277E-14  1.051326E-13 -2.836125E-15 -2.625995E-14
         4   2 -1.117339E-04 -1.117339E-04 -1.957191E-13  1.052647E-13  5.620267E-15 -1.719717E-14
         4   3 -1.117339E-04 -1.117339E-04  9.962720E-15  4.835767E-17  1.633789E-15  8.768116E-15
         4   4 -1.117339E-04 -1.117339E-04 -7.373357E-14  1.804736E-16 -2.457786E-15 -5.222524E-14
         4   5 -1.117339E-04 -1.117339E-04 -1.374486E-13 -6.381667E-15 -1.904096E-14 -1.073892E-13
         4   6 -1.117339E-04 -1.117339E-04 -3.881291E-13 -2.381671E-14 -1.058457E-14 -1.874077E-13
         4   7 -1.117339E-04 -1.117339E-04 -1.037138E-13 -6.381667E-15  1.018896E-14 -1.073892E-13
         4   8 -1.117339E-04 -1.117339E-04 -2.924943E-13 -2.381671E-14  6.097382E-15  1.366020E-13
         5   1 -1.117339E-04 -1.117339E-04 -2.578057E-15 -5.254211E-14  1.744720E-13  1.698126E-13
         5   2 -1.117339E-04 -1.117339E-04  1.401542E-13 -8.757018E-15  3.320983E-13  1.560668E-13
         5   3 -1.117339E-04 -1.117339E-04  1.055238E-13  3.948873E-30  1.607261E-13 -1.454400E-13
         5   4 -1.117339E-04 -1.117339E-04  2.725902E-13  5.254211E-14 -4.944227E-14  1.910949E-13
         5   5 -1.117339E-04 -1.117339E-04 -3.309662E-13 -3.502807E-14  2.333163E-13 -1.950236E-13
         5   6 -1.117339E-04 -1.117339E-04 -1.488274E-13  7.005614E-14  3.471575E-13  3.390086E-14
         5   7 -1.117339E-04 -1.117339E-04 -1.571867E-13 -1.401123E-13  2.170443E-13 -1.988327E-14
         5   8 -1.117339E-04 -1.117339E-04  3.615070E-14  4.110421E-30  6.875857E-15  1.039570E-13
         6   1 -1.117339E-04 -1.117339E-04  1.538931E-13  7.005614E-14  3.377436E-13  2.793872E-13
         6   2 -1.117339E-04 -1.117339E-04 -1.550410E-13  8.757018E-14 -1.253712E-14 -1.164270E-13
         6   3 -1.117339E-04 -1.117339E-04 -1.670789E-13 -7.005614E-14  3.009672E-13 -8.373735E-16
         6   4 -1.117339E-04 -1.117339E-04 -4.588767E-13  2.276825E-13  2.309110E-13  1.024985E-13
         6   5 -1.117339E-04 -1.117339E-04 -5.816964E-13  1.401123E-13 -4.671260E-13  1.369872E-13
         6   6 -1.117339E-04 -1.117339E-04 -5.097002E-13 -2.802246E-13  3.034915E-13 -1.241200E-13
         6   7 -1.117339E-04 -1.117339E-04 -2.721631E-13  1.312939E-31  7.741240E-14  1.369872E-13
         6   8 -1.117339E-04 -1.117339E-04 -2.881149E-13  7.005614E-14 -6.269988E-14  1.599226E-14
         7   1 -1.117339E-04 -1.117339E-04 -4.117905E-13 -2.166687E-13 -1.971983E-15 -1.138769E-13
         7   2 -1.117339E-04 -1.117339E-04 -2.803251E-13 -2.344278E-13  2.412165E-14  5.905326E-14
         7   3 -1.117339E-04 -1.117339E-04 -2.592383E-13  6.355586E-14  1.843674E-15 -2.539892E-13
         7   4 -1.117339E-04 -1.117339E-04 -2.324555E-14  4.579677E-14 -3.449036E-15  3.217638E-13
         7   5 -1.117339E-04 -1.117339E-04 -3.569939E-13  2.576408E-13 -3.345317E-14 -3.224251E-13
         7   6 -1.117339E-04 -1.117339E-04 -5.407811E-13  1.959408E-13 -7.359538E-15  1.491422E-14
         7   7 -1.117339E-04 -1.117339E-04 -2.703530E-13 -2.258376E-14  1.217340E-14  9.791173E-14
         7   8 -1.117339E-04 -1.117339E-04  7.072397E-14 -8.428372E-14  6.880692E-15  1.550265E-13
         8   1 -1.117339E-04 -1.117339E-04 -4.777552E-13 -2.101684E-13 -1.896039E-13  1.596435E-13
         8   2 -1.117339E-04 -1.117339E-04 -1.271285E-13 -1.401123E-13  6.434961E-14  2.521055E-15
         8   3 -1.117339E-04 -1.117339E-04 -3.049478E-13 -3.502807E-13 -1.395971E-14  2.997558E-13
         8   4 -1.117339E-04 -1.117339E-04  4.631353E-14 -1.926544E-13 -4.898778E-14  1.251193E-13
         8   5 -1.117339E-04 -1.117339E-04  5.074092E-13 -1.535524E-30 -9.839252E-14  2.130039E-13
         8   6 -1.117339E-04 -1.117339E-04  1.224464E-13 -3.502807E-14  5.047678E-14  3.818963E-13
         8   7 -1.117339E-04 -1.117339E-04  6.408101E-13 -2.802246E-13 -1.922106E-13  7.289162E-14
         8   8 -1.117339E-04 -1.117339E-04  2.302109E-13 -2.451965E-13 -1.221545E-13 -2.661230E-13
         9   1 -1.117339E-04 -1.117339E-04 -2.262485E-13 -4.277688E-31 -9.432121E-14  4.703744E-13
         9   2 -1.117339E-04 -1.117339E-04 -3.657109E-13  1.751404E-14  2.209314E-13 -2.551983E-13
         9   3 -1.117339E-04 -1.117339E-04 -6.782307E-13 -2.101684E-13  2.659763E-13  2.602060E-13
         9   4 -1.117339E-04 -1.117339E-04 -3.289403E-13  8.757018E-14  2.659763E-13  2.001666E-13
         9   5 -1.117339E-04 -1.117339E-04 -4.364169E-13 -2.802246E-13 -5.108953E-13  2.755702E-13
         9   6 -1.117339E-04 -1.117339E-04 -4.970662E-13 -3.502807E-13 -2.988288E-15 -4.401501E-13
         9   7 -1.117339E-04 -1.117339E-04  1.624430E-13  4.918641E-32 -5.317527E-14 -7.471045E-14
         9   8 -1.117339E-04 -1.117339E-04 -3.995875E-14 -1.401123E-13 -1.232314E-13 -1.774395E-13

 strains (elem, integ.pnt.,exx,eyy,ezz,exy,exz,eyz) forset EALL and time  0.6517813E+00

         1   1 -3.724464E-10 -3.724464E-10  3.192398E-10 -5.654555E-26  1.777146E-26  9.693523E-27
         1   2 -3.724464E-10 -3.724464E-10  3.192398E-10  6.947025E-26  1.938705E-26  1.526730E-25
         1   3 -3.724464E-10 -3.724464E-10  3.192398E-10 -3.392733E-25 -5.816114E-26 -6.462349E-26
         1   4 -3.724464E-10 -3.724464E-10  3.192398E-10 -2.132575E-25 -2.391069E-25  4.830606E-25
         1   5 -3.724464E-10 -3.724464E-10  3.192398E-10  5.816114E-26  1.082443E-25  1.518652E-25
         1   6 -3.724464E-10 -3.724464E-10  3.192398E-10 -5.169879E-26  1.098599E-25  2.059874E-25
         1   7 -3.724464E-10 -3.724464E-10  3.192398E-10  3.425045E-25 -4.200527E-26  7.754818E-26
         1   8 -3.724464E-10 -3.724464E-10  3.192398E-10  2.326445E-25 -2.197199E-25  5.363749E-25
         2   1 -3.724464E-10 -3.724464E-10  3.192398E-10 -2.583561E-19  4.517687E-19 -9.296928E-21
         2   2 -3.724464E-10 -3.724464E-10  3.192398E-10  5.547956E-19 -4.155930E-19 -3.397096E-23
         2   3 -3.724464E-10 -3.724464E-10  3.192398E-10 -3.717789E-19 -4.049142E-20 -1.540544E-19
         2   4 -3.724464E-10 -3.724464E-10  3.192398E-10  4.955828E-19 -6.910127E-19  4.055689E-20
         2   5 -3.724464E-10 -3.724464E-10  3.192398E-10  5.346343E-20  5.011856E-19  1.100609E-19
         2   6 -3.724464E-10 -3.724464E-10  3.192398E-10  4.871443E-19  1.260127E-18 -4.071769E-20
         2   7 -3.724464E-10 -3.724464E-10  3.192398E-10 -6.678335E-19  7.162457E-19 -3.469656E-20
         2   8 -3.724464E-10 -3.724464E-10  3.192398E-10  8.500496E-19  4.994053E-19 -1.268269E-22
         3   1 -3.724464E-10 -3.724464E-10  3.192398E-10 -6.748991E-19 -1.077511E-18  1.509986E-19
         3   2 -3.724464E-10 -3.724464E-10  3.192398E-10  1.385085E-18 -4.269897E-19 -1.008078E-19
         3   3 -3.724464E-10 -3.724464E-10  3.192398E-10 -1.490813E-19 -4.281233E-19  1.887143E-19
         3   4 -3.724464E-10 -3.724464E-10  3.192398E-10  6.775914E-20  8.729193E-19 -1.555237E-19
         3   5 -3.724464E-10 -3.724464E-10  3.192398E-10  1.450974E-19 -1.651649E-18  5.258190E-19
         3   6 -3.724464E-10 -3.724464E-10  3.192398E-10 -2.885834E-19  8.420157E-19 -3.215038E-19
         3   7 -3.724464E-10 -3.724464E-10  3.192398E-10  5.415110E-19  1.369455E-19  5.635346E-19
         3   8 -3.724464E-10 -3.724464E-10  3.192398E-10 -3.258507E-19  5.706264E-19 -3.762197E-19
         4   1 -3.724464E-10 -3.724464E-10  3.192398E-10  6.508207E-19 -1.755697E-20 -1.625616E-19
         4   2 -3.724464E-10 -3.724464E-10  3.192398E-10  6.516385E-19  3.479213E-20 -1.064586E-19
         4   3 -3.724464E-10 -3.724464E-10  3.192398E-10  2.993570E-22  1.011393E-20  5.427882E-20
         4   4 -3.724464E-10 -3.724464E-10  3.192398E-10  1.117217E-21 -1.521486E-20 -3.232991E-19
         4   5 -3.724464E-10 -3.724464E-10  3.192398E-10 -3.950556E-20 -1.178726E-19 -6.647904E-19
         4   6 -3.724464E-10 -3.724464E-10  3.192398E-10 -1.474367E-19 -6.552351E-20 -1.160143E-18
         4   7 -3.724464E-10 -3.724464E-10  3.192398E-10 -3.950556E-20  6.307450E-20 -6.647904E-19
         4   8 -3.724464E-10 -3.724464E-10  3.192398E-10 -1.474367E-19  3.774570E-20  8.456314E-19
         5   1 -3.724464E-10 -3.724464E-10  3.192398E-10 -3.252607E-19  1.080065E-18  1.051221E-18
         5   2 -3.724464E-10 -3.724464E-10  3.192398E-10 -5.421011E-20  2.055846E-18  9.661280E-19
         5   3 -3.724464E-10 -3.724464E-10  3.192398E-10 -2.775008E-35  9.949714E-19 -9.003428E-19
         5   4 -3.724464E-10 -3.724464E-10  3.192398E-10  3.252607E-19 -3.060712E-19  1.182968E-18
         5   5 -3.724464E-10 -3.724464E-10  3.192398E-10 -2.168404E-19  1.444339E-18 -1.207289E-18
         5   6 -3.724464E-10 -3.724464E-10  3.192398E-10  4.336809E-19  2.149070E-18  2.098625E-19
         5   7 -3.724464E-10 -3.724464E-10  3.192398E-10 -8.673617E-19  1.343607E-18 -1.230869E-19
         5   8 -3.724464E-10 -3.724464E-10  3.192398E-10 -2.675080E-35  4.256483E-20  6.435434E-19
         6   1 -3.724464E-10 -3.724464E-10  3.192398E-10  4.336809E-19  2.090794E-18  1.729540E-18
         6   2 -3.724464E-10 -3.724464E-10  3.192398E-10  5.421011E-19 -7.761077E-20 -7.207383E-19
         6   3 -3.724464E-10 -3.724464E-10  3.192398E-10 -4.336809E-19  1.863130E-18 -5.183741E-21
         6   4 -3.724464E-10 -3.724464E-10  3.192398E-10  1.409463E-18  1.429449E-18  6.345144E-19
         6   5 -3.724464E-10 -3.724464E-10  3.192398E-10  8.673617E-19 -2.891733E-18  8.480158E-19
         6   6 -3.724464E-10 -3.724464E-10  3.192398E-10 -1.734723E-18  1.878757E-18 -7.683620E-19
         6   7 -3.724464E-10 -3.724464E-10  3.192398E-10 -1.854194E-38  4.792196E-19  8.480158E-19
         6   8 -3.724464E-10 -3.724464E-10  3.192398E-10  4.336809E-19 -3.881421E-19  9.899969E-20
         7   1 -3.724464E-10 -3.724464E-10  3.192398E-10 -1.341282E-18 -1.220751E-20 -7.049523E-19
         7   2 -3.724464E-10 -3.724464E-10  3.192398E-10 -1.451220E-18  1.493245E-19  3.655678E-19
         7   3 -3.724464E-10 -3.724464E-10  3.192398E-10  3.934411E-19  1.141322E-20 -1.572314E-18
         7   4 -3.724464E-10 -3.724464E-10  3.192398E-10  2.835038E-19 -2.135117E-20  1.991871E-18
         7   5 -3.724464E-10 -3.724464E-10  3.192398E-10  1.594919E-18 -2.070910E-19 -1.995965E-18
         7   6 -3.724464E-10 -3.724464E-10  3.192398E-10  1.212967E-18 -4.555905E-20  9.232611E-20
         7   7 -3.724464E-10 -3.724464E-10  3.192398E-10 -1.398042E-19  7.535915E-20  6.061202E-19
         7   8 -3.724464E-10 -3.724464E-10  3.192398E-10 -5.217564E-19  4.259476E-20  9.596878E-19
         8   1 -3.724464E-10 -3.724464E-10  3.192398E-10 -1.301043E-18 -1.173738E-18  9.882695E-19
         8   2 -3.724464E-10 -3.724464E-10  3.192398E-10 -8.673617E-19  3.983547E-19  1.560653E-20
         8   3 -3.724464E-10 -3.724464E-10  3.192398E-10 -2.168404E-18 -8.641726E-20  1.855631E-18
         8   4 -3.724464E-10 -3.724464E-10  3.192398E-10 -1.192622E-18 -3.032577E-19  7.745480E-19
         8   5 -3.724464E-10 -3.724464E-10  3.192398E-10  6.447299E-36 -6.090966E-19  1.318596E-18
         8   6 -3.724464E-10 -3.724464E-10  3.192398E-10 -2.168404E-19  3.124753E-19  2.364120E-18
         8   7 -3.724464E-10 -3.724464E-10  3.192398E-10 -1.734723E-18 -1.189875E-18  4.512338E-19
         8   8 -3.724464E-10 -3.724464E-10  3.192398E-10 -1.517883E-18 -7.561945E-19 -1.647428E-18
         9   1 -3.724464E-10 -3.724464E-10  3.192398E-10 -3.348194E-36 -5.838932E-19  2.911841E-18
         9   2 -3.724464E-10 -3.724464E-10  3.192398E-10  1.084202E-19  1.367671E-18 -1.579799E-18
         9   3 -3.724464E-10 -3.724464E-10  3.192398E-10 -1.301043E-18  1.646520E-18  1.610799E-18
         9   4 -3.724464E-10 -3.724464E-10  3.192398E-10  5.421011E-19  1.646520E-18  1.239127E-18
         9   5 -3.724464E-10 -3.724464E-10  3.192398E-10 -1.734723E-18 -3.162685E-18  1.705911E-18
         9   6 -3.724464E-10 -3.724464E-10  3.192398E-10 -2.168404E-18 -1.849893E-20 -2.724739E-18
         9   7 -3.724464E-10 -3.724464E-10  3.192398E-10  3.044873E-37 -3.291803E-19 -4.624933E-19
         9   8 -3.724464E-10 -3.724464E-10  3.192398E-10 -8.673617E-19 -7.628611E-19 -1.098435E-18

 displacements (vx,vy,vz) for set NALL and time  0.6607813E+00

         1  0.000000E+00  0.000000E+00  0.000000E+00
         2 -1.887946E-07  0.000000E+00  0.000000E+00
         3 -9.911719E+00  0.000000E+00  0.000000E+00
         4 -9.911719E+00  0.000000E+00  0.000000E+00
         5 -1.982344E+01  0.000000E+00  0.000000E+00
         6 -1.982344E+01  0.000000E+00  0.000000E+00
         7  0.000000E+00 -1.887946E-07  0.000000E+00
         8 -1.887946E-07 -1.887946E-07  0.000000E+00
         9 -9.911719E+00 -1.887946E-07  0.000000E+00
        10 -9.911719E+00 -1.887946E-07  0.000000E+00
        11 -1.982344E+01 -1.887946E-07  0.000000E+00
        12 -1.982344E+01 -1.887946E-07  0.000000E+00
        13  0.000000E+00 -9.911719E+00  0.000000E+00
        14 -1.887946E-07 -9.911719E+00  0.000000E+00
        15 -9.911719E+00 -9.911719E+00  0.000000E+00
        16 -9.911719E+00 -9.911719E+00  0.000000E+00
        17 -1.982344E+01 -9.911719E+00  0.000000E+00
        18 -1.982344E+01 -9.911719E+00  0.000000E+00
        19  0.000000E+00 -9.911719E+00  0.000000E+00
        20 -1.887946E-07 -9.911719E+00  0.000000E+00
        21 -9.911719E+00 -9.911719E+00  0.000000E+00
        22 -9.911719E+00 -9.911719E+00  0.000000E+00
        23 -1.982344E+01 -9.911719E+00  0.000000E+00
        24 -1.982344E+01 -9.911719E+00  0.000000E+00
        25  0.000000E+00 -1.982344E+01  0.000000E+00
        26 -1.887946E-07 -1.982344E+01  0.000000E+00
        27 -9.911719E+00 -1.982344E+01  0.000000E+00
        28 -9.911719E+00 -1.982344E+01  0.000000E+00
        29 -1.982344E+01 -1.982344E+01  0.000000E+00
        30 -1.982344E+01 -1.982344E+01  0.000000E+00
        31  0.000000E+00 -1.982344E+01  0.000000E+00
        32 -1.887946E-07 -1.982344E+01  0.000000E+00
        33 -9.911719E+00 -1.982344E+01  0.000000E+00
        34 -9.911719E+00 -1.982344E+01  0.000000E+00
        35 -1.982344E+01 -1.982344E+01  0.000000E+00
        36 -1.982344E+01 -1.982344E+01  0.000000E+00
        37  0.000000E+00  0.000000E+00  2.265536E-07
        38 -1.887946E-07  0.000000E+00  2.265536E-07
        39 -9.911719E+00  0.000000E+00  2.265536E-07
        40 -9.911719E+00  0.000000E+00  2.265536E-07
        41 -1.982344E+01  0.000000E+00  2.265536E-07
        42 -1.982344E+01  0.000000E+00  2.265536E-07
        43  0.000000E+00 -1.887946E-07  2.265536E-07
        44 -1.887946E-07 -1.887946E-07  2.265536E-07
        45 -9.911719E+00 -1.887946E-07  2.265536E-07
        46 -9.911719E+00 -1.887946E-07  2.265536E-07
        47 -1.982344E+01 -1.887946E-07  2.265536E-07
        48 -1.982344E+01 -1.887946E-07  2.265536E-07
        49  0.000000E+00 -9.911719E+00  2.265536E-07
        50 -1.887946E-07 -9.911719E+00  2.265536E-07
        51 -9.911719E+00 -9.911719E+00  2.265536E-07
        52 -9.911719E+00 -9.911719E+00  2.265536E-07
        53 -1.982344E+01 -9.911719E+00  2.265536E-07
        54 -1.982344E+01 -9.911719E+00  2.265536E-07
        55  0.000000E+00 -9.911719E+00  2.265536E-07
        56 -1.887946E-07 -9.911719E+00  2.265536E-07
        57 -9.911719E+00 -9.911719E+00  2.265536E-07
        58 -9.911719E+00 -9.911719E+00  2.265536E-07
        59 -1.982344E+01 -9.911719E+00  2.265536E-07
        60 -1.982344E+01 -9.911719E+00  2.265536E-07
        61  0.000000E+00 -1.982344E+01  2.265536E-07
        62 -1.887946E-07 -1.982344E+01  2.265536E-07
        63 -9.911719E+00 -1.982344E+01  2.265536E-07
        64 -9.911719E+00 -1.982344E+01  2.265536E-07
        65 -1.982344E+01 -1.982344E+01  2.265536E-07
        66 -1.982344E+01 -1.982344E+01  2.265536E-07
        67  0.000000E+00 -1.982344E+01  2.265536E-07
        68 -1.887946E-07 -1.982344E+01  2.265536E-07
        69 -9.911719E+00 -1.982344E+01  2.265536E-07
        70 -9.911719E+00 -1.982344E+01  2.265536E-07
        71 -1.982344E+01 -1.982344E+01  2.265536E-07
        72 -1.982344E+01 -1.982344E+01  2.265536E-07

 stresses (elem, integ.pnt.,sxx,syy,szz,sxy,sxz,syz) for set EALL and time  0.6607813E+00

         1   1 -1.132768E-04 -1.132768E-04  1.897354E-19 -1.043918E-21 -2.153081E-20  5.898136E-20
         1   2 -1.132768E-04 -1.132768E-04  8.131516E-20 -1.195286E-19  2.922970E-20  3.118705E-20
         1   3 -1.132768E-04 -1.132768E-04  6.234162E-19  1.163968E-19  3.079558E-20 -3.340537E-20
         1   4 -1.132768E-04 -1.132768E-04  6.640738E-19 -2.087836E-21  1.680708E-19 -1.946907E-19
         1   5 -1.132768E-04 -1.132768E-04  1.084202E-19 -2.609795E-20 -1.327081E-19  3.095216E-19
         1   6 -1.132768E-04 -1.132768E-04 -2.846031E-19 -2.609795E-20 -8.194755E-20  3.412306E-19
         1   7 -1.132768E-04 -1.132768E-04  7.047314E-19 -9.604044E-20 -2.087836E-20  2.150471E-19
         1   8 -1.132768E-04 -1.132768E-04  4.743385E-19 -9.604044E-20  1.169188E-19  1.153529E-19
         2   1 -1.132768E-04 -1.132768E-04 -5.817558E-16  1.411165E-13 -2.234329E-15 -3.003890E-15
         2   2 -1.132768E-04 -1.132768E-04 -1.172711E-14 -1.653791E-13 -6.353345E-14  4.131912E-15
         2   3 -1.132768E-04 -1.132768E-04 -3.733359E-13  1.438601E-13  1.116126E-14  1.281516E-15
         2   4 -1.132768E-04 -1.132768E-04 -2.929876E-13 -1.451215E-13 -1.990072E-13 -8.684756E-15
         2   5 -1.132768E-04 -1.132768E-04 -3.856482E-13 -1.478718E-13 -8.338633E-15 -1.549607E-14
         2   6 -1.132768E-04 -1.132768E-04 -4.327079E-13 -1.828998E-13  4.420347E-14  2.823718E-14
         2   7 -1.132768E-04 -1.132768E-04 -3.117944E-13 -1.690711E-13  4.165441E-14 -1.121067E-14
         2   8 -1.132768E-04 -1.132768E-04 -2.673605E-13 -1.690711E-13 -9.845787E-14  1.542051E-14
         3   1 -1.132768E-04 -1.132768E-04  3.457145E-14  5.032784E-14 -3.475064E-13 -1.530446E-15
         3   2 -1.132768E-04 -1.132768E-04 -2.732761E-14  8.535591E-14 -3.124783E-13  1.425771E-14
         3   3 -1.132768E-04 -1.132768E-04  3.423013E-13 -3.570866E-15 -2.214287E-14 -4.473627E-14
         3   4 -1.132768E-04 -1.132768E-04  1.102146E-13  3.145720E-14  4.791327E-14  8.226099E-14
         3   5 -1.132768E-04 -1.132768E-04  2.590918E-13 -2.429654E-13 -3.399268E-13  3.749413E-14
         3   6 -1.132768E-04 -1.132768E-04  4.307319E-13  1.073153E-13  2.730645E-13 -1.479276E-14
         3   7 -1.132768E-04 -1.132768E-04 -6.368361E-14 -1.411713E-13 -8.263832E-14 -5.711703E-15
         3   8 -1.132768E-04 -1.132768E-04 -6.223117E-14  6.899710E-14  1.275301E-13  5.321051E-14
         4   1 -1.132768E-04 -1.132768E-04 -3.470734E-14  1.940220E-14  3.413764E-15  8.981163E-14
         4   2 -1.132768E-04 -1.132768E-04  3.433424E-14  6.361322E-16  8.863392E-16 -6.753567E-14
         4   3 -1.132768E-04 -1.132768E-04  7.207605E-14  9.821535E-14 -5.291640E-16  1.975549E-14
         4   4 -1.132768E-04 -1.132768E-04  8.321181E-14  7.944929E-14  9.333470E-15 -1.638629E-13
         4   5 -1.132768E-04 -1.132768E-04  6.506929E-14 -3.554782E-14  1.526776E-14 -1.014119E-13
         4   6 -1.132768E-04 -1.132768E-04  4.216220E-14 -3.696780E-14  1.274034E-14 -1.242952E-13
         4   7 -1.132768E-04 -1.132768E-04  1.978718E-13 -1.406320E-13 -1.183750E-14  2.138408E-13
         4   8 -1.132768E-04 -1.132768E-04  1.170589E-13 -1.420520E-13 -1.974867E-15  7.060077E-15
         5   1 -1.132768E-04 -1.132768E-04 -1.512020E-13  4.378509E-14  4.273347E-14 -2.992441E-14
         5   2 -1.132768E-04 -1.132768E-04  4.591762E-14  3.502807E-13  1.390607E-13 -1.393785E-14
         5   3 -1.132768E-04 -1.132768E-04  5.441845E-14 -1.751404E-13  2.776455E-13  5.103662E-15
         5   4 -1.132768E-04 -1.132768E-04  2.075648E-13  2.101684E-13  1.375332E-13 -2.503773E-13
         5   5 -1.132768E-04 -1.132768E-04  2.297282E-13  1.050842E-13  1.338412E-13 -5.100902E-14
         5   6 -1.132768E-04 -1.132768E-04  2.823571E-13  7.005614E-14  8.129905E-14  4.196398E-14
         5   7 -1.132768E-04 -1.132768E-04 -1.557500E-13  1.401123E-13  1.304870E-13  1.904712E-14
         5   8 -1.132768E-04 -1.132768E-04 -1.208234E-13  1.401123E-13 -4.465339E-14 -2.995597E-13
         6   1 -1.132768E-04 -1.132768E-04 -6.831206E-14 -2.364395E-13  1.157603E-13 -1.875020E-14
         6   2 -1.132768E-04 -1.132768E-04 -5.236209E-13  4.115798E-13  2.819011E-14 -1.156853E-13
         6   3 -1.132768E-04 -1.132768E-04  1.379009E-14 -2.451965E-13  3.165638E-13 -1.588625E-13
         6   4 -1.132768E-04 -1.132768E-04  4.458893E-13  1.225982E-13 -1.738292E-13 -6.314315E-14
         6   5 -1.132768E-04 -1.132768E-04  2.994827E-13  7.005614E-14  1.192855E-13 -3.151732E-13
         6   6 -1.132768E-04 -1.132768E-04 -7.701299E-14  7.005614E-14  4.922938E-14  1.827972E-13
         6   7 -1.132768E-04 -1.132768E-04 -2.489204E-13  1.599204E-30 -1.446046E-13 -3.502013E-13
         6   8 -1.132768E-04 -1.132768E-04  1.569077E-13  1.401123E-13 -1.446046E-13  5.144198E-14
         7   1 -1.132768E-04 -1.132768E-04 -8.117413E-13 -2.990341E-13 -6.821608E-16 -2.847789E-13
         7   2 -1.132768E-04 -1.132768E-04  1.820552E-13 -3.504226E-13  2.027239E-14 -2.933672E-13
         7   3 -1.132768E-04 -1.132768E-04 -4.414383E-13 -1.880950E-14  1.538093E-14  6.550183E-14
         7   4 -1.132768E-04 -1.132768E-04  6.133222E-13 -7.019800E-14  5.583506E-14 -4.860215E-13
         7   5 -1.132768E-04 -1.132768E-04 -2.423157E-13 -8.817217E-15 -2.350041E-14 -3.576841E-14
         7   6 -1.132768E-04 -1.132768E-04 -4.044455E-13 -3.290630E-14 -2.545856E-15  1.026271E-13
         7   7 -1.132768E-04 -1.132768E-04 -6.717372E-13 -8.817217E-15  1.694828E-14  2.444561E-13
         7   8 -1.132768E-04 -1.132768E-04  6.777063E-14 -3.290630E-14  5.740241E-14 -2.457073E-15
         8   1 -1.132768E-04 -1.132768E-04 -1.199691E-12 -1.050842E-12 -1.184206E-13 -5.565393E-13
         8   2 -1.132768E-04 -1.132768E-04 -6.923173E-16 -7.706175E-13  1.618039E-13 -4.480322E-14
         8   3 -1.132768E-04 -1.132768E-04 -4.580545E-13 -9.107298E-13  1.306049E-13 -2.062586E-13
         8   4 -1.132768E-04 -1.132768E-04  7.642904E-13 -5.516921E-13  2.552067E-14 -3.075137E-13
         8   5 -1.132768E-04 -1.132768E-04  2.977588E-13 -2.472561E-30  8.095434E-14 -2.844042E-13
         8   6 -1.132768E-04 -1.132768E-04 -4.998423E-13  1.401123E-13  1.510105E-13  2.121506E-13
         8   7 -1.132768E-04 -1.132768E-04  6.978719E-13 -2.802246E-13  1.046302E-13  2.760449E-13
         8   8 -1.132768E-04 -1.132768E-04 -1.026544E-13 -3.853088E-13 -3.548211E-14 -3.307845E-13
         9   1 -1.132768E-04 -1.132768E-04  9.122010E-14  2.101684E-13  5.429397E-14  7.205466E-14
         9   2 -1.132768E-04 -1.132768E-04 -6.206718E-13  7.180754E-13  2.294343E-13 -2.683285E-13
         9   3 -1.132768E-04 -1.132768E-04 -2.139809E-16  2.101684E-13 -2.335471E-13  1.998520E-15
         9   4 -1.132768E-04 -1.132768E-04 -4.958036E-13  4.378509E-13 -9.343481E-14  6.443817E-14
         9   5 -1.132768E-04 -1.132768E-04  1.963043E-13  5.604491E-13 -3.390498E-13  2.176270E-13
         9   6 -1.132768E-04 -1.132768E-04  1.937309E-13  3.502807E-13  8.128704E-14  8.286019E-14
         9   7 -1.132768E-04 -1.132768E-04 -1.051056E-12 -2.802246E-13  1.742027E-13  7.458576E-15
         9   8 -1.132768E-04 -1.132768E-04  3.346471E-15 -7.005614E-14 -3.161903E-13 -1.097942E-13

 strains (elem, integ.pnt.,exx,eyy,ezz,exy,exz,eyz) forset EALL and time  0.6607813E+00

         1   1 -3.775893E-10 -3.775893E-10  3.236480E-10 -6.462349E-27 -1.332859E-25  3.651227E-25
         1   2 -3.775893E-10 -3.775893E-10  3.236480E-10 -7.399389E-25  1.809458E-25  1.930627E-25
         1   3 -3.775893E-10 -3.775893E-10  3.236480E-10  7.205519E-25  1.906393E-25 -2.067952E-25
         1   4 -3.775893E-10 -3.775893E-10  3.236480E-10 -1.292470E-26  1.040438E-24 -1.205228E-24
         1   5 -3.775893E-10 -3.775893E-10  3.236480E-10 -1.615587E-25 -8.215261E-25  1.916086E-24
         1   6 -3.775893E-10 -3.775893E-10  3.236480E-10 -1.615587E-25 -5.072944E-25  2.112380E-24
         1   7 -3.775893E-10 -3.775893E-10  3.236480E-10 -5.945361E-25 -1.292470E-25  1.331244E-24
         1   8 -3.775893E-10 -3.775893E-10  3.236480E-10 -5.945361E-25  7.237830E-25  7.140895E-25
         2   1 -3.775893E-10 -3.775893E-10  3.236480E-10  8.735784E-19 -1.383156E-20 -1.859551E-20
         2   2 -3.775893E-10 -3.775893E-10  3.236480E-10 -1.023775E-18 -3.933023E-19  2.557850E-20
         2   3 -3.775893E-10 -3.775893E-10  3.236479E-10  8.905625E-19  6.909354E-20  7.933192E-21
         2   4 -3.775893E-10 -3.775893E-10  3.236480E-10 -8.983711E-19 -1.231949E-18 -5.376278E-20
         2   5 -3.775893E-10 -3.775893E-10  3.236480E-10 -9.153966E-19 -5.162011E-20 -9.592808E-20
         2   6 -3.775893E-10 -3.775893E-10  3.236480E-10 -1.132237E-18  2.736405E-19  1.748016E-19
         2   7 -3.775893E-10 -3.775893E-10  3.236479E-10 -1.046630E-18  2.578606E-19 -6.939939E-20
         2   8 -3.775893E-10 -3.775893E-10  3.236480E-10 -1.046630E-18 -6.095011E-19  9.546028E-20
         3   1 -3.775893E-10 -3.775893E-10  3.236480E-10  3.115533E-19 -2.151230E-18 -9.474187E-21
         3   2 -3.775893E-10 -3.775893E-10  3.236480E-10  5.283938E-19 -1.934390E-18  8.826203E-20
         3   3 -3.775893E-10 -3.775893E-10  3.236480E-10 -2.210536E-20 -1.370749E-19 -2.769388E-19
         3   4 -3.775893E-10 -3.775893E-10  3.236479E-10  1.947351E-19  2.966060E-19  5.092347E-19
         3   5 -3.775893E-10 -3.775893E-10  3.236480E-10 -1.504071E-18 -2.104309E-18  2.321065E-19
         3   6 -3.775893E-10 -3.775893E-10  3.236480E-10  6.643331E-19  1.690399E-18 -9.157425E-20
         3   7 -3.775893E-10 -3.775893E-10  3.236480E-10 -8.739177E-19 -5.115706E-19 -3.535816E-20
         3   8 -3.775893E-10 -3.775893E-10  3.236479E-10  4.271249E-19  7.894720E-19  3.293984E-19
         4   1 -3.775893E-10 -3.775893E-10  3.236479E-10  1.201088E-19  2.113283E-20  5.559768E-19
         4   2 -3.775893E-10 -3.775893E-10  3.236479E-10  3.937961E-21  5.486862E-21 -4.180780E-19
         4   3 -3.775893E-10 -3.775893E-10  3.236480E-10  6.079998E-19 -3.275777E-21  1.222959E-19
         4   4 -3.775893E-10 -3.775893E-10  3.236480E-10  4.918289E-19  5.777862E-20 -1.014389E-18
         4   5 -3.775893E-10 -3.775893E-10  3.236479E-10 -2.200579E-19  9.451473E-20 -6.277877E-19
         4   6 -3.775893E-10 -3.775893E-10  3.236479E-10 -2.288483E-19  7.886877E-20 -7.694464E-19
         4   7 -3.775893E-10 -3.775893E-10  3.236480E-10 -8.705792E-19 -7.327978E-20  1.323776E-18
         4   8 -3.775893E-10 -3.775893E-10  3.236480E-10 -8.793696E-19 -1.222537E-20  4.370524E-20
         5   1 -3.775893E-10 -3.775893E-10  3.236479E-10  2.710505E-19  2.645405E-19 -1.852463E-19
         5   2 -3.775893E-10 -3.775893E-10  3.236480E-10  2.168404E-18  8.608517E-19 -8.628195E-20
         5   3 -3.775893E-10 -3.775893E-10  3.236480E-10 -1.084202E-18  1.718758E-18  3.159410E-20
         5   4 -3.775893E-10 -3.775893E-10  3.236480E-10  1.301043E-18  8.513959E-19 -1.549955E-18
         5   5 -3.775893E-10 -3.775893E-10  3.236479E-10  6.505213E-19  8.285405E-19 -3.157701E-19
         5   6 -3.775893E-10 -3.775893E-10  3.236480E-10  4.336809E-19  5.032798E-19  2.597770E-19
         5   7 -3.775893E-10 -3.775893E-10  3.236480E-10  8.673617E-19  8.077764E-19  1.179108E-19
         5   8 -3.775893E-10 -3.775893E-10  3.236480E-10  8.673617E-19 -2.764258E-19 -1.854417E-18
         6   1 -3.775893E-10 -3.775893E-10  3.236480E-10 -1.463673E-18  7.166113E-19 -1.160727E-19
         6   2 -3.775893E-10 -3.775893E-10  3.236479E-10  2.547875E-18  1.745102E-19 -7.161468E-19
         6   3 -3.775893E-10 -3.775893E-10  3.236479E-10 -1.517883E-18  1.959681E-18 -9.834344E-19
         6   4 -3.775893E-10 -3.775893E-10  3.236480E-10  7.589415E-19 -1.076085E-18 -3.908861E-19
         6   5 -3.775893E-10 -3.775893E-10  3.236480E-10  4.336809E-19  7.384342E-19 -1.951072E-18
         6   6 -3.775893E-10 -3.775893E-10  3.236479E-10  4.336809E-19  3.047533E-19  1.131602E-18
         6   7 -3.775893E-10 -3.775893E-10  3.236479E-10 -7.273699E-37 -8.951711E-19 -2.167913E-18
         6   8 -3.775893E-10 -3.775893E-10  3.236480E-10  8.673617E-19 -8.951711E-19  3.184503E-19
         7   1 -3.775893E-10 -3.775893E-10  3.236479E-10 -1.851163E-18 -4.222900E-21 -1.762917E-18
         7   2 -3.775893E-10 -3.775893E-10  3.236479E-10 -2.169283E-18  1.254958E-19 -1.816082E-18
         7   3 -3.775893E-10 -3.775893E-10  3.236480E-10 -1.164397E-19  9.521528E-20  4.054875E-19
         7   4 -3.775893E-10 -3.775893E-10  3.236480E-10 -4.345591E-19  3.456456E-19 -3.008705E-18
         7   5 -3.775893E-10 -3.775893E-10  3.236479E-10 -5.458277E-20 -1.454787E-19 -2.214235E-19
         7   6 -3.775893E-10 -3.775893E-10  3.236479E-10 -2.037057E-19 -1.576006E-20  6.353109E-19
         7   7 -3.775893E-10 -3.775893E-10  3.236480E-10 -5.458277E-20  1.049179E-19  1.513300E-18
         7   8 -3.775893E-10 -3.775893E-10  3.236480E-10 -2.037057E-19  3.553483E-19 -1.521045E-20
         8   1 -3.775893E-10 -3.775893E-10  3.236479E-10 -6.505213E-18 -7.330801E-19 -3.445243E-18
         8   2 -3.775893E-10 -3.775893E-10  3.236479E-10 -4.770490E-18  1.001643E-18 -2.773533E-19
         8   3 -3.775893E-10 -3.775893E-10  3.236480E-10 -5.637851E-18  8.085064E-19 -1.276839E-18
         8   4 -3.775893E-10 -3.775893E-10  3.236480E-10 -3.415237E-18  1.579851E-19 -1.903657E-18
         8   5 -3.775893E-10 -3.775893E-10  3.236479E-10  1.525446E-35  5.011459E-19 -1.760598E-18
         8   6 -3.775893E-10 -3.775893E-10  3.236479E-10  8.673617E-19  9.348268E-19  1.313313E-18
         8   7 -3.775893E-10 -3.775893E-10  3.236480E-10 -1.734723E-18  6.477106E-19  1.708849E-18
         8   8 -3.775893E-10 -3.775893E-10  3.236480E-10 -2.385245E-18 -2.196512E-19 -2.047714E-18
         9   1 -3.775893E-10 -3.775893E-10  3.236479E-10  1.301043E-18  3.361055E-19  4.460527E-19
         9   2 -3.775893E-10 -3.775893E-10  3.236479E-10  4.445229E-18  1.420308E-18 -1.661081E-18
         9   3 -3.775893E-10 -3.775893E-10  3.236479E-10  1.301043E-18 -1.445768E-18  1.237179E-20
         9   4 -3.775893E-10 -3.775893E-10  3.236480E-10  2.710505E-18 -5.784060E-19  3.989029E-19
         9   5 -3.775893E-10 -3.775893E-10  3.236479E-10  3.469447E-18 -2.098880E-18  1.347215E-18
         9   6 -3.775893E-10 -3.775893E-10  3.236479E-10  2.168404E-18  5.032055E-19  5.129441E-19
         9   7 -3.775893E-10 -3.775893E-10  3.236479E-10 -1.734723E-18  1.078398E-18  4.617214E-20
         9   8 -3.775893E-10 -3.775893E-10  3.236480E-10 -4.336809E-19 -1.957368E-18 -6.796783E-19

 displacements (vx,vy,vz) for set NALL and time  0.6697813E+00

         1  0.000000E+00  0.000000E+00  0.000000E+00
         2 -3.114459E-02  0.000000E+00  0.000000E+00
         3 -1.003115E+01  0.000000E+00  0.000000E+00
         4 -1.006229E+01  0.000000E+00  0.000000E+00
         5 -2.006229E+01  0.000000E+00  0.000000E+00
         6 -2.009344E+01  0.000000E+00  0.000000E+00
         7  0.000000E+00 -3.114459E-02  0.000000E+00
         8 -3.114459E-02 -3.114459E-02  0.000000E+00
         9 -1.003115E+01 -3.114459E-02  0.000000E+00
        10 -1.006229E+01 -3.114459E-02  0.000000E+00
        11 -2.006229E+01 -3.114459E-02  0.000000E+00
        12 -2.009344E+01 -3.114459E-02  0.000000E+00
        13  0.000000E+00 -1.003115E+01  0.000000E+00
        14 -3.114459E-02 -1.003115E+01  0.000000E+00
        15 -1.003115E+01 -1.003115E+01  0.000000E+00
        16 -1.006229E+01 -1.003115E+01  0.000000E+00
        17 -2.006229E+01 -1.003115E+01  0.000000E+00
        18 -2.009344E+01 -1.003115E+01  0.000000E+00
        19  0.000000E+00 -1.006229E+01  0.000000E+00
        20 -3.114459E-02 -1.006229E+01  0.000000E+00
        21 -1.003115E+01 -1.006229E+01  0.000000E+00
        22 -1.006229E+01 -1.006229E+01  0.000000E+00
        23 -2.006229E+01 -1.006229E+01  0.000000E+00
        24 -2.009344E+01 -1.006229E+01  0.000000E+00
        25  0.000000E+00 -2.006229E+01  0.000000E+00
        26 -3.114459E-02 -2.006229E+01  0.000000E+00
        27 -1.003115E+01 -2.006229E+01  0.000000E+00
        28 -1.006229E+01 -2.006229E+01  0.000000E+00
        29 -2.006229E+01 -2.006229E+01  0.000000E+00
        30 -2.009344E+01 -2.006229E+01  0.000000E+00
        31  0.000000E+00 -2.009344E+01  0.000000E+00
        32 -3.114459E-02 -2.009344E+01  0.000000E+00
        33 -1.003115E+01 -2.009344E+01  0.000000E+00
        34 -1.006229E+01 -2.009344E+01  0.000000E+00
        35 -2.006229E+01 -2.009344E+01  0.000000E+00
        36 -2.009344E+01 -2.009344E+01  0.000000E+00
        37  0.000000E+00  0.000000E+00  3.737134E-02
        38 -3.114459E-02  0.000000E+00  3.737134E-02
        39 -1.003115E+01  0.000000E+00  3.737134E-02
        40 -1.006229E+01  0.000000E+00  3.737134E-02
        41 -2.006229E+01  0.000000E+00  3.737134E-02
        42 -2.009344E+01  0.000000E+00  3.737134E-02
        43  0.000000E+00 -3.114459E-02  3.737134E-02
        44 -3.114459E-02 -3.114459E-02  3.737134E-02
        45 -1.003115E+01 -3.114459E-02  3.737134E-02
        46 -1.006229E+01 -3.114459E-02  3.737134E-02
        47 -2.006229E+01 -3.114459E-02  3.737134E-02
        48 -2.009344E+01 -3.114459E-02  3.737134E-02
        49  0.000000E+00 -1.003115E+01  3.737134E-02
        50 -3.114459E-02 -1.003115E+01  3.737134E-02
        51 -1.003115E+01 -1.003115E+01  3.737134E-02
        52 -1.006229E+01 -1.003115E+01  3.737134E-02
        53 -2.006229E+01 -1.003115E+01  3.737134E-02
        54 -2.009344E+01 -1.003115E+01  3.737134E-02
        55  0.000000E+00 -1.006229E+01  3.737134E-02
        56 -3.114459E-02 -1.006229E+01  3.737134E-02
        57 -1.003115E+01 -1.006229E+01  3.737134E-02
        58 -1.006229E+01 -1.006229E+01  3.737134E-02
        59 -2.006229E+01 -1.006229E+01  3.737134E-02
        60 -2.009344E+01 -1.006229E+01  3.737134E-02
        61  0.000000E+00 -2.006229E+01  3.737134E-02
        62 -3.114459E-02 -2.006229E+01  3.737134E-02
        63 -1.003115E+01 -2.006229E+01  3.737134E-02
        64 -1.006229E+01 -2.006229E+01  3.737134E-02
        65 -2.006229E+01 -2.006229E+01  3.737134E-02
        66 -2.009344E+01 -2.006229E+01  3.737134E-02
        67  0.000000E+00 -2.009344E+01  3.737134E-02
        68 -3.114459E-02 -2.009344E+01  3.737134E-02
        69 -1.003115E+01 -2.009344E+01  3.737134E-02
        70 -1.006229E+01 -2.009344E+01  3.737134E-02
        71 -2.006229E+01 -2.009344E+01  3.737134E-02
        72 -2.009344E+01 -2.009344E+01  3.737134E-02

 stresses (elem, integ.pnt.,sxx,syy,szz,sxy,sxz,syz) for set EALL and time  0.6697813E+00

         1   1 -1.868517E+01 -1.868517E+01  2.842677E-13 -5.320778E-13  1.189593E-12 -3.890440E-13
         1   2 -1.868517E+01 -1.868517E+01  2.080484E-12  2.887384E-11 -1.479621E-11 -9.991100E-12
         1   3 -1.868517E+01 -1.868517E+01  6.420896E-12 -3.139129E-11  5.282794E-12  1.373904E-11
         1   4 -1.868517E+01 -1.868517E+01 -1.077019E-11 -1.985375E-12  8.071562E-12 -1.450373E-11
         1   5 -1.868517E+01 -1.868517E+01 -3.617306E-12 -4.639609E-13  2.042571E-11 -1.557989E-11
         1   6 -1.868517E+01 -1.868517E+01 -4.097186E-11  5.521668E-11  4.439915E-12 -3.277409E-11
         1   7 -1.868517E+01 -1.868517E+01  4.194725E-11 -5.741229E-11  1.692664E-11 -1.451538E-12
         1   8 -1.868517E+01 -1.868517E+01 -1.439638E-11 -1.731646E-12  1.971541E-11 -3.728672E-11
         2   1 -1.868517E+01 -1.868517E+01  4.638893E-12  3.251891E-11 -1.145259E-11  7.953689E-12
         2   2 -1.868517E+01 -1.868517E+01  1.008084E-11  3.000652E-11 -1.663674E-11 -6.976382E-12
         2   3 -1.868517E+01 -1.868517E+01  1.037577E-12 -3.323311E-11  1.684837E-11  2.947611E-11
         2   4 -1.868517E+01 -1.868517E+01 -9.320427E-12 -3.601688E-11  9.597564E-12 -1.992305E-11
         2   5 -1.868517E+01 -1.868517E+01  3.842411E-11  5.716129E-11  3.018105E-11  8.160276E-12
         2   6 -1.868517E+01 -1.868517E+01 -2.852626E-11  5.218903E-11  2.500565E-11 -1.309054E-11
         2   7 -1.868517E+01 -1.868517E+01  3.105802E-11 -5.683028E-11  5.202096E-11  2.968297E-11
         2   8 -1.868517E+01 -1.868517E+01 -5.169230E-11 -6.173251E-11  4.494529E-11 -2.603727E-11
         3   1 -1.868517E+01 -1.868517E+01  1.065115E-11  3.934182E-11 -8.862825E-12  1.032267E-11
         3   2 -1.868517E+01 -1.868517E+01  1.112197E-11  3.012805E-12  2.643896E-12  1.885787E-12
         3   3 -1.868517E+01 -1.868517E+01  2.812651E-11  9.832907E-12  1.301281E-11  9.401341E-12
         3   4 -1.868517E+01 -1.868517E+01  1.531137E-11 -2.677623E-11  6.637697E-12 -1.677679E-11
         3   5 -1.868517E+01 -1.868517E+01  3.154661E-11  6.330877E-11  9.380317E-12  3.944617E-11
         3   6 -1.868517E+01 -1.868517E+01 -5.241185E-12  2.521146E-12  2.055427E-11  2.570020E-11
         3   7 -1.868517E+01 -1.868517E+01  1.315626E-11  8.971734E-12  2.587773E-11  3.852463E-11
         3   8 -1.868517E+01 -1.868517E+01 -3.691749E-11 -5.223608E-11  1.985291E-11  7.037700E-12
         4   1 -1.868517E+01 -1.868517E+01 -4.825444E-12 -3.329562E-11 -4.161958E-12  1.097441E-11
         4   2 -1.868517E+01 -1.868517E+01  9.826778E-12  2.237052E-11 -2.071980E-11 -2.207838E-11
         4   3 -1.868517E+01 -1.868517E+01  8.657728E-12 -3.200879E-11  7.362200E-12  9.082897E-12
         4   4 -1.868517E+01 -1.868517E+01 -2.439372E-12  2.365735E-11  3.258549E-11 -2.368967E-11
         4   5 -1.868517E+01 -1.868517E+01 -4.406682E-11 -5.311518E-11  1.025393E-12 -1.672148E-11
         4   6 -1.868517E+01 -1.868517E+01 -2.820824E-11  6.102508E-11 -1.553276E-11 -6.033404E-11
         4   7 -1.868517E+01 -1.868517E+01  5.716445E-11 -5.122432E-11  2.251293E-12 -1.864802E-11
         4   8 -1.868517E+01 -1.868517E+01  4.727372E-11  6.291594E-11  2.747486E-11 -6.199787E-11
         5   1 -1.868517E+01 -1.868517E+01  1.190371E-13 -3.562869E-12 -2.695528E-11  3.627871E-11
         5   2 -1.868517E+01 -1.868517E+01 -7.206186E-12 -3.431560E-12 -2.389908E-11 -2.866980E-11
         5   3 -1.868517E+01 -1.868517E+01 -1.495959E-12  8.473851E-12  4.367236E-11  4.335438E-11
         5   4 -1.868517E+01 -1.868517E+01 -7.302126E-13  8.683947E-12  4.465315E-11 -3.684889E-11
         5   5 -1.868517E+01 -1.868517E+01  2.119038E-11  9.804456E-13 -3.690511E-11  3.560558E-11
         5   6 -1.868517E+01 -1.868517E+01 -1.823577E-11 -1.785812E-12 -3.426925E-11 -2.626886E-11
         5   7 -1.868517E+01 -1.868517E+01  1.526695E-11 -8.403819E-12  3.666510E-11  4.289142E-11
         5   8 -1.868517E+01 -1.868517E+01 -1.613041E-11 -1.113506E-11  3.761086E-11 -3.426361E-11
         6   1 -1.868517E+01 -1.868517E+01 -8.162036E-12  1.951262E-11 -2.432050E-11  1.628526E-11
         6   2 -1.868517E+01 -1.868517E+01 -1.666519E-12 -3.982185E-11 -7.244319E-12 -1.027941E-11
         6   3 -1.868517E+01 -1.868517E+01 -4.635340E-12  3.004365E-11  3.242047E-11  1.950784E-11
         6   4 -1.868517E+01 -1.868517E+01  6.884608E-12 -2.880059E-11  8.110989E-12 -1.447399E-11
         6   5 -1.868517E+01 -1.868517E+01  3.413344E-11  5.914188E-11 -2.761793E-11  5.312191E-11
         6   6 -1.868517E+01 -1.868517E+01  2.443814E-11 -5.718099E-11 -1.129485E-11  2.869292E-11
         6   7 -1.868517E+01 -1.868517E+01 -4.851383E-11  5.882674E-11  3.093554E-11  5.648460E-11
         6   8 -1.868517E+01 -1.868517E+01 -5.324334E-11 -5.707594E-11  6.626057E-12  2.459477E-11
         7   1 -1.868517E+01 -1.868517E+01 -4.690417E-12 -2.811043E-11 -8.694751E-12  1.210538E-11
         7   2 -1.868517E+01 -1.868517E+01  7.289689E-12 -1.208596E-12 -2.011609E-11 -1.789523E-11
         7   3 -1.868517E+01 -1.868517E+01  1.599006E-12 -3.778231E-13 -4.574952E-13 -5.047302E-13
         7   4 -1.868517E+01 -1.868517E+01  1.669540E-11  2.652401E-11  9.379783E-12 -8.174938E-12
         7   5 -1.868517E+01 -1.868517E+01 -5.442482E-11 -5.994027E-11 -2.102834E-11 -1.523209E-12
         7   6 -1.868517E+01 -1.868517E+01  3.219331E-12 -3.287119E-12 -3.244930E-11 -3.071533E-11
         7   7 -1.868517E+01 -1.868517E+01 -4.333305E-12 -8.334061E-13 -1.154506E-11 -1.385309E-11
         7   8 -1.868517E+01 -1.868517E+01  5.727461E-11  5.581974E-11 -1.707508E-12 -2.055719E-11
         8   1 -1.868517E+01 -1.868517E+01 -2.718132E-11 -3.189950E-11 -3.500367E-11  1.707037E-11
         8   2 -1.868517E+01 -1.868517E+01 -1.450298E-11 -3.655661E-11 -3.880421E-11 -3.035101E-11
         8   3 -1.868517E+01 -1.868517E+01 -2.214268E-11  2.202501E-11  8.035287E-12  5.721271E-12
         8   4 -1.868517E+01 -1.868517E+01  1.538421E-11  1.737665E-11  5.968631E-12 -4.517847E-12
         8   5 -1.868517E+01 -1.868517E+01 -5.979926E-11 -4.874215E-11 -6.198392E-11  2.198262E-11
         8   6 -1.868517E+01 -1.868517E+01  3.258774E-11 -5.049295E-11 -6.599464E-11 -1.565524E-11
         8   7 -1.868517E+01 -1.868517E+01 -5.114331E-11  5.770623E-11 -9.197093E-12  1.063353E-11
         8   8 -1.868517E+01 -1.868517E+01  6.701078E-11  5.599045E-11 -1.119369E-11  1.024829E-11
         9   1 -1.868517E+01 -1.868517E+01  2.721152E-11  2.311050E-12 -2.369239E-11  2.451699E-11
         9   2 -1.868517E+01 -1.868517E+01  1.063339E-11 -2.431855E-11 -1.197550E-11 -4.801946E-12
         9   3 -1.868517E+01 -1.868517E+01 -1.816115E-11  2.724238E-11  7.201717E-12  6.022173E-12
         9   4 -1.868517E+01 -1.868517E+01  1.527939E-12  5.427467E-13  2.661591E-13  2.308753E-12
         9   5 -1.868517E+01 -1.868517E+01  1.134050E-11 -1.008458E-11 -4.500683E-11  2.245603E-11
         9   6 -1.868517E+01 -1.868517E+01  4.827931E-11 -6.302865E-11 -3.379784E-11  8.223992E-12
         9   7 -1.868517E+01 -1.868517E+01 -7.281161E-11  5.014279E-11  3.623521E-13  4.101324E-12
         9   8 -1.868517E+01 -1.868517E+01 -2.487342E-14 -3.151432E-12 -7.203711E-12  1.458172E-11

 strains (elem, integ.pnt.,exx,eyy,ezz,exy,exz,eyz) forset EALL and time  0.6697813E+00

         1   1 -6.228724E-05 -6.228724E-05  5.338906E-05 -3.294753E-18  7.373770E-18 -2.416182E-18
         1   2 -6.228724E-05 -6.228724E-05  5.338906E-05  1.787937E-16 -9.157977E-17 -6.185776E-17
         1   3 -6.228724E-05 -6.228724E-05  5.338906E-05 -1.943824E-16  3.270707E-17  8.503791E-17
         1   4 -6.228724E-05 -6.228724E-05  5.338906E-05 -1.229392E-17  4.996980E-17 -8.979138E-17
         1   5 -6.228724E-05 -6.228724E-05  5.338906E-05 -2.872957E-18  1.264747E-16 -9.647066E-17
         1   6 -6.228724E-05 -6.228724E-05  5.338906E-05  3.419149E-16  2.752111E-17 -2.029191E-16
         1   7 -6.228724E-05 -6.228724E-05  5.338906E-05 -3.555106E-16  1.048002E-16 -9.014873E-18
         1   8 -6.228724E-05 -6.228724E-05  5.338906E-05 -1.072277E-17  1.220629E-16 -2.308528E-16
         2   1 -6.228724E-05 -6.228724E-05  5.338906E-05  2.013649E-16 -7.087074E-17  4.923417E-17
         2   2 -6.228724E-05 -6.228724E-05  5.338906E-05  1.858075E-16 -1.029611E-16 -4.318764E-17
         2   3 -6.228724E-05 -6.228724E-05  5.338906E-05 -2.057874E-16  1.043115E-16  1.824599E-16
         2   4 -6.228724E-05 -6.228724E-05  5.338906E-05 -2.230251E-16  5.942830E-17 -1.233287E-16
         2   5 -6.228724E-05 -6.228724E-05  5.338906E-05  3.539564E-16  1.869049E-16  5.051325E-17
         2   6 -6.228724E-05 -6.228724E-05  5.338906E-05  3.231670E-16  1.548687E-16 -8.104356E-17
         2   7 -6.228724E-05 -6.228724E-05  5.338906E-05 -3.519067E-16  3.220835E-16  1.837407E-16
         2   8 -6.228724E-05 -6.228724E-05  5.338906E-05 -3.822625E-16  2.782845E-16 -1.611850E-16
         3   1 -6.228724E-05 -6.228724E-05  5.338906E-05  2.436139E-16 -5.485231E-17  6.391356E-17
         3   2 -6.228724E-05 -6.228724E-05  5.338906E-05  1.865601E-17  1.637534E-17  1.168568E-17
         3   3 -6.228724E-05 -6.228724E-05  5.338906E-05  6.088771E-17  8.055704E-17  5.821042E-17
         3   4 -6.228724E-05 -6.228724E-05  5.338906E-05 -1.658048E-16  4.109454E-17 -1.038373E-16
         3   5 -6.228724E-05 -6.228724E-05  5.338906E-05  3.920231E-16  5.810002E-17  2.442324E-16
         3   6 -6.228724E-05 -6.228724E-05  5.338906E-05  1.561154E-17  1.272678E-16  1.591332E-16
         3   7 -6.228724E-05 -6.228724E-05  5.338906E-05  5.555512E-17  1.602101E-16  2.385279E-16
         3   8 -6.228724E-05 -6.228724E-05  5.338906E-05 -3.234583E-16  1.229159E-16  4.361059E-17
         4   1 -6.228724E-05 -6.228724E-05  5.338906E-05 -2.061745E-16 -2.576018E-17  6.791793E-17
         4   2 -6.228724E-05 -6.228724E-05  5.338906E-05  1.385236E-16 -1.282547E-16 -1.366872E-16
         4   3 -6.228724E-05 -6.228724E-05  5.338906E-05 -1.982061E-16  4.557001E-17  5.620927E-17
         4   4 -6.228724E-05 -6.228724E-05  5.338906E-05  1.464920E-16  2.017045E-16 -1.466613E-16
         4   5 -6.228724E-05 -6.228724E-05  5.338906E-05 -3.289019E-16  6.357426E-18 -1.035623E-16
         4   6 -6.228724E-05 -6.228724E-05  5.338906E-05  3.778819E-16 -9.613903E-17 -3.735481E-16
         4   7 -6.228724E-05 -6.228724E-05  5.338906E-05 -3.171932E-16  1.392571E-17 -1.154877E-16
         4   8 -6.228724E-05 -6.228724E-05  5.338906E-05  3.895906E-16  1.700618E-16 -3.838474E-16
         5   1 -6.228724E-05 -6.228724E-05  5.338906E-05 -2.206214E-17 -1.668609E-16  2.245682E-16
         5   2 -6.228724E-05 -6.228724E-05  5.338906E-05 -2.124904E-17 -1.479428E-16 -1.774673E-16
         5   3 -6.228724E-05 -6.228724E-05  5.338906E-05  5.247212E-17  2.703322E-16  2.683672E-16
         5   4 -6.228724E-05 -6.228724E-05  5.338906E-05  5.377308E-17  2.764034E-16 -2.280966E-16
         5   5 -6.228724E-05 -6.228724E-05  5.338906E-05  6.071154E-18 -2.284659E-16  2.204006E-16
         5   6 -6.228724E-05 -6.228724E-05  5.338906E-05 -1.105817E-17 -2.121497E-16 -1.626016E-16
         5   7 -6.228724E-05 -6.228724E-05  5.338906E-05 -5.203846E-17  2.269466E-16  2.655006E-16
         5   8 -6.228724E-05 -6.228724E-05  5.338906E-05 -6.895096E-17  2.328009E-16 -2.120898E-16
         6   1 -6.228724E-05 -6.228724E-05  5.338906E-05  1.208268E-16 -1.505481E-16  1.008266E-16
         6   2 -6.228724E-05 -6.228724E-05  5.338906E-05 -2.465864E-16 -4.484501E-17 -6.361008E-17
         6   3 -6.228724E-05 -6.228724E-05  5.338906E-05  1.860375E-16  2.006847E-16  1.207746E-16
         6   4 -6.228724E-05 -6.228724E-05  5.338906E-05 -1.783401E-16  5.020683E-17 -8.957489E-17
         6   5 -6.228724E-05 -6.228724E-05  5.338906E-05  3.662207E-16 -1.709650E-16  3.289015E-16
         6   6 -6.228724E-05 -6.228724E-05  5.338906E-05 -3.540784E-16 -6.992368E-17  1.776879E-16
         6   7 -6.228724E-05 -6.228724E-05  5.338906E-05  3.642692E-16  1.914903E-16  3.497169E-16
         6   8 -6.228724E-05 -6.228724E-05  5.338906E-05 -3.534279E-16  4.101244E-17  1.523200E-16
         7   1 -6.228724E-05 -6.228724E-05  5.338906E-05 -1.740665E-16 -5.382777E-17  7.492622E-17
         7   2 -6.228724E-05 -6.228724E-05  5.338906E-05 -7.483917E-18 -1.245269E-16 -1.107796E-16
         7   3 -6.228724E-05 -6.228724E-05  5.338906E-05 -2.339571E-18 -2.837749E-18 -3.131470E-18
         7   4 -6.228724E-05 -6.228724E-05  5.338906E-05  1.642430E-16  5.805589E-17 -5.061010E-17
         7   5 -6.228724E-05 -6.228724E-05  5.338906E-05 -3.711645E-16 -1.301914E-16 -9.455468E-18
         7   6 -6.228724E-05 -6.228724E-05  5.338906E-05 -2.035463E-17 -2.008882E-16 -1.901549E-16
         7   7 -6.228724E-05 -6.228724E-05  5.338906E-05 -5.160650E-18 -7.148666E-17 -8.577855E-17
         7   8 -6.228724E-05 -6.228724E-05  5.338906E-05  3.456492E-16 -1.059132E-17 -1.272751E-16
         8   1 -6.228724E-05 -6.228724E-05  5.338906E-05 -1.975293E-16 -2.166900E-16  1.056697E-16
         8   2 -6.228724E-05 -6.228724E-05  5.338906E-05 -2.263673E-16 -2.402157E-16 -1.878678E-16
         8   3 -6.228724E-05 -6.228724E-05  5.338906E-05  1.363841E-16  4.973020E-17  3.541776E-17
         8   4 -6.228724E-05 -6.228724E-05  5.338906E-05  1.076004E-16  3.693741E-17 -2.795810E-17
         8   5 -6.228724E-05 -6.228724E-05  5.338906E-05 -3.018231E-16 -3.837389E-16  1.360840E-16
         8   6 -6.228724E-05 -6.228724E-05  5.338906E-05 -3.126644E-16 -4.085656E-16 -9.687833E-17
         8   7 -6.228724E-05 -6.228724E-05  5.338906E-05  3.573308E-16 -5.696428E-17  6.583211E-17
         8   8 -6.228724E-05 -6.228724E-05  5.338906E-05  3.467063E-16 -6.932342E-17  6.346688E-17
         9   1 -6.228724E-05 -6.228724E-05  5.338906E-05  1.431058E-17 -1.466694E-16  1.517614E-16
         9   2 -6.228724E-05 -6.228724E-05  5.338906E-05 -1.505863E-16 -7.414080E-17 -2.971786E-17
         9   3 -6.228724E-05 -6.228724E-05  5.338906E-05  1.686913E-16  4.457555E-17  3.727679E-17
         9   4 -6.228724E-05 -6.228724E-05  5.338906E-05  3.360817E-18  1.643816E-18  1.429801E-17
         9   5 -6.228724E-05 -6.228724E-05  5.338906E-05 -6.244616E-17 -2.786387E-16  1.390011E-16
         9   6 -6.228724E-05 -6.228724E-05  5.338906E-05 -3.902885E-16 -2.092541E-16  5.093195E-17
         9   7 -6.228724E-05 -6.228724E-05  5.338906E-05  3.104962E-16  2.229062E-18  2.538381E-17
         9   8 -6.228724E-05 -6.228724E-05  5.338906E-05 -1.951442E-17 -4.460555E-17  9.028689E-17

 displacements (vx,vy,vz) for set NALL and time  0.6787813E+00

         1  0.000000E+00  0.000000E+00  0.000000E+00
         2 -1.211398E-01  0.000000E+00  0.000000E+00
         3 -1.012115E+01  0.000000E+00  0.000000E+00
         4 -1.024229E+01  0.000000E+00  0.000000E+00
         5 -2.024230E+01  0.000000E+00  0.000000E+00
         6 -2.036344E+01  0.000000E+00  0.000000E+00
         7  0.000000E+00 -1.211398E-01  0.000000E+00
         8 -1.211398E-01 -1.211398E-01  0.000000E+00
         9 -1.012115E+01 -1.211398E-01  0.000000E+00
        10 -1.024229E+01 -1.211398E-01  0.000000E+00
        11 -2.024230E+01 -1.211398E-01  0.000000E+00
        12 -2.036344E+01 -1.211398E-01  0.000000E+00
        13  0.000000E+00 -1.012115E+01  0.000000E+00
        14 -1.211398E-01 -1.012115E+01  0.000000E+00
        15 -1.012115E+01 -1.012115E+01  0.000000E+00
        16 -1.024229E+01 -1.012115E+01  0.000000E+00
        17 -2.024230E+01 -1.012115E+01  0.000000E+00
        18 -2.036344E+01 -1.012115E+01  0.000000E+00
        19  0.000000E+00 -1.024229E+01  0.000000E+00
        20 -1.211398E-01 -1.024229E+01  0.000000E+00
        21 -1.012115E+01 -1.024229E+01  0.000000E+00
        22 -1.024229E+01 -1.024229E+01  0.000000E+00
        23 -2.024230E+01 -1.024229E+01  0.000000E+00
        24 -2.036344E+01 -1.024229E+01  0.000000E+00
        25  0.000000E+00 -2.024230E+01  0.000000E+00
        26 -1.211398E-01 -2.024230E+01  0.000000E+00
        27 -1.012115E+01 -2.024230E+01  0.000000E+00
        28 -1.024229E+01 -2.024230E+01  0.000000E+00
        29 -2.024230E+01 -2.024230E+01  0.000000E+00
        30 -2.036344E+01 -2.024230E+01  0.000000E+00
        31  0.000000E+00 -2.036344E+01  0.000000E+00
        32 -1.211398E-01 -2.036344E+01  0.000000E+00
        33 -1.012115E+01 -2.036344E+01  0.000000E+00
        34 -1.024229E+01 -2.036344E+01  0.000000E+00
        35 -2.024230E+01 -2.036344E+01  0.000000E+00
        36 -2.036344E+01 -2.036344E+01  0.000000E+00
        37  0.000000E+00  0.000000E+00  1.453350E-01
        38 -1.211398E-01  0.000000E+00  1.453350E-01
        39 -1.012115E+01  0.000000E+00  1.453350E-01
        40 -1.024229E+01  0.000000E+00  1.453350E-01
        41 -2.024230E+01  0.000000E+00  1.453350E-01
        42 -2.036344E+01  0.000000E+00  1.453350E-01
        43  0.000000E+00 -1.211398E-01  1.453350E-01
        44 -1.211398E-01 -1.211398E-01  1.453350E-01
        45 -1.012115E+01 -1.211398E-01  1.453350E-01
        46 -1.024229E+01 -1.211398E-01  1.453350E-01
        47 -2.024230E+01 -1.211398E-01  1.453350E-01
        48 -2.036344E+01 -1.211398E-01  1.453350E-01
        49  0.000000E+00 -1.012115E+01  1.453350E-01
        50 -1.211398E-01 -1.012115E+01  1.453350E-01
        51 -1.012115E+01 -1.012115E+01  1.453350E-01
        52 -1.024229E+01 -1.012115E+01  1.453350E-01
        53 -2.024230E+01 -1.012115E+01  1.453350E-01
        54 -2.036344E+01 -1.012115E+01  1.453350E-01
        55  0.000000E+00 -1.024229E+01  1.453350E-01
        56 -1.211398E-01 -1.024229E+01  1.453350E-01
        57 -1.012115E+01 -1.024229E+01  1.453350E-01
        58 -1.024229E+01 -1.024229E+01  1.453350E-01
        59 -2.024230E+01 -1.024229E+01  1.453350E-01
        60 -2.036344E+01 -1.024229E+01  1.453350E-01
        61  0.000000E+00 -2.024230E+01  1.453350E-01
        62 -1.211398E-01 -2.024230E+01  1.453350E-01
        63 -1.012115E+01 -2.024230E+01  1.453350E-01
        64 -1.024229E+01 -2.024230E+01  1.453350E-01
        65 -2.024230E+01 -2.024230E+01  1.453350E-01
        66 -2.036344E+01 -2.024230E+01  1.453350E-01
        67  0.000000E+00 -2.036344E+01  1.453350E-01
        68 -1.211398E-01 -2.036344E+01  1.453350E-01
        69 -1.012115E+01 -2.036344E+01  1.453350E-01
        70 -1.024229E+01 -2.036344E+01  1.453350E-01
        71 -2.024230E+01 -2.036344E+01  1.453350E-01
        72 -2.036344E+01 -2.036344E+01  1.453350E-01

 stresses (elem, integ.pnt.,sxx,syy,szz,sxy,sxz,syz) for set EALL and time  0.6787813E+00

         1   1 -7.265998E+01 -7.265998E+01 -4.085606E-11 -2.040091E-12 -2.561394E-13  4.307506E-13
         1   2 -7.265998E+01 -7.265998E+01 -3.989616E-11 -8.281840E-12 -9.349451E-13  1.178604E-12
         1   3 -7.265998E+01 -7.265998E+01 -5.046925E-11 -1.372040E-12 -2.174671E-13  1.696687E-12
         1   4 -7.265998E+01 -7.265998E+01 -5.081765E-11 -7.613789E-12 -2.637150E-13  5.014315E-12
         1   5 -7.265998E+01 -7.265998E+01 -3.962597E-11 -4.017326E-13 -2.759706E-13  3.432198E-13
         1   6 -7.265998E+01 -7.265998E+01 -3.326932E-11 -5.757620E-12 -9.547763E-13  5.598712E-13
         1   7 -7.265998E+01 -7.265998E+01 -4.788819E-11  3.858272E-12 -7.650813E-13  1.609156E-12
         1   8 -7.265998E+01 -7.265998E+01 -4.286829E-11 -1.497615E-12 -8.107820E-13  4.395582E-12
         2   1 -7.265998E+01 -7.265998E+01 -3.805458E-11  1.737425E-12  8.992307E-13  1.249682E-12
         2   2 -7.265998E+01 -7.265998E+01 -3.307734E-11 -9.045405E-12 -2.358380E-12  4.418844E-13
         2   3 -7.265998E+01 -7.265998E+01 -5.711742E-11  6.387275E-12  2.429693E-12  5.669240E-12
         2   4 -7.265998E+01 -7.265998E+01 -5.267345E-11 -4.378065E-12  3.515563E-12  2.874967E-12
         2   5 -7.265998E+01 -7.265998E+01 -3.585037E-11  2.645423E-12  1.011961E-13  2.452666E-13
         2   6 -7.265998E+01 -7.265998E+01 -3.502557E-11 -1.727177E-12 -3.007545E-12 -7.827261E-13
         2   7 -7.265998E+01 -7.265998E+01 -4.498717E-11  4.239235E-12  1.272582E-12  4.664824E-12
         2   8 -7.265998E+01 -7.265998E+01 -4.471698E-11  1.814629E-13  2.393480E-12  1.650083E-12
         3   1 -7.265998E+01 -7.265998E+01 -3.609923E-11  1.090062E-11  2.430651E-12 -1.129141E-12
         3   2 -7.265998E+01 -7.265998E+01 -3.964730E-11  1.630706E-12  9.069297E-13  9.816209E-13
         3   3 -7.265998E+01 -7.265998E+01 -4.114047E-11  6.085565E-12 -6.314963E-12 -7.737953E-12
         3   4 -7.265998E+01 -7.265998E+01 -4.749001E-11 -3.184346E-12 -1.901426E-12  1.255414E-12
         3   5 -7.265998E+01 -7.265998E+01 -5.258813E-11  3.158110E-12  3.552255E-12  2.395341E-12
         3   6 -7.265998E+01 -7.265998E+01 -4.167375E-11  2.038724E-12  2.466385E-12  3.390222E-12
         3   7 -7.265998E+01 -7.265998E+01 -4.588307E-11  7.964690E-12 -6.237405E-12 -4.213197E-12
         3   8 -7.265998E+01 -7.265998E+01 -3.775595E-11  6.705381E-12 -1.123307E-12  3.664699E-12
         4   1 -7.265998E+01 -7.265998E+01 -2.962171E-11  7.807686E-12 -2.005882E-12  1.145428E-11
         4   2 -7.265998E+01 -7.265998E+01 -2.937996E-11 -3.616686E-12 -8.183821E-12  3.043295E-12
         4   3 -7.265998E+01 -7.265998E+01 -6.498858E-11  6.871950E-12  1.053045E-12  1.639324E-11
         4   4 -7.265998E+01 -7.265998E+01 -6.669506E-11 -4.552423E-12  4.011822E-12  1.316641E-11
         4   5 -7.265998E+01 -7.265998E+01 -3.298490E-11  9.488541E-13 -1.310149E-12  4.218784E-12
         4   6 -7.265998E+01 -7.265998E+01 -2.161546E-11  2.297801E-12 -7.486583E-12 -4.803749E-12
         4   7 -7.265998E+01 -7.265998E+01 -4.915383E-11  7.350340E-12  9.701646E-13  9.262827E-12
         4   8 -7.265998E+01 -7.265998E+01 -3.973262E-11  8.699287E-12  3.928668E-12  5.117951E-12
         5   1 -7.265998E+01 -7.265998E+01 -2.525595E-11  2.177555E-12  6.385165E-12  1.015450E-11
         5   2 -7.265998E+01 -7.265998E+01 -2.812853E-11 -1.038930E-11  2.114678E-13  9.413438E-12
         5   3 -7.265998E+01 -7.265998E+01 -7.238334E-11  7.730756E-12  3.017137E-12  2.115331E-11
         5   4 -7.265998E+01 -7.265998E+01 -6.902725E-11 -5.107196E-12  7.605814E-12  1.295114E-11
         5   5 -7.265998E+01 -7.265998E+01 -1.633247E-11 -6.681332E-12  1.575238E-12 -6.762172E-13
         5   6 -7.265998E+01 -7.265998E+01 -3.370305E-11 -4.022791E-12 -4.291964E-12  6.927376E-13
         5   7 -7.265998E+01 -7.265998E+01 -4.042944E-11 -1.105393E-11  9.229632E-13  1.004237E-11
         5   8 -7.265998E+01 -7.265998E+01 -5.154291E-11 -8.360410E-12  5.616725E-12  4.135887E-12
         6   1 -7.265998E+01 -7.265998E+01 -4.817260E-11  1.184974E-11  9.017159E-14 -9.865725E-12
         6   2 -7.265998E+01 -7.265998E+01 -4.231368E-11 -1.180602E-12 -1.550249E-13 -8.316520E-12
         6   3 -7.265998E+01 -7.265998E+01 -3.709468E-11  1.427216E-11 -9.884996E-12 -2.040917E-11
         6   4 -7.265998E+01 -7.265998E+01 -3.380259E-11  8.920103E-13 -2.669214E-12 -9.612559E-12
         6   5 -7.265998E+01 -7.265998E+01 -6.960319E-11  1.574136E-12  1.385140E-13  2.547251E-12
         6   6 -7.265998E+01 -7.265998E+01 -4.378552E-11 -1.993905E-12  4.887947E-13  2.937023E-12
         6   7 -7.265998E+01 -7.265998E+01 -4.461743E-11  1.749040E-11 -9.814298E-12 -8.031226E-12
         6   8 -7.265998E+01 -7.265998E+01 -2.142348E-11  1.350259E-11 -2.598516E-12  1.702831E-12
         7   1 -7.265998E+01 -7.265998E+01 -5.685434E-11 -2.777011E-12 -6.008874E-13 -8.515234E-12
         7   2 -7.265998E+01 -7.265998E+01 -5.463591E-11 -2.909965E-12 -1.860803E-12 -1.180711E-11
         7   3 -7.265998E+01 -7.265998E+01 -4.679320E-11 -8.180860E-13 -1.830771E-13 -1.019227E-12
         7   4 -7.265998E+01 -7.265998E+01 -4.361487E-11 -9.510404E-13 -6.868793E-13 -1.999255E-12
         7   5 -7.265998E+01 -7.265998E+01 -4.446811E-11 -6.938222E-12 -9.835611E-13 -4.411681E-12
         7   6 -7.265998E+01 -7.265998E+01 -3.679605E-11 -6.016697E-12 -2.241835E-12 -7.421049E-12
         7   7 -7.265998E+01 -7.265998E+01 -3.281425E-11 -1.621141E-12 -1.778799E-13  3.084326E-12
         7   8 -7.265998E+01 -7.265998E+01 -2.418940E-11 -6.996159E-13 -6.819557E-13  2.772119E-12
         8   1 -7.265998E+01 -7.265998E+01 -5.429461E-11 -2.133829E-12  2.009004E-12 -1.369587E-11
         8   2 -7.265998E+01 -7.265998E+01 -5.057590E-11 -6.821255E-12 -3.464132E-12 -8.216315E-12
         8   3 -7.265998E+01 -7.265998E+01 -4.641635E-11  8.045583E-13  2.970763E-12 -2.276723E-12
         8   4 -7.265998E+01 -7.265998E+01 -4.875565E-11 -3.804162E-12  6.368485E-12 -1.280893E-12
         8   5 -7.265998E+01 -7.265998E+01 -4.203637E-11  9.234930E-12  1.399812E-12 -7.810586E-12
         8   6 -7.265998E+01 -7.265998E+01 -4.738336E-11  1.707063E-11 -3.933211E-12 -4.493458E-12
         8   7 -7.265998E+01 -7.265998E+01 -1.603383E-11  5.596927E-12  2.667344E-13  4.309127E-12
         8   8 -7.265998E+01 -7.265998E+01 -2.822808E-11  1.350259E-11  3.314176E-12  2.441553E-12
         9   1 -7.265998E+01 -7.265998E+01 -3.467005E-11 -6.996159E-13 -8.989156E-13  1.031291E-11
         9   2 -7.265998E+01 -7.265998E+01 -2.791522E-11 -5.701870E-12 -4.785787E-13  6.365280E-12
         9   3 -7.265998E+01 -7.265998E+01 -5.767203E-11  4.827350E-12 -1.095880E-11  9.253834E-13
         9   4 -7.265998E+01 -7.265998E+01 -4.123291E-11 -5.247119E-13 -2.201786E-12  1.303860E-12
         9   5 -7.265998E+01 -7.265998E+01 -5.332761E-11 -2.434663E-11 -2.155729E-12  3.999012E-12
         9   6 -7.265998E+01 -7.265998E+01 -3.898604E-11 -1.742044E-11 -1.402626E-12  4.461711E-12
         9   7 -7.265998E+01 -7.265998E+01 -5.893056E-11 -1.315278E-11 -7.699250E-12 -4.687949E-12
         9   8 -7.265998E+01 -7.265998E+01 -3.361772E-11 -6.366505E-12  9.877114E-13 -5.615345E-13

 strains (elem, integ.pnt.,exx,eyy,ezz,exy,exz,eyz) forset EALL and time  0.6787813E+00

         1   1 -2.422502E-04 -2.422502E-04  2.076430E-04 -1.264314E-17 -1.585282E-18  2.665722E-18
         1   2 -2.422502E-04 -2.422502E-04  2.076430E-04 -5.132538E-17 -5.786395E-18  7.293099E-18
         1   3 -2.422502E-04 -2.422502E-04  2.076430E-04 -8.502997E-18 -1.347014E-18  1.050057E-17
         1   4 -2.422502E-04 -2.422502E-04  2.076430E-04 -4.718524E-17 -1.633242E-18  3.103222E-17
         1   5 -2.422502E-04 -2.422502E-04  2.076430E-04 -2.489674E-18 -1.708128E-18  2.123509E-18
         1   6 -2.422502E-04 -2.422502E-04  2.076430E-04 -3.568193E-17 -5.909240E-18  3.460327E-18
         1   7 -2.422502E-04 -2.422502E-04  2.076430E-04  2.391103E-17 -4.739240E-18  9.958359E-18
         1   8 -2.422502E-04 -2.422502E-04  2.076430E-04 -9.281232E-18 -5.022080E-18  2.719945E-17
         2   1 -2.422502E-04 -2.422502E-04  2.076430E-04  1.076741E-17  5.563692E-18  7.732206E-18
         2   2 -2.422502E-04 -2.422502E-04  2.076430E-04 -5.605746E-17 -1.459758E-17  2.732307E-18
         2   3 -2.422502E-04 -2.422502E-04  2.076430E-04  3.958412E-17  1.503524E-17  3.508474E-17
         2   4 -2.422502E-04 -2.422502E-04  2.076430E-04 -2.713236E-17  2.175566E-17  1.779060E-17
         2   5 -2.422502E-04 -2.422502E-04  2.076430E-04  1.639458E-17  6.202288E-19  1.510305E-18
         2   6 -2.422502E-04 -2.422502E-04  2.076430E-04 -1.070390E-17 -1.861970E-17 -4.853600E-18
         2   7 -2.422502E-04 -2.422502E-04  2.076430E-04  2.627198E-17  7.868239E-18  2.886284E-17
         2   8 -2.422502E-04 -2.422502E-04  2.076430E-04  1.124587E-18  1.480545E-17  1.020300E-17
         3   1 -2.422502E-04 -2.422502E-04  2.076430E-04  6.755484E-17  1.504624E-17 -6.981042E-18
         3   2 -2.422502E-04 -2.422502E-04  2.076430E-04  1.010604E-17  5.615970E-18  6.080138E-18
         3   3 -2.422502E-04 -2.422502E-04  2.076430E-04  3.771432E-17 -3.908243E-17 -4.788282E-17
         3   4 -2.422502E-04 -2.422502E-04  2.076430E-04 -1.973447E-17 -1.176716E-17  7.774641E-18
         3   5 -2.422502E-04 -2.422502E-04  2.076430E-04  1.957188E-17  2.199603E-17  1.485153E-17
         3   6 -2.422502E-04 -2.422502E-04  2.076430E-04  1.263467E-17  1.527560E-17  2.100033E-17
         3   7 -2.422502E-04 -2.422502E-04  2.076430E-04  4.935989E-17 -3.860044E-17 -2.604856E-17
         3   8 -2.422502E-04 -2.422502E-04  2.076430E-04  4.155553E-17 -6.949402E-18  2.269907E-17
         4   1 -2.422502E-04 -2.422502E-04  2.076430E-04  4.838689E-17 -1.241294E-17  7.087545E-17
         4   2 -2.422502E-04 -2.422502E-04  2.076430E-04 -2.241384E-17 -5.064806E-17  1.881846E-17
         4   3 -2.422502E-04 -2.422502E-04  2.076430E-04  4.258781E-17  6.517101E-18  1.014425E-16
         4   4 -2.422502E-04 -2.422502E-04  2.076430E-04 -2.821291E-17  2.482890E-17  8.147017E-17
         4   5 -2.422502E-04 -2.422502E-04  2.076430E-04  5.880372E-18 -8.103186E-18  2.605462E-17
         4   6 -2.422502E-04 -2.422502E-04  2.076430E-04  1.424026E-17 -4.632899E-17 -2.979155E-17
         4   7 -2.422502E-04 -2.422502E-04  2.076430E-04  4.555256E-17  6.003692E-18  5.727208E-17
         4   8 -2.422502E-04 -2.422502E-04  2.076430E-04  5.391244E-17  2.431380E-17  3.161362E-17
         5   1 -2.422502E-04 -2.422502E-04  2.076430E-04  1.349505E-17  3.950833E-17  6.282329E-17
         5   2 -2.422502E-04 -2.422502E-04  2.076430E-04 -6.438601E-17  1.299458E-18  5.824193E-17
         5   3 -2.422502E-04 -2.422502E-04  2.076430E-04  4.791013E-17  1.866872E-17  1.308947E-16
         5   4 -2.422502E-04 -2.422502E-04  2.076430E-04 -3.165103E-17  4.706794E-17  8.013666E-17
         5   5 -2.422502E-04 -2.422502E-04  2.076430E-04 -4.140649E-17  9.714368E-18 -4.269655E-18
         5   6 -2.422502E-04 -2.422502E-04  2.076430E-04 -2.493061E-17 -2.659760E-17  4.221574E-18
         5   7 -2.422502E-04 -2.422502E-04  2.076430E-04 -6.850498E-17  5.696262E-18  6.206744E-17
         5   8 -2.422502E-04 -2.422502E-04  2.076430E-04 -5.181231E-17  3.474584E-17  2.553115E-17
         6   1 -2.422502E-04 -2.422502E-04  2.076430E-04  7.343690E-17  5.597432E-19 -6.103349E-17
         6   2 -2.422502E-04 -2.422502E-04  2.076430E-04 -7.316592E-18 -9.577721E-19 -5.144761E-17
         6   3 -2.422502E-04 -2.422502E-04  2.076430E-04  8.844946E-17 -6.117844E-17 -1.262867E-16
         6   4 -2.422502E-04 -2.422502E-04  2.076430E-04  5.528091E-18 -1.652013E-17 -5.946876E-17
         6   5 -2.422502E-04 -2.422502E-04  2.076430E-04  9.755455E-18  8.634957E-19  1.585908E-17
         6   6 -2.422502E-04 -2.422502E-04  2.076430E-04 -1.235691E-17  3.031375E-18  1.826354E-17
         6   7 -2.422502E-04 -2.422502E-04  2.076430E-04  1.083939E-16 -6.074206E-17 -4.961086E-17
         6   8 -2.422502E-04 -2.422502E-04  2.076430E-04  8.368013E-17 -1.608375E-17  1.062516E-17
         7   1 -2.422502E-04 -2.422502E-04  2.076430E-04 -1.721008E-17 -3.719657E-18 -5.269221E-17
         7   2 -2.422502E-04 -2.422502E-04  2.076430E-04 -1.803404E-17 -1.151725E-17 -7.306480E-17
         7   3 -2.422502E-04 -2.422502E-04  2.076430E-04 -5.069958E-18 -1.133051E-18 -6.299598E-18
         7   4 -2.422502E-04 -2.422502E-04  2.076430E-04 -5.893921E-18 -4.251071E-18 -1.236419E-17
         7   5 -2.422502E-04 -2.422502E-04  2.076430E-04 -4.299852E-17 -6.090147E-18 -2.727256E-17
         7   6 -2.422502E-04 -2.422502E-04  2.076430E-04 -3.728752E-17 -1.387757E-17 -4.589452E-17
         7   7 -2.422502E-04 -2.422502E-04  2.076430E-04 -1.004676E-17 -1.100858E-18  1.912005E-17
         7   8 -2.422502E-04 -2.422502E-04  2.076430E-04 -4.335758E-18 -4.220571E-18  1.719076E-17
         8   1 -2.422502E-04 -2.422502E-04  2.076430E-04 -1.322406E-17  1.243257E-17 -8.475114E-17
         8   2 -2.422502E-04 -2.422502E-04  2.076430E-04 -4.227364E-17 -2.144054E-17 -5.084327E-17
         8   3 -2.422502E-04 -2.422502E-04  2.076430E-04  4.986122E-18  1.837989E-17 -1.407829E-17
         8   4 -2.422502E-04 -2.422502E-04  2.076430E-04 -2.357568E-17  3.940832E-17 -7.920114E-18
         8   5 -2.422502E-04 -2.422502E-04  2.076430E-04  5.723201E-17  8.659301E-18 -4.829366E-17
         8   6 -2.422502E-04 -2.422502E-04  2.076430E-04  1.057925E-16 -2.434666E-17 -2.778264E-17
         8   7 -2.422502E-04 -2.422502E-04  2.076430E-04  3.468606E-17  1.628099E-18  2.671495E-17
         8   8 -2.422502E-04 -2.422502E-04  2.076430E-04  8.368013E-17  2.048865E-17  1.513798E-17
         9   1 -2.422502E-04 -2.422502E-04  2.076430E-04 -4.335758E-18 -5.565643E-18  6.381431E-17
         9   2 -2.422502E-04 -2.422502E-04  2.076430E-04 -3.533643E-17 -2.964189E-18  3.939090E-17
         9   3 -2.422502E-04 -2.422502E-04  2.076430E-04  2.991673E-17 -6.781770E-17  5.715158E-18
         9   4 -2.422502E-04 -2.422502E-04  2.076430E-04 -3.251818E-18 -1.362072E-17  8.065895E-18
         9   5 -2.422502E-04 -2.422502E-04  2.076430E-04 -1.508844E-16 -1.335025E-17  2.470494E-17
         9   6 -2.422502E-04 -2.422502E-04  2.076430E-04 -1.079604E-16 -8.689315E-18  2.759974E-17
         9   7 -2.422502E-04 -2.422502E-04  2.076430E-04 -8.151225E-17 -4.762780E-17 -2.905846E-17
         9   8 -2.422502E-04 -2.422502E-04  2.076430E-04 -3.945540E-17  6.135599E-18 -3.488991E-18

 displacements (vx,vy,vz) for set NALL and time  0.6877813E+00

         1  0.000000E+00  0.000000E+00  0.000000E+00
         2 -2.111315E-01  0.000000E+00  0.000000E+00
         3 -1.021115E+01  0.000000E+00  0.000000E+00
         4 -1.042228E+01  0.000000E+00  0.000000E+00
         5 -2.042231E+01  0.000000E+00  0.000000E+00
         6 -2.063344E+01  0.000000E+00  0.000000E+00
         7  0.000000E+00 -2.111315E-01  0.000000E+00
         8 -2.111315E-01 -2.111315E-01  0.000000E+00
         9 -1.021115E+01 -2.111315E-01  0.000000E+00
        10 -1.042228E+01 -2.111315E-01  0.000000E+00
        11 -2.042231E+01 -2.111315E-01  0.000000E+00
        12 -2.063344E+01 -2.111315E-01  0.000000E+00
        13  0.000000E+00 -1.021115E+01  0.000000E+00
        14 -2.111315E-01 -1.021115E+01  0.000000E+00
        15 -1.021115E+01 -1.021115E+01  0.000000E+00
        16 -1.042228E+01 -1.021115E+01  0.000000E+00
        17 -2.042231E+01 -1.021115E+01  0.000000E+00
        18 -2.063344E+01 -1.021115E+01  0.000000E+00
        19  0.000000E+00 -1.042228E+01  0.000000E+00
        20 -2.111315E-01 -1.042228E+01  0.000000E+00
        21 -1.021115E+01 -1.042228E+01  0.000000E+00
        22 -1.042228E+01 -1.042228E+01  0.000000E+00
        23 -2.042231E+01 -1.042228E+01  0.000000E+00
        24 -2.063344E+01 -1.042228E+01  0.000000E+00
        25  0.000000E+00 -2.042231E+01  0.000000E+00
        26 -2.111315E-01 -2.042231E+01  0.000000E+00
        27 -1.021115E+01 -2.042231E+01  0.000000E+00
        28 -1.042228E+01 -2.042231E+01  0.000000E+00
        29 -2.042231E+01 -2.042231E+01  0.000000E+00
        30 -2.063344E+01 -2.042231E+01  0.000000E+00
        31  0.000000E+00 -2.063344E+01  0.000000E+00
        32 -2.111315E-01 -2.063344E+01  0.000000E+00
        33 -1.021115E+01 -2.063344E+01  0.000000E+00
        34 -1.042228E+01 -2.063344E+01  0.000000E+00
        35 -2.042231E+01 -2.063344E+01  0.000000E+00
        36 -2.063344E+01 -2.063344E+01  0.000000E+00
        37  0.000000E+00  0.000000E+00  2.532585E-01
        38 -2.111315E-01  0.000000E+00  2.532585E-01
        39 -1.021115E+01  0.000000E+00  2.532585E-01
        40 -1.042228E+01  0.000000E+00  2.532585E-01
        41 -2.042231E+01  0.000000E+00  2.532585E-01
        42 -2.063344E+01  0.000000E+00  2.532585E-01
        43  0.000000E+00 -2.111315E-01  2.532585E-01
        44 -2.111315E-01 -2.111315E-01  2.532585E-01
        45 -1.021115E+01 -2.111315E-01  2.532585E-01
        46 -1.042228E+01 -2.111315E-01  2.532585E-01
        47 -2.042231E+01 -2.111315E-01  2.532585E-01
        48 -2.063344E+01 -2.111315E-01  2.532585E-01
        49  0.000000E+00 -1.021115E+01  2.532585E-01
        50 -2.111315E-01 -1.021115E+01  2.532585E-01
        51 -1.021115E+01 -1.021115E+01  2.532585E-01
        52 -1.042228E+01 -1.021115E+01  2.532585E-01
        53 -2.042231E+01 -1.021115E+01  2.532585E-01
        54 -2.063344E+01 -1.021115E+01  2.532585E-01
        55  0.000000E+00 -1.042228E+01  2.532585E-01
        56 -2.111315E-01 -1.042228E+01  2.532585E-01
        57 -1.021115E+01 -1.042228E+01  2.532585E-01
        58 -1.042228E+01 -1.042228E+01  2.532585E-01
        59 -2.042231E+01 -1.042228E+01  2.532585E-01
        60 -2.063344E+01 -1.042228E+01  2.532585E-01
        61  0.000000E+00 -2.042231E+01  2.532585E-01
        62 -2.111315E-01 -2.042231E+01  2.532585E-01
        63 -1.021115E+01 -2.042231E+01  2.532585E-01
        64 -1.042228E+01 -2.042231E+01  2.532585E-01
        65 -2.042231E+01 -2.042231E+01  2.532585E-01
        66 -2.063344E+01 -2.042231E+01  2.532585E-01
        67  0.000000E+00 -2.063344E+01  2.532585E-01
        68 -2.111315E-01 -2.063344E+01  2.532585E-01
        69 -1.021115E+01 -2.063344E+01  2.532585E-01
        70 -1.042228E+01 -2.063344E+01  2.532585E-01
        71 -2.042231E+01 -2.063344E+01  2.532585E-01
        72 -2.063344E+01 -2.063344E+01  2.532585E-01

 stresses (elem, integ.pnt.,sxx,syy,szz,sxy,sxz,syz) for set EALL and time  0.6877813E+00

         1   1 -1.266064E+02 -1.266064E+02  3.542205E-10 -2.790195E-13 -7.523073E-14  8.394436E-13
         1   2 -1.266064E+02 -1.266064E+02  3.578344E-10 -4.385684E-12  2.814809E-13  1.102667E-12
         1   3 -1.266064E+02 -1.266064E+02  3.444174E-10  3.073582E-12 -5.006632E-13  4.567196E-12
         1   4 -1.266064E+02 -1.266064E+02  3.483301E-10 -1.033082E-12 -1.418508E-12  5.432192E-12
         1   5 -1.266064E+02 -1.266064E+02  3.627858E-10 -6.257462E-13 -6.379750E-13 -5.912066E-13
         1   6 -1.266064E+02 -1.266064E+02  3.676660E-10 -6.518462E-12 -2.812634E-13 -2.128637E-13
         1   7 -1.266064E+02 -1.266064E+02  3.503221E-10  3.560092E-12 -9.447336E-13  3.136546E-12
         1   8 -1.266064E+02 -1.266064E+02  3.555010E-10 -2.332625E-12 -1.862578E-12  4.116661E-12
         2   1 -1.266064E+02 -1.266064E+02  3.552734E-10 -7.644096E-12 -2.163319E-12  2.134512E-12
         2   2 -1.266064E+02 -1.266064E+02  3.687900E-10 -2.044295E-11 -4.834209E-12  1.248159E-12
         2   3 -1.266064E+02 -1.266064E+02  3.365209E-10  9.730189E-13  1.208839E-12  7.930563E-12
         2   4 -1.266064E+02 -1.266064E+02  3.462386E-10 -1.174721E-11 -2.273118E-13  6.120481E-12
         2   5 -1.266064E+02 -1.266064E+02  3.615906E-10 -2.907044E-12 -1.950854E-12  2.172794E-12
         2   6 -1.266064E+02 -1.266064E+02  3.731722E-10 -1.342570E-11 -4.648015E-12 -2.185860E-13
         2   7 -1.266064E+02 -1.266064E+02  3.455272E-10  4.424997E-12 -2.262960E-13  7.968845E-12
         2   8 -1.266064E+02 -1.266064E+02  3.533384E-10 -6.338274E-12 -1.487307E-12  4.655927E-12
         3   1 -1.266064E+02 -1.266064E+02  3.677371E-10  1.817995E-11  2.673508E-12  1.086468E-13
         3   2 -1.266064E+02 -1.266064E+02  3.607512E-10  3.782324E-12  1.149787E-12  1.404969E-12
         3   3 -1.266064E+02 -1.266064E+02  3.527408E-10  1.285237E-11 -1.541345E-12 -2.438551E-12
         3   4 -1.266064E+02 -1.266064E+02  3.456979E-10 -1.562727E-12  6.994632E-14  2.435560E-12
         3   5 -1.266064E+02 -1.266064E+02  3.582613E-10  1.301945E-11  3.438874E-12  2.948618E-12
         3   6 -1.266064E+02 -1.266064E+02  3.588162E-10  3.234660E-12  1.021937E-12  4.214042E-12
         3   7 -1.266064E+02 -1.266064E+02  3.502367E-10  1.269402E-11 -1.716787E-12  3.997788E-13
         3   8 -1.266064E+02 -1.266064E+02  3.507062E-10  3.328577E-12  2.447847E-13  5.247368E-12
         4   1 -1.266064E+02 -1.266064E+02  3.620886E-10  1.668930E-12 -1.641243E-12  9.188383E-12
         4   2 -1.266064E+02 -1.266064E+02  3.693734E-10 -6.827513E-12 -7.507624E-12  5.457014E-12
         4   3 -1.266064E+02 -1.266064E+02  3.294211E-10  3.879244E-12  9.313511E-14  1.741998E-11
         4   4 -1.266064E+02 -1.266064E+02  3.324801E-10 -4.617199E-12  6.645305E-13  1.599171E-11
         4   5 -1.266064E+02 -1.266064E+02  3.676802E-10  9.140481E-13 -2.536598E-13  9.936444E-13
         4   6 -1.266064E+02 -1.266064E+02  3.789346E-10  1.410932E-12 -6.117167E-12 -4.243421E-12
         4   7 -1.266064E+02 -1.266064E+02  3.485720E-10  6.051064E-12 -2.229642E-13  9.645578E-12
         4   8 -1.266064E+02 -1.266064E+02  3.555580E-10  6.547948E-12  3.484312E-13  6.413870E-12
         5   1 -1.266064E+02 -1.266064E+02  3.723897E-10  2.926701E-12  5.938862E-12  1.487355E-11
         5   2 -1.266064E+02 -1.266064E+02  3.699425E-10 -7.181338E-12 -9.529110E-13  1.009837E-11
         5   3 -1.266064E+02 -1.266064E+02  3.210266E-10  7.688051E-12  5.350082E-12  3.060115E-11
         5   4 -1.266064E+02 -1.266064E+02  3.223356E-10 -2.341361E-12  4.299240E-12  1.999352E-11
         5   5 -1.266064E+02 -1.266064E+02  3.908150E-10 -6.499898E-12  2.229316E-12  4.138633E-13
         5   6 -1.266064E+02 -1.266064E+02  3.765158E-10 -7.757942E-12 -4.706242E-12 -2.773055E-12
         5   7 -1.266064E+02 -1.266064E+02  3.522428E-10 -9.784792E-12  2.848412E-12  1.621152E-11
         5   8 -1.266064E+02 -1.266064E+02  3.416856E-10 -1.156702E-11  2.042767E-12  7.020572E-12
         6   1 -1.266064E+02 -1.266064E+02  3.436207E-10  9.845947E-12 -1.595103E-12 -1.204831E-11
         6   2 -1.266064E+02 -1.266064E+02  3.531107E-10 -1.022161E-12 -2.640366E-13 -1.175313E-11
         6   3 -1.266064E+02 -1.266064E+02  3.628569E-10  1.645942E-11 -4.829004E-12 -1.898386E-11
         6   4 -1.266064E+02 -1.266064E+02  3.685481E-10  5.224380E-12 -1.956703E-12 -1.212941E-11
         6   5 -1.266064E+02 -1.266064E+02  3.313846E-10  6.709572E-12 -1.950470E-12  2.349007E-12
         6   6 -1.266064E+02 -1.266064E+02  3.545478E-10 -9.784792E-13 -1.162338E-12  8.149220E-13
         6   7 -1.266064E+02 -1.266064E+02  3.556006E-10  2.250502E-11 -6.819884E-12 -4.621579E-12
         6   8 -1.266064E+02 -1.266064E+02  3.747089E-10  1.446751E-11 -4.017638E-12  4.887248E-13
         7   1 -1.266064E+02 -1.266064E+02  3.408747E-10 -1.343771E-12 -4.726355E-13 -1.011822E-11
         7   2 -1.266064E+02 -1.266064E+02  3.399925E-10 -5.393648E-12 -1.391986E-12 -1.392010E-11
         7   3 -1.266064E+02 -1.266064E+02  3.493972E-10 -1.343771E-12  1.856877E-13 -1.221095E-12
         7   4 -1.266064E+02 -1.266064E+02  3.481452E-10 -5.393648E-12  1.211901E-12 -2.045580E-12
         7   5 -1.266064E+02 -1.266064E+02  3.572369E-10 -5.522510E-12 -8.430130E-13 -4.621215E-12
         7   6 -1.266064E+02 -1.266064E+02  3.615764E-10 -6.858091E-12 -1.763594E-12 -8.094311E-12
         7   7 -1.266064E+02 -1.266064E+02  3.698856E-10 -1.888159E-12 -3.294776E-13  4.626196E-12
         7   8 -1.266064E+02 -1.266064E+02  3.738552E-10 -3.228108E-12  6.967354E-13  3.377382E-12
         8   1 -1.266064E+02 -1.266064E+02  3.381429E-10 -4.892396E-13  6.809066E-12 -2.120362E-11
         8   2 -1.266064E+02 -1.266064E+02  3.350981E-10 -1.092053E-11  4.505971E-12 -1.260549E-11
         8   3 -1.266064E+02 -1.266064E+02  3.482590E-10  1.747284E-12  3.953009E-12 -2.778850E-12
         8   4 -1.266064E+02 -1.266064E+02  3.398645E-10 -8.605375E-12  6.264862E-12 -1.361756E-12
         8   5 -1.266064E+02 -1.266064E+02  3.703551E-10  8.526747E-12  4.060615E-12 -1.083878E-11
         8   6 -1.266064E+02 -1.266064E+02  3.538221E-10  5.171962E-12  1.932660E-12 -4.982305E-12
         8   7 -1.266064E+02 -1.266064E+02  3.906442E-10  1.817176E-12 -1.220739E-12  7.235701E-12
         8   8 -1.266064E+02 -1.266064E+02  3.686050E-10 -1.502664E-12  1.441395E-12  6.540837E-12
         9   1 -1.266064E+02 -1.266064E+02  3.577491E-10 -6.290223E-13 -8.151942E-12  1.123502E-11
         9   2 -1.266064E+02 -1.266064E+02  3.740544E-10 -1.081569E-11 -2.074572E-12  6.455762E-12
         9   3 -1.266064E+02 -1.266064E+02  3.344436E-10  1.041381E-11 -1.123152E-11  2.267832E-12
         9   4 -1.266064E+02 -1.266064E+02  3.559706E-10 -2.620926E-13 -2.824780E-12  1.149282E-12
         9   5 -1.266064E+02 -1.266064E+02  3.492123E-10 -1.509654E-11 -7.871390E-12  7.823222E-12
         9   6 -1.266064E+02 -1.266064E+02  3.754203E-10 -2.089752E-11 -2.021702E-12  5.886551E-12
         9   7 -1.266064E+02 -1.266064E+02  3.322383E-10  1.956958E-12 -8.995852E-12 -7.236272E-13
         9   8 -1.266064E+02 -1.266064E+02  3.641232E-10 -3.913917E-12 -3.789471E-13  6.695559E-13

 strains (elem, integ.pnt.,exx,eyy,ezz,exy,exz,eyz) forset EALL and time  0.6877813E+00

         1   1 -4.221739E-04 -4.221739E-04  3.618633E-04 -1.730604E-18 -4.675196E-19  5.189263E-18
         1   2 -4.221739E-04 -4.221739E-04  3.618633E-04 -2.720198E-17  1.739763E-18  6.818477E-18
         1   3 -4.221739E-04 -4.221739E-04  3.618633E-04  1.906374E-17 -3.099628E-18  2.825608E-17
         1   4 -4.221739E-04 -4.221739E-04  3.618633E-04 -6.407638E-18 -8.779126E-18  3.360898E-17
         1   5 -4.221739E-04 -4.221739E-04  3.618633E-04 -3.881159E-18 -3.955169E-18 -3.677297E-18
         1   6 -4.221739E-04 -4.221739E-04  3.618633E-04 -4.043044E-17 -1.747886E-18 -1.334623E-18
         1   7 -4.221739E-04 -4.221739E-04  3.618633E-04  2.208129E-17 -5.851787E-18  1.938952E-17
         1   8 -4.221739E-04 -4.221739E-04  3.618633E-04 -1.446799E-17 -1.153128E-17  2.545588E-17
         2   1 -4.221739E-04 -4.221739E-04  3.618633E-04 -4.741212E-17 -1.338555E-17  1.320820E-17
         2   2 -4.221739E-04 -4.221739E-04  3.618633E-04 -1.267964E-16 -2.991266E-17  7.718227E-18
         2   3 -4.221739E-04 -4.221739E-04  3.618633E-04  6.035101E-18  7.475541E-18  4.907337E-17
         2   4 -4.221739E-04 -4.221739E-04  3.618633E-04 -7.286149E-17 -1.411163E-18  3.786749E-17
         2   5 -4.221739E-04 -4.221739E-04  3.618633E-04 -1.803080E-17 -1.206879E-17  1.344546E-17
         2   6 -4.221739E-04 -4.221739E-04  3.618633E-04 -8.327221E-17 -2.875845E-17 -1.372029E-18
         2   7 -4.221739E-04 -4.221739E-04  3.618633E-04  2.744583E-17 -1.417453E-18  4.931062E-17
         2   8 -4.221739E-04 -4.221739E-04  3.618633E-04 -3.931283E-17 -9.220413E-18  2.879077E-17
         3   1 -4.221739E-04 -4.221739E-04  3.618633E-04  1.127602E-16  1.654477E-17  6.823929E-19
         3   2 -4.221739E-04 -4.221739E-04  3.618633E-04  2.345968E-17  7.116195E-18  8.703736E-18
         3   3 -4.221739E-04 -4.221739E-04  3.618633E-04  7.971617E-17 -9.536270E-18 -1.507931E-17
         3   4 -4.221739E-04 -4.221739E-04  3.618633E-04 -9.692739E-18  4.341778E-19  1.508090E-17
         3   5 -4.221739E-04 -4.221739E-04  3.618633E-04  8.075250E-17  2.128478E-17  1.828333E-17
         3   6 -4.221739E-04 -4.221739E-04  3.618633E-04  2.006282E-17  6.329110E-18  2.611317E-17
         3   7 -4.221739E-04 -4.221739E-04  3.618633E-04  7.873403E-17 -1.061814E-17  2.511463E-18
         3   8 -4.221739E-04 -4.221739E-04  3.618633E-04  2.064533E-17  1.519792E-18  3.250727E-17
         4   1 -4.221739E-04 -4.221739E-04  3.618633E-04  1.035145E-17 -1.015087E-17  5.682832E-17
         4   2 -4.221739E-04 -4.221739E-04  3.618633E-04 -4.234731E-17 -4.645123E-17  3.373308E-17
         4   3 -4.221739E-04 -4.221739E-04  3.618633E-04  2.406082E-17  5.751707E-19  1.077643E-16
         4   4 -4.221739E-04 -4.221739E-04  3.618633E-04 -2.863794E-17  4.110887E-18  9.892030E-17
         4   5 -4.221739E-04 -4.221739E-04  3.618633E-04  5.669338E-18 -1.551226E-18  6.043548E-18
         4   6 -4.221739E-04 -4.221739E-04  3.618633E-04  8.751236E-18 -3.783380E-17 -2.638523E-17
         4   7 -4.221739E-04 -4.221739E-04  3.618633E-04  3.753142E-17 -1.383878E-18  5.958052E-17
         4   8 -4.221739E-04 -4.221739E-04  3.618633E-04  4.061332E-17  2.151838E-18  3.956062E-17
         5   1 -4.221739E-04 -4.221739E-04  3.618633E-04  1.815272E-17  3.673578E-17  9.198431E-17
         5   2 -4.221739E-04 -4.221739E-04  3.618633E-04 -4.454189E-17 -5.909563E-18  6.244131E-17
         5   3 -4.221739E-04 -4.221739E-04  3.618633E-04  4.768475E-17  3.309766E-17  1.893046E-16
         5   4 -4.221739E-04 -4.221739E-04  3.618633E-04 -1.452217E-17  2.659519E-17  1.236712E-16
         5   5 -4.221739E-04 -4.221739E-04  3.618633E-04 -4.031529E-17  1.374593E-17  2.370033E-18
         5   6 -4.221739E-04 -4.221739E-04  3.618633E-04 -4.811825E-17 -2.917034E-17 -1.733095E-17
         5   7 -4.221739E-04 -4.221739E-04  3.618633E-04 -6.068968E-17  1.759610E-17  1.001238E-16
         5   8 -4.221739E-04 -4.221739E-04  3.618633E-04 -7.174388E-17  1.261087E-17  4.327069E-17
         6   1 -4.221739E-04 -4.221739E-04  3.618633E-04  6.106899E-17 -9.870802E-18 -7.450222E-17
         6   2 -4.221739E-04 -4.221739E-04  3.618633E-04 -6.339904E-18 -1.634345E-18 -7.268125E-17
         6   3 -4.221739E-04 -4.221739E-04  3.618633E-04  1.020887E-16 -2.988729E-17 -1.174185E-16
         6   4 -4.221739E-04 -4.221739E-04  3.618633E-04  3.240396E-17 -1.211388E-17 -7.500961E-17
         6   5 -4.221739E-04 -4.221739E-04  3.618633E-04  4.161578E-17 -1.207117E-17  1.472584E-17
         6   6 -4.221739E-04 -4.221739E-04  3.618633E-04 -6.068968E-18 -7.194320E-18  5.212373E-18
         6   7 -4.221739E-04 -4.221739E-04  3.618633E-04  1.395863E-16 -4.222319E-17 -2.840718E-17
         6   8 -4.221739E-04 -4.221739E-04  3.618633E-04  8.973403E-17 -2.488328E-17  3.193888E-18
         7   1 -4.221739E-04 -4.221739E-04  3.618633E-04 -8.334671E-18 -2.925923E-18 -6.258938E-17
         7   2 -4.221739E-04 -4.221739E-04  3.618633E-04 -3.345383E-17 -8.614734E-18 -8.611536E-17
         7   3 -4.221739E-04 -4.221739E-04  3.618633E-04 -8.334671E-18  1.147173E-18 -7.535167E-18
         7   4 -4.221739E-04 -4.221739E-04  3.618633E-04 -3.345383E-17  7.497237E-18 -1.263749E-17
         7   5 -4.221739E-04 -4.221739E-04  3.618633E-04 -3.425309E-17 -5.221366E-18 -2.851786E-17
         7   6 -4.221739E-04 -4.221739E-04  3.618633E-04 -4.253697E-17 -1.091780E-17 -5.001082E-17
         7   7 -4.221739E-04 -4.221739E-04  3.618633E-04 -1.171121E-17 -2.045602E-18  2.870384E-17
         7   8 -4.221739E-04 -4.221739E-04  3.618633E-04 -2.002218E-17  4.304462E-18  2.097443E-17
         8   1 -4.221739E-04 -4.221739E-04  3.618633E-04 -3.034484E-18  4.212417E-17 -1.311694E-16
         8   2 -4.221739E-04 -4.221739E-04  3.618633E-04 -6.773402E-17  2.787293E-17 -7.797346E-17
         8   3 -4.221739E-04 -4.221739E-04  3.618633E-04  1.083744E-17  2.444328E-17 -1.715954E-17
         8   4 -4.221739E-04 -4.221739E-04  3.618633E-04 -5.337441E-17  3.874870E-17 -8.398762E-18
         8   5 -4.221739E-04 -4.221739E-04  3.618633E-04  5.288672E-17  2.509146E-17 -6.693604E-17
         8   6 -4.221739E-04 -4.221739E-04  3.618633E-04  3.207883E-17  1.192397E-17 -3.072682E-17
         8   7 -4.221739E-04 -4.221739E-04  3.618633E-04  1.127094E-17 -7.618684E-18  4.490638E-17
         8   8 -4.221739E-04 -4.221739E-04  3.618633E-04 -9.320201E-18  8.854231E-18  4.057678E-17
         9   1 -4.221739E-04 -4.221739E-04  3.618633E-04 -3.901480E-18 -5.044334E-17  6.951011E-17
         9   2 -4.221739E-04 -4.221739E-04  3.618633E-04 -6.708378E-17 -1.283741E-17  3.994491E-17
         9   3 -4.221739E-04 -4.221739E-04  3.618633E-04  6.459116E-17 -6.949113E-17  1.402240E-17
         9   4 -4.221739E-04 -4.221739E-04  3.618633E-04 -1.625617E-18 -1.747140E-17  7.109156E-18
         9   5 -4.221739E-04 -4.221739E-04  3.618633E-04 -9.363551E-17 -4.870800E-17  4.836934E-17
         9   6 -4.221739E-04 -4.221739E-04  3.618633E-04 -1.296158E-16 -1.251094E-17  3.641600E-17
         9   7 -4.221739E-04 -4.221739E-04  3.618633E-04  1.213794E-17 -5.563544E-17 -4.517388E-18
         9   8 -4.221739E-04 -4.221739E-04  3.618633E-04 -2.427587E-17 -2.315216E-18  4.133974E-18

 displacements (vx,vy,vz) for set NALL and time  0.6967813E+00

         1  0.000000E+00  0.000000E+00  0.000000E+00
         2 -3.011199E-01  0.000000E+00  0.000000E+00
         3 -1.030116E+01  0.000000E+00  0.000000E+00
         4 -1.060228E+01  0.000000E+00  0.000000E+00
         5 -2.060232E+01  0.000000E+00  0.000000E+00
         6 -2.090344E+01  0.000000E+00  0.000000E+00
         7  0.000000E+00 -3.011199E-01  0.000000E+00
         8 -3.011199E-01 -3.011199E-01  0.000000E+00
         9 -1.030116E+01 -3.011199E-01  0.000000E+00
        10 -1.060228E+01 -3.011199E-01  0.000000E+00
        11 -2.060232E+01 -3.011199E-01  0.000000E+00
        12 -2.090344E+01 -3.011199E-01  0.000000E+00
        13  0.000000E+00 -1.030116E+01  0.000000E+00
        14 -3.011199E-01 -1.030116E+01  0.000000E+00
        15 -1.030116E+01 -1.030116E+01  0.000000E+00
        16 -1.060228E+01 -1.030116E+01  0.000000E+00
        17 -2.060232E+01 -1.030116E+01  0.000000E+00
        18 -2.090344E+01 -1.030116E+01  0.000000E+00
        19  0.000000E+00 -1.060228E+01  0.000000E+00
        20 -3.011199E-01 -1.060228E+01  0.000000E+00
        21 -1.030116E+01 -1.060228E+01  0.000000E+00
        22 -1.060228E+01 -1.060228E+01  0.000000E+00
        23 -2.060232E+01 -1.060228E+01  0.000000E+00
        24 -2.090344E+01 -1.060228E+01  0.000000E+00
        25  0.000000E+00 -2.060232E+01  0.000000E+00
        26 -3.011199E-01 -2.060232E+01  0.000000E+00
        27 -1.030116E+01 -2.060232E+01  0.000000E+00
        28 -1.060228E+01 -2.060232E+01  0.000000E+00
        29 -2.060232E+01 -2.060232E+01  0.000000E+00
        30 -2.090344E+01 -2.060232E+01  0.000000E+00
        31  0.000000E+00 -2.090344E+01  0.000000E+00
        32 -3.011199E-01 -2.090344E+01  0.000000E+00
        33 -1.030116E+01 -2.090344E+01  0.000000E+00
        34 -1.060228E+01 -2.090344E+01  0.000000E+00
        35 -2.060232E+01 -2.090344E+01  0.000000E+00
        36 -2.090344E+01 -2.090344E+01  0.000000E+00
        37  0.000000E+00  0.000000E+00  3.611419E-01
        38 -3.011199E-01  0.000000E+00  3.611419E-01
        39 -1.030116E+01  0.000000E+00  3.611419E-01
        40 -1.060228E+01  0.000000E+00  3.611419E-01
        41 -2.060232E+01  0.000000E+00  3.611419E-01
        42 -2.090344E+01  0.000000E+00  3.611419E-01
        43  0.000000E+00 -3.011199E-01  3.611419E-01
        44 -3.011199E-01 -3.011199E-01  3.611419E-01
        45 -1.030116E+01 -3.011199E-01  3.611419E-01
        46 -1.060228E+01 -3.011199E-01  3.611419E-01
        47 -2.060232E+01 -3.011199E-01  3.611419E-01
        48 -2.090344E+01 -3.011199E-01  3.611419E-01
        49  0.000000E+00 -1.030116E+01  3.611419E-01
        50 -3.011199E-01 -1.030116E+01  3.611419E-01
        51 -1.030116E+01 -1.030116E+01  3.611419E-01
        52 -1.060228E+01 -1.030116E+01  3.611419E-01
        53 -2.060232E+01 -1.030116E+01  3.611419E-01
        54 -2.090344E+01 -1.030116E+01  3.611419E-01
        55  0.000000E+00 -1.060228E+01  3.611419E-01
        56 -3.011199E-01 -1.060228E+01  3.611419E-01
        57 -1.030116E+01 -1.060228E+01  3.611419E-01
        58 -1.060228E+01 -1.060228E+01  3.611419E-01
        59 -2.060232E+01 -1.060228E+01  3.611419E-01
        60 -2.090344E+01 -1.060228E+01  3.611419E-01
        61  0.000000E+00 -2.060232E+01  3.611419E-01
        62 -3.011199E-01 -2.060232E+01  3.611419E-01
        63 -1.030116E+01 -2.060232E+01  3.611419E-01
        64 -1.060228E+01 -2.060232E+01  3.611419E-01
        65 -2.060232E+01 -2.060232E+01  3.611419E-01
        66 -2.090344E+01 -2.060232E+01  3.611419E-01
        67  0.000000E+00 -2.090344E+01  3.611419E-01
        68 -3.011199E-01 -2.090344E+01  3.611419E-01
        69 -1.030116E+01 -2.090344E+01  3.611419E-01
        70 -1.060228E+01 -2.090344E+01  3.611419E-01
        71 -2.060232E+01 -2.090344E+01  3.611419E-01
        72 -2.090344E+01 -2.090344E+01  3.611419E-01

 stresses (elem, integ.pnt.,sxx,syy,szz,sxy,sxz,syz) for set EALL and time  0.6967813E+00

         1   1 -1.805244E+02 -1.805244E+02  2.840233E-10 -8.850379E-13 -1.057611E-12  1.913898E-12
         1   2 -1.805244E+02 -1.805244E+02  2.942442E-10 -1.038535E-11 -3.770371E-12  8.341620E-13
         1   3 -1.805244E+02 -1.805244E+02  2.666846E-10  6.204539E-12 -2.376210E-13  8.337170E-12
         1   4 -1.805244E+02 -1.805244E+02  2.779021E-10 -3.295778E-12 -1.095809E-12  3.922926E-12
         1   5 -1.805244E+02 -1.805244E+02  2.917957E-10 -1.645161E-12 -1.235289E-12  7.155270E-13
         1   6 -1.805244E+02 -1.805244E+02  2.950414E-10 -8.562912E-12 -3.948049E-12  3.105682E-14
         1   7 -1.805244E+02 -1.805244E+02  2.783861E-10  7.865791E-13 -2.112577E-14  7.138799E-12
         1   8 -1.805244E+02 -1.805244E+02  2.825997E-10 -6.131172E-12 -8.804081E-13  3.119821E-12
         2   1 -1.805244E+02 -1.805244E+02  2.843364E-10 -5.511782E-12 -1.933534E-12  2.867205E-12
         2   2 -1.805244E+02 -1.805244E+02  3.082518E-10 -2.283616E-11 -1.018264E-11  1.382723E-12
         2   3 -1.805244E+02 -1.805244E+02  2.562644E-10  1.090629E-11  9.848491E-13  1.162094E-11
         2   4 -1.805244E+02 -1.805244E+02  2.762792E-10 -6.400638E-12 -1.116835E-12  7.674367E-12
         2   5 -1.805244E+02 -1.805244E+02  2.849343E-10 -2.232096E-12 -2.241327E-12  1.944373E-12
         2   6 -1.805244E+02 -1.805244E+02  3.037249E-10 -9.877514E-12 -1.065682E-11 -1.131833E-12
         2   7 -1.805244E+02 -1.805244E+02  2.706705E-10  1.074373E-11 -9.165802E-13  1.070686E-11
         2   8 -1.805244E+02 -1.805244E+02  2.854468E-10  2.853940E-12 -2.983236E-12  5.152970E-12
         3   1 -1.805244E+02 -1.805244E+02  3.026715E-10  1.923791E-11  8.490462E-12 -7.092355E-13
         3   2 -1.805244E+02 -1.805244E+02  2.906569E-10  3.650338E-12  1.800100E-12  1.498060E-12
         3   3 -1.805244E+02 -1.805244E+02  2.854183E-10  1.342639E-11 -2.175879E-12 -5.116205E-12
         3   4 -1.805244E+02 -1.805244E+02  2.751119E-10 -2.161183E-12 -2.843633E-13  2.403591E-12
         3   5 -1.805244E+02 -1.805244E+02  2.800943E-10  6.453004E-12  7.190405E-12  1.762951E-12
         3   6 -1.805244E+02 -1.805244E+02  2.792687E-10  1.774985E-12  3.073889E-13  4.680139E-12
         3   7 -1.805244E+02 -1.805244E+02  2.789555E-10  8.055618E-12 -2.757570E-12 -2.644018E-12
         3   8 -1.805244E+02 -1.805244E+02  2.798665E-10  3.866347E-12 -1.356447E-12  5.591958E-12
         4   1 -1.805244E+02 -1.805244E+02  2.904861E-10  3.395600E-12 -1.911249E-12  7.479690E-12
         4   2 -1.805244E+02 -1.805244E+02  3.022729E-10 -1.214452E-11 -8.550710E-12  7.435840E-12
         4   3 -1.805244E+02 -1.805244E+02  2.530187E-10  8.798013E-12  4.158619E-13  1.658699E-11
         4   4 -1.805244E+02 -1.805244E+02  2.551255E-10 -6.742107E-12  3.989820E-12  1.839963E-11
         4   5 -1.805244E+02 -1.805244E+02  2.952976E-10  1.003134E-11 -5.040409E-13  1.878182E-12
         4   6 -1.805244E+02 -1.805244E+02  3.117537E-10  8.732010E-12 -7.141313E-12 -2.121184E-12
         4   7 -1.805244E+02 -1.805244E+02  2.788701E-10  1.893354E-11 -2.023521E-12  1.098548E-11
         4   8 -1.805244E+02 -1.805244E+02  2.861301E-10  1.763421E-11  1.549342E-12  9.131584E-12
         5   1 -1.805244E+02 -1.805244E+02  3.019598E-10  6.720288E-13  6.822554E-12  1.704119E-11
         5   2 -1.805244E+02 -1.805244E+02  3.059741E-10 -1.868589E-11 -3.379372E-12  8.738783E-12
         5   3 -1.805244E+02 -1.805244E+02  2.321212E-10  1.598905E-11  5.814741E-12  3.907385E-11
         5   4 -1.805244E+02 -1.805244E+02  2.475239E-10 -3.360144E-12  9.948053E-12  1.662831E-11
         5   5 -1.805244E+02 -1.805244E+02  3.260459E-10 -1.651271E-11 -6.378189E-13  1.263766E-12
         5   6 -1.805244E+02 -1.805244E+02  3.016466E-10 -1.637307E-11 -1.069963E-11 -2.765895E-12
         5   7 -1.805244E+02 -1.805244E+02  2.860162E-10 -2.066707E-11  3.086855E-12  2.280603E-11
         5   8 -1.805244E+02 -1.805244E+02  2.729482E-10 -2.045760E-11  7.185139E-12  4.990626E-12
         6   1 -1.805244E+02 -1.805244E+02  2.765924E-10  1.796150E-11 -1.198530E-12 -1.071204E-11
         6   2 -1.805244E+02 -1.805244E+02  2.895750E-10  7.680329E-13 -6.205668E-13 -8.836401E-12
         6   3 -1.805244E+02 -1.805244E+02  2.841087E-10  2.688115E-11 -1.016572E-11 -2.058996E-11
         6   4 -1.805244E+02 -1.805244E+02  2.968920E-10  9.617867E-12 -2.879877E-12 -1.204038E-11
         6   5 -1.805244E+02 -1.805244E+02  2.580865E-10  8.657825E-12 -1.339501E-12  2.711677E-12
         6   6 -1.805244E+02 -1.805244E+02  2.843080E-10  5.585694E-13 -1.024248E-12  4.484978E-12
         6   7 -1.805244E+02 -1.805244E+02  2.785284E-10  2.639240E-11 -1.037674E-11 -7.306351E-12
         6   8 -1.805244E+02 -1.805244E+02  3.046645E-10  1.822333E-11 -3.160960E-12  1.337928E-12
         7   1 -1.805244E+02 -1.805244E+02  2.655458E-10 -4.794751E-12 -5.896304E-13 -9.563645E-12
         7   2 -1.805244E+02 -1.805244E+02  2.626418E-10 -5.497326E-12  7.154388E-13 -1.652058E-11
         7   3 -1.805244E+02 -1.805244E+02  2.771618E-10 -1.303692E-12  1.648045E-13 -1.226964E-12
         7   4 -1.805244E+02 -1.805244E+02  2.778736E-10 -2.006268E-12  2.103389E-12 -2.596926E-12
         7   5 -1.805244E+02 -1.805244E+02  2.839663E-10 -1.501592E-11 -3.505739E-12 -4.495718E-12
         7   6 -1.805244E+02 -1.805244E+02  2.945574E-10 -1.483264E-11 -2.196839E-12 -1.013413E-11
         7   7 -1.805244E+02 -1.805244E+02  2.969205E-10 -3.844528E-12 -1.327692E-12  3.840963E-12
         7   8 -1.805244E+02 -1.805244E+02  3.102447E-10 -3.661248E-12  6.196500E-13  3.894613E-12
         8   1 -1.805244E+02 -1.805244E+02  2.556665E-10 -7.470865E-12  8.977811E-12 -2.899037E-11
         8   2 -1.805244E+02 -1.805244E+02  2.633820E-10 -1.453153E-11  8.548717E-12 -8.935699E-12
         8   3 -1.805244E+02 -1.805244E+02  2.731759E-10  2.653205E-12  3.516716E-12 -4.260549E-12
         8   4 -1.805244E+02 -1.805244E+02  2.710976E-10 -4.398734E-12  6.809355E-12 -6.871355E-13
         8   5 -1.805244E+02 -1.805244E+02  3.043798E-10  1.591923E-11  5.957518E-12 -1.767145E-11
         8   6 -1.805244E+02 -1.805244E+02  2.796672E-10  1.473227E-11  5.108087E-12 -1.764767E-12
         8   7 -1.805244E+02 -1.805244E+02  3.303165E-10  4.468555E-12 -3.719431E-12  6.778143E-12
         8   8 -1.805244E+02 -1.805244E+02  2.956962E-10  3.037221E-12 -3.567358E-13  6.483250E-12
         9   1 -1.805244E+02 -1.805244E+02  2.824574E-10 -6.353727E-12 -1.013057E-11  1.264479E-11
         9   2 -1.805244E+02 -1.805244E+02  3.063158E-10 -1.590177E-11 -2.354340E-12  9.493468E-12
         9   3 -1.805244E+02 -1.805244E+02  2.565206E-10  7.889793E-12 -1.534800E-11  1.996253E-12
         9   4 -1.805244E+02 -1.805244E+02  2.862440E-10 -1.728074E-12 -3.088175E-12  2.101452E-12
         9   5 -1.805244E+02 -1.805244E+02  2.752258E-10 -2.066707E-11 -9.220235E-12  7.726186E-12
         9   6 -1.805244E+02 -1.805244E+02  3.062304E-10 -2.380902E-11 -1.619143E-12  7.020871E-12
         9   7 -1.805244E+02 -1.805244E+02  2.588552E-10 -2.513562E-12 -1.211152E-11 -2.502010E-12
         9   8 -1.805244E+02 -1.805244E+02  2.957816E-10 -5.725336E-12  7.824451E-14 -7.121973E-14

 strains (elem, integ.pnt.,exx,eyy,ezz,exy,exz,eyz) forset EALL and time  0.6967813E+00

         1   1 -6.020584E-04 -6.020584E-04  5.160501E-04 -5.493933E-18 -6.544072E-18  1.183474E-17
         1   2 -6.020584E-04 -6.020584E-04  5.160501E-04 -6.446779E-17 -2.332723E-17  5.156668E-18
         1   3 -6.020584E-04 -6.020584E-04  5.160501E-04  3.851510E-17 -1.469026E-18  5.157391E-17
         1   4 -6.020584E-04 -6.020584E-04  5.160501E-04 -2.045876E-17 -6.778417E-18  2.426607E-17
         1   5 -6.020584E-04 -6.020584E-04  5.160501E-04 -1.021245E-17 -7.645783E-18  4.404128E-18
         1   6 -6.020584E-04 -6.020584E-04  5.160501E-04 -5.315486E-17 -2.442894E-17  1.769347E-19
         1   7 -6.020584E-04 -6.020584E-04  5.160501E-04  4.882744E-18 -1.266409E-19  4.414330E-17
         1   8 -6.020584E-04 -6.020584E-04  5.160501E-04 -3.805967E-17 -5.442804E-18  1.928634E-17
         2   1 -6.020584E-04 -6.020584E-04  5.160501E-04 -3.421476E-17 -1.196384E-17  1.773401E-17
         2   2 -6.020584E-04 -6.020584E-04  5.160501E-04 -1.417570E-16 -6.299901E-17  8.541808E-18
         2   3 -6.020584E-04 -6.020584E-04  5.160501E-04  6.770151E-17  6.083366E-18  7.189116E-17
         2   4 -6.020584E-04 -6.020584E-04  5.160501E-04 -3.973240E-17 -6.919225E-18  4.746662E-17
         2   5 -6.020584E-04 -6.020584E-04  5.160501E-04 -1.385589E-17 -1.387234E-17  1.201190E-17
         2   6 -6.020584E-04 -6.020584E-04  5.160501E-04 -6.131534E-17 -6.593688E-17 -7.049939E-18
         2   7 -6.020584E-04 -6.020584E-04  5.160501E-04  6.669245E-17 -5.706636E-18  6.622322E-17
         2   8 -6.020584E-04 -6.020584E-04  5.160501E-04  1.771603E-17 -1.849252E-17  3.183254E-17
         3   1 -6.020584E-04 -6.020584E-04  5.160501E-04  1.194207E-16  5.252175E-17 -4.375336E-18
         3   2 -6.020584E-04 -6.020584E-04  5.160501E-04  2.265972E-17  1.113016E-17  9.284282E-18
         3   3 -6.020584E-04 -6.020584E-04  5.160501E-04  8.334525E-17 -1.346458E-17 -3.164014E-17
         3   4 -6.020584E-04 -6.020584E-04  5.160501E-04 -1.341569E-17 -1.762253E-18  1.488657E-17
         3   5 -6.020584E-04 -6.020584E-04  5.160501E-04  4.005746E-17  4.446061E-17  1.095370E-17
         3   6 -6.020584E-04 -6.020584E-04  5.160501E-04  1.101834E-17  1.877126E-18  2.901508E-17
         3   7 -6.020584E-04 -6.020584E-04  5.160501E-04  5.000580E-17 -1.707142E-17 -1.631111E-17
         3   8 -6.020584E-04 -6.020584E-04  5.160501E-04  2.400062E-17 -8.403022E-18  3.465634E-17
         4   1 -6.020584E-04 -6.020584E-04  5.160501E-04  2.107842E-17 -1.181727E-17  4.624659E-17
         4   2 -6.020584E-04 -6.020584E-04  5.160501E-04 -7.538794E-17 -5.289394E-17  4.595577E-17
         4   3 -6.020584E-04 -6.020584E-04  5.160501E-04  5.461427E-17  2.560474E-18  1.025911E-16
         4   4 -6.020584E-04 -6.020584E-04  5.160501E-04 -4.185209E-17  2.467165E-17  1.137860E-16
         4   5 -6.020584E-04 -6.020584E-04  5.160501E-04  6.227022E-17 -3.091703E-18  1.151388E-17
         4   6 -6.020584E-04 -6.020584E-04  5.160501E-04  5.420455E-17 -4.415483E-17 -1.330193E-17
         4   7 -6.020584E-04 -6.020584E-04  5.160501E-04  1.175312E-16 -1.256518E-17  6.785844E-17
         4   8 -6.020584E-04 -6.020584E-04  5.160501E-04  1.094656E-16  9.539227E-18  5.631611E-17
         5   1 -6.020584E-04 -6.020584E-04  5.160501E-04  4.171665E-18  4.217195E-17  1.053478E-16
         5   2 -6.020584E-04 -6.020584E-04  5.160501E-04 -1.159939E-16 -2.094479E-17  5.400581E-17
         5   3 -6.020584E-04 -6.020584E-04  5.160501E-04  9.925311E-17  3.595978E-17  2.416583E-16
         5   4 -6.020584E-04 -6.020584E-04  5.160501E-04 -2.085832E-17  6.153154E-17  1.028163E-16
         5   5 -6.020584E-04 -6.020584E-04  5.160501E-04 -1.025038E-16 -4.085862E-18  7.513451E-18
         5   6 -6.020584E-04 -6.020584E-04  5.160501E-04 -1.016369E-16 -6.633576E-17 -1.733155E-17
         5   7 -6.020584E-04 -6.020584E-04  5.160501E-04 -1.282922E-16  1.904331E-17  1.407900E-16
         5   8 -6.020584E-04 -6.020584E-04  5.160501E-04 -1.269920E-16  4.439836E-17  3.065618E-17
         6   1 -6.020584E-04 -6.020584E-04  5.160501E-04  1.114972E-16 -7.416078E-18 -6.620469E-17
         6   2 -6.020584E-04 -6.020584E-04  5.160501E-04  4.767617E-18 -3.840366E-18 -5.460054E-17
         6   3 -6.020584E-04 -6.020584E-04  5.160501E-04  1.668666E-16 -6.289380E-17 -1.273169E-16
         6   4 -6.020584E-04 -6.020584E-04  5.160501E-04  5.970356E-17 -1.781815E-17 -7.442272E-17
         6   5 -6.020584E-04 -6.020584E-04  5.160501E-04  5.374404E-17 -8.291152E-18  1.703042E-17
         6   6 -6.020584E-04 -6.020584E-04  5.160501E-04  3.467358E-18 -6.340763E-18  2.800132E-17
         6   7 -6.020584E-04 -6.020584E-04  5.160501E-04  1.638326E-16 -6.420229E-17 -4.494860E-17
         6   8 -6.020584E-04 -6.020584E-04  5.160501E-04  1.131225E-16 -1.956006E-17  8.531275E-18
         7   1 -6.020584E-04 -6.020584E-04  5.160501E-04 -2.976374E-17 -3.662684E-18 -5.914216E-17
         7   2 -6.020584E-04 -6.020584E-04  5.160501E-04 -3.412503E-17  4.411450E-18 -1.021758E-16
         7   3 -6.020584E-04 -6.020584E-04  5.160501E-04 -8.092758E-18  1.012047E-18 -7.565214E-18
         7   4 -6.020584E-04 -6.020584E-04  5.160501E-04 -1.245404E-17  1.300558E-17 -1.603360E-17
         7   5 -6.020584E-04 -6.020584E-04  5.160501E-04 -9.321232E-17 -2.174430E-17 -2.771797E-17
         7   6 -6.020584E-04 -6.020584E-04  5.160501E-04 -9.207460E-17 -1.364646E-17 -6.257446E-17
         7   7 -6.020584E-04 -6.020584E-04  5.160501E-04 -2.386517E-17 -8.242325E-18  2.385897E-17
         7   8 -6.020584E-04 -6.020584E-04  5.160501E-04 -2.272744E-17  3.805388E-18  2.421783E-17
         8   1 -6.020584E-04 -6.020584E-04  5.160501E-04 -4.637591E-17  5.552710E-17 -1.792987E-16
         8   2 -6.020584E-04 -6.020584E-04  5.160501E-04 -9.020547E-17  5.287241E-17 -5.524585E-17
         8   3 -6.020584E-04 -6.020584E-04  5.160501E-04  1.646995E-17  2.172035E-17 -2.630151E-17
         8   4 -6.020584E-04 -6.020584E-04  5.160501E-04 -2.730544E-17  4.209108E-17 -4.214073E-18
         8   5 -6.020584E-04 -6.020584E-04  5.160501E-04  9.881969E-17  3.679656E-17 -1.091146E-16
         8   6 -6.020584E-04 -6.020584E-04  5.160501E-04  9.145155E-17  3.154135E-17 -1.077983E-17
         8   7 -6.020584E-04 -6.020584E-04  5.160501E-04  2.773886E-17 -2.314809E-17  4.214888E-17
         8   8 -6.020584E-04 -6.020584E-04  5.160501E-04  1.885376E-17 -2.343949E-18  4.024856E-17
         9   1 -6.020584E-04 -6.020584E-04  5.160501E-04 -3.944119E-17 -6.267103E-17  7.820730E-17
         9   2 -6.020584E-04 -6.020584E-04  5.160501E-04 -9.871133E-17 -1.456145E-17  5.872303E-17
         9   3 -6.020584E-04 -6.020584E-04  5.160501E-04  4.897642E-17 -9.493779E-17  1.232751E-17
         9   4 -6.020584E-04 -6.020584E-04  5.160501E-04 -1.072714E-17 -1.908934E-17  1.299048E-17
         9   5 -6.020584E-04 -6.020584E-04  5.160501E-04 -1.282922E-16 -5.702737E-17  4.771485E-17
         9   6 -6.020584E-04 -6.020584E-04  5.160501E-04 -1.477961E-16 -1.000133E-17  4.339654E-17
         9   7 -6.020584E-04 -6.020584E-04  5.160501E-04 -1.560311E-17 -7.486970E-17 -1.556442E-17
         9   8 -6.020584E-04 -6.020584E-04  5.160501E-04 -3.554041E-17  5.453270E-19 -4.804206E-19

 displacements (vx,vy,vz) for set NALL and time  0.7057813E+00

         1  0.000000E+00  0.000000E+00  0.000000E+00
         2 -3.911050E-01  0.000000E+00  0.000000E+00
         3 -1.039117E+01  0.000000E+00  0.000000E+00
         4 -1.078227E+01  0.000000E+00  0.000000E+00
         5 -2.078233E+01  0.000000E+00  0.000000E+00
         6 -2.117344E+01  0.000000E+00  0.000000E+00
         7  0.000000E+00 -3.911050E-01  0.000000E+00
         8 -3.911050E-01 -3.911050E-01  0.000000E+00
         9 -1.039117E+01 -3.911050E-01  0.000000E+00
        10 -1.078227E+01 -3.911050E-01  0.000000E+00
        11 -2.078233E+01 -3.911050E-01  0.000000E+00
        12 -2.117344E+01 -3.911050E-01  0.000000E+00
        13  0.000000E+00 -1.039117E+01  0.000000E+00
        14 -3.911050E-01 -1.039117E+01  0.000000E+00
        15 -1.039117E+01 -1.039117E+01  0.000000E+00
        16 -1.078227E+01 -1.039117E+01  0.000000E+00
        17 -2.078233E+01 -1.039117E+01  0.000000E+00
        18 -2.117344E+01 -1.039117E+01  0.000000E+00
        19  0.000000E+00 -1.078227E+01  0.000000E+00
        20 -3.911050E-01 -1.078227E+01  0.000000E+00
        21 -1.039117E+01 -1.078227E+01  0.000000E+00
        22 -1.078227E+01 -1.078227E+01  0.000000E+00
        23 -2.078233E+01 -1.078227E+01  0.000000E+00
        24 -2.117344E+01 -1.078227E+01  0.000000E+00
        25  0.000000E+00 -2.078233E+01  0.000000E+00
        26 -3.911050E-01 -2.078233E+01  0.000000E+00
        27 -1.039117E+01 -2.078233E+01  0.000000E+00
        28 -1.078227E+01 -2.078233E+01  0.000000E+00
        29 -2.078233E+01 -2.078233E+01  0.000000E+00
        30 -2.117344E+01 -2.078233E+01  0.000000E+00
        31  0.000000E+00 -2.117344E+01  0.000000E+00
        32 -3.911050E-01 -2.117344E+01  0.000000E+00
        33 -1.039117E+01 -2.117344E+01  0.000000E+00
        34 -1.078227E+01 -2.117344E+01  0.000000E+00
        35 -2.078233E+01 -2.117344E+01  0.000000E+00
        36 -2.117344E+01 -2.117344E+01  0.000000E+00
        37  0.000000E+00  0.000000E+00  4.689854E-01
        38 -3.911050E-01  0.000000E+00  4.689854E-01
        39 -1.039117E+01  0.000000E+00  4.689854E-01
        40 -1.078227E+01  0.000000E+00  4.689854E-01
        41 -2.078233E+01  0.000000E+00  4.689854E-01
        42 -2.117344E+01  0.000000E+00  4.689854E-01
        43  0.000000E+00 -3.911050E-01  4.689854E-01
        44 -3.911050E-01 -3.911050E-01  4.689854E-01
        45 -1.039117E+01 -3.911050E-01  4.689854E-01
        46 -1.078227E+01 -3.911050E-01  4.689854E-01
        47 -2.078233E+01 -3.911050E-01  4.689854E-01
        48 -2.117344E+01 -3.911050E-01  4.689854E-01
        49  0.000000E+00 -1.039117E+01  4.689854E-01
        50 -3.911050E-01 -1.039117E+01  4.689854E-01
        51 -1.039117E+01 -1.039117E+01  4.689854E-01
        52 -1.078227E+01 -1.039117E+01  4.689854E-01
        53 -2.078233E+01 -1.039117E+01  4.689854E-01
        54 -2.117344E+01 -1.039117E+01  4.689854E-01
        55  0.000000E+00 -1.078227E+01  4.689854E-01
        56 -3.911050E-01 -1.078227E+01  4.689854E-01
        57 -1.039117E+01 -1.078227E+01  4.689854E-01
        58 -1.078227E+01 -1.078227E+01  4.689854E-01
        59 -2.078233E+01 -1.078227E+01  4.689854E-01
        60 -2.117344E+01 -1.078227E+01  4.689854E-01
        61  0.000000E+00 -2.078233E+01  4.689854E-01
        62 -3.911050E-01 -2.078233E+01  4.689854E-01
        63 -1.039117E+01 -2.078233E+01  4.689854E-01
        64 -1.078227E+01 -2.078233E+01  4.689854E-01
        65 -2.078233E+01 -2.078233E+01  4.689854E-01
        66 -2.117344E+01 -2.078233E+01  4.689854E-01
        67  0.000000E+00 -2.117344E+01  4.689854E-01
        68 -3.911050E-01 -2.117344E+01  4.689854E-01
        69 -1.039117E+01 -2.117344E+01  4.689854E-01
        70 -1.078227E+01 -2.117344E+01  4.689854E-01
        71 -2.078233E+01 -2.117344E+01  4.689854E-01
        72 -2.117344E+01 -2.117344E+01  4.689854E-01

 stresses (elem, integ.pnt.,sxx,syy,szz,sxy,sxz,syz) for set EALL and time  0.7057813E+00

         1   1 -2.344142E+02 -2.344142E+02  1.654996E-10 -2.419488E-12 -1.319228E-12  2.232054E-12
         1   2 -2.344142E+02 -2.344142E+02  1.747858E-10 -1.200099E-11 -6.845727E-12  1.371380E-12
         1   3 -2.344142E+02 -2.344142E+02  1.452465E-10  5.531036E-13 -2.448739E-13  1.059938E-11
         1   4 -2.344142E+02 -2.344142E+02  1.533933E-10 -9.028394E-12 -2.362978E-12  7.851573E-12
         1   5 -2.344142E+02 -2.344142E+02  1.714530E-10 -1.643508E-12  6.110784E-13 -2.616352E-14
         1   6 -2.344142E+02 -2.344142E+02  1.767513E-10 -6.484663E-12 -4.915421E-12 -1.374879E-12
         1   7 -2.344142E+02 -2.344142E+02  1.584067E-10 -1.296933E-12  1.199029E-12  8.336788E-12
         1   8 -2.344142E+02 -2.344142E+02  1.625656E-10 -6.138087E-12 -9.179804E-13  5.105314E-12
         2   1 -2.344142E+02 -2.344142E+02  1.664111E-10 -8.015915E-13 -1.024329E-12  3.147137E-12
         2   2 -2.344142E+02 -2.344142E+02  1.896836E-10 -1.852706E-11 -1.356438E-11  1.680833E-12
         2   3 -2.344142E+02 -2.344142E+02  1.338524E-10  1.196447E-11 -3.634988E-13  1.396643E-11
         2   4 -2.344142E+02 -2.344142E+02  1.535073E-10 -5.673807E-12 -2.675351E-12  9.936786E-12
         2   5 -2.344142E+02 -2.344142E+02  1.634486E-10  1.743775E-14  5.879025E-13  9.413853E-13
         2   6 -2.344142E+02 -2.344142E+02  1.813374E-10 -3.993244E-12 -1.183831E-11 -1.984125E-12
         2   7 -2.344142E+02 -2.344142E+02  1.517697E-10  9.220209E-12 -3.505857E-13  1.175630E-11
         2   8 -2.344142E+02 -2.344142E+02  1.660408E-10  4.965399E-12 -2.487298E-12  6.261978E-12
         3   1 -2.344142E+02 -2.344142E+02  1.854108E-10  1.830255E-11  1.126824E-11 -6.530300E-13
         3   2 -2.344142E+02 -2.344142E+02  1.698863E-10  2.992209E-12  2.406133E-12  1.720328E-12
         3   3 -2.344142E+02 -2.344142E+02  1.654426E-10  1.190126E-11 -1.271331E-12 -3.632605E-12
         3   4 -2.344142E+02 -2.344142E+02  1.527951E-10 -2.851072E-12 -2.905449E-13  4.072410E-12
         3   5 -2.344142E+02 -2.344142E+02  1.602013E-10  2.327939E-12  9.006840E-12  5.383821E-13
         3   6 -2.344142E+02 -2.344142E+02  1.559285E-10  9.329195E-13  9.219601E-14  4.068721E-12
         3   7 -2.344142E+02 -2.344142E+02  1.602298E-10  3.352407E-12 -2.729851E-12 -2.436815E-12
         3   8 -2.344142E+02 -2.344142E+02  1.588625E-10  1.817885E-12 -1.679009E-12  6.416429E-12
         4   1 -2.344142E+02 -2.344142E+02  1.673511E-10  7.612122E-12 -1.053747E-12  2.126290E-12
         4   2 -2.344142E+02 -2.344142E+02  1.692881E-10 -8.365760E-12 -4.763165E-12  1.555292E-12
         4   3 -2.344142E+02 -2.344142E+02  1.407459E-10  7.507496E-12  6.879293E-13  9.166932E-12
         4   4 -2.344142E+02 -2.344142E+02  1.329979E-10 -8.470386E-12  5.568872E-12  1.480466E-11
         4   5 -2.344142E+02 -2.344142E+02  1.741876E-10  1.283200E-11 -2.252233E-13  1.140369E-12
         4   6 -2.344142E+02 -2.344142E+02  1.891424E-10  8.823501E-12 -3.933547E-12 -3.339996E-12
         4   7 -2.344142E+02 -2.344142E+02  1.656420E-10  2.127187E-11 -2.304811E-12  8.461236E-12
         4   8 -2.344142E+02 -2.344142E+02  1.709403E-10  1.726773E-11  2.576132E-12  9.602876E-12
         5   1 -2.344142E+02 -2.344142E+02  1.743300E-10  1.586835E-12  5.610935E-12  1.620096E-11
         5   2 -2.344142E+02 -2.344142E+02  1.815368E-10 -1.259877E-11 -8.079592E-13  1.083103E-11
         5   3 -2.344142E+02 -2.344142E+02  1.096399E-10  1.761213E-11  3.042155E-12  3.847882E-11
         5   4 -2.344142E+02 -2.344142E+02  1.279844E-10  3.435236E-12  7.525748E-12  1.986773E-11
         5   5 -2.344142E+02 -2.344142E+02  2.075439E-10 -1.482209E-11 -1.293142E-12 -1.130206E-12
         5   6 -2.344142E+02 -2.344142E+02  1.866642E-10 -1.363632E-11 -7.712036E-12 -2.181352E-12
         5   7 -2.344142E+02 -2.344142E+02  1.656705E-10 -1.715874E-11  6.440279E-13  2.111262E-11
         5   8 -2.344142E+02 -2.344142E+02  1.562703E-10 -1.593810E-11  5.232705E-12  6.888732E-12
         6   1 -2.344142E+02 -2.344142E+02  1.553303E-10  1.255518E-11 -4.810399E-12 -6.426303E-12
         6   2 -2.344142E+02 -2.344142E+02  1.646450E-10  9.590761E-13 -8.522267E-13 -5.768612E-12
         6   3 -2.344142E+02 -2.344142E+02  1.613692E-10  1.534522E-11 -9.826162E-12 -1.504321E-11
         6   4 -2.344142E+02 -2.344142E+02  1.694021E-10  3.679365E-12 -1.909818E-12 -8.149974E-12
         6   5 -2.344142E+02 -2.344142E+02  1.457308E-10  7.323854E-12 -2.916023E-12  3.395742E-12
         6   6 -2.344142E+02 -2.344142E+02  1.691457E-10  6.975099E-14  1.147233E-12  3.257015E-12
         6   7 -2.344142E+02 -2.344142E+02  1.588055E-10  1.911177E-11 -8.068149E-12 -5.081051E-12
         6   8 -2.344142E+02 -2.344142E+02  1.803689E-10  1.178792E-11 -7.823102E-13  9.429638E-13
         7   1 -2.344142E+02 -2.344142E+02  1.497472E-10 -6.424720E-13 -7.413806E-13 -6.394834E-12
         7   2 -2.344142E+02 -2.344142E+02  1.413725E-10 -1.634789E-12  7.538802E-13 -1.730540E-11
         7   3 -2.344142E+02 -2.344142E+02  1.586346E-10 -5.029700E-13  7.813683E-13 -4.400621E-13
         7   4 -2.344142E+02 -2.344142E+02  1.547891E-10 -1.495287E-12  4.604901E-12 -2.996438E-12
         7   5 -2.344142E+02 -2.344142E+02  1.638474E-10 -1.563730E-11 -4.260691E-12 -2.179975E-12
         7   6 -2.344142E+02 -2.344142E+02  1.737603E-10 -1.338783E-11 -2.762420E-12 -1.147482E-11
         7   7 -2.344142E+02 -2.344142E+02  1.776058E-10 -3.640130E-12 -8.997251E-13  3.984965E-12
         7   8 -2.344142E+02 -2.344142E+02  1.921333E-10 -1.390660E-12  2.928186E-12  2.991775E-12
         8   1 -2.344142E+02 -2.344142E+02  1.312602E-10 -9.102505E-12  8.371899E-12 -3.070848E-11
         8   2 -2.344142E+02 -2.344142E+02  1.423980E-10 -1.665305E-11  6.532926E-12 -1.148093E-11
         8   3 -2.344142E+02 -2.344142E+02  1.498611E-10  3.871180E-12  2.219427E-12 -4.577543E-12
         8   4 -2.344142E+02 -2.344142E+02  1.512569E-10 -3.949650E-12  6.457823E-12 -1.165712E-12
         8   5 -2.344142E+02 -2.344142E+02  1.803119E-10  1.199717E-11  4.963309E-12 -1.899152E-11
         8   6 -2.344142E+02 -2.344142E+02  1.609134E-10  1.318294E-11  3.019251E-12 -3.514524E-12
         8   7 -2.344142E+02 -2.344142E+02  2.115033E-10  4.464064E-12 -4.976936E-12  7.139425E-12
         8   8 -2.344142E+02 -2.344142E+02  1.824198E-10  5.405702E-12 -6.684836E-13  7.368250E-12
         9   1 -2.344142E+02 -2.344142E+02  1.619104E-10 -8.370119E-13 -8.441091E-12  9.849547E-12
         9   2 -2.344142E+02 -2.344142E+02  1.783180E-10 -8.038802E-12 -1.873328E-12  7.425697E-12
         9   3 -2.344142E+02 -2.344142E+02  1.401761E-10  6.905348E-12 -1.487402E-11  1.512867E-12
         9   4 -2.344142E+02 -2.344142E+02  1.634771E-10 -3.836305E-13 -3.034529E-12  1.734182E-12
         9   5 -2.344142E+02 -2.344142E+02  1.573243E-10 -1.674024E-11 -6.768399E-12  5.402863E-12
         9   6 -2.344142E+02 -2.344142E+02  1.807962E-10 -1.646123E-11  4.456078E-14  5.393077E-12
         9   7 -2.344142E+02 -2.344142E+02  1.475254E-10 -5.301075E-12 -1.061376E-11 -2.793706E-12
         9   8 -2.344142E+02 -2.344142E+02  1.776628E-10 -4.533815E-12  1.716122E-12 -1.282163E-13

 strains (elem, integ.pnt.,exx,eyy,ezz,exy,exz,eyz) forset EALL and time  0.7057813E+00

         1   1 -7.819041E-04 -7.819041E-04  6.702035E-04 -1.503154E-17 -8.147595E-18  1.379176E-17
         1   2 -7.819041E-04 -7.819041E-04  6.702035E-04 -7.455846E-17 -4.233250E-17  8.464851E-18
         1   3 -7.819041E-04 -7.819041E-04  6.702035E-04  3.436264E-18 -1.505142E-18  6.554901E-17
         1   4 -7.819041E-04 -7.819041E-04  6.702035E-04 -5.609066E-17 -1.460696E-17  4.854895E-17
         1   5 -7.819041E-04 -7.819041E-04  6.702035E-04 -1.021061E-17  3.827304E-18 -2.173763E-19
         1   6 -7.819041E-04 -7.819041E-04  6.702035E-04 -4.028723E-17 -3.035760E-17 -8.571917E-18
         1   7 -7.819041E-04 -7.819041E-04  6.702035E-04 -8.057446E-18  7.452309E-18  5.151278E-17
         1   8 -7.819041E-04 -7.819041E-04  6.702035E-04 -3.813406E-17 -5.642734E-18  3.151218E-17
         2   1 -7.819041E-04 -7.819041E-04  6.702035E-04 -4.980043E-18 -6.325566E-18  1.945245E-17
         2   2 -7.819041E-04 -7.819041E-04  6.702035E-04 -1.151030E-16 -8.389372E-17  1.037290E-17
         2   3 -7.819041E-04 -7.819041E-04  6.702035E-04  7.433163E-17 -2.247448E-18  8.637665E-17
         2   4 -7.819041E-04 -7.819041E-04  6.702035E-04 -3.524963E-17 -1.654772E-17  6.144119E-17
         2   5 -7.819041E-04 -7.819041E-04  6.702035E-04  1.083354E-19  3.676119E-18  5.768785E-18
         2   6 -7.819041E-04 -7.819041E-04  6.702035E-04 -2.480881E-17 -7.318785E-17 -1.236314E-17
         2   7 -7.819041E-04 -7.819041E-04  6.702035E-04  5.728235E-17 -2.164819E-18  7.266590E-17
         2   8 -7.819041E-04 -7.819041E-04  6.702035E-04  3.084851E-17 -1.538174E-17  3.864419E-17
         3   1 -7.819041E-04 -7.819041E-04  6.702035E-04  1.137082E-16  6.968586E-17 -4.031578E-18
         3   2 -7.819041E-04 -7.819041E-04  6.702035E-04  1.858968E-17  1.486814E-17  1.065676E-17
         3   3 -7.819041E-04 -7.819041E-04  6.702035E-04  7.393892E-17 -7.871736E-18 -2.246214E-17
         3   4 -7.819041E-04 -7.819041E-04  6.702035E-04 -1.771284E-17 -1.804953E-18  2.520585E-17
         3   5 -7.819041E-04 -7.819041E-04  6.702035E-04  1.446278E-17  5.565575E-17  3.359498E-18
         3   6 -7.819041E-04 -7.819041E-04  6.702035E-04  5.795944E-18  5.130218E-19  2.522532E-17
         3   7 -7.819041E-04 -7.819041E-04  6.702035E-04  2.082748E-17 -1.691481E-17 -1.504398E-17
         3   8 -7.819041E-04 -7.819041E-04  6.702035E-04  1.129397E-17 -1.041468E-17  3.974730E-17
         4   1 -7.819041E-04 -7.819041E-04  6.702035E-04  4.729179E-17 -6.512624E-18  1.314596E-17
         4   2 -7.819041E-04 -7.819041E-04  6.702035E-04 -5.197391E-17 -2.945772E-17  9.588734E-18
         4   3 -7.819041E-04 -7.819041E-04  6.702035E-04  4.664178E-17  4.235494E-18  5.669680E-17
         4   4 -7.819041E-04 -7.819041E-04  6.702035E-04 -5.262393E-17  3.442722E-17  9.154447E-17
         4   5 -7.819041E-04 -7.819041E-04  6.702035E-04  7.972132E-17 -1.372775E-18  7.029678E-18
         4   6 -7.819041E-04 -7.819041E-04  6.702035E-04  5.481772E-17 -2.431110E-17 -2.077839E-17
         4   7 -7.819041E-04 -7.819041E-04  6.702035E-04  1.321557E-16 -1.433035E-17  5.231388E-17
         4   8 -7.819041E-04 -7.819041E-04  6.702035E-04  1.072791E-16  1.586138E-17  5.928148E-17
         5   1 -7.819041E-04 -7.819041E-04  6.702035E-04  9.858522E-18  3.466130E-17  1.000989E-16
         5   2 -7.819041E-04 -7.819041E-04  6.702035E-04 -7.827233E-17 -5.043632E-18  6.691248E-17
         5   3 -7.819041E-04 -7.819041E-04  6.702035E-04  1.094188E-16  1.880180E-17  2.379015E-16
         5   4 -7.819041E-04 -7.819041E-04  6.702035E-04  2.134208E-17  4.653567E-17  1.228102E-16
         5   5 -7.819041E-04 -7.819041E-04  6.702035E-04 -9.208510E-17 -8.170279E-18 -7.417881E-18
         5   6 -7.819041E-04 -7.819041E-04  6.702035E-04 -8.471829E-17 -4.787521E-17 -1.380771E-17
         5   7 -7.819041E-04 -7.819041E-04  6.702035E-04 -1.066020E-16  3.924721E-18  1.301681E-16
         5   8 -7.819041E-04 -7.819041E-04  6.702035E-04 -9.901856E-17  3.230860E-17  4.229647E-17
         6   1 -7.819041E-04 -7.819041E-04  6.702035E-04  7.800150E-17 -2.974108E-17 -3.968613E-17
         6   2 -7.819041E-04 -7.819041E-04  6.702035E-04  5.958448E-18 -5.257275E-18 -3.562245E-17
         6   3 -7.819041E-04 -7.819041E-04  6.702035E-04  9.533516E-17 -6.077128E-17 -9.298716E-17
         6   4 -7.819041E-04 -7.819041E-04  6.702035E-04  2.285877E-17 -1.180368E-17 -5.035267E-17
         6   5 -7.819041E-04 -7.819041E-04  6.702035E-04  4.550087E-17 -1.798404E-17  2.124617E-17
         6   6 -7.819041E-04 -7.819041E-04  6.702035E-04  4.333416E-19  7.149780E-18  2.037090E-17
         6   7 -7.819041E-04 -7.819041E-04  6.702035E-04  1.187356E-16 -4.987027E-17 -3.118817E-17
         6   8 -7.819041E-04 -7.819041E-04  6.702035E-04  7.323474E-17 -4.802741E-18  6.057145E-18
         7   1 -7.819041E-04 -7.819041E-04  6.702035E-04 -3.991483E-18 -4.609076E-18 -3.952873E-17
         7   2 -7.819041E-04 -7.819041E-04  6.702035E-04 -1.015644E-17  4.640060E-18 -1.070055E-16
         7   3 -7.819041E-04 -7.819041E-04  6.702035E-04 -3.124799E-18  4.822127E-18 -2.694687E-18
         7   4 -7.819041E-04 -7.819041E-04  6.702035E-04 -9.289761E-18  2.847310E-17 -1.849550E-17
         7   5 -7.819041E-04 -7.819041E-04  6.702035E-04 -9.714978E-17 -2.644157E-17 -1.338258E-17
         7   6 -7.819041E-04 -7.819041E-04  6.702035E-04 -8.317451E-17 -1.717381E-17 -7.083192E-17
         7   7 -7.819041E-04 -7.819041E-04  6.702035E-04 -2.261502E-17 -5.606749E-18  2.475149E-17
         7   8 -7.819041E-04 -7.819041E-04  6.702035E-04 -8.639749E-18  1.807131E-17  1.865313E-17
         8   1 -7.819041E-04 -7.819041E-04  6.702035E-04 -5.655108E-17  5.176282E-17 -1.898725E-16
         8   2 -7.819041E-04 -7.819041E-04  6.702035E-04 -1.034603E-16  4.038760E-17 -7.096344E-17
         8   3 -7.819041E-04 -7.819041E-04  6.702035E-04  2.405046E-17  1.368026E-17 -2.823602E-17
         8   4 -7.819041E-04 -7.819041E-04  6.702035E-04 -2.453797E-17  3.989743E-17 -7.157275E-18
         8   5 -7.819041E-04 -7.819041E-04  6.702035E-04  7.453476E-17  3.061657E-17 -1.171797E-16
         8   6 -7.819041E-04 -7.819041E-04  6.702035E-04  8.190157E-17  1.859134E-17 -2.154030E-17
         8   7 -7.819041E-04 -7.819041E-04  6.702035E-04  2.773386E-17 -3.096581E-17  4.445671E-17
         8   8 -7.819041E-04 -7.819041E-04  6.702035E-04  3.358398E-17 -4.315298E-18  4.577668E-17
         9   1 -7.819041E-04 -7.819041E-04  6.702035E-04 -5.200100E-18 -5.220151E-17  6.089745E-17
         9   2 -7.819041E-04 -7.819041E-04  6.702035E-04 -4.994262E-17 -1.157573E-17  4.592224E-17
         9   3 -7.819041E-04 -7.819041E-04  6.702035E-04  4.290082E-17 -9.197537E-17  9.329798E-18
         9   4 -7.819041E-04 -7.819041E-04  6.702035E-04 -2.383379E-18 -1.874063E-17  1.071662E-17
         9   5 -7.819041E-04 -7.819041E-04  6.702035E-04 -1.040020E-16 -4.182223E-17  3.331440E-17
         9   6 -7.819041E-04 -7.819041E-04  6.702035E-04 -1.022686E-16  3.202404E-19  3.332082E-17
         9   7 -7.819041E-04 -7.819041E-04  6.702035E-04 -3.293396E-17 -6.554128E-17 -1.738657E-17
         9   8 -7.819041E-04 -7.819041E-04  6.702035E-04 -2.816721E-17  1.072685E-17 -8.319602E-19

 displacements (vx,vy,vz) for set NALL and time  0.7147813E+00

         1  0.000000E+00  0.000000E+00  0.000000E+00
         2 -4.810871E-01  0.000000E+00  0.000000E+00
         3 -1.048118E+01  0.000000E+00  0.000000E+00
         4 -1.096226E+01  0.000000E+00  0.000000E+00
         5 -2.096235E+01  0.000000E+00  0.000000E+00
         6 -2.144344E+01  0.000000E+00  0.000000E+00
         7  0.000000E+00 -4.810871E-01  0.000000E+00
         8 -4.810871E-01 -4.810871E-01  0.000000E+00
         9 -1.048118E+01 -4.810871E-01  0.000000E+00
        10 -1.096226E+01 -4.810871E-01  0.000000E+00
        11 -2.096235E+01 -4.810871E-01  0.000000E+00
        12 -2.144344E+01 -4.810871E-01  0.000000E+00
        13  0.000000E+00 -1.048118E+01  0.000000E+00
        14 -4.810871E-01 -1.048118E+01  0.000000E+00
        15 -1.048118E+01 -1.048118E+01  0.000000E+00
        16 -1.096226E+01 -1.048118E+01  0.000000E+00
        17 -2.096235E+01 -1.048118E+01  0.000000E+00
        18 -2.144344E+01 -1.048118E+01  0.000000E+00
        19  0.000000E+00 -1.096226E+01  0.000000E+00
        20 -4.810871E-01 -1.096226E+01  0.000000E+00
        21 -1.048118E+01 -1.096226E+01  0.000000E+00
        22 -1.096226E+01 -1.096226E+01  0.000000E+00
        23 -2.096235E+01 -1.096226E+01  0.000000E+00
        24 -2.144344E+01 -1.096226E+01  0.000000E+00
        25  0.000000E+00 -2.096235E+01  0.000000E+00
        26 -4.810871E-01 -2.096235E+01  0.000000E+00
        27 -1.048118E+01 -2.096235E+01  0.000000E+00
        28 -1.096226E+01 -2.096235E+01  0.000000E+00
        29 -2.096235E+01 -2.096235E+01  0.000000E+00
        30 -2.144344E+01 -2.096235E+01  0.000000E+00
        31  0.000000E+00 -2.144344E+01  0.000000E+00
        32 -4.810871E-01 -2.144344E+01  0.000000E+00
        33 -1.048118E+01 -2.144344E+01  0.000000E+00
        34 -1.096226E+01 -2.144344E+01  0.000000E+00
        35 -2.096235E+01 -2.144344E+01  0.000000E+00
        36 -2.144344E+01 -2.144344E+01  0.000000E+00
        37  0.000000E+00  0.000000E+00  5.767891E-01
        38 -4.810871E-01  0.000000E+00  5.767891E-01
        39 -1.048118E+01  0.000000E+00  5.767891E-01
        40 -1.096226E+01  0.000000E+00  5.767891E-01
        41 -2.096235E+01  0.000000E+00  5.767891E-01
        42 -2.144344E+01  0.000000E+00  5.767891E-01
        43  0.000000E+00 -4.810871E-01  5.767891E-01
        44 -4.810871E-01 -4.810871E-01  5.767891E-01
        45 -1.048118E+01 -4.810871E-01  5.767891E-01
        46 -1.096226E+01 -4.810871E-01  5.767891E-01
        47 -2.096235E+01 -4.810871E-01  5.767891E-01
        48 -2.144344E+01 -4.810871E-01  5.767891E-01
        49  0.000000E+00 -1.048118E+01  5.767891E-01
        50 -4.810871E-01 -1.048118E+01  5.767891E-01
        51 -1.048118E+01 -1.048118E+01  5.767891E-01
        52 -1.096226E+01 -1.048118E+01  5.767891E-01
        53 -2.096235E+01 -1.048118E+01  5.767891E-01
        54 -2.144344E+01 -1.048118E+01  5.767891E-01
        55  0.000000E+00 -1.096226E+01  5.767891E-01
        56 -4.810871E-01 -1.096226E+01  5.767891E-01
        57 -1.048118E+01 -1.096226E+01  5.767891E-01
        58 -1.096226E+01 -1.096226E+01  5.767891E-01
        59 -2.096235E+01 -1.096226E+01  5.767891E-01
        60 -2.144344E+01 -1.096226E+01  5.767891E-01
        61  0.000000E+00 -2.096235E+01  5.767891E-01
        62 -4.810871E-01 -2.096235E+01  5.767891E-01
        63 -1.048118E+01 -2.096235E+01  5.767891E-01
        64 -1.096226E+01 -2.096235E+01  5.767891E-01
        65 -2.096235E+01 -2.096235E+01  5.767891E-01
        66 -2.144344E+01 -2.096235E+01  5.767891E-01
        67  0.000000E+00 -2.144344E+01  5.767891E-01
        68 -4.810871E-01 -2.144344E+01  5.767891E-01
        69 -1.048118E+01 -2.144344E+01  5.767891E-01
        70 -1.096226E+01 -2.144344E+01  5.767891E-01
        71 -2.096235E+01 -2.144344E+01  5.767891E-01
        72 -2.144344E+01 -2.144344E+01  5.767891E-01

 stresses (elem, integ.pnt.,sxx,syy,szz,sxy,sxz,syz) for set EALL and time  0.7147813E+00

         1   1 -2.882758E+02 -2.882758E+02  2.838310E-10 -1.721334E-12 -9.725118E-13  2.112395E-12
         1   2 -2.882758E+02 -2.882758E+02  2.948889E-10 -1.393834E-11 -3.529014E-12  1.858754E-12
         1   3 -2.882758E+02 -2.882758E+02  2.620285E-10  5.793308E-12 -8.714913E-13  9.195728E-12
         1   4 -2.882758E+02 -2.882758E+02  2.740840E-10 -6.423702E-12 -3.500786E-12  7.889055E-12
         1   5 -2.882758E+02 -2.882758E+02  2.933499E-10 -2.299467E-12 -1.071945E-12  8.011871E-13
         1   6 -2.882758E+02 -2.882758E+02  3.022134E-10 -1.462862E-11 -3.628447E-12  9.075814E-13
         1   7 -2.882758E+02 -2.882758E+02  2.713765E-10  3.749700E-12 -6.070642E-13  7.884520E-12
         1   8 -2.882758E+02 -2.882758E+02  2.811520E-10 -8.579452E-12 -3.236359E-12  6.937883E-12
         2   1 -2.882758E+02 -2.882758E+02  2.880205E-10 -3.215662E-12 -1.850244E-12  3.087471E-12
         2   2 -2.882758E+02 -2.882758E+02  3.093099E-10 -2.543514E-11 -1.122025E-11  1.927221E-12
         2   3 -2.882758E+02 -2.882758E+02  2.558725E-10  1.007977E-11  2.289689E-12  1.079912E-11
         2   4 -2.882758E+02 -2.882758E+02  2.686120E-10 -1.213100E-11  8.535384E-13  9.893371E-12
         2   5 -2.882758E+02 -2.882758E+02  2.843155E-10  4.165607E-12 -1.351985E-12  3.810820E-12
         2   6 -2.882758E+02 -2.882758E+02  3.062319E-10 -6.809124E-12 -1.074826E-11 -7.820602E-13
         2   7 -2.882758E+02 -2.882758E+02  2.694670E-10  1.782087E-11 -7.809737E-13  1.152685E-11
         2   8 -2.882758E+02 -2.882758E+02  2.827480E-10  6.915823E-12 -2.287181E-12  7.189551E-12
         3   1 -2.882758E+02 -2.882758E+02  3.075429E-10  2.503447E-11  1.150811E-11 -7.698036E-13
         3   2 -2.882758E+02 -2.882758E+02  2.902719E-10  4.269584E-12  2.786122E-12  2.380889E-12
         3   3 -2.882758E+02 -2.882758E+02  2.812660E-10  1.575440E-11 -3.699738E-12 -4.975361E-12
         3   4 -2.882758E+02 -2.882758E+02  2.667880E-10 -4.871126E-12 -1.177717E-12  5.661485E-12
         3   5 -2.882758E+02 -2.882758E+02  2.802685E-10  6.545643E-12  1.014815E-11  1.330319E-12
         3   6 -2.882758E+02 -2.882758E+02  2.787010E-10  2.086070E-12  1.321080E-12  5.615751E-12
         3   7 -2.882758E+02 -2.882758E+02  2.781310E-10  7.673602E-12 -3.852713E-12 -2.873049E-12
         3   8 -2.882758E+02 -2.882758E+02  2.794420E-10  3.144348E-12 -9.103547E-13  8.885961E-12
         4   1 -2.882758E+02 -2.882758E+02  2.848855E-10  2.718097E-12 -1.595408E-12  5.099361E-13
         4   2 -2.882758E+02 -2.882758E+02  2.917539E-10 -1.365527E-11 -7.607100E-12 -4.443261E-13
         4   3 -2.882758E+02 -2.882758E+02  2.607175E-10  4.704001E-12  2.706380E-13  8.496336E-12
         4   4 -2.882758E+02 -2.882758E+02  2.583235E-10 -1.166936E-11  3.083830E-12  1.277001E-11
         4   5 -2.882758E+02 -2.882758E+02  2.881060E-10  7.845626E-12  5.616842E-14  7.875377E-13
         4   6 -2.882758E+02 -2.882758E+02  3.058329E-10  3.771475E-12 -5.958808E-12 -3.868656E-12
         4   7 -2.882758E+02 -2.882758E+02  2.830045E-10  1.662541E-11 -1.802166E-12  8.738910E-12
         4   8 -2.882758E+02 -2.882758E+02  2.908989E-10  1.255126E-11  1.016499E-12  8.899076E-12
         5   1 -2.882758E+02 -2.882758E+02  3.054909E-10  3.658244E-12  1.229513E-11  1.695497E-11
         5   2 -2.882758E+02 -2.882758E+02  2.962284E-10 -1.438909E-11  3.406754E-12  9.232076E-12
         5   3 -2.882758E+02 -2.882758E+02  2.391715E-10  1.647952E-11  8.723058E-12  3.397861E-11
         5   4 -2.882758E+02 -2.882758E+02  2.374900E-10 -1.480718E-12  1.299648E-11  2.312234E-11
         5   5 -2.882758E+02 -2.882758E+02  3.217074E-10 -1.522526E-11  1.166012E-12  1.482776E-12
         5   6 -2.882758E+02 -2.882758E+02  3.064599E-10 -1.438909E-11 -7.967557E-12 -3.196352E-12
         5   7 -2.882758E+02 -2.882758E+02  2.835460E-10 -6.549998E-12  3.968845E-13  1.833128E-11
         5   8 -2.882758E+02 -2.882758E+02  2.758510E-10 -5.678988E-12  4.915506E-12  1.041642E-11
         6   1 -2.882758E+02 -2.882758E+02  2.734000E-10  1.783829E-11 -4.178066E-12 -8.390075E-12
         6   2 -2.882758E+02 -2.882758E+02  2.832040E-10  2.264627E-12 -1.358306E-12 -1.064778E-11
         6   3 -2.882758E+02 -2.882758E+02  2.793280E-10  2.299467E-11 -1.034577E-11 -1.546574E-11
         6   4 -2.882758E+02 -2.882758E+02  2.939199E-10  7.421009E-12 -2.149202E-12 -1.374722E-11
         6   5 -2.882758E+02 -2.882758E+02  2.658190E-10  3.658244E-12 -3.681696E-12  2.993462E-12
         6   6 -2.882758E+02 -2.882758E+02  2.834605E-10 -4.285371E-12 -3.540289E-13  2.325925E-12
         6   7 -2.882758E+02 -2.882758E+02  2.812945E-10  1.421489E-11 -7.983410E-12 -4.257349E-12
         6   8 -2.882758E+02 -2.882758E+02  3.031254E-10  6.131913E-12  1.431024E-13 -8.572585E-13
         7   1 -2.882758E+02 -2.882758E+02  2.691250E-10 -5.933758E-13 -4.723789E-14 -5.284746E-12
         7   2 -2.882758E+02 -2.882758E+02  2.582950E-10 -5.117186E-13  4.583582E-12 -1.455510E-11
         7   3 -2.882758E+02 -2.882758E+02  2.771050E-10  3.375165E-14  1.289341E-12 -2.407034E-13
         7   4 -2.882758E+02 -2.882758E+02  2.704360E-10  1.154089E-13  7.959999E-12 -2.593018E-12
         7   5 -2.882758E+02 -2.882758E+02  2.877925E-10 -1.398189E-11 -4.810749E-12 -1.776638E-12
         7   6 -2.882758E+02 -2.882758E+02  2.926374E-10 -1.107054E-11 -1.821175E-13 -1.014791E-11
         7   7 -2.882758E+02 -2.882758E+02  3.001329E-10 -2.832961E-12 -1.859745E-12  2.636899E-12
         7   8 -2.882758E+02 -2.882758E+02  3.090534E-10  7.839094E-14  4.810913E-12  1.901742E-12
         8   1 -2.882758E+02 -2.882758E+02  2.543050E-10 -7.873934E-12  8.029223E-12 -2.358664E-11
         8   2 -2.882758E+02 -2.882758E+02  2.516260E-10 -1.174122E-11  1.316959E-11 -1.340616E-11
         8   3 -2.882758E+02 -2.882758E+02  2.718610E-10  3.553722E-12  4.603482E-12 -3.550580E-12
         8   4 -2.882758E+02 -2.882758E+02  2.655340E-10 -2.264627E-13  1.101362E-11 -1.304505E-12
         8   5 -2.882758E+02 -2.882758E+02  3.040089E-10  2.229787E-12  3.385026E-13 -1.379784E-11
         8   6 -2.882758E+02 -2.882758E+02  2.871085E-10  3.135637E-13  5.513900E-12 -5.908435E-12
         8   7 -2.882758E+02 -2.882758E+02  3.245289E-10  3.065957E-12 -4.644907E-12  5.887935E-12
         8   8 -2.882758E+02 -2.882758E+02  3.040944E-10  9.406912E-13  1.835286E-12  6.191578E-12
         9   1 -2.882758E+02 -2.882758E+02  2.727730E-10 -5.644147E-12 -1.576983E-11  1.007747E-11
         9   2 -2.882758E+02 -2.882758E+02  3.006744E-10 -1.144508E-11 -2.879502E-12  1.071435E-11
         9   3 -2.882758E+02 -2.882758E+02  2.545900E-10  4.459573E-12 -1.789854E-11  1.670736E-12
         9   4 -2.882758E+02 -2.882758E+02  2.832040E-10 -1.358776E-12 -3.256803E-12  1.852791E-12
         9   5 -2.882758E+02 -2.882758E+02  2.814655E-10 -8.640423E-12 -1.047722E-11  6.349520E-12
         9   6 -2.882758E+02 -2.882758E+02  3.089679E-10 -1.240319E-11  1.905206E-12  7.064660E-12
         9   7 -2.882758E+02 -2.882758E+02  2.657620E-10  1.114893E-12 -1.216806E-11 -2.197329E-12
         9   8 -2.882758E+02 -2.882758E+02  2.946039E-10 -2.160106E-12  2.123397E-12 -1.775557E-12

 strains (elem, integ.pnt.,exx,eyy,ezz,exy,exz,eyz) forset EALL and time  0.7147813E+00

         1   1 -9.617112E-04 -9.617112E-04  8.243239E-04 -1.070296E-17 -6.015317E-18  1.305351E-17
         1   2 -9.617112E-04 -9.617112E-04  8.243239E-04 -8.666626E-17 -2.182605E-17  1.148777E-17
         1   3 -9.617112E-04 -9.617112E-04  8.243239E-04  3.602181E-17 -5.387675E-18  5.686052E-17
         1   4 -9.617112E-04 -9.617112E-04  8.243239E-04 -3.994149E-17 -2.164860E-17  4.878229E-17
         1   5 -9.617112E-04 -9.617112E-04  8.243239E-04 -1.429770E-17 -6.632465E-18  4.915293E-18
         1   6 -9.617112E-04 -9.617112E-04  8.243239E-04 -9.095828E-17 -2.244320E-17  5.584175E-18
         1   7 -9.617112E-04 -9.617112E-04  8.243239E-04  2.331500E-17 -3.746468E-18  4.872230E-17
         1   8 -9.617112E-04 -9.617112E-04  8.243239E-04 -5.334558E-17 -2.000739E-17  4.287869E-17
         2   1 -9.617112E-04 -9.617112E-04  8.243239E-04 -1.999444E-17 -1.143886E-17  1.910038E-17
         2   2 -9.617112E-04 -9.617112E-04  8.243239E-04 -1.581514E-16 -6.938786E-17  1.189700E-17
         2   3 -9.617112E-04 -9.617112E-04  8.243239E-04  6.267429E-17  1.413688E-17  6.679322E-17
         2   4 -9.617112E-04 -9.617112E-04  8.243239E-04 -7.542848E-17  5.254975E-18  6.116380E-17
         2   5 -9.617112E-04 -9.617112E-04  8.243239E-04  2.590104E-17 -8.346335E-18  2.358996E-17
         2   6 -9.617112E-04 -9.617112E-04  8.243239E-04 -4.233798E-17 -6.645781E-17 -4.918607E-18
         2   7 -9.617112E-04 -9.617112E-04  8.243239E-04  1.108072E-16 -4.918563E-18  7.130988E-17
         2   8 -9.617112E-04 -9.617112E-04  8.243239E-04  4.300141E-17 -1.423373E-17  4.438212E-17
         3   1 -9.617112E-04 -9.617112E-04  8.243239E-04  1.556601E-16  7.116171E-17 -4.743839E-18
         3   2 -9.617112E-04 -9.617112E-04  8.243239E-04  2.654755E-17  1.722039E-17  1.475083E-17
         3   3 -9.617112E-04 -9.617112E-04  8.243239E-04  9.795819E-17 -2.288236E-17 -3.075319E-17
         3   4 -9.617112E-04 -9.617112E-04  8.243239E-04 -3.028783E-17 -7.284874E-18  3.503976E-17
         3   5 -9.617112E-04 -9.617112E-04  8.243239E-04  4.069970E-17  6.272247E-17  8.290847E-18
         3   6 -9.617112E-04 -9.617112E-04  8.243239E-04  1.297083E-17  8.131261E-18  3.482848E-17
         3   7 -9.617112E-04 -9.617112E-04  8.243239E-04  4.771315E-17 -2.383182E-17 -1.770497E-17
         3   8 -9.617112E-04 -9.617112E-04  8.243239E-04  1.955102E-17 -5.634751E-18  5.505302E-17
         4   1 -9.617112E-04 -9.617112E-04  8.243239E-04  1.690066E-17 -9.853420E-18  3.155693E-18
         4   2 -9.617112E-04 -9.617112E-04  8.243239E-04 -8.490612E-17 -4.703285E-17 -2.776192E-18
         4   3 -9.617112E-04 -9.617112E-04  8.243239E-04  2.924868E-17  1.656933E-18  5.254774E-17
         4   4 -9.617112E-04 -9.617112E-04  8.243239E-04 -7.255811E-17  1.905517E-17  7.894815E-17
         4   5 -9.617112E-04 -9.617112E-04  8.243239E-04  4.878277E-17  3.973417E-19  4.877895E-18
         4   6 -9.617112E-04 -9.617112E-04  8.243239E-04  2.345039E-17 -3.680240E-17 -2.403118E-17
         4   7 -9.617112E-04 -9.617112E-04  8.243239E-04  1.033740E-16 -1.120822E-17  5.405331E-17
         4   8 -9.617112E-04 -9.617112E-04  8.243239E-04  7.804160E-17  6.223871E-18  5.493111E-17
         5   1 -9.617112E-04 -9.617112E-04  8.243239E-04  2.274634E-17  7.594798E-17  1.047328E-16
         5   2 -9.617112E-04 -9.617112E-04  8.243239E-04 -8.946893E-17  2.097766E-17  5.699444E-17
         5   3 -9.617112E-04 -9.617112E-04  8.243239E-04  1.024668E-16  5.388049E-17  2.100158E-16
         5   4 -9.617112E-04 -9.617112E-04  8.243239E-04 -9.206851E-18  8.030957E-17  1.428991E-16
         5   5 -9.617112E-04 -9.617112E-04  8.243239E-04 -9.466809E-17  6.869535E-18  8.701448E-18
         5   6 -9.617112E-04 -9.617112E-04  8.243239E-04 -8.946893E-17 -4.961721E-17 -2.014684E-17
         5   7 -9.617112E-04 -9.617112E-04  8.243239E-04 -4.072678E-17  2.202819E-18  1.129013E-16
         5   8 -9.617112E-04 -9.617112E-04  8.243239E-04 -3.531098E-17  3.014832E-17  6.404174E-17
         6   1 -9.617112E-04 -9.617112E-04  8.243239E-04  1.109155E-16 -2.583412E-17 -5.179673E-17
         6   2 -9.617112E-04 -9.617112E-04  8.243239E-04  1.408107E-17 -8.395259E-18 -6.574555E-17
         6   3 -9.617112E-04 -9.617112E-04  8.243239E-04  1.429770E-16 -6.396452E-17 -9.555635E-17
         6   4 -9.617112E-04 -9.617112E-04  8.243239E-04  4.614257E-17 -1.327268E-17 -8.491408E-17
         6   5 -9.617112E-04 -9.617112E-04  8.243239E-04  2.274634E-17 -2.275022E-17  1.885617E-17
         6   6 -9.617112E-04 -9.617112E-04  8.243239E-04 -2.664571E-17 -2.170199E-18  1.477968E-17
         6   7 -9.617112E-04 -9.617112E-04  8.243239E-04  8.838577E-17 -4.930216E-17 -2.598661E-17
         6   8 -9.617112E-04 -9.617112E-04  8.243239E-04  3.812720E-17  9.564146E-19 -4.906688E-18
         7   1 -9.617112E-04 -9.617112E-04  8.243239E-04 -3.689510E-18 -3.307072E-19 -3.265793E-17
         7   2 -9.617112E-04 -9.617112E-04  8.243239E-04 -3.181780E-18  2.830869E-17 -8.997758E-17
         7   3 -9.617112E-04 -9.617112E-04  8.243239E-04  2.098621E-19  7.948461E-18 -1.462950E-18
         7   4 -9.617112E-04 -9.617112E-04  8.243239E-04  7.175928E-19  4.920328E-17 -1.599782E-17
         7   5 -9.617112E-04 -9.617112E-04  8.243239E-04 -8.693705E-17 -2.989617E-17 -1.089207E-17
         7   6 -9.617112E-04 -9.617112E-04  8.243239E-04 -6.883475E-17 -1.270309E-18 -6.261554E-17
         7   7 -9.617112E-04 -9.617112E-04  8.243239E-04 -1.761487E-17 -1.159682E-17  1.640353E-17
         7   8 -9.617112E-04 -9.617112E-04  8.243239E-04  4.874215E-19  2.965800E-17  1.190579E-17
         8   1 -9.617112E-04 -9.617112E-04  8.243239E-04 -4.895879E-17  4.959426E-17 -1.457955E-16
         8   2 -9.617112E-04 -9.617112E-04  8.243239E-04 -7.300492E-17  8.138498E-17 -8.284647E-17
         8   3 -9.617112E-04 -9.617112E-04  8.243239E-04  2.209644E-17  2.839545E-17 -2.188216E-17
         8   4 -9.617112E-04 -9.617112E-04  8.243239E-04 -1.408107E-18  6.803907E-17 -8.003575E-18
         8   5 -9.617112E-04 -9.617112E-04  8.243239E-04  1.386443E-17  1.859846E-18 -8.504763E-17
         8   6 -9.617112E-04 -9.617112E-04  8.243239E-04  1.949686E-18  3.386719E-17 -3.630140E-17
         8   7 -9.617112E-04 -9.617112E-04  8.243239E-04  1.906360E-17 -2.900610E-17  3.669944E-17
         8   8 -9.617112E-04 -9.617112E-04  8.243239E-04  5.849058E-18  1.107078E-17  3.853133E-17
         9   1 -9.617112E-04 -9.617112E-04  8.243239E-04 -3.509435E-17 -9.748713E-17  6.229308E-17
         9   2 -9.617112E-04 -9.617112E-04  8.243239E-04 -7.116355E-17 -1.776663E-17  6.623431E-17
         9   3 -9.617112E-04 -9.617112E-04  8.243239E-04  2.772887E-17 -1.106496E-16  1.030145E-17
         9   4 -9.617112E-04 -9.617112E-04  8.243239E-04 -8.448640E-18 -2.009755E-17  1.142985E-17
         9   5 -9.617112E-04 -9.617112E-04  8.243239E-04 -5.372469E-17 -6.464080E-17  3.915187E-17
         9   6 -9.617112E-04 -9.617112E-04  8.243239E-04 -7.712092E-17  1.193854E-17  4.358391E-17
         9   7 -9.617112E-04 -9.617112E-04  8.243239E-04  6.932217E-18 -7.508874E-17 -1.370629E-17
         9   8 -9.617112E-04 -9.617112E-04  8.243239E-04 -1.343117E-17  1.329704E-17 -1.108849E-17

 displacements (vx,vy,vz) for set NALL and time  0.7237813E+00

         1  0.000000E+00  0.000000E+00  0.000000E+00
         2 -5.710661E-01  0.000000E+00  0.000000E+00
         3 -1.057119E+01  0.000000E+00  0.000000E+00
         4 -1.114225E+01  0.000000E+00  0.000000E+00
         5 -2.114237E+01  0.000000E+00  0.000000E+00
         6 -2.171344E+01  0.000000E+00  0.000000E+00
         7  0.000000E+00 -5.710661E-01  0.000000E+00
         8 -5.710661E-01 -5.710661E-01  0.000000E+00
         9 -1.057119E+01 -5.710661E-01  0.000000E+00
        10 -1.114225E+01 -5.710661E-01  0.000000E+00
        11 -2.114237E+01 -5.710661E-01  0.000000E+00
        12 -2.171344E+01 -5.710661E-01  0.000000E+00
        13  0.000000E+00 -1.057119E+01  0.000000E+00
        14 -5.710661E-01 -1.057119E+01  0.000000E+00
        15 -1.057119E+01 -1.057119E+01  0.000000E+00
        16 -1.114225E+01 -1.057119E+01  0.000000E+00
        17 -2.114237E+01 -1.057119E+01  0.000000E+00
        18 -2.171344E+01 -1.057119E+01  0.000000E+00
        19  0.000000E+00 -1.114225E+01  0.000000E+00
        20 -5.710661E-01 -1.114225E+01  0.000000E+00
        21 -1.057119E+01 -1.114225E+01  0.000000E+00
        22 -1.114225E+01 -1.114225E+01  0.000000E+00
        23 -2.114237E+01 -1.114225E+01  0.000000E+00
        24 -2.171344E+01 -1.114225E+01  0.000000E+00
        25  0.000000E+00 -2.114237E+01  0.000000E+00
        26 -5.710661E-01 -2.114237E+01  0.000000E+00
        27 -1.057119E+01 -2.114237E+01  0.000000E+00
        28 -1.114225E+01 -2.114237E+01  0.000000E+00
        29 -2.114237E+01 -2.114237E+01  0.000000E+00
        30 -2.171344E+01 -2.114237E+01  0.000000E+00
        31  0.000000E+00 -2.171344E+01  0.000000E+00
        32 -5.710661E-01 -2.171344E+01  0.000000E+00
        33 -1.057119E+01 -2.171344E+01  0.000000E+00
        34 -1.114225E+01 -2.171344E+01  0.000000E+00
        35 -2.114237E+01 -2.171344E+01  0.000000E+00
        36 -2.171344E+01 -2.171344E+01  0.000000E+00
        37  0.000000E+00  0.000000E+00  6.845533E-01
        38 -5.710661E-01  0.000000E+00  6.845533E-01
        39 -1.057119E+01  0.000000E+00  6.845533E-01
        40 -1.114225E+01  0.000000E+00  6.845533E-01
        41 -2.114237E+01  0.000000E+00  6.845533E-01
        42 -2.171344E+01  0.000000E+00  6.845533E-01
        43  0.000000E+00 -5.710661E-01  6.845533E-01
        44 -5.710661E-01 -5.710661E-01  6.845533E-01
        45 -1.057119E+01 -5.710661E-01  6.845533E-01
        46 -1.114225E+01 -5.710661E-01  6.845533E-01
        47 -2.114237E+01 -5.710661E-01  6.845533E-01
        48 -2.171344E+01 -5.710661E-01  6.845533E-01
        49  0.000000E+00 -1.057119E+01  6.845533E-01
        50 -5.710661E-01 -1.057119E+01  6.845533E-01
        51 -1.057119E+01 -1.057119E+01  6.845533E-01
        52 -1.114225E+01 -1.057119E+01  6.845533E-01
        53 -2.114237E+01 -1.057119E+01  6.845533E-01
        54 -2.171344E+01 -1.057119E+01  6.845533E-01
        55  0.000000E+00 -1.114225E+01  6.845533E-01
        56 -5.710661E-01 -1.114225E+01  6.845533E-01
        57 -1.057119E+01 -1.114225E+01  6.845533E-01
        58 -1.114225E+01 -1.114225E+01  6.845533E-01
        59 -2.114237E+01 -1.114225E+01  6.845533E-01
        60 -2.171344E+01 -1.114225E+01  6.845533E-01
        61  0.000000E+00 -2.114237E+01  6.845533E-01
        62 -5.710661E-01 -2.114237E+01  6.845533E-01
        63 -1.057119E+01 -2.114237E+01  6.845533E-01
        64 -1.114225E+01 -2.114237E+01  6.845533E-01
        65 -2.114237E+01 -2.114237E+01  6.845533E-01
        66 -2.171344E+01 -2.114237E+01  6.845533E-01
        67  0.000000E+00 -2.171344E+01  6.845533E-01
        68 -5.710661E-01 -2.171344E+01  6.845533E-01
        69 -1.057119E+01 -2.171344E+01  6.845533E-01
        70 -1.114225E+01 -2.171344E+01  6.845533E-01
        71 -2.114237E+01 -2.171344E+01  6.845533E-01
        72 -2.171344E+01 -2.171344E+01  6.845533E-01

 stresses (elem, integ.pnt.,sxx,syy,szz,sxy,sxz,syz) for set EALL and time  0.7237813E+00

         1   1 -3.421094E+02 -3.421094E+02  5.202774E-10 -1.033284E-12 -8.950228E-13  2.531710E-12
         1   2 -3.421094E+02 -3.421094E+02  5.296302E-10 -1.322984E-11 -1.442336E-12  6.257301E-13
         1   3 -3.421094E+02 -3.421094E+02  4.986634E-10  8.337512E-12  4.735698E-13  1.063852E-11
         1   4 -3.421094E+02 -3.421094E+02  5.106965E-10 -3.859043E-12  2.660635E-12  2.538591E-12
         1   5 -3.421094E+02 -3.421094E+02  5.361886E-10 -2.810532E-12 -2.794548E-12  1.336724E-12
         1   6 -3.421094E+02 -3.421094E+02  5.324246E-10 -1.120297E-11 -3.341861E-12  4.476838E-13
         1   7 -3.421094E+02 -3.421094E+02  5.203345E-10 -2.083970E-12 -4.155695E-13  9.452290E-12
         1   8 -3.421094E+02 -3.421094E+02  5.192509E-10 -1.047641E-11  1.771496E-12  2.360545E-12
         2   1 -3.421094E+02 -3.421094E+02  5.209047E-10 -5.575925E-12 -6.272526E-12  3.792939E-12
         2   2 -3.421094E+02 -3.421094E+02  5.502178E-10 -3.040954E-11 -1.493322E-11  7.118874E-13
         2   3 -3.421094E+02 -3.421094E+02  4.867443E-10  1.076355E-11  4.832867E-13  1.281924E-11
         2   4 -3.421094E+02 -3.421094E+02  5.061342E-10 -1.427019E-11  5.352188E-12  5.244194E-12
         2   5 -3.421094E+02 -3.421094E+02  5.219883E-10  3.136832E-12 -4.460386E-12  5.129925E-12
         2   6 -3.421094E+02 -3.421094E+02  5.417774E-10 -2.571245E-12 -1.325243E-11 -1.891629E-12
         2   7 -3.421094E+02 -3.421094E+02  5.161713E-10  1.323473E-11 -1.640162E-12  1.416498E-11
         2   8 -3.421094E+02 -3.421094E+02  5.261514E-10  7.596267E-12  3.263768E-12  2.630285E-12
         3   1 -3.421094E+02 -3.421094E+02  5.421766E-10  2.893086E-11  9.992703E-12 -1.102637E-12
         3   2 -3.421094E+02 -3.421094E+02  5.305997E-10  6.620629E-12  2.479182E-12  1.901276E-12
         3   3 -3.421094E+02 -3.421094E+02  5.123504E-10  2.334569E-11 -9.645200E-12 -5.984674E-12
         3   4 -3.421094E+02 -3.421094E+02  5.088716E-10  8.962376E-13 -2.079137E-12  2.040845E-12
         3   5 -3.421094E+02 -3.421094E+02  5.157721E-10  1.901242E-12  8.845927E-12  7.499140E-13
         3   6 -3.421094E+02 -3.421094E+02  5.148026E-10  9.963030E-13  1.017153E-12  6.946100E-12
         3   7 -3.421094E+02 -3.421094E+02  5.183955E-10  3.297806E-12 -7.676860E-12 -4.129934E-12
         3   8 -3.421094E+02 -3.421094E+02  5.254101E-10  2.044814E-12  2.394839E-13  7.093852E-12
         4   1 -3.421094E+02 -3.421094E+02  5.248398E-10 -1.161085E-12 -9.324473E-13 -1.271711E-12
         4   2 -3.421094E+02 -3.421094E+02  5.362456E-10 -1.707420E-11 -8.199130E-12  7.370921E-12
         4   3 -3.421094E+02 -3.421094E+02  4.999750E-10 -1.126279E-12 -1.079122E-12  6.049156E-12
         4   4 -3.421094E+02 -3.421094E+02  4.919339E-10 -1.703939E-11 -9.849843E-13  2.258186E-11
         4   5 -3.421094E+02 -3.421094E+02  5.236992E-10  1.852297E-11  3.772674E-12 -1.443999E-12
         4   6 -3.421094E+02 -3.421094E+02  5.533544E-10  1.285187E-11 -3.474853E-12 -5.041990E-13
         4   7 -3.421094E+02 -3.421094E+02  5.142894E-10  2.979990E-11 -4.131033E-12  5.736755E-12
         4   8 -3.421094E+02 -3.421094E+02  5.244976E-10  2.412881E-11 -4.028138E-12  1.464544E-11
         5   1 -3.421094E+02 -3.421094E+02  5.441727E-10  3.010662E-12  1.202138E-11  1.493520E-11
         5   2 -3.421094E+02 -3.421094E+02  5.408079E-10 -2.092671E-11 -1.753409E-12  8.504931E-12
         5   3 -3.421094E+02 -3.421094E+02  4.720877E-10  1.507071E-11  7.721253E-12  3.612718E-11
         5   4 -3.421094E+02 -3.421094E+02  4.772774E-10 -8.788350E-12  1.157434E-11  1.970516E-11
         5   5 -3.421094E+02 -3.421094E+02  5.600268E-10 -1.604526E-11  3.265284E-12  6.454649E-13
         5   6 -3.421094E+02 -3.421094E+02  5.351050E-10 -1.468786E-11 -1.033436E-11 -2.387647E-12
         5   7 -3.421094E+02 -3.421094E+02  5.256952E-10 -1.795956E-11  2.108377E-12  2.204762E-11
         5   8 -3.421094E+02 -3.421094E+02  5.094419E-10 -1.684579E-11  6.381802E-12  8.950506E-12
         6   1 -3.421094E+02 -3.421094E+02  5.140612E-10  1.895151E-11 -1.485136E-12 -1.050374E-11
         6   2 -3.421094E+02 -3.421094E+02  5.313981E-10 -4.489890E-12 -8.020885E-13 -1.100012E-11
         6   3 -3.421094E+02 -3.421094E+02  5.122933E-10  3.320430E-11 -8.057792E-12 -1.306079E-11
         6   4 -3.421094E+02 -3.421094E+02  5.381846E-10  9.762899E-12 -1.332402E-12 -2.036794E-11
         6   5 -3.421094E+02 -3.421094E+02  5.087005E-10  5.081580E-12 -2.965713E-12  3.296714E-12
         6   6 -3.421094E+02 -3.421094E+02  5.127496E-10 -1.023277E-11 -2.755545E-12  6.360337E-12
         6   7 -3.421094E+02 -3.421094E+02  5.190228E-10  1.113771E-11 -6.327574E-12  4.944683E-13
         6   8 -3.421094E+02 -3.421094E+02  5.319114E-10 -4.246252E-12  3.277589E-13 -2.771047E-12
         7   1 -3.421094E+02 -3.421094E+02  5.113238E-10  4.157063E-12 -5.731803E-13 -1.556568E-12
         7   2 -3.421094E+02 -3.421094E+02  4.901660E-10  2.201438E-12  4.012213E-12 -1.997684E-11
         7   3 -3.421094E+02 -3.421094E+02  5.153729E-10  7.461396E-13  1.606328E-12  4.750596E-13
         7   4 -3.421094E+02 -3.421094E+02  5.044803E-10 -1.209486E-12  8.062439E-12 -3.496133E-12
         7   5 -3.421094E+02 -3.421094E+02  5.239843E-10 -2.316078E-11 -6.733804E-12  1.603130E-12
         7   6 -3.421094E+02 -3.421094E+02  5.346488E-10 -2.253646E-11 -2.149505E-12 -1.321688E-11
         7   7 -3.421094E+02 -3.421094E+02  5.319684E-10 -5.897331E-12 -4.625097E-13  3.004253E-12
         7   8 -3.421094E+02 -3.421094E+02  5.530122E-10 -5.273010E-12  5.987034E-12  2.861009E-12
         8   1 -3.421094E+02 -3.421094E+02  4.919909E-10 -4.733527E-12  9.133893E-12 -2.675183E-11
         8   2 -3.421094E+02 -3.421094E+02  4.867443E-10 -8.753544E-12  1.767198E-11 -8.982639E-12
         8   3 -3.421094E+02 -3.421094E+02  5.114379E-10  1.809878E-12  3.661962E-12 -4.403924E-12
         8   4 -3.421094E+02 -3.421094E+02  5.023132E-10 -2.123126E-12  7.935387E-12 -1.391432E-13
         8   5 -3.421094E+02 -3.421094E+02  5.569472E-10  1.392214E-11  3.110976E-12 -1.686922E-11
         8   6 -3.421094E+02 -3.421094E+02  5.231859E-10  3.967809E-12  1.154398E-11  4.072222E-14
         8   7 -3.421094E+02 -3.421094E+02  5.672695E-10  1.392214E-12 -3.927399E-12  5.478692E-12
         8   8 -3.421094E+02 -3.421094E+02  5.298013E-10 -8.248867E-12  1.358569E-13  8.602901E-12
         9   1 -3.421094E+02 -3.421094E+02  5.046514E-10 -1.399175E-11 -1.916905E-11  8.367306E-12
         9   2 -3.421094E+02 -3.421094E+02  5.482788E-10 -2.030892E-11 -3.021107E-12  1.790892E-11
         9   3 -3.421094E+02 -3.421094E+02  4.873716E-10  2.575596E-12 -1.854207E-11  1.782029E-12
         9   4 -3.421094E+02 -3.421094E+02  5.248398E-10 -3.741575E-12 -3.760229E-12  3.527715E-12
         9   5 -3.421094E+02 -3.421094E+02  5.227867E-10  1.949099E-12 -1.184874E-11  5.507494E-12
         9   6 -3.421094E+02 -3.421094E+02  5.505599E-10 -5.568855E-12  3.791289E-12  1.247217E-11
         9   7 -3.421094E+02 -3.421094E+02  5.045374E-10  8.074840E-12 -1.435694E-11 -1.287952E-12
         9   8 -3.421094E+02 -3.421094E+02  5.254671E-10  2.088321E-13  7.051294E-13 -2.114801E-12

 strains (elem, integ.pnt.,exx,eyy,ezz,exy,exz,eyz) forset EALL and time  0.7237813E+00

         1   1 -1.141480E-03 -1.141480E-03  9.784114E-04 -6.430098E-18 -5.552573E-18  1.564305E-17
         1   2 -1.141480E-03 -1.141480E-03  9.784114E-04 -8.232894E-17 -8.936835E-18  3.867278E-18
         1   3 -1.141480E-03 -1.141480E-03  9.784114E-04  5.188412E-17  2.919721E-18  6.577074E-17
         1   4 -1.141480E-03 -1.141480E-03  9.784114E-04 -2.401472E-17  1.644323E-17  1.569527E-17
         1   5 -1.141480E-03 -1.141480E-03  9.784114E-04 -1.748987E-17 -1.734802E-17  8.222571E-18
         1   6 -1.141480E-03 -1.141480E-03  9.784114E-04 -6.971580E-17 -2.073228E-17  2.761667E-18
         1   7 -1.141480E-03 -1.141480E-03  9.784114E-04 -1.296849E-17 -2.601551E-18  5.840441E-17
         1   8 -1.141480E-03 -1.141480E-03  9.784114E-04 -6.519442E-17  1.092196E-17  1.458966E-17
         2   1 -1.141480E-03 -1.141480E-03  9.784114E-04 -3.469884E-17 -3.876815E-17  2.346614E-17
         2   2 -1.141480E-03 -1.141480E-03  9.784114E-04 -1.892378E-16 -9.232072E-17  4.376861E-18
         2   3 -1.141480E-03 -1.141480E-03  9.784114E-04  6.698132E-17  2.967922E-18  7.927939E-17
         2   4 -1.141480E-03 -1.141480E-03  9.784114E-04 -8.880304E-17  3.307432E-17  3.240192E-17
         2   5 -1.141480E-03 -1.141480E-03  9.784114E-04  1.952042E-17 -2.751534E-17  3.176840E-17
         2   6 -1.141480E-03 -1.141480E-03  9.784114E-04 -1.600079E-17 -8.188013E-17 -1.179017E-17
         2   7 -1.141480E-03 -1.141480E-03  9.784114E-04  8.235940E-17 -1.021802E-17  8.763580E-17
         2   8 -1.141480E-03 -1.141480E-03  9.784114E-04  4.727137E-17  2.010497E-17  1.617055E-17
         3   1 -1.141480E-03 -1.141480E-03  9.784114E-04  1.800360E-16  6.177723E-17 -6.800200E-18
         3   2 -1.141480E-03 -1.141480E-03  9.784114E-04  4.120001E-17  1.531808E-17  1.180492E-17
         3   3 -1.141480E-03 -1.141480E-03  9.784114E-04  1.452796E-16 -5.962119E-17 -3.698782E-17
         3   4 -1.141480E-03 -1.141480E-03  9.784114E-04  5.577264E-18 -1.283715E-17  1.266788E-17
         3   5 -1.141480E-03 -1.141480E-03  9.784114E-04  1.183138E-17  5.465427E-17  4.703611E-18
         3   6 -1.141480E-03 -1.141480E-03  9.784114E-04  6.199968E-18  6.245788E-18  4.313172E-17
         3   7 -1.141480E-03 -1.141480E-03  9.784114E-04  2.052217E-17 -4.739842E-17 -2.547047E-17
         3   8 -1.141480E-03 -1.141480E-03  9.784114E-04  1.272483E-17  1.551548E-18  4.404562E-17
         4   1 -1.141480E-03 -1.141480E-03  9.784114E-04 -7.225400E-18 -5.720437E-18 -7.866548E-18
         4   2 -1.141480E-03 -1.141480E-03  9.784114E-04 -1.062523E-16 -5.065329E-17  4.549978E-17
         4   3 -1.141480E-03 -1.141480E-03  9.784114E-04 -7.008807E-18 -6.701984E-18  3.740134E-17
         4   4 -1.141480E-03 -1.141480E-03  9.784114E-04 -1.060357E-16 -6.119891E-18  1.395552E-16
         4   5 -1.141480E-03 -1.141480E-03  9.784114E-04  1.152680E-16  2.349686E-17 -8.940083E-18
         4   6 -1.141480E-03 -1.141480E-03  9.784114E-04  7.997688E-17 -2.131754E-17 -3.407498E-18
         4   7 -1.141480E-03 -1.141480E-03  9.784114E-04  1.854440E-16 -2.565338E-17  3.546144E-17
         4   8 -1.141480E-03 -1.141480E-03  9.784114E-04  1.501529E-16 -2.501714E-17  9.026888E-17
         5   1 -1.141480E-03 -1.141480E-03  9.784114E-04  1.873527E-17  7.424949E-17  9.221359E-17
         5   2 -1.141480E-03 -1.141480E-03  9.784114E-04 -1.302264E-16 -1.092562E-17  5.248502E-17
         5   3 -1.141480E-03 -1.141480E-03  9.784114E-04  9.378467E-17  4.769250E-17  2.232522E-16
         5   4 -1.141480E-03 -1.141480E-03  9.784114E-04 -5.468968E-17  7.151770E-17  1.217406E-16
         5   5 -1.141480E-03 -1.141480E-03  9.784114E-04 -9.984927E-17  1.987876E-17  3.480738E-18
         5   6 -1.141480E-03 -1.141480E-03  9.784114E-04 -9.140215E-17 -6.421339E-17 -1.515350E-17
         5   7 -1.141480E-03 -1.141480E-03  9.784114E-04 -1.117619E-16  1.284568E-17  1.358189E-16
         5   8 -1.141480E-03 -1.141480E-03  9.784114E-04 -1.048309E-16  3.927000E-17  5.495484E-17
         6   1 -1.141480E-03 -1.141480E-03  9.784114E-04  1.179348E-16 -9.200132E-18 -6.481713E-17
         6   2 -1.141480E-03 -1.141480E-03  9.784114E-04 -2.794047E-17 -4.976573E-18 -6.785300E-17
         6   3 -1.141480E-03 -1.141480E-03  9.784114E-04  2.066295E-16 -4.980806E-17 -8.062840E-17
         6   4 -1.141480E-03 -1.141480E-03  9.784114E-04  6.075427E-17 -8.222251E-18 -1.257780E-16
         6   5 -1.141480E-03 -1.141480E-03  9.784114E-04  3.162255E-17 -1.840141E-17  2.087652E-17
         6   6 -1.141480E-03 -1.141480E-03  9.784114E-04 -6.367828E-17 -1.710185E-17  3.994506E-17
         6   7 -1.141480E-03 -1.141480E-03  9.784114E-04  6.930969E-17 -3.906396E-17  3.549103E-18
         6   8 -1.141480E-03 -1.141480E-03  9.784114E-04 -2.642432E-17  2.088662E-18 -1.651794E-17
         7   1 -1.141480E-03 -1.141480E-03  9.784114E-04  2.586930E-17 -3.603418E-18 -9.597685E-18
         7   2 -1.141480E-03 -1.141480E-03  9.784114E-04  1.369949E-17  2.474993E-17 -1.234585E-16
         7   3 -1.141480E-03 -1.141480E-03  9.784114E-04  4.643208E-18  9.912715E-18  2.964696E-18
         7   4 -1.141480E-03 -1.141480E-03  9.784114E-04 -7.526599E-18  4.983347E-17 -2.155157E-17
         7   5 -1.141480E-03 -1.141480E-03  9.784114E-04 -1.441290E-16 -4.185891E-17  1.001384E-17
         7   6 -1.141480E-03 -1.141480E-03  9.784114E-04 -1.402438E-16 -1.351233E-17 -8.147709E-17
         7   7 -1.141480E-03 -1.141480E-03  9.784114E-04 -3.669894E-17 -2.934050E-18  1.867755E-17
         7   8 -1.141480E-03 -1.141480E-03  9.784114E-04 -3.281381E-17  3.694609E-17  1.793899E-17
         8   1 -1.141480E-03 -1.141480E-03  9.784114E-04 -2.945662E-17  5.642036E-17 -1.653196E-16
         8   2 -1.141480E-03 -1.141480E-03  9.784114E-04 -5.447308E-17  1.092148E-16 -5.546041E-17
         8   3 -1.141480E-03 -1.141480E-03  9.784114E-04  1.126282E-17  2.257027E-17 -2.713343E-17
         8   4 -1.141480E-03 -1.141480E-03  9.784114E-04 -1.321216E-17  4.899458E-17 -7.775164E-19
         8   5 -1.141480E-03 -1.141480E-03  9.784114E-04  8.663711E-17  1.901904E-17 -1.039444E-16
         8   6 -1.141480E-03 -1.141480E-03  9.784114E-04  2.469158E-17  7.116375E-17  5.607484E-19
         8   7 -1.141480E-03 -1.141480E-03  9.784114E-04  8.663711E-18 -2.455726E-17  3.424184E-17
         8   8 -1.141480E-03 -1.141480E-03  9.784114E-04 -5.133249E-17  5.675058E-19  5.350412E-17
         9   1 -1.141480E-03 -1.141480E-03  9.784114E-04 -8.707030E-17 -1.184630E-16  5.171164E-17
         9   2 -1.141480E-03 -1.141480E-03  9.784114E-04 -1.263819E-16 -1.861377E-17  1.106873E-16
         9   3 -1.141480E-03 -1.141480E-03  9.784114E-04  1.602787E-17 -1.146102E-16  1.099220E-17
         9   4 -1.141480E-03 -1.141480E-03  9.784114E-04 -2.328372E-17 -2.320808E-17  2.176241E-17
         9   5 -1.141480E-03 -1.141480E-03  9.784114E-04  1.212920E-17 -7.301549E-17  3.395496E-17
         9   6 -1.141480E-03 -1.141480E-03  9.784114E-04 -3.465484E-17  2.369319E-17  7.693093E-17
         9   7 -1.141480E-03 -1.141480E-03  9.784114E-04  5.024952E-17 -8.861452E-17 -8.064042E-18
         9   8 -1.141480E-03 -1.141480E-03  9.784114E-04  1.299557E-18  4.520372E-18 -1.326662E-17

 displacements (vx,vy,vz) for set NALL and time  0.7327813E+00

         1  0.000000E+00  0.000000E+00  0.000000E+00
         2 -6.610423E-01  0.000000E+00  0.000000E+00
         3 -1.066120E+01  0.000000E+00  0.000000E+00
         4 -1.132224E+01  0.000000E+00  0.000000E+00
         5 -2.132240E+01  0.000000E+00  0.000000E+00
         6 -2.198344E+01  0.000000E+00  0.000000E+00
         7  0.000000E+00 -6.610423E-01  0.000000E+00
         8 -6.610423E-01 -6.610423E-01  0.000000E+00
         9 -1.066120E+01 -6.610423E-01  0.000000E+00
        10 -1.132224E+01 -6.610423E-01  0.000000E+00
        11 -2.132240E+01 -6.610423E-01  0.000000E+00
        12 -2.198344E+01 -6.610423E-01  0.000000E+00
        13  0.000000E+00 -1.066120E+01  0.000000E+00
        14 -6.610423E-01 -1.066120E+01  0.000000E+00
        15 -1.066120E+01 -1.066120E+01  0.000000E+00
        16 -1.132224E+01 -1.066120E+01  0.000000E+00
        17 -2.132240E+01 -1.066120E+01  0.000000E+00
        18 -2.198344E+01 -1.066120E+01  0.000000E+00
        19  0.000000E+00 -1.132224E+01  0.000000E+00
        20 -6.610423E-01 -1.132224E+01  0.000000E+00
        21 -1.066120E+01 -1.132224E+01  0.000000E+00
        22 -1.132224E+01 -1.132224E+01  0.000000E+00
        23 -2.132240E+01 -1.132224E+01  0.000000E+00
        24 -2.198344E+01 -1.132224E+01  0.000000E+00
        25  0.000000E+00 -2.132240E+01  0.000000E+00
        26 -6.610423E-01 -2.132240E+01  0.000000E+00
        27 -1.066120E+01 -2.132240E+01  0.000000E+00
        28 -1.132224E+01 -2.132240E+01  0.000000E+00
        29 -2.132240E+01 -2.132240E+01  0.000000E+00
        30 -2.198344E+01 -2.132240E+01  0.000000E+00
        31  0.000000E+00 -2.198344E+01  0.000000E+00
        32 -6.610423E-01 -2.198344E+01  0.000000E+00
        33 -1.066120E+01 -2.198344E+01  0.000000E+00
        34 -1.132224E+01 -2.198344E+01  0.000000E+00
        35 -2.132240E+01 -2.198344E+01  0.000000E+00
        36 -2.198344E+01 -2.198344E+01  0.000000E+00
        37  0.000000E+00  0.000000E+00  7.922780E-01
        38 -6.610423E-01  0.000000E+00  7.922780E-01
        39 -1.066120E+01  0.000000E+00  7.922780E-01
        40 -1.132224E+01  0.000000E+00  7.922780E-01
        41 -2.132240E+01  0.000000E+00  7.922780E-01
        42 -2.198344E+01  0.000000E+00  7.922780E-01
        43  0.000000E+00 -6.610423E-01  7.922780E-01
        44 -6.610423E-01 -6.610423E-01  7.922780E-01
        45 -1.066120E+01 -6.610423E-01  7.922780E-01
        46 -1.132224E+01 -6.610423E-01  7.922780E-01
        47 -2.132240E+01 -6.610423E-01  7.922780E-01
        48 -2.198344E+01 -6.610423E-01  7.922780E-01
        49  0.000000E+00 -1.066120E+01  7.922780E-01
        50 -6.610423E-01 -1.066120E+01  7.922780E-01
        51 -1.066120E+01 -1.066120E+01  7.922780E-01
        52 -1.132224E+01 -1.066120E+01  7.922780E-01
        53 -2.132240E+01 -1.066120E+01  7.922780E-01
        54 -2.198344E+01 -1.066120E+01  7.922780E-01
        55  0.000000E+00 -1.132224E+01  7.922780E-01
        56 -6.610423E-01 -1.132224E+01  7.922780E-01
        57 -1.066120E+01 -1.132224E+01  7.922780E-01
        58 -1.132224E+01 -1.132224E+01  7.922780E-01
        59 -2.132240E+01 -1.132224E+01  7.922780E-01
        60 -2.198344E+01 -1.132224E+01  7.922780E-01
        61  0.000000E+00 -2.132240E+01  7.922780E-01
        62 -6.610423E-01 -2.132240E+01  7.922780E-01
        63 -1.066120E+01 -2.132240E+01  7.922780E-01
        64 -1.132224E+01 -2.132240E+01  7.922780E-01
        65 -2.132240E+01 -2.132240E+01  7.922780E-01
        66 -2.198344E+01 -2.132240E+01  7.922780E-01
        67  0.000000E+00 -2.198344E+01  7.922780E-01
        68 -6.610423E-01 -2.198344E+01  7.922780E-01
        69 -1.066120E+01 -2.198344E+01  7.922780E-01
        70 -1.132224E+01 -2.198344E+01  7.922780E-01
        71 -2.132240E+01 -2.198344E+01  7.922780E-01
        72 -2.198344E+01 -2.198344E+01  7.922780E-01

 stresses (elem, integ.pnt.,sxx,syy,szz,sxy,sxz,syz) for set EALL and time  0.7327813E+00

         1   1 -3.959151E+02 -3.959151E+02  2.398741E-10 -2.668619E-12 -1.044814E-12  2.913661E-12
         1   2 -3.959151E+02 -3.959151E+02  2.497452E-10 -1.958273E-11 -2.068290E-12  1.229362E-13
         1   3 -3.959151E+02 -3.959151E+02  2.149395E-10  6.950254E-12  8.582092E-13  1.060451E-11
         1   4 -3.959151E+02 -3.959151E+02  2.294894E-10 -9.963859E-12  3.222604E-12 -1.602196E-12
         1   5 -3.959151E+02 -3.959151E+02  2.539105E-10 -5.737097E-12 -2.880372E-12  3.166993E-12
         1   6 -3.959151E+02 -3.959151E+02  2.439252E-10 -1.793495E-11 -3.903848E-12  2.186711E-12
         1   7 -3.959151E+02 -3.959151E+02  2.360511E-10 -9.211952E-12  8.320025E-13  1.086660E-11
         1   8 -3.959151E+02 -3.959151E+02  2.307447E-10 -2.140980E-11  3.196397E-12  4.615781E-13
         2   1 -3.959151E+02 -3.959151E+02  2.474628E-10 -3.366741E-12 -3.593954E-12  3.875034E-12
         2   2 -3.959151E+02 -3.959151E+02  2.694874E-10 -4.006678E-11 -1.249984E-11  1.483064E-12
         2   3 -3.959151E+02 -3.959151E+02  2.037560E-10  1.070925E-11  2.815446E-12  9.650287E-12
         2   4 -3.959151E+02 -3.959151E+02  2.126571E-10 -2.598209E-11  8.945358E-12  5.969396E-12
         2   5 -3.959151E+02 -3.959151E+02  2.404446E-10  6.997520E-12 -3.267462E-12  8.736369E-12
         2   6 -3.959151E+02 -3.959151E+02  2.598445E-10 -7.953702E-12 -1.219086E-11  1.049018E-12
         2   7 -3.959151E+02 -3.959151E+02  2.293753E-10  1.928012E-11 -2.277725E-12  1.452038E-11
         2   8 -3.959151E+02 -3.959151E+02  2.355947E-10  4.085508E-12  4.167440E-12  5.533716E-12
         3   1 -3.959151E+02 -3.959151E+02  2.662922E-10  4.152278E-11  1.076899E-11 -6.248928E-13
         3   2 -3.959151E+02 -3.959151E+02  2.491746E-10  8.282390E-12  2.642478E-12  2.545429E-12
         3   3 -3.959151E+02 -3.959151E+02  2.239547E-10  3.033273E-11 -1.174229E-11 -5.830940E-12
         3   4 -3.959151E+02 -3.959151E+02  2.167653E-10 -3.185827E-12 -2.144600E-12  2.050116E-12
         3   5 -3.959151E+02 -3.959151E+02  2.389611E-10  1.109824E-11  1.037285E-11  2.864961E-12
         3   6 -3.959151E+02 -3.959151E+02  2.317717E-10  1.362560E-12  2.684187E-12  9.990307E-12
         3   7 -3.959151E+02 -3.959151E+02  2.334835E-10  6.467273E-12 -8.139563E-12 -2.349843E-12
         3   8 -3.959151E+02 -3.959151E+02  2.362794E-10 -3.059785E-12  1.878465E-12  9.517954E-12
         4   1 -3.959151E+02 -3.959151E+02  2.389611E-10  2.808787E-12 -9.428150E-13 -6.835453E-12
         4   2 -3.959151E+02 -3.959151E+02  2.514569E-10 -1.526198E-11 -8.773778E-12  3.366255E-12
         4   3 -3.959151E+02 -3.959151E+02  2.254953E-10  2.252462E-12 -3.913398E-13 -1.616271E-12
         4   4 -3.959151E+02 -3.959151E+02  2.172218E-10 -1.581831E-11  1.561475E-12  1.220209E-11
         4   5 -3.959151E+02 -3.959151E+02  2.333694E-10  2.596471E-11  4.299609E-12 -1.332141E-12
         4   6 -3.959151E+02 -3.959151E+02  2.537963E-10  2.147934E-11 -3.520408E-12  5.477542E-13
         4   7 -3.959151E+02 -3.959151E+02  2.404446E-10  3.062393E-11 -3.409484E-12  3.781957E-12
         4   8 -3.959151E+02 -3.959151E+02  2.401023E-10  2.613856E-11 -1.452291E-12  9.462398E-12
         5   1 -3.959151E+02 -3.959151E+02  2.692592E-10  5.528475E-12  1.478362E-11  1.715993E-11
         5   2 -3.959151E+02 -3.959151E+02  2.510575E-10 -1.915843E-11  2.339900E-12  8.344432E-12
         5   3 -3.959151E+02 -3.959151E+02  1.937137E-10  8.901193E-12  7.692139E-12  3.632029E-11
         5   4 -3.959151E+02 -3.959151E+02  1.894914E-10 -1.570748E-11  1.221076E-11  1.959172E-11
         5   5 -3.959151E+02 -3.959151E+02  2.824397E-10 -2.291362E-11  5.613733E-12  1.837517E-12
         5   6 -3.959151E+02 -3.959151E+02  2.480334E-10 -2.378287E-11 -7.145241E-12 -1.530190E-12
         5   7 -3.959151E+02 -3.959151E+02  2.421564E-10 -3.004152E-11  3.971137E-12  2.096284E-11
         5   8 -3.959151E+02 -3.959151E+02  2.215012E-10 -3.115417E-11  7.894280E-12  9.643764E-12
         6   1 -3.959151E+02 -3.959151E+02  2.285765E-10  2.096648E-11 -5.710238E-12 -9.712059E-12
         6   2 -3.959151E+02 -3.959151E+02  2.466070E-10 -6.554198E-12 -1.927207E-12 -1.195016E-11
         6   3 -3.959151E+02 -3.959151E+02  2.252100E-10  3.348378E-11 -6.294353E-12 -1.069285E-11
         6   4 -3.959151E+02 -3.959151E+02  2.512287E-10  5.963104E-12 -5.497498E-13 -2.164199E-11
         6   5 -3.959151E+02 -3.959151E+02  2.349670E-10  1.283023E-11 -6.110810E-12  5.518463E-12
         6   6 -3.959151E+02 -3.959151E+02  2.350241E-10 -1.234345E-11 -2.310264E-12  6.357162E-12
         6   7 -3.959151E+02 -3.959151E+02  2.343964E-10  1.349087E-11 -3.581964E-12  4.502649E-12
         6   8 -3.959151E+02 -3.959151E+02  2.423276E-10 -1.119603E-11  2.092583E-12 -3.152938E-12
         7   1 -3.959151E+02 -3.959151E+02  2.351382E-10  3.647620E-12  7.357645E-14  2.332661E-12
         7   2 -3.959151E+02 -3.959151E+02  2.149395E-10  1.260423E-13  6.019044E-12 -1.292000E-11
         7   3 -3.959151E+02 -3.959151E+02  2.327988E-10 -3.803000E-14  1.258381E-12  1.562044E-12
         7   4 -3.959151E+02 -3.959151E+02  2.220718E-10 -3.559608E-12  6.635190E-12 -1.886153E-12
         7   5 -3.959151E+02 -3.959151E+02  2.441534E-10 -1.965825E-11 -5.656399E-12  3.884080E-12
         7   6 -3.959151E+02 -3.959151E+02  2.500305E-10 -2.396542E-11  2.841428E-13 -7.740432E-12
         7   7 -3.959151E+02 -3.959151E+02  2.407299E-10 -6.306460E-12 -7.027502E-13  2.482958E-12
         7   8 -3.959151E+02 -3.959151E+02  2.559646E-10 -1.061363E-11  4.682816E-12  3.100756E-12
         8   1 -3.959151E+02 -3.959151E+02  2.203030E-10  1.390811E-12  1.308022E-11 -2.655704E-11
         8   2 -3.959151E+02 -3.959151E+02  1.957108E-10 -6.771513E-12  2.245022E-11 -7.873928E-12
         8   3 -3.959151E+02 -3.959151E+02  2.358229E-10 -3.685650E-12  9.277492E-12 -3.718739E-12
         8   4 -3.959151E+02 -3.959151E+02  2.050113E-10 -1.211744E-11  1.330572E-11  4.977812E-13
         8   5 -3.959151E+02 -3.959151E+02  2.867191E-10  2.392196E-11  6.428092E-12 -1.485474E-11
         8   6 -3.959151E+02 -3.959151E+02  2.327417E-10  8.657801E-12  1.614838E-11  8.023169E-13
         8   7 -3.959151E+02 -3.959151E+02  2.913979E-10 -5.563245E-13  1.706779E-13  7.283003E-12
         8   8 -3.959151E+02 -3.959151E+02  2.315435E-10 -1.578571E-11  4.268962E-12  9.187129E-12
         9   1 -3.959151E+02 -3.959151E+02  2.179636E-10 -9.805220E-12 -1.992643E-11  5.737413E-12
         9   2 -3.959151E+02 -3.959151E+02  2.643522E-10 -1.980168E-11 -3.007872E-12  1.805782E-11
         9   3 -3.959151E+02 -3.959151E+02  1.983925E-10  7.371300E-12 -2.180991E-11  1.043652E-12
         9   4 -3.959151E+02 -3.959151E+02  2.378770E-10 -2.625156E-12 -4.365932E-12  3.504744E-12
         9   5 -3.959151E+02 -3.959151E+02  2.423276E-10  7.510381E-12 -1.150846E-11  4.331848E-12
         9   6 -3.959151E+02 -3.959151E+02  2.685174E-10 -1.599433E-12  5.252470E-12  1.367195E-11
         9   7 -3.959151E+02 -3.959151E+02  2.246394E-10  1.057017E-11 -1.576353E-11 -4.319696E-13
         9   8 -3.959151E+02 -3.959151E+02  2.431834E-10  1.599433E-12  1.400220E-12 -7.990125E-13

 strains (elem, integ.pnt.,exx,eyy,ezz,exy,exz,eyz) forset EALL and time  0.7327813E+00

         1   1 -1.321211E-03 -1.321211E-03  1.132466E-03 -1.662050E-17 -6.479770E-18  1.801603E-17
         1   2 -1.321211E-03 -1.321211E-03  1.132466E-03 -1.219638E-16 -1.280720E-17  7.829463E-19
         1   3 -1.321211E-03 -1.321211E-03  1.132466E-03  4.328707E-17  5.305434E-18  6.556311E-17
         1   4 -1.321211E-03 -1.321211E-03  1.132466E-03 -6.205618E-17  1.992281E-17 -9.882326E-18
         1   5 -1.321211E-03 -1.321211E-03  1.132466E-03 -3.573137E-17 -1.788356E-17  1.958990E-17
         1   6 -1.321211E-03 -1.321211E-03  1.132466E-03 -1.117011E-16 -2.421099E-17  1.360458E-17
         1   7 -1.321211E-03 -1.321211E-03  1.132466E-03 -5.737321E-17  5.142620E-18  6.719112E-17
         1   8 -1.321211E-03 -1.321211E-03  1.132466E-03 -1.333430E-16  1.976000E-17  2.939308E-18
         2   1 -1.321211E-03 -1.321211E-03  1.132466E-03 -2.096849E-17 -2.221525E-17  2.401013E-17
         2   2 -1.321211E-03 -1.321211E-03  1.132466E-03 -2.495410E-16 -7.727404E-17  9.163887E-18
         2   3 -1.321211E-03 -1.321211E-03  1.132466E-03  6.669856E-17  1.735090E-17  5.971443E-17
         2   4 -1.321211E-03 -1.321211E-03  1.132466E-03 -1.618198E-16  5.524781E-17  3.689967E-17
         2   5 -1.321211E-03 -1.321211E-03  1.132466E-03  4.358144E-17 -2.018685E-17  5.421220E-17
         2   6 -1.321211E-03 -1.321211E-03  1.132466E-03 -4.953667E-17 -7.535392E-17  6.467265E-18
         2   7 -1.321211E-03 -1.321211E-03  1.132466E-03  1.200791E-16 -1.428723E-17  8.997064E-17
         2   8 -1.321211E-03 -1.321211E-03  1.132466E-03  2.544507E-17  2.555866E-17  3.419285E-17
         3   1 -1.321211E-03 -1.321211E-03  1.132466E-03  2.586092E-16  6.657645E-17 -3.824341E-18
         3   2 -1.321211E-03 -1.321211E-03  1.132466E-03  5.158378E-17  1.633597E-17  1.581946E-17
         3   3 -1.321211E-03 -1.321211E-03  1.132466E-03  1.889161E-16 -7.255083E-17 -3.600964E-17
         3   4 -1.321211E-03 -1.321211E-03  1.132466E-03 -1.984174E-17 -1.321510E-17  1.275722E-17
         3   5 -1.321211E-03 -1.321211E-03  1.132466E-03  6.912125E-17  6.412598E-17  1.785711E-17
         3   6 -1.321211E-03 -1.321211E-03  1.132466E-03  8.486200E-18  1.659243E-17  6.207230E-17
         3   7 -1.321211E-03 -1.321211E-03  1.132466E-03  4.027900E-17 -5.015959E-17 -1.438233E-17
         3   8 -1.321211E-03 -1.321211E-03  1.132466E-03 -1.905673E-17  1.177478E-17  5.915234E-17
         4   1 -1.321211E-03 -1.321211E-03  1.132466E-03  1.749348E-17 -5.770331E-18 -4.219712E-17
         4   2 -1.321211E-03 -1.321211E-03  1.132466E-03 -9.505356E-17 -5.418363E-17  2.078065E-17
         4   3 -1.321211E-03 -1.321211E-03  1.132466E-03  1.402862E-17 -2.453124E-18 -9.930610E-18
         4   4 -1.321211E-03 -1.321211E-03  1.132466E-03 -9.851842E-17  9.619748E-18  7.540633E-17
         4   5 -1.321211E-03 -1.321211E-03  1.132466E-03  1.617115E-16  2.679933E-17 -8.005565E-18
         4   6 -1.321211E-03 -1.321211E-03  1.132466E-03  1.337761E-16 -2.154629E-17  3.272512E-18
         4   7 -1.321211E-03 -1.321211E-03  1.132466E-03  1.907297E-16 -2.120385E-17  2.361128E-17
         4   8 -1.321211E-03 -1.321211E-03  1.132466E-03  1.627943E-16 -9.103908E-18  5.838544E-17
         5   1 -1.321211E-03 -1.321211E-03  1.132466E-03  3.443205E-17  9.129337E-17  1.059182E-16
         5   2 -1.321211E-03 -1.321211E-03  1.132466E-03 -1.193211E-16  1.436265E-17  5.147820E-17
         5   3 -1.321211E-03 -1.321211E-03  1.132466E-03  5.543776E-17  4.751200E-17  2.243731E-16
         5   4 -1.321211E-03 -1.321211E-03  1.132466E-03 -9.782816E-17  7.544743E-17  1.210123E-16
         5   5 -1.321211E-03 -1.321211E-03  1.132466E-03 -1.427089E-16  3.432030E-17  1.072764E-17
         5   6 -1.321211E-03 -1.321211E-03  1.132466E-03 -1.481228E-16 -4.455941E-17 -9.867841E-18
         5   7 -1.321211E-03 -1.321211E-03  1.132466E-03 -1.871024E-16  2.439023E-17  1.289660E-16
         5   8 -1.321211E-03 -1.321211E-03  1.132466E-03 -1.940322E-16  4.864425E-17  5.921281E-17
         6   1 -1.321211E-03 -1.321211E-03  1.132466E-03  1.305819E-16 -3.530771E-17 -5.987365E-17
         6   2 -1.321211E-03 -1.321211E-03  1.132466E-03 -4.082038E-17 -1.191990E-17 -7.367469E-17
         6   3 -1.321211E-03 -1.321211E-03  1.132466E-03  2.085413E-16 -3.888337E-17 -6.593715E-17
         6   4 -1.321211E-03 -1.321211E-03  1.132466E-03  3.713897E-17 -3.368554E-18 -1.335924E-16
         6   5 -1.321211E-03 -1.321211E-03  1.132466E-03  7.990833E-17 -3.779847E-17  3.474812E-17
         6   6 -1.321211E-03 -1.321211E-03  1.132466E-03 -7.687658E-17 -1.430239E-17  4.006606E-17
         6   7 -1.321211E-03 -1.321211E-03  1.132466E-03  8.402286E-17 -2.203208E-17  2.846806E-17
         6   8 -1.321211E-03 -1.321211E-03  1.132466E-03 -6.973031E-17  1.304963E-17 -1.872842E-17
         7   1 -1.321211E-03 -1.321211E-03  1.132466E-03  2.271784E-17  3.909636E-19  1.443461E-17
         7   2 -1.321211E-03 -1.321211E-03  1.132466E-03  7.850074E-19  3.714758E-17 -7.981961E-17
         7   3 -1.321211E-03 -1.321211E-03  1.132466E-03 -2.368557E-19  7.758024E-18  9.670429E-18
         7   4 -1.321211E-03 -1.321211E-03  1.132466E-03 -2.216969E-17  4.099903E-17 -1.160518E-17
         7   5 -1.321211E-03 -1.321211E-03  1.132466E-03 -1.224341E-16 -3.520773E-17  2.406248E-17
         7   6 -1.321211E-03 -1.321211E-03  1.132466E-03 -1.492597E-16  1.518429E-18 -4.764634E-17
         7   7 -1.321211E-03 -1.321211E-03  1.132466E-03 -3.927744E-17 -4.425920E-18  1.540033E-17
         7   8 -1.321211E-03 -1.321211E-03  1.132466E-03 -6.610303E-17  2.886922E-17  1.937704E-17
         8   1 -1.321211E-03 -1.321211E-03  1.132466E-03  8.662150E-18  8.079157E-17 -1.640578E-16
         8   2 -1.321211E-03 -1.321211E-03  1.132466E-03 -4.217384E-17  1.387197E-16 -4.858067E-17
         8   3 -1.321211E-03 -1.321211E-03  1.132466E-03 -2.295470E-17  5.725479E-17 -2.286477E-17
         8   4 -1.321211E-03 -1.321211E-03  1.132466E-03 -7.546898E-17  8.215847E-17  3.175681E-18
         8   5 -1.321211E-03 -1.321211E-03  1.132466E-03  1.489890E-16  3.946385E-17 -9.136758E-17
         8   6 -1.321211E-03 -1.321211E-03  1.132466E-03  5.392188E-17  9.955752E-17  5.326596E-18
         8   7 -1.321211E-03 -1.321211E-03  1.132466E-03 -3.464860E-18  6.767849E-19  4.549439E-17
         8   8 -1.321211E-03 -1.321211E-03  1.132466E-03 -9.831540E-17  2.601357E-17  5.716435E-17
         9   1 -1.321211E-03 -1.321211E-03  1.132466E-03 -6.106816E-17 -1.230982E-16  3.545097E-17
         9   2 -1.321211E-03 -1.321211E-03  1.132466E-03 -1.233274E-16 -1.850271E-17  1.115876E-16
         9   3 -1.321211E-03 -1.321211E-03  1.132466E-03  4.590940E-17 -1.347741E-16  6.432763E-18
         9   4 -1.321211E-03 -1.321211E-03  1.132466E-03 -1.634981E-17 -2.693035E-17  2.161627E-17
         9   5 -1.321211E-03 -1.321211E-03  1.132466E-03  4.677561E-17 -7.080189E-17  2.670794E-17
         9   6 -1.321211E-03 -1.321211E-03  1.132466E-03 -9.961473E-18  3.281908E-17  8.433358E-17
         9   7 -1.321211E-03 -1.321211E-03  1.132466E-03  6.583234E-17 -9.722678E-17 -2.743371E-18
         9   8 -1.321211E-03 -1.321211E-03  1.132466E-03  9.961473E-18  8.884564E-18 -5.130255E-18

 displacements (vx,vy,vz) for set NALL and time  0.7417813E+00

         1  0.000000E+00  0.000000E+00  0.000000E+00
         2 -7.510158E-01  0.000000E+00  0.000000E+00
         3 -1.075121E+01  0.000000E+00  0.000000E+00
         4 -1.150223E+01  0.000000E+00  0.000000E+00
         5 -2.150242E+01  0.000000E+00  0.000000E+00
         6 -2.225344E+01  0.000000E+00  0.000000E+00
         7  0.000000E+00 -7.510158E-01  0.000000E+00
         8 -7.510158E-01 -7.510158E-01  0.000000E+00
         9 -1.075121E+01 -7.510158E-01  0.000000E+00
        10 -1.150223E+01 -7.510158E-01  0.000000E+00
        11 -2.150242E+01 -7.510158E-01  0.000000E+00
        12 -2.225344E+01 -7.510158E-01  0.000000E+00
        13  0.000000E+00 -1.075121E+01  0.000000E+00
        14 -7.510158E-01 -1.075121E+01  0.000000E+00
        15 -1.075121E+01 -1.075121E+01  0.000000E+00
        16 -1.150223E+01 -1.075121E+01  0.000000E+00
        17 -2.150242E+01 -1.075121E+01  0.000000E+00
        18 -2.225344E+01 -1.075121E+01  0.000000E+00
        19  0.000000E+00 -1.150223E+01  0.000000E+00
        20 -7.510158E-01 -1.150223E+01  0.000000E+00
        21 -1.075121E+01 -1.150223E+01  0.000000E+00
        22 -1.150223E+01 -1.150223E+01  0.000000E+00
        23 -2.150242E+01 -1.150223E+01  0.000000E+00
        24 -2.225344E+01 -1.150223E+01  0.000000E+00
        25  0.000000E+00 -2.150242E+01  0.000000E+00
        26 -7.510158E-01 -2.150242E+01  0.000000E+00
        27 -1.075121E+01 -2.150242E+01  0.000000E+00
        28 -1.150223E+01 -2.150242E+01  0.000000E+00
        29 -2.150242E+01 -2.150242E+01  0.000000E+00
        30 -2.225344E+01 -2.150242E+01  0.000000E+00
        31  0.000000E+00 -2.225344E+01  0.000000E+00
        32 -7.510158E-01 -2.225344E+01  0.000000E+00
        33 -1.075121E+01 -2.225344E+01  0.000000E+00
        34 -1.150223E+01 -2.225344E+01  0.000000E+00
        35 -2.150242E+01 -2.225344E+01  0.000000E+00
        36 -2.225344E+01 -2.225344E+01  0.000000E+00
        37  0.000000E+00  0.000000E+00  8.999636E-01
        38 -7.510158E-01  0.000000E+00  8.999636E-01
        39 -1.075121E+01  0.000000E+00  8.999636E-01
        40 -1.150223E+01  0.000000E+00  8.999636E-01
        41 -2.150242E+01  0.000000E+00  8.999636E-01
        42 -2.225344E+01  0.000000E+00  8.999636E-01
        43  0.000000E+00 -7.510158E-01  8.999636E-01
        44 -7.510158E-01 -7.510158E-01  8.999636E-01
        45 -1.075121E+01 -7.510158E-01  8.999636E-01
        46 -1.150223E+01 -7.510158E-01  8.999636E-01
        47 -2.150242E+01 -7.510158E-01  8.999636E-01
        48 -2.225344E+01 -7.510158E-01  8.999636E-01
        49  0.000000E+00 -1.075121E+01  8.999636E-01
        50 -7.510158E-01 -1.075121E+01  8.999636E-01
        51 -1.075121E+01 -1.075121E+01  8.999636E-01
        52 -1.150223E+01 -1.075121E+01  8.999636E-01
        53 -2.150242E+01 -1.075121E+01  8.999636E-01
        54 -2.225344E+01 -1.075121E+01  8.999636E-01
        55  0.000000E+00 -1.150223E+01  8.999636E-01
        56 -7.510158E-01 -1.150223E+01  8.999636E-01
        57 -1.075121E+01 -1.150223E+01  8.999636E-01
        58 -1.150223E+01 -1.150223E+01  8.999636E-01
        59 -2.150242E+01 -1.150223E+01  8.999636E-01
        60 -2.225344E+01 -1.150223E+01  8.999636E-01
        61  0.000000E+00 -2.150242E+01  8.999636E-01
        62 -7.510158E-01 -2.150242E+01  8.999636E-01
        63 -1.075121E+01 -2.150242E+01  8.999636E-01
        64 -1.150223E+01 -2.150242E+01  8.999636E-01
        65 -2.150242E+01 -2.150242E+01  8.999636E-01
        66 -2.225344E+01 -2.150242E+01  8.999636E-01
        67  0.000000E+00 -2.225344E+01  8.999636E-01
        68 -7.510158E-01 -2.225344E+01  8.999636E-01
        69 -1.075121E+01 -2.225344E+01  8.999636E-01
        70 -1.150223E+01 -2.225344E+01  8.999636E-01
        71 -2.150242E+01 -2.225344E+01  8.999636E-01
        72 -2.225344E+01 -2.225344E+01  8.999636E-01

 stresses (elem, integ.pnt.,sxx,syy,szz,sxy,sxz,syz) for set EALL and time  0.7417813E+00

         1   1 -4.496929E+02 -4.496929E+02  4.175977E-10 -2.912332E-12 -1.170624E-12  3.129963E-12
         1   2 -4.496929E+02 -4.496929E+02  4.302713E-10 -2.200585E-11 -2.676831E-12  2.656639E-13
         1   3 -4.496929E+02 -4.496929E+02  3.902527E-10  8.234421E-12  3.468724E-13  1.102879E-11
         1   4 -4.496929E+02 -4.496929E+02  4.101192E-10 -1.085910E-11  1.038652E-13 -2.543150E-12
         1   5 -4.496929E+02 -4.496929E+02  4.310134E-10 -7.702538E-12 -2.841832E-12  3.780545E-12
         1   6 -4.496929E+02 -4.496929E+02  4.211943E-10 -2.504410E-11 -4.348039E-12  3.778367E-12
         1   7 -4.496929E+02 -4.496929E+02  4.063514E-10 -1.142355E-11  1.534511E-12  1.167937E-11
         1   8 -4.496929E+02 -4.496929E+02  4.036683E-10 -2.876077E-11  1.282747E-12  9.695537E-13
         2   1 -4.496929E+02 -4.496929E+02  4.292437E-10  2.546527E-12 -7.086114E-13  3.462159E-12
         2   2 -4.496929E+02 -4.496929E+02  4.403187E-10 -3.356943E-11 -7.293889E-12  2.323463E-12
         2   3 -4.496929E+02 -4.496929E+02  3.877979E-10  1.101975E-11  4.812942E-12  7.415953E-12
         2   4 -4.496929E+02 -4.496929E+02  3.875695E-10 -2.508752E-11  6.844570E-12  7.711768E-12
         2   5 -4.496929E+02 -4.496929E+02  4.234778E-10  1.299966E-11 -1.394123E-12  8.976820E-12
         2   6 -4.496929E+02 -4.496929E+02  4.376356E-10 -1.107186E-11 -8.005672E-12  3.279142E-12
         2   7 -4.496929E+02 -4.496929E+02  4.004714E-10  2.346365E-11 -4.179076E-13  1.293061E-11
         2   8 -4.496929E+02 -4.496929E+02  4.031545E-10 -5.383961E-13  1.228412E-12  8.674523E-12
         3   1 -4.496929E+02 -4.496929E+02  4.432873E-10  3.882530E-11  9.170921E-12 -3.014756E-14
         3   2 -4.496929E+02 -4.496929E+02  4.229069E-10  6.677848E-12  2.673214E-12  3.072222E-12
         3   3 -4.496929E+02 -4.496929E+02  4.030974E-10  2.381100E-11 -7.630312E-12 -3.900749E-12
         3   4 -4.496929E+02 -4.496929E+02  3.876837E-10 -8.336456E-12 -1.325260E-12  5.720122E-12
         3   5 -4.496929E+02 -4.496929E+02  4.218222E-10  1.782352E-11  1.039100E-11  3.768550E-12
         3   6 -4.496929E+02 -4.496929E+02  4.151430E-10  3.234718E-12  3.648092E-12  8.815019E-12
         3   7 -4.496929E+02 -4.496929E+02  4.085779E-10  1.186208E-11 -4.739809E-12 -1.020522E-13
         3   8 -4.496929E+02 -4.496929E+02  4.069223E-10 -2.796186E-12  1.425131E-12  1.145638E-11
         4   1 -4.496929E+02 -4.496929E+02  4.174265E-10 -3.841500E-12  4.424241E-13 -6.598398E-12
         4   2 -4.496929E+02 -4.496929E+02  4.225644E-10 -1.927371E-11 -3.523410E-12  6.277585E-12
         4   3 -4.496929E+02 -4.496929E+02  4.046959E-10 -8.843373E-12  2.233699E-13 -1.182053E-13
         4   4 -4.496929E+02 -4.496929E+02  3.912802E-10 -2.427558E-11  3.036562E-12  1.076993E-11
         4   5 -4.496929E+02 -4.496929E+02  4.221648E-10  2.127533E-11  5.620331E-12 -2.328139E-12
         4   6 -4.496929E+02 -4.496929E+02  4.240487E-10  1.525745E-11  1.655044E-12  3.361445E-12
         4   7 -4.496929E+02 -4.496929E+02  4.237632E-10  1.377252E-11 -1.992543E-12  4.011942E-12
         4   8 -4.496929E+02 -4.496929E+02  4.070365E-10  7.754640E-12  8.228383E-13  7.792496E-12
         5   1 -4.496929E+02 -4.496929E+02  4.434015E-10  9.586924E-12  1.004706E-11  1.781577E-11
         5   2 -4.496929E+02 -4.496929E+02  4.249050E-10 -1.675975E-11  1.342582E-12  6.405986E-12
         5   3 -4.496929E+02 -4.496929E+02  3.714708E-10  1.066372E-11  6.808664E-12  3.186202E-11
         5   4 -4.496929E+02 -4.496929E+02  3.623938E-10 -1.566559E-11  1.395439E-11  1.839325E-11
         5   5 -4.496929E+02 -4.496929E+02  4.547619E-10 -1.479721E-11  2.031686E-12  5.406886E-12
         5   6 -4.496929E+02 -4.496929E+02  4.325548E-10 -1.966014E-11 -6.497649E-12 -2.462202E-12
         5   7 -4.496929E+02 -4.496929E+02  4.151430E-10 -1.583927E-11  2.433613E-12  1.952320E-11
         5   8 -4.496929E+02 -4.496929E+02  4.028120E-10 -2.066746E-11  9.544311E-12  9.591844E-12
         6   1 -4.496929E+02 -4.496929E+02  4.044675E-10  2.502673E-11 -6.504500E-12 -8.959983E-12
         6   2 -4.496929E+02 -4.496929E+02  4.163989E-10 -1.788864E-12 -1.442944E-12 -1.499039E-11
         6   3 -4.496929E+02 -4.496929E+02  4.002430E-10  3.233850E-11 -8.678544E-12 -9.590488E-12
         6   4 -4.496929E+02 -4.496929E+02  4.231924E-10  5.245020E-12 -1.112480E-12 -2.108418E-11
         6   5 -4.496929E+02 -4.496929E+02  4.136016E-10  1.014269E-11 -6.008143E-12  5.129444E-12
         6   6 -4.496929E+02 -4.496929E+02  4.134874E-10 -1.319939E-11 -1.401952E-12  3.834049E-12
         6   7 -4.496929E+02 -4.496929E+02  4.142867E-10  9.309042E-12 -3.502896E-12  4.744136E-12
         6   8 -4.496929E+02 -4.496929E+02  4.249621E-10 -1.438039E-11  3.432662E-12 -2.497251E-12
         7   1 -4.496929E+02 -4.496929E+02  4.151430E-10  1.273806E-11  1.551647E-12  1.466032E-12
         7   2 -4.496929E+02 -4.496929E+02  3.864849E-10  1.033807E-11  1.115098E-11 -8.432226E-12
         7   3 -4.496929E+02 -4.496929E+02  4.132591E-10  2.873255E-12  2.237886E-12  8.355272E-13
         7   4 -4.496929E+02 -4.496929E+02  3.915086E-10  4.732675E-13  1.094017E-11 -1.584238E-12
         7   5 -4.496929E+02 -4.496929E+02  4.323835E-10 -3.282479E-12 -3.800913E-12  2.431574E-12
         7   6 -4.496929E+02 -4.496929E+02  4.214797E-10 -6.929679E-12  5.795684E-12 -5.018057E-12
         7   7 -4.496929E+02 -4.496929E+02  4.287299E-10 -1.893070E-12 -3.404310E-13  1.590900E-12
         7   8 -4.496929E+02 -4.496929E+02  4.238774E-10 -5.540269E-12  8.364044E-12  1.935015E-12
         8   1 -4.496929E+02 -4.496929E+02  3.980166E-10 -2.709348E-12  1.207465E-11 -1.832797E-11
         8   2 -4.496929E+02 -4.496929E+02  3.640493E-10 -6.443385E-12  2.656752E-11 -9.211928E-12
         8   3 -4.496929E+02 -4.496929E+02  4.129736E-10 -5.766048E-12  1.234392E-11 -3.195844E-12
         8   4 -4.496929E+02 -4.496929E+02  3.738114E-10 -9.413248E-12  2.470883E-11 -1.313098E-12
         8   5 -4.496929E+02 -4.496929E+02  4.609274E-10  1.250468E-11  6.397523E-13 -1.048684E-11
         8   6 -4.496929E+02 -4.496929E+02  4.115464E-10  5.731313E-12  1.530776E-11 -3.065945E-12
         8   7 -4.496929E+02 -4.496929E+02  4.713745E-10 -1.389409E-12 -1.383781E-12  6.046407E-12
         8   8 -4.496929E+02 -4.496929E+02  4.167985E-10 -8.128044E-12  1.063085E-11  5.108743E-12
         9   1 -4.496929E+02 -4.496929E+02  3.870557E-10 -8.058574E-12 -2.369723E-11  4.766938E-12
         9   2 -4.496929E+02 -4.496929E+02  4.350095E-10 -1.471037E-11 -3.328405E-12  1.840374E-11
         9   3 -4.496929E+02 -4.496929E+02  3.687876E-10  4.932403E-12 -2.963894E-11  5.635698E-13
         9   4 -4.496929E+02 -4.496929E+02  4.121173E-10 -1.997276E-12 -5.819851E-12  3.097561E-12
         9   5 -4.496929E+02 -4.496929E+02  4.206234E-10  5.001873E-12 -1.247419E-11  1.763106E-12
         9   6 -4.496929E+02 -4.496929E+02  4.480827E-10  2.848289E-12  7.947174E-12  1.339591E-11
         9   7 -4.496929E+02 -4.496929E+02  4.089775E-10  3.056700E-12 -2.026445E-11 -2.510318E-12
         9   8 -4.496929E+02 -4.496929E+02  4.318697E-10  1.319939E-12  3.834860E-12 -1.534830E-12

 strains (elem, integ.pnt.,exx,eyy,ezz,exy,exz,eyz) forset EALL and time  0.7417813E+00

         1   1 -1.500904E-03 -1.500904E-03  1.286489E-03 -1.815341E-17 -7.257150E-18  1.935516E-17
         1   2 -1.500904E-03 -1.500904E-03  1.286489E-03 -1.371688E-16 -1.656728E-17  1.686861E-18
         1   3 -1.500904E-03 -1.500904E-03  1.286489E-03  5.132752E-17  2.159171E-18  6.817923E-17
         1   4 -1.500904E-03 -1.500904E-03  1.286489E-03 -6.768792E-17  6.571003E-19 -1.567491E-17
         1   5 -1.500904E-03 -1.500904E-03  1.286489E-03 -4.801214E-17 -1.764495E-17  2.339901E-17
         1   6 -1.500904E-03 -1.500904E-03  1.286489E-03 -1.561071E-16 -2.695508E-17  2.352091E-17
         1   7 -1.500904E-03 -1.500904E-03  1.286489E-03 -7.120628E-17  9.541225E-18  7.222308E-17
         1   8 -1.500904E-03 -1.500904E-03  1.286489E-03 -1.792742E-16  7.985025E-18  6.159137E-18
         2   1 -1.500904E-03 -1.500904E-03  1.286489E-03  1.587324E-17 -4.388806E-18  2.146979E-17
         2   2 -1.500904E-03 -1.500904E-03  1.286489E-03 -2.092480E-16 -4.509358E-17  1.437385E-17
         2   3 -1.500904E-03 -1.500904E-03  1.286489E-03  6.868930E-17  2.968355E-17  4.590889E-17
         2   4 -1.500904E-03 -1.500904E-03  1.286489E-03 -1.563778E-16  4.224141E-17  4.767988E-17
         2   5 -1.500904E-03 -1.500904E-03  1.286489E-03  8.103064E-17 -8.649771E-18  5.574749E-17
         2   6 -1.500904E-03 -1.500904E-03  1.286489E-03 -6.901407E-17 -4.951693E-17  2.031408E-17
         2   7 -1.500904E-03 -1.500904E-03  1.286489E-03  1.462557E-16 -2.830051E-18  8.018659E-17
         2   8 -1.500904E-03 -1.500904E-03  1.286489E-03 -3.355978E-18  7.346141E-18  5.366434E-17
         3   1 -1.500904E-03 -1.500904E-03  1.286489E-03  2.420093E-16  5.669898E-17 -1.383578E-19
         3   2 -1.500904E-03 -1.500904E-03  1.286489E-03  4.162496E-17  1.653550E-17  1.906261E-17
         3   3 -1.500904E-03 -1.500904E-03  1.286489E-03  1.484208E-16 -4.712780E-17 -2.406324E-17
         3   4 -1.500904E-03 -1.500904E-03  1.286489E-03 -5.196354E-17 -8.155146E-18  3.542979E-17
         3   5 -1.500904E-03 -1.500904E-03  1.286489E-03  1.110991E-16  6.427296E-17  2.347336E-17
         3   6 -1.500904E-03 -1.500904E-03  1.286489E-03  2.016293E-17  2.259388E-17  5.475839E-17
         3   7 -1.500904E-03 -1.500904E-03  1.286489E-03  7.393978E-17 -2.916118E-17 -4.515208E-19
         3   8 -1.500904E-03 -1.500904E-03  1.286489E-03 -1.742944E-17  8.945411E-18  7.108480E-17
         4   1 -1.500904E-03 -1.500904E-03  1.286489E-03 -2.394518E-17  2.800047E-18 -4.073185E-17
         4   2 -1.500904E-03 -1.500904E-03  1.286489E-03 -1.201386E-16 -2.171348E-17  3.876348E-17
         4   3 -1.500904E-03 -1.500904E-03  1.286489E-03 -5.512330E-17  1.352771E-18 -6.766222E-19
         4   4 -1.500904E-03 -1.500904E-03  1.286489E-03 -1.513167E-16  1.874161E-17  6.653149E-17
         4   5 -1.500904E-03 -1.500904E-03  1.286489E-03  1.326153E-16  3.498459E-17 -1.418902E-17
         4   6 -1.500904E-03 -1.500904E-03  1.286489E-03  9.510410E-17  1.047444E-17  2.063055E-17
         4   7 -1.500904E-03 -1.500904E-03  1.286489E-03  8.584809E-17 -1.242069E-17  2.500014E-17
         4   8 -1.500904E-03 -1.500904E-03  1.286489E-03  4.833691E-17  4.981680E-18  4.801966E-17
         5   1 -1.500904E-03 -1.500904E-03  1.286489E-03  5.975807E-17  6.200075E-17  1.099646E-16
         5   2 -1.500904E-03 -1.500904E-03  1.286489E-03 -1.044684E-16  8.196836E-18  3.948532E-17
         5   3 -1.500904E-03 -1.500904E-03  1.286489E-03  6.647002E-17  4.203033E-17  1.967870E-16
         5   4 -1.500904E-03 -1.500904E-03  1.286489E-03 -9.764814E-17  8.619934E-17  1.135807E-16
         5   5 -1.500904E-03 -1.500904E-03  1.286489E-03 -9.223528E-17  1.217807E-17  3.283177E-17
         5   6 -1.500904E-03 -1.500904E-03  1.286489E-03 -1.225473E-16 -4.054327E-17 -1.563462E-17
         5   7 -1.500904E-03 -1.500904E-03  1.286489E-03 -9.873072E-17  1.483615E-17  1.200872E-16
         5   8 -1.500904E-03 -1.500904E-03  1.286489E-03 -1.288263E-16  5.878864E-17  5.887344E-17
         6   1 -1.500904E-03 -1.500904E-03  1.286489E-03  1.559989E-16 -4.020268E-17 -5.520140E-17
         6   2 -1.500904E-03 -1.500904E-03  1.286489E-03 -1.115051E-17 -8.916303E-18 -9.242091E-17
         6   3 -1.500904E-03 -1.500904E-03  1.286489E-03  2.015752E-16 -5.358522E-17 -5.909866E-17
         6   4 -1.500904E-03 -1.500904E-03  1.286489E-03  3.269372E-17 -6.818036E-18 -1.300877E-16
         6   5 -1.500904E-03 -1.500904E-03  1.286489E-03  6.322230E-17 -3.712714E-17  3.238330E-17
         6   6 -1.500904E-03 -1.500904E-03  1.286489E-03 -8.227560E-17 -8.655451E-18  2.458508E-17
         6   7 -1.500904E-03 -1.500904E-03  1.286489E-03  5.802595E-17 -2.143411E-17  3.000163E-17
         6   8 -1.500904E-03 -1.500904E-03  1.286489E-03 -8.963710E-17  2.143581E-17 -1.455010E-17
         7   1 -1.500904E-03 -1.500904E-03  1.286489E-03  7.940001E-17  9.523093E-18  9.071315E-18
         7   2 -1.500904E-03 -1.500904E-03  1.286489E-03  6.444020E-17  6.885828E-17 -5.207657E-17
         7   3 -1.500904E-03 -1.500904E-03  1.286489E-03  1.790983E-17  1.379987E-17  5.174050E-18
         7   4 -1.500904E-03 -1.500904E-03  1.286489E-03  2.950013E-18  6.759025E-17 -9.747937E-18
         7   5 -1.500904E-03 -1.500904E-03  1.286489E-03 -2.046064E-17 -2.374704E-17  1.506561E-17
         7   6 -1.500904E-03 -1.500904E-03  1.286489E-03 -4.319469E-17  3.557123E-17 -3.085135E-17
         7   7 -1.500904E-03 -1.500904E-03  1.286489E-03 -1.180005E-17 -2.226200E-18  9.869253E-18
         7   8 -1.500904E-03 -1.500904E-03  1.286489E-03 -3.453410E-17  5.157771E-17  1.212682E-17
         8   1 -1.500904E-03 -1.500904E-03  1.286489E-03 -1.688815E-17  7.448874E-17 -1.131858E-16
         8   2 -1.500904E-03 -1.500904E-03  1.286489E-03 -4.016348E-17  1.640717E-16 -5.686488E-17
         8   3 -1.500904E-03 -1.500904E-03  1.286489E-03 -3.594145E-17  7.612614E-17 -1.965146E-17
         8   4 -1.500904E-03 -1.500904E-03  1.286489E-03 -5.867549E-17  1.525558E-16 -8.040812E-18
         8   5 -1.500904E-03 -1.500904E-03  1.286489E-03  7.794530E-17  3.406314E-18 -6.443772E-17
         8   6 -1.500904E-03 -1.500904E-03  1.286489E-03  3.572493E-17  9.407186E-17 -1.866789E-17
         8   7 -1.500904E-03 -1.500904E-03  1.286489E-03 -8.660589E-18 -9.201712E-18  3.775723E-17
         8   8 -1.500904E-03 -1.500904E-03  1.286489E-03 -5.066445E-17  6.506284E-17  3.186116E-17
         9   1 -1.500904E-03 -1.500904E-03  1.286489E-03 -5.023142E-17 -1.463321E-16  2.942666E-17
         9   2 -1.500904E-03 -1.500904E-03  1.286489E-03 -9.169399E-17 -2.042881E-17  1.136919E-16
         9   3 -1.500904E-03 -1.500904E-03  1.286489E-03  3.074509E-17 -1.830851E-16  3.444892E-18
         9   4 -1.500904E-03 -1.500904E-03  1.286489E-03 -1.244960E-17 -3.585507E-17  1.908172E-17
         9   5 -1.500904E-03 -1.500904E-03  1.286489E-03  3.117812E-17 -7.656539E-17  1.075320E-17
         9   6 -1.500904E-03 -1.500904E-03  1.286489E-03  1.775421E-17  4.966270E-17  8.256029E-17
         9   7 -1.500904E-03 -1.500904E-03  1.286489E-03  1.905330E-17 -1.248157E-16 -1.566160E-17
         9   8 -1.500904E-03 -1.500904E-03  1.286489E-03  8.227560E-18  2.414642E-17 -9.728965E-18

 displacements (vx,vy,vz) for set NALL and time  0.7507813E+00

         1  0.000000E+00  0.000000E+00  0.000000E+00
         2 -8.409868E-01  0.000000E+00  0.000000E+00
         3 -1.084123E+01  0.000000E+00  0.000000E+00
         4 -1.168221E+01  0.000000E+00  0.000000E+00
         5 -2.168245E+01  0.000000E+00  0.000000E+00
         6 -2.252344E+01  0.000000E+00  0.000000E+00
         7  0.000000E+00 -8.409868E-01  0.000000E+00
         8 -8.409868E-01 -8.409868E-01  0.000000E+00
         9 -1.084123E+01 -8.409868E-01  0.000000E+00
        10 -1.168221E+01 -8.409868E-01  0.000000E+00
        11 -2.168245E+01 -8.409868E-01  0.000000E+00
        12 -2.252344E+01 -8.409868E-01  0.000000E+00
        13  0.000000E+00 -1.084123E+01  0.000000E+00
        14 -8.409868E-01 -1.084123E+01  0.000000E+00
        15 -1.084123E+01 -1.084123E+01  0.000000E+00
        16 -1.168221E+01 -1.084123E+01  0.000000E+00
        17 -2.168245E+01 -1.084123E+01  0.000000E+00
        18 -2.252344E+01 -1.084123E+01  0.000000E+00
        19  0.000000E+00 -1.168221E+01  0.000000E+00
        20 -8.409868E-01 -1.168221E+01  0.000000E+00
        21 -1.084123E+01 -1.168221E+01  0.000000E+00
        22 -1.168221E+01 -1.168221E+01  0.000000E+00
        23 -2.168245E+01 -1.168221E+01  0.000000E+00
        24 -2.252344E+01 -1.168221E+01  0.000000E+00
        25  0.000000E+00 -2.168245E+01  0.000000E+00
        26 -8.409868E-01 -2.168245E+01  0.000000E+00
        27 -1.084123E+01 -2.168245E+01  0.000000E+00
        28 -1.168221E+01 -2.168245E+01  0.000000E+00
        29 -2.168245E+01 -2.168245E+01  0.000000E+00
        30 -2.252344E+01 -2.168245E+01  0.000000E+00
        31  0.000000E+00 -2.252344E+01  0.000000E+00
        32 -8.409868E-01 -2.252344E+01  0.000000E+00
        33 -1.084123E+01 -2.252344E+01  0.000000E+00
        34 -1.168221E+01 -2.252344E+01  0.000000E+00
        35 -2.168245E+01 -2.252344E+01  0.000000E+00
        36 -2.252344E+01 -2.252344E+01  0.000000E+00
        37  0.000000E+00  0.000000E+00  1.007610E+00
        38 -8.409868E-01  0.000000E+00  1.007610E+00
        39 -1.084123E+01  0.000000E+00  1.007610E+00
        40 -1.168221E+01  0.000000E+00  1.007610E+00
        41 -2.168245E+01  0.000000E+00  1.007610E+00
        42 -2.252344E+01  0.000000E+00  1.007610E+00
        43  0.000000E+00 -8.409868E-01  1.007610E+00
        44 -8.409868E-01 -8.409868E-01  1.007610E+00
        45 -1.084123E+01 -8.409868E-01  1.007610E+00
        46 -1.168221E+01 -8.409868E-01  1.007610E+00
        47 -2.168245E+01 -8.409868E-01  1.007610E+00
        48 -2.252344E+01 -8.409868E-01  1.007610E+00
        49  0.000000E+00 -1.084123E+01  1.007610E+00
        50 -8.409868E-01 -1.084123E+01  1.007610E+00
        51 -1.084123E+01 -1.084123E+01  1.007610E+00
        52 -1.168221E+01 -1.084123E+01  1.007610E+00
        53 -2.168245E+01 -1.084123E+01  1.007610E+00
        54 -2.252344E+01 -1.084123E+01  1.007610E+00
        55  0.000000E+00 -1.168221E+01  1.007610E+00
        56 -8.409868E-01 -1.168221E+01  1.007610E+00
        57 -1.084123E+01 -1.168221E+01  1.007610E+00
        58 -1.168221E+01 -1.168221E+01  1.007610E+00
        59 -2.168245E+01 -1.168221E+01  1.007610E+00
        60 -2.252344E+01 -1.168221E+01  1.007610E+00
        61  0.000000E+00 -2.168245E+01  1.007610E+00
        62 -8.409868E-01 -2.168245E+01  1.007610E+00
        63 -1.084123E+01 -2.168245E+01  1.007610E+00
        64 -1.168221E+01 -2.168245E+01  1.007610E+00
        65 -2.168245E+01 -2.168245E+01  1.007610E+00
        66 -2.252344E+01 -2.168245E+01  1.007610E+00
        67  0.000000E+00 -2.252344E+01  1.007610E+00
        68 -8.409868E-01 -2.252344E+01  1.007610E+00
        69 -1.084123E+01 -2.252344E+01  1.007610E+00
        70 -1.168221E+01 -2.252344E+01  1.007610E+00
        71 -2.168245E+01 -2.252344E+01  1.007610E+00
        72 -2.252344E+01 -2.252344E+01  1.007610E+00

 stresses (elem, integ.pnt.,sxx,syy,szz,sxy,sxz,syz) for set EALL and time  0.7507813E+00

         1   1 -5.034430E+02 -5.034430E+02  2.677084E-10 -2.759749E-12 -1.166642E-12  2.628803E-12
         1   2 -5.034430E+02 -5.034430E+02  2.809025E-10 -2.008599E-11 -3.672791E-12  9.269550E-13
         1   3 -5.034430E+02 -5.034430E+02  2.425197E-10  7.007269E-12 -4.351101E-13  9.387032E-12
         1   4 -5.034430E+02 -5.034430E+02  2.609115E-10 -1.031897E-11 -3.057837E-12  9.132722E-13
         1   5 -5.034430E+02 -5.034430E+02  2.766187E-10 -6.263384E-12 -1.834466E-12  3.065289E-12
         1   6 -5.034430E+02 -5.034430E+02  2.755335E-10 -2.372192E-11 -4.340615E-12  3.477125E-12
         1   7 -5.034430E+02 -5.034430E+02  2.511444E-10 -5.894695E-12  1.011835E-12  9.832275E-12
         1   8 -5.034430E+02 -5.034430E+02  2.553140E-10 -2.337058E-11 -1.608703E-12  3.463442E-12
         2   1 -5.034430E+02 -5.034430E+02  2.785036E-10  6.160368E-12  2.151337E-12  2.596964E-12
         2   2 -5.034430E+02 -5.034430E+02  2.827874E-10 -2.131351E-11 -3.873492E-12  1.158129E-12
         2   3 -5.034430E+02 -5.034430E+02  2.502877E-10  1.435720E-11  8.717520E-12  4.398720E-12
         2   4 -5.034430E+02 -5.034430E+02  2.437192E-10 -1.303860E-11  1.004859E-11  3.355049E-12
         2   5 -5.034430E+02 -5.034430E+02  2.700502E-10  1.709418E-11 -1.063384E-12  7.904635E-12
         2   6 -5.034430E+02 -5.034430E+02  2.752479E-10  4.727901E-13 -6.974371E-12  2.094388E-12
         2   7 -5.034430E+02 -5.034430E+02  2.571988E-10  2.585164E-11  1.275868E-12  9.697635E-12
         2   8 -5.034430E+02 -5.034430E+02  2.515442E-10  9.264950E-12  2.501851E-12  4.306589E-12
         3   1 -5.034430E+02 -5.034430E+02  2.879279E-10  2.738062E-11  9.495116E-12  3.521288E-13
         3   2 -5.034430E+02 -5.034430E+02  2.682225E-10  3.454838E-12  2.647129E-12  2.735871E-12
         3   3 -5.034430E+02 -5.034430E+02  2.525723E-10  1.328150E-11 -6.505402E-12  1.011094E-12
         3   4 -5.034430E+02 -5.034430E+02  2.384644E-10 -1.064428E-11 -1.111079E-12  7.689055E-12
         3   5 -5.034430E+02 -5.034430E+02  2.753621E-10  7.009438E-12  9.813751E-12  6.423852E-13
         3   6 -5.034430E+02 -5.034430E+02  2.646812E-10 -5.552030E-13  3.421128E-12  5.280031E-12
         3   7 -5.034430E+02 -5.034430E+02  2.651381E-10 -1.162456E-12 -3.585310E-12  1.303540E-12
         3   8 -5.034430E+02 -5.034430E+02  2.600547E-10 -8.796498E-12  2.159294E-12  1.022175E-11
         4   1 -5.034430E+02 -5.034430E+02  2.665661E-10 -6.299169E-12  5.425446E-13 -6.834623E-12
         4   2 -5.034430E+02 -5.034430E+02  2.677655E-10 -1.701611E-11 -3.578179E-12  3.762163E-12
         4   3 -5.034430E+02 -5.034430E+02  2.594264E-10 -1.478336E-11 -4.533258E-13 -1.054991E-12
         4   4 -5.034430E+02 -5.034430E+02  2.468606E-10 -2.550030E-11 -1.834745E-12  1.063642E-11
         4   5 -5.034430E+02 -5.034430E+02  2.700502E-10  1.252677E-11  6.138841E-12 -3.220517E-12
         4   6 -5.034430E+02 -5.034430E+02  2.733059E-10  5.621431E-12  2.020853E-12  2.249712E-12
         4   7 -5.034430E+02 -5.034430E+02  2.686223E-10  5.656131E-12 -3.267448E-13  2.559114E-12
         4   8 -5.034430E+02 -5.034430E+02  2.585125E-10 -1.249207E-12 -1.708164E-12  9.097700E-12
         5   1 -5.034430E+02 -5.034430E+02  2.950104E-10  4.719226E-12  1.130709E-11  1.695752E-11
         5   2 -5.034430E+02 -5.034430E+02  2.767329E-10 -2.052516E-11  6.420672E-12  1.141054E-11
         5   3 -5.034430E+02 -5.034430E+02  2.288116E-10  6.141933E-12  6.884274E-12  2.662527E-11
         5   4 -5.034430E+02 -5.034430E+02  2.188732E-10 -1.909378E-11  7.900088E-12  2.118228E-11
         5   5 -5.034430E+02 -5.034430E+02  3.052915E-10 -1.259617E-11  2.863700E-12  5.774419E-12
         5   6 -5.034430E+02 -5.034430E+02  2.872425E-10 -2.935636E-11 -2.127800E-12  3.452847E-12
         5   7 -5.034430E+02 -5.034430E+02  2.522868E-10 -1.124286E-11  1.667391E-12  1.568736E-11
         5   8 -5.034430E+02 -5.034430E+02  2.416630E-10 -2.793365E-11  3.068514E-12  1.308120E-11
         6   1 -5.034430E+02 -5.034430E+02  2.532578E-10  2.859296E-11 -7.844541E-12 -5.065546E-12
         6   2 -5.034430E+02 -5.034430E+02  2.655380E-10  5.638781E-12 -2.362648E-12 -1.552907E-11
         6   3 -5.034430E+02 -5.034430E+02  2.458896E-10  3.941941E-11  2.032281E-12  3.656444E-12
         6   4 -5.034430E+02 -5.034430E+02  2.700502E-10  1.618764E-11  1.121551E-12 -1.936355E-11
         6   5 -5.034430E+02 -5.034430E+02  2.829587E-10  2.286742E-11 -9.227765E-12  6.064850E-12
         6   6 -5.034430E+02 -5.034430E+02  2.680511E-10 -8.085144E-12 -4.061125E-12  5.713250E-13
         6   7 -5.034430E+02 -5.034430E+02  2.630819E-10  1.554568E-11  5.292832E-12  1.492695E-11
         6   8 -5.034430E+02 -5.034430E+02  2.601118E-10 -1.575389E-11  4.942551E-12 -3.728398E-12
         7   1 -5.034430E+02 -5.034430E+02  2.677655E-10  1.617896E-11  1.774245E-12  2.731534E-12
         7   2 -5.034430E+02 -5.034430E+02  2.353801E-10  1.278268E-11  1.174904E-11 -7.919674E-12
         7   3 -5.034430E+02 -5.034430E+02  2.639958E-10  3.548094E-12  2.838292E-12  1.050187E-12
         7   4 -5.034430E+02 -5.034430E+02  2.375505E-10  1.518133E-13  1.339707E-11 -1.456995E-12
         7   5 -5.034430E+02 -5.034430E+02  2.835299E-10  7.200289E-13 -3.356115E-12  2.887359E-12
         7   6 -5.034430E+02 -5.034430E+02  2.696504E-10 -1.873810E-12  6.618128E-12 -5.095882E-12
         7   7 -5.034430E+02 -5.034430E+02  2.809025E-10 -6.679786E-13  4.041552E-14  1.906573E-12
         7   8 -5.034430E+02 -5.034430E+02  2.721636E-10 -3.279168E-12  1.059043E-11  1.454368E-12
         8   1 -5.034430E+02 -5.034430E+02  2.529150E-10  1.735009E-13  1.511402E-11 -1.325436E-11
         8   2 -5.034430E+02 -5.034430E+02  2.084779E-10  2.541789E-12  3.371393E-11 -5.818209E-12
         8   3 -5.034430E+02 -5.034430E+02  2.675942E-10 -2.741315E-12  1.275983E-11 -2.886054E-12
         8   4 -5.034430E+02 -5.034430E+02  2.227000E-10 -2.862766E-13  2.785693E-11 -2.673507E-13
         8   5 -5.034430E+02 -5.034430E+02  3.151728E-10  8.466846E-12 -7.252961E-13 -9.371165E-12
         8   6 -5.034430E+02 -5.034430E+02  2.594264E-10  5.378529E-12  1.804975E-11 -1.641691E-12
         8   7 -5.034430E+02 -5.034430E+02  3.212844E-10 -2.637214E-12 -2.751140E-12  2.328211E-12
         8   8 -5.034430E+02 -5.034430E+02  2.649097E-10 -5.690831E-12  1.171545E-11  3.292848E-12
         9   1 -5.034430E+02 -5.034430E+02  2.215006E-10 -1.901570E-11 -2.638236E-11 -3.843921E-12
         9   2 -5.034430E+02 -5.034430E+02  2.790747E-10 -2.142737E-11 -3.614119E-12  1.628560E-11
         9   3 -5.034430E+02 -5.034430E+02  2.167027E-10 -2.637214E-12 -3.064662E-11 -9.716195E-13
         9   4 -5.034430E+02 -5.034430E+02  2.641671E-10 -5.326479E-12 -5.846747E-12  3.028567E-12
         9   5 -5.034430E+02 -5.034430E+02  2.736486E-10  6.662436E-12 -1.322645E-11 -4.131784E-12
         9   6 -5.034430E+02 -5.034430E+02  2.992371E-10  6.662436E-12  9.646875E-12  1.165743E-11
         9   7 -5.034430E+02 -5.034430E+02  2.723349E-10  1.665609E-12 -2.144025E-11 -1.609763E-12
         9   8 -5.034430E+02 -5.034430E+02  2.874138E-10  2.151412E-12  3.359619E-12 -1.224117E-12

 strains (elem, integ.pnt.,exx,eyy,ezz,exy,exz,eyz) forset EALL and time  0.7507813E+00

         1   1 -1.680559E-03 -1.680559E-03  1.440479E-03 -1.721658E-17 -7.219552E-18  1.625225E-17
         1   2 -1.680559E-03 -1.680559E-03  1.440479E-03 -1.253056E-16 -2.270771E-17  5.764923E-18
         1   3 -1.680559E-03 -1.680559E-03  1.440479E-03  4.371456E-17 -2.668734E-18  5.801854E-17
         1   4 -1.680559E-03 -1.680559E-03  1.440479E-03 -6.437447E-17 -1.887735E-17  5.680362E-18
         1   5 -1.680559E-03 -1.680559E-03  1.440479E-03 -3.907387E-17 -1.137260E-17  1.896666E-17
         1   6 -1.680559E-03 -1.680559E-03  1.440479E-03 -1.479882E-16 -2.686076E-17  2.162385E-17
         1   7 -1.680559E-03 -1.680559E-03  1.440479E-03 -3.677381E-17  6.329567E-18  6.078706E-17
         1   8 -1.680559E-03 -1.680559E-03  1.440479E-03 -1.457964E-16 -9.865522E-18  2.153929E-17
         2   1 -1.680559E-03 -1.680559E-03  1.440479E-03  3.843120E-17  1.324987E-17  1.612442E-17
         2   2 -1.680559E-03 -1.680559E-03  1.440479E-03 -1.329634E-16 -2.398396E-17  7.170698E-18
         2   3 -1.680559E-03 -1.680559E-03  1.440479E-03  8.956683E-17  5.376755E-17  2.725939E-17
         2   4 -1.680559E-03 -1.680559E-03  1.440479E-03 -8.134075E-17  6.199363E-17  2.074776E-17
         2   5 -1.680559E-03 -1.680559E-03  1.440479E-03  1.066413E-16 -6.741742E-18  4.913161E-17
         2   6 -1.680559E-03 -1.680559E-03  1.440479E-03  2.949482E-18 -4.327202E-17  1.299312E-17
         2   7 -1.680559E-03 -1.680559E-03  1.440479E-03  1.612744E-16  7.484202E-18  6.021246E-17
         2   8 -1.680559E-03 -1.680559E-03  1.440479E-03  5.779902E-17  1.506085E-17  2.666517E-17
         3   1 -1.680559E-03 -1.680559E-03  1.440479E-03  1.708129E-16  5.869001E-17  2.180402E-18
         3   2 -1.680559E-03 -1.680559E-03  1.440479E-03  2.155286E-17  1.636901E-17  1.694359E-17
         3   3 -1.680559E-03 -1.680559E-03  1.440479E-03  8.285608E-17 -4.016275E-17  6.252851E-18
         3   4 -1.680559E-03 -1.680559E-03  1.440479E-03 -6.640393E-17 -6.825485E-18  4.755463E-17
         3   5 -1.680559E-03 -1.680559E-03  1.440479E-03  4.372809E-17  6.068509E-17  3.985525E-18
         3   6 -1.680559E-03 -1.680559E-03  1.440479E-03 -3.463611E-18  2.117827E-17  3.276524E-17
         3   7 -1.680559E-03 -1.680559E-03  1.440479E-03 -7.251936E-18 -2.200336E-17  8.071504E-18
         3   8 -1.680559E-03 -1.680559E-03  1.440479E-03 -5.487659E-17  1.349866E-17  6.330506E-17
         4   1 -1.680559E-03 -1.680559E-03  1.440479E-03 -3.929711E-17  3.432324E-18 -4.218704E-17
         4   2 -1.680559E-03 -1.680559E-03  1.440479E-03 -1.061543E-16 -2.203401E-17  2.322418E-17
         4   3 -1.680559E-03 -1.680559E-03  1.440479E-03 -9.222542E-17 -2.799724E-18 -6.468551E-18
         4   4 -1.680559E-03 -1.680559E-03  1.440479E-03 -1.590826E-16 -1.133698E-17  6.570754E-17
         4   5 -1.680559E-03 -1.680559E-03  1.440479E-03  7.814773E-17  3.823443E-17 -1.971175E-17
         4   6 -1.680559E-03 -1.680559E-03  1.440479E-03  3.506907E-17  1.278500E-17  1.380537E-17
         4   7 -1.680559E-03 -1.680559E-03  1.440479E-03  3.528554E-17 -2.012546E-18  1.600674E-17
         4   8 -1.680559E-03 -1.680559E-03  1.440479E-03 -7.793126E-18 -1.054981E-17  5.612638E-17
         5   1 -1.680559E-03 -1.680559E-03  1.440479E-03  2.944070E-17  6.976166E-17  1.046414E-16
         5   2 -1.680559E-03 -1.680559E-03  1.440479E-03 -1.280454E-16  3.956329E-17  7.040768E-17
         5   3 -1.680559E-03 -1.680559E-03  1.440479E-03  3.831620E-17  4.247548E-17  1.643887E-16
         5   4 -1.680559E-03 -1.680559E-03  1.440479E-03 -1.191158E-16  4.875327E-17  1.307976E-16
         5   5 -1.680559E-03 -1.680559E-03  1.440479E-03 -7.858068E-17  1.726230E-17  3.510037E-17
         5   6 -1.680559E-03 -1.680559E-03  1.440479E-03 -1.831385E-16 -1.358549E-17  2.092743E-17
         5   7 -1.680559E-03 -1.680559E-03  1.440479E-03 -7.013813E-17  1.004373E-17  9.636299E-17
         5   8 -1.680559E-03 -1.680559E-03  1.440479E-03 -1.742630E-16  1.870276E-17  8.043110E-17
         6   1 -1.680559E-03 -1.680559E-03  1.440479E-03  1.783760E-16 -4.850139E-17 -3.114760E-17
         6   2 -1.680559E-03 -1.680559E-03  1.440479E-03  3.517730E-17 -1.462294E-17 -9.574533E-17
         6   3 -1.680559E-03 -1.680559E-03  1.440479E-03  2.459164E-16  1.260575E-17  2.275485E-17
         6   4 -1.680559E-03 -1.680559E-03  1.440479E-03  1.009859E-16  6.977380E-18 -1.194426E-16
         6   5 -1.680559E-03 -1.680559E-03  1.440479E-03  1.426575E-16 -5.710877E-17  3.806978E-17
         6   6 -1.680559E-03 -1.680559E-03  1.440479E-03 -5.043884E-17 -2.517860E-17  4.371851E-18
         6   7 -1.680559E-03 -1.680559E-03  1.440479E-03  9.698112E-17  3.288237E-17  9.283814E-17
         6   8 -1.680559E-03 -1.680559E-03  1.440479E-03 -9.827997E-17  3.071761E-17 -2.220037E-17
         7   1 -1.680559E-03 -1.680559E-03  1.440479E-03  1.009318E-16  1.089222E-17  1.688917E-17
         7   2 -1.680559E-03 -1.680559E-03  1.440479E-03  7.974424E-17  7.253706E-17 -4.890287E-17
         7   3 -1.680559E-03 -1.680559E-03  1.440479E-03  2.213464E-17  1.750112E-17  6.498333E-18
         7   4 -1.680559E-03 -1.680559E-03  1.440479E-03  9.470813E-19  8.275502E-17 -8.963098E-18
         7   5 -1.680559E-03 -1.680559E-03  1.440479E-03  4.491871E-18 -2.101217E-17  1.787448E-17
         7   6 -1.680559E-03 -1.680559E-03  1.440479E-03 -1.168969E-17  4.062929E-17 -3.133896E-17
         7   7 -1.680559E-03 -1.680559E-03  1.440479E-03 -4.167158E-18  1.017715E-19  1.181316E-17
         7   8 -1.680559E-03 -1.680559E-03  1.440479E-03 -2.045696E-17  6.530155E-17  9.141997E-18
         8   1 -1.680559E-03 -1.680559E-03  1.440479E-03  1.082379E-18  9.318257E-17 -8.185097E-17
         8   2 -1.680559E-03 -1.680559E-03  1.440479E-03  1.585685E-17  2.081312E-16 -3.589942E-17
         8   3 -1.680559E-03 -1.680559E-03  1.440479E-03 -1.710158E-17  7.862916E-17 -1.777416E-17
         8   4 -1.680559E-03 -1.680559E-03  1.440479E-03 -1.785925E-18  1.719302E-16 -1.594802E-18
         8   5 -1.680559E-03 -1.680559E-03  1.440479E-03  5.282007E-17 -5.314448E-18 -5.768327E-17
         8   6 -1.680559E-03 -1.680559E-03  1.440479E-03  3.355374E-17  1.107165E-16 -9.932034E-18
         8   7 -1.680559E-03 -1.680559E-03  1.440479E-03 -1.645215E-17 -1.785169E-17  1.461961E-17
         8   8 -1.680559E-03 -1.680559E-03  1.440479E-03 -3.550202E-17  7.155278E-17  2.056424E-17
         9   1 -1.680559E-03 -1.680559E-03  1.440479E-03 -1.186287E-16 -1.628592E-16 -2.376075E-17
         9   2 -1.680559E-03 -1.680559E-03  1.440479E-03 -1.336738E-16 -2.214998E-17  1.005816E-16
         9   3 -1.680559E-03 -1.680559E-03  1.440479E-03 -1.645215E-17 -1.892719E-16 -6.009739E-18
         9   4 -1.680559E-03 -1.680559E-03  1.440479E-03 -3.322902E-17 -3.600707E-17  1.865228E-17
         9   5 -1.680559E-03 -1.680559E-03  1.440479E-03  4.156334E-17 -8.104832E-17 -2.555361E-17
         9   6 -1.680559E-03 -1.680559E-03  1.440479E-03  4.156334E-17  6.031032E-17  7.180408E-17
         9   7 -1.680559E-03 -1.680559E-03  1.440479E-03  1.039083E-17 -1.320304E-16 -9.967359E-18
         9   8 -1.680559E-03 -1.680559E-03  1.440479E-03  1.342149E-17  2.123436E-17 -7.805029E-18

 displacements (vx,vy,vz) for set NALL and time  0.7597813E+00

         1  0.000000E+00  0.000000E+00  0.000000E+00
         2 -9.309554E-01  0.000000E+00  0.000000E+00
         3 -1.093124E+01  0.000000E+00  0.000000E+00
         4 -1.186220E+01  0.000000E+00  0.000000E+00
         5 -2.186248E+01  0.000000E+00  0.000000E+00
         6 -2.279344E+01  0.000000E+00  0.000000E+00
         7  0.000000E+00 -9.309554E-01  0.000000E+00
         8 -9.309554E-01 -9.309554E-01  0.000000E+00
         9 -1.093124E+01 -9.309554E-01  0.000000E+00
        10 -1.186220E+01 -9.309554E-01  0.000000E+00
        11 -2.186248E+01 -9.309554E-01  0.000000E+00
        12 -2.279344E+01 -9.309554E-01  0.000000E+00
        13  0.000000E+00 -1.093124E+01  0.000000E+00
        14 -9.309554E-01 -1.093124E+01  0.000000E+00
        15 -1.093124E+01 -1.093124E+01  0.000000E+00
        16 -1.186220E+01 -1.093124E+01  0.000000E+00
        17 -2.186248E+01 -1.093124E+01  0.000000E+00
        18 -2.279344E+01 -1.093124E+01  0.000000E+00
        19  0.000000E+00 -1.186220E+01  0.000000E+00
        20 -9.309554E-01 -1.186220E+01  0.000000E+00
        21 -1.093124E+01 -1.186220E+01  0.000000E+00
        22 -1.186220E+01 -1.186220E+01  0.000000E+00
        23 -2.186248E+01 -1.186220E+01  0.000000E+00
        24 -2.279344E+01 -1.186220E+01  0.000000E+00
        25  0.000000E+00 -2.186248E+01  0.000000E+00
        26 -9.309554E-01 -2.186248E+01  0.000000E+00
        27 -1.093124E+01 -2.186248E+01  0.000000E+00
        28 -1.186220E+01 -2.186248E+01  0.000000E+00
        29 -2.186248E+01 -2.186248E+01  0.000000E+00
        30 -2.279344E+01 -2.186248E+01  0.000000E+00
        31  0.000000E+00 -2.279344E+01  0.000000E+00
        32 -9.309554E-01 -2.279344E+01  0.000000E+00
        33 -1.093124E+01 -2.279344E+01  0.000000E+00
        34 -1.186220E+01 -2.279344E+01  0.000000E+00
        35 -2.186248E+01 -2.279344E+01  0.000000E+00
        36 -2.279344E+01 -2.279344E+01  0.000000E+00
        37  0.000000E+00  0.000000E+00  1.115218E+00
        38 -9.309554E-01  0.000000E+00  1.115218E+00
        39 -1.093124E+01  0.000000E+00  1.115218E+00
        40 -1.186220E+01  0.000000E+00  1.115218E+00
        41 -2.186248E+01  0.000000E+00  1.115218E+00
        42 -2.279344E+01  0.000000E+00  1.115218E+00
        43  0.000000E+00 -9.309554E-01  1.115218E+00
        44 -9.309554E-01 -9.309554E-01  1.115218E+00
        45 -1.093124E+01 -9.309554E-01  1.115218E+00
        46 -1.186220E+01 -9.309554E-01  1.115218E+00
        47 -2.186248E+01 -9.309554E-01  1.115218E+00
        48 -2.279344E+01 -9.309554E-01  1.115218E+00
        49  0.000000E+00 -1.093124E+01  1.115218E+00
        50 -9.309554E-01 -1.093124E+01  1.115218E+00
        51 -1.093124E+01 -1.093124E+01  1.115218E+00
        52 -1.186220E+01 -1.093124E+01  1.115218E+00
        53 -2.186248E+01 -1.093124E+01  1.115218E+00
        54 -2.279344E+01 -1.093124E+01  1.115218E+00
        55  0.000000E+00 -1.186220E+01  1.115218E+00
        56 -9.309554E-01 -1.186220E+01  1.115218E+00
        57 -1.093124E+01 -1.186220E+01  1.115218E+00
        58 -1.186220E+01 -1.186220E+01  1.115218E+00
        59 -2.186248E+01 -1.186220E+01  1.115218E+00
        60 -2.279344E+01 -1.186220E+01  1.115218E+00
        61  0.000000E+00 -2.186248E+01  1.115218E+00
        62 -9.309554E-01 -2.186248E+01  1.115218E+00
        63 -1.093124E+01 -2.186248E+01  1.115218E+00
        64 -1.186220E+01 -2.186248E+01  1.115218E+00
        65 -2.186248E+01 -2.186248E+01  1.115218E+00
        66 -2.279344E+01 -2.186248E+01  1.115218E+00
        67  0.000000E+00 -2.279344E+01  1.115218E+00
        68 -9.309554E-01 -2.279344E+01  1.115218E+00
        69 -1.093124E+01 -2.279344E+01  1.115218E+00
        70 -1.186220E+01 -2.279344E+01  1.115218E+00
        71 -2.186248E+01 -2.279344E+01  1.115218E+00
        72 -2.279344E+01 -2.279344E+01  1.115218E+00

 stresses (elem, integ.pnt.,sxx,syy,szz,sxy,sxz,syz) for set EALL and time  0.7597813E+00

         1   1 -5.571656E+02 -5.571656E+02  4.217989E-10 -2.483975E-12 -3.712286E-13  2.263175E-12
         1   2 -5.571656E+02 -5.571656E+02  4.289994E-10 -1.733691E-11  6.560790E-13  8.450094E-13
         1   3 -5.571656E+02 -5.571656E+02  4.001975E-10  5.601672E-12  1.977798E-15  8.047186E-12
         1   4 -5.571656E+02 -5.571656E+02  4.129412E-10 -9.251263E-12 -1.578378E-13  5.209998E-13
         1   5 -5.571656E+02 -5.571656E+02  4.361427E-10 -6.179064E-12 -2.425301E-12  2.673336E-12
         1   6 -5.571656E+02 -5.571656E+02  4.305424E-10 -2.268834E-11 -1.397994E-12  3.483778E-12
         1   7 -5.571656E+02 -5.571656E+02  4.120840E-10 -6.560381E-12  1.874301E-13  8.448589E-12
         1   8 -5.571656E+02 -5.571656E+02  4.119126E-10 -2.306966E-11  2.542523E-14  3.159769E-12
         2   1 -5.571656E+02 -5.571656E+02  4.229990E-10  2.287900E-12 -7.928333E-12  3.678730E-12
         2   2 -5.571656E+02 -5.571656E+02  4.475149E-10 -2.417895E-11 -1.492519E-11  1.945877E-13
         2   3 -5.571656E+02 -5.571656E+02  3.941400E-10  1.422138E-11  4.453036E-12  9.167191E-12
         2   4 -5.571656E+02 -5.571656E+02  4.033977E-10 -1.243612E-11  8.621376E-12  2.238260E-12
         2   5 -5.571656E+02 -5.571656E+02  4.193988E-10  2.009712E-11 -5.358288E-12  8.238488E-12
         2   6 -5.571656E+02 -5.571656E+02  4.366571E-10  9.662912E-12 -1.205741E-11 -1.333699E-12
         2   7 -5.571656E+02 -5.571656E+02  4.149985E-10  2.726414E-11  7.872924E-13  1.372695E-11
         2   8 -5.571656E+02 -5.571656E+02  4.169415E-10  1.689926E-11  5.130773E-12  7.252499E-13
         3   1 -5.571656E+02 -5.571656E+02  4.473435E-10  2.708215E-11  1.498534E-11 -6.019570E-14
         3   2 -5.571656E+02 -5.571656E+02  4.222561E-10  3.648508E-12  3.391054E-12  3.824442E-12
         3   3 -5.571656E+02 -5.571656E+02  4.047693E-10  1.185982E-11 -7.809917E-12  2.367687E-12
         3   4 -5.571656E+02 -5.571656E+02  3.876253E-10 -1.141784E-11 -1.504864E-12  1.370509E-11
         3   5 -5.571656E+02 -5.571656E+02  4.288851E-10 -2.625886E-12  1.369972E-11 -2.671701E-12
         3   6 -5.571656E+02 -5.571656E+02  4.195131E-10 -2.071243E-12  2.911076E-12  4.408599E-12
         3   7 -5.571656E+02 -5.571656E+02  4.233419E-10 -8.076981E-12 -5.685906E-12 -2.503856E-13
         3   8 -5.571656E+02 -5.571656E+02  4.220847E-10 -7.037026E-12  6.892032E-13  1.428650E-11
         4   1 -5.571656E+02 -5.571656E+02  4.260849E-10 -8.054232E-12  8.445813E-13 -4.885013E-12
         4   2 -5.571656E+02 -5.571656E+02  4.207132E-10 -1.826420E-11 -2.861279E-12  5.574172E-12
         4   3 -5.571656E+02 -5.571656E+02  4.164843E-10 -2.197229E-11  9.534626E-14 -8.217566E-13
         4   4 -5.571656E+02 -5.571656E+02  3.935114E-10 -3.218226E-11  1.306004E-12  1.457639E-11
         4   5 -5.571656E+02 -5.571656E+02  4.256849E-10  1.184682E-11  6.824624E-12 -2.252913E-12
         4   6 -5.571656E+02 -5.571656E+02  4.315139E-10  8.423633E-12  3.130804E-12  1.063714E-12
         4   7 -5.571656E+02 -5.571656E+02  4.264850E-10  5.537759E-12 -8.493384E-13  1.530119E-12
         4   8 -5.571656E+02 -5.571656E+02  4.147128E-10  2.114574E-12  3.722655E-13  9.759432E-12
         5   1 -5.571656E+02 -5.571656E+02  4.485436E-10  2.513224E-12  1.358310E-11  1.300834E-11
         5   2 -5.571656E+02 -5.571656E+02  4.344283E-10 -2.683950E-11  7.383132E-12  1.196042E-11
         5   3 -5.571656E+02 -5.571656E+02  3.771675E-10  7.002361E-12  3.400489E-12  2.526817E-11
         5   4 -5.571656E+02 -5.571656E+02  3.704242E-10 -2.261035E-11  8.024194E-12  2.348793E-11
         5   5 -5.571656E+02 -5.571656E+02  4.602015E-10 -1.587664E-11  4.948651E-12  2.727920E-12
         5   6 -5.571656E+02 -5.571656E+02  4.451719E-10 -3.029735E-11 -1.356401E-12  4.759014E-12
         5   7 -5.571656E+02 -5.571656E+02  4.120269E-10 -1.206347E-11 -2.372779E-12  1.477758E-11
         5   8 -5.571656E+02 -5.571656E+02  4.041978E-10 -2.641485E-11  2.391038E-12  1.613002E-11
         6   1 -5.571656E+02 -5.571656E+02  4.085981E-10  3.322655E-11 -6.627344E-12 -3.416479E-12
         6   2 -5.571656E+02 -5.571656E+02  4.206560E-10  9.446255E-12 -2.353919E-12 -1.450111E-11
         6   3 -5.571656E+02 -5.571656E+02  3.923113E-10  4.485671E-11  9.284386E-13  8.633177E-12
         6   4 -5.571656E+02 -5.571656E+02  4.190559E-10  2.072976E-11  9.984947E-13 -1.404026E-11
         6   5 -5.571656E+02 -5.571656E+02  4.431718E-10  2.183905E-11 -8.864680E-12  4.481284E-12
         6   6 -5.571656E+02 -5.571656E+02  4.305424E-10 -6.586379E-12 -4.503685E-12 -1.026739E-12
         6   7 -5.571656E+02 -5.571656E+02  4.191131E-10  1.691660E-11  3.977492E-12  1.639083E-11
         6   8 -5.571656E+02 -5.571656E+02  4.201988E-10 -1.185548E-11  4.327773E-12 -7.334545E-13
         7   1 -5.571656E+02 -5.571656E+02  4.235705E-10  2.303608E-11  2.482289E-12  3.761698E-12
         7   2 -5.571656E+02 -5.571656E+02  3.812249E-10  2.290500E-11  1.592103E-11 -1.018934E-11
         7   3 -5.571656E+02 -5.571656E+02  4.221990E-10  6.258144E-12  2.962817E-12  6.792277E-13
         7   4 -5.571656E+02 -5.571656E+02  3.905969E-10  6.127066E-12  1.339680E-11 -1.660000E-12
         7   5 -5.571656E+02 -5.571656E+02  4.445433E-10  7.366345E-14 -4.178992E-12  3.329721E-12
         7   6 -5.571656E+02 -5.571656E+02  4.260278E-10 -4.246482E-12  9.254821E-12 -6.397899E-12
         7   7 -5.571656E+02 -5.571656E+02  4.368285E-10 -1.312943E-12  6.371225E-13  1.368149E-12
         7   8 -5.571656E+02 -5.571656E+02  4.291137E-10 -5.633088E-12  1.105359E-11  2.516745E-12
         8   1 -5.571656E+02 -5.571656E+02  3.982546E-10 -3.501181E-12  1.570413E-11 -1.408976E-11
         8   2 -5.571656E+02 -5.571656E+02  3.500800E-10  1.176015E-11  4.254439E-11 -6.982632E-12
         8   3 -5.571656E+02 -5.571656E+02  4.290566E-10 -1.143950E-12  1.771903E-11 -2.460437E-12
         8   4 -5.571656E+02 -5.571656E+02  3.817963E-10  1.412605E-11  3.057434E-11 -8.319334E-13
         8   5 -5.571656E+02 -5.571656E+02  4.766597E-10  8.596958E-12 -4.636970E-12 -1.083902E-11
         8   6 -5.571656E+02 -5.571656E+02  4.183702E-10  4.437140E-12  2.227334E-11 -3.654929E-12
         8   7 -5.571656E+02 -5.571656E+02  4.790027E-10  3.882497E-12 -2.409352E-12  5.100754E-13
         8   8 -5.571656E+02 -5.571656E+02  4.214561E-10 -2.079909E-13  1.065612E-11  2.207910E-12
         9   1 -5.571656E+02 -5.571656E+02  3.612236E-10 -3.085199E-11 -3.278331E-11 -6.722476E-12
         9   2 -5.571656E+02 -5.571656E+02  4.232276E-10 -2.431761E-11 -4.900963E-12  1.079675E-11
         9   3 -5.571656E+02 -5.571656E+02  3.744244E-10 -1.476736E-11 -2.860760E-11 -9.778725E-13
         9   4 -5.571656E+02 -5.571656E+02  4.212846E-10 -8.579626E-12 -4.998676E-12  2.144815E-12
         9   5 -5.571656E+02 -5.571656E+02  4.299709E-10  4.714461E-12 -1.855230E-11 -4.944395E-12
         9   6 -5.571656E+02 -5.571656E+02  4.626016E-10  4.922452E-12  1.069614E-11  6.252685E-12
         9   7 -5.571656E+02 -5.571656E+02  4.327711E-10  1.386606E-12 -1.920349E-11  4.499275E-13
         9   8 -5.571656E+02 -5.571656E+02  4.505437E-10  1.525267E-12  3.774923E-12 -3.143625E-12

 strains (elem, integ.pnt.,exx,eyy,ezz,exy,exz,eyz) forset EALL and time  0.7597813E+00

         1   1 -1.860177E-03 -1.860177E-03  1.594438E-03 -1.550904E-17 -2.325823E-18  1.399041E-17
         1   2 -1.860177E-03 -1.860177E-03  1.594438E-03 -1.082454E-16  4.021860E-18  5.262453E-18
         1   3 -1.860177E-03 -1.860177E-03  1.594438E-03  3.497482E-17  1.483840E-20  4.972952E-17
         1   4 -1.860177E-03 -1.860177E-03  1.594438E-03 -5.776154E-17 -9.726540E-19  3.260413E-18
         1   5 -1.860177E-03 -1.860177E-03  1.594438E-03 -3.857984E-17 -1.510586E-17  1.654234E-17
         1   6 -1.860177E-03 -1.860177E-03  1.594438E-03 -1.416578E-16 -8.758173E-18  2.168035E-17
         1   7 -1.860177E-03 -1.860177E-03  1.594438E-03 -4.096064E-17  1.168592E-18  5.222734E-17
         1   8 -1.860177E-03 -1.860177E-03  1.594438E-03 -1.440386E-16  1.675719E-19  1.967831E-17
         2   1 -1.860177E-03 -1.860177E-03  1.594438E-03  1.428482E-17 -4.894876E-17  2.280230E-17
         2   2 -1.860177E-03 -1.860177E-03  1.594438E-03 -1.509646E-16 -9.218199E-17  1.178415E-18
         2   3 -1.860177E-03 -1.860177E-03  1.594438E-03  8.879315E-17  2.745974E-17  5.671523E-17
         2   4 -1.860177E-03 -1.860177E-03  1.594438E-03 -7.764667E-17  5.321571E-17  1.380612E-17
         2   5 -1.860177E-03 -1.860177E-03  1.594438E-03  1.254792E-16 -3.295845E-17  5.117221E-17
         2   6 -1.860177E-03 -1.860177E-03  1.594438E-03  6.033173E-17 -7.435197E-17 -8.330232E-18
         2   7 -1.860177E-03 -1.860177E-03  1.594438E-03  1.702275E-16  4.658218E-18  8.508514E-17
         2   8 -1.860177E-03 -1.860177E-03  1.594438E-03  1.055129E-16  3.149637E-17  4.392468E-18
         3   1 -1.860177E-03 -1.860177E-03  1.594438E-03  1.690912E-16  9.258140E-17 -4.127072E-19
         3   2 -1.860177E-03 -1.860177E-03  1.594438E-03  2.277996E-17  2.094086E-17  2.364011E-17
         3   3 -1.860177E-03 -1.860177E-03  1.594438E-03  7.404840E-17 -4.821951E-17  1.458906E-17
         3   4 -1.860177E-03 -1.860177E-03  1.594438E-03 -7.128884E-17 -9.260900E-18  8.469219E-17
         3   5 -1.860177E-03 -1.860177E-03  1.594438E-03 -1.639508E-17  8.460352E-17 -1.666088E-17
         3   6 -1.860177E-03 -1.860177E-03  1.594438E-03 -1.293209E-17  1.794102E-17  2.727454E-17
         3   7 -1.860177E-03 -1.860177E-03  1.594438E-03 -5.042975E-17 -3.499232E-17 -1.699694E-18
         3   8 -1.860177E-03 -1.860177E-03  1.594438E-03 -4.393665E-17  4.399159E-18  8.830978E-17
         4   1 -1.860177E-03 -1.860177E-03  1.594438E-03 -5.028771E-17  5.312535E-18 -3.014742E-17
         4   2 -1.860177E-03 -1.860177E-03  1.594438E-03 -1.140351E-16 -1.758579E-17  3.437069E-17
         4   3 -1.860177E-03 -1.860177E-03  1.594438E-03 -1.371870E-16  5.741816E-19 -5.040759E-18
         4   4 -1.860177E-03 -1.860177E-03  1.594438E-03 -2.009344E-16  8.054775E-18  8.999492E-17
         4   5 -1.860177E-03 -1.860177E-03  1.594438E-03  7.396724E-17  4.251922E-17 -1.378302E-17
         4   6 -1.860177E-03 -1.860177E-03  1.594438E-03  5.259412E-17  1.969529E-17  6.304885E-18
         4   7 -1.860177E-03 -1.860177E-03  1.594438E-03  3.457576E-17 -5.303365E-18  9.592141E-18
         4   8 -1.860177E-03 -1.860177E-03  1.594438E-03  1.320264E-17  2.244865E-18  6.003529E-17
         5   1 -1.860177E-03 -1.860177E-03  1.594438E-03  1.569166E-17  8.379538E-17  8.021785E-17
         5   2 -1.860177E-03 -1.860177E-03  1.594438E-03 -1.675761E-16  4.548608E-17  7.378795E-17
         5   3 -1.860177E-03 -1.860177E-03  1.594438E-03  4.372021E-17  2.092301E-17  1.559707E-16
         5   4 -1.860177E-03 -1.860177E-03  1.594438E-03 -1.411708E-16  4.949265E-17  1.450160E-16
         5   5 -1.860177E-03 -1.860177E-03  1.594438E-03 -9.912801E-17  3.007805E-17  1.625810E-17
         5   6 -1.860177E-03 -1.860177E-03  1.594438E-03 -1.891657E-16 -8.880553E-18  2.897735E-17
         5   7 -1.860177E-03 -1.860177E-03  1.594438E-03 -7.531997E-17 -1.499111E-17  9.071233E-17
         5   8 -1.860177E-03 -1.860177E-03  1.594438E-03 -1.649248E-16  1.444428E-17  9.923802E-17
         6   1 -1.860177E-03 -1.860177E-03  1.594438E-03  2.074546E-16 -4.098485E-17 -2.098647E-17
         6   2 -1.860177E-03 -1.860177E-03  1.594438E-03  5.897900E-17 -1.457957E-17 -8.939112E-17
         6   3 -1.860177E-03 -1.860177E-03  1.594438E-03  2.800691E-16  5.788568E-18  5.346775E-17
         6   4 -1.860177E-03 -1.860177E-03  1.594438E-03  1.294291E-16  6.221442E-18 -8.654370E-17
         6   5 -1.860177E-03 -1.860177E-03  1.594438E-03  1.363551E-16 -5.490511E-17  2.815184E-17
         6   6 -1.860177E-03 -1.860177E-03  1.594438E-03 -4.112297E-17 -2.795874E-17 -5.558491E-18
         6   7 -1.860177E-03 -1.860177E-03  1.594438E-03  1.056211E-16  2.477118E-17  1.017403E-16
         6   8 -1.860177E-03 -1.860177E-03  1.594438E-03 -7.402135E-17  2.693555E-17 -3.745366E-18
         7   1 -1.860177E-03 -1.860177E-03  1.594438E-03  1.438289E-16  1.523356E-17  2.323643E-17
         7   2 -1.860177E-03 -1.860177E-03  1.594438E-03  1.430105E-16  9.827085E-17 -6.289844E-17
         7   3 -1.860177E-03 -1.860177E-03  1.594438E-03  3.907359E-17  1.827064E-17  4.189996E-18
         7   4 -1.860177E-03 -1.860177E-03  1.594438E-03  3.825519E-17  8.274172E-17 -1.019610E-17
         7   5 -1.860177E-03 -1.860177E-03  1.594438E-03  4.599280E-19 -2.621163E-17  2.054875E-17
         7   6 -1.860177E-03 -1.860177E-03  1.594438E-03 -2.651350E-17  5.679523E-17 -3.930437E-17
         7   7 -1.860177E-03 -1.860177E-03  1.594438E-03 -8.197540E-18  3.800629E-18  8.428295E-18
         7   8 -1.860177E-03 -1.860177E-03  1.594438E-03 -3.517096E-17  6.816349E-17  1.577877E-17
         8   1 -1.860177E-03 -1.860177E-03  1.594438E-03 -2.186011E-17  9.671583E-17 -8.700923E-17
         8   2 -1.860177E-03 -1.860177E-03  1.594438E-03  7.342615E-17  2.625604E-16 -4.309107E-17
         8   3 -1.860177E-03 -1.860177E-03  1.594438E-03 -7.142411E-18  1.091696E-16 -1.515224E-17
         8   4 -1.860177E-03 -1.860177E-03  1.594438E-03  8.819795E-17  1.886019E-16 -5.086065E-18
         8   5 -1.860177E-03 -1.860177E-03  1.594438E-03  5.367630E-17 -2.984247E-17 -6.678379E-17
         8   6 -1.860177E-03 -1.860177E-03  1.594438E-03  2.770390E-17  1.364350E-16 -2.238075E-17
         8   7 -1.860177E-03 -1.860177E-03  1.594438E-03  2.424091E-17 -1.606522E-17  3.341699E-18
         8   8 -1.860177E-03 -1.860177E-03  1.594438E-03 -1.298620E-18  6.466567E-17  1.384525E-17
         9   1 -1.860177E-03 -1.860177E-03  1.594438E-03 -1.926287E-16 -2.023321E-16 -4.151971E-17
         9   2 -1.860177E-03 -1.860177E-03  1.594438E-03 -1.518303E-16 -3.004852E-17  6.663937E-17
         9   3 -1.860177E-03 -1.860177E-03  1.594438E-03 -9.220203E-17 -1.766219E-16 -6.024089E-18
         9   4 -1.860177E-03 -1.860177E-03  1.594438E-03 -5.356808E-17 -3.074353E-17  1.317950E-17
         9   5 -1.860177E-03 -1.860177E-03  1.594438E-03  2.943539E-17 -1.137596E-16 -3.048386E-17
         9   6 -1.860177E-03 -1.860177E-03  1.594438E-03  3.073401E-17  6.696504E-17  3.836185E-17
         9   7 -1.860177E-03 -1.860177E-03  1.594438E-03  8.657468E-18 -1.181234E-16  2.847391E-18
         9   8 -1.860177E-03 -1.860177E-03  1.594438E-03  9.523215E-18  2.385906E-17 -1.969710E-17

 displacements (vx,vy,vz) for set NALL and time  0.7687813E+00

         1  0.000000E+00  0.000000E+00  0.000000E+00
         2 -1.020922E+00  0.000000E+00  0.000000E+00
         3 -1.102126E+01  0.000000E+00  0.000000E+00
         4 -1.204218E+01  0.000000E+00  0.000000E+00
         5 -2.204252E+01  0.000000E+00  0.000000E+00
         6 -2.306344E+01  0.000000E+00  0.000000E+00
         7  0.000000E+00 -1.020922E+00  0.000000E+00
         8 -1.020922E+00 -1.020922E+00  0.000000E+00
         9 -1.102126E+01 -1.020922E+00  0.000000E+00
        10 -1.204218E+01 -1.020922E+00  0.000000E+00
        11 -2.204252E+01 -1.020922E+00  0.000000E+00
        12 -2.306344E+01 -1.020922E+00  0.000000E+00
        13  0.000000E+00 -1.102126E+01  0.000000E+00
        14 -1.020922E+00 -1.102126E+01  0.000000E+00
        15 -1.102126E+01 -1.102126E+01  0.000000E+00
        16 -1.204218E+01 -1.102126E+01  0.000000E+00
        17 -2.204252E+01 -1.102126E+01  0.000000E+00
        18 -2.306344E+01 -1.102126E+01  0.000000E+00
        19  0.000000E+00 -1.204218E+01  0.000000E+00
        20 -1.020922E+00 -1.204218E+01  0.000000E+00
        21 -1.102126E+01 -1.204218E+01  0.000000E+00
        22 -1.204218E+01 -1.204218E+01  0.000000E+00
        23 -2.204252E+01 -1.204218E+01  0.000000E+00
        24 -2.306344E+01 -1.204218E+01  0.000000E+00
        25  0.000000E+00 -2.204252E+01  0.000000E+00
        26 -1.020922E+00 -2.204252E+01  0.000000E+00
        27 -1.102126E+01 -2.204252E+01  0.000000E+00
        28 -1.204218E+01 -2.204252E+01  0.000000E+00
        29 -2.204252E+01 -2.204252E+01  0.000000E+00
        30 -2.306344E+01 -2.204252E+01  0.000000E+00
        31  0.000000E+00 -2.306344E+01  0.000000E+00
        32 -1.020922E+00 -2.306344E+01  0.000000E+00
        33 -1.102126E+01 -2.306344E+01  0.000000E+00
        34 -1.204218E+01 -2.306344E+01  0.000000E+00
        35 -2.204252E+01 -2.306344E+01  0.000000E+00
        36 -2.306344E+01 -2.306344E+01  0.000000E+00
        37  0.000000E+00  0.000000E+00  1.222787E+00
        38 -1.020922E+00  0.000000E+00  1.222787E+00
        39 -1.102126E+01  0.000000E+00  1.222787E+00
        40 -1.204218E+01  0.000000E+00  1.222787E+00
        41 -2.204252E+01  0.000000E+00  1.222787E+00
        42 -2.306344E+01  0.000000E+00  1.222787E+00
        43  0.000000E+00 -1.020922E+00  1.222787E+00
        44 -1.020922E+00 -1.020922E+00  1.222787E+00
        45 -1.102126E+01 -1.020922E+00  1.222787E+00
        46 -1.204218E+01 -1.020922E+00  1.222787E+00
        47 -2.204252E+01 -1.020922E+00  1.222787E+00
        48 -2.306344E+01 -1.020922E+00  1.222787E+00
        49  0.000000E+00 -1.102126E+01  1.222787E+00
        50 -1.020922E+00 -1.102126E+01  1.222787E+00
        51 -1.102126E+01 -1.102126E+01  1.222787E+00
        52 -1.204218E+01 -1.102126E+01  1.222787E+00
        53 -2.204252E+01 -1.102126E+01  1.222787E+00
        54 -2.306344E+01 -1.102126E+01  1.222787E+00
        55  0.000000E+00 -1.204218E+01  1.222787E+00
        56 -1.020922E+00 -1.204218E+01  1.222787E+00
        57 -1.102126E+01 -1.204218E+01  1.222787E+00
        58 -1.204218E+01 -1.204218E+01  1.222787E+00
        59 -2.204252E+01 -1.204218E+01  1.222787E+00
        60 -2.306344E+01 -1.204218E+01  1.222787E+00
        61  0.000000E+00 -2.204252E+01  1.222787E+00
        62 -1.020922E+00 -2.204252E+01  1.222787E+00
        63 -1.102126E+01 -2.204252E+01  1.222787E+00
        64 -1.204218E+01 -2.204252E+01  1.222787E+00
        65 -2.204252E+01 -2.204252E+01  1.222787E+00
        66 -2.306344E+01 -2.204252E+01  1.222787E+00
        67  0.000000E+00 -2.306344E+01  1.222787E+00
        68 -1.020922E+00 -2.306344E+01  1.222787E+00
        69 -1.102126E+01 -2.306344E+01  1.222787E+00
        70 -1.204218E+01 -2.306344E+01  1.222787E+00
        71 -2.204252E+01 -2.306344E+01  1.222787E+00
        72 -2.306344E+01 -2.306344E+01  1.222787E+00

 stresses (elem, integ.pnt.,sxx,syy,szz,sxy,sxz,syz) for set EALL and time  0.7687813E+00

         1   1 -6.108606E+02 -6.108606E+02  1.352783E-10 -3.305013E-12  6.866632E-13  1.798819E-12
         1   2 -6.108606E+02 -6.108606E+02  1.339633E-10 -1.441155E-11  4.375557E-12  2.134777E-12
         1   3 -6.108606E+02 -6.108606E+02  1.157813E-10 -1.217466E-12 -4.135207E-13  7.755780E-12
         1   4 -6.108606E+02 -6.108606E+02  1.185258E-10 -1.232400E-11 -1.370225E-12  7.358338E-12
         1   5 -6.108606E+02 -6.108606E+02  1.555186E-10 -6.025643E-12 -1.126817E-12  7.475889E-13
         1   6 -6.108606E+02 -6.108606E+02  1.527742E-10 -2.355282E-11  2.562077E-12  2.724731E-12
         1   7 -6.108606E+02 -6.108606E+02  1.263017E-10 -4.930465E-12 -5.749128E-13  6.704550E-12
         1   8 -6.108606E+02 -6.108606E+02  1.275024E-10 -2.245764E-11 -1.531617E-12  7.948292E-12
         2   1 -6.108606E+02 -6.108606E+02  1.349925E-10 -1.093014E-13 -5.635850E-12  3.148721E-12
         2   2 -6.108606E+02 -6.108606E+02  1.515735E-10 -2.338075E-11 -8.026516E-12  8.634571E-13
         2   3 -6.108606E+02 -6.108606E+02  1.102353E-10  1.131107E-11  6.051814E-12  7.446227E-12
         2   4 -6.108606E+02 -6.108606E+02  1.104068E-10 -1.187381E-11  1.186647E-11  5.419304E-12
         2   5 -6.108606E+02 -6.108606E+02  1.392235E-10  1.928465E-11 -5.922649E-12  7.467050E-12
         2   6 -6.108606E+02 -6.108606E+02  1.564906E-10  6.887067E-12 -8.479698E-12 -1.344784E-12
         2   7 -6.108606E+02 -6.108606E+02  1.305327E-10  3.109786E-11 -8.929383E-13  1.176456E-11
         2   8 -6.108606E+02 -6.108606E+02  1.312188E-10  1.873490E-11  4.536413E-12  3.209977E-12
         3   1 -6.108606E+02 -6.108606E+02  1.531744E-10  2.502135E-11  8.482307E-12 -8.558299E-14
         3   2 -6.108606E+02 -6.108606E+02  1.343063E-10  2.823438E-12  2.545049E-12  3.211921E-12
         3   3 -6.108606E+02 -6.108606E+02  1.154383E-10  1.013364E-11 -1.157408E-11  1.122885E-12
         3   4 -6.108606E+02 -6.108606E+02  1.038316E-10 -1.213353E-11 -1.976390E-12  1.062255E-11
         3   5 -6.108606E+02 -6.108606E+02  1.435688E-10 -1.199068E-12  9.734217E-12 -1.531561E-12
         3   6 -6.108606E+02 -6.108606E+02  1.379084E-10 -2.445753E-12  4.094697E-12  4.596848E-12
         3   7 -6.108606E+02 -6.108606E+02  1.382515E-10 -7.514738E-12 -7.483633E-12 -3.252816E-13
         3   8 -6.108606E+02 -6.108606E+02  1.396809E-10 -8.276601E-12  2.254171E-12  1.200963E-11
         4   1 -6.108606E+02 -6.108606E+02  1.483716E-10 -2.545315E-12  4.996611E-13  7.420711E-13
         4   2 -6.108606E+02 -6.108606E+02  1.339633E-10 -1.668739E-11 -6.429329E-12  7.440027E-12
         4   3 -6.108606E+02 -6.108606E+02  1.230427E-10 -2.602454E-11 -1.112049E-13  5.190636E-12
         4   4 -6.108606E+02 -6.108606E+02  8.679312E-11 -4.016662E-11 -1.002586E-13  2.872834E-11
         4   5 -6.108606E+02 -6.108606E+02  1.427684E-10  1.434120E-11  8.789541E-12 -7.628013E-13
         4   6 -6.108606E+02 -6.108606E+02  1.647240E-10  9.800327E-12  1.855078E-12 -2.640205E-12
         4   7 -6.108606E+02 -6.108606E+02  1.320193E-10  1.482602E-11 -4.448857E-13  3.685764E-12
         4   8 -6.108606E+02 -6.108606E+02  1.317906E-10  1.028515E-11 -4.273716E-13  1.876195E-11
         5   1 -6.108606E+02 -6.108606E+02  1.617508E-10  8.709478E-12  1.656504E-11  9.127415E-12
         5   2 -6.108606E+02 -6.108606E+02  1.439119E-10 -2.406794E-11  8.981458E-12  7.965922E-12
         5   3 -6.108606E+02 -6.108606E+02  9.108131E-11  1.267463E-11  6.676628E-13  2.166746E-11
         5   4 -6.108606E+02 -6.108606E+02  8.553524E-11 -1.996427E-11  4.590807E-12  2.230007E-11
         5   5 -6.108606E+02 -6.108606E+02  1.716422E-10 -2.022400E-11  7.011012E-12  8.480388E-13
         5   6 -6.108606E+02 -6.108606E+02  1.589492E-10 -3.663868E-11 -6.776497E-13  4.663102E-12
         5   7 -6.108606E+02 -6.108606E+02  1.253297E-10 -1.315945E-11 -4.021432E-12  1.349317E-11
         5   8 -6.108606E+02 -6.108606E+02  1.249295E-10 -2.950487E-11  1.469081E-13  1.888889E-11
         6   1 -6.108606E+02 -6.108606E+02  1.208700E-10  3.243112E-11 -9.647416E-12  1.400926E-13
         6   2 -6.108606E+02 -6.108606E+02  1.361931E-10  1.186082E-11 -3.184737E-12 -1.422134E-11
         6   3 -6.108606E+02 -6.108606E+02  1.044605E-10  4.709698E-11  3.506762E-12  1.422138E-11
         6   4 -6.108606E+02 -6.108606E+02  1.357929E-10  2.624964E-11  1.965527E-12 -1.526233E-11
         6   5 -6.108606E+02 -6.108606E+02  1.632946E-10  2.382553E-11 -1.180747E-11  6.447471E-12
         6   6 -6.108606E+02 -6.108606E+02  1.465420E-10 -7.964930E-12 -6.167948E-12 -2.031080E-12
         6   7 -6.108606E+02 -6.108606E+02  1.303612E-10  1.814619E-11  6.935254E-12  2.066887E-11
         6   8 -6.108606E+02 -6.108606E+02  1.291605E-10 -1.399057E-11  5.113794E-12 -2.976871E-12
         7   1 -6.108606E+02 -6.108606E+02  1.313332E-10  3.063901E-11  1.751132E-12  8.513749E-13
         7   2 -6.108606E+02 -6.108606E+02  7.970330E-11  3.184673E-11  1.344722E-11 -2.320983E-11
         7   3 -6.108606E+02 -6.108606E+02  1.375082E-10  8.475725E-12  2.845534E-12  6.412065E-13
         7   4 -6.108606E+02 -6.108606E+02  1.041174E-10  9.683450E-12  1.024521E-11 -3.996929E-12
         7   5 -6.108606E+02 -6.108606E+02  1.555186E-10 -8.099122E-12 -5.151652E-12  2.513012E-12
         7   6 -6.108606E+02 -6.108606E+02  1.445980E-10 -1.281315E-11  6.540061E-12 -1.436439E-11
         7   7 -6.108606E+02 -6.108606E+02  1.525455E-10 -3.389424E-12  3.201024E-12  2.372900E-12
         7   8 -6.108606E+02 -6.108606E+02  1.602071E-10 -8.103451E-12  1.060289E-11  5.006133E-12
         8   1 -6.108606E+02 -6.108606E+02  1.085772E-10 -8.484382E-12  9.888972E-12 -1.352283E-11
         8   2 -6.108606E+02 -6.108606E+02  6.626694E-11  6.683615E-12  3.559958E-11 -9.349299E-12
         8   3 -6.108606E+02 -6.108606E+02  1.429399E-10 -8.899944E-12  1.807758E-11 -2.524018E-12
         8   4 -6.108606E+02 -6.108606E+02  9.748502E-11  6.354629E-12  2.935662E-11 -1.696757E-12
         8   5 -6.108606E+02 -6.108606E+02  1.857075E-10  1.011200E-11 -6.547280E-12 -8.430583E-12
         8   6 -6.108606E+02 -6.108606E+02  1.359644E-10  5.402300E-12  1.905824E-11 -6.054672E-12
         8   7 -6.108606E+02 -6.108606E+02  1.894811E-10  4.571177E-12  1.107129E-13  2.077838E-12
         8   8 -6.108606E+02 -6.108606E+02  1.364790E-10 -6.926026E-14  1.131970E-11  1.664655E-12
         9   1 -6.108606E+02 -6.108606E+02  7.587251E-11 -3.192898E-11 -2.839591E-11 -1.057293E-11
         9   2 -6.108606E+02 -6.108606E+02  1.430543E-10 -2.988580E-11 -3.455925E-12  1.309360E-11
         9   3 -6.108606E+02 -6.108606E+02  8.393432E-11 -1.045830E-11 -2.891735E-11 -1.395578E-12
         9   4 -6.108606E+02 -6.108606E+02  1.355642E-10 -8.692163E-12 -6.079046E-12  2.497612E-12
         9   5 -6.108606E+02 -6.108606E+02  1.437976E-10  6.094903E-12 -1.510149E-11 -7.910819E-12
         9   6 -6.108606E+02 -6.108606E+02  1.719853E-10  5.610081E-12  9.891043E-12  9.231592E-12
         9   7 -6.108606E+02 -6.108606E+02  1.496867E-10  1.662246E-12 -2.140607E-11  6.360300E-13
         9   8 -6.108606E+02 -6.108606E+02  1.627228E-10  1.592986E-12  1.432230E-12 -1.202411E-12

 strains (elem, integ.pnt.,exx,eyy,ezz,exy,exz,eyz) forset EALL and time  0.7687813E+00

         1   1 -2.039759E-03 -2.039759E-03  1.748365E-03 -2.065245E-17  4.210882E-18  1.109497E-17
         1   2 -2.039759E-03 -2.039759E-03  1.748365E-03 -9.005525E-17  2.700026E-17  1.319871E-17
         1   3 -2.039759E-03 -2.039759E-03  1.748365E-03 -7.607731E-18 -2.557738E-18  4.789610E-17
         1   4 -2.039759E-03 -2.039759E-03  1.748365E-03 -7.701052E-17 -8.468100E-18  4.546901E-17
         1   5 -2.039759E-03 -2.039759E-03  1.748365E-03 -3.765320E-17 -7.077729E-18  4.551243E-18
         1   6 -2.039759E-03 -2.039759E-03  1.748365E-03 -1.471775E-16  1.571165E-17  1.687107E-17
         1   7 -2.039759E-03 -2.039759E-03  1.748365E-03 -3.080962E-17 -3.562377E-18  4.135237E-17
         1   8 -2.039759E-03 -2.039759E-03  1.748365E-03 -1.403339E-16 -9.472739E-18  4.914137E-17
         2   1 -2.039759E-03 -2.039759E-03  1.748365E-03 -6.830052E-19 -3.482213E-17  1.952649E-17
         2   2 -2.039759E-03 -2.039759E-03  1.748365E-03 -1.461022E-16 -4.959127E-17  5.296167E-18
         2   3 -2.039759E-03 -2.039759E-03  1.748365E-03  7.068089E-17  3.726986E-17  4.607578E-17
         2   4 -2.039759E-03 -2.039759E-03  1.748365E-03 -7.419735E-17  7.319187E-17  3.344134E-17
         2   5 -2.039759E-03 -2.039759E-03  1.748365E-03  1.205065E-16 -3.660740E-17  4.640737E-17
         2   6 -2.039759E-03 -2.039759E-03  1.748365E-03  4.303609E-17 -5.240443E-17 -8.449711E-18
         2   7 -2.039759E-03 -2.039759E-03  1.748365E-03  1.943251E-16 -5.953479E-18  7.295666E-17
         2   8 -2.039759E-03 -2.039759E-03  1.748365E-03  1.170711E-16  2.758816E-17  1.968865E-17
         3   1 -2.039759E-03 -2.039759E-03  1.748365E-03  1.563541E-16  5.242890E-17 -5.533173E-19
         3   2 -2.039759E-03 -2.039759E-03  1.748365E-03  1.764317E-17  1.574949E-17  1.986630E-17
         3   3 -2.039759E-03 -2.039759E-03  1.748365E-03  6.332337E-17 -7.142775E-17  6.912403E-18
         3   4 -2.039759E-03 -2.039759E-03  1.748365E-03 -7.582034E-17 -1.213478E-17  6.564793E-17
         3   5 -2.039759E-03 -2.039759E-03  1.748365E-03 -7.492770E-18  6.023500E-17 -9.554390E-18
         3   6 -2.039759E-03 -2.039759E-03  1.748365E-03 -1.528309E-17  2.539497E-17  2.848713E-17
         3   7 -2.039759E-03 -2.039759E-03  1.748365E-03 -4.695830E-17 -4.595222E-17 -2.102195E-18
         3   8 -2.039759E-03 -2.039759E-03  1.748365E-03 -5.171905E-17  1.420633E-17  7.428250E-17
         4   1 -2.039759E-03 -2.039759E-03  1.748365E-03 -1.590523E-17  3.229553E-18  4.558359E-18
         4   2 -2.039759E-03 -2.039759E-03  1.748365E-03 -1.042766E-16 -3.957661E-17  4.578902E-17
         4   3 -2.039759E-03 -2.039759E-03  1.748365E-03 -1.626229E-16 -6.925403E-19  3.204086E-17
         4   4 -2.039759E-03 -2.039759E-03  1.748365E-03 -2.509943E-16 -6.249160E-19  1.773047E-16
         4   5 -2.039759E-03 -2.039759E-03  1.748365E-03  8.961569E-17  5.483272E-17 -4.809220E-18
         4   6 -2.039759E-03 -2.039759E-03  1.748365E-03  6.124054E-17  1.199274E-17 -1.696162E-17
         4   7 -2.039759E-03 -2.039759E-03  1.748365E-03  9.264526E-17 -2.769750E-18  2.267329E-17
         4   8 -2.039759E-03 -2.039759E-03  1.748365E-03  6.427011E-17 -2.661552E-18  1.152574E-16
         5   1 -2.039759E-03 -2.039759E-03  1.748365E-03  5.442402E-17  1.021729E-16  5.624705E-17
         5   2 -2.039759E-03 -2.039759E-03  1.748365E-03 -1.503964E-16  5.532285E-17  4.915400E-17
         5   3 -2.039759E-03 -2.039759E-03  1.748365E-03  7.920155E-17  4.044148E-18  1.337174E-16
         5   4 -2.039759E-03 -2.039759E-03  1.748365E-03 -1.247533E-16  2.828069E-17  1.377080E-16
         5   5 -2.039759E-03 -2.039759E-03  1.748365E-03 -1.263762E-16  4.270404E-17  4.714254E-18
         5   6 -2.039759E-03 -2.039759E-03  1.748365E-03 -2.289487E-16 -4.795248E-18  2.859120E-17
         5   7 -2.039759E-03 -2.039759E-03  1.748365E-03 -8.223112E-17 -2.514468E-17  8.283382E-17
         5   8 -2.039759E-03 -2.039759E-03  1.748365E-03 -1.843708E-16  6.066394E-19  1.164756E-16
         6   1 -2.039759E-03 -2.039759E-03  1.748365E-03  2.026564E-16 -5.964858E-17  9.741171E-19
         6   2 -2.039759E-03 -2.039759E-03  1.748365E-03  7.411621E-17 -1.972321E-17 -8.764102E-17
         6   3 -2.039759E-03 -2.039759E-03  1.748365E-03  2.943008E-16  2.172365E-17  8.796598E-17
         6   4 -2.039759E-03 -2.039759E-03  1.748365E-03  1.640294E-16  1.220215E-17 -9.407206E-17
         6   5 -2.039759E-03 -2.039759E-03  1.748365E-03  1.488816E-16 -7.312418E-17  4.023649E-17
         6   6 -2.039759E-03 -2.039759E-03  1.748365E-03 -4.977147E-17 -3.828415E-17 -1.174143E-17
         6   7 -2.039759E-03 -2.039759E-03  1.748365E-03  1.133924E-16  4.306544E-17  1.280939E-16
         6   8 -2.039759E-03 -2.039759E-03  1.748365E-03 -8.742466E-17  3.181276E-17 -1.758396E-17
         7   1 -2.039759E-03 -2.039759E-03  1.748365E-03  1.914578E-16  1.069961E-17  5.289789E-18
         7   2 -2.039759E-03 -2.039759E-03  1.748365E-03  1.990047E-16  8.295615E-17 -1.432319E-16
         7   3 -2.039759E-03 -2.039759E-03  1.748365E-03  5.296333E-17  1.758539E-17  3.991403E-18
         7   4 -2.039759E-03 -2.039759E-03  1.748365E-03  6.051020E-17  6.329940E-17 -2.453781E-17
         7   5 -2.039759E-03 -2.039759E-03  1.748365E-03 -5.061001E-17 -3.226906E-17  1.563650E-17
         7   6 -2.039759E-03 -2.039759E-03  1.748365E-03 -8.006714E-17  3.996043E-17 -8.816316E-17
         7   7 -2.039759E-03 -2.039759E-03  1.748365E-03 -2.117992E-17  1.979836E-17  1.477091E-17
         7   8 -2.039759E-03 -2.039759E-03  1.748365E-03 -5.063706E-17  6.552590E-17  3.150475E-17
         8   1 -2.039759E-03 -2.039759E-03  1.748365E-03 -5.301743E-17  6.080653E-17 -8.346292E-17
         8   2 -2.039759E-03 -2.039759E-03  1.748365E-03  4.176475E-17  2.196424E-16 -5.770314E-17
         8   3 -2.039759E-03 -2.039759E-03  1.748365E-03 -5.561420E-17  1.113710E-16 -1.551405E-17
         8   4 -2.039759E-03 -2.039759E-03  1.748365E-03  3.970897E-17  1.810510E-16 -1.042704E-17
         8   5 -2.039759E-03 -2.039759E-03  1.748365E-03  6.318812E-17 -4.151462E-17 -5.178757E-17
         8   6 -2.039759E-03 -2.039759E-03  1.748365E-03  3.375804E-17  1.166721E-16 -3.719793E-17
         8   7 -2.039759E-03 -2.039759E-03  1.748365E-03  2.856449E-17 -4.697543E-19  1.313174E-17
         8   8 -2.039759E-03 -2.039759E-03  1.748365E-03 -4.327954E-19  6.877750E-17  1.049060E-17
         9   1 -2.039759E-03 -2.039759E-03  1.748365E-03 -1.995187E-16 -1.751926E-16 -6.527808E-17
         9   2 -2.039759E-03 -2.039759E-03  1.748365E-03 -1.867512E-16 -2.111747E-17  8.082643E-17
         9   3 -2.039759E-03 -2.039759E-03  1.748365E-03 -6.535210E-17 -1.785175E-16 -8.581885E-18
         9   4 -2.039759E-03 -2.039759E-03  1.748365E-03 -5.431582E-17 -3.742620E-17  1.536614E-17
         9   5 -2.039759E-03 -2.039759E-03  1.748365E-03  3.808599E-17 -9.242716E-17 -4.872333E-17
         9   6 -2.039759E-03 -2.039759E-03  1.748365E-03  3.505642E-17  6.197258E-17  5.679347E-17
         9   7 -2.039759E-03 -2.039759E-03  1.748365E-03  1.038709E-17 -1.317611E-16  4.077706E-18
         9   8 -2.039759E-03 -2.039759E-03  1.748365E-03  9.954293E-18  9.330235E-18 -7.665890E-18

 displacements (vx,vy,vz) for set NALL and time  0.7777813E+00

         1  0.000000E+00  0.000000E+00  0.000000E+00
         2 -1.110886E+00  0.000000E+00  0.000000E+00
         3 -1.111128E+01  0.000000E+00  0.000000E+00
         4 -1.222216E+01  0.000000E+00  0.000000E+00
         5 -2.222255E+01  0.000000E+00  0.000000E+00
         6 -2.333344E+01  0.000000E+00  0.000000E+00
         7  0.000000E+00 -1.110886E+00  0.000000E+00
         8 -1.110886E+00 -1.110886E+00  0.000000E+00
         9 -1.111128E+01 -1.110886E+00  0.000000E+00
        10 -1.222216E+01 -1.110886E+00  0.000000E+00
        11 -2.222255E+01 -1.110886E+00  0.000000E+00
        12 -2.333344E+01 -1.110886E+00  0.000000E+00
        13  0.000000E+00 -1.111128E+01  0.000000E+00
        14 -1.110886E+00 -1.111128E+01  0.000000E+00
        15 -1.111128E+01 -1.111128E+01  0.000000E+00
        16 -1.222216E+01 -1.111128E+01  0.000000E+00
        17 -2.222255E+01 -1.111128E+01  0.000000E+00
        18 -2.333344E+01 -1.111128E+01  0.000000E+00
        19  0.000000E+00 -1.222216E+01  0.000000E+00
        20 -1.110886E+00 -1.222216E+01  0.000000E+00
        21 -1.111128E+01 -1.222216E+01  0.000000E+00
        22 -1.222216E+01 -1.222216E+01  0.000000E+00
        23 -2.222255E+01 -1.222216E+01  0.000000E+00
        24 -2.333344E+01 -1.222216E+01  0.000000E+00
        25  0.000000E+00 -2.222255E+01  0.000000E+00
        26 -1.110886E+00 -2.222255E+01  0.000000E+00
        27 -1.111128E+01 -2.222255E+01  0.000000E+00
        28 -1.222216E+01 -2.222255E+01  0.000000E+00
        29 -2.222255E+01 -2.222255E+01  0.000000E+00
        30 -2.333344E+01 -2.222255E+01  0.000000E+00
        31  0.000000E+00 -2.333344E+01  0.000000E+00
        32 -1.110886E+00 -2.333344E+01  0.000000E+00
        33 -1.111128E+01 -2.333344E+01  0.000000E+00
        34 -1.222216E+01 -2.333344E+01  0.000000E+00
        35 -2.222255E+01 -2.333344E+01  0.000000E+00
        36 -2.333344E+01 -2.333344E+01  0.000000E+00
        37  0.000000E+00  0.000000E+00  1.330318E+00
        38 -1.110886E+00  0.000000E+00  1.330318E+00
        39 -1.111128E+01  0.000000E+00  1.330318E+00
        40 -1.222216E+01  0.000000E+00  1.330318E+00
        41 -2.222255E+01  0.000000E+00  1.330318E+00
        42 -2.333344E+01  0.000000E+00  1.330318E+00
        43  0.000000E+00 -1.110886E+00  1.330318E+00
        44 -1.110886E+00 -1.110886E+00  1.330318E+00
        45 -1.111128E+01 -1.110886E+00  1.330318E+00
        46 -1.222216E+01 -1.110886E+00  1.330318E+00
        47 -2.222255E+01 -1.110886E+00  1.330318E+00
        48 -2.333344E+01 -1.110886E+00  1.330318E+00
        49  0.000000E+00 -1.111128E+01  1.330318E+00
        50 -1.110886E+00 -1.111128E+01  1.330318E+00
        51 -1.111128E+01 -1.111128E+01  1.330318E+00
        52 -1.222216E+01 -1.111128E+01  1.330318E+00
        53 -2.222255E+01 -1.111128E+01  1.330318E+00
        54 -2.333344E+01 -1.111128E+01  1.330318E+00
        55  0.000000E+00 -1.222216E+01  1.330318E+00
        56 -1.110886E+00 -1.222216E+01  1.330318E+00
        57 -1.111128E+01 -1.222216E+01  1.330318E+00
        58 -1.222216E+01 -1.222216E+01  1.330318E+00
        59 -2.222255E+01 -1.222216E+01  1.330318E+00
        60 -2.333344E+01 -1.222216E+01  1.330318E+00
        61  0.000000E+00 -2.222255E+01  1.330318E+00
        62 -1.110886E+00 -2.222255E+01  1.330318E+00
        63 -1.111128E+01 -2.222255E+01  1.330318E+00
        64 -1.222216E+01 -2.222255E+01  1.330318E+00
        65 -2.222255E+01 -2.222255E+01  1.330318E+00
        66 -2.333344E+01 -2.222255E+01  1.330318E+00
        67  0.000000E+00 -2.333344E+01  1.330318E+00
        68 -1.110886E+00 -2.333344E+01  1.330318E+00
        69 -1.111128E+01 -2.333344E+01  1.330318E+00
        70 -1.222216E+01 -2.333344E+01  1.330318E+00
        71 -2.222255E+01 -2.333344E+01  1.330318E+00
        72 -2.333344E+01 -2.333344E+01  1.330318E+00

 stresses (elem, integ.pnt.,sxx,syy,szz,sxy,sxz,syz) for set EALL and time  0.7777813E+00

         1   1 -6.645284E+02 -6.645284E+02  1.191016E-10 -2.567606E-12  8.458989E-13  9.693619E-13
         1   2 -6.645284E+02 -6.645284E+02  1.153260E-10 -8.067148E-12  3.740093E-12  1.838343E-12
         1   3 -6.645284E+02 -6.645284E+02  1.077749E-10 -4.083305E-12 -7.414632E-13  4.734879E-12
         1   4 -6.645284E+02 -6.645284E+02  1.081181E-10 -9.582847E-12 -3.753877E-12  6.448913E-12
         1   5 -6.645284E+02 -6.645284E+02  1.331741E-10 -5.120077E-12  2.833952E-13 -1.512850E-13
         1   6 -6.645284E+02 -6.645284E+02  1.312291E-10 -1.873758E-11  3.177589E-12  2.252590E-12
         1   7 -6.645284E+02 -6.645284E+02  1.094911E-10 -5.461704E-12  2.614684E-13  3.631747E-12
         1   8 -6.645284E+02 -6.645284E+02  1.113216E-10 -1.907921E-11 -2.755324E-12  6.863160E-12
         2   1 -6.645284E+02 -6.645284E+02  1.147540E-10 -3.097344E-12 -9.614852E-12  2.561627E-12
         2   2 -6.645284E+02 -6.645284E+02  1.393523E-10 -2.008355E-11 -1.406342E-11  1.140718E-12
         2   3 -6.645284E+02 -6.645284E+02  9.576177E-11  4.964399E-12  9.252525E-13  6.808780E-12
         2   4 -6.645284E+02 -6.645284E+02  1.058299E-10 -1.195261E-11  3.648034E-13  7.234476E-12
         2   5 -6.645284E+02 -6.645284E+02  1.141819E-10  1.440887E-11 -4.791056E-12  5.369785E-12
         2   6 -6.645284E+02 -6.645284E+02  1.426702E-10  3.891950E-12 -9.257135E-12 -1.808080E-12
         2   7 -6.645284E+02 -6.645284E+02  1.043426E-10  2.501227E-11 -1.174820E-13  9.634452E-12
         2   8 -6.645284E+02 -6.645284E+02  1.183007E-10  1.452995E-11 -5.027908E-13  4.250700E-12
         3   1 -6.645284E+02 -6.645284E+02  1.378649E-10  2.021760E-11  1.010290E-11  3.468930E-13
         3   2 -6.645284E+02 -6.645284E+02  1.212754E-10  3.300590E-12  2.204065E-12  1.840073E-12
         3   3 -6.645284E+02 -6.645284E+02  1.089190E-10  1.119152E-11 -3.851321E-12  1.931913E-12
         3   4 -6.645284E+02 -6.645284E+02  9.965174E-11 -5.794682E-12 -4.886266E-13  4.716736E-12
         3   5 -6.645284E+02 -6.645284E+02  1.247077E-10  9.297437E-13  8.776440E-12 -2.984421E-13
         3   6 -6.645284E+02 -6.645284E+02  1.106352E-10 -1.976246E-12  1.105293E-12  4.011617E-12
         3   7 -6.645284E+02 -6.645284E+02  1.188727E-10 -6.365501E-12 -2.111484E-12  1.299714E-12
         3   8 -6.645284E+02 -6.645284E+02  1.122369E-10 -8.856350E-12  1.111098E-12  6.870766E-12
         4   1 -6.645284E+02 -6.645284E+02  1.351191E-10  4.120062E-12 -3.384671E-13  2.536400E-12
         4   2 -6.645284E+02 -6.645284E+02  1.248221E-10 -1.310722E-11 -9.408548E-12  6.018906E-12
         4   3 -6.645284E+02 -6.645284E+02  1.065164E-10 -1.627376E-11 -1.715545E-13  5.443729E-12
         4   4 -6.645284E+02 -6.645284E+02  7.722724E-11 -3.350104E-11 -1.174233E-12  2.495158E-11
         4   5 -6.645284E+02 -6.645284E+02  1.219618E-10  1.692998E-11  7.758934E-12  1.685959E-12
         4   6 -6.645284E+02 -6.645284E+02  1.453016E-10  1.082827E-11 -1.280498E-12 -2.465849E-12
         4   7 -6.645284E+02 -6.645284E+02  1.105208E-10  1.879812E-11  3.517048E-13  4.488205E-12
         4   8 -6.645284E+02 -6.645284E+02  1.146395E-10  1.269641E-11 -6.509738E-13  1.658066E-11
         5   1 -6.645284E+02 -6.645284E+02  1.380937E-10  1.165855E-11  9.721333E-12  5.778981E-12
         5   2 -6.645284E+02 -6.645284E+02  1.329453E-10 -1.712458E-11 -1.452621E-12  1.964842E-12
         5   3 -6.645284E+02 -6.645284E+02  8.008750E-11  1.418400E-11 -3.124597E-12  1.807383E-11
         5   4 -6.645284E+02 -6.645284E+02  8.889713E-11 -1.451265E-11 -3.509906E-12  1.467894E-11
         5   5 -6.645284E+02 -6.645284E+02  1.394667E-10 -1.736675E-11  6.071312E-12  5.732723E-13
         5   6 -6.645284E+02 -6.645284E+02  1.362632E-10 -3.120479E-11 -5.102642E-12  2.105901E-12
         5   7 -6.645284E+02 -6.645284E+02  1.038849E-10 -1.342290E-11 -1.306271E-12  1.269298E-11
         5   8 -6.645284E+02 -6.645284E+02  1.146395E-10 -2.750312E-11 -1.866720E-12  1.467226E-11
         6   1 -6.645284E+02 -6.645284E+02  1.076605E-10  2.560039E-11 -3.071643E-12 -1.641309E-12
         6   2 -6.645284E+02 -6.645284E+02  1.259662E-10  1.169315E-11 -2.546222E-12 -1.110808E-11
         6   3 -6.645284E+02 -6.645284E+02  9.999497E-11  4.725693E-11  8.836371E-12  1.177444E-11
         6   4 -6.645284E+02 -6.645284E+02  1.319156E-10  3.321131E-11  2.671431E-12 -1.757516E-11
         6   5 -6.645284E+02 -6.645284E+02  1.374073E-10  2.324792E-11 -8.856126E-12  3.717594E-12
         6   6 -6.645284E+02 -6.645284E+02  1.148684E-10 -4.151414E-13 -8.173079E-12 -7.174507E-13
         6   7 -6.645284E+02 -6.645284E+02  1.139531E-10  1.785108E-11  8.759035E-12  1.716837E-11
         6   8 -6.645284E+02 -6.645284E+02  1.045714E-10 -6.157931E-12  1.963590E-12 -6.974286E-12
         7   1 -6.645284E+02 -6.645284E+02  1.141819E-10  2.355495E-11  1.849147E-12  1.754611E-12
         7   2 -6.645284E+02 -6.645284E+02  7.070582E-11  2.553552E-11  1.435307E-11 -1.876790E-11
         7   3 -6.645284E+02 -6.645284E+02  1.189871E-10  6.810913E-12  2.295311E-12  5.636567E-13
         7   4 -6.645284E+02 -6.645284E+02  9.255827E-11  8.791484E-12  9.239626E-12 -2.760071E-12
         7   5 -6.645284E+02 -6.645284E+02  1.385514E-10 -1.068124E-11 -5.607306E-12  1.904634E-12
         7   6 -6.645284E+02 -6.645284E+02  1.296273E-10 -1.639808E-11  6.894431E-12 -1.128681E-11
         7   7 -6.645284E+02 -6.645284E+02  1.315723E-10 -4.315741E-12  1.628174E-12  1.344185E-12
         7   8 -6.645284E+02 -6.645284E+02  1.400387E-10 -1.003258E-11  8.550596E-12  4.545874E-12
         8   1 -6.645284E+02 -6.645284E+02  1.010247E-10 -1.024015E-11  7.264140E-12 -9.118865E-12
         8   2 -6.645284E+02 -6.645284E+02  6.315472E-11 -2.819502E-12  3.104820E-11 -5.951195E-12
         8   3 -6.645284E+02 -6.645284E+02  1.243645E-10 -1.065530E-11  1.845215E-11 -7.821840E-13
         8   4 -6.645284E+02 -6.645284E+02  7.768488E-11 -3.494107E-12  3.144756E-11 -1.573776E-12
         8   5 -6.645284E+02 -6.645284E+02  1.662388E-10  1.176234E-11 -7.273458E-12 -4.370287E-12
         8   6 -6.645284E+02 -6.645284E+02  1.224195E-10  5.535218E-12  1.637049E-11 -5.401385E-12
         8   7 -6.645284E+02 -6.645284E+02  1.681838E-10  7.334164E-12  3.648194E-13  3.405945E-12
         8   8 -6.645284E+02 -6.645284E+02  1.156692E-10  8.648779E-13  1.357040E-11  1.241853E-13
         9   1 -6.645284E+02 -6.645284E+02  7.036259E-11 -2.726095E-11 -2.469318E-11 -7.575937E-12
         9   2 -6.645284E+02 -6.645284E+02  1.436999E-10 -3.521783E-11 -3.291031E-12  1.979400E-11
         9   3 -6.645284E+02 -6.645284E+02  5.915034E-11  1.245424E-12 -3.303327E-11 -1.691221E-12
         9   4 -6.645284E+02 -6.645284E+02  1.194448E-10 -6.849833E-12 -7.182554E-12  4.040164E-12
         9   5 -6.645284E+02 -6.645284E+02  1.249365E-10  3.597892E-12 -1.237553E-11 -6.414316E-12
         9   6 -6.645284E+02 -6.645284E+02  1.535392E-10  1.798946E-12  8.798942E-12  1.537944E-11
         9   7 -6.645284E+02 -6.645284E+02  1.250509E-10  2.214087E-12 -2.606520E-11 -9.499374E-13
         9   8 -6.645284E+02 -6.645284E+02  1.416405E-10  8.302828E-13  2.759079E-13 -1.862445E-13

 strains (elem, integ.pnt.,exx,eyy,ezz,exy,exz,eyz) forset EALL and time  0.7777813E+00

         1   1 -2.219304E-03 -2.219304E-03  1.902261E-03 -1.605787E-17  5.214401E-18  5.966293E-18
         1   2 -2.219304E-03 -2.219304E-03  1.902261E-03 -5.045214E-17  2.309104E-17  1.136274E-17
         1   3 -2.219304E-03 -2.219304E-03  1.902261E-03 -2.553708E-17 -4.561303E-18  2.922485E-17
         1   4 -2.219304E-03 -2.219304E-03  1.902261E-03 -5.993135E-17 -2.316815E-17  3.984095E-17
         1   5 -2.219304E-03 -2.219304E-03  1.902261E-03 -3.202108E-17  1.711204E-18 -1.012944E-18
         1   6 -2.219304E-03 -2.219304E-03  1.902261E-03 -1.171853E-16  1.958784E-17  1.394261E-17
         1   7 -2.219304E-03 -2.219304E-03  1.902261E-03 -3.415762E-17  1.684596E-18  2.235379E-17
         1   8 -2.219304E-03 -2.219304E-03  1.902261E-03 -1.193218E-16 -1.694929E-17  4.242082E-17
         2   1 -2.219304E-03 -2.219304E-03  1.902261E-03 -1.937086E-17 -5.929779E-17  1.587419E-17
         2   2 -2.219304E-03 -2.219304E-03  1.902261E-03 -1.256030E-16 -8.677534E-17  6.990257E-18
         2   3 -2.219304E-03 -2.219304E-03  1.902261E-03  3.104747E-17  5.697856E-18  4.210768E-17
         2   4 -2.219304E-03 -2.219304E-03  1.902261E-03 -7.475192E-17  2.236118E-18  4.463010E-17
         2   5 -2.219304E-03 -2.219304E-03  1.902261E-03  9.011338E-17 -2.925584E-17  3.336302E-17
         2   6 -2.219304E-03 -2.219304E-03  1.902261E-03  2.434035E-17 -5.684157E-17 -1.137429E-17
         2   7 -2.219304E-03 -2.219304E-03  1.902261E-03  1.564273E-16 -7.889876E-19  5.970469E-17
         2   8 -2.219304E-03 -2.219304E-03  1.902261E-03  9.087064E-17 -3.168933E-18  2.604889E-17
         3   1 -2.219304E-03 -2.219304E-03  1.902261E-03  1.264414E-16  6.238204E-17  2.130396E-18
         3   2 -2.219304E-03 -2.219304E-03  1.902261E-03  2.064197E-17  1.359316E-17  1.140621E-17
         3   3 -2.219304E-03 -2.219304E-03  1.902261E-03  6.999203E-17 -2.375621E-17  1.192063E-17
         3   4 -2.219304E-03 -2.219304E-03  1.902261E-03 -3.624008E-17 -2.985775E-18  2.917478E-17
         3   5 -2.219304E-03 -2.219304E-03  1.902261E-03  5.814639E-18  5.413181E-17 -1.888887E-18
         3   6 -2.219304E-03 -2.219304E-03  1.902261E-03 -1.235949E-17  6.749258E-18  2.493007E-17
         3   7 -2.219304E-03 -2.219304E-03  1.902261E-03 -3.980999E-17 -1.292074E-17  7.982477E-18
         3   8 -2.219304E-03 -2.219304E-03  1.902261E-03 -5.538782E-17  6.984260E-18  4.259046E-17
         4   1 -2.219304E-03 -2.219304E-03  1.902261E-03  2.576696E-17 -1.938750E-18  1.565125E-17
         4   2 -2.219304E-03 -2.219304E-03  1.902261E-03 -8.197289E-17 -5.796212E-17  3.702006E-17
         4   3 -2.219304E-03 -2.219304E-03  1.902261E-03 -1.017765E-16 -1.049832E-18  3.360902E-17
         4   4 -2.219304E-03 -2.219304E-03  1.902261E-03 -2.095163E-16 -7.243099E-18  1.539619E-16
         4   5 -2.219304E-03 -2.219304E-03  1.902261E-03  1.058805E-16  4.849122E-17  1.035661E-17
         4   6 -2.219304E-03 -2.219304E-03  1.902261E-03  6.772026E-17 -7.342841E-18 -1.581782E-17
         4   7 -2.219304E-03 -2.219304E-03  1.902261E-03  1.175639E-16  2.208956E-18  2.766531E-17
         4   8 -2.219304E-03 -2.219304E-03  1.902261E-03  7.940363E-17 -3.984311E-18  1.018272E-16
         5   1 -2.219304E-03 -2.219304E-03  1.902261E-03  7.291287E-17  5.997885E-17  3.559481E-17
         5   2 -2.219304E-03 -2.219304E-03  1.902261E-03 -1.070975E-16 -9.039561E-18  1.213645E-17
         5   3 -2.219304E-03 -2.219304E-03  1.902261E-03  8.870705E-17 -1.926609E-17  1.115367E-16
         5   4 -2.219304E-03 -2.219304E-03  1.902261E-03 -9.076246E-17 -2.164604E-17  9.066786E-17
         5   5 -2.219304E-03 -2.219304E-03  1.902261E-03 -1.086120E-16  3.725059E-17  3.165401E-18
         5   6 -2.219304E-03 -2.219304E-03  1.902261E-03 -1.951555E-16 -3.176782E-17  1.300957E-17
         5   7 -2.219304E-03 -2.219304E-03  1.902261E-03 -8.394716E-17 -7.941806E-18  7.802550E-17
         5   8 -2.219304E-03 -2.219304E-03  1.902261E-03 -1.720051E-16 -1.140354E-17  9.062802E-17
         6   1 -2.219304E-03 -2.219304E-03  1.902261E-03  1.601054E-16 -1.907962E-17 -1.003733E-17
         6   2 -2.219304E-03 -2.219304E-03  1.902261E-03  7.312923E-17 -1.583424E-17 -6.841068E-17
         6   3 -2.219304E-03 -2.219304E-03  1.902261E-03  2.955459E-16  5.457312E-17  7.282804E-17
         6   4 -2.219304E-03 -2.219304E-03  1.902261E-03  2.077043E-16  1.649400E-17 -1.083558E-16
         6   5 -2.219304E-03 -2.219304E-03  1.902261E-03  1.453930E-16 -5.510101E-17  2.333898E-17
         6   6 -2.219304E-03 -2.219304E-03  1.902261E-03 -2.596304E-18 -5.088202E-17 -3.680408E-18
         6   7 -2.219304E-03 -2.219304E-03  1.902261E-03  1.116411E-16  5.407715E-17  1.064207E-16
         6   8 -2.219304E-03 -2.219304E-03  1.902261E-03 -3.851184E-17  1.210357E-17 -4.232781E-17
         7   1 -2.219304E-03 -2.219304E-03  1.902261E-03  1.473132E-16  1.128218E-17  1.085224E-17
         7   2 -2.219304E-03 -2.219304E-03  1.902261E-03  1.596997E-16  8.851546E-17 -1.157822E-16
         7   3 -2.219304E-03 -2.219304E-03  1.902261E-03  4.259561E-17  1.416546E-17  3.496046E-18
         7   4 -2.219304E-03 -2.219304E-03  1.902261E-03  5.498215E-17  5.705856E-17 -1.690630E-17
         7   5 -2.219304E-03 -2.219304E-03  1.902261E-03 -6.680074E-17 -3.515549E-17  1.181881E-17
         7   6 -2.219304E-03 -2.219304E-03  1.902261E-03 -1.025540E-16  4.206427E-17 -6.918565E-17
         7   7 -2.219304E-03 -2.219304E-03  1.902261E-03 -2.699074E-17  1.001039E-17  8.357071E-18
         7   8 -2.219304E-03 -2.219304E-03  1.902261E-03 -6.274401E-17  5.276827E-17  2.860846E-17
         8   1 -2.219304E-03 -2.219304E-03  1.902261E-03 -6.404216E-17  4.459517E-17 -5.623572E-17
         8   2 -2.219304E-03 -2.219304E-03  1.902261E-03 -1.763323E-17  1.915027E-16 -3.673541E-17
         8   3 -2.219304E-03 -2.219304E-03  1.902261E-03 -6.663847E-17  1.136348E-16 -4.742354E-18
         8   4 -2.219304E-03 -2.219304E-03  1.902261E-03 -2.185223E-17  1.939039E-16 -9.697363E-18
         8   5 -2.219304E-03 -2.219304E-03  1.902261E-03  7.356195E-17 -4.594661E-17 -2.666222E-17
         8   6 -2.219304E-03 -2.219304E-03  1.902261E-03  3.461739E-17  1.000955E-16 -3.327543E-17
         8   7 -2.219304E-03 -2.219304E-03  1.902261E-03  4.586804E-17  9.893862E-19  2.136941E-17
         8   8 -2.219304E-03 -2.219304E-03  1.902261E-03  5.408967E-18  8.255660E-17  8.558148E-19
         9   1 -2.219304E-03 -2.219304E-03  1.902261E-03 -1.704906E-16 -1.522989E-16 -4.678063E-17
         9   2 -2.219304E-03 -2.219304E-03  1.902261E-03 -2.202531E-16 -2.010378E-17  1.221825E-16
         9   3 -2.219304E-03 -2.219304E-03  1.902261E-03  7.788912E-18 -2.039067E-16 -1.043238E-17
         9   4 -2.219304E-03 -2.219304E-03  1.902261E-03 -4.283902E-17 -4.423396E-17  2.487497E-17
         9   5 -2.219304E-03 -2.219304E-03  1.902261E-03  2.250130E-17 -7.560414E-17 -3.956771E-17
         9   6 -2.219304E-03 -2.219304E-03  1.902261E-03  1.125065E-17  5.518467E-17  9.469729E-17
         9   7 -2.219304E-03 -2.219304E-03  1.902261E-03  1.384695E-17 -1.605105E-16 -5.815762E-18
         9   8 -2.219304E-03 -2.219304E-03  1.902261E-03  5.192608E-18  2.191253E-18 -1.446534E-18

 displacements (vx,vy,vz) for set NALL and time  0.7867813E+00

         1  0.000000E+00  0.000000E+00  0.000000E+00
         2 -1.200849E+00  0.000000E+00  0.000000E+00
         3 -1.120129E+01  0.000000E+00  0.000000E+00
         4 -1.240214E+01  0.000000E+00  0.000000E+00
         5 -2.240259E+01  0.000000E+00  0.000000E+00
         6 -2.360344E+01  0.000000E+00  0.000000E+00
         7  0.000000E+00 -1.200849E+00  0.000000E+00
         8 -1.200849E+00 -1.200849E+00  0.000000E+00
         9 -1.120129E+01 -1.200849E+00  0.000000E+00
        10 -1.240214E+01 -1.200849E+00  0.000000E+00
        11 -2.240259E+01 -1.200849E+00  0.000000E+00
        12 -2.360344E+01 -1.200849E+00  0.000000E+00
        13  0.000000E+00 -1.120129E+01  0.000000E+00
        14 -1.200849E+00 -1.120129E+01  0.000000E+00
        15 -1.120129E+01 -1.120129E+01  0.000000E+00
        16 -1.240214E+01 -1.120129E+01  0.000000E+00
        17 -2.240259E+01 -1.120129E+01  0.000000E+00
        18 -2.360344E+01 -1.120129E+01  0.000000E+00
        19  0.000000E+00 -1.240214E+01  0.000000E+00
        20 -1.200849E+00 -1.240214E+01  0.000000E+00
        21 -1.120129E+01 -1.240214E+01  0.000000E+00
        22 -1.240214E+01 -1.240214E+01  0.000000E+00
        23 -2.240259E+01 -1.240214E+01  0.000000E+00
        24 -2.360344E+01 -1.240214E+01  0.000000E+00
        25  0.000000E+00 -2.240259E+01  0.000000E+00
        26 -1.200849E+00 -2.240259E+01  0.000000E+00
        27 -1.120129E+01 -2.240259E+01  0.000000E+00
        28 -1.240214E+01 -2.240259E+01  0.000000E+00
        29 -2.240259E+01 -2.240259E+01  0.000000E+00
        30 -2.360344E+01 -2.240259E+01  0.000000E+00
        31  0.000000E+00 -2.360344E+01  0.000000E+00
        32 -1.200849E+00 -2.360344E+01  0.000000E+00
        33 -1.120129E+01 -2.360344E+01  0.000000E+00
        34 -1.240214E+01 -2.360344E+01  0.000000E+00
        35 -2.240259E+01 -2.360344E+01  0.000000E+00
        36 -2.360344E+01 -2.360344E+01  0.000000E+00
        37  0.000000E+00  0.000000E+00  1.437812E+00
        38 -1.200849E+00  0.000000E+00  1.437812E+00
        39 -1.120129E+01  0.000000E+00  1.437812E+00
        40 -1.240214E+01  0.000000E+00  1.437812E+00
        41 -2.240259E+01  0.000000E+00  1.437812E+00
        42 -2.360344E+01  0.000000E+00  1.437812E+00
        43  0.000000E+00 -1.200849E+00  1.437812E+00
        44 -1.200849E+00 -1.200849E+00  1.437812E+00
        45 -1.120129E+01 -1.200849E+00  1.437812E+00
        46 -1.240214E+01 -1.200849E+00  1.437812E+00
        47 -2.240259E+01 -1.200849E+00  1.437812E+00
        48 -2.360344E+01 -1.200849E+00  1.437812E+00
        49  0.000000E+00 -1.120129E+01  1.437812E+00
        50 -1.200849E+00 -1.120129E+01  1.437812E+00
        51 -1.120129E+01 -1.120129E+01  1.437812E+00
        52 -1.240214E+01 -1.120129E+01  1.437812E+00
        53 -2.240259E+01 -1.120129E+01  1.437812E+00
        54 -2.360344E+01 -1.120129E+01  1.437812E+00
        55  0.000000E+00 -1.240214E+01  1.437812E+00
        56 -1.200849E+00 -1.240214E+01  1.437812E+00
        57 -1.120129E+01 -1.240214E+01  1.437812E+00
        58 -1.240214E+01 -1.240214E+01  1.437812E+00
        59 -2.240259E+01 -1.240214E+01  1.437812E+00
        60 -2.360344E+01 -1.240214E+01  1.437812E+00
        61  0.000000E+00 -2.240259E+01  1.437812E+00
        62 -1.200849E+00 -2.240259E+01  1.437812E+00
        63 -1.120129E+01 -2.240259E+01  1.437812E+00
        64 -1.240214E+01 -2.240259E+01  1.437812E+00
        65 -2.240259E+01 -2.240259E+01  1.437812E+00
        66 -2.360344E+01 -2.240259E+01  1.437812E+00
        67  0.000000E+00 -2.360344E+01  1.437812E+00
        68 -1.200849E+00 -2.360344E+01  1.437812E+00
        69 -1.120129E+01 -2.360344E+01  1.437812E+00
        70 -1.240214E+01 -2.360344E+01  1.437812E+00
        71 -2.240259E+01 -2.360344E+01  1.437812E+00
        72 -2.360344E+01 -2.360344E+01  1.437812E+00

 stresses (elem, integ.pnt.,sxx,syy,szz,sxy,sxz,syz) for set EALL and time  0.7867813E+00

         1   1 -7.181690E+02 -7.181690E+02  3.171951E-10 -3.518651E-12  2.589788E-13  1.140340E-12
         1   2 -7.181690E+02 -7.181690E+02  3.161649E-10 -1.199236E-11  6.694640E-13  2.588114E-12
         1   3 -7.181690E+02 -7.181690E+02  3.010549E-10 -4.663455E-12 -6.861214E-13  5.453171E-12
         1   4 -7.181690E+02 -7.181690E+02  2.973919E-10 -1.313716E-11 -1.745721E-12  1.193076E-11
         1   5 -7.181690E+02 -7.181690E+02  3.272684E-10 -1.732325E-12  5.292393E-13 -4.967800E-14
         1   6 -7.181690E+02 -7.181690E+02  3.367694E-10 -1.229476E-11  9.397245E-13  3.301316E-13
         1   7 -7.181690E+02 -7.181690E+02  3.079230E-10  4.099693E-12 -1.488165E-12  4.245639E-12
         1   8 -7.181690E+02 -7.181690E+02  3.147912E-10 -6.462740E-12 -2.569657E-12  9.672775E-12
         2   1 -7.181690E+02 -7.181690E+02  3.151346E-10 -5.616018E-14 -5.801741E-12  2.547903E-12
         2   2 -7.181690E+02 -7.181690E+02  3.382575E-10 -1.954806E-11 -1.278984E-11  2.153582E-12
         2   3 -7.181690E+02 -7.181690E+02  2.861738E-10  8.091386E-12 -3.574421E-12  9.282049E-12
         2   4 -7.181690E+02 -7.181690E+02  3.009404E-10 -1.159060E-11 -3.119056E-12  1.095986E-11
         2   5 -7.181690E+02 -7.181690E+02  3.143333E-10  5.287697E-12 -1.645397E-12  2.792009E-12
         2   6 -7.181690E+02 -7.181690E+02  3.419205E-10 -3.144970E-12 -8.764853E-12 -8.127544E-13
         2   7 -7.181690E+02 -7.181690E+02  3.011693E-10  1.636421E-11 -2.615432E-12  9.526155E-12
         2   8 -7.181690E+02 -7.181690E+02  3.206292E-10  8.000665E-12 -1.844815E-12  8.048116E-12
         3   1 -7.181690E+02 -7.181690E+02  3.352813E-10  2.114755E-11  8.065797E-12  2.174068E-13
         3   2 -7.181690E+02 -7.181690E+02  3.193700E-10  3.349091E-12  1.848315E-12  1.701773E-12
         3   3 -7.181690E+02 -7.181690E+02  3.092967E-10  1.132276E-11 -3.325955E-12 -9.784581E-14
         3   4 -7.181690E+02 -7.181690E+02  2.984221E-10 -6.683061E-12 -3.135414E-13  3.441116E-12
         3   5 -7.181690E+02 -7.181690E+02  3.220028E-10  5.192656E-12  7.975503E-12  1.150241E-12
         3   6 -7.181690E+02 -7.181690E+02  3.103269E-10 -3.369611E-13  2.073274E-12  4.636482E-12
         3   7 -7.181690E+02 -7.181690E+02  3.147912E-10 -1.779846E-12 -1.691316E-12  8.174746E-13
         3   8 -7.181690E+02 -7.181690E+02  3.083809E-10 -7.724184E-12  1.391154E-12  6.370430E-12
         4   1 -7.181690E+02 -7.181690E+02  3.336787E-10  4.837335E-12 -4.495109E-13  1.046312E-11
         4   2 -7.181690E+02 -7.181690E+02  3.176530E-10 -9.560190E-12 -6.145951E-12  6.336121E-12
         4   3 -7.181690E+02 -7.181690E+02  2.936144E-10 -1.287472E-11  2.858686E-13  1.463146E-11
         4   4 -7.181690E+02 -7.181690E+02  2.645391E-10 -2.727225E-11  1.818347E-12  3.062809E-11
         4   5 -7.181690E+02 -7.181690E+02  3.297867E-10  5.922739E-12  3.984707E-12  3.230854E-12
         4   6 -7.181690E+02 -7.181690E+02  3.562292E-10  1.520645E-12 -1.721584E-12 -5.630103E-12
         4   7 -7.181690E+02 -7.181690E+02  3.049468E-10  1.566869E-11 -4.769633E-13  7.539307E-12
         4   8 -7.181690E+02 -7.181690E+02  3.179964E-10  1.126660E-11  1.073029E-12  1.835537E-11
         5   1 -7.181690E+02 -7.181690E+02  3.369983E-10  7.914265E-12  1.001492E-11  1.027600E-11
         5   2 -7.181690E+02 -7.181690E+02  3.217739E-10 -2.096071E-11  5.216075E-12  4.153670E-12
         5   3 -7.181690E+02 -7.181690E+02  2.728954E-10  1.050627E-11  3.761238E-12  2.642394E-11
         5   4 -7.181690E+02 -7.181690E+02  2.699192E-10 -1.828230E-11  7.579298E-12  1.649013E-11
         5   5 -7.181690E+02 -7.181690E+02  3.595488E-10 -1.472261E-11  2.716488E-12  2.342078E-12
         5   6 -7.181690E+02 -7.181690E+02  3.377996E-10 -3.117322E-11 -2.152414E-12  8.551221E-13
         5   7 -7.181690E+02 -7.181690E+02  3.144478E-10 -1.686533E-11  1.049916E-12  1.845499E-11
         5   8 -7.181690E+02 -7.181690E+02  3.048324E-10 -3.324682E-11  5.113172E-12  1.322007E-11
         6   1 -7.181690E+02 -7.181690E+02  3.031153E-10  2.756169E-11 -9.874802E-12 -3.653868E-13
         6   2 -7.181690E+02 -7.181690E+02  3.265816E-10  8.104346E-12 -2.816646E-12 -6.507367E-12
         6   3 -7.181690E+02 -7.181690E+02  2.898369E-10  4.368398E-11 -2.898770E-12  4.923852E-12
         6   4 -7.181690E+02 -7.181690E+02  3.218883E-10  2.401928E-11  2.537567E-13 -1.265915E-11
         6   5 -7.181690E+02 -7.181690E+02  3.297867E-10  2.529800E-11 -1.099975E-11  6.177531E-12
         6   6 -7.181690E+02 -7.181690E+02  3.290999E-10 -4.838415E-13 -3.836506E-12  3.472887E-12
         6   7 -7.181690E+02 -7.181690E+02  3.071218E-10  2.571272E-11 -3.848499E-13  1.146677E-11
         6   8 -7.181690E+02 -7.181690E+02  3.147912E-10 -1.382404E-13  2.697620E-12 -2.477370E-12
         7   1 -7.181690E+02 -7.181690E+02  3.009404E-10  1.888278E-11  2.161005E-12 -5.394948E-12
         7   2 -7.181690E+02 -7.181690E+02  2.604182E-10  2.288743E-11  1.624229E-11 -2.355506E-11
         7   3 -7.181690E+02 -7.181690E+02  3.147912E-10  6.026419E-12  1.863008E-12 -2.808497E-13
         7   4 -7.181690E+02 -7.181690E+02  2.915539E-10  1.003107E-11  8.260009E-12 -3.308837E-12
         7   5 -7.181690E+02 -7.181690E+02  3.391732E-10 -1.321060E-11 -6.003466E-12 -2.418036E-12
         7   6 -7.181690E+02 -7.181690E+02  3.309314E-10 -1.980294E-11  8.066872E-12 -1.353309E-11
         7   7 -7.181690E+02 -7.181690E+02  3.366549E-10 -5.469137E-12  5.640141E-13  2.485894E-12
         7   8 -7.181690E+02 -7.181690E+02  3.459269E-10 -1.207876E-11  6.961015E-12  6.310317E-12
         8   1 -7.181690E+02 -7.181690E+02  2.932709E-10 -1.029891E-11  7.340649E-12 -1.451875E-11
         8   2 -7.181690E+02 -7.181690E+02  2.495436E-10 -3.646092E-12  3.285860E-11 -8.718100E-12
         8   3 -7.181690E+02 -7.181690E+02  3.226896E-10 -1.651973E-11  1.993457E-11 -1.348198E-12
         8   4 -7.181690E+02 -7.181690E+02  2.667140E-10 -1.012611E-11  3.426105E-11 -1.434441E-12
         8   5 -7.181690E+02 -7.181690E+02  3.724839E-10  1.963014E-11 -6.061062E-12 -6.177418E-12
         8   6 -7.181690E+02 -7.181690E+02  3.177674E-10  1.137028E-11  1.949192E-11 -5.977199E-12
         8   7 -7.181690E+02 -7.181690E+02  3.795810E-10  5.806098E-12  1.670192E-12  6.152463E-12
         8   8 -7.181690E+02 -7.181690E+02  3.128452E-10 -2.661128E-12  1.606673E-11  1.374337E-12
         9   1 -7.181690E+02 -7.181690E+02  2.680876E-10 -2.080519E-11 -3.006593E-11 -3.487232E-13
         9   2 -7.181690E+02 -7.181690E+02  3.368838E-10 -2.934153E-11 -4.845715E-12  1.711316E-11
         9   3 -7.181690E+02 -7.181690E+02  2.529777E-10  3.179530E-12 -3.624363E-11  2.117260E-13
         9   4 -7.181690E+02 -7.181690E+02  3.154780E-10 -5.564178E-12 -7.030219E-12  3.421545E-12
         9   5 -7.181690E+02 -7.181690E+02  3.210870E-10 -4.147213E-12 -1.759534E-11 -6.423342E-13
         9   6 -7.181690E+02 -7.181690E+02  3.622961E-10 -7.395863E-12  8.167808E-12  1.311522E-11
         9   7 -7.181690E+02 -7.181690E+02  3.135321E-10  1.935366E-12 -2.655784E-11 -1.272839E-12
         9   8 -7.181690E+02 -7.181690E+02  3.470716E-10 -1.105923E-12  2.655566E-12 -2.434727E-13

 strains (elem, integ.pnt.,exx,eyy,ezz,exy,exz,eyz) forset EALL and time  0.7867813E+00

         1   1 -2.398814E-03 -2.398814E-03  2.056126E-03 -2.202404E-17  1.604895E-18  7.018432E-18
         1   2 -2.398814E-03 -2.398814E-03  2.056126E-03 -7.506292E-17  4.139891E-18  1.593739E-17
         1   3 -2.398814E-03 -2.398814E-03  2.056126E-03 -2.918963E-17 -4.253365E-18  3.365279E-17
         1   4 -2.398814E-03 -2.398814E-03  2.056126E-03 -8.222851E-17 -1.079703E-17  7.363389E-17
         1   5 -2.398814E-03 -2.398814E-03  2.056126E-03 -1.084302E-17  3.288860E-18 -3.964468E-19
         1   6 -2.398814E-03 -2.398814E-03  2.056126E-03 -7.695572E-17  5.823856E-18  1.868130E-18
         1   7 -2.398814E-03 -2.398814E-03  2.056126E-03  2.566092E-17 -9.251060E-18  2.612975E-17
         1   8 -2.398814E-03 -2.398814E-03  2.056126E-03 -4.045177E-17 -1.592993E-17  5.956464E-17
         2   1 -2.398814E-03 -2.398814E-03  2.056126E-03 -3.515194E-19 -3.574529E-17  1.573967E-17
         2   2 -2.398814E-03 -2.398814E-03  2.056126E-03 -1.223558E-16 -7.890106E-17  1.323991E-17
         2   3 -2.398814E-03 -2.398814E-03  2.056126E-03  5.064584E-17 -2.205494E-17  5.732712E-17
         2   4 -2.398814E-03 -2.398814E-03  2.056126E-03 -7.254820E-17 -1.924279E-17  6.762402E-17
         2   5 -2.398814E-03 -2.398814E-03  2.056126E-03  3.309691E-17 -9.847538E-18  1.726067E-17
         2   6 -2.398814E-03 -2.398814E-03  2.056126E-03 -1.968509E-17 -5.381451E-17 -5.242908E-18
         2   7 -2.398814E-03 -2.398814E-03  2.056126E-03  1.024274E-16 -1.607958E-17  5.884812E-17
         2   8 -2.398814E-03 -2.398814E-03  2.056126E-03  5.007800E-17 -1.132055E-17  4.948005E-17
         3   1 -2.398814E-03 -2.398814E-03  2.056126E-03  1.323673E-16  4.980398E-17  1.361418E-18
         3   2 -2.398814E-03 -2.398814E-03  2.056126E-03  2.096273E-17  1.140724E-17  1.056829E-17
         3   3 -2.398814E-03 -2.398814E-03  2.056126E-03  7.087173E-17 -2.050678E-17 -5.854588E-19
         3   4 -2.398814E-03 -2.398814E-03  2.056126E-03 -4.183081E-17 -1.903291E-18  2.131003E-17
         3   5 -2.398814E-03 -2.398814E-03  2.056126E-03  3.250203E-17  4.922587E-17  7.173814E-18
         3   6 -2.398814E-03 -2.398814E-03  2.056126E-03 -2.109117E-18  1.277601E-17  2.885434E-17
         3   7 -2.398814E-03 -2.398814E-03  2.056126E-03 -1.114046E-17 -1.032151E-17  5.118777E-18
         3   8 -2.398814E-03 -2.398814E-03  2.056126E-03 -4.834744E-17  8.714621E-18  3.956180E-17
         4   1 -2.398814E-03 -2.398814E-03  2.056126E-03  3.027799E-17 -2.685867E-18  6.447227E-17
         4   2 -2.398814E-03 -2.398814E-03  2.056126E-03 -5.983942E-17 -3.786485E-17  3.888032E-17
         4   3 -2.398814E-03 -2.398814E-03  2.056126E-03 -8.058583E-17  1.749747E-18  9.021431E-17
         4   4 -2.398814E-03 -2.398814E-03  2.056126E-03 -1.707032E-16  1.121373E-17  1.888980E-16
         4   5 -2.398814E-03 -2.398814E-03  2.056126E-03  3.707178E-17  2.494347E-17  1.941649E-17
         4   6 -2.398814E-03 -2.398814E-03  2.056126E-03  9.518065E-18 -1.029635E-17 -3.569888E-17
         4   7 -2.398814E-03 -2.398814E-03  2.056126E-03  9.807392E-17 -3.003381E-18  4.602381E-17
         4   8 -2.398814E-03 -2.398814E-03  2.056126E-03  7.052021E-17  6.568764E-18  1.124260E-16
         5   1 -2.398814E-03 -2.398814E-03  2.056126E-03  4.953720E-17  6.169700E-17  6.330243E-17
         5   2 -2.398814E-03 -2.398814E-03  2.056126E-03 -1.311979E-16  3.206120E-17  2.558914E-17
         5   3 -2.398814E-03 -2.398814E-03  2.056126E-03  6.576117E-17  2.317250E-17  1.630258E-16
         5   4 -2.398814E-03 -2.398814E-03  2.056126E-03 -1.144331E-16  4.675135E-17  1.017742E-16
         5   5 -2.398814E-03 -2.398814E-03  2.056126E-03 -9.215217E-17  1.621152E-17  1.387280E-17
         5   6 -2.398814E-03 -2.398814E-03  2.056126E-03 -1.951203E-16 -1.385691E-17  5.047845E-18
         5   7 -2.398814E-03 -2.398814E-03  2.056126E-03 -1.055640E-16  6.278532E-18  1.133798E-16
         5   8 -2.398814E-03 -2.398814E-03  2.056126E-03 -2.080995E-16  3.137161E-17  8.140844E-17
         6   1 -2.398814E-03 -2.398814E-03  2.056126E-03  1.725149E-16 -6.099436E-17 -2.123691E-18
         6   2 -2.398814E-03 -2.398814E-03  2.056126E-03  5.072696E-17 -1.740595E-17 -3.998607E-17
         6   3 -2.398814E-03 -2.398814E-03  2.056126E-03  2.734280E-16 -1.784503E-17  3.054058E-17
         6   4 -2.398814E-03 -2.398814E-03  2.056126E-03  1.503422E-16  1.623739E-18 -7.797733E-17
         6   5 -2.398814E-03 -2.398814E-03  2.056126E-03  1.583460E-16 -6.797279E-17  3.864456E-17
         6   6 -2.398814E-03 -2.398814E-03  2.056126E-03 -3.028475E-18 -2.373542E-17  2.219697E-17
         6   7 -2.398814E-03 -2.398814E-03  2.056126E-03  1.609418E-16 -2.165560E-18  7.130883E-17
         6   8 -2.398814E-03 -2.398814E-03  2.056126E-03 -8.652786E-19  1.687057E-17 -1.455118E-17
         7   1 -2.398814E-03 -2.398814E-03  2.056126E-03  1.181916E-16  1.318031E-17 -3.325515E-17
         7   2 -2.398814E-03 -2.398814E-03  2.056126E-03  1.432577E-16  1.001408E-16 -1.452663E-16
         7   3 -2.398814E-03 -2.398814E-03  2.056126E-03  3.772074E-17  1.147870E-17 -1.672479E-18
         7   4 -2.398814E-03 -2.398814E-03  2.056126E-03  6.278678E-17  5.098407E-17 -2.023356E-17
         7   5 -2.398814E-03 -2.398814E-03  2.056126E-03 -8.268819E-17 -3.769180E-17 -1.470244E-17
         7   6 -2.398814E-03 -2.398814E-03  2.056126E-03 -1.239512E-16  4.920110E-17 -8.282719E-17
         7   7 -2.398814E-03 -2.398814E-03  2.056126E-03 -3.423258E-17  3.384799E-18  1.558231E-17
         7   8 -2.398814E-03 -2.398814E-03  2.056126E-03 -7.560372E-17  4.289018E-17  3.971789E-17
         8   1 -2.398814E-03 -2.398814E-03  2.056126E-03 -6.446326E-17  4.506100E-17 -8.950427E-17
         8   2 -2.398814E-03 -2.398814E-03  2.056126E-03 -2.282172E-17  2.026499E-16 -5.377932E-17
         8   3 -2.398814E-03 -2.398814E-03  2.056126E-03 -1.034008E-16  1.227384E-16 -8.168081E-18
         8   4 -2.398814E-03 -2.398814E-03  2.056126E-03 -6.338166E-17  2.112131E-16 -8.798413E-18
         8   5 -2.398814E-03 -2.398814E-03  2.056126E-03  1.228696E-16 -3.844563E-17 -3.756125E-17
         8   6 -2.398814E-03 -2.398814E-03  2.056126E-03  7.116916E-17  1.193596E-16 -3.668942E-17
         8   7 -2.398814E-03 -2.398814E-03  2.056126E-03  3.634170E-17  8.934923E-18  3.858326E-17
         8   8 -2.398814E-03 -2.398814E-03  2.056126E-03 -1.665661E-17  9.784230E-17  8.710541E-18
         9   1 -2.398814E-03 -2.398814E-03  2.056126E-03 -1.302244E-16 -1.854204E-16 -2.172858E-18
         9   2 -2.398814E-03 -2.398814E-03  2.056126E-03 -1.836554E-16 -2.967025E-17  1.056059E-16
         9   3 -2.398814E-03 -2.398814E-03  2.056126E-03  1.990141E-17 -2.236303E-16  1.288256E-18
         9   4 -2.398814E-03 -2.398814E-03  2.056126E-03 -3.482746E-17 -4.321970E-17  2.105204E-17
         9   5 -2.398814E-03 -2.398814E-03  2.056126E-03 -2.595836E-17 -1.077097E-16 -4.037179E-18
         9   6 -2.398814E-03 -2.398814E-03  2.056126E-03 -4.629240E-17  5.139341E-17  8.070382E-17
         9   7 -2.398814E-03 -2.398814E-03  2.056126E-03  1.211390E-17 -1.632791E-16 -7.930933E-18
         9   8 -2.398814E-03 -2.398814E-03  2.056126E-03 -6.922229E-18  1.713144E-17 -1.795934E-18

 displacements (vx,vy,vz) for set NALL and time  0.7957813E+00

         1  0.000000E+00  0.000000E+00  0.000000E+00
         2 -1.290810E+00  0.000000E+00  0.000000E+00
         3 -1.129131E+01  0.000000E+00  0.000000E+00
         4 -1.258212E+01  0.000000E+00  0.000000E+00
         5 -2.258263E+01  0.000000E+00  0.000000E+00
         6 -2.387344E+01  0.000000E+00  0.000000E+00
         7  0.000000E+00 -1.290810E+00  0.000000E+00
         8 -1.290810E+00 -1.290810E+00  0.000000E+00
         9 -1.129131E+01 -1.290810E+00  0.000000E+00
        10 -1.258212E+01 -1.290810E+00  0.000000E+00
        11 -2.258263E+01 -1.290810E+00  0.000000E+00
        12 -2.387344E+01 -1.290810E+00  0.000000E+00
        13  0.000000E+00 -1.129131E+01  0.000000E+00
        14 -1.290810E+00 -1.129131E+01  0.000000E+00
        15 -1.129131E+01 -1.129131E+01  0.000000E+00
        16 -1.258212E+01 -1.129131E+01  0.000000E+00
        17 -2.258263E+01 -1.129131E+01  0.000000E+00
        18 -2.387344E+01 -1.129131E+01  0.000000E+00
        19  0.000000E+00 -1.258212E+01  0.000000E+00
        20 -1.290810E+00 -1.258212E+01  0.000000E+00
        21 -1.129131E+01 -1.258212E+01  0.000000E+00
        22 -1.258212E+01 -1.258212E+01  0.000000E+00
        23 -2.258263E+01 -1.258212E+01  0.000000E+00
        24 -2.387344E+01 -1.258212E+01  0.000000E+00
        25  0.000000E+00 -2.258263E+01  0.000000E+00
        26 -1.290810E+00 -2.258263E+01  0.000000E+00
        27 -1.129131E+01 -2.258263E+01  0.000000E+00
        28 -1.258212E+01 -2.258263E+01  0.000000E+00
        29 -2.258263E+01 -2.258263E+01  0.000000E+00
        30 -2.387344E+01 -2.258263E+01  0.000000E+00
        31  0.000000E+00 -2.387344E+01  0.000000E+00
        32 -1.290810E+00 -2.387344E+01  0.000000E+00
        33 -1.129131E+01 -2.387344E+01  0.000000E+00
        34 -1.258212E+01 -2.387344E+01  0.000000E+00
        35 -2.258263E+01 -2.387344E+01  0.000000E+00
        36 -2.387344E+01 -2.387344E+01  0.000000E+00
        37  0.000000E+00  0.000000E+00  1.545267E+00
        38 -1.290810E+00  0.000000E+00  1.545267E+00
        39 -1.129131E+01  0.000000E+00  1.545267E+00
        40 -1.258212E+01  0.000000E+00  1.545267E+00
        41 -2.258263E+01  0.000000E+00  1.545267E+00
        42 -2.387344E+01  0.000000E+00  1.545267E+00
        43  0.000000E+00 -1.290810E+00  1.545267E+00
        44 -1.290810E+00 -1.290810E+00  1.545267E+00
        45 -1.129131E+01 -1.290810E+00  1.545267E+00
        46 -1.258212E+01 -1.290810E+00  1.545267E+00
        47 -2.258263E+01 -1.290810E+00  1.545267E+00
        48 -2.387344E+01 -1.290810E+00  1.545267E+00
        49  0.000000E+00 -1.129131E+01  1.545267E+00
        50 -1.290810E+00 -1.129131E+01  1.545267E+00
        51 -1.129131E+01 -1.129131E+01  1.545267E+00
        52 -1.258212E+01 -1.129131E+01  1.545267E+00
        53 -2.258263E+01 -1.129131E+01  1.545267E+00
        54 -2.387344E+01 -1.129131E+01  1.545267E+00
        55  0.000000E+00 -1.258212E+01  1.545267E+00
        56 -1.290810E+00 -1.258212E+01  1.545267E+00
        57 -1.129131E+01 -1.258212E+01  1.545267E+00
        58 -1.258212E+01 -1.258212E+01  1.545267E+00
        59 -2.258263E+01 -1.258212E+01  1.545267E+00
        60 -2.387344E+01 -1.258212E+01  1.545267E+00
        61  0.000000E+00 -2.258263E+01  1.545267E+00
        62 -1.290810E+00 -2.258263E+01  1.545267E+00
        63 -1.129131E+01 -2.258263E+01  1.545267E+00
        64 -1.258212E+01 -2.258263E+01  1.545267E+00
        65 -2.258263E+01 -2.258263E+01  1.545267E+00
        66 -2.387344E+01 -2.258263E+01  1.545267E+00
        67  0.000000E+00 -2.387344E+01  1.545267E+00
        68 -1.290810E+00 -2.387344E+01  1.545267E+00
        69 -1.129131E+01 -2.387344E+01  1.545267E+00
        70 -1.258212E+01 -2.387344E+01  1.545267E+00
        71 -2.258263E+01 -2.387344E+01  1.545267E+00
        72 -2.387344E+01 -2.387344E+01  1.545267E+00

 stresses (elem, integ.pnt.,sxx,syy,szz,sxy,sxz,syz) for set EALL and time  0.7957813E+00

         1   1 -7.717825E+02 -7.717825E+02  3.410655E-10 -3.713607E-12 -3.126013E-13  1.915893E-12
         1   2 -7.717825E+02 -7.717825E+02  3.410655E-10 -9.304518E-12 -4.009157E-12  2.487313E-12
         1   3 -7.717825E+02 -7.717825E+02  3.225119E-10 -8.283869E-12 -6.387755E-13  1.107573E-11
         1   4 -7.717825E+02 -7.717825E+02  3.210230E-10 -1.387478E-11 -4.566298E-12  1.380685E-11
         1   5 -7.717825E+02 -7.717825E+02  3.525183E-10 -2.744746E-12  2.548154E-12 -1.988504E-12
         1   6 -7.717825E+02 -7.717825E+02  3.570995E-10 -8.648540E-12 -1.148402E-12 -2.055470E-12
         1   7 -7.717825E+02 -7.717825E+02  3.332776E-10 -4.298376E-12  1.587972E-12  7.153822E-12
         1   8 -7.717825E+02 -7.717825E+02  3.367134E-10 -1.020217E-11 -2.361443E-12  9.264070E-12
         2   1 -7.717825E+02 -7.717825E+02  3.430125E-10 -2.426468E-12 -7.357889E-12  2.866375E-12
         2   2 -7.717825E+02 -7.717825E+02  3.675216E-10 -2.516125E-11 -1.805021E-11  2.100012E-12
         2   3 -7.717825E+02 -7.717825E+02  3.097993E-10  1.510474E-12 -4.525149E-12  9.815068E-12
         2   4 -7.717825E+02 -7.717825E+02  3.253751E-10 -2.113800E-11 -5.926272E-12  1.060742E-11
         2   5 -7.717825E+02 -7.717825E+02  3.348810E-10  3.892706E-12  1.296671E-14  3.711747E-12
         2   6 -7.717825E+02 -7.717825E+02  3.628259E-10 -5.946950E-12 -1.055675E-11 -6.528870E-13
         2   7 -7.717825E+02 -7.717825E+02  3.218247E-10  9.995020E-12 -6.723738E-13  1.066044E-11
         2   8 -7.717825E+02 -7.717825E+02  3.406074E-10  1.898881E-13 -2.318693E-12  7.846935E-12
         3   1 -7.717825E+02 -7.717825E+02  3.647729E-10  2.821025E-11  1.255999E-11  6.708506E-14
         3   2 -7.717825E+02 -7.717825E+02  3.472500E-10  5.630830E-12  2.717100E-12  1.883088E-12
         3   3 -7.717825E+02 -7.717825E+02  3.353391E-10  2.095674E-11 -1.181904E-12 -1.447879E-12
         3   4 -7.717825E+02 -7.717825E+02  3.236572E-10 -1.829831E-12 -6.100620E-14  2.843149E-12
         3   5 -7.717825E+02 -7.717825E+02  3.404929E-10  8.540649E-12  1.019298E-11  1.783974E-12
         3   6 -7.717825E+02 -7.717825E+02  3.280093E-10  8.760747E-13  1.048945E-13  6.030425E-12
         3   7 -7.717825E+02 -7.717825E+02  3.337357E-10  4.712678E-12 -1.364923E-12  2.514957E-13
         3   8 -7.717825E+02 -7.717825E+02  3.276657E-10 -2.744746E-12 -1.739687E-13  7.022032E-12
         4   1 -7.717825E+02 -7.717825E+02  3.513731E-10  8.146847E-12 -2.680993E-13  5.639173E-12
         4   2 -7.717825E+02 -7.717825E+02  3.363698E-10 -6.987019E-12 -5.965634E-12  2.918706E-12
         4   3 -7.717825E+02 -7.717825E+02  3.158693E-10 -9.754423E-12  9.050541E-13  1.506172E-11
         4   4 -7.717825E+02 -7.717825E+02  2.906730E-10 -2.488829E-11  2.617051E-12  2.442594E-11
         4   5 -7.717825E+02 -7.717825E+02  3.590465E-10  1.027985E-11  4.653794E-12  6.794040E-13
         4   6 -7.717825E+02 -7.717825E+02  3.702702E-10  5.351392E-12 -1.021848E-12 -6.106230E-12
         4   7 -7.717825E+02 -7.717825E+02  3.392331E-10  9.244099E-12  1.685083E-12  9.996871E-12
         4   8 -7.717825E+02 -7.717825E+02  3.399202E-10  4.315639E-12  3.392701E-12  1.551485E-11
         5   1 -7.717825E+02 -7.717825E+02  3.537782E-10  1.320586E-11  7.439676E-12  1.087377E-11
         5   2 -7.717825E+02 -7.717825E+02  3.385459E-10 -7.163961E-12  6.914255E-12  2.495744E-12
         5   3 -7.717825E+02 -7.717825E+02  3.007515E-10  1.612323E-11  4.425265E-12  2.642623E-11
         5   4 -7.717825E+02 -7.717825E+02  3.014387E-10 -4.229326E-12  9.083998E-12  1.026322E-11
         5   5 -7.717825E+02 -7.717825E+02  3.841282E-10 -9.252730E-12 -4.217428E-13  2.157926E-12
         5   6 -7.717825E+02 -7.717825E+02  3.536636E-10 -2.230322E-11 -9.471639E-13 -1.413900E-13
         5   7 -7.717825E+02 -7.717825E+02  3.425544E-10 -1.657205E-11  2.760667E-12  1.757028E-11
         5   8 -7.717825E+02 -7.717825E+02  3.270930E-10 -2.955350E-11  7.384372E-12  7.748725E-12
         6   1 -7.717825E+02 -7.717825E+02  3.141513E-10  1.581250E-11 -1.631101E-11 -3.503622E-12
         6   2 -7.717825E+02 -7.717825E+02  3.446159E-10  5.903794E-12 -4.173786E-12 -1.203379E-11
         6   3 -7.717825E+02 -7.717825E+02  3.253751E-10  3.473226E-11 -4.577440E-12 -3.608706E-12
         6   4 -7.717825E+02 -7.717825E+02  3.633985E-10  2.461640E-11 -3.040155E-13 -2.364124E-11
         6   5 -7.717825E+02 -7.717825E+02  3.394621E-10  1.781496E-11 -1.566140E-11  6.902126E-12
         6   6 -7.717825E+02 -7.717825E+02  3.449595E-10 -3.314411E-12 -3.208918E-12  1.470663E-12
         6   7 -7.717825E+02 -7.717825E+02  3.335066E-10  2.043887E-11 -7.239953E-13  6.691957E-12
         6   8 -7.717825E+02 -7.717825E+02  3.466774E-10 -2.762009E-13  3.759598E-12 -1.064892E-11
         7   1 -7.717825E+02 -7.717825E+02  3.203359E-10  1.809547E-11  1.996160E-12 -1.075310E-11
         7   2 -7.717825E+02 -7.717825E+02  2.894132E-10  2.263984E-11  1.219590E-11 -2.164087E-11
         7   3 -7.717825E+02 -7.717825E+02  3.390040E-10  5.942635E-12  1.006095E-12 -1.645806E-12
         7   4 -7.717825E+02 -7.717825E+02  3.214812E-10  1.048700E-11  3.177835E-12 -2.918369E-12
         7   5 -7.717825E+02 -7.717825E+02  3.609934E-10 -3.215151E-12 -2.759029E-12 -6.703563E-12
         7   6 -7.717825E+02 -7.717825E+02  3.495406E-10 -9.701556E-12  7.426477E-12 -1.201019E-11
         7   7 -7.717825E+02 -7.717825E+02  3.629404E-10 -2.662749E-12  1.581254E-12  3.314466E-12
         7   8 -7.717825E+02 -7.717825E+02  3.650019E-10 -9.166417E-12  3.779265E-12  6.519662E-12
         8   1 -7.717825E+02 -7.717825E+02  3.156402E-10 -1.646848E-11  3.542845E-12 -1.535602E-11
         8   2 -7.717825E+02 -7.717825E+02  2.933072E-10 -1.187664E-11  1.944559E-11 -6.879663E-12
         8   3 -7.717825E+02 -7.717825E+02  3.422108E-10 -1.812568E-11  1.578908E-11 -1.625017E-12
         8   4 -7.717825E+02 -7.717825E+02  3.017823E-10 -1.351658E-11  2.913477E-11 -1.750229E-12
         8   5 -7.717825E+02 -7.717825E+02  3.770274E-10  1.905786E-11 -4.257065E-12 -7.459740E-12
         8   6 -7.717825E+02 -7.717825E+02  3.367134E-10  2.016267E-11  1.164568E-11 -6.422786E-12
         8   7 -7.717825E+02 -7.717825E+02  3.977571E-10  6.352621E-12  8.868050E-13  5.920982E-12
         8   8 -7.717825E+02 -7.717825E+02  3.395766E-10  7.526474E-12  1.402233E-11 -1.291173E-12
         9   1 -7.717825E+02 -7.717825E+02  3.112881E-10 -1.719351E-11 -1.858564E-11  2.241116E-12
         9   2 -7.717825E+02 -7.717825E+02  3.717591E-10 -2.882847E-11 -2.245044E-12  2.368433E-11
         9   3 -7.717825E+02 -7.717825E+02  2.820834E-10  7.043123E-12 -3.532302E-11 -5.611298E-13
         9   4 -7.717825E+02 -7.717825E+02  3.411800E-10 -4.798991E-12 -7.580793E-12  5.045035E-12
         9   5 -7.717825E+02 -7.717825E+02  3.376297E-10 -1.132424E-11 -9.185991E-12 -2.299154E-12
         9   6 -7.717825E+02 -7.717825E+02  3.654601E-10 -5.593068E-12  6.646696E-12  1.799692E-11
         9   7 -7.717825E+02 -7.717825E+02  3.340793E-10 -8.838429E-12 -2.693903E-11 -5.171455E-12
         9   8 -7.717825E+02 -7.717825E+02  3.600772E-10 -2.900109E-12  1.363651E-12 -2.001588E-13

 strains (elem, integ.pnt.,exx,eyy,ezz,exy,exz,eyz) forset EALL and time  0.7957813E+00

         1   1 -2.578288E-03 -2.578288E-03  2.209961E-03 -2.326369E-17 -1.868125E-18  1.174472E-17
         1   2 -2.578288E-03 -2.578288E-03  2.209961E-03 -5.828763E-17 -2.469249E-17  1.525909E-17
         1   3 -2.578288E-03 -2.578288E-03  2.209961E-03 -5.189383E-17 -3.895942E-18  6.830210E-17
         1   4 -2.578288E-03 -2.578288E-03  2.209961E-03 -8.691778E-17 -2.814641E-17  8.515153E-17
         1   5 -2.578288E-03 -2.578288E-03  2.209961E-03 -1.719431E-17  1.596563E-17 -1.259502E-17
         1   6 -2.578288E-03 -2.578288E-03  2.209961E-03 -5.417830E-17 -6.858741E-18 -1.306031E-17
         1   7 -2.578288E-03 -2.578288E-03  2.209961E-03 -2.692694E-17  9.985187E-18  4.385422E-17
         1   8 -2.578288E-03 -2.578288E-03  2.209961E-03 -6.391093E-17 -1.440045E-17  5.683213E-17
         2   1 -2.578288E-03 -2.578288E-03  2.209961E-03 -1.520047E-17 -4.527106E-17  1.771758E-17
         2   2 -2.578288E-03 -2.578288E-03  2.209961E-03 -1.576213E-16 -1.112907E-16  1.290591E-17
         2   3 -2.578288E-03 -2.578288E-03  2.209961E-03  9.462278E-18 -2.785970E-17  6.062225E-17
         2   4 -2.578288E-03 -2.578288E-03  2.209961E-03 -1.324178E-16 -3.651093E-17  6.543526E-17
         2   5 -2.578288E-03 -2.578288E-03  2.209961E-03  2.438564E-17  6.783522E-19  2.298757E-17
         2   6 -2.578288E-03 -2.578288E-03  2.209961E-03 -3.725434E-17 -6.458433E-17 -4.255541E-18
         2   7 -2.578288E-03 -2.578288E-03  2.209961E-03  6.261324E-17 -3.850093E-18  6.589224E-17
         2   8 -2.578288E-03 -2.578288E-03  2.209961E-03  1.189543E-18 -1.401528E-17  4.822605E-17
         3   1 -2.578288E-03 -2.578288E-03  2.209961E-03  1.767216E-16  7.749447E-17  4.509943E-19
         3   2 -2.578288E-03 -2.578288E-03  2.209961E-03  3.527402E-17  1.671961E-17  1.171789E-17
         3   3 -2.578288E-03 -2.578288E-03  2.209961E-03  1.312823E-16 -7.301289E-18 -8.903143E-18
         3   4 -2.578288E-03 -2.578288E-03  2.209961E-03 -1.146287E-17 -3.803085E-19  1.764488E-17
         3   5 -2.578288E-03 -2.578288E-03  2.209961E-03  5.350242E-17  6.272204E-17  1.115396E-17
         3   6 -2.578288E-03 -2.578288E-03  2.209961E-03  5.488121E-18  4.332189E-19  3.757204E-17
         3   7 -2.578288E-03 -2.578288E-03  2.209961E-03  2.952231E-17 -8.442214E-18  1.691683E-18
         3   8 -2.578288E-03 -2.578288E-03  2.209961E-03 -1.719431E-17 -1.088673E-18  4.369627E-17
         4   1 -2.578288E-03 -2.578288E-03  2.209961E-03  5.103547E-17 -1.548022E-18  3.471493E-17
         4   2 -2.578288E-03 -2.578288E-03  2.209961E-03 -4.376979E-17 -3.672742E-17  1.782651E-17
         4   3 -2.578288E-03 -2.578288E-03  2.209961E-03 -6.110604E-17  5.604310E-18  9.289442E-17
         4   4 -2.578288E-03 -2.578288E-03  2.209961E-03 -1.559113E-16  1.617503E-17  1.506228E-16
         4   5 -2.578288E-03 -2.578288E-03  2.209961E-03  6.439756E-17  2.913472E-17  3.806477E-18
         4   6 -2.578288E-03 -2.578288E-03  2.209961E-03  3.352350E-17 -5.909501E-18 -3.842964E-17
         4   7 -2.578288E-03 -2.578288E-03  2.209961E-03  5.790914E-17  1.046670E-17  6.133713E-17
         4   8 -2.578288E-03 -2.578288E-03  2.209961E-03  2.703508E-17  2.101038E-17  9.506958E-17
         5   1 -2.578288E-03 -2.578288E-03  2.209961E-03  8.272734E-17  4.576634E-17  6.695353E-17
         5   2 -2.578288E-03 -2.578288E-03  2.209961E-03 -4.487823E-17  4.252213E-17  1.535583E-17
         5   3 -2.578288E-03 -2.578288E-03  2.209961E-03  1.010031E-16  2.728700E-17  1.629821E-16
         5   4 -2.578288E-03 -2.578288E-03  2.209961E-03 -2.649438E-17  5.605232E-17  6.331606E-17
         5   5 -2.578288E-03 -2.578288E-03  2.209961E-03 -5.796321E-17 -3.237044E-18  1.262791E-17
         5   6 -2.578288E-03 -2.578288E-03  2.209961E-03 -1.397173E-16 -6.481254E-18 -1.073995E-18
         5   7 -2.578288E-03 -2.578288E-03  2.209961E-03 -1.038147E-16  1.691001E-17  1.077914E-16
         5   8 -2.578288E-03 -2.578288E-03  2.209961E-03 -1.851362E-16  4.545905E-17  4.764296E-17
         6   1 -2.578288E-03 -2.578288E-03  2.209961E-03  9.905653E-17 -1.006991E-16 -2.140621E-17
         6   2 -2.578288E-03 -2.578288E-03  2.209961E-03  3.698399E-17 -2.575781E-17 -7.401119E-17
         6   3 -2.578288E-03 -2.578288E-03  2.209961E-03  2.175783E-16 -2.818568E-17 -2.205505E-17
         6   4 -2.578288E-03 -2.578288E-03  2.209961E-03  1.542081E-16 -1.799442E-18 -1.456811E-16
         6   5 -2.578288E-03 -2.578288E-03  2.209961E-03  1.116008E-16 -9.665356E-17  4.346458E-17
         6   6 -2.578288E-03 -2.578288E-03  2.209961E-03 -2.076294E-17 -1.976579E-17  1.017099E-17
         6   7 -2.578288E-03 -2.578288E-03  2.209961E-03  1.280381E-16 -4.180225E-18  4.216690E-17
         6   8 -2.578288E-03 -2.578288E-03  2.209961E-03 -1.730245E-18  2.350370E-17 -6.466289E-17
         7   1 -2.578288E-03 -2.578288E-03  2.209961E-03  1.133581E-16  1.222233E-17 -6.629294E-17
         7   2 -2.578288E-03 -2.578288E-03  2.209961E-03  1.418260E-16  7.520054E-17 -1.334035E-16
         7   3 -2.578288E-03 -2.578288E-03  2.209961E-03  3.722730E-17  6.224040E-18 -1.005997E-17
         7   4 -2.578288E-03 -2.578288E-03  2.209961E-03  6.569524E-17  1.963344E-17 -1.780150E-17
         7   5 -2.578288E-03 -2.578288E-03  2.209961E-03 -2.014113E-17 -1.742152E-17 -4.101090E-17
         7   6 -2.578288E-03 -2.578288E-03  2.209961E-03 -6.077486E-17  4.546883E-17 -7.334461E-17
         7   7 -2.578288E-03 -2.578288E-03  2.209961E-03 -1.668064E-17  9.810065E-18  2.084536E-17
         7   8 -2.578288E-03 -2.578288E-03  2.209961E-03 -5.742251E-17  2.338167E-17  4.106784E-17
         8   1 -2.578288E-03 -2.578288E-03  2.209961E-03 -1.031659E-16  2.170486E-17 -9.464576E-17
         8   2 -2.578288E-03 -2.578288E-03  2.209961E-03 -7.440054E-17  1.198963E-16 -4.246575E-17
         8   3 -2.578288E-03 -2.578288E-03  2.209961E-03 -1.135473E-16  9.716221E-17 -9.863754E-18
         8   4 -2.578288E-03 -2.578288E-03  2.209961E-03 -8.467387E-17  1.795651E-16 -1.079422E-17
         8   5 -2.578288E-03 -2.578288E-03  2.209961E-03  1.193869E-16 -2.692133E-17 -4.542506E-17
         8   6 -2.578288E-03 -2.578288E-03  2.209961E-03  1.263079E-16  7.127008E-17 -3.960928E-17
         8   7 -2.578288E-03 -2.578288E-03  2.209961E-03  3.979564E-17  4.254130E-18  3.719414E-17
         8   8 -2.578288E-03 -2.578288E-03  2.209961E-03  4.714918E-17  8.535937E-17 -7.924169E-18
         9   1 -2.578288E-03 -2.578288E-03  2.209961E-03 -1.077078E-16 -1.145541E-16  1.373778E-17
         9   2 -2.578288E-03 -2.578288E-03  2.209961E-03 -1.805943E-16 -1.365921E-17  1.461183E-16
         9   3 -2.578288E-03 -2.578288E-03  2.209961E-03  4.412125E-17 -2.179195E-16 -3.564667E-18
         9   4 -2.578288E-03 -2.578288E-03  2.209961E-03 -3.006301E-17 -4.662523E-17  3.102985E-17
         9   5 -2.578288E-03 -2.578288E-03  2.209961E-03 -7.094005E-17 -5.596154E-17 -1.457011E-17
         9   6 -2.578288E-03 -2.578288E-03  2.209961E-03 -3.503746E-17  4.179731E-17  1.106728E-16
         9   7 -2.578288E-03 -2.578288E-03  2.209961E-03 -5.536784E-17 -1.656542E-16 -3.230512E-17
         9   8 -2.578288E-03 -2.578288E-03  2.209961E-03 -1.816757E-17  9.100506E-18 -1.684985E-18

 displacements (vx,vy,vz) for set NALL and time  0.8047813E+00

         1  0.000000E+00  0.000000E+00  0.000000E+00
         2 -1.380770E+00  0.000000E+00  0.000000E+00
         3 -1.138133E+01  0.000000E+00  0.000000E+00
         4 -1.276210E+01  0.000000E+00  0.000000E+00
         5 -2.276267E+01  0.000000E+00  0.000000E+00
         6 -2.414344E+01  0.000000E+00  0.000000E+00
         7  0.000000E+00 -1.380770E+00  0.000000E+00
         8 -1.380770E+00 -1.380770E+00  0.000000E+00
         9 -1.138133E+01 -1.380770E+00  0.000000E+00
        10 -1.276210E+01 -1.380770E+00  0.000000E+00
        11 -2.276267E+01 -1.380770E+00  0.000000E+00
        12 -2.414344E+01 -1.380770E+00  0.000000E+00
        13  0.000000E+00 -1.138133E+01  0.000000E+00
        14 -1.380770E+00 -1.138133E+01  0.000000E+00
        15 -1.138133E+01 -1.138133E+01  0.000000E+00
        16 -1.276210E+01 -1.138133E+01  0.000000E+00
        17 -2.276267E+01 -1.138133E+01  0.000000E+00
        18 -2.414344E+01 -1.138133E+01  0.000000E+00
        19  0.000000E+00 -1.276210E+01  0.000000E+00
        20 -1.380770E+00 -1.276210E+01  0.000000E+00
        21 -1.138133E+01 -1.276210E+01  0.000000E+00
        22 -1.276210E+01 -1.276210E+01  0.000000E+00
        23 -2.276267E+01 -1.276210E+01  0.000000E+00
        24 -2.414344E+01 -1.276210E+01  0.000000E+00
        25  0.000000E+00 -2.276267E+01  0.000000E+00
        26 -1.380770E+00 -2.276267E+01  0.000000E+00
        27 -1.138133E+01 -2.276267E+01  0.000000E+00
        28 -1.276210E+01 -2.276267E+01  0.000000E+00
        29 -2.276267E+01 -2.276267E+01  0.000000E+00
        30 -2.414344E+01 -2.276267E+01  0.000000E+00
        31  0.000000E+00 -2.414344E+01  0.000000E+00
        32 -1.380770E+00 -2.414344E+01  0.000000E+00
        33 -1.138133E+01 -2.414344E+01  0.000000E+00
        34 -1.276210E+01 -2.414344E+01  0.000000E+00
        35 -2.276267E+01 -2.414344E+01  0.000000E+00
        36 -2.414344E+01 -2.414344E+01  0.000000E+00
        37  0.000000E+00  0.000000E+00  1.652685E+00
        38 -1.380770E+00  0.000000E+00  1.652685E+00
        39 -1.138133E+01  0.000000E+00  1.652685E+00
        40 -1.276210E+01  0.000000E+00  1.652685E+00
        41 -2.276267E+01  0.000000E+00  1.652685E+00
        42 -2.414344E+01  0.000000E+00  1.652685E+00
        43  0.000000E+00 -1.380770E+00  1.652685E+00
        44 -1.380770E+00 -1.380770E+00  1.652685E+00
        45 -1.138133E+01 -1.380770E+00  1.652685E+00
        46 -1.276210E+01 -1.380770E+00  1.652685E+00
        47 -2.276267E+01 -1.380770E+00  1.652685E+00
        48 -2.414344E+01 -1.380770E+00  1.652685E+00
        49  0.000000E+00 -1.138133E+01  1.652685E+00
        50 -1.380770E+00 -1.138133E+01  1.652685E+00
        51 -1.138133E+01 -1.138133E+01  1.652685E+00
        52 -1.276210E+01 -1.138133E+01  1.652685E+00
        53 -2.276267E+01 -1.138133E+01  1.652685E+00
        54 -2.414344E+01 -1.138133E+01  1.652685E+00
        55  0.000000E+00 -1.276210E+01  1.652685E+00
        56 -1.380770E+00 -1.276210E+01  1.652685E+00
        57 -1.138133E+01 -1.276210E+01  1.652685E+00
        58 -1.276210E+01 -1.276210E+01  1.652685E+00
        59 -2.276267E+01 -1.276210E+01  1.652685E+00
        60 -2.414344E+01 -1.276210E+01  1.652685E+00
        61  0.000000E+00 -2.276267E+01  1.652685E+00
        62 -1.380770E+00 -2.276267E+01  1.652685E+00
        63 -1.138133E+01 -2.276267E+01  1.652685E+00
        64 -1.276210E+01 -2.276267E+01  1.652685E+00
        65 -2.276267E+01 -2.276267E+01  1.652685E+00
        66 -2.414344E+01 -2.276267E+01  1.652685E+00
        67  0.000000E+00 -2.414344E+01  1.652685E+00
        68 -1.380770E+00 -2.414344E+01  1.652685E+00
        69 -1.138133E+01 -2.414344E+01  1.652685E+00
        70 -1.276210E+01 -2.414344E+01  1.652685E+00
        71 -2.276267E+01 -2.414344E+01  1.652685E+00
        72 -2.414344E+01 -2.414344E+01  1.652685E+00

 stresses (elem, integ.pnt.,sxx,syy,szz,sxy,sxz,syz) for set EALL and time  0.8047813E+00

         1   1 -8.253692E+02 -8.253692E+02  1.952567E-10 -4.257375E-12 -8.247350E-13  2.388890E-12
         1   2 -8.253692E+02 -8.253692E+02  1.975484E-10 -1.123516E-11 -6.833144E-12  1.658606E-12
         1   3 -8.253692E+02 -8.253692E+02  1.750893E-10 -8.913541E-12 -1.736332E-13  1.259957E-11
         1   4 -8.253692E+02 -8.253692E+02  1.778394E-10 -1.589132E-11 -4.508357E-12  9.799348E-12
         1   5 -8.253692E+02 -8.253692E+02  2.041945E-10 -4.470782E-12  2.934607E-12 -1.339959E-12
         1   6 -8.253692E+02 -8.253692E+02  2.021319E-10 -9.139883E-12 -3.073801E-12 -1.980943E-12
         1   7 -8.253692E+02 -8.253692E+02  1.874647E-10 -1.200687E-11  3.681567E-12  8.905751E-12
         1   8 -8.253692E+02 -8.253692E+02  1.857459E-10 -1.667597E-11 -6.575357E-13  6.159800E-12
         2   1 -8.253692E+02 -8.253692E+02  1.918191E-10  5.751228E-12 -7.872364E-12  1.915512E-12
         2   2 -8.253692E+02 -8.253692E+02  2.198929E-10 -1.018321E-11 -1.613899E-11  3.014961E-12
         2   3 -8.253692E+02 -8.253692E+02  1.639744E-10  9.001922E-12 -1.156081E-11  8.277485E-12
         2   4 -8.253692E+02 -8.253692E+02  1.945692E-10 -7.122210E-12 -2.112348E-11  1.143484E-11
         2   5 -8.253692E+02 -8.253692E+02  1.874647E-10  1.000214E-12  1.327788E-12  8.264785E-13
         2   6 -8.253692E+02 -8.253692E+02  2.198929E-10 -1.652077E-11 -6.789967E-12  2.841811E-12
         2   7 -8.253692E+02 -8.253692E+02  1.574429E-10  7.139455E-12 -1.297049E-12  7.170938E-12
         2   8 -8.253692E+02 -8.253692E+02  1.925066E-10 -1.031255E-11 -1.092977E-11  1.125844E-11
         3   1 -8.253692E+02 -8.253692E+02  2.130177E-10  1.461950E-11  9.259315E-12 -3.811166E-15
         3   2 -8.253692E+02 -8.253692E+02  1.988089E-10  3.134290E-12  1.272915E-12  9.805550E-13
         3   3 -8.253692E+02 -8.253692E+02  2.060279E-10  1.008836E-11  1.030720E-11 -4.377941E-12
         3   4 -8.253692E+02 -8.253692E+02  1.868918E-10 -2.017672E-12  1.550186E-12  1.192901E-12
         3   5 -8.253692E+02 -8.253692E+02  1.880377E-10  1.859449E-11  6.386446E-12  4.395883E-12
         3   6 -8.253692E+02 -8.253692E+02  1.836834E-10  5.764162E-12 -1.284702E-12  3.447221E-12
         3   7 -8.253692E+02 -8.253692E+02  1.784123E-10  2.093550E-11  5.532882E-12  3.926654E-14
         3   8 -8.253692E+02 -8.253692E+02  1.692454E-10  7.208436E-12 -3.434304E-12  3.669475E-12
         4   1 -8.253692E+02 -8.253692E+02  1.976630E-10  1.069625E-11 -4.226856E-14  7.202524E-14
         4   2 -8.253692E+02 -8.253692E+02  1.875793E-10 -2.798011E-12 -4.621094E-12 -2.706176E-13
         4   3 -8.253692E+02 -8.253692E+02  1.742872E-10 -3.220515E-12  1.319401E-12  1.082564E-11
         4   4 -8.253692E+02 -8.253692E+02  1.568699E-10 -1.671478E-11  3.386057E-12  1.309259E-11
         4   5 -8.253692E+02 -8.253692E+02  2.104968E-10  1.536535E-11  4.390096E-12 -1.113738E-12
         4   6 -8.253692E+02 -8.253692E+02  2.061425E-10  1.098510E-11 -1.668366E-13 -4.026753E-12
         4   7 -8.253692E+02 -8.253692E+02  2.011006E-10  5.294234E-12  2.844047E-12  9.534795E-12
         4   8 -8.253692E+02 -8.253692E+02  1.894127E-10  9.139883E-13  4.910703E-12  9.450297E-12
         5   1 -8.253692E+02 -8.253692E+02  2.012152E-10  5.311479E-12  5.962409E-12  9.061886E-12
         5   2 -8.253692E+02 -8.253692E+02  1.959442E-10 -1.017459E-11  4.333604E-12  5.067926E-12
         5   3 -8.253692E+02 -8.253692E+02  1.552657E-10  1.272686E-11  3.288581E-12  2.352848E-11
         5   4 -8.253692E+02 -8.253692E+02  1.599638E-10 -2.741965E-12  8.507763E-12  1.006600E-11
         5   5 -8.253692E+02 -8.253692E+02  2.276849E-10 -8.070689E-12 -4.456407E-13  5.494660E-13
         5   6 -8.253692E+02 -8.253692E+02  2.036215E-10 -1.431340E-11 -1.829249E-12  6.274303E-13
         5   7 -8.253692E+02 -8.253692E+02  1.958296E-10 -1.324421E-11  7.881605E-13  1.526126E-11
         5   8 -8.253692E+02 -8.253692E+02  1.823083E-10 -1.941794E-11  6.252539E-12  5.610218E-12
         6   1 -8.253692E+02 -8.253692E+02  1.651202E-10  1.650352E-11 -1.665561E-11 -2.026793E-12
         6   2 -8.253692E+02 -8.253692E+02  1.933087E-10  1.153695E-11 -4.833635E-12 -1.740112E-11
         6   3 -8.253692E+02 -8.253692E+02  1.868918E-10  3.731831E-11 -4.666431E-12 -9.417716E-12
         6   4 -8.253692E+02 -8.253692E+02  2.292891E-10  3.228275E-11 -3.930062E-13 -3.269527E-11
         6   5 -8.253692E+02 -8.253692E+02  1.746310E-10  5.173518E-12 -1.749601E-11  9.062488E-12
         6   6 -8.253692E+02 -8.253692E+02  1.862043E-10 -9.243353E-12 -5.796639E-12 -9.585513E-13
         6   7 -8.253692E+02 -8.253692E+02  1.812770E-10  1.489973E-11 -8.693152E-13  2.091902E-12
         6   8 -8.253692E+02 -8.253692E+02  2.069446E-10  4.138815E-13  3.404109E-12 -1.615211E-11
         7   1 -8.253692E+02 -8.253692E+02  1.717663E-10  1.151323E-11  2.735217E-12 -1.146916E-11
         7   2 -8.253692E+02 -8.253692E+02  1.519427E-10  1.864622E-11  1.416313E-11 -1.181771E-11
         7   3 -8.253692E+02 -8.253692E+02  1.909024E-10  5.098071E-12  1.798769E-13 -1.871465E-12
         7   4 -8.253692E+02 -8.253692E+02  1.803603E-10  1.223106E-11  8.935738E-13 -1.204201E-12
         7   5 -8.253692E+02 -8.253692E+02  2.150803E-10  3.267939E-12 -1.232125E-12 -8.534913E-12
         7   6 -8.253692E+02 -8.253692E+02  1.981214E-10 -4.380246E-12  1.019031E-11 -4.970761E-12
         7   7 -8.253692E+02 -8.253692E+02  2.125593E-10 -1.151108E-12 -2.483898E-14  1.413059E-12
         7   8 -8.253692E+02 -8.253692E+02  2.049966E-10 -8.794981E-12  6.494514E-13  5.817885E-12
         8   1 -8.253692E+02 -8.253692E+02  1.698183E-10 -1.814180E-11  5.704234E-12 -1.418094E-11
         8   2 -8.253692E+02 -8.253692E+02  1.479321E-10 -1.150246E-11  2.247392E-11 -5.544042E-12
         8   3 -8.253692E+02 -8.253692E+02  1.964025E-10 -1.607240E-11  1.700108E-11 -1.851057E-12
         8   4 -8.253692E+02 -8.253692E+02  1.595055E-10 -9.346823E-12  2.677392E-11 -1.167712E-12
         8   5 -8.253692E+02 -8.253692E+02  2.292891E-10  1.503769E-11 -4.422134E-12 -7.190837E-12
         8   6 -8.253692E+02 -8.253692E+02  1.911315E-10  1.255440E-11  1.234755E-11 -4.994812E-12
         8   7 -8.253692E+02 -8.253692E+02  2.413207E-10  6.208222E-12  1.162902E-12  5.139044E-12
         8   8 -8.253692E+02 -8.253692E+02  1.882669E-10  3.517993E-12  1.069054E-11 -2.747345E-13
         9   1 -8.253692E+02 -8.253692E+02  1.694745E-10 -2.372920E-11 -2.097522E-11  9.556874E-12
         9   2 -8.253692E+02 -8.253692E+02  2.350185E-10 -3.376583E-11 -3.093389E-12  3.032673E-11
         9   3 -8.253692E+02 -8.253692E+02  1.386506E-10  3.862894E-12 -3.283401E-11  7.998567E-13
         9   4 -8.253692E+02 -8.253692E+02  1.980068E-10 -6.242712E-12 -7.263520E-12  5.896829E-12
         9   5 -8.253692E+02 -8.253692E+02  1.895273E-10 -8.829471E-12 -1.196599E-11  3.021243E-12
         9   6 -8.253692E+02 -8.253692E+02  2.214972E-10 -7.794768E-12  6.598886E-12  2.137625E-11
         9   7 -8.253692E+02 -8.253692E+02  1.756623E-10 -3.035131E-12 -2.607329E-11 -5.175325E-12
         9   8 -8.253692E+02 -8.253692E+02  2.008715E-10 -2.345328E-12  3.378713E-13 -2.670610E-12

 strains (elem, integ.pnt.,exx,eyy,ezz,exy,exz,eyz) forset EALL and time  0.8047813E+00

         1   1 -2.757726E-03 -2.757726E-03  2.363765E-03 -2.669233E-17 -5.004154E-18  1.466111E-17
         1   2 -2.757726E-03 -2.757726E-03  2.363765E-03 -7.044071E-17 -4.209635E-17  1.015487E-17
         1   3 -2.757726E-03 -2.757726E-03  2.363765E-03 -5.588494E-17 -9.821616E-19  7.769554E-17
         1   4 -2.757726E-03 -2.757726E-03  2.363765E-03 -9.963333E-17 -2.774206E-17  6.041077E-17
         1   5 -2.757726E-03 -2.757726E-03  2.363765E-03 -2.803032E-17  1.844274E-17 -8.595595E-18
         1   6 -2.757726E-03 -2.757726E-03  2.363765E-03 -5.730403E-17 -1.864946E-17 -1.254487E-17
         1   7 -2.757726E-03 -2.757726E-03  2.363765E-03 -7.527911E-17  2.306231E-17  5.465508E-17
         1   8 -2.757726E-03 -2.757726E-03  2.363765E-03 -1.045528E-16 -3.724623E-18  3.771103E-17
         2   1 -2.757726E-03 -2.757726E-03  2.363765E-03  3.605829E-17 -4.838472E-17  1.179915E-17
         2   2 -2.757726E-03 -2.757726E-03  2.363765E-03 -6.384534E-17 -9.941774E-17  1.860807E-17
         2   3 -2.757726E-03 -2.757726E-03  2.363765E-03  5.643906E-17 -7.113332E-17  5.107403E-17
         2   4 -2.757726E-03 -2.757726E-03  2.363765E-03 -4.465389E-17 -1.301673E-16  7.058708E-17
         2   5 -2.757726E-03 -2.757726E-03  2.363765E-03  6.271007E-18  8.996314E-18  5.006885E-18
         2   6 -2.757726E-03 -2.757726E-03  2.363765E-03 -1.035797E-16 -4.111768E-17  1.752807E-17
         2   7 -2.757726E-03 -2.757726E-03  2.363765E-03  4.476202E-17 -7.127481E-18  4.417365E-17
         2   8 -2.757726E-03 -2.757726E-03  2.363765E-03 -6.465624E-17 -6.659393E-17  6.948660E-17
         3   1 -2.757726E-03 -2.757726E-03  2.363765E-03  9.165942E-17  5.709522E-17  7.784788E-20
         3   2 -2.757726E-03 -2.757726E-03  2.363765E-03  1.965096E-17  7.792129E-18  6.110398E-18
         3   3 -2.757726E-03 -2.757726E-03  2.363765E-03  6.325067E-17  6.351950E-17 -2.692532E-17
         3   4 -2.757726E-03 -2.757726E-03  2.363765E-03 -1.265013E-17  9.459093E-18  7.421432E-18
         3   5 -2.757726E-03 -2.757726E-03  2.363765E-03  1.165813E-16  3.917723E-17  2.751859E-17
         3   6 -2.757726E-03 -2.757726E-03  2.363765E-03  3.613938E-17 -8.179684E-18  2.149484E-17
         3   7 -2.757726E-03 -2.757726E-03  2.363765E-03  1.312587E-16  3.374222E-17  6.235355E-19
         3   8 -2.757726E-03 -2.757726E-03  2.363765E-03  4.519450E-17 -2.161563E-17  2.286634E-17
         4   1 -2.757726E-03 -2.757726E-03  2.363765E-03  6.706193E-17 -1.577639E-19  4.202648E-19
         4   2 -2.757726E-03 -2.757726E-03  2.363765E-03 -1.754260E-17 -2.842460E-17 -1.762445E-18
         4   3 -2.757726E-03 -2.757726E-03  2.363765E-03 -2.019156E-17  8.181171E-18  6.680644E-17
         4   4 -2.757726E-03 -2.757726E-03  2.363765E-03 -1.047961E-16  2.093943E-17  8.073373E-17
         4   5 -2.757726E-03 -2.757726E-03  2.363765E-03  9.633564E-17  2.748674E-17 -6.964163E-18
         4   6 -2.757726E-03 -2.757726E-03  2.363765E-03  6.887296E-17 -6.449402E-19 -2.520214E-17
         4   7 -2.757726E-03 -2.757726E-03  2.363765E-03  3.319309E-17  1.769034E-17  5.877329E-17
         4   8 -2.757726E-03 -2.757726E-03  2.363765E-03  5.730403E-18  3.044859E-17  5.799683E-17
         5   1 -2.757726E-03 -2.757726E-03  2.363765E-03  3.330121E-17  3.665949E-17  5.574582E-17
         5   2 -2.757726E-03 -2.757726E-03  2.363765E-03 -6.379128E-17  2.660425E-17  3.118029E-17
         5   3 -2.757726E-03 -2.757726E-03  2.363765E-03  7.979316E-17  2.024349E-17  1.450536E-16
         5   4 -2.757726E-03 -2.757726E-03  2.363765E-03 -1.719121E-17  5.246350E-17  6.203520E-17
         5   5 -2.757726E-03 -2.757726E-03  2.363765E-03 -5.060054E-17 -3.305075E-18  2.660829E-18
         5   6 -2.757726E-03 -2.757726E-03  2.363765E-03 -8.974027E-17 -1.184662E-17  3.477835E-18
         5   7 -2.757726E-03 -2.757726E-03  2.363765E-03 -8.303678E-17  4.648460E-18  9.348231E-17
         5   8 -2.757726E-03 -2.757726E-03  2.363765E-03 -1.217440E-16  3.838215E-17  3.423793E-17
         6   1 -2.757726E-03 -2.757726E-03  2.363765E-03  1.034716E-16 -1.028515E-16 -1.224682E-17
         6   2 -2.757726E-03 -2.757726E-03  2.363765E-03  7.233282E-17 -2.986992E-17 -1.070329E-16
         6   3 -2.757726E-03 -2.757726E-03  2.363765E-03  2.339734E-16 -2.871237E-17 -5.787380E-17
         6   4 -2.757726E-03 -2.757726E-03  2.363765E-03  2.024022E-16 -2.330895E-18 -2.014493E-16
         6   5 -2.757726E-03 -2.757726E-03  2.363765E-03  3.243624E-17 -1.081242E-16  5.693447E-17
         6   6 -2.757726E-03 -2.757726E-03  2.363765E-03 -5.795275E-17 -3.589953E-17 -4.458358E-18
         6   7 -2.757726E-03 -2.757726E-03  2.363765E-03  9.341638E-17 -5.012076E-18  1.390238E-17
         6   8 -2.757726E-03 -2.757726E-03  2.363765E-03  2.594899E-18  2.136940E-17 -9.825233E-17
         7   1 -2.757726E-03 -2.757726E-03  2.363765E-03  7.218416E-17  1.679386E-17 -7.072647E-17
         7   2 -2.757726E-03 -2.757726E-03  2.363765E-03  1.169056E-16  8.734269E-17 -7.279123E-17
         7   3 -2.757726E-03 -2.757726E-03  2.363765E-03  3.196321E-17  1.106017E-18 -1.147627E-17
         7   4 -2.757726E-03 -2.757726E-03  2.363765E-03  7.668468E-17  5.511940E-18 -7.270018E-18
         7   5 -2.757726E-03 -2.757726E-03  2.363765E-03  2.048889E-17 -7.950388E-18 -5.240342E-17
         7   6 -2.757726E-03 -2.757726E-03  2.363765E-03 -2.746269E-17  6.256465E-17 -3.007593E-17
         7   7 -2.757726E-03 -2.757726E-03  2.363765E-03 -7.217064E-18 -1.710674E-19  9.009196E-18
         7   8 -2.757726E-03 -2.757726E-03  2.363765E-03 -5.514161E-17  3.991584E-18  3.652649E-17
         8   1 -2.757726E-03 -2.757726E-03  2.363765E-03 -1.137431E-16  3.498243E-17 -8.739476E-17
         8   2 -2.757726E-03 -2.757726E-03  2.363765E-03 -7.211658E-17  1.385081E-16 -3.421496E-17
         8   3 -2.757726E-03 -2.757726E-03  2.363765E-03 -1.007686E-16  1.045830E-16 -1.127771E-17
         8   4 -2.757726E-03 -2.757726E-03  2.363765E-03 -5.860148E-17  1.649144E-16 -7.198342E-18
         8   5 -2.757726E-03 -2.757726E-03  2.363765E-03  9.428135E-17 -2.816869E-17 -4.383338E-17
         8   6 -2.757726E-03 -2.757726E-03  2.363765E-03  7.871195E-17  7.535699E-17 -3.079388E-17
         8   7 -2.757726E-03 -2.757726E-03  2.363765E-03  3.892349E-17  5.791907E-18  3.228367E-17
         8   8 -2.757726E-03 -2.757726E-03  2.363765E-03  2.205665E-17  6.460963E-17 -1.655601E-18
         9   1 -2.757726E-03 -2.757726E-03  2.363765E-03 -1.487742E-16 -1.292716E-16  5.885309E-17
         9   2 -2.757726E-03 -2.757726E-03  2.363765E-03 -2.117005E-16 -1.888021E-17  1.870142E-16
         9   3 -2.757726E-03 -2.757726E-03  2.363765E-03  2.421906E-17 -2.025395E-16  4.792681E-18
         9   4 -2.757726E-03 -2.757726E-03  2.363765E-03 -3.913973E-17 -4.468315E-17  3.619923E-17
         9   5 -2.757726E-03 -2.757726E-03  2.363765E-03 -5.535785E-17 -7.306349E-17  1.810840E-17
         9   6 -2.757726E-03 -2.757726E-03  2.363765E-03 -4.887061E-17  4.154457E-17  1.312004E-16
         9   7 -2.757726E-03 -2.757726E-03  2.363765E-03 -1.902926E-17 -1.603732E-16 -3.249214E-17
         9   8 -2.757726E-03 -2.757726E-03  2.363765E-03 -1.470443E-17  2.673012E-18 -1.724895E-17

 displacements (vx,vy,vz) for set NALL and time  0.8137813E+00

         1  0.000000E+00  0.000000E+00  0.000000E+00
         2 -1.470728E+00  0.000000E+00  0.000000E+00
         3 -1.147135E+01  0.000000E+00  0.000000E+00
         4 -1.294208E+01  0.000000E+00  0.000000E+00
         5 -2.294271E+01  0.000000E+00  0.000000E+00
         6 -2.441344E+01  0.000000E+00  0.000000E+00
         7  0.000000E+00 -1.470728E+00  0.000000E+00
         8 -1.470728E+00 -1.470728E+00  0.000000E+00
         9 -1.147135E+01 -1.470728E+00  0.000000E+00
        10 -1.294208E+01 -1.470728E+00  0.000000E+00
        11 -2.294271E+01 -1.470728E+00  0.000000E+00
        12 -2.441344E+01 -1.470728E+00  0.000000E+00
        13  0.000000E+00 -1.147135E+01  0.000000E+00
        14 -1.470728E+00 -1.147135E+01  0.000000E+00
        15 -1.147135E+01 -1.147135E+01  0.000000E+00
        16 -1.294208E+01 -1.147135E+01  0.000000E+00
        17 -2.294271E+01 -1.147135E+01  0.000000E+00
        18 -2.441344E+01 -1.147135E+01  0.000000E+00
        19  0.000000E+00 -1.294208E+01  0.000000E+00
        20 -1.470728E+00 -1.294208E+01  0.000000E+00
        21 -1.147135E+01 -1.294208E+01  0.000000E+00
        22 -1.294208E+01 -1.294208E+01  0.000000E+00
        23 -2.294271E+01 -1.294208E+01  0.000000E+00
        24 -2.441344E+01 -1.294208E+01  0.000000E+00
        25  0.000000E+00 -2.294271E+01  0.000000E+00
        26 -1.470728E+00 -2.294271E+01  0.000000E+00
        27 -1.147135E+01 -2.294271E+01  0.000000E+00
        28 -1.294208E+01 -2.294271E+01  0.000000E+00
        29 -2.294271E+01 -2.294271E+01  0.000000E+00
        30 -2.441344E+01 -2.294271E+01  0.000000E+00
        31  0.000000E+00 -2.441344E+01  0.000000E+00
        32 -1.470728E+00 -2.441344E+01  0.000000E+00
        33 -1.147135E+01 -2.441344E+01  0.000000E+00
        34 -1.294208E+01 -2.441344E+01  0.000000E+00
        35 -2.294271E+01 -2.441344E+01  0.000000E+00
        36 -2.441344E+01 -2.441344E+01  0.000000E+00
        37  0.000000E+00  0.000000E+00  1.760066E+00
        38 -1.470728E+00  0.000000E+00  1.760066E+00
        39 -1.147135E+01  0.000000E+00  1.760066E+00
        40 -1.294208E+01  0.000000E+00  1.760066E+00
        41 -2.294271E+01  0.000000E+00  1.760066E+00
        42 -2.441344E+01  0.000000E+00  1.760066E+00
        43  0.000000E+00 -1.470728E+00  1.760066E+00
        44 -1.470728E+00 -1.470728E+00  1.760066E+00
        45 -1.147135E+01 -1.470728E+00  1.760066E+00
        46 -1.294208E+01 -1.470728E+00  1.760066E+00
        47 -2.294271E+01 -1.470728E+00  1.760066E+00
        48 -2.441344E+01 -1.470728E+00  1.760066E+00
        49  0.000000E+00 -1.147135E+01  1.760066E+00
        50 -1.470728E+00 -1.147135E+01  1.760066E+00
        51 -1.147135E+01 -1.147135E+01  1.760066E+00
        52 -1.294208E+01 -1.147135E+01  1.760066E+00
        53 -2.294271E+01 -1.147135E+01  1.760066E+00
        54 -2.441344E+01 -1.147135E+01  1.760066E+00
        55  0.000000E+00 -1.294208E+01  1.760066E+00
        56 -1.470728E+00 -1.294208E+01  1.760066E+00
        57 -1.147135E+01 -1.294208E+01  1.760066E+00
        58 -1.294208E+01 -1.294208E+01  1.760066E+00
        59 -2.294271E+01 -1.294208E+01  1.760066E+00
        60 -2.441344E+01 -1.294208E+01  1.760066E+00
        61  0.000000E+00 -2.294271E+01  1.760066E+00
        62 -1.470728E+00 -2.294271E+01  1.760066E+00
        63 -1.147135E+01 -2.294271E+01  1.760066E+00
        64 -1.294208E+01 -2.294271E+01  1.760066E+00
        65 -2.294271E+01 -2.294271E+01  1.760066E+00
        66 -2.441344E+01 -2.294271E+01  1.760066E+00
        67  0.000000E+00 -2.441344E+01  1.760066E+00
        68 -1.470728E+00 -2.441344E+01  1.760066E+00
        69 -1.147135E+01 -2.441344E+01  1.760066E+00
        70 -1.294208E+01 -2.441344E+01  1.760066E+00
        71 -2.294271E+01 -2.441344E+01  1.760066E+00
        72 -2.441344E+01 -2.441344E+01  1.760066E+00

 stresses (elem, integ.pnt.,sxx,syy,szz,sxy,sxz,syz) for set EALL and time  0.8137813E+00

         1   1 -8.789293E+02 -8.789293E+02  5.383783E-10 -2.956682E-12 -3.781453E-13  1.673031E-12
         1   2 -8.789293E+02 -8.789293E+02  5.380344E-10 -3.970955E-12 -5.479108E-12  1.776520E-12
         1   3 -8.789293E+02 -8.789293E+02  5.253087E-10 -1.005444E-11 -6.435097E-13  1.084163E-11
         1   4 -8.789293E+02 -8.789293E+02  5.254233E-10 -1.106871E-11 -6.707744E-12  1.096810E-11
         1   5 -8.789293E+02 -8.789293E+02  5.470914E-10 -3.436900E-12  3.686949E-12 -2.951639E-12
         1   6 -8.789293E+02 -8.789293E+02  5.467475E-10 -5.779850E-12 -1.414014E-12 -2.565096E-12
         1   7 -8.789293E+02 -8.789293E+02  5.319581E-10 -1.047436E-11  3.698083E-12  6.216958E-12
         1   8 -8.789293E+02 -8.789293E+02  5.319581E-10 -1.281731E-11 -2.361773E-12  6.626489E-12
         2   1 -8.789293E+02 -8.789293E+02  5.391808E-10 -3.802986E-12 -7.851905E-12  1.556509E-12
         2   2 -8.789293E+02 -8.789293E+02  5.641737E-10 -2.025532E-11 -1.735327E-11  2.247070E-12
         2   3 -8.789293E+02 -8.789293E+02  5.165956E-10 -2.997597E-12 -7.571842E-12  4.700279E-12
         2   4 -8.789293E+02 -8.789293E+02  5.364293E-10 -1.938102E-11 -1.440232E-11  9.358875E-12
         2   5 -8.789293E+02 -8.789293E+02  5.257672E-10 -1.808895E-13  1.532431E-12  2.714854E-12
         2   6 -8.789293E+02 -8.789293E+02  5.590146E-10 -1.237801E-11 -8.135317E-12  1.283579E-12
         2   7 -8.789293E+02 -8.789293E+02  5.091436E-10  6.098560E-12 -2.995255E-13  5.858623E-12
         2   8 -8.789293E+02 -8.789293E+02  5.373465E-10 -6.339746E-12 -6.954859E-12  8.379000E-12
         3   1 -8.789293E+02 -8.789293E+02  5.611929E-10  2.134281E-11  1.162491E-11 -8.800445E-13
         3   2 -8.789293E+02 -8.789293E+02  5.461743E-10  4.907704E-12  2.552644E-12  1.346916E-12
         3   3 -8.789293E+02 -8.789293E+02  5.467475E-10  1.695193E-11  4.035281E-12 -7.671112E-12
         3   4 -8.789293E+02 -8.789293E+02  5.305824E-10  1.722757E-13  1.821936E-13  9.199992E-13
         3   5 -8.789293E+02 -8.789293E+02  5.265698E-10  1.343751E-11  8.361081E-12  3.487724E-12
         3   6 -8.789293E+02 -8.789293E+02  5.249647E-10  4.961541E-12 -1.236610E-12  5.470810E-12
         3   7 -8.789293E+02 -8.789293E+02  5.249647E-10  1.779608E-11  5.166997E-13 -3.307722E-12
         3   8 -8.789293E+02 -8.789293E+02  5.224425E-10  8.975565E-12 -3.476500E-12  5.026487E-12
         4   1 -8.789293E+02 -8.789293E+02  5.434228E-10  1.234355E-11 -6.538871E-13 -2.518077E-12
         4   2 -8.789293E+02 -8.789293E+02  5.345950E-10 -4.169072E-12 -7.563174E-12 -4.069344E-12
         4   3 -8.789293E+02 -8.789293E+02  5.238183E-10 -1.972557E-12  1.021855E-12  5.503351E-12
         4   4 -8.789293E+02 -8.789293E+02  5.058188E-10 -1.848518E-11  2.440491E-12  1.086137E-11
         4   5 -8.789293E+02 -8.789293E+02  5.452571E-10  1.621976E-11  4.441089E-12  5.213710E-14
         4   6 -8.789293E+02 -8.789293E+02  5.509894E-10  1.119792E-11 -2.481334E-12 -5.226546E-12
         4   7 -8.789293E+02 -8.789293E+02  5.435374E-10  1.112040E-11  2.411021E-12  7.758313E-12
         4   8 -8.789293E+02 -8.789293E+02  5.396394E-10  6.098560E-12  3.860308E-12  9.248804E-12
         5   1 -8.789293E+02 -8.789293E+02  5.582121E-10  1.154247E-11  6.389376E-12  1.248639E-11
         5   2 -8.789293E+02 -8.789293E+02  5.403273E-10 -7.252808E-12  1.958325E-12  2.744455E-12
         5   3 -8.789293E+02 -8.789293E+02  5.083410E-10  8.096959E-12  4.362424E-12  2.264453E-11
         5   4 -8.789293E+02 -8.789293E+02  5.015769E-10 -1.069832E-11  9.476523E-12  9.239985E-12
         5   5 -8.789293E+02 -8.789293E+02  5.686449E-10 -9.509619E-12  1.333020E-12  4.544594E-12
         5   6 -8.789293E+02 -8.789293E+02  5.439960E-10 -1.457453E-11 -3.063002E-12 -1.248930E-12
         5   7 -8.789293E+02 -8.789293E+02  5.395248E-10 -1.736539E-11  3.648257E-12  1.449257E-11
         5   8 -8.789293E+02 -8.789293E+02  5.254233E-10 -2.267148E-11  8.867439E-12  4.951087E-12
         6   1 -8.789293E+02 -8.789293E+02  5.124683E-10  1.855409E-11 -1.302793E-11 -1.955841E-12
         6   2 -8.789293E+02 -8.789293E+02  5.459450E-10  1.472957E-11 -4.603683E-12 -1.532059E-11
         6   3 -8.789293E+02 -8.789293E+02  5.318435E-10  4.596316E-11 -4.986127E-12 -1.039761E-11
         6   4 -8.789293E+02 -8.789293E+02  5.782752E-10  4.206973E-11 -1.413263E-12 -3.045049E-11
         6   5 -8.789293E+02 -8.789293E+02  5.122390E-10  6.133015E-12 -1.701552E-11  8.260048E-12
         6   6 -8.789293E+02 -8.789293E+02  5.323021E-10 -4.203527E-12 -7.645508E-12  8.655796E-14
         6   7 -8.789293E+02 -8.789293E+02  5.227864E-10  2.453206E-11 -3.550607E-12 -6.576362E-15
         6   8 -8.789293E+02 -8.789293E+02  5.555752E-10  1.412661E-11  5.827051E-13 -1.465160E-11
         7   1 -8.789293E+02 -8.789293E+02  5.222132E-10  1.139604E-11  2.073447E-12 -7.728169E-12
         7   2 -8.789293E+02 -8.789293E+02  5.031820E-10  1.824400E-11  1.114572E-11 -1.252812E-11
         7   3 -8.789293E+02 -8.789293E+02  5.384930E-10  4.849561E-12 -3.796018E-13 -1.703341E-12
         7   4 -8.789293E+02 -8.789293E+02  5.318435E-10  1.169752E-11 -2.945408E-12 -6.010649E-13
         7   5 -8.789293E+02 -8.789293E+02  5.545434E-10 -2.541067E-12 -1.295957E-12 -5.551210E-12
         7   6 -8.789293E+02 -8.789293E+02  5.449132E-10 -1.169752E-11  7.762083E-12 -5.456599E-12
         7   7 -8.789293E+02 -8.789293E+02  5.461743E-10 -3.092349E-12  1.153246E-12  1.104123E-12
         7   8 -8.789293E+02 -8.789293E+02  5.491551E-10 -1.224880E-11 -1.412560E-12  6.277805E-12
         8   1 -8.789293E+02 -8.789293E+02  5.187738E-10 -1.085337E-11 -1.761879E-12 -1.058311E-11
         8   2 -8.789293E+02 -8.789293E+02  4.996279E-10 -3.600562E-12  1.055049E-11 -7.683083E-12
         8   3 -8.789293E+02 -8.789293E+02  5.467475E-10 -1.939825E-11  1.464147E-11 -3.549153E-13
         8   4 -8.789293E+02 -8.789293E+02  5.116658E-10 -1.212821E-11  1.859964E-11 -1.993198E-12
         8   5 -8.789293E+02 -8.789293E+02  5.637151E-10  2.122437E-11 -4.194159E-12 -4.183257E-12
         8   6 -8.789293E+02 -8.789293E+02  5.370026E-10  1.712421E-11  7.767927E-12 -7.105325E-12
         8   7 -8.789293E+02 -8.789293E+02  5.743772E-10  7.717952E-12  6.019204E-12  5.484491E-12
         8   8 -8.789293E+02 -8.789293E+02  5.317288E-10  3.686700E-12  1.004743E-11 -1.492029E-12
         9   1 -8.789293E+02 -8.789293E+02  5.211814E-10 -3.107854E-11 -1.457533E-11  9.187648E-12
         9   2 -8.789293E+02 -8.789293E+02  5.860711E-10 -4.424040E-11 -2.560701E-12  2.763630E-11
         9   3 -8.789293E+02 -8.789293E+02  4.873608E-10  4.479169E-12 -2.479498E-11  1.201248E-12
         9   4 -8.789293E+02 -8.789293E+02  5.470914E-10 -8.028048E-12 -6.300156E-12  5.544568E-12
         9   5 -8.789293E+02 -8.789293E+02  5.290920E-10 -1.874360E-11 -1.047719E-11  3.295927E-12
         9   6 -8.789293E+02 -8.789293E+02  5.633712E-10 -2.136219E-11  1.852687E-12  1.998492E-11
         9   7 -8.789293E+02 -8.789293E+02  5.116658E-10 -1.653847E-12 -2.341324E-11 -3.919856E-12
         9   8 -8.789293E+02 -8.789293E+02  5.406712E-10 -5.168271E-12 -4.357968E-12 -1.110688E-12

 strains (elem, integ.pnt.,exx,eyy,ezz,exy,exz,eyz) forset EALL and time  0.8137813E+00

         1   1 -2.937131E-03 -2.937131E-03  2.517541E-03 -1.855289E-17 -2.232991E-18  1.021254E-17
         1   2 -2.937131E-03 -2.937131E-03  2.517541E-03 -2.491735E-17 -3.371750E-17  1.085750E-17
         1   3 -2.937131E-03 -2.937131E-03  2.517541E-03 -6.309062E-17 -3.865139E-18  6.680357E-17
         1   4 -2.937131E-03 -2.937131E-03  2.517541E-03 -6.945509E-17 -4.129522E-17  6.759041E-17
         1   5 -2.937131E-03 -2.937131E-03  2.517541E-03 -2.156621E-17  2.313320E-17 -1.864540E-17
         1   6 -2.937131E-03 -2.937131E-03  2.517541E-03 -3.626799E-17 -8.351307E-18 -1.623419E-17
         1   7 -2.937131E-03 -2.937131E-03  2.517541E-03 -6.572559E-17  2.322670E-17  3.794563E-17
         1   8 -2.937131E-03 -2.937131E-03  2.517541E-03 -8.042737E-17 -1.417636E-17  4.049873E-17
         2   1 -2.937131E-03 -2.937131E-03  2.517541E-03 -2.386336E-17 -4.823193E-17  9.634917E-18
         2   2 -2.937131E-03 -2.937131E-03  2.517541E-03 -1.271001E-16 -1.068769E-16  1.384489E-17
         2   3 -2.937131E-03 -2.937131E-03  2.517541E-03 -1.880963E-17 -4.655551E-17  2.903910E-17
         2   4 -2.937131E-03 -2.937131E-03  2.517541E-03 -1.216140E-16 -8.871501E-17  5.774070E-17
         2   5 -2.937131E-03 -2.937131E-03  2.517541E-03 -1.135064E-18  1.032633E-17  1.686299E-17
         2   6 -2.937131E-03 -2.937131E-03  2.517541E-03 -7.767079E-17 -4.934559E-17  7.832927E-18
         2   7 -2.937131E-03 -2.937131E-03  2.517541E-03  3.826786E-17 -1.176250E-18  3.626717E-17
         2   8 -2.937131E-03 -2.937131E-03  2.517541E-03 -3.978128E-17 -4.225475E-17  5.162717E-17
         3   1 -2.937131E-03 -2.937131E-03  2.517541E-03  1.339240E-16  7.167111E-17 -5.323916E-18
         3   2 -2.937131E-03 -2.937131E-03  2.517541E-03  3.079536E-17  1.567463E-17  8.415431E-18
         3   3 -2.937131E-03 -2.937131E-03  2.517541E-03  1.063717E-16  2.481953E-17 -4.724020E-17
         3   4 -2.937131E-03 -2.937131E-03  2.517541E-03  1.081013E-18  1.037240E-18  5.780536E-18
         3   5 -2.937131E-03 -2.937131E-03  2.517541E-03  8.431902E-17  5.130479E-17  2.193066E-17
         3   6 -2.937131E-03 -2.937131E-03  2.517541E-03  3.113318E-17 -7.934724E-18  3.414838E-17
         3   7 -2.937131E-03 -2.937131E-03  2.517541E-03  1.116686E-16  2.863576E-18 -2.001264E-17
         3   8 -2.937131E-03 -2.937131E-03  2.517541E-03  5.632078E-17 -2.178352E-17  3.140472E-17
         4   1 -2.937131E-03 -2.937131E-03  2.517541E-03  7.745458E-17 -3.909134E-18 -1.548267E-17
         4   2 -2.937131E-03 -2.937131E-03  2.517541E-03 -2.616052E-17 -4.655510E-17 -2.515012E-17
         4   3 -2.937131E-03 -2.937131E-03  2.517541E-03 -1.237760E-17  6.340785E-18  3.402773E-17
         4   4 -2.937131E-03 -2.937131E-03  2.517541E-03 -1.159927E-16  1.509699E-17  6.700625E-17
         4   5 -2.937131E-03 -2.937131E-03  2.517541E-03  1.017774E-16  2.788352E-17  5.436115E-19
         4   6 -2.937131E-03 -2.937131E-03  2.517541E-03  7.026585E-17 -1.484352E-17 -3.238529E-17
         4   7 -2.937131E-03 -2.937131E-03  2.517541E-03  6.977939E-17  1.500889E-17  4.810819E-17
         4   8 -2.937131E-03 -2.937131E-03  2.517541E-03  3.826786E-17  2.395427E-17  5.696044E-17
         5   1 -2.937131E-03 -2.937131E-03  2.517541E-03  7.242787E-17  3.931453E-17  7.686639E-17
         5   2 -2.937131E-03 -2.937131E-03  2.517541E-03 -4.551065E-17  1.196490E-17  1.684188E-17
         5   3 -2.937131E-03 -2.937131E-03  2.517541E-03  5.080761E-17  2.690835E-17  1.395651E-16
         5   4 -2.937131E-03 -2.937131E-03  2.517541E-03 -6.713091E-17  5.847393E-17  5.693388E-17
         5   5 -2.937131E-03 -2.937131E-03  2.517541E-03 -5.967192E-17  7.769986E-18  2.729536E-17
         5   6 -2.937131E-03 -2.937131E-03  2.517541E-03 -9.145370E-17 -1.936344E-17 -8.075063E-18
         5   7 -2.937131E-03 -2.937131E-03  2.517541E-03 -1.089661E-16  2.245195E-17  8.869690E-17
         5   8 -2.937131E-03 -2.937131E-03  2.517541E-03 -1.422613E-16  5.466613E-17  3.019250E-17
         6   1 -2.937131E-03 -2.937131E-03  2.517541E-03  1.164251E-16 -8.049713E-17 -1.181772E-17
         6   2 -2.937131E-03 -2.937131E-03  2.517541E-03  9.242661E-17 -2.850041E-17 -9.418108E-17
         6   3 -2.937131E-03 -2.937131E-03  2.517541E-03  2.884143E-16 -3.073382E-17 -6.392255E-17
         6   4 -2.937131E-03 -2.937131E-03  2.517541E-03  2.639834E-16 -8.681156E-18 -1.875673E-16
         6   5 -2.937131E-03 -2.937131E-03  2.517541E-03  3.848406E-17 -1.053417E-16  5.193181E-17
         6   6 -2.937131E-03 -2.937131E-03  2.517541E-03 -2.637672E-17 -4.750749E-17  1.955950E-18
         6   7 -2.937131E-03 -2.937131E-03  2.517541E-03  1.539363E-16 -2.175720E-17  9.079897E-19
         6   8 -2.937131E-03 -2.937131E-03  2.517541E-03  8.864307E-17  3.754708E-18 -8.901071E-17
         7   1 -2.937131E-03 -2.937131E-03  2.517541E-03  7.150901E-17  1.271381E-17 -4.764487E-17
         7   2 -2.937131E-03 -2.937131E-03  2.517541E-03  1.144793E-16  6.871028E-17 -7.714936E-17
         7   3 -2.937131E-03 -2.937131E-03  2.517541E-03  3.043052E-17 -2.305249E-18 -1.045802E-17
         7   4 -2.937131E-03 -2.937131E-03  2.517541E-03  7.340079E-17 -1.814209E-17 -3.532369E-18
         7   5 -2.937131E-03 -2.937131E-03  2.517541E-03 -1.594494E-17 -8.311646E-18 -3.405590E-17
         7   6 -2.937131E-03 -2.937131E-03  2.517541E-03 -7.340079E-17  4.759700E-17 -3.301711E-17
         7   7 -2.937131E-03 -2.937131E-03  2.517541E-03 -1.940418E-17  7.259719E-18  7.022591E-18
         7   8 -2.937131E-03 -2.937131E-03  2.517541E-03 -7.686003E-17 -8.577122E-18  3.941076E-17
         8   1 -2.937131E-03 -2.937131E-03  2.517541E-03 -6.810382E-17 -1.093481E-17 -6.515603E-17
         8   2 -2.937131E-03 -2.937131E-03  2.517541E-03 -2.259317E-17  6.506040E-17 -4.740980E-17
         8   3 -2.937131E-03 -2.937131E-03  2.517541E-03 -1.217221E-16  9.015752E-17 -2.024866E-18
         8   4 -2.937131E-03 -2.937131E-03  2.517541E-03 -7.610332E-17  1.145884E-16 -1.229046E-17
         8   5 -2.937131E-03 -2.937131E-03  2.517541E-03  1.331808E-16 -2.610987E-17 -2.520195E-17
         8   6 -2.937131E-03 -2.937131E-03  2.517541E-03  1.074527E-16  4.772332E-17 -4.381408E-17
         8   7 -2.937131E-03 -2.937131E-03  2.517541E-03  4.842938E-17  3.635457E-17  3.446997E-17
         8   8 -2.937131E-03 -2.937131E-03  2.517541E-03  2.313368E-17  6.121787E-17 -9.167908E-18
         9   1 -2.937131E-03 -2.937131E-03  2.517541E-03 -1.950148E-16 -8.986342E-17  5.658120E-17
         9   2 -2.937131E-03 -2.937131E-03  2.517541E-03 -2.776041E-16 -1.570593E-17  1.703994E-16
         9   3 -2.937131E-03 -2.937131E-03  2.517541E-03  2.810634E-17 -1.529934E-16  7.287004E-18
         9   4 -2.937131E-03 -2.937131E-03  2.517541E-03 -5.037521E-17 -3.883846E-17  3.404293E-17
         9   5 -2.937131E-03 -2.937131E-03  2.517541E-03 -1.176142E-16 -6.429580E-17  1.986905E-17
         9   6 -2.937131E-03 -2.937131E-03  2.517541E-03 -1.340456E-16  1.180752E-17  1.226845E-16
         9   7 -2.937131E-03 -2.937131E-03  2.517541E-03 -1.037773E-17 -1.443334E-16 -2.466869E-17
         9   8 -2.937131E-03 -2.937131E-03  2.517541E-03 -3.243039E-17 -2.671921E-17 -7.523834E-18

 displacements (vx,vy,vz) for set NALL and time  0.8227813E+00

         1  0.000000E+00  0.000000E+00  0.000000E+00
         2 -1.560686E+00  0.000000E+00  0.000000E+00
         3 -1.156138E+01  0.000000E+00  0.000000E+00
         4 -1.312206E+01  0.000000E+00  0.000000E+00
         5 -2.312275E+01  0.000000E+00  0.000000E+00
         6 -2.468344E+01  0.000000E+00  0.000000E+00
         7  0.000000E+00 -1.560686E+00  0.000000E+00
         8 -1.560686E+00 -1.560686E+00  0.000000E+00
         9 -1.156138E+01 -1.560686E+00  0.000000E+00
        10 -1.312206E+01 -1.560686E+00  0.000000E+00
        11 -2.312275E+01 -1.560686E+00  0.000000E+00
        12 -2.468344E+01 -1.560686E+00  0.000000E+00
        13  0.000000E+00 -1.156138E+01  0.000000E+00
        14 -1.560686E+00 -1.156138E+01  0.000000E+00
        15 -1.156138E+01 -1.156138E+01  0.000000E+00
        16 -1.312206E+01 -1.156138E+01  0.000000E+00
        17 -2.312275E+01 -1.156138E+01  0.000000E+00
        18 -2.468344E+01 -1.156138E+01  0.000000E+00
        19  0.000000E+00 -1.312206E+01  0.000000E+00
        20 -1.560686E+00 -1.312206E+01  0.000000E+00
        21 -1.156138E+01 -1.312206E+01  0.000000E+00
        22 -1.312206E+01 -1.312206E+01  0.000000E+00
        23 -2.312275E+01 -1.312206E+01  0.000000E+00
        24 -2.468344E+01 -1.312206E+01  0.000000E+00
        25  0.000000E+00 -2.312275E+01  0.000000E+00
        26 -1.560686E+00 -2.312275E+01  0.000000E+00
        27 -1.156138E+01 -2.312275E+01  0.000000E+00
        28 -1.312206E+01 -2.312275E+01  0.000000E+00
        29 -2.312275E+01 -2.312275E+01  0.000000E+00
        30 -2.468344E+01 -2.312275E+01  0.000000E+00
        31  0.000000E+00 -2.468344E+01  0.000000E+00
        32 -1.560686E+00 -2.468344E+01  0.000000E+00
        33 -1.156138E+01 -2.468344E+01  0.000000E+00
        34 -1.312206E+01 -2.468344E+01  0.000000E+00
        35 -2.312275E+01 -2.468344E+01  0.000000E+00
        36 -2.468344E+01 -2.468344E+01  0.000000E+00
        37  0.000000E+00  0.000000E+00  1.867410E+00
        38 -1.560686E+00  0.000000E+00  1.867410E+00
        39 -1.156138E+01  0.000000E+00  1.867410E+00
        40 -1.312206E+01  0.000000E+00  1.867410E+00
        41 -2.312275E+01  0.000000E+00  1.867410E+00
        42 -2.468344E+01  0.000000E+00  1.867410E+00
        43  0.000000E+00 -1.560686E+00  1.867410E+00
        44 -1.560686E+00 -1.560686E+00  1.867410E+00
        45 -1.156138E+01 -1.560686E+00  1.867410E+00
        46 -1.312206E+01 -1.560686E+00  1.867410E+00
        47 -2.312275E+01 -1.560686E+00  1.867410E+00
        48 -2.468344E+01 -1.560686E+00  1.867410E+00
        49  0.000000E+00 -1.156138E+01  1.867410E+00
        50 -1.560686E+00 -1.156138E+01  1.867410E+00
        51 -1.156138E+01 -1.156138E+01  1.867410E+00
        52 -1.312206E+01 -1.156138E+01  1.867410E+00
        53 -2.312275E+01 -1.156138E+01  1.867410E+00
        54 -2.468344E+01 -1.156138E+01  1.867410E+00
        55  0.000000E+00 -1.312206E+01  1.867410E+00
        56 -1.560686E+00 -1.312206E+01  1.867410E+00
        57 -1.156138E+01 -1.312206E+01  1.867410E+00
        58 -1.312206E+01 -1.312206E+01  1.867410E+00
        59 -2.312275E+01 -1.312206E+01  1.867410E+00
        60 -2.468344E+01 -1.312206E+01  1.867410E+00
        61  0.000000E+00 -2.312275E+01  1.867410E+00
        62 -1.560686E+00 -2.312275E+01  1.867410E+00
        63 -1.156138E+01 -2.312275E+01  1.867410E+00
        64 -1.312206E+01 -2.312275E+01  1.867410E+00
        65 -2.312275E+01 -2.312275E+01  1.867410E+00
        66 -2.468344E+01 -2.312275E+01  1.867410E+00
        67  0.000000E+00 -2.468344E+01  1.867410E+00
        68 -1.560686E+00 -2.468344E+01  1.867410E+00
        69 -1.156138E+01 -2.468344E+01  1.867410E+00
        70 -1.312206E+01 -2.468344E+01  1.867410E+00
        71 -2.312275E+01 -2.468344E+01  1.867410E+00
        72 -2.468344E+01 -2.468344E+01  1.867410E+00

 stresses (elem, integ.pnt.,sxx,syy,szz,sxy,sxz,syz) for set EALL and time  0.8227813E+00

         1   1 -9.324629E+02 -9.324629E+02  3.165860E-10 -5.860034E-12 -6.209520E-13  1.294896E-12
         1   2 -9.324629E+02 -9.324629E+02  3.125713E-10 -1.155012E-11 -7.109902E-12  1.010864E-12
         1   3 -9.324629E+02 -9.324629E+02  3.037391E-10 -1.618393E-11  4.796944E-13  6.378345E-12
         1   4 -9.324629E+02 -9.324629E+02  2.954803E-10 -2.187402E-11 -1.171003E-12  7.098086E-12
         1   5 -9.324629E+02 -9.324629E+02  3.134890E-10 -2.925715E-12  4.195895E-12 -2.374405E-13
         1   6 -9.324629E+02 -9.324629E+02  3.118831E-10 -1.996370E-12 -2.293055E-12 -2.338945E-12
         1   7 -9.324629E+02 -9.324629E+02  3.107361E-10 -1.182333E-11  3.466009E-12  4.828494E-12
         1   8 -9.324629E+02 -9.324629E+02  3.046567E-10 -1.091119E-11  1.832825E-12  3.748277E-12
         2   1 -9.324629E+02 -9.324629E+02  3.152096E-10  6.406454E-12 -5.779457E-12  1.725638E-12
         2   2 -9.324629E+02 -9.324629E+02  3.373476E-10 -1.324746E-11 -1.644550E-11  2.282583E-12
         2   3 -9.324629E+02 -9.324629E+02  2.842392E-10  5.653513E-12 -1.139625E-11  6.690867E-12
         2   4 -9.324629E+02 -9.324629E+02  3.083273E-10 -1.393156E-11 -1.542448E-11  8.127905E-12
         2   5 -9.324629E+02 -9.324629E+02  3.028214E-10 -1.617748E-12  3.403678E-12  1.464444E-12
         2   6 -9.324629E+02 -9.324629E+02  3.270242E-10 -1.225358E-11 -7.148528E-12  2.666762E-12
         2   7 -9.324629E+02 -9.324629E+02  2.851568E-10 -8.432942E-13 -1.163733E-12  6.429673E-12
         2   8 -9.324629E+02 -9.324629E+02  3.110802E-10 -1.172007E-11 -5.542242E-12  8.508838E-12
         3   1 -9.324629E+02 -9.324629E+02  3.324153E-10  1.942373E-11  9.880997E-12 -4.337151E-13
         3   2 -9.324629E+02 -9.324629E+02  3.181919E-10  4.072336E-12  1.526803E-12  9.469258E-13
         3   3 -9.324629E+02 -9.324629E+02  3.192242E-10  1.438763E-11  4.909593E-12 -5.876202E-12
         3   4 -9.324629E+02 -9.324629E+02  3.048861E-10 -1.170286E-12  4.960557E-13 -5.296884E-13
         3   5 -9.324629E+02 -9.324629E+02  3.043126E-10  1.418972E-11  7.393127E-12  3.828070E-12
         3   6 -9.324629E+02 -9.324629E+02  2.985773E-10  3.725984E-12 -3.655902E-13  5.009595E-12
         3   7 -9.324629E+02 -9.324629E+02  2.981185E-10  1.455973E-11  2.508228E-12 -1.592523E-12
         3   8 -9.324629E+02 -9.324629E+02  2.920391E-10  4.027160E-12 -1.835252E-12  3.544883E-12
         4   1 -9.324629E+02 -9.324629E+02  3.202566E-10  1.466945E-11 -1.058755E-12  8.544664E-14
         4   2 -9.324629E+02 -9.324629E+02  3.063773E-10  5.111395E-12 -1.029194E-11 -5.423787E-12
         4   3 -9.324629E+02 -9.324629E+02  3.082126E-10 -4.726320E-12  1.375620E-12  4.288815E-12
         4   4 -9.324629E+02 -9.324629E+02  2.877950E-10 -1.428437E-11  1.393134E-12  6.074177E-12
         4   5 -9.324629E+02 -9.324629E+02  3.086714E-10  1.276988E-11  5.276249E-12  1.148039E-12
         4   6 -9.324629E+02 -9.324629E+02  3.114243E-10  1.590212E-11 -3.929565E-12 -7.132884E-12
         4   7 -9.324629E+02 -9.324629E+02  3.156684E-10  3.889479E-12  5.088949E-12  5.281351E-12
         4   8 -9.324629E+02 -9.324629E+02  3.123419E-10  7.021715E-12  5.084571E-12  4.619034E-12
         5   1 -9.324629E+02 -9.324629E+02  3.256477E-10  4.853244E-12  6.968351E-12  6.500832E-12
         5   2 -9.324629E+02 -9.324629E+02  3.134890E-10 -1.010232E-11 -2.524256E-12  3.476415E-13
         5   3 -9.324629E+02 -9.324629E+02  2.885980E-10  2.306151E-12  5.762825E-12  1.925105E-11
         5   4 -9.324629E+02 -9.324629E+02  2.838951E-10 -1.264941E-11  9.090492E-12  3.675308E-12
         5   5 -9.324629E+02 -9.324629E+02  3.324153E-10 -9.086925E-12  3.999854E-12  8.149084E-13
         5   6 -9.324629E+02 -9.324629E+02  3.019038E-10 -6.161211E-12 -5.352641E-12 -2.648340E-12
         5   7 -9.324629E+02 -9.324629E+02  3.224360E-10 -2.409412E-11  5.712205E-12  1.367021E-11
         5   8 -9.324629E+02 -9.324629E+02  2.985773E-10 -2.113399E-11  9.004843E-12  9.420873E-13
         6   1 -9.324629E+02 -9.324629E+02  2.929568E-10  1.753708E-11 -6.971001E-12 -5.310474E-12
         6   2 -9.324629E+02 -9.324629E+02  3.164713E-10  1.189217E-11 -3.222997E-12 -1.392787E-11
         6   3 -9.324629E+02 -9.324629E+02  3.094743E-10  3.951436E-11 -4.767053E-12 -1.147541E-11
         6   4 -9.324629E+02 -9.324629E+02  3.475564E-10  3.366293E-11 -8.439095E-13 -2.887392E-11
         6   5 -9.324629E+02 -9.324629E+02  2.879098E-10  2.547093E-12 -1.012700E-11  4.614685E-12
         6   6 -9.324629E+02 -9.324629E+02  2.936450E-10 -2.822454E-12 -7.044525E-12  1.813198E-12
         6   7 -9.324629E+02 -9.324629E+02  3.051155E-10  1.294198E-11 -3.549767E-12 -1.655340E-12
         6   8 -9.324629E+02 -9.324629E+02  3.241566E-10  7.228236E-12  3.733765E-13 -1.345044E-11
         7   1 -9.324629E+02 -9.324629E+02  2.997244E-10  1.351422E-11  1.894688E-12 -5.394727E-12
         7   2 -9.324629E+02 -9.324629E+02  2.852715E-10  2.338851E-11  8.560968E-12 -7.918761E-12
         7   3 -9.324629E+02 -9.324629E+02  3.152096E-10  6.217143E-12 -1.141618E-12 -1.611696E-12
         7   4 -9.324629E+02 -9.324629E+02  3.134890E-10  1.609143E-11 -7.836358E-12 -3.877256E-13
         7   5 -9.324629E+02 -9.324629E+02  3.220919E-10  1.557513E-12  3.873894E-13 -5.220598E-12
         7   6 -9.324629E+02 -9.324629E+02  3.131449E-10 -6.987295E-12  7.065710E-12 -1.959701E-12
         7   7 -9.324629E+02 -9.324629E+02  3.094743E-10 -2.022185E-12  2.462855E-12 -8.771174E-13
         7   8 -9.324629E+02 -9.324629E+02  3.132596E-10 -1.056699E-11 -4.214370E-12  5.186025E-12
         8   1 -9.324629E+02 -9.324629E+02  2.905480E-10 -1.125540E-11  6.998005E-13 -1.323331E-11
         8   2 -9.324629E+02 -9.324629E+02  2.752922E-10  5.438387E-12  1.112941E-11 -4.549094E-12
         8   3 -9.324629E+02 -9.324629E+02  3.275977E-10 -2.061768E-11  1.337504E-11 -1.603990E-12
         8   4 -9.324629E+02 -9.324629E+02  3.001832E-10 -4.113210E-12  8.891447E-12 -8.032668E-13
         8   5 -9.324629E+02 -9.324629E+02  3.349388E-10  2.244195E-11  5.460521E-15 -8.479989E-12
         8   6 -9.324629E+02 -9.324629E+02  3.033949E-10  1.872457E-11  1.047010E-11 -4.561749E-12
         8   7 -9.324629E+02 -9.324629E+02  3.402153E-10  2.891294E-12  7.925607E-12  2.658938E-12
         8   8 -9.324629E+02 -9.324629E+02  2.970862E-10 -7.572438E-13  3.091733E-12 -1.312845E-12
         9   1 -9.324629E+02 -9.324629E+02  2.975450E-10 -3.345641E-11 -1.339615E-11  9.223506E-12
         9   2 -9.324629E+02 -9.324629E+02  3.475564E-10 -3.407597E-11 -2.625020E-12  2.526564E-11
         9   3 -9.324629E+02 -9.324629E+02  2.829774E-10 -7.778959E-12 -1.555327E-11  1.167050E-12
         9   4 -9.324629E+02 -9.324629E+02  3.230095E-10 -8.742723E-12 -3.783841E-12  4.682300E-12
         9   5 -9.324629E+02 -9.324629E+02  3.030508E-10 -1.073909E-11 -8.588723E-12  3.684581E-12
         9   6 -9.324629E+02 -9.324629E+02  3.261065E-10 -1.101445E-11  1.954726E-12  1.546673E-11
         9   7 -9.324629E+02 -9.324629E+02  2.888274E-10 -2.753614E-12 -1.460974E-11 -4.091651E-12
         9   8 -9.324629E+02 -9.324629E+02  3.022479E-10 -3.097815E-12 -3.400756E-12 -4.648287E-12

 strains (elem, integ.pnt.,exx,eyy,ezz,exy,exz,eyz) forset EALL and time  0.8227813E+00

         1   1 -3.116501E-03 -3.116501E-03  2.671287E-03 -3.680185E-17 -3.706352E-18  7.950948E-18
         1   2 -3.116501E-03 -3.116501E-03  2.671287E-03 -7.253640E-17 -4.375066E-17  6.150424E-18
         1   3 -3.116501E-03 -3.116501E-03  2.671287E-03 -1.016374E-16  3.038498E-18  3.932169E-17
         1   4 -3.116501E-03 -3.116501E-03  2.671287E-03 -1.373720E-16 -7.148211E-18  4.371560E-17
         1   5 -3.116501E-03 -3.116501E-03  2.671287E-03 -1.837391E-17  2.636540E-17 -1.615484E-18
         1   6 -3.116501E-03 -3.116501E-03  2.671287E-03 -1.253749E-17 -1.367891E-17 -1.476256E-17
         1   7 -3.116501E-03 -3.116501E-03  2.671287E-03 -7.425219E-17  2.168217E-17  2.964718E-17
         1   8 -3.116501E-03 -3.116501E-03  2.671287E-03 -6.852386E-17  1.160354E-17  2.280262E-17
         2   1 -3.116501E-03 -3.116501E-03  2.671287E-03  4.023345E-17 -3.542419E-17  1.064292E-17
         2   2 -3.116501E-03 -3.116501E-03  2.671287E-03 -8.319596E-17 -1.012460E-16  1.409619E-17
         2   3 -3.116501E-03 -3.116501E-03  2.671287E-03  3.550487E-17 -7.006952E-17  4.128411E-17
         2   4 -3.116501E-03 -3.116501E-03  2.671287E-03 -8.749221E-17 -9.492833E-17  5.016841E-17
         2   5 -3.116501E-03 -3.116501E-03  2.671287E-03 -1.015969E-17  2.190646E-17  9.012277E-18
         2   6 -3.116501E-03 -3.116501E-03  2.671287E-03 -7.695424E-17 -4.321282E-17  1.649455E-17
         2   7 -3.116501E-03 -3.116501E-03  2.671287E-03 -5.296008E-18 -6.217777E-18  3.965347E-17
         2   8 -3.116501E-03 -3.116501E-03  2.671287E-03 -7.360370E-17 -3.323823E-17  5.254627E-17
         3   1 -3.116501E-03 -3.116501E-03  2.671287E-03  1.219838E-16  6.091191E-17 -2.565122E-18
         3   2 -3.116501E-03 -3.116501E-03  2.671287E-03  2.557486E-17  9.356890E-18  5.951113E-18
         3   3 -3.116501E-03 -3.116501E-03  2.671287E-03  9.035638E-17  3.022775E-17 -3.615154E-17
         3   4 -3.116501E-03 -3.116501E-03  2.671287E-03 -7.349562E-18  2.991142E-18 -3.161769E-18
         3   5 -3.116501E-03 -3.116501E-03  2.671287E-03  8.911344E-17  4.538004E-17  2.404167E-17
         3   6 -3.116501E-03 -3.116501E-03  2.671287E-03  2.339971E-17 -2.500192E-18  3.131427E-17
         3   7 -3.116501E-03 -3.116501E-03  2.671287E-03  9.143720E-17  1.521581E-17 -9.409643E-18
         3   8 -3.116501E-03 -3.116501E-03  2.671287E-03  2.529114E-17 -1.158848E-17  2.227656E-17
         4   1 -3.116501E-03 -3.116501E-03  2.671287E-03  9.212622E-17 -6.368046E-18  5.535898E-19
         4   2 -3.116501E-03 -3.116501E-03  2.671287E-03  3.210029E-17 -6.334742E-17 -3.351279E-17
         4   3 -3.116501E-03 -3.116501E-03  2.671287E-03 -2.968196E-17  8.588047E-18  2.649322E-17
         4   4 -3.116501E-03 -3.116501E-03  2.671287E-03 -8.970789E-17  8.696129E-18  3.744290E-17
         4   5 -3.116501E-03 -3.116501E-03  2.671287E-03  8.019669E-17  3.318201E-17  7.182356E-18
         4   6 -3.116501E-03 -3.116501E-03  2.671287E-03  9.986758E-17 -2.362849E-17 -4.417709E-17
         4   7 -3.116501E-03 -3.116501E-03  2.671287E-03  2.442649E-17  3.177018E-17  3.268966E-17
         4   8 -3.116501E-03 -3.116501E-03  2.671287E-03  4.409737E-17  3.174316E-17  2.834580E-17
         5   1 -3.116501E-03 -3.116501E-03  2.671287E-03  3.047907E-17  4.292203E-17  3.997056E-17
         5   2 -3.116501E-03 -3.116501E-03  2.671287E-03 -6.344402E-17 -1.565830E-17  2.069622E-18
         5   3 -3.116501E-03 -3.116501E-03  2.671287E-03  1.448296E-17  3.555452E-17  1.186541E-16
         5   4 -3.116501E-03 -3.116501E-03  2.671287E-03 -7.944012E-17  5.609006E-17  2.260516E-17
         5   5 -3.116501E-03 -3.116501E-03  2.671287E-03 -5.706719E-17  2.438456E-17  4.480686E-18
         5   6 -3.116501E-03 -3.116501E-03  2.671287E-03 -3.869328E-17 -3.333112E-17 -1.662244E-17
         5   7 -3.116501E-03 -3.116501E-03  2.671287E-03 -1.513145E-16  3.521835E-17  8.381273E-17
         5   8 -3.116501E-03 -3.116501E-03  2.671287E-03 -1.327244E-16  5.553772E-17  5.534013E-18
         6   1 -3.116501E-03 -3.116501E-03  2.671287E-03  1.101354E-16 -4.312238E-17 -3.250890E-17
         6   2 -3.116501E-03 -3.116501E-03  2.671287E-03  7.468452E-17 -1.999287E-17 -8.554658E-17
         6   3 -3.116501E-03 -3.116501E-03  2.671287E-03  2.481558E-16 -2.937816E-17 -7.055369E-17
         6   4 -3.116501E-03 -3.116501E-03  2.671287E-03  2.114080E-16 -5.167841E-18 -1.777808E-16
         6   5 -3.116501E-03 -3.116501E-03  2.671287E-03  1.599611E-17 -6.288076E-17  2.945675E-17
         6   6 -3.116501E-03 -3.116501E-03  2.671287E-03 -1.772541E-17 -4.385836E-17  1.270093E-17
         6   7 -3.116501E-03 -3.116501E-03  2.671287E-03  8.127751E-17 -2.175846E-17 -9.236535E-18
         6   8 -3.116501E-03 -3.116501E-03  2.671287E-03  4.539435E-17  2.451863E-18 -8.149141E-17
         7   1 -3.116501E-03 -3.116501E-03  2.671287E-03  8.487123E-17  1.165314E-17 -3.328668E-17
         7   2 -3.116501E-03 -3.116501E-03  2.671287E-03  1.468832E-16  5.279178E-17 -4.872958E-17
         7   3 -3.116501E-03 -3.116501E-03  2.671287E-03  3.904455E-17 -6.951222E-18 -9.941015E-18
         7   4 -3.116501E-03 -3.116501E-03  2.671287E-03  1.010565E-16 -4.826549E-17 -2.254403E-18
         7   5 -3.116501E-03 -3.116501E-03  2.671287E-03  9.781403E-18  2.242940E-18 -3.219959E-17
         7   6 -3.116501E-03 -3.116501E-03  2.671287E-03 -4.388121E-17  4.345588E-17 -1.157479E-17
         7   7 -3.116501E-03 -3.116501E-03  2.671287E-03 -1.269961E-17  1.555163E-17 -5.395303E-18
         7   8 -3.116501E-03 -3.116501E-03  2.671287E-03 -6.636222E-17 -2.565455E-17  3.252258E-17
         8   1 -3.116501E-03 -3.116501E-03  2.671287E-03 -7.068550E-17  4.300896E-18 -8.153836E-17
         8   2 -3.116501E-03 -3.116501E-03  2.671287E-03  3.415385E-17  6.866361E-17 -2.807535E-17
         8   3 -3.116501E-03 -3.116501E-03  2.671287E-03 -1.294820E-16  8.239298E-17 -9.772050E-18
         8   4 -3.116501E-03 -3.116501E-03  2.671287E-03 -2.583155E-17  5.472404E-17 -4.959429E-18
         8   5 -3.116501E-03 -3.116501E-03  2.671287E-03  1.409387E-16 -3.389340E-20 -5.185817E-17
         8   6 -3.116501E-03 -3.116501E-03  2.671287E-03  1.175930E-16  6.454498E-17 -2.815939E-17
         8   7 -3.116501E-03 -3.116501E-03  2.671287E-03  1.815774E-17  4.836190E-17  1.688185E-17
         8   8 -3.116501E-03 -3.116501E-03  2.671287E-03 -4.755599E-18  1.853132E-17 -8.110528E-18
         9   1 -3.116501E-03 -3.116501E-03  2.671287E-03 -2.101110E-16 -8.256003E-17  5.678198E-17
         9   2 -3.116501E-03 -3.116501E-03  2.671287E-03 -2.140020E-16 -1.608972E-17  1.556810E-16
         9   3 -3.116501E-03 -3.116501E-03  2.671287E-03 -4.885297E-17 -9.597161E-17  7.064357E-18
         9   4 -3.116501E-03 -3.116501E-03  2.671287E-03 -5.490555E-17 -2.334065E-17  2.865768E-17
         9   5 -3.116501E-03 -3.116501E-03  2.671287E-03 -6.744304E-17 -5.259240E-17  2.222242E-17
         9   6 -3.116501E-03 -3.116501E-03  2.671287E-03 -6.917235E-17  1.247284E-17  9.455764E-17
         9   7 -3.116501E-03 -3.116501E-03  2.671287E-03 -1.729309E-17 -9.012139E-17 -2.576590E-17
         9   8 -3.116501E-03 -3.116501E-03  2.671287E-03 -1.945472E-17 -2.094904E-17 -2.957337E-17

 displacements (vx,vy,vz) for set NALL and time  0.8317813E+00

         1  0.000000E+00  0.000000E+00  0.000000E+00
         2 -1.650644E+00  0.000000E+00  0.000000E+00
         3 -1.165140E+01  0.000000E+00  0.000000E+00
         4 -1.330204E+01  0.000000E+00  0.000000E+00
         5 -2.330279E+01  0.000000E+00  0.000000E+00
         6 -2.495344E+01  0.000000E+00  0.000000E+00
         7  0.000000E+00 -1.650644E+00  0.000000E+00
         8 -1.650644E+00 -1.650644E+00  0.000000E+00
         9 -1.165140E+01 -1.650644E+00  0.000000E+00
        10 -1.330204E+01 -1.650644E+00  0.000000E+00
        11 -2.330279E+01 -1.650644E+00  0.000000E+00
        12 -2.495344E+01 -1.650644E+00  0.000000E+00
        13  0.000000E+00 -1.165140E+01  0.000000E+00
        14 -1.650644E+00 -1.165140E+01  0.000000E+00
        15 -1.165140E+01 -1.165140E+01  0.000000E+00
        16 -1.330204E+01 -1.165140E+01  0.000000E+00
        17 -2.330279E+01 -1.165140E+01  0.000000E+00
        18 -2.495344E+01 -1.165140E+01  0.000000E+00
        19  0.000000E+00 -1.330204E+01  0.000000E+00
        20 -1.650644E+00 -1.330204E+01  0.000000E+00
        21 -1.165140E+01 -1.330204E+01  0.000000E+00
        22 -1.330204E+01 -1.330204E+01  0.000000E+00
        23 -2.330279E+01 -1.330204E+01  0.000000E+00
        24 -2.495344E+01 -1.330204E+01  0.000000E+00
        25  0.000000E+00 -2.330279E+01  0.000000E+00
        26 -1.650644E+00 -2.330279E+01  0.000000E+00
        27 -1.165140E+01 -2.330279E+01  0.000000E+00
        28 -1.330204E+01 -2.330279E+01  0.000000E+00
        29 -2.330279E+01 -2.330279E+01  0.000000E+00
        30 -2.495344E+01 -2.330279E+01  0.000000E+00
        31  0.000000E+00 -2.495344E+01  0.000000E+00
        32 -1.650644E+00 -2.495344E+01  0.000000E+00
        33 -1.165140E+01 -2.495344E+01  0.000000E+00
        34 -1.330204E+01 -2.495344E+01  0.000000E+00
        35 -2.330279E+01 -2.495344E+01  0.000000E+00
        36 -2.495344E+01 -2.495344E+01  0.000000E+00
        37  0.000000E+00  0.000000E+00  1.974718E+00
        38 -1.650644E+00  0.000000E+00  1.974718E+00
        39 -1.165140E+01  0.000000E+00  1.974718E+00
        40 -1.330204E+01  0.000000E+00  1.974718E+00
        41 -2.330279E+01  0.000000E+00  1.974718E+00
        42 -2.495344E+01  0.000000E+00  1.974718E+00
        43  0.000000E+00 -1.650644E+00  1.974718E+00
        44 -1.650644E+00 -1.650644E+00  1.974718E+00
        45 -1.165140E+01 -1.650644E+00  1.974718E+00
        46 -1.330204E+01 -1.650644E+00  1.974718E+00
        47 -2.330279E+01 -1.650644E+00  1.974718E+00
        48 -2.495344E+01 -1.650644E+00  1.974718E+00
        49  0.000000E+00 -1.165140E+01  1.974718E+00
        50 -1.650644E+00 -1.165140E+01  1.974718E+00
        51 -1.165140E+01 -1.165140E+01  1.974718E+00
        52 -1.330204E+01 -1.165140E+01  1.974718E+00
        53 -2.330279E+01 -1.165140E+01  1.974718E+00
        54 -2.495344E+01 -1.165140E+01  1.974718E+00
        55  0.000000E+00 -1.330204E+01  1.974718E+00
        56 -1.650644E+00 -1.330204E+01  1.974718E+00
        57 -1.165140E+01 -1.330204E+01  1.974718E+00
        58 -1.330204E+01 -1.330204E+01  1.974718E+00
        59 -2.330279E+01 -1.330204E+01  1.974718E+00
        60 -2.495344E+01 -1.330204E+01  1.974718E+00
        61  0.000000E+00 -2.330279E+01  1.974718E+00
        62 -1.650644E+00 -2.330279E+01  1.974718E+00
        63 -1.165140E+01 -2.330279E+01  1.974718E+00
        64 -1.330204E+01 -2.330279E+01  1.974718E+00
        65 -2.330279E+01 -2.330279E+01  1.974718E+00
        66 -2.495344E+01 -2.330279E+01  1.974718E+00
        67  0.000000E+00 -2.495344E+01  1.974718E+00
        68 -1.650644E+00 -2.495344E+01  1.974718E+00
        69 -1.165140E+01 -2.495344E+01  1.974718E+00
        70 -1.330204E+01 -2.495344E+01  1.974718E+00
        71 -2.330279E+01 -2.495344E+01  1.974718E+00
        72 -2.495344E+01 -2.495344E+01  1.974718E+00

 stresses (elem, integ.pnt.,sxx,syy,szz,sxy,sxz,syz) for set EALL and time  0.8317813E+00

         1   1 -9.859702E+02 -9.859702E+02  2.120839E-10 -5.712243E-12 -3.522148E-13  1.164154E-12
         1   2 -9.859702E+02 -9.859702E+02  2.077229E-10 -1.153194E-11 -5.583438E-12  1.630604E-12
         1   3 -9.859702E+02 -9.859702E+02  1.985418E-10 -1.552492E-11  8.249125E-14  6.046191E-12
         1   4 -9.859702E+02 -9.859702E+02  1.892459E-10 -2.134462E-11 -1.922866E-12  9.811848E-12
         1   5 -9.859702E+02 -9.859702E+02  2.110511E-10 -2.449946E-12  3.916879E-12 -5.417427E-13
         1   6 -9.859702E+02 -9.859702E+02  2.138054E-10 -3.851143E-12 -1.314344E-12 -2.081462E-12
         1   7 -9.859702E+02 -9.859702E+02  2.047390E-10 -7.745268E-12  2.358498E-12  4.340295E-12
         1   8 -9.859702E+02 -9.859702E+02  2.022142E-10 -9.146465E-12  3.487621E-13  6.099782E-12
         2   1 -9.859702E+02 -9.859702E+02  2.095591E-10  6.492357E-12 -5.315264E-12  1.611184E-12
         2   2 -9.859702E+02 -9.859702E+02  2.311348E-10 -1.130199E-11 -1.446635E-11  2.017557E-12
         2   3 -9.859702E+02 -9.859702E+02  1.817862E-10  7.857020E-12 -9.939825E-12  5.972179E-12
         2   4 -9.859702E+02 -9.859702E+02  2.045095E-10 -9.851362E-12 -1.333755E-11  7.116290E-12
         2   5 -9.859702E+02 -9.859702E+02  1.988861E-10 -7.736672E-14  2.387382E-12  1.663406E-12
         2   6 -9.859702E+02 -9.859702E+02  2.222979E-10 -9.395758E-12 -6.641103E-12  2.441922E-12
         2   7 -9.859702E+02 -9.859702E+02  1.840815E-10  2.372579E-12 -1.994334E-12  6.024400E-12
         2   8 -9.859702E+02 -9.859702E+02  2.086410E-10 -6.911427E-12 -5.216917E-12  7.518856E-12
         3   1 -9.859702E+02 -9.859702E+02  2.226422E-10  1.616535E-11  8.005871E-12 -3.970116E-13
         3   2 -9.859702E+02 -9.859702E+02  2.141497E-10  4.233679E-12  1.262967E-12  6.294947E-13
         3   3 -9.859702E+02 -9.859702E+02  2.120839E-10  1.523265E-11  3.771612E-12 -4.762385E-12
         3   4 -9.859702E+02 -9.859702E+02  2.039357E-10  3.232210E-12 -1.515316E-13 -1.019027E-12
         3   5 -9.859702E+02 -9.859702E+02  1.993451E-10  1.037574E-11  5.383032E-12  2.858065E-12
         3   6 -9.859702E+02 -9.859702E+02  1.963613E-10  3.086072E-12 -1.464956E-12  4.046748E-12
         3   7 -9.859702E+02 -9.859702E+02  1.962465E-10  1.320392E-11  1.388549E-12 -1.516066E-12
         3   8 -9.859702E+02 -9.859702E+02  1.934922E-10  6.395649E-12 -2.464539E-12  2.418931E-12
         4   1 -9.859702E+02 -9.859702E+02  2.076081E-10  1.844551E-11 -1.757782E-12  1.036857E-12
         4   2 -9.859702E+02 -9.859702E+02  2.031323E-10  1.632438E-11 -1.038782E-11 -6.759156E-12
         4   3 -9.859702E+02 -9.859702E+02  2.002632E-10  9.402205E-12  5.627372E-13  6.291067E-12
         4   4 -9.859702E+02 -9.859702E+02  1.934922E-10  7.281068E-12 -7.858435E-13  5.737108E-12
         4   5 -9.859702E+02 -9.859702E+02  1.992304E-10  1.167378E-11  2.068512E-12 -3.720501E-13
         4   6 -9.859702E+02 -9.859702E+02  2.113954E-10  1.956518E-11 -6.556056E-12 -9.191372E-12
         4   7 -9.859702E+02 -9.859702E+02  2.071491E-10  1.304919E-11  3.447992E-12  4.566908E-12
         4   8 -9.859702E+02 -9.859702E+02  2.169040E-10  2.094059E-11  2.112547E-12  3.269864E-12
         5   1 -9.859702E+02 -9.859702E+02  2.174779E-10 -6.515997E-12  8.139632E-12  6.474184E-12
         5   2 -9.859702E+02 -9.859702E+02  2.042800E-10 -5.604789E-12  2.187663E-14  2.939455E-12
         5   3 -9.859702E+02 -9.859702E+02  1.949841E-10 -8.699458E-12  6.853227E-12  1.645718E-11
         5   4 -9.859702E+02 -9.859702E+02  1.858030E-10 -7.977368E-12  7.939097E-12  7.394548E-12
         5   5 -9.859702E+02 -9.859702E+02  2.205765E-10 -1.588597E-11  4.568961E-12 -2.376048E-12
         5   6 -9.859702E+02 -9.859702E+02  1.970499E-10 -1.891186E-12 -3.513766E-12 -4.946730E-12
         5   7 -9.859702E+02 -9.859702E+02  2.186255E-10 -2.489489E-11  4.292671E-12  7.677008E-12
         5   8 -9.859702E+02 -9.859702E+02  1.986566E-10 -1.083134E-11  5.798878E-12  3.600757E-13
         6   1 -9.859702E+02 -9.859702E+02  1.790319E-10  7.719479E-12 -8.053147E-12 -6.563144E-12
         6   2 -9.859702E+02 -9.859702E+02  2.079524E-10  1.304919E-11 -3.849778E-12 -1.700665E-11
         6   3 -9.859702E+02 -9.859702E+02  2.102477E-10  3.383504E-11 -2.701225E-12 -1.090663E-11
         6   4 -9.859702E+02 -9.859702E+02  2.552352E-10  3.899283E-11  1.710772E-13 -3.512275E-11
         6   5 -9.859702E+02 -9.859702E+02  1.802943E-10 -4.882700E-12 -1.216169E-11  2.651568E-12
         6   6 -9.859702E+02 -9.859702E+02  1.792614E-10 -2.819587E-12 -8.133462E-12 -9.560672E-13
         6   7 -9.859702E+02 -9.859702E+02  2.074934E-10  1.650490E-12 -8.908851E-13 -8.862669E-13
         6   8 -9.859702E+02 -9.859702E+02  2.227570E-10  3.369750E-12  1.981417E-12 -1.901293E-11
         7   1 -9.859702E+02 -9.859702E+02  1.855735E-10 -3.208570E-12  1.259617E-12 -8.802246E-12
         7   2 -9.859702E+02 -9.859702E+02  1.872949E-10  9.069099E-12  7.495708E-12 -6.386657E-12
         7   3 -9.859702E+02 -9.859702E+02  2.060014E-10  2.430604E-12 -2.407704E-12 -2.006801E-12
         7   4 -9.859702E+02 -9.859702E+02  2.191993E-10  1.470827E-11 -1.071374E-11 -4.318847E-13
         7   5 -9.859702E+02 -9.859702E+02  2.117397E-10 -1.080555E-11 -1.519020E-12 -8.132072E-12
         7   6 -9.859702E+02 -9.859702E+02  2.135759E-10 -1.856801E-11  4.712692E-12 -1.339129E-12
         7   7 -9.859702E+02 -9.859702E+02  2.009518E-10 -4.753755E-12 -7.061323E-13 -1.336627E-12
         7   8 -9.859702E+02 -9.859702E+02  2.146088E-10 -1.251622E-11 -9.034056E-12  4.983437E-12
         8   1 -9.859702E+02 -9.859702E+02  1.855735E-10 -6.223723E-12 -6.594045E-12 -1.016926E-11
         8   2 -9.859702E+02 -9.859702E+02  1.809829E-10  8.940154E-12  5.691953E-13 -7.099568E-12
         8   3 -9.859702E+02 -9.859702E+02  2.212651E-10 -1.571404E-11  9.484117E-12 -9.919061E-13
         8   4 -9.859702E+02 -9.859702E+02  2.064605E-10 -5.501633E-13 -1.486020E-13 -2.337926E-12
         8   5 -9.859702E+02 -9.859702E+02  2.183960E-10  2.310686E-11 -2.948966E-12 -4.700434E-12
         8   6 -9.859702E+02 -9.859702E+02  2.089853E-10  1.492318E-11  4.704667E-12 -6.356269E-12
         8   7 -9.859702E+02 -9.859702E+02  2.185107E-10  9.902940E-12  9.739087E-12  3.986527E-12
         8   8 -9.859702E+02 -9.859702E+02  1.985418E-10  1.753646E-12  3.165357E-13 -8.305375E-13
         9   1 -9.859702E+02 -9.859702E+02  1.993451E-10 -3.452275E-11 -5.873296E-12  5.614328E-12
         9   2 -9.859702E+02 -9.859702E+02  2.467427E-10 -3.548553E-11 -1.091965E-12  2.752712E-11
         9   3 -9.859702E+02 -9.859702E+02  1.868359E-10 -8.046139E-12 -9.005571E-12  7.989322E-14
         9   4 -9.859702E+02 -9.859702E+02  2.208060E-10 -9.215236E-12 -2.840631E-12  4.796082E-12
         9   5 -9.859702E+02 -9.859702E+02  1.994599E-10 -4.126225E-12 -3.438012E-12  7.721577E-13
         9   6 -9.859702E+02 -9.859702E+02  2.102477E-10 -4.126225E-12  1.185693E-12  1.790003E-11
         9   7 -9.859702E+02 -9.859702E+02  1.885573E-10 -1.375408E-12 -1.111882E-11 -4.271884E-12
         9   8 -9.859702E+02 -9.859702E+02  1.870654E-10 -1.444179E-12 -5.514333E-12 -4.412745E-12

 strains (elem, integ.pnt.,exx,eyy,ezz,exy,exz,eyz) forset EALL and time  0.8317813E+00

         1   1 -3.295839E-03 -3.295839E-03  2.825005E-03 -3.590370E-17 -2.054394E-18  7.135231E-18
         1   2 -3.295839E-03 -3.295839E-03  2.825005E-03 -7.248278E-17 -3.433125E-17  9.957329E-18
         1   3 -3.295839E-03 -3.295839E-03  2.825005E-03 -9.758025E-17  5.718411E-19  3.725759E-17
         1   4 -3.295839E-03 -3.295839E-03  2.825005E-03 -1.341593E-16 -1.180129E-17  6.043593E-17
         1   5 -3.295839E-03 -3.295839E-03  2.825005E-03 -1.539888E-17  2.461068E-17 -3.519925E-18
         1   6 -3.295839E-03 -3.295839E-03  2.825005E-03 -2.420595E-17 -7.666180E-18 -1.322851E-17
         1   7 -3.295839E-03 -3.295839E-03  2.825005E-03 -4.868206E-17  1.478761E-17  2.660244E-17
         1   8 -3.295839E-03 -3.295839E-03  2.825005E-03 -5.748914E-17  2.387461E-18  3.725009E-17
         2   1 -3.295839E-03 -3.295839E-03  2.825005E-03  4.080702E-17 -3.258164E-17  9.942395E-18
         2   2 -3.295839E-03 -3.295839E-03  2.825005E-03 -7.103745E-17 -8.904419E-17  1.245999E-17
         2   3 -3.295839E-03 -3.295839E-03  2.825005E-03  4.938447E-17 -6.110478E-17  3.684990E-17
         2   4 -3.295839E-03 -3.295839E-03  2.825005E-03 -6.191969E-17 -8.206886E-17  4.391987E-17
         2   5 -3.295839E-03 -3.295839E-03  2.825005E-03 -4.862803E-19  1.552965E-17  1.026857E-17
         2   6 -3.295839E-03 -3.295839E-03  2.825005E-03 -5.905604E-17 -4.017647E-17  1.510977E-17
         2   7 -3.295839E-03 -3.295839E-03  2.825005E-03  1.491260E-17 -1.146601E-17  3.717608E-17
         2   8 -3.295839E-03 -3.295839E-03  2.825005E-03 -4.344104E-17 -3.134948E-17  4.643399E-17
         3   1 -3.295839E-03 -3.295839E-03  2.825005E-03  1.016056E-16  4.931812E-17 -2.358917E-18
         3   2 -3.295839E-03 -3.295839E-03  2.825005E-03  2.661034E-17  7.714140E-18  3.977811E-18
         3   3 -3.295839E-03 -3.295839E-03  2.825005E-03  9.574319E-17  2.319556E-17 -2.929344E-17
         3   4 -3.295839E-03 -3.295839E-03  2.825005E-03  2.031571E-17 -1.010396E-18 -6.193469E-18
         3   5 -3.295839E-03 -3.295839E-03  2.825005E-03  6.521559E-17  3.291970E-17  1.797319E-17
         3   6 -3.295839E-03 -3.295839E-03  2.825005E-03  1.939718E-17 -9.332654E-18  2.532197E-17
         3   7 -3.295839E-03 -3.295839E-03  2.825005E-03  8.299184E-17  8.289464E-18 -9.015366E-18
         3   8 -3.295839E-03 -3.295839E-03  2.825005E-03  4.019917E-17 -1.548424E-17  1.527960E-17
         4   1 -3.295839E-03 -3.295839E-03  2.825005E-03  1.159373E-16 -1.073954E-17  6.353770E-18
         4   2 -3.295839E-03 -3.295839E-03  2.825005E-03  1.026051E-16 -6.398723E-17 -4.177407E-17
         4   3 -3.295839E-03 -3.295839E-03  2.825005E-03  5.909657E-17  3.552183E-18  3.877246E-17
         4   4 -3.295839E-03 -3.295839E-03  2.825005E-03  4.576438E-17 -4.768613E-18  3.532837E-17
         4   5 -3.295839E-03 -3.295839E-03  2.825005E-03  7.337430E-17  1.315986E-17 -2.459679E-18
         4   6 -3.295839E-03 -3.295839E-03  2.825005E-03  1.229749E-16 -4.005407E-17 -5.697120E-17
         4   7 -3.295839E-03 -3.295839E-03  2.825005E-03  8.201928E-17  2.157336E-17  2.801389E-17
         4   8 -3.295839E-03 -3.295839E-03  2.825005E-03  1.316199E-16  1.333361E-17  1.991512E-17
         5   1 -3.295839E-03 -3.295839E-03  2.825005E-03 -4.095561E-17  5.011365E-17  3.969517E-17
         5   2 -3.295839E-03 -3.295839E-03  2.825005E-03 -3.522831E-17  2.678249E-20  1.792860E-17
         5   3 -3.295839E-03 -3.295839E-03  2.825005E-03 -5.467952E-17  4.221983E-17  1.012907E-16
         5   4 -3.295839E-03 -3.295839E-03  2.825005E-03 -5.014090E-17  4.891969E-17  4.541719E-17
         5   5 -3.295839E-03 -3.295839E-03  2.825005E-03 -9.984956E-17  2.778435E-17 -1.560001E-17
         5   6 -3.295839E-03 -3.295839E-03  2.825005E-03 -1.188685E-17 -2.208640E-17 -3.129247E-17
         5   7 -3.295839E-03 -3.295839E-03  2.825005E-03 -1.564742E-16  2.624772E-17  4.642775E-17
         5   8 -3.295839E-03 -3.295839E-03  2.825005E-03 -6.807924E-17  3.554108E-17  1.450074E-18
         6   1 -3.295839E-03 -3.295839E-03  2.825005E-03  4.851997E-17 -4.981049E-17 -4.022685E-17
         6   2 -3.295839E-03 -3.295839E-03  2.825005E-03  8.201928E-17 -2.387554E-17 -1.044917E-16
         6   3 -3.295839E-03 -3.295839E-03  2.825005E-03  2.126666E-16 -1.661637E-17 -6.702630E-17
         6   4 -3.295839E-03 -3.295839E-03  2.825005E-03  2.450853E-16  1.105847E-18 -2.162685E-16
         6   5 -3.295839E-03 -3.295839E-03  2.825005E-03 -3.068969E-17 -7.549406E-17  1.735821E-17
         6   6 -3.295839E-03 -3.295839E-03  2.825005E-03 -1.772222E-17 -5.063973E-17 -4.253846E-18
         6   7 -3.295839E-03 -3.295839E-03  2.825005E-03  1.037398E-17 -5.308857E-18 -4.470373E-18
         6   8 -3.295839E-03 -3.295839E-03  2.825005E-03  2.118021E-17  1.241336E-17 -1.156667E-16
         7   1 -3.295839E-03 -3.295839E-03  2.825005E-03 -2.016713E-17  7.694293E-18 -5.429234E-17
         7   2 -3.295839E-03 -3.295839E-03  2.825005E-03  5.700286E-17  4.617122E-17 -3.926299E-17
         7   3 -3.295839E-03 -3.295839E-03  2.825005E-03  1.527731E-17 -1.480732E-17 -1.236417E-17
         7   4 -3.295839E-03 -3.295839E-03  2.825005E-03  9.244729E-17 -6.605586E-17 -2.521806E-18
         7   5 -3.295839E-03 -3.295839E-03  2.825005E-03 -6.791715E-17 -9.660940E-18 -5.010639E-17
         7   6 -3.295839E-03 -3.295839E-03  2.825005E-03 -1.167073E-16  2.878897E-17 -7.729105E-18
         7   7 -3.295839E-03 -3.295839E-03  2.825005E-03 -2.987922E-17 -4.179514E-18 -8.178217E-18
         7   8 -3.295839E-03 -3.295839E-03  2.825005E-03 -7.866935E-17 -5.556313E-17  3.128138E-17
         8   1 -3.295839E-03 -3.295839E-03  2.825005E-03 -3.911855E-17 -4.057699E-17 -6.260710E-17
         8   2 -3.295839E-03 -3.295839E-03  2.825005E-03  5.619239E-17  3.620486E-18 -4.377980E-17
         8   3 -3.295839E-03 -3.295839E-03  2.825005E-03 -9.876893E-17  5.851407E-17 -5.982455E-18
         8   4 -3.295839E-03 -3.295839E-03  2.825005E-03 -3.457993E-18 -9.201889E-19 -1.440045E-17
         8   5 -3.295839E-03 -3.295839E-03  2.825005E-03  1.452357E-16 -1.778826E-17 -2.848569E-17
         8   6 -3.295839E-03 -3.295839E-03  2.825005E-03  9.379807E-17  2.943496E-17 -3.912645E-17
         8   7 -3.295839E-03 -3.295839E-03  2.825005E-03  6.224388E-17  6.007467E-17  2.511320E-17
         8   8 -3.295839E-03 -3.295839E-03  2.825005E-03  1.102235E-17  1.937156E-18 -5.033127E-18
         9   1 -3.295839E-03 -3.295839E-03  2.825005E-03 -2.169891E-16 -3.616303E-17  3.451887E-17
         9   2 -3.295839E-03 -3.295839E-03  2.825005E-03 -2.230406E-16 -6.662026E-18  1.695794E-16
         9   3 -3.295839E-03 -3.295839E-03  2.825005E-03 -5.057315E-17 -5.563157E-17  3.711812E-19
         9   4 -3.295839E-03 -3.295839E-03  2.825005E-03 -5.792139E-17 -1.759364E-17  2.932814E-17
         9   5 -3.295839E-03 -3.295839E-03  2.825005E-03 -2.593495E-17 -2.093076E-17  4.311603E-18
         9   6 -3.295839E-03 -3.295839E-03  2.825005E-03 -2.593495E-17  7.597684E-18  1.094599E-16
         9   7 -3.295839E-03 -3.295839E-03  2.825005E-03 -8.644983E-18 -6.885241E-17 -2.681034E-17
         9   8 -3.295839E-03 -3.295839E-03  2.825005E-03 -9.077232E-18 -3.427248E-17 -2.821216E-17

 displacements (vx,vy,vz) for set NALL and time  0.8407813E+00

         1  0.000000E+00  0.000000E+00  0.000000E+00
         2 -1.740602E+00  0.000000E+00  0.000000E+00
         3 -1.174142E+01  0.000000E+00  0.000000E+00
         4 -1.348202E+01  0.000000E+00  0.000000E+00
         5 -2.348284E+01  0.000000E+00  0.000000E+00
         6 -2.522344E+01  0.000000E+00  0.000000E+00
         7  0.000000E+00 -1.740602E+00  0.000000E+00
         8 -1.740602E+00 -1.740602E+00  0.000000E+00
         9 -1.174142E+01 -1.740602E+00  0.000000E+00
        10 -1.348202E+01 -1.740602E+00  0.000000E+00
        11 -2.348284E+01 -1.740602E+00  0.000000E+00
        12 -2.522344E+01 -1.740602E+00  0.000000E+00
        13  0.000000E+00 -1.174142E+01  0.000000E+00
        14 -1.740602E+00 -1.174142E+01  0.000000E+00
        15 -1.174142E+01 -1.174142E+01  0.000000E+00
        16 -1.348202E+01 -1.174142E+01  0.000000E+00
        17 -2.348284E+01 -1.174142E+01  0.000000E+00
        18 -2.522344E+01 -1.174142E+01  0.000000E+00
        19  0.000000E+00 -1.348202E+01  0.000000E+00
        20 -1.740602E+00 -1.348202E+01  0.000000E+00
        21 -1.174142E+01 -1.348202E+01  0.000000E+00
        22 -1.348202E+01 -1.348202E+01  0.000000E+00
        23 -2.348284E+01 -1.348202E+01  0.000000E+00
        24 -2.522344E+01 -1.348202E+01  0.000000E+00
        25  0.000000E+00 -2.348284E+01  0.000000E+00
        26 -1.740602E+00 -2.348284E+01  0.000000E+00
        27 -1.174142E+01 -2.348284E+01  0.000000E+00
        28 -1.348202E+01 -2.348284E+01  0.000000E+00
        29 -2.348284E+01 -2.348284E+01  0.000000E+00
        30 -2.522344E+01 -2.348284E+01  0.000000E+00
        31  0.000000E+00 -2.522344E+01  0.000000E+00
        32 -1.740602E+00 -2.522344E+01  0.000000E+00
        33 -1.174142E+01 -2.522344E+01  0.000000E+00
        34 -1.348202E+01 -2.522344E+01  0.000000E+00
        35 -2.348284E+01 -2.522344E+01  0.000000E+00
        36 -2.522344E+01 -2.522344E+01  0.000000E+00
        37  0.000000E+00  0.000000E+00  2.081990E+00
        38 -1.740602E+00  0.000000E+00  2.081990E+00
        39 -1.174142E+01  0.000000E+00  2.081990E+00
        40 -1.348202E+01  0.000000E+00  2.081990E+00
        41 -2.348284E+01  0.000000E+00  2.081990E+00
        42 -2.522344E+01  0.000000E+00  2.081990E+00
        43  0.000000E+00 -1.740602E+00  2.081990E+00
        44 -1.740602E+00 -1.740602E+00  2.081990E+00
        45 -1.174142E+01 -1.740602E+00  2.081990E+00
        46 -1.348202E+01 -1.740602E+00  2.081990E+00
        47 -2.348284E+01 -1.740602E+00  2.081990E+00
        48 -2.522344E+01 -1.740602E+00  2.081990E+00
        49  0.000000E+00 -1.174142E+01  2.081990E+00
        50 -1.740602E+00 -1.174142E+01  2.081990E+00
        51 -1.174142E+01 -1.174142E+01  2.081990E+00
        52 -1.348202E+01 -1.174142E+01  2.081990E+00
        53 -2.348284E+01 -1.174142E+01  2.081990E+00
        54 -2.522344E+01 -1.174142E+01  2.081990E+00
        55  0.000000E+00 -1.348202E+01  2.081990E+00
        56 -1.740602E+00 -1.348202E+01  2.081990E+00
        57 -1.174142E+01 -1.348202E+01  2.081990E+00
        58 -1.348202E+01 -1.348202E+01  2.081990E+00
        59 -2.348284E+01 -1.348202E+01  2.081990E+00
        60 -2.522344E+01 -1.348202E+01  2.081990E+00
        61  0.000000E+00 -2.348284E+01  2.081990E+00
        62 -1.740602E+00 -2.348284E+01  2.081990E+00
        63 -1.174142E+01 -2.348284E+01  2.081990E+00
        64 -1.348202E+01 -2.348284E+01  2.081990E+00
        65 -2.348284E+01 -2.348284E+01  2.081990E+00
        66 -2.522344E+01 -2.348284E+01  2.081990E+00
        67  0.000000E+00 -2.522344E+01  2.081990E+00
        68 -1.740602E+00 -2.522344E+01  2.081990E+00
        69 -1.174142E+01 -2.522344E+01  2.081990E+00
        70 -1.348202E+01 -2.522344E+01  2.081990E+00
        71 -2.348284E+01 -2.522344E+01  2.081990E+00
        72 -2.522344E+01 -2.522344E+01  2.081990E+00

 stresses (elem, integ.pnt.,sxx,syy,szz,sxy,sxz,syz) for set EALL and time  0.8407813E+00

         1   1 -1.039452E+03 -1.039452E+03  9.300665E-12 -4.390392E-12  4.545343E-13  1.197042E-12
         1   2 -1.039452E+03 -1.039452E+03  2.411284E-12 -9.006207E-12 -6.541363E-14  2.182835E-12
         1   3 -1.039452E+03 -1.039452E+03 -4.478098E-12 -1.177784E-11 -5.383846E-14  7.064243E-12
         1   4 -1.039452E+03 -1.039452E+03 -1.435288E-11 -1.639366E-11 -7.281288E-13  1.190969E-11
         1   5 -1.039452E+03 -1.039452E+03  2.055332E-11 -2.524744E-12  2.220767E-12 -1.378352E-12
         1   6 -1.039452E+03 -1.039452E+03  2.193120E-11 -7.411067E-12  1.700819E-12 -1.601950E-12
         1   7 -1.039452E+03 -1.039452E+03  6.315266E-12 -4.628697E-12  5.117041E-13  4.453822E-12
         1   8 -1.039452E+03 -1.039452E+03  4.592921E-12 -9.515020E-12 -1.625863E-13  8.124908E-12
         2   1 -1.039452E+03 -1.039452E+03  1.951991E-12  6.844288E-12 -8.147772E-12  1.679336E-12
         2   2 -1.039452E+03 -1.039452E+03  2.296461E-11 -4.628697E-12 -9.531380E-12  1.998334E-12
         2   3 -1.039452E+03 -1.039452E+03 -1.802722E-11  8.682026E-12 -1.080069E-11  7.253178E-12
         2   4 -1.039452E+03 -1.039452E+03  7.348674E-12 -2.705082E-12 -1.458372E-11  6.765449E-12
         2   5 -1.039452E+03 -1.039452E+03  1.090819E-11  1.915027E-12 -1.052388E-12  6.874615E-13
         2   6 -1.039452E+03 -1.039452E+03  3.042810E-11 -1.278688E-11 -2.602380E-12  2.660706E-12
         2   7 -1.039452E+03 -1.039452E+03 -1.435288E-11  2.644969E-12 -2.039128E-12  6.278817E-12
         2   8 -1.039452E+03 -1.039452E+03  9.185842E-12 -1.198824E-11 -5.506906E-12  7.420202E-12
         3   1 -1.039452E+03 -1.039452E+03  1.343429E-11  8.396490E-12  7.645430E-13  1.367127E-13
         3   2 -1.039452E+03 -1.039452E+03  1.010443E-11  1.972993E-12  9.900962E-14  6.155617E-13
         3   3 -1.039452E+03 -1.039452E+03  1.194159E-11  6.569486E-12  4.777929E-12 -2.757482E-12
         3   4 -1.039452E+03 -1.039452E+03  3.100222E-12 -3.005647E-13  9.248413E-13  1.069832E-12
         3   5 -1.039452E+03 -1.039452E+03  5.167036E-12  1.611886E-11  8.424773E-13  3.434317E-12
         3   6 -1.039452E+03 -1.039452E+03  8.956196E-12  5.264176E-12  2.119720E-13  1.902136E-12
         3   7 -1.039452E+03 -1.039452E+03 -3.215045E-12  1.889264E-11  2.541861E-12  5.663939E-13
         3   8 -1.039452E+03 -1.039452E+03 -4.822567E-12  7.625756E-12 -1.521395E-12  2.327020E-12
         4   1 -1.039452E+03 -1.039452E+03  4.822567E-12  1.913094E-11 -1.050235E-12  3.471253E-12
         4   2 -1.039452E+03 -1.039452E+03  4.248452E-12  1.725241E-11 -5.029205E-12 -2.168481E-13
         4   3 -1.039452E+03 -1.039452E+03 -1.125266E-11  1.717298E-11 -4.090435E-13  1.002150E-11
         4   4 -1.039452E+03 -1.039452E+03 -1.722345E-11  1.529445E-11 -4.790996E-13  1.826046E-11
         4   5 -1.039452E+03 -1.039452E+03  1.033407E-11  1.749287E-11  7.972680E-14 -1.495694E-12
         4   6 -1.039452E+03 -1.039452E+03  3.352832E-11  2.102235E-11 -3.906905E-12 -7.395767E-12
         4   7 -1.039452E+03 -1.039452E+03  2.411284E-12  3.040856E-11 -1.474845E-12  5.299752E-12
         4   8 -1.039452E+03 -1.039452E+03  2.020885E-11  3.393805E-11 -1.549280E-12  1.074002E-11
         5   1 -1.039452E+03 -1.039452E+03  1.802722E-11 -1.305310E-11  8.434722E-12  6.085783E-12
         5   2 -1.039452E+03 -1.039452E+03  4.592921E-13 -1.222869E-11  3.775988E-12  9.950446E-12
         5   3 -1.039452E+03 -1.039452E+03 -8.841373E-12 -2.164066E-11  2.738953E-12  1.645409E-11
         5   4 -1.039452E+03 -1.039452E+03 -2.916505E-11 -2.079908E-11  7.923107E-12  1.864399E-11
         5   5 -1.039452E+03 -1.039452E+03  2.893540E-11 -1.490801E-11  6.696090E-12 -4.842239E-12
         5   6 -1.039452E+03 -1.039452E+03  9.415488E-12 -5.496040E-13  1.967300E-12 -1.950415E-12
         5   7 -1.039452E+03 -1.039452E+03  2.296461E-11 -2.528179E-11 -5.351985E-13  5.526070E-12
         5   8 -1.039452E+03 -1.039452E+03  3.444691E-13 -1.085468E-11  4.894152E-12  6.587734E-12
         6   1 -1.039452E+03 -1.039452E+03 -1.550111E-11  1.286417E-11 -8.413926E-12 -3.184131E-12
         6   2 -1.039452E+03 -1.039452E+03  9.530311E-12  1.221151E-11 -3.194744E-12 -1.321831E-11
         6   3 -1.039452E+03 -1.039452E+03 -1.377876E-12  3.318234E-11 -7.451468E-12 -5.951349E-12
         6   4 -1.039452E+03 -1.039452E+03  3.846571E-11  3.356020E-11 -1.146416E-12 -2.414490E-11
         6   5 -1.039452E+03 -1.039452E+03 -9.874780E-12 -4.671634E-12 -1.122169E-11  2.819546E-12
         6   6 -1.039452E+03 -1.039452E+03 -3.100222E-12 -4.671634E-12 -5.897424E-12 -1.304603E-12
         6   7 -1.039452E+03 -1.039452E+03  6.315266E-12  3.297624E-12 -3.777989E-12  1.730031E-14
         6   8 -1.039452E+03 -1.039452E+03  2.767235E-11  3.984629E-12  1.896559E-12 -1.240861E-11
         7   1 -1.039452E+03 -1.039452E+03 -2.491660E-11 -1.199039E-11  5.256762E-13 -1.093327E-11
         7   2 -1.039452E+03 -1.039452E+03 -2.170155E-11  2.172653E-12  8.092834E-12 -1.495578E-11
         7   3 -1.039452E+03 -1.039452E+03  1.492699E-12  7.879089E-13 -2.508378E-12 -2.106193E-12
         7   4 -1.039452E+03 -1.039452E+03  1.986438E-11  1.495095E-11 -9.150576E-12 -1.907828E-12
         7   5 -1.039452E+03 -1.039452E+03  9.071019E-12 -2.806416E-11 -5.590884E-12 -8.738898E-12
         7   6 -1.039452E+03 -1.039452E+03  2.284978E-11 -3.338845E-11  1.967517E-12 -7.074490E-12
         7   7 -1.039452E+03 -1.039452E+03  4.478098E-12 -9.102817E-12 -2.738917E-12 -4.722738E-13
         7   8 -1.039452E+03 -1.039452E+03  3.433208E-11 -1.442711E-11 -9.385494E-12  5.588158E-12
         8   1 -1.039452E+03 -1.039452E+03 -1.286018E-11  2.816721E-12 -9.474250E-12 -8.273255E-12
         8   2 -1.039452E+03 -1.039452E+03 -3.467655E-11  1.614462E-11  2.128798E-12 -1.592012E-11
         8   3 -1.039452E+03 -1.039452E+03  2.388319E-11 -1.806823E-11  1.116187E-11  1.334822E-13
         8   4 -1.039452E+03 -1.039452E+03 -4.822567E-12 -4.585759E-12  3.455697E-12 -3.014456E-12
         8   5 -1.039452E+03 -1.039452E+03  2.675377E-11  2.294597E-11 -4.941580E-12 -1.528444E-12
         8   6 -1.039452E+03 -1.039452E+03  1.550111E-11  1.071728E-11  6.311187E-12 -1.195037E-11
         8   7 -1.039452E+03 -1.039452E+03  2.307943E-11  8.656264E-12  1.242257E-11  6.317844E-12
         8   8 -1.039452E+03 -1.039452E+03  5.281859E-12 -3.503726E-12  4.926558E-12  1.781542E-13
         9   1 -1.039452E+03 -1.039452E+03 -1.056372E-11 -3.050302E-11 -1.078589E-11  2.455572E-12
         9   2 -1.039452E+03 -1.039452E+03  3.525067E-11 -3.153353E-11 -1.643560E-12  1.858411E-11
         9   3 -1.039452E+03 -1.039452E+03 -1.596040E-11 -6.870051E-12 -9.437021E-12  2.838318E-13
         9   4 -1.039452E+03 -1.039452E+03  1.860133E-11 -7.557056E-12 -2.501463E-12  2.963763E-12
         9   5 -1.039452E+03 -1.039452E+03  3.215045E-12 -1.923614E-12 -7.841696E-12  6.440324E-13
         9   6 -1.039452E+03 -1.039452E+03  2.193120E-11 -6.320447E-12  1.913622E-12  1.192975E-11
         9   7 -1.039452E+03 -1.039452E+03 -7.233851E-12  3.847228E-12 -1.042709E-11 -1.247483E-12
         9   8 -1.039452E+03 -1.039452E+03 -9.185842E-13 -8.244061E-13 -4.332208E-12 -3.289832E-12

 strains (elem, integ.pnt.,exx,eyy,ezz,exy,exz,eyz) forset EALL and time  0.8407813E+00

         1   1 -3.475144E-03 -3.475144E-03  2.978695E-03 -2.761844E-17  2.854917E-18  7.309115E-18
         1   2 -3.475144E-03 -3.475144E-03  2.978695E-03 -5.665494E-17 -3.526033E-19  1.335552E-17
         1   3 -3.475144E-03 -3.475144E-03  2.978695E-03 -7.409034E-17 -3.160795E-19  4.350345E-17
         1   4 -3.475144E-03 -3.475144E-03  2.978695E-03 -1.031268E-16 -4.475727E-18  7.335978E-17
         1   5 -3.475144E-03 -3.475144E-03  2.978695E-03 -1.588229E-17  1.389230E-17 -8.784803E-18
         1   6 -3.475144E-03 -3.475144E-03  2.978695E-03 -4.662046E-17  1.068478E-17 -1.029602E-17
         1   7 -3.475144E-03 -3.475144E-03  2.978695E-03 -2.911753E-17  3.218058E-18  2.719344E-17
         1   8 -3.475144E-03 -3.475144E-03  2.978695E-03 -5.985570E-17 -9.415893E-19  4.970824E-17
         2   1 -3.475144E-03 -3.475144E-03  2.978695E-03  4.305505E-17 -5.005405E-17  1.033040E-17
         2   2 -3.475144E-03 -3.475144E-03  2.978695E-03 -2.911753E-17 -5.858943E-17  1.234676E-17
         2   3 -3.475144E-03 -3.475144E-03  2.978695E-03  5.461563E-17 -6.637120E-17  4.471501E-17
         2   4 -3.475144E-03 -3.475144E-03  2.978695E-03 -1.701674E-17 -8.970844E-17  4.175457E-17
         2   5 -3.475144E-03 -3.475144E-03  2.978695E-03  1.204677E-17 -5.714221E-18  4.132065E-18
         2   6 -3.475144E-03 -3.475144E-03  2.978695E-03 -8.043785E-17 -1.527601E-17  1.648556E-17
         2   7 -3.475144E-03 -3.475144E-03  2.978695E-03  1.663859E-17 -1.161926E-17  3.862472E-17
         2   8 -3.475144E-03 -3.475144E-03  2.978695E-03 -7.541386E-17 -3.301173E-17  4.584584E-17
         3   1 -3.475144E-03 -3.475144E-03  2.978695E-03  5.281942E-17  4.710304E-18  9.396463E-19
         3   2 -3.475144E-03 -3.475144E-03  2.978695E-03  1.241141E-17  6.046786E-19  3.833283E-18
         3   3 -3.475144E-03 -3.475144E-03  2.978695E-03  4.132637E-17  2.940841E-17 -1.691442E-17
         3   4 -3.475144E-03 -3.475144E-03  2.978695E-03 -1.890749E-18  5.639001E-18  6.635643E-18
         3   5 -3.475144E-03 -3.475144E-03  2.978695E-03  1.013982E-16  5.174855E-18  2.154604E-17
         3   6 -3.475144E-03 -3.475144E-03  2.978695E-03  3.311511E-17  1.285315E-18  1.187366E-17
         3   7 -3.475144E-03 -3.475144E-03  2.978695E-03  1.188471E-16  1.543498E-17  3.854030E-18
         3   8 -3.475144E-03 -3.475144E-03  2.978695E-03  4.797100E-17 -9.630948E-18  1.449265E-17
         4   1 -3.475144E-03 -3.475144E-03  2.978695E-03  1.203462E-16 -6.445686E-18  2.126251E-17
         4   2 -3.475144E-03 -3.475144E-03  2.978695E-03  1.085290E-16 -3.099166E-17 -1.553120E-18
         4   3 -3.475144E-03 -3.475144E-03  2.978695E-03  1.080293E-16 -2.554753E-18  6.167051E-17
         4   4 -3.475144E-03 -3.475144E-03  2.978695E-03  9.621210E-17 -2.986924E-18  1.124320E-16
         4   5 -3.475144E-03 -3.475144E-03  2.978695E-03  1.100416E-16  6.160107E-19 -9.790526E-18
         4   6 -3.475144E-03 -3.475144E-03  2.978695E-03  1.322444E-16 -2.397723E-17 -4.643112E-17
         4   7 -3.475144E-03 -3.475144E-03  2.978695E-03  1.912897E-16 -9.215418E-18  3.213007E-17
         4   8 -3.475144E-03 -3.475144E-03  2.978695E-03  2.134925E-16 -9.674600E-18  6.544718E-17
         5   1 -3.475144E-03 -3.475144E-03  2.978695E-03 -8.211252E-17  5.198486E-17  3.722183E-17
         5   2 -3.475144E-03 -3.475144E-03  2.978695E-03 -7.692646E-17  2.324548E-17  6.102776E-17
         5   3 -3.475144E-03 -3.475144E-03  2.978695E-03 -1.361339E-16  1.681268E-17  1.011832E-16
         5   4 -3.475144E-03 -3.475144E-03  2.978695E-03 -1.308398E-16  4.879334E-17  1.146574E-16
         5   5 -3.475144E-03 -3.475144E-03  2.978695E-03 -9.378114E-17  4.112838E-17 -3.106858E-17
         5   6 -3.475144E-03 -3.475144E-03  2.978695E-03 -3.457369E-18  1.195683E-17 -1.336239E-17
         5   7 -3.475144E-03 -3.475144E-03  2.978695E-03 -1.590390E-16 -3.614148E-18  3.289275E-17
         5   8 -3.475144E-03 -3.475144E-03  2.978695E-03 -6.828304E-17  2.987912E-17  3.930812E-17
         6   1 -3.475144E-03 -3.475144E-03  2.978695E-03  8.092405E-17 -5.197849E-17 -1.946826E-17
         6   2 -3.475144E-03 -3.475144E-03  2.978695E-03  7.681842E-17 -1.978174E-17 -8.119553E-17
         6   3 -3.475144E-03 -3.475144E-03  2.978695E-03  2.087387E-16 -4.586849E-17 -3.653902E-17
         6   4 -3.475144E-03 -3.475144E-03  2.978695E-03  2.111156E-16 -6.973088E-18 -1.486006E-16
         6   5 -3.475144E-03 -3.475144E-03  2.978695E-03 -2.938764E-17 -6.950205E-17  1.804657E-17
         6   6 -3.475144E-03 -3.475144E-03  2.978695E-03 -2.938764E-17 -3.665704E-17 -6.749670E-18
         6   7 -3.475144E-03 -3.475144E-03  2.978695E-03  2.074421E-17 -2.293498E-17  7.597262E-19
         6   8 -3.475144E-03 -3.475144E-03  2.978695E-03  2.506593E-17  1.207088E-17 -7.524810E-17
         7   1 -3.475144E-03 -3.475144E-03  2.978695E-03 -7.542737E-17  3.063561E-18 -6.739070E-17
         7   2 -3.475144E-03 -3.475144E-03  2.978695E-03  1.366741E-17  4.974480E-17 -9.203212E-17
         7   3 -3.475144E-03 -3.475144E-03  2.978695E-03  4.956463E-18 -1.548028E-17 -1.293714E-17
         7   4 -3.475144E-03 -3.475144E-03  2.978695E-03  9.405124E-17 -5.645550E-17 -1.154024E-17
         7   5 -3.475144E-03 -3.475144E-03  2.978695E-03 -1.765419E-16 -3.515949E-17 -5.370032E-17
         7   6 -3.475144E-03 -3.475144E-03  2.978695E-03 -2.100352E-16  1.146772E-17 -4.278947E-17
         7   7 -3.475144E-03 -3.475144E-03  2.978695E-03 -5.726268E-17 -1.692129E-17 -2.704127E-18
         7   8 -3.475144E-03 -3.475144E-03  2.978695E-03 -9.075594E-17 -5.792353E-17  3.532546E-17
         8   1 -3.475144E-03 -3.475144E-03  2.978695E-03  1.771902E-17 -5.832089E-17 -5.084664E-17
         8   2 -3.475144E-03 -3.475144E-03  2.978695E-03  1.015602E-16  1.325745E-17 -9.810333E-17
         8   3 -3.475144E-03 -3.475144E-03  2.978695E-03 -1.136610E-16  6.889792E-17  1.013901E-18
         8   4 -3.475144E-03 -3.475144E-03  2.978695E-03 -2.884742E-17  2.135910E-17 -1.848939E-17
         8   5 -3.475144E-03 -3.475144E-03  2.978695E-03  1.443452E-16 -3.001821E-17 -8.720043E-18
         8   6 -3.475144E-03 -3.475144E-03  2.978695E-03  6.741870E-17  3.939928E-17 -7.332399E-17
         8   7 -3.475144E-03 -3.475144E-03  2.978695E-03  5.445356E-17  7.678737E-17  3.968312E-17
         8   8 -3.475144E-03 -3.475144E-03  2.978695E-03 -2.204073E-17  3.054505E-17  1.495286E-18
         9   1 -3.475144E-03 -3.475144E-03  2.978695E-03 -1.918840E-16 -6.643600E-17  1.510359E-17
         9   2 -3.475144E-03 -3.475144E-03  2.978695E-03 -1.983666E-16 -1.003766E-17  1.144601E-16
         9   3 -3.475144E-03 -3.475144E-03  2.978695E-03 -4.321711E-17 -5.825396E-17  1.706288E-18
         9   4 -3.475144E-03 -3.475144E-03  2.978695E-03 -4.753883E-17 -1.546902E-17  1.809958E-17
         9   5 -3.475144E-03 -3.475144E-03  2.978695E-03 -1.210079E-17 -4.799811E-17  3.805552E-18
         9   6 -3.475144E-03 -3.475144E-03  2.978695E-03 -3.975974E-17  1.218172E-17  7.291005E-17
         9   7 -3.475144E-03 -3.475144E-03  2.978695E-03  2.420158E-17 -6.446349E-17 -7.863069E-18
         9   8 -3.475144E-03 -3.475144E-03  2.978695E-03 -5.186054E-18 -2.686460E-17 -2.097982E-17

 displacements (vx,vy,vz) for set NALL and time  0.8497813E+00

         1  0.000000E+00  0.000000E+00  0.000000E+00
         2 -1.830560E+00  0.000000E+00  0.000000E+00
         3 -1.183144E+01  0.000000E+00  0.000000E+00
         4 -1.366200E+01  0.000000E+00  0.000000E+00
         5 -2.366288E+01  0.000000E+00  0.000000E+00
         6 -2.549344E+01  0.000000E+00  0.000000E+00
         7  0.000000E+00 -1.830560E+00  0.000000E+00
         8 -1.830560E+00 -1.830560E+00  0.000000E+00
         9 -1.183144E+01 -1.830560E+00  0.000000E+00
        10 -1.366200E+01 -1.830560E+00  0.000000E+00
        11 -2.366288E+01 -1.830560E+00  0.000000E+00
        12 -2.549344E+01 -1.830560E+00  0.000000E+00
        13  0.000000E+00 -1.183144E+01  0.000000E+00
        14 -1.830560E+00 -1.183144E+01  0.000000E+00
        15 -1.183144E+01 -1.183144E+01  0.000000E+00
        16 -1.366200E+01 -1.183144E+01  0.000000E+00
        17 -2.366288E+01 -1.183144E+01  0.000000E+00
        18 -2.549344E+01 -1.183144E+01  0.000000E+00
        19  0.000000E+00 -1.366200E+01  0.000000E+00
        20 -1.830560E+00 -1.366200E+01  0.000000E+00
        21 -1.183144E+01 -1.366200E+01  0.000000E+00
        22 -1.366200E+01 -1.366200E+01  0.000000E+00
        23 -2.366288E+01 -1.366200E+01  0.000000E+00
        24 -2.549344E+01 -1.366200E+01  0.000000E+00
        25  0.000000E+00 -2.366288E+01  0.000000E+00
        26 -1.830560E+00 -2.366288E+01  0.000000E+00
        27 -1.183144E+01 -2.366288E+01  0.000000E+00
        28 -1.366200E+01 -2.366288E+01  0.000000E+00
        29 -2.366288E+01 -2.366288E+01  0.000000E+00
        30 -2.549344E+01 -2.366288E+01  0.000000E+00
        31  0.000000E+00 -2.549344E+01  0.000000E+00
        32 -1.830560E+00 -2.549344E+01  0.000000E+00
        33 -1.183144E+01 -2.549344E+01  0.000000E+00
        34 -1.366200E+01 -2.549344E+01  0.000000E+00
        35 -2.366288E+01 -2.549344E+01  0.000000E+00
        36 -2.549344E+01 -2.549344E+01  0.000000E+00
        37  0.000000E+00  0.000000E+00  2.189227E+00
        38 -1.830560E+00  0.000000E+00  2.189227E+00
        39 -1.183144E+01  0.000000E+00  2.189227E+00
        40 -1.366200E+01  0.000000E+00  2.189227E+00
        41 -2.366288E+01  0.000000E+00  2.189227E+00
        42 -2.549344E+01  0.000000E+00  2.189227E+00
        43  0.000000E+00 -1.830560E+00  2.189227E+00
        44 -1.830560E+00 -1.830560E+00  2.189227E+00
        45 -1.183144E+01 -1.830560E+00  2.189227E+00
        46 -1.366200E+01 -1.830560E+00  2.189227E+00
        47 -2.366288E+01 -1.830560E+00  2.189227E+00
        48 -2.549344E+01 -1.830560E+00  2.189227E+00
        49  0.000000E+00 -1.183144E+01  2.189227E+00
        50 -1.830560E+00 -1.183144E+01  2.189227E+00
        51 -1.183144E+01 -1.183144E+01  2.189227E+00
        52 -1.366200E+01 -1.183144E+01  2.189227E+00
        53 -2.366288E+01 -1.183144E+01  2.189227E+00
        54 -2.549344E+01 -1.183144E+01  2.189227E+00
        55  0.000000E+00 -1.366200E+01  2.189227E+00
        56 -1.830560E+00 -1.366200E+01  2.189227E+00
        57 -1.183144E+01 -1.366200E+01  2.189227E+00
        58 -1.366200E+01 -1.366200E+01  2.189227E+00
        59 -2.366288E+01 -1.366200E+01  2.189227E+00
        60 -2.549344E+01 -1.366200E+01  2.189227E+00
        61  0.000000E+00 -2.366288E+01  2.189227E+00
        62 -1.830560E+00 -2.366288E+01  2.189227E+00
        63 -1.183144E+01 -2.366288E+01  2.189227E+00
        64 -1.366200E+01 -2.366288E+01  2.189227E+00
        65 -2.366288E+01 -2.366288E+01  2.189227E+00
        66 -2.549344E+01 -2.366288E+01  2.189227E+00
        67  0.000000E+00 -2.549344E+01  2.189227E+00
        68 -1.830560E+00 -2.549344E+01  2.189227E+00
        69 -1.183144E+01 -2.549344E+01  2.189227E+00
        70 -1.366200E+01 -2.549344E+01  2.189227E+00
        71 -2.366288E+01 -2.549344E+01  2.189227E+00
        72 -2.549344E+01 -2.549344E+01  2.189227E+00

 stresses (elem, integ.pnt.,sxx,syy,szz,sxy,sxz,syz) for set EALL and time  0.8497813E+00

         1   1 -1.092907E+03 -1.092907E+03  3.669332E-10 -5.589105E-12  2.371516E-13  1.285518E-12
         1   2 -1.092907E+03 -1.092907E+03  3.594659E-10 -1.076643E-11 -2.304573E-12  2.501640E-12
         1   3 -1.092907E+03 -1.092907E+03  3.516539E-10 -1.567781E-11 -2.225997E-13  7.590570E-12
         1   4 -1.092907E+03 -1.092907E+03  3.399360E-10 -2.085513E-11 -2.298013E-12  1.392408E-11
         1   5 -1.092907E+03 -1.092907E+03  3.747452E-10 -2.788119E-12  3.474891E-12 -1.515160E-12
         1   6 -1.092907E+03 -1.092907E+03  3.783066E-10 -7.309160E-12  9.331666E-13 -2.014669E-12
         1   7 -1.092907E+03 -1.092907E+03  3.604999E-10 -5.876496E-12  1.295188E-12  4.807407E-12
         1   8 -1.092907E+03 -1.092907E+03  3.596957E-10 -1.039754E-11 -7.846035E-13  9.407766E-12
         2   1 -1.092907E+03 -1.092907E+03  3.600403E-10  1.376687E-11 -7.712763E-12  1.763308E-12
         2   2 -1.092907E+03 -1.092907E+03  3.754345E-10  5.067942E-12 -9.017559E-12  2.705722E-12
         2   3 -1.092907E+03 -1.092907E+03  3.378681E-10  9.402394E-12 -1.256312E-11  9.596461E-12
         2   4 -1.092907E+03 -1.092907E+03  3.638314E-10  4.975719E-13 -2.051449E-11  9.109306E-12
         2   5 -1.092907E+03 -1.092907E+03  3.738262E-10  4.143573E-12  1.074144E-12 -1.237417E-12
         2   6 -1.092907E+03 -1.092907E+03  3.864632E-10 -1.411217E-11 -3.882778E-13  3.692903E-12
         2   7 -1.092907E+03 -1.092907E+03  3.378681E-10 -2.161864E-12  9.116947E-14  6.595735E-12
         2   8 -1.092907E+03 -1.092907E+03  3.608445E-10 -2.034898E-11 -7.825174E-12  1.009215E-11
         3   1 -1.092907E+03 -1.092907E+03  3.683118E-10  4.518897E-12 -2.135723E-12  2.400268E-13
         3   2 -1.092907E+03 -1.092907E+03  3.650951E-10  1.608530E-13 -4.368617E-13 -2.141555E-13
         3   3 -1.092907E+03 -1.092907E+03  3.756643E-10  1.475558E-12  8.694547E-12 -4.681417E-12
         3   4 -1.092907E+03 -1.092907E+03  3.629124E-10 -2.676594E-12  1.969158E-12 -2.846749E-12
         3   5 -1.092907E+03 -1.092907E+03  3.609594E-10  2.173875E-11 -1.405390E-12  5.776118E-12
         3   6 -1.092907E+03 -1.092907E+03  3.624528E-10  5.953706E-12  1.183314E-13  1.810217E-12
         3   7 -1.092907E+03 -1.092907E+03  3.503902E-10  2.189317E-11  5.913162E-12  8.590530E-13
         3   8 -1.092907E+03 -1.092907E+03  3.426931E-10  5.833602E-12 -9.523400E-13 -7.765053E-13
         4   1 -1.092907E+03 -1.092907E+03  3.544111E-10  2.597883E-11 -1.569812E-12  9.716872E-13
         4   2 -1.092907E+03 -1.092907E+03  3.556748E-10  2.558206E-11 -5.467780E-12 -8.426526E-12
         4   3 -1.092907E+03 -1.092907E+03  3.451057E-10  2.779754E-11  3.054812E-13  1.193547E-11
         4   4 -1.092907E+03 -1.092907E+03  3.529176E-10  2.740077E-11 -1.047478E-12  4.139795E-12
         4   5 -1.092907E+03 -1.092907E+03  3.679672E-10  1.295403E-11 -1.967749E-12 -2.210032E-12
         4   6 -1.092907E+03 -1.092907E+03  3.735964E-10  1.612819E-11 -5.876663E-12 -9.090719E-12
         4   7 -1.092907E+03 -1.092907E+03  3.641761E-10  1.679734E-11  2.479979E-12  8.228333E-12
         4   8 -1.092907E+03 -1.092907E+03  3.762387E-10  1.997151E-11  1.135777E-12  3.440574E-12
         5   1 -1.092907E+03 -1.092907E+03  3.608445E-10 -1.472127E-11  3.179454E-12  3.038727E-12
         5   2 -1.092907E+03 -1.092907E+03  3.564790E-10 -2.985432E-12 -2.950459E-12  8.750805E-12
         5   3 -1.092907E+03 -1.092907E+03  3.521135E-10 -2.141275E-11  2.457180E-12  1.351212E-11
         5   4 -1.092907E+03 -1.092907E+03  3.367193E-10 -9.591128E-12  4.033443E-12  1.995755E-11
         5   5 -1.092907E+03 -1.092907E+03  3.698053E-10 -3.774684E-12  5.547180E-12 -7.608037E-12
         5   6 -1.092907E+03 -1.092907E+03  3.677374E-10  1.935383E-11 -7.228441E-13 -6.506421E-12
         5   7 -1.092907E+03 -1.092907E+03  3.778470E-10 -9.333763E-12  1.948155E-13  2.690216E-12
         5   8 -1.092907E+03 -1.092907E+03  3.640612E-10  1.386338E-11  2.296500E-12  4.711378E-12
         6   1 -1.092907E+03 -1.092907E+03  3.408550E-10  6.811588E-12 -4.157787E-12 -7.600289E-12
         6   2 -1.092907E+03 -1.092907E+03  3.554450E-10  1.782680E-11 -2.196215E-12 -1.471657E-11
         6   3 -1.092907E+03 -1.092907E+03  3.750899E-10  1.887342E-11 -1.024732E-11 -1.716295E-11
         6   4 -1.092907E+03 -1.092907E+03  4.042699E-10  3.023178E-11 -1.350195E-12 -2.960127E-11
         6   5 -1.092907E+03 -1.092907E+03  3.256906E-10 -1.612819E-11 -6.080187E-12 -8.331987E-13
         6   6 -1.092907E+03 -1.092907E+03  3.298263E-10  2.127549E-12 -3.383026E-12 -1.928561E-12
         6   7 -1.092907E+03 -1.092907E+03  3.718732E-10 -1.098090E-11 -5.257822E-12 -1.043089E-11
         6   8 -1.092907E+03 -1.092907E+03  3.899097E-10  7.000322E-12  3.078859E-12 -1.709583E-11
         7   1 -1.092907E+03 -1.092907E+03  3.283329E-10 -2.067068E-11  2.727800E-13 -1.552573E-11
         7   2 -1.092907E+03 -1.092907E+03  3.499307E-10 -8.879085E-12  3.746032E-12 -7.718662E-12
         7   3 -1.092907E+03 -1.092907E+03  3.551004E-10 -2.277678E-12 -2.543492E-12 -2.705458E-12
         7   4 -1.092907E+03 -1.092907E+03  3.788810E-10  9.513919E-12 -7.570020E-12 -1.010786E-12
         7   5 -1.092907E+03 -1.092907E+03  3.621082E-10 -1.395775E-11 -2.445269E-12 -1.218579E-11
         7   6 -1.092907E+03 -1.092907E+03  3.701499E-10 -1.382907E-11  1.019227E-12 -3.690019E-12
         7   7 -1.092907E+03 -1.092907E+03  3.707244E-10 -3.800420E-12 -4.487470E-12  7.403070E-14
         7   8 -1.092907E+03 -1.092907E+03  3.808340E-10 -3.671738E-12 -9.509619E-12  3.385651E-12
         8   1 -1.092907E+03 -1.092907E+03  3.507349E-10  4.255098E-12 -6.587999E-12 -6.837184E-12
         8   2 -1.092907E+03 -1.092907E+03  3.315496E-10  7.755259E-12 -3.286603E-12 -1.898987E-11
         8   3 -1.092907E+03 -1.092907E+03  3.715285E-10 -1.413791E-11  6.006648E-12  2.831759E-14
         8   4 -1.092907E+03 -1.092907E+03  3.528028E-10 -1.055196E-11 -1.174106E-12 -3.387038E-12
         8   5 -1.092907E+03 -1.092907E+03  3.712988E-10  4.529620E-12 -2.889516E-12 -1.213529E-12
         8   6 -1.092907E+03 -1.092907E+03  3.704946E-10 -5.010035E-12  3.768520E-13 -1.264173E-11
         8   7 -1.092907E+03 -1.092907E+03  3.718732E-10 -2.058918E-12  1.019311E-11  6.212421E-12
         8   8 -1.092907E+03 -1.092907E+03  3.710690E-10 -1.180447E-11  3.222527E-12  2.604293E-12
         9   1 -1.092907E+03 -1.092907E+03  3.660142E-10 -1.756944E-11 -8.569182E-12  1.129959E-11
         9   2 -1.092907E+03 -1.092907E+03  4.007086E-10 -2.257947E-11 -1.616110E-12  2.362531E-11
         9   3 -1.092907E+03 -1.092907E+03  3.457950E-10  1.193198E-27 -7.292640E-12  1.631841E-12
         9   4 -1.092907E+03 -1.092907E+03  3.709541E-10 -4.666882E-12 -2.388710E-12  4.791201E-12
         9   5 -1.092907E+03 -1.092907E+03  3.598106E-10  4.117837E-12 -5.227625E-12  6.979649E-12
         9   6 -1.092907E+03 -1.092907E+03  3.719881E-10 -2.470702E-12  1.287596E-12  1.599765E-11
         9   7 -1.092907E+03 -1.092907E+03  3.374086E-10  7.412106E-12 -8.084136E-12 -2.828211E-12
         9   8 -1.092907E+03 -1.092907E+03  3.397062E-10  5.490449E-13 -3.180206E-12 -4.064732E-12

 strains (elem, integ.pnt.,exx,eyy,ezz,exy,exz,eyz) forset EALL and time  0.8497813E+00

         1   1 -3.654417E-03 -3.654417E-03  3.132358E-03 -3.518858E-17  1.562283E-18  7.842274E-18
         1   2 -3.654417E-03 -3.654417E-03  3.132358E-03 -6.778461E-17 -1.411459E-17  1.528899E-17
         1   3 -3.654417E-03 -3.654417E-03  3.132358E-03 -9.870627E-17 -1.327474E-18  4.673065E-17
         1   4 -3.654417E-03 -3.654417E-03  3.132358E-03 -1.313023E-16 -1.412823E-17  8.574043E-17
         1   5 -3.654417E-03 -3.654417E-03  3.132358E-03 -1.755378E-17  2.180511E-17 -9.667973E-18
         1   6 -3.654417E-03 -3.654417E-03  3.132358E-03 -4.601792E-17  6.128229E-18 -1.294764E-17
         1   7 -3.654417E-03 -3.654417E-03  3.132358E-03 -3.699797E-17  8.161590E-18  2.932843E-17
         1   8 -3.654417E-03 -3.654417E-03  3.132358E-03 -6.546211E-17 -4.666174E-18  5.750379E-17
         2   1 -3.654417E-03 -3.654417E-03  3.132358E-03  8.667518E-17 -4.729965E-17  1.078260E-17
         2   2 -3.654417E-03 -3.654417E-03  3.132358E-03  3.190738E-17 -5.534738E-17  1.671791E-17
         2   3 -3.654417E-03 -3.654417E-03  3.132358E-03  5.919676E-17 -7.709303E-17  5.909601E-17
         2   4 -3.654417E-03 -3.654417E-03  3.132358E-03  3.132675E-18 -1.261356E-16  5.621383E-17
         2   5 -3.654417E-03 -3.654417E-03  3.132358E-03  2.608762E-17  7.637390E-18 -7.978383E-18
         2   6 -3.654417E-03 -3.654417E-03  3.132358E-03 -8.884915E-17 -1.382554E-18  2.289009E-17
         2   7 -3.654417E-03 -3.654417E-03  3.132358E-03 -1.361093E-17  2.035243E-18  4.033503E-17
         2   8 -3.654417E-03 -3.654417E-03  3.132358E-03 -1.281156E-16 -4.679128E-17  6.235873E-17
         3   1 -3.654417E-03 -3.654417E-03  3.132358E-03  2.845063E-17 -1.315788E-17  1.652820E-18
         3   2 -3.654417E-03 -3.654417E-03  3.132358E-03  1.012718E-18 -2.679627E-18 -1.257971E-18
         3   3 -3.654417E-03 -3.654417E-03  3.132358E-03  9.290002E-18  5.353244E-17 -2.870172E-17
         3   4 -3.654417E-03 -3.654417E-03  3.132358E-03 -1.685163E-17  1.205150E-17 -1.749513E-17
         3   5 -3.654417E-03 -3.654417E-03  3.132358E-03  1.368655E-16 -8.615366E-18  3.626565E-17
         3   6 -3.654417E-03 -3.654417E-03  3.132358E-03  3.748408E-17  7.826597E-19  1.139908E-17
         3   7 -3.654417E-03 -3.654417E-03  3.132358E-03  1.378377E-16  3.611918E-17  5.938115E-18
         3   8 -3.654417E-03 -3.654417E-03  3.132358E-03  3.672791E-17 -6.225948E-18 -4.553876E-18
         4   1 -3.654417E-03 -3.654417E-03  3.132358E-03  1.635607E-16 -9.694410E-18  5.889023E-18
         4   2 -3.654417E-03 -3.654417E-03  3.132358E-03  1.610627E-16 -3.373634E-17 -5.199927E-17
         4   3 -3.654417E-03 -3.654417E-03  3.132358E-03  1.750112E-16  1.950902E-18  7.351159E-17
         4   4 -3.654417E-03 -3.654417E-03  3.132358E-03  1.725132E-16 -6.393896E-18  2.550744E-17
         4   5 -3.654417E-03 -3.654417E-03  3.132358E-03  8.155757E-17 -1.218219E-17 -1.402423E-17
         4   6 -3.654417E-03 -3.654417E-03  3.132358E-03  1.015419E-16 -3.629163E-17 -5.616667E-17
         4   7 -3.654417E-03 -3.654417E-03  3.132358E-03  1.057548E-16  1.554545E-17  5.035764E-17
         4   8 -3.654417E-03 -3.654417E-03  3.132358E-03  1.257391E-16  7.254660E-18  2.112399E-17
         5   1 -3.654417E-03 -3.654417E-03  3.132358E-03 -9.268397E-17  1.968344E-17  1.841661E-17
         5   2 -3.654417E-03 -3.654417E-03  3.132358E-03 -1.879605E-17 -1.812470E-17  5.350826E-17
         5   3 -3.654417E-03 -3.654417E-03  3.132358E-03 -1.348131E-16  1.509087E-17  8.301453E-17
         5   4 -3.654417E-03 -3.654417E-03  3.132358E-03 -6.038501E-17  2.481297E-17  1.226299E-16
         5   5 -3.654417E-03 -3.654417E-03  3.132358E-03 -2.376512E-17  3.448977E-17 -4.813967E-17
         5   6 -3.654417E-03 -3.654417E-03  3.132358E-03  1.218503E-16 -4.182559E-18 -4.186518E-17
         5   7 -3.654417E-03 -3.654417E-03  3.132358E-03 -5.876466E-17  9.580535E-19  1.537802E-17
         5   8 -3.654417E-03 -3.654417E-03  3.132358E-03  8.728281E-17  1.392085E-17  2.732336E-17
         6   1 -3.654417E-03 -3.654417E-03  3.132358E-03  4.288524E-17 -2.569378E-17 -4.667030E-17
         6   2 -3.654417E-03 -3.654417E-03  3.132358E-03  1.122362E-16 -1.359517E-17 -9.038468E-17
         6   3 -3.654417E-03 -3.654417E-03  3.132358E-03  1.188256E-16 -6.307520E-17 -1.056510E-16
         6   4 -3.654417E-03 -3.654417E-03  3.132358E-03  1.903370E-16 -8.199379E-18 -1.821912E-16
         6   5 -3.654417E-03 -3.654417E-03  3.132358E-03 -1.015419E-16 -3.768337E-17 -4.364406E-18
         6   6 -3.654417E-03 -3.654417E-03  3.132358E-03  1.339489E-17 -2.104778E-17 -1.046095E-17
         6   7 -3.654417E-03 -3.654417E-03  3.132358E-03 -6.913490E-17 -3.195099E-17 -6.356116E-17
         6   8 -3.654417E-03 -3.654417E-03  3.132358E-03  4.407350E-17  1.946809E-17 -1.040084E-16
         7   1 -3.654417E-03 -3.654417E-03  3.132358E-03 -1.301410E-16  1.598466E-18 -9.565710E-17
         7   2 -3.654417E-03 -3.654417E-03  3.132358E-03 -5.590205E-17  2.302083E-17 -4.747980E-17
         7   3 -3.654417E-03 -3.654417E-03  3.132358E-03 -1.434009E-17 -1.574720E-17 -1.658406E-17
         7   4 -3.654417E-03 -3.654417E-03  3.132358E-03  5.989891E-17 -4.674988E-17 -6.106888E-18
         7   5 -3.654417E-03 -3.654417E-03  3.132358E-03 -8.787694E-17 -1.539517E-17 -7.477532E-17
         7   6 -3.654417E-03 -3.654417E-03  3.132358E-03 -8.706676E-17  5.973181E-18 -2.228475E-17
         7   7 -3.654417E-03 -3.654417E-03  3.132358E-03 -2.392716E-17 -2.790086E-17  8.409769E-19
         7   8 -3.654417E-03 -3.654417E-03  3.132358E-03 -2.311698E-17 -5.887654E-17  2.135665E-17
         8   1 -3.654417E-03 -3.654417E-03  3.132358E-03  2.678977E-17 -4.051856E-17 -4.197902E-17
         8   2 -3.654417E-03 -3.654417E-03  3.132358E-03  4.882652E-17 -2.015617E-17 -1.169328E-16
         8   3 -3.654417E-03 -3.654417E-03  3.132358E-03 -8.901118E-17  3.716451E-17  3.661088E-19
         8   4 -3.654417E-03 -3.654417E-03  3.132358E-03 -6.643432E-17 -7.125034E-18 -2.069769E-17
         8   5 -3.654417E-03 -3.654417E-03  3.132358E-03  2.851815E-17 -1.739214E-17 -6.771831E-18
         8   6 -3.654417E-03 -3.654417E-03  3.132358E-03 -3.154280E-17  2.754201E-18 -7.725518E-17
         8   7 -3.654417E-03 -3.654417E-03  3.132358E-03 -1.296279E-17  6.330346E-17  3.903004E-17
         8   8 -3.654417E-03 -3.654417E-03  3.132358E-03 -7.432002E-17  2.031019E-17  1.677872E-17
         9   1 -3.654417E-03 -3.654417E-03  3.132358E-03 -1.106158E-16 -5.276636E-17  6.954777E-17
         9   2 -3.654417E-03 -3.654417E-03  3.132358E-03 -1.421586E-16 -9.881121E-18  1.454594E-16
         9   3 -3.654417E-03 -3.654417E-03  3.132358E-03 -1.028920E-32 -4.500384E-17  9.918919E-18
         9   4 -3.654417E-03 -3.654417E-03  3.132358E-03 -2.938233E-17 -1.475732E-17  2.929358E-17
         9   5 -3.654417E-03 -3.654417E-03  3.132358E-03  2.592559E-17 -3.192173E-17  4.250342E-17
         9   6 -3.654417E-03 -3.654417E-03  3.132358E-03 -1.555535E-17  8.262934E-18  9.771254E-17
         9   7 -3.654417E-03 -3.654417E-03  3.132358E-03  4.666606E-17 -4.995239E-17 -1.798962E-17
         9   8 -3.654417E-03 -3.654417E-03  3.132358E-03  3.456745E-18 -1.970587E-17 -2.602776E-17

 displacements (vx,vy,vz) for set NALL and time  0.8587813E+00

         1  0.000000E+00  0.000000E+00  0.000000E+00
         2 -1.920518E+00  0.000000E+00  0.000000E+00
         3 -1.192146E+01  0.000000E+00  0.000000E+00
         4 -1.384198E+01  0.000000E+00  0.000000E+00
         5 -2.384292E+01  0.000000E+00  0.000000E+00
         6 -2.576344E+01  0.000000E+00  0.000000E+00
         7  0.000000E+00 -1.920518E+00  0.000000E+00
         8 -1.920518E+00 -1.920518E+00  0.000000E+00
         9 -1.192146E+01 -1.920518E+00  0.000000E+00
        10 -1.384198E+01 -1.920518E+00  0.000000E+00
        11 -2.384292E+01 -1.920518E+00  0.000000E+00
        12 -2.576344E+01 -1.920518E+00  0.000000E+00
        13  0.000000E+00 -1.192146E+01  0.000000E+00
        14 -1.920518E+00 -1.192146E+01  0.000000E+00
        15 -1.192146E+01 -1.192146E+01  0.000000E+00
        16 -1.384198E+01 -1.192146E+01  0.000000E+00
        17 -2.384292E+01 -1.192146E+01  0.000000E+00
        18 -2.576344E+01 -1.192146E+01  0.000000E+00
        19  0.000000E+00 -1.384198E+01  0.000000E+00
        20 -1.920518E+00 -1.384198E+01  0.000000E+00
        21 -1.192146E+01 -1.384198E+01  0.000000E+00
        22 -1.384198E+01 -1.384198E+01  0.000000E+00
        23 -2.384292E+01 -1.384198E+01  0.000000E+00
        24 -2.576344E+01 -1.384198E+01  0.000000E+00
        25  0.000000E+00 -2.384292E+01  0.000000E+00
        26 -1.920518E+00 -2.384292E+01  0.000000E+00
        27 -1.192146E+01 -2.384292E+01  0.000000E+00
        28 -1.384198E+01 -2.384292E+01  0.000000E+00
        29 -2.384292E+01 -2.384292E+01  0.000000E+00
        30 -2.576344E+01 -2.384292E+01  0.000000E+00
        31  0.000000E+00 -2.576344E+01  0.000000E+00
        32 -1.920518E+00 -2.576344E+01  0.000000E+00
        33 -1.192146E+01 -2.576344E+01  0.000000E+00
        34 -1.384198E+01 -2.576344E+01  0.000000E+00
        35 -2.384292E+01 -2.576344E+01  0.000000E+00
        36 -2.576344E+01 -2.576344E+01  0.000000E+00
        37  0.000000E+00  0.000000E+00  2.296429E+00
        38 -1.920518E+00  0.000000E+00  2.296429E+00
        39 -1.192146E+01  0.000000E+00  2.296429E+00
        40 -1.384198E+01  0.000000E+00  2.296429E+00
        41 -2.384292E+01  0.000000E+00  2.296429E+00
        42 -2.576344E+01  0.000000E+00  2.296429E+00
        43  0.000000E+00 -1.920518E+00  2.296429E+00
        44 -1.920518E+00 -1.920518E+00  2.296429E+00
        45 -1.192146E+01 -1.920518E+00  2.296429E+00
        46 -1.384198E+01 -1.920518E+00  2.296429E+00
        47 -2.384292E+01 -1.920518E+00  2.296429E+00
        48 -2.576344E+01 -1.920518E+00  2.296429E+00
        49  0.000000E+00 -1.192146E+01  2.296429E+00
        50 -1.920518E+00 -1.192146E+01  2.296429E+00
        51 -1.192146E+01 -1.192146E+01  2.296429E+00
        52 -1.384198E+01 -1.192146E+01  2.296429E+00
        53 -2.384292E+01 -1.192146E+01  2.296429E+00
        54 -2.576344E+01 -1.192146E+01  2.296429E+00
        55  0.000000E+00 -1.384198E+01  2.296429E+00
        56 -1.920518E+00 -1.384198E+01  2.296429E+00
        57 -1.192146E+01 -1.384198E+01  2.296429E+00
        58 -1.384198E+01 -1.384198E+01  2.296429E+00
        59 -2.384292E+01 -1.384198E+01  2.296429E+00
        60 -2.576344E+01 -1.384198E+01  2.296429E+00
        61  0.000000E+00 -2.384292E+01  2.296429E+00
        62 -1.920518E+00 -2.384292E+01  2.296429E+00
        63 -1.192146E+01 -2.384292E+01  2.296429E+00
        64 -1.384198E+01 -2.384292E+01  2.296429E+00
        65 -2.384292E+01 -2.384292E+01  2.296429E+00
        66 -2.576344E+01 -2.384292E+01  2.296429E+00
        67  0.000000E+00 -2.576344E+01  2.296429E+00
        68 -1.920518E+00 -2.576344E+01  2.296429E+00
        69 -1.192146E+01 -2.576344E+01  2.296429E+00
        70 -1.384198E+01 -2.576344E+01  2.296429E+00
        71 -2.384292E+01 -2.576344E+01  2.296429E+00
        72 -2.576344E+01 -2.576344E+01  2.296429E+00

 stresses (elem, integ.pnt.,sxx,syy,szz,sxy,sxz,syz) for set EALL and time  0.8587813E+00

         1   1 -1.146337E+03 -1.146337E+03  1.173549E-10 -5.169908E-12 -3.703490E-13  1.551022E-12
         1   2 -1.146337E+03 -1.146337E+03  1.166652E-10 -1.314438E-11 -4.862699E-12  2.206310E-12
         1   3 -1.146337E+03 -1.146337E+03  9.965393E-11 -1.135966E-11 -5.361399E-13  7.860453E-12
         1   4 -1.146337E+03 -1.146337E+03  9.632063E-11 -1.933413E-11 -4.437391E-12  1.142745E-11
         1   5 -1.146337E+03 -1.146337E+03  1.212629E-10 -3.436607E-12  3.074988E-12 -5.792184E-13
         1   6 -1.146337E+03 -1.146337E+03  1.267800E-10 -1.058406E-11 -1.417362E-12 -9.194913E-13
         1   7 -1.146337E+03 -1.146337E+03  1.049412E-10 -5.639120E-12  1.881030E-12  5.712699E-12
         1   8 -1.146337E+03 -1.146337E+03  1.075849E-10 -1.278658E-11 -2.020221E-12  8.301648E-12
         2   1 -1.146337E+03 -1.146337E+03  1.149411E-10  1.457773E-11 -3.121548E-12  1.349610E-12
         2   2 -1.146337E+03 -1.146337E+03  1.255157E-10  5.030644E-12 -5.871252E-12  2.873168E-12
         2   3 -1.146337E+03 -1.146337E+03  9.448158E-11  1.209240E-11 -8.430606E-12  7.107349E-12
         2   4 -1.146337E+03 -1.146337E+03  1.141365E-10  2.631018E-12 -1.907914E-11  9.324916E-12
         2   5 -1.146337E+03 -1.146337E+03  1.212629E-10  5.767672E-12  2.606189E-12 -7.110710E-13
         2   6 -1.146337E+03 -1.146337E+03  1.336765E-10 -1.397782E-11 -2.091636E-14  4.231724E-12
         2   7 -1.146337E+03 -1.146337E+03  8.540123E-11  4.010803E-12  4.013792E-13  5.064182E-12
         2   8 -1.146337E+03 -1.146337E+03  1.063205E-10 -1.539188E-11 -9.651677E-12  1.067482E-11
         3   1 -1.146337E+03 -1.146337E+03  1.220674E-10  3.832974E-12 -3.604674E-13  5.303787E-13
         3   2 -1.146337E+03 -1.146337E+03  1.134469E-10 -9.319975E-13  4.276642E-13  1.478107E-13
         3   3 -1.146337E+03 -1.146337E+03  1.272398E-10 -2.562457E-12  1.092802E-11 -2.832316E-12
         3   4 -1.146337E+03 -1.146337E+03  1.091940E-10 -6.813223E-12  1.400384E-12 -6.730509E-13
         3   5 -1.146337E+03 -1.146337E+03  1.143664E-10  2.142523E-11  4.414486E-13  5.347329E-12
         3   6 -1.146337E+03 -1.146337E+03  1.116078E-10  4.559289E-12  7.041591E-13  1.389064E-12
         3   7 -1.146337E+03 -1.146337E+03  1.016079E-10  1.744871E-11  7.595900E-12  1.967121E-12
         3   8 -1.146337E+03 -1.146337E+03  8.930923E-11  1.953981E-12 -1.021005E-12  5.832937E-13
         4   1 -1.146337E+03 -1.146337E+03  1.114929E-10  1.933841E-11 -1.234859E-13  5.742886E-12
         4   2 -1.146337E+03 -1.146337E+03  1.125273E-10  2.171661E-11 -1.636261E-12  6.190799E-12
         4   3 -1.146337E+03 -1.146337E+03  9.103334E-11  1.781294E-11 -1.525462E-12  1.464002E-11
         4   4 -1.146337E+03 -1.146337E+03  9.091840E-11  2.019114E-11 -6.359335E-12  2.293422E-11
         4   5 -1.146337E+03 -1.146337E+03  1.264352E-10  1.806575E-11  1.043783E-12 -3.516391E-12
         4   6 -1.146337E+03 -1.146337E+03  1.443660E-10  1.590609E-11 -4.799380E-13 -3.476452E-12
         4   7 -1.146337E+03 -1.146337E+03  9.907922E-11  2.745857E-11 -8.342515E-13  5.275655E-12
         4   8 -1.146337E+03 -1.146337E+03  1.155158E-10  2.529891E-11 -5.681261E-12  1.282036E-11
         5   1 -1.146337E+03 -1.146337E+03  1.139066E-10 -1.400353E-11  1.763764E-12  5.258204E-12
         5   2 -1.146337E+03 -1.146337E+03  1.055159E-10 -5.964784E-12 -3.116492E-13  4.133522E-12
         5   3 -1.146337E+03 -1.146337E+03  1.050562E-10 -1.837428E-11  6.398963E-12  1.450561E-11
         5   4 -1.146337E+03 -1.146337E+03  9.206781E-11 -1.026697E-11  6.013654E-12  1.191416E-11
         5   5 -1.146337E+03 -1.146337E+03  1.283892E-10 -7.335998E-12  1.406344E-12 -3.037436E-12
         5   6 -1.146337E+03 -1.146337E+03  1.163204E-10  3.359476E-12 -7.303680E-13 -5.733339E-12
         5   7 -1.146337E+03 -1.146337E+03  1.232168E-10 -1.398639E-11  3.947013E-12  6.455171E-12
         5   8 -1.146337E+03 -1.146337E+03  1.065504E-10 -3.565158E-12  3.526677E-12  1.894086E-12
         6   1 -1.146337E+03 -1.146337E+03  8.666558E-11  1.366073E-11 -8.724966E-12 -5.677049E-12
         6   2 -1.146337E+03 -1.146337E+03  1.042516E-10  2.576170E-11 -3.435727E-12 -1.787602E-11
         6   3 -1.146337E+03 -1.146337E+03  1.239065E-10  2.852127E-11 -3.948490E-12 -1.289283E-11
         6   4 -1.146337E+03 -1.146337E+03  1.545958E-10  4.027943E-11 -6.558515E-13 -3.060003E-11
         6   5 -1.146337E+03 -1.146337E+03  8.321735E-11 -2.331065E-12 -1.098613E-11  1.887228E-12
         6   6 -1.146337E+03 -1.146337E+03  8.838970E-11  7.267438E-12 -4.961298E-12 -4.556429E-12
         6   7 -1.146337E+03 -1.146337E+03  1.180445E-10  4.662130E-12 -1.185515E-12 -5.293526E-12
         6   8 -1.146337E+03 -1.146337E+03  1.360903E-10  1.439775E-11  2.667573E-12 -1.775338E-11
         7   1 -1.146337E+03 -1.146337E+03  7.620594E-11 -1.358788E-11 -2.444100E-13 -1.378964E-11
         7   2 -1.146337E+03 -1.146337E+03  8.758511E-11  3.230925E-12  3.578028E-12 -1.602846E-11
         7   3 -1.146337E+03 -1.146337E+03  1.079297E-10  8.098737E-13 -2.349643E-12 -2.790823E-12
         7   4 -1.146337E+03 -1.146337E+03  1.290788E-10  1.762868E-11 -8.194952E-12 -2.770337E-12
         7   5 -1.146337E+03 -1.146337E+03  1.062056E-10 -2.365345E-11 -4.759215E-12 -1.168697E-11
         7   6 -1.146337E+03 -1.146337E+03  1.237916E-10 -2.012258E-11 -9.105053E-13 -1.053419E-11
         7   7 -1.146337E+03 -1.146337E+03  1.175847E-10 -5.279176E-12 -2.971419E-12 -4.779913E-13
         7   8 -1.146337E+03 -1.146337E+03  1.448258E-10 -1.748299E-12 -8.803592E-12  3.739753E-12
         8   1 -1.146337E+03 -1.146337E+03  9.379193E-11 -2.948112E-12 -8.388865E-12 -8.671320E-12
         8   2 -1.146337E+03 -1.146337E+03  8.367711E-11  1.103828E-11 -1.680990E-12 -1.222778E-11
         8   3 -1.146337E+03 -1.146337E+03  1.258605E-10 -2.063678E-11  3.917915E-12 -1.315425E-12
         8   4 -1.146337E+03 -1.146337E+03  1.127572E-10 -6.564690E-12 -4.418766E-12 -2.474640E-12
         8   5 -1.146337E+03 -1.146337E+03  1.226421E-10  1.014699E-11 -1.903248E-12 -4.558155E-12
         8   6 -1.146337E+03 -1.146337E+03  1.168951E-10  4.799251E-12  4.839656E-12 -8.749216E-12
         8   7 -1.146337E+03 -1.146337E+03  1.234467E-10 -5.210616E-12  8.950248E-12  3.288133E-12
         8   8 -1.146337E+03 -1.146337E+03  1.143664E-10 -1.048979E-11  7.887075E-13  1.567332E-13
         9   1 -1.146337E+03 -1.146337E+03  1.083894E-10 -3.044097E-11 -8.161420E-12  8.512326E-12
         9   2 -1.146337E+03 -1.146337E+03  1.488487E-10 -3.133226E-11 -1.506087E-12  2.145987E-11
         9   3 -1.146337E+03 -1.146337E+03  9.643557E-11 -6.856073E-12 -5.177192E-12  1.506712E-12
         9   4 -1.146337E+03 -1.146337E+03  1.252858E-10 -8.090167E-12 -2.304891E-12  3.772988E-12
         9   5 -1.146337E+03 -1.146337E+03  1.065504E-10 -4.113644E-12 -6.995443E-12  5.008796E-12
         9   6 -1.146337E+03 -1.146337E+03  1.245961E-10 -1.042123E-11 -2.875671E-13  1.374622E-11
         9   7 -1.146337E+03 -1.146337E+03  8.838970E-11  4.662130E-12 -8.100654E-12 -2.347099E-12
         9   8 -1.146337E+03 -1.146337E+03  9.563099E-11 -1.508336E-12 -4.948127E-12 -4.030646E-12

 strains (elem, integ.pnt.,exx,eyy,ezz,exy,exz,eyz) forset EALL and time  0.8587813E+00

         1   1 -3.833660E-03 -3.833660E-03  3.285994E-03 -3.257664E-17 -2.170923E-18  9.497745E-18
         1   2 -3.833660E-03 -3.833660E-03  3.285994E-03 -8.282539E-17 -2.987389E-17  1.350293E-17
         1   3 -3.833660E-03 -3.833660E-03  3.285994E-03 -7.157950E-17 -3.227735E-18  4.840610E-17
         1   4 -3.833660E-03 -3.833660E-03  3.285994E-03 -1.218283E-16 -2.728558E-17  7.036692E-17
         1   5 -3.833660E-03 -3.833660E-03  3.285994E-03 -2.165476E-17  1.938030E-17 -3.827303E-18
         1   6 -3.833660E-03 -3.833660E-03  3.285994E-03 -6.669233E-17 -8.322664E-18 -6.049535E-18
         1   7 -3.833660E-03 -3.833660E-03  3.285994E-03 -3.553324E-17  1.189211E-17  3.497305E-17
         1   8 -3.833660E-03 -3.833660E-03  3.285994E-03 -8.057081E-17 -1.216573E-17  5.081445E-17
         2   1 -3.833660E-03 -3.833660E-03  3.285994E-03  9.185721E-17 -1.906403E-17  8.255702E-18
         2   2 -3.833660E-03 -3.833660E-03  3.285994E-03  3.169911E-17 -3.602062E-17  1.776143E-17
         2   3 -3.833660E-03 -3.833660E-03  3.285994E-03  7.619666E-17 -5.169356E-17  4.376194E-17
         2   4 -3.833660E-03 -3.833660E-03  3.285994E-03  1.657858E-17 -1.173599E-16  5.754722E-17
         2   5 -3.833660E-03 -3.833660E-03  3.285994E-03  3.634327E-17  1.676403E-17 -4.634243E-18
         2   6 -3.833660E-03 -3.833660E-03  3.285994E-03 -8.807708E-17  5.634664E-19  2.625965E-17
         2   7 -3.833660E-03 -3.833660E-03  3.285994E-03  2.527288E-17  3.576951E-18  3.098000E-17
         2   8 -3.833660E-03 -3.833660E-03  3.285994E-03 -9.698739E-17 -5.841721E-17  6.599076E-17
         3   1 -3.833660E-03 -3.833660E-03  3.285994E-03  2.415234E-17 -2.205198E-18  3.426102E-18
         3   2 -3.833660E-03 -3.833660E-03  3.285994E-03 -5.872705E-18  2.654972E-18  9.517044E-19
         3   3 -3.833660E-03 -3.833660E-03  3.285994E-03 -1.614656E-17  6.729055E-17 -1.731062E-17
         3   4 -3.833660E-03 -3.833660E-03  3.285994E-03 -4.293150E-17  8.536497E-18 -4.111648E-18
         3   5 -3.833660E-03 -3.833660E-03  3.285994E-03  1.350047E-16  2.786140E-18  3.355703E-17
         3   6 -3.833660E-03 -3.833660E-03  3.285994E-03  2.872900E-17  4.406196E-18  8.715198E-18
         3   7 -3.833660E-03 -3.833660E-03  3.285994E-03  1.099478E-16  4.647232E-17  1.271230E-17
         3   8 -3.833660E-03 -3.833660E-03  3.285994E-03  1.231243E-17 -6.665538E-18  3.747797E-18
         4   1 -3.833660E-03 -3.833660E-03  3.285994E-03  1.218553E-16 -7.234157E-19  3.511074E-17
         4   2 -3.833660E-03 -3.833660E-03  3.285994E-03  1.368408E-16 -1.005224E-17  3.785672E-17
         4   3 -3.833660E-03 -3.833660E-03  3.285994E-03  1.122429E-16 -9.385518E-18  8.997665E-17
         4   4 -3.833660E-03 -3.833660E-03  3.285994E-03  1.272284E-16 -3.919456E-17  1.411083E-16
         4   5 -3.833660E-03 -3.833660E-03  3.285994E-03  1.138360E-16  6.578263E-18 -2.281707E-17
         4   6 -3.833660E-03 -3.833660E-03  3.285994E-03  1.002275E-16 -2.818065E-18 -2.263156E-17
         4   7 -3.833660E-03 -3.833660E-03  3.285994E-03  1.730220E-16 -5.061483E-18  3.140083E-17
         4   8 -3.833660E-03 -3.833660E-03  3.285994E-03  1.594136E-16 -3.495153E-17  7.786595E-17
         5   1 -3.833660E-03 -3.833660E-03  3.285994E-03 -8.823908E-17  1.085910E-17  3.215955E-17
         5   2 -3.833660E-03 -3.833660E-03  3.285994E-03 -3.758531E-17 -1.939350E-18  2.516242E-17
         5   3 -3.833660E-03 -3.833660E-03  3.285994E-03 -1.157800E-16  3.938200E-17  8.918554E-17
         5   4 -3.833660E-03 -3.833660E-03  3.285994E-03 -6.469426E-17  3.700591E-17  7.314290E-17
         5   5 -3.833660E-03 -3.833660E-03  3.285994E-03 -4.622561E-17  8.607872E-18 -1.972192E-17
         5   6 -3.833660E-03 -3.833660E-03  3.285994E-03  2.116874E-17 -4.568588E-18 -3.657910E-17
         5   7 -3.833660E-03 -3.833660E-03  3.285994E-03 -8.813108E-17  2.404460E-17  3.881612E-17
         5   8 -3.833660E-03 -3.833660E-03  3.285994E-03 -2.246478E-17  2.145251E-17  1.045616E-17
         6   1 -3.833660E-03 -3.833660E-03  3.285994E-03  8.607901E-17 -5.387578E-17 -3.476091E-17
         6   2 -3.833660E-03 -3.833660E-03  3.285994E-03  1.623297E-16 -2.125865E-17 -1.098202E-16
         6   3 -3.833660E-03 -3.833660E-03  3.285994E-03  1.797183E-16 -2.425220E-17 -7.925846E-17
         6   4 -3.833660E-03 -3.833660E-03  3.285994E-03  2.538089E-16 -3.947495E-18 -1.882845E-16
         6   5 -3.833660E-03 -3.833660E-03  3.285994E-03 -1.468851E-17 -6.801356E-17  1.255816E-17
         6   6 -3.833660E-03 -3.833660E-03  3.285994E-03  4.579360E-17 -3.086027E-17 -2.654626E-17
         6   7 -3.833660E-03 -3.833660E-03  3.285994E-03  2.937703E-17 -6.944482E-18 -3.172339E-17
         6   8 -3.833660E-03 -3.833660E-03  3.285994E-03  9.072317E-17  1.681635E-17 -1.079263E-16
         7   1 -3.833660E-03 -3.833660E-03  3.285994E-03 -8.561999E-17 -1.652425E-18 -8.496113E-17
         7   2 -3.833660E-03 -3.833660E-03  3.285994E-03  2.035871E-17  2.191940E-17 -9.864149E-17
         7   3 -3.833660E-03 -3.833660E-03  3.285994E-03  5.103178E-18 -1.450954E-17 -1.713477E-17
         7   4 -3.833660E-03 -3.833660E-03  3.285994E-03  1.110819E-16 -5.055580E-17 -1.688264E-17
         7   5 -3.833660E-03 -3.833660E-03  3.285994E-03 -1.490452E-16 -2.989337E-17 -7.178998E-17
         7   6 -3.833660E-03 -3.833660E-03  3.285994E-03 -1.267964E-16 -6.159540E-18 -6.420868E-17
         7   7 -3.833660E-03 -3.833660E-03  3.285994E-03 -3.326516E-17 -1.839770E-17 -2.667570E-18
         7   8 -3.833660E-03 -3.833660E-03  3.285994E-03 -1.101638E-17 -5.436296E-17  2.381439E-17
         8   1 -3.833660E-03 -3.833660E-03  3.285994E-03 -1.857665E-17 -5.151925E-17 -5.334185E-17
         8   2 -3.833660E-03 -3.833660E-03  3.285994E-03  6.955443E-17 -1.015380E-17 -7.531388E-17
         8   3 -3.833660E-03 -3.833660E-03  3.285994E-03 -1.300365E-16  2.433371E-17 -7.980264E-18
         8   4 -3.833660E-03 -3.833660E-03  3.285994E-03 -4.136544E-17 -2.707608E-17 -1.516938E-17
         8   5 -3.833660E-03 -3.833660E-03  3.285994E-03  6.393823E-17 -1.094120E-17 -2.761944E-17
         8   6 -3.833660E-03 -3.833660E-03  3.285994E-03  3.024106E-17  3.064025E-17 -5.361678E-17
         8   7 -3.833660E-03 -3.833660E-03  3.285994E-03 -3.283315E-17  5.583669E-17  2.076625E-17
         8   8 -3.833660E-03 -3.833660E-03  3.285994E-03 -6.609831E-17  5.506932E-18  1.302750E-18
         9   1 -3.833660E-03 -3.833660E-03  3.285994E-03 -1.918147E-16 -5.027631E-17  5.237831E-17
         9   2 -3.833660E-03 -3.833660E-03  3.285994E-03 -1.974309E-16 -9.234878E-18  1.320828E-16
         9   3 -3.833660E-03 -3.833660E-03  3.285994E-03 -4.320151E-17 -3.201236E-17  9.176799E-18
         9   4 -3.833660E-03 -3.833660E-03  3.285994E-03 -5.097778E-17 -1.429974E-17  2.301183E-17
         9   5 -3.833660E-03 -3.833660E-03  3.285994E-03 -2.592091E-17 -4.293951E-17  3.045687E-17
         9   6 -3.833660E-03 -3.833660E-03  3.285994E-03 -6.566629E-17 -1.574068E-18  8.382170E-17
         9   7 -3.833660E-03 -3.833660E-03  3.285994E-03  2.937703E-17 -5.027435E-17 -1.490471E-17
         9   8 -3.833660E-03 -3.833660E-03  3.285994E-03 -9.504332E-18 -3.083367E-17 -2.580136E-17

 displacements (vx,vy,vz) for set NALL and time  0.8677813E+00

         1  0.000000E+00  0.000000E+00  0.000000E+00
         2 -2.010478E+00  0.000000E+00  0.000000E+00
         3 -1.201148E+01  0.000000E+00  0.000000E+00
         4 -1.402196E+01  0.000000E+00  0.000000E+00
         5 -2.402296E+01  0.000000E+00  0.000000E+00
         6 -2.603344E+01  0.000000E+00  0.000000E+00
         7  0.000000E+00 -2.010478E+00  0.000000E+00
         8 -2.010478E+00 -2.010478E+00  0.000000E+00
         9 -1.201148E+01 -2.010478E+00  0.000000E+00
        10 -1.402196E+01 -2.010478E+00  0.000000E+00
        11 -2.402296E+01 -2.010478E+00  0.000000E+00
        12 -2.603344E+01 -2.010478E+00  0.000000E+00
        13  0.000000E+00 -1.201148E+01  0.000000E+00
        14 -2.010478E+00 -1.201148E+01  0.000000E+00
        15 -1.201148E+01 -1.201148E+01  0.000000E+00
        16 -1.402196E+01 -1.201148E+01  0.000000E+00
        17 -2.402296E+01 -1.201148E+01  0.000000E+00
        18 -2.603344E+01 -1.201148E+01  0.000000E+00
        19  0.000000E+00 -1.402196E+01  0.000000E+00
        20 -2.010478E+00 -1.402196E+01  0.000000E+00
        21 -1.201148E+01 -1.402196E+01  0.000000E+00
        22 -1.402196E+01 -1.402196E+01  0.000000E+00
        23 -2.402296E+01 -1.402196E+01  0.000000E+00
        24 -2.603344E+01 -1.402196E+01  0.000000E+00
        25  0.000000E+00 -2.402296E+01  0.000000E+00
        26 -2.010478E+00 -2.402296E+01  0.000000E+00
        27 -1.201148E+01 -2.402296E+01  0.000000E+00
        28 -1.402196E+01 -2.402296E+01  0.000000E+00
        29 -2.402296E+01 -2.402296E+01  0.000000E+00
        30 -2.603344E+01 -2.402296E+01  0.000000E+00
        31  0.000000E+00 -2.603344E+01  0.000000E+00
        32 -2.010478E+00 -2.603344E+01  0.000000E+00
        33 -1.201148E+01 -2.603344E+01  0.000000E+00
        34 -1.402196E+01 -2.603344E+01  0.000000E+00
        35 -2.402296E+01 -2.603344E+01  0.000000E+00
        36 -2.603344E+01 -2.603344E+01  0.000000E+00
        37  0.000000E+00  0.000000E+00  2.403597E+00
        38 -2.010478E+00  0.000000E+00  2.403597E+00
        39 -1.201148E+01  0.000000E+00  2.403597E+00
        40 -1.402196E+01  0.000000E+00  2.403597E+00
        41 -2.402296E+01  0.000000E+00  2.403597E+00
        42 -2.603344E+01  0.000000E+00  2.403597E+00
        43  0.000000E+00 -2.010478E+00  2.403597E+00
        44 -2.010478E+00 -2.010478E+00  2.403597E+00
        45 -1.201148E+01 -2.010478E+00  2.403597E+00
        46 -1.402196E+01 -2.010478E+00  2.403597E+00
        47 -2.402296E+01 -2.010478E+00  2.403597E+00
        48 -2.603344E+01 -2.010478E+00  2.403597E+00
        49  0.000000E+00 -1.201148E+01  2.403597E+00
        50 -2.010478E+00 -1.201148E+01  2.403597E+00
        51 -1.201148E+01 -1.201148E+01  2.403597E+00
        52 -1.402196E+01 -1.201148E+01  2.403597E+00
        53 -2.402296E+01 -1.201148E+01  2.403597E+00
        54 -2.603344E+01 -1.201148E+01  2.403597E+00
        55  0.000000E+00 -1.402196E+01  2.403597E+00
        56 -2.010478E+00 -1.402196E+01  2.403597E+00
        57 -1.201148E+01 -1.402196E+01  2.403597E+00
        58 -1.402196E+01 -1.402196E+01  2.403597E+00
        59 -2.402296E+01 -1.402196E+01  2.403597E+00
        60 -2.603344E+01 -1.402196E+01  2.403597E+00
        61  0.000000E+00 -2.402296E+01  2.403597E+00
        62 -2.010478E+00 -2.402296E+01  2.403597E+00
        63 -1.201148E+01 -2.402296E+01  2.403597E+00
        64 -1.402196E+01 -2.402296E+01  2.403597E+00
        65 -2.402296E+01 -2.402296E+01  2.403597E+00
        66 -2.603344E+01 -2.402296E+01  2.403597E+00
        67  0.000000E+00 -2.603344E+01  2.403597E+00
        68 -2.010478E+00 -2.603344E+01  2.403597E+00
        69 -1.201148E+01 -2.603344E+01  2.403597E+00
        70 -1.402196E+01 -2.603344E+01  2.403597E+00
        71 -2.402296E+01 -2.603344E+01  2.403597E+00
        72 -2.603344E+01 -2.603344E+01  2.403597E+00

 stresses (elem, integ.pnt.,sxx,syy,szz,sxy,sxz,syz) for set EALL and time  0.8677813E+00

         1   1 -1.199742E+03 -1.199742E+03  4.503407E-10 -4.488292E-12 -4.788544E-13  1.427374E-12
         1   2 -1.199742E+03 -1.199742E+03  4.502257E-10 -1.173762E-11 -4.763225E-12  1.673781E-12
         1   3 -1.199742E+03 -1.199742E+03  4.348156E-10 -9.471003E-12 -2.324967E-13  6.931160E-12
         1   4 -1.199742E+03 -1.199742E+03  4.318256E-10 -1.672033E-11 -2.631920E-12  9.099732E-12
         1   5 -1.199742E+03 -1.199742E+03  4.531007E-10 -2.585530E-12  2.498142E-12 -1.458706E-13
         1   6 -1.199742E+03 -1.199742E+03  4.570107E-10 -7.242910E-12 -1.786229E-12 -1.088090E-12
         1   7 -1.199742E+03 -1.199742E+03  4.416006E-10 -4.965588E-12  1.566804E-12  5.375429E-12
         1   8 -1.199742E+03 -1.199742E+03  4.424056E-10 -9.622967E-12 -8.413757E-13  6.337861E-12
         2   1 -1.199742E+03 -1.199742E+03  4.479257E-10  1.282920E-11 -3.246537E-12  4.944265E-13
         2   2 -1.199742E+03 -1.199742E+03  4.595407E-10  3.737033E-12 -5.978726E-12  3.022794E-12
         2   3 -1.199742E+03 -1.199742E+03  4.298706E-10  9.896931E-12 -1.147177E-11  3.296672E-12
         2   4 -1.199742E+03 -1.199742E+03  4.501107E-10  8.903813E-13 -2.029884E-11  9.408882E-12
         2   5 -1.199742E+03 -1.199742E+03  4.476957E-10  1.275642E-12  3.079037E-12 -9.484389E-13
         2   6 -1.199742E+03 -1.199742E+03  4.672457E-10 -1.571009E-11  4.694461E-13  4.802457E-12
         2   7 -1.199742E+03 -1.199742E+03  4.171056E-10  3.287562E-12 -2.129995E-12  1.853807E-12
         2   8 -1.199742E+03 -1.199742E+03  4.449356E-10 -1.362968E-11 -1.064182E-11  1.118639E-11
         3   1 -1.199742E+03 -1.199742E+03  4.601157E-10  4.558924E-12  3.017892E-12  5.246797E-13
         3   2 -1.199742E+03 -1.199742E+03  4.443606E-10 -1.947709E-12  7.410675E-13  1.262247E-12
         3   3 -1.199742E+03 -1.199742E+03  4.605757E-10 -6.549440E-12  1.075455E-11 -1.515705E-12
         3   4 -1.199742E+03 -1.199742E+03  4.343556E-10 -1.257664E-11  2.417873E-12  5.145919E-12
         3   5 -1.199742E+03 -1.199742E+03  4.527557E-10  1.999933E-11  3.454663E-12  4.023226E-12
         3   6 -1.199742E+03 -1.199742E+03  4.491907E-10  4.246434E-12  1.282923E-12  8.407191E-13
         3   7 -1.199742E+03 -1.199742E+03  4.361956E-10  1.695149E-11  7.777375E-12  1.978463E-12
         3   8 -1.199742E+03 -1.199742E+03  4.222806E-10  1.883499E-12 -1.259867E-12  4.720208E-12
         4   1 -1.199742E+03 -1.199742E+03  4.413706E-10  2.194062E-11 -8.682656E-13  6.627123E-12
         4   2 -1.199742E+03 -1.199742E+03  4.497657E-10  2.219960E-11 -2.124898E-12  3.093517E-12
         4   3 -1.199742E+03 -1.199742E+03  4.190606E-10  2.858424E-11 -8.224894E-13  1.832650E-11
         4   4 -1.199742E+03 -1.199742E+03  4.337806E-10  2.884322E-11 -4.443516E-12  1.344431E-11
         4   5 -1.199742E+03 -1.199742E+03  4.633357E-10  1.446014E-11 -1.965642E-12 -2.186005E-12
         4   6 -1.199742E+03 -1.199742E+03  4.689707E-10  1.150647E-11 -3.233220E-12 -3.402071E-12
         4   7 -1.199742E+03 -1.199742E+03  4.358506E-10  2.028186E-11  5.203859E-13  9.443315E-12
         4   8 -1.199742E+03 -1.199742E+03  4.478107E-10  1.732819E-11 -3.078748E-12  7.299004E-12
         5   1 -1.199742E+03 -1.199742E+03  4.508007E-10 -1.428035E-11  2.764770E-13  9.146281E-12
         5   2 -1.199742E+03 -1.199742E+03  4.359656E-10 -7.465505E-12  1.073366E-12  3.016772E-12
         5   3 -1.199742E+03 -1.199742E+03  4.407956E-10 -2.068424E-11  1.034291E-11  1.548636E-11
         5   4 -1.199742E+03 -1.199742E+03  4.218206E-10 -1.378379E-11  9.992628E-12  9.275867E-12
         5   5 -1.199742E+03 -1.199742E+03  4.655207E-10 -7.670978E-12 -1.435059E-12  1.201309E-12
         5   6 -1.199742E+03 -1.199742E+03  4.510307E-10 -1.301327E-12 -9.534226E-13 -6.732497E-12
         5   7 -1.199742E+03 -1.199742E+03  4.545957E-10 -1.424610E-11  6.796589E-12  7.611446E-12
         5   8 -1.199742E+03 -1.199742E+03  4.358506E-10 -7.876450E-12  6.726533E-12  7.177023E-14
         6   1 -1.199742E+03 -1.199742E+03  4.290656E-10  1.717409E-11 -8.163544E-12 -1.702791E-12
         6   2 -1.199742E+03 -1.199742E+03  4.349306E-10  2.422865E-11 -2.173744E-12 -1.462154E-11
         6   3 -1.199742E+03 -1.199742E+03  4.503407E-10  2.225953E-11 -4.450542E-12 -7.272254E-12
         6   4 -1.199742E+03 -1.199742E+03  4.685107E-10  2.869767E-11 -9.477353E-13 -1.946417E-11
         6   5 -1.199742E+03 -1.199742E+03  4.292956E-10 -1.027363E-12 -8.782938E-12  2.965052E-12
         6   6 -1.199742E+03 -1.199742E+03  4.364256E-10  4.314925E-12 -3.248503E-12 -5.385784E-12
         6   7 -1.199742E+03 -1.199742E+03  4.480407E-10  5.205306E-12 -8.106928E-13 -2.919663E-12
         6   8 -1.199742E+03 -1.199742E+03  4.673607E-10  1.027363E-11  3.532788E-12 -1.042113E-11
         7   1 -1.199742E+03 -1.199742E+03  4.074456E-10 -2.384124E-11  3.609664E-13 -1.751419E-11
         7   2 -1.199742E+03 -1.199742E+03  4.296406E-10 -9.674335E-12  5.245193E-12 -8.505367E-12
         7   3 -1.199742E+03 -1.199742E+03  4.374606E-10 -2.609074E-12 -2.552905E-12 -3.292794E-12
         7   4 -1.199742E+03 -1.199742E+03  4.617257E-10  1.155783E-11 -6.410371E-12 -9.743317E-13
         7   5 -1.199742E+03 -1.199742E+03  4.444756E-10 -1.646349E-11 -3.548243E-12 -1.379908E-11
         7   6 -1.199742E+03 -1.199742E+03  4.537907E-10 -1.424610E-11  1.327227E-12 -4.279773E-12
         7   7 -1.199742E+03 -1.199742E+03  4.560907E-10 -4.135136E-12 -5.686324E-12 -3.483017E-13
         7   8 -1.199742E+03 -1.199742E+03  4.681657E-10 -1.917744E-12 -9.565683E-12  3.356346E-12
         8   1 -1.199742E+03 -1.199742E+03  4.329756E-10  2.876617E-12 -9.248672E-12 -6.614632E-12
         8   2 -1.199742E+03 -1.199742E+03  4.221656E-10  9.485986E-12 -5.150388E-12 -1.218106E-11
         8   3 -1.199742E+03 -1.199742E+03  4.545957E-10 -1.794461E-11  1.972034E-12 -3.796352E-13
         8   4 -1.199742E+03 -1.199742E+03  4.391856E-10 -1.124963E-11 -1.110436E-12 -2.830741E-12
         8   5 -1.199742E+03 -1.199742E+03  4.527557E-10  1.178043E-11 -1.645900E-12 -1.935755E-12
         8   6 -1.199742E+03 -1.199742E+03  4.486157E-10  9.314758E-12  2.452384E-12 -9.570261E-12
         8   7 -1.199742E+03 -1.199742E+03  4.587357E-10 -3.287562E-12  7.612075E-12  3.948961E-12
         8   8 -1.199742E+03 -1.199742E+03  4.499957E-10 -5.684742E-12  4.704746E-12 -1.629003E-14
         9   1 -1.199742E+03 -1.199742E+03  4.407956E-10 -1.671177E-11 -3.489678E-12  2.702106E-12
         9   2 -1.199742E+03 -1.199742E+03  4.687407E-10 -2.023905E-11 -1.195339E-12  1.253242E-11
         9   3 -1.199742E+03 -1.199742E+03  4.305606E-10 -5.479270E-13 -6.521311E-12  1.800847E-13
         9   4 -1.199742E+03 -1.199742E+03  4.526407E-10 -4.280679E-12 -1.967662E-12  2.052382E-12
         9   5 -1.199742E+03 -1.199742E+03  4.407956E-10 -5.479270E-12 -3.528518E-12  4.390733E-13
         9   6 -1.199742E+03 -1.199742E+03  4.516057E-10 -6.438142E-12  9.316821E-15  8.802402E-12
         9   7 -1.199742E+03 -1.199742E+03  4.330906E-10  5.479270E-13 -7.486118E-12 -1.662611E-12
         9   8 -1.199742E+03 -1.199742E+03  4.404506E-10 -8.218904E-13 -2.932469E-12 -9.878137E-13

 strains (elem, integ.pnt.,exx,eyy,ezz,exy,exz,eyz) forset EALL and time  0.8677813E+00

         1   1 -4.012872E-03 -4.012872E-03  3.439605E-03 -2.830538E-17 -2.851360E-18  8.746646E-18
         1   2 -4.012872E-03 -4.012872E-03  3.439605E-03 -7.402321E-17 -2.926701E-17  1.022381E-17
         1   3 -4.012872E-03 -4.012872E-03  3.439605E-03 -5.972880E-17 -1.373891E-18  4.268070E-17
         1   4 -4.012872E-03 -4.012872E-03  3.439605E-03 -1.054466E-16 -1.616773E-17  5.600914E-17
         1   5 -4.012872E-03 -4.012872E-03  3.439605E-03 -1.630562E-17  1.577936E-17 -1.099076E-18
         1   6 -4.012872E-03 -4.012872E-03  3.439605E-03 -4.567734E-17 -1.063630E-17 -7.060597E-18
         1   7 -4.012872E-03 -4.012872E-03  3.439605E-03 -3.131544E-17  9.885729E-18  3.294296E-17
         1   8 -4.012872E-03 -4.012872E-03  3.439605E-03 -6.068716E-17 -4.962107E-18  3.872473E-17
         2   1 -4.012872E-03 -4.012872E-03  3.439605E-03  8.090721E-17 -1.980160E-17  2.998504E-18
         2   2 -4.012872E-03 -4.012872E-03  3.439605E-03  2.356757E-17 -3.664714E-17  1.869849E-17
         2   3 -4.012872E-03 -4.012872E-03  3.439605E-03  6.241490E-17 -7.040405E-17  2.027599E-17
         2   4 -4.012872E-03 -4.012872E-03  3.439605E-03  5.615182E-18 -1.248281E-16  5.807205E-17
         2   5 -4.012872E-03 -4.012872E-03  3.439605E-03  8.044828E-18  1.978527E-17 -6.031274E-18
         2   6 -4.012872E-03 -4.012872E-03  3.439605E-03 -9.907556E-17  3.695618E-18  2.983623E-17
         2   7 -4.012872E-03 -4.012872E-03  3.439605E-03  2.073298E-17 -1.191515E-17  1.124621E-17
         2   8 -4.012872E-03 -4.012872E-03  3.439605E-03 -8.595547E-17 -6.439550E-17  6.919609E-17
         3   1 -4.012872E-03 -4.012872E-03  3.439605E-03  2.875081E-17  1.862056E-17  3.352521E-18
         3   2 -4.012872E-03 -4.012872E-03  3.439605E-03 -1.228321E-17  4.582602E-18  7.767189E-18
         3   3 -4.012872E-03 -4.012872E-03  3.439605E-03 -4.130398E-17  6.618813E-17 -9.227645E-18
         3   4 -4.012872E-03 -4.012872E-03  3.439605E-03 -7.931444E-17  1.478762E-17  3.171310E-17
         3   5 -4.012872E-03 -4.012872E-03  3.439605E-03  1.261256E-16  2.135397E-17  2.524681E-17
         3   6 -4.012872E-03 -4.012872E-03  3.439605E-03  2.678010E-17  7.963919E-18  5.128769E-18
         3   7 -4.012872E-03 -4.012872E-03  3.439605E-03  1.069044E-16  4.750436E-17  1.263965E-17
         3   8 -4.012872E-03 -4.012872E-03  3.439605E-03  1.187827E-17 -8.215525E-18  2.904647E-17
         4   1 -4.012872E-03 -4.012872E-03  3.439605E-03  1.383683E-16 -5.391211E-18  4.055893E-17
         4   2 -4.012872E-03 -4.012872E-03  3.439605E-03  1.400016E-16 -1.313908E-17  1.885532E-17
         4   3 -4.012872E-03 -4.012872E-03  3.439605E-03  1.802662E-16 -5.025230E-18  1.126924E-16
         4   4 -4.012872E-03 -4.012872E-03  3.439605E-03  1.818995E-16 -2.735098E-17  8.267402E-17
         4   5 -4.012872E-03 -4.012872E-03  3.439605E-03  9.119271E-17 -1.225864E-17 -1.460210E-17
         4   6 -4.012872E-03 -4.012872E-03  3.439605E-03  7.256543E-17 -2.007400E-17 -2.178904E-17
         4   7 -4.012872E-03 -4.012872E-03  3.439605E-03  1.279074E-16  3.379193E-18  5.709945E-17
         4   8 -4.012872E-03 -4.012872E-03  3.439605E-03  1.092801E-16 -1.881157E-17  4.418934E-17
         5   1 -4.012872E-03 -4.012872E-03  3.439605E-03 -9.005888E-17  1.642639E-18  5.612644E-17
         5   2 -4.012872E-03 -4.012872E-03  3.439605E-03 -4.708114E-17  6.555923E-18  1.827525E-17
         5   3 -4.012872E-03 -4.012872E-03  3.439605E-03 -1.304450E-16  6.365091E-17  9.521675E-17
         5   4 -4.012872E-03 -4.012872E-03  3.439605E-03 -8.692733E-17  6.149122E-17  5.686603E-17
         5   5 -4.012872E-03 -4.012872E-03  3.439605E-03 -4.837695E-17 -9.078272E-18  6.411503E-18
         5   6 -4.012872E-03 -4.012872E-03  3.439605E-03 -8.206804E-18 -6.108704E-18 -4.272247E-17
         5   7 -4.012872E-03 -4.012872E-03  3.439605E-03 -8.984291E-17  4.145724E-17  4.593374E-17
         5   8 -4.012872E-03 -4.012872E-03  3.439605E-03 -4.967276E-17  4.102530E-17 -7.709826E-19
         6   1 -4.012872E-03 -4.012872E-03  3.439605E-03  1.083082E-16 -5.036241E-17 -1.034168E-17
         6   2 -4.012872E-03 -4.012872E-03  3.439605E-03  1.527977E-16 -1.343180E-17 -8.983125E-17
         6   3 -4.012872E-03 -4.012872E-03  3.439605E-03  1.403795E-16 -2.730733E-17 -4.468067E-17
         6   4 -4.012872E-03 -4.012872E-03  3.439605E-03  1.809816E-16 -5.710479E-18 -1.196889E-16
         6   5 -4.012872E-03 -4.012872E-03  3.439605E-03 -6.479056E-18 -5.426468E-17  1.886749E-17
         6   6 -4.012872E-03 -4.012872E-03  3.439605E-03  2.721203E-17 -2.014165E-17 -3.201154E-17
         6   7 -4.012872E-03 -4.012872E-03  3.439605E-03  3.282722E-17 -4.502371E-18 -1.741522E-17
         6   8 -4.012872E-03 -4.012872E-03  3.439605E-03  6.479056E-17  2.227773E-17 -6.305661E-17
         7   1 -4.012872E-03 -4.012872E-03  3.439605E-03 -1.503546E-16  2.093309E-18 -1.078749E-16
         7   2 -4.012872E-03 -4.012872E-03  3.439605E-03 -6.101111E-17  3.220742E-17 -5.230367E-17
         7   3 -4.012872E-03 -4.012872E-03  3.439605E-03 -1.645410E-17 -1.584564E-17 -2.019169E-17
         7   4 -4.012872E-03 -4.012872E-03  3.439605E-03  7.288938E-17 -3.962917E-17 -5.870434E-18
         7   5 -4.012872E-03 -4.012872E-03  3.439605E-03 -1.038269E-16 -2.237140E-17 -8.467034E-17
         7   6 -4.012872E-03 -4.012872E-03  3.439605E-03 -8.984291E-17  7.688715E-18 -2.587517E-17
         7   7 -4.012872E-03 -4.012872E-03  3.439605E-03 -2.607820E-17 -3.545569E-17 -1.738425E-18
         7   8 -4.012872E-03 -4.012872E-03  3.439605E-03 -1.209424E-17 -5.937420E-17  2.120597E-17
         8   1 -4.012872E-03 -4.012872E-03  3.439605E-03  1.814136E-17 -5.676398E-17 -4.063652E-17
         8   2 -4.012872E-03 -4.012872E-03  3.439605E-03  5.982328E-17 -3.149566E-17 -7.502144E-17
         8   3 -4.012872E-03 -4.012872E-03  3.439605E-03 -1.131675E-16  1.235441E-17 -2.194120E-18
         8   4 -4.012872E-03 -4.012872E-03  3.439605E-03 -7.094566E-17 -6.650816E-18 -1.737144E-17
         8   5 -4.012872E-03 -4.012872E-03  3.439605E-03  7.429317E-17 -9.177629E-18 -1.138750E-17
         8   6 -4.012872E-03 -4.012872E-03  3.439605E-03  5.874344E-17  1.609069E-17 -5.869543E-17
         8   7 -4.012872E-03 -4.012872E-03  3.439605E-03 -2.073298E-17  4.766405E-17  2.489521E-17
         8   8 -4.012872E-03 -4.012872E-03  3.439605E-03 -3.585078E-17  2.973866E-17  2.095777E-19
         9   1 -4.012872E-03 -4.012872E-03  3.439605E-03 -1.053926E-16 -2.148873E-17  1.659886E-17
         9   2 -4.012872E-03 -4.012872E-03  3.439605E-03 -1.276374E-16 -7.342789E-18  7.714732E-17
         9   3 -4.012872E-03 -4.012872E-03  3.439605E-03 -3.455496E-18 -4.024071E-17  1.049130E-18
         9   4 -4.012872E-03 -4.012872E-03  3.439605E-03 -2.699607E-17 -1.216480E-17  1.253274E-17
         9   5 -4.012872E-03 -4.012872E-03  3.439605E-03 -3.455496E-17 -2.165392E-17  2.475236E-18
         9   6 -4.012872E-03 -4.012872E-03  3.439605E-03 -4.060208E-17  1.589032E-19  5.381861E-17
         9   7 -4.012872E-03 -4.012872E-03  3.439605E-03  3.455496E-18 -4.627869E-17 -1.048288E-17
         9   8 -4.012872E-03 -4.012872E-03  3.439605E-03 -5.183245E-18 -1.820278E-17 -6.545406E-18

 displacements (vx,vy,vz) for set NALL and time  0.8767813E+00

         1  0.000000E+00  0.000000E+00  0.000000E+00
         2 -2.100440E+00  0.000000E+00  0.000000E+00
         3 -1.210150E+01  0.000000E+00  0.000000E+00
         4 -1.420194E+01  0.000000E+00  0.000000E+00
         5 -2.420300E+01  0.000000E+00  0.000000E+00
         6 -2.630344E+01  0.000000E+00  0.000000E+00
         7  0.000000E+00 -2.100440E+00  0.000000E+00
         8 -2.100440E+00 -2.100440E+00  0.000000E+00
         9 -1.210150E+01 -2.100440E+00  0.000000E+00
        10 -1.420194E+01 -2.100440E+00  0.000000E+00
        11 -2.420300E+01 -2.100440E+00  0.000000E+00
        12 -2.630344E+01 -2.100440E+00  0.000000E+00
        13  0.000000E+00 -1.210150E+01  0.000000E+00
        14 -2.100440E+00 -1.210150E+01  0.000000E+00
        15 -1.210150E+01 -1.210150E+01  0.000000E+00
        16 -1.420194E+01 -1.210150E+01  0.000000E+00
        17 -2.420300E+01 -1.210150E+01  0.000000E+00
        18 -2.630344E+01 -1.210150E+01  0.000000E+00
        19  0.000000E+00 -1.420194E+01  0.000000E+00
        20 -2.100440E+00 -1.420194E+01  0.000000E+00
        21 -1.210150E+01 -1.420194E+01  0.000000E+00
        22 -1.420194E+01 -1.420194E+01  0.000000E+00
        23 -2.420300E+01 -1.420194E+01  0.000000E+00
        24 -2.630344E+01 -1.420194E+01  0.000000E+00
        25  0.000000E+00 -2.420300E+01  0.000000E+00
        26 -2.100440E+00 -2.420300E+01  0.000000E+00
        27 -1.210150E+01 -2.420300E+01  0.000000E+00
        28 -1.420194E+01 -2.420300E+01  0.000000E+00
        29 -2.420300E+01 -2.420300E+01  0.000000E+00
        30 -2.630344E+01 -2.420300E+01  0.000000E+00
        31  0.000000E+00 -2.630344E+01  0.000000E+00
        32 -2.100440E+00 -2.630344E+01  0.000000E+00
        33 -1.210150E+01 -2.630344E+01  0.000000E+00
        34 -1.420194E+01 -2.630344E+01  0.000000E+00
        35 -2.420300E+01 -2.630344E+01  0.000000E+00
        36 -2.630344E+01 -2.630344E+01  0.000000E+00
        37  0.000000E+00  0.000000E+00  2.510731E+00
        38 -2.100440E+00  0.000000E+00  2.510731E+00
        39 -1.210150E+01  0.000000E+00  2.510731E+00
        40 -1.420194E+01  0.000000E+00  2.510731E+00
        41 -2.420300E+01  0.000000E+00  2.510731E+00
        42 -2.630344E+01  0.000000E+00  2.510731E+00
        43  0.000000E+00 -2.100440E+00  2.510731E+00
        44 -2.100440E+00 -2.100440E+00  2.510731E+00
        45 -1.210150E+01 -2.100440E+00  2.510731E+00
        46 -1.420194E+01 -2.100440E+00  2.510731E+00
        47 -2.420300E+01 -2.100440E+00  2.510731E+00
        48 -2.630344E+01 -2.100440E+00  2.510731E+00
        49  0.000000E+00 -1.210150E+01  2.510731E+00
        50 -2.100440E+00 -1.210150E+01  2.510731E+00
        51 -1.210150E+01 -1.210150E+01  2.510731E+00
        52 -1.420194E+01 -1.210150E+01  2.510731E+00
        53 -2.420300E+01 -1.210150E+01  2.510731E+00
        54 -2.630344E+01 -1.210150E+01  2.510731E+00
        55  0.000000E+00 -1.420194E+01  2.510731E+00
        56 -2.100440E+00 -1.420194E+01  2.510731E+00
        57 -1.210150E+01 -1.420194E+01  2.510731E+00
        58 -1.420194E+01 -1.420194E+01  2.510731E+00
        59 -2.420300E+01 -1.420194E+01  2.510731E+00
        60 -2.630344E+01 -1.420194E+01  2.510731E+00
        61  0.000000E+00 -2.420300E+01  2.510731E+00
        62 -2.100440E+00 -2.420300E+01  2.510731E+00
        63 -1.210150E+01 -2.420300E+01  2.510731E+00
        64 -1.420194E+01 -2.420300E+01  2.510731E+00
        65 -2.420300E+01 -2.420300E+01  2.510731E+00
        66 -2.630344E+01 -2.420300E+01  2.510731E+00
        67  0.000000E+00 -2.630344E+01  2.510731E+00
        68 -2.100440E+00 -2.630344E+01  2.510731E+00
        69 -1.210150E+01 -2.630344E+01  2.510731E+00
        70 -1.420194E+01 -2.630344E+01  2.510731E+00
        71 -2.420300E+01 -2.630344E+01  2.510731E+00
        72 -2.630344E+01 -2.630344E+01  2.510731E+00

 stresses (elem, integ.pnt.,sxx,syy,szz,sxy,sxz,syz) for set EALL and time  0.8767813E+00

         1   1 -1.253122E+03 -1.253122E+03  3.558783E-10 -5.035360E-12 -5.537374E-13  1.095239E-12
         1   2 -1.253122E+03 -1.253122E+03  3.556482E-10 -1.357943E-11 -5.063601E-12  1.415605E-12
         1   3 -1.253122E+03 -1.253122E+03  3.423013E-10 -1.026315E-11 -8.221080E-14  4.317821E-12
         1   4 -1.253122E+03 -1.253122E+03  3.370086E-10 -1.880723E-11 -1.492091E-12  7.298131E-12
         1   5 -1.253122E+03 -1.253122E+03  3.533470E-10 -2.138157E-12  2.428784E-12  8.953903E-13
         1   6 -1.253122E+03 -1.253122E+03  3.586398E-10 -6.440129E-12 -2.081080E-12 -5.893969E-13
         1   7 -1.253122E+03 -1.253122E+03  3.458682E-10 -3.669077E-12  1.082124E-12  4.082945E-12
         1   8 -1.253122E+03 -1.253122E+03  3.466736E-10 -7.971049E-12 -3.102419E-13  5.293130E-12
         2   1 -1.253122E+03 -1.253122E+03  3.551880E-10  1.680164E-11  7.649051E-13 -1.961111E-13
         2   2 -1.253122E+03 -1.253122E+03  3.577193E-10  9.309535E-12 -1.538191E-12  3.100283E-12
         2   3 -1.253122E+03 -1.253122E+03  3.385044E-10  1.259802E-11 -1.053886E-11  1.143713E-12
         2   4 -1.253122E+03 -1.253122E+03  3.518513E-10  5.105919E-12 -1.782469E-11  9.317800E-12
         2   5 -1.253122E+03 -1.253122E+03  3.528868E-10  1.334210E-12  4.305699E-12 -2.055571E-12
         2   6 -1.253122E+03 -1.253122E+03  3.657734E-10 -1.303420E-11  2.125202E-12  5.289945E-12
         2   7 -1.253122E+03 -1.253122E+03  3.260780E-10  3.899998E-12 -2.847945E-12 -6.982332E-13
         2   8 -1.253122E+03 -1.253122E+03  3.495501E-10 -1.040000E-11 -1.037898E-11  1.149224E-11
         3   1 -1.253122E+03 -1.253122E+03  3.570289E-10 -5.430919E-13 -6.408252E-13  6.300207E-13
         3   2 -1.253122E+03 -1.253122E+03  3.487447E-10 -2.048354E-12  2.470814E-14  1.936057E-13
         3   3 -1.253122E+03 -1.253122E+03  3.635873E-10 -6.525655E-12  1.039438E-11 -9.024574E-13
         3   4 -1.253122E+03 -1.253122E+03  3.464435E-10 -7.688812E-12  2.267873E-12  1.078064E-12
         3   5 -1.253122E+03 -1.253122E+03  3.543826E-10  1.652368E-11 -2.335264E-13  3.818840E-12
         3   6 -1.253122E+03 -1.253122E+03  3.515061E-10  3.523683E-12  3.269227E-13 -1.018225E-13
         3   7 -1.253122E+03 -1.253122E+03  3.425315E-10  1.385526E-11  7.387968E-12  2.312633E-12
         3   8 -1.253122E+03 -1.253122E+03  3.305653E-10  9.921048E-13 -8.786561E-13  7.565011E-13
         4   1 -1.253122E+03 -1.253122E+03  3.489748E-10  2.054555E-11 -7.771469E-13  8.987581E-12
         4   2 -1.253122E+03 -1.253122E+03  3.536922E-10  2.411841E-11 -1.361678E-12  4.493593E-12
         4   3 -1.253122E+03 -1.253122E+03  3.282641E-10  2.629292E-11 -7.217449E-13  1.756946E-11
         4   4 -1.253122E+03 -1.253122E+03  3.402303E-10  2.986578E-11 -3.961841E-12  1.294412E-11
         4   5 -1.253122E+03 -1.253122E+03  3.645078E-10  1.159736E-11 -2.312922E-12 -1.257099E-12
         4   6 -1.253122E+03 -1.253122E+03  3.698005E-10  1.152894E-11 -2.873371E-12 -2.819951E-12
         4   7 -1.253122E+03 -1.253122E+03  3.381592E-10  1.748157E-11  6.163711E-13  6.939470E-12
         4   8 -1.253122E+03 -1.253122E+03  3.508157E-10  1.741315E-11 -2.641239E-12  5.324075E-12
         5   1 -1.253122E+03 -1.253122E+03  3.591000E-10 -1.770394E-11  2.240177E-12  9.294951E-12
         5   2 -1.253122E+03 -1.253122E+03  3.391947E-10 -1.033157E-11  2.643000E-12  3.943609E-12
         5   3 -1.253122E+03 -1.253122E+03  3.511609E-10 -2.558946E-11  1.208660E-11  1.269267E-11
         5   4 -1.253122E+03 -1.253122E+03  3.221660E-10 -1.814868E-11  1.404818E-11  1.100835E-11
         5   5 -1.253122E+03 -1.253122E+03  3.656584E-10 -8.621049E-12 -6.744587E-13  1.830501E-12
         5   6 -1.253122E+03 -1.253122E+03  3.543826E-10  1.299999E-12 -7.970569E-13 -7.317557E-12
         5   7 -1.253122E+03 -1.253122E+03  3.614012E-10 -1.094736E-11  5.431868E-12  5.158167E-12
         5   8 -1.253122E+03 -1.253122E+03  3.408056E-10 -9.578943E-13  7.253328E-12  3.377289E-15
         6   1 -1.253122E+03 -1.253122E+03  3.265382E-10  1.749868E-11 -9.165945E-12 -1.822284E-12
         6   2 -1.253122E+03 -1.253122E+03  3.447176E-10  2.550394E-11 -3.754108E-12 -1.388452E-11
         6   3 -1.253122E+03 -1.253122E+03  3.464435E-10  3.195262E-11 -6.301809E-12 -4.239221E-12
         6   4 -1.253122E+03 -1.253122E+03  3.817667E-10  3.964998E-11 -6.973174E-13 -2.508474E-11
         6   5 -1.253122E+03 -1.253122E+03  3.334418E-10 -2.805262E-12 -1.082338E-11  1.575412E-12
         6   6 -1.253122E+03 -1.253122E+03  3.328665E-10  5.542103E-12 -4.746014E-12 -3.513641E-12
         6   7 -1.253122E+03 -1.253122E+03  3.548428E-10 -5.473682E-13 -1.874735E-12 -8.765527E-13
         6   8 -1.253122E+03 -1.253122E+03  3.710662E-10  7.526312E-12  4.850655E-12 -1.531824E-11
         7   1 -1.253122E+03 -1.253122E+03  3.162979E-10 -2.302367E-11  2.082643E-13 -1.267691E-11
         7   2 -1.253122E+03 -1.253122E+03  3.362032E-10 -9.998022E-12  5.490935E-12 -6.142681E-12
         7   3 -1.253122E+03 -1.253122E+03  3.410357E-10 -2.634209E-12 -1.817577E-12 -2.939105E-12
         7   4 -1.253122E+03 -1.253122E+03  3.617464E-10  1.039144E-11 -2.351756E-12 -1.098639E-12
         7   5 -1.253122E+03 -1.253122E+03  3.483995E-10 -1.677170E-11 -4.492486E-12 -1.115904E-11
         7   6 -1.253122E+03 -1.253122E+03  3.585247E-10 -1.173421E-11  8.120776E-13 -3.561211E-12
         7   7 -1.253122E+03 -1.253122E+03  3.611711E-10 -3.096051E-12 -6.249000E-12 -5.105070E-13
         7   8 -1.253122E+03 -1.253122E+03  3.716415E-10  1.949999E-12 -6.818207E-12  1.377747E-12
         8   1 -1.253122E+03 -1.253122E+03  3.382743E-10  7.389470E-12 -9.214301E-12 -2.131557E-12
         8   2 -1.253122E+03 -1.253122E+03  3.257328E-10  1.835394E-11 -3.574781E-12 -1.117369E-11
         8   3 -1.253122E+03 -1.253122E+03  3.579494E-10 -1.149473E-11 -5.430888E-13  4.605204E-13
         8   4 -1.253122E+03 -1.253122E+03  3.462134E-10 -5.131577E-13 -2.014268E-12 -2.631182E-12
         8   5 -1.253122E+03 -1.253122E+03  3.535772E-10  6.568418E-12 -3.190607E-12 -8.189644E-13
         8   6 -1.253122E+03 -1.253122E+03  3.536922E-10  8.142102E-12  2.659081E-12 -9.867070E-12
         8   7 -1.253122E+03 -1.253122E+03  3.593301E-10 -3.284209E-12  6.098618E-12  1.422832E-12
         8   8 -1.253122E+03 -1.253122E+03  3.597904E-10 -1.642105E-12  4.242131E-12 -7.771499E-13
         9   1 -1.253122E+03 -1.253122E+03  3.385044E-10 -3.051578E-11 -5.072832E-12  1.629977E-14
         9   2 -1.253122E+03 -1.253122E+03  3.796956E-10 -3.013946E-11 -8.519494E-13  2.027476E-11
         9   3 -1.253122E+03 -1.253122E+03  3.319460E-10 -8.621049E-12 -8.524035E-12 -1.238125E-13
         9   4 -1.253122E+03 -1.253122E+03  3.615162E-10 -8.586838E-12 -2.148926E-12  4.205561E-12
         9   5 -1.253122E+03 -1.253122E+03  3.455230E-10 -4.652630E-12 -2.880474E-12 -1.898547E-12
         9   6 -1.253122E+03 -1.253122E+03  3.527717E-10 -2.463157E-12  2.233624E-12  1.346348E-11
         9   7 -1.253122E+03 -1.253122E+03  3.423013E-10 -4.105261E-12 -1.034874E-11 -2.458996E-12
         9   8 -1.253122E+03 -1.253122E+03  3.389646E-10 -1.642105E-12 -4.534079E-12 -2.719624E-12

 strains (elem, integ.pnt.,exx,eyy,ezz,exy,exz,eyz) forset EALL and time  0.8767813E+00

         1   1 -4.192057E-03 -4.192057E-03  3.593191E-03 -3.178213E-17 -3.306893E-18  6.743998E-18
         1   2 -4.192057E-03 -4.192057E-03  3.593191E-03 -8.571052E-17 -3.110782E-17  8.655595E-18
         1   3 -4.192057E-03 -4.192057E-03  3.593191E-03 -6.477885E-17 -4.647330E-19  2.660951E-17
         1   4 -4.192057E-03 -4.192057E-03  3.593191E-03 -1.187073E-16 -9.155896E-18  4.491826E-17
         1   5 -4.192057E-03 -4.192057E-03  3.593191E-03 -1.349559E-17  1.536747E-17  5.492693E-18
         1   6 -4.192057E-03 -4.192057E-03  3.593191E-03 -4.064873E-17 -1.243346E-17 -3.898254E-18
         1   7 -4.192057E-03 -4.192057E-03  3.593191E-03 -2.315844E-17  6.825476E-18  2.514228E-17
         1   8 -4.192057E-03 -4.192057E-03  3.593191E-03 -5.031158E-17 -1.757722E-18  3.236441E-17
         2   1 -4.192057E-03 -4.192057E-03  3.593191E-03  1.060484E-16  4.840133E-18 -1.274524E-18
         2   2 -4.192057E-03 -4.192057E-03  3.593191E-03  5.875982E-17 -9.357233E-18  1.918919E-17
         2   3 -4.192057E-03 -4.192057E-03  3.593191E-03  7.951604E-17 -6.469816E-17  6.984780E-18
         2   4 -4.192057E-03 -4.192057E-03  3.593191E-03  3.222748E-17 -1.096115E-16  5.751647E-17
         2   5 -4.192057E-03 -4.192057E-03  3.593191E-03  8.421251E-18  2.700999E-17 -1.291710E-17
         2   6 -4.192057E-03 -4.192057E-03  3.593191E-03 -8.226914E-17  1.356837E-17  3.289903E-17
         2   7 -4.192057E-03 -4.192057E-03  3.593191E-03  2.461596E-17 -1.655690E-17 -4.549828E-18
         2   8 -4.192057E-03 -4.192057E-03  3.593191E-03 -6.564257E-17 -6.298174E-17  7.113121E-17
         3   1 -4.192057E-03 -4.192057E-03  3.593191E-03 -3.427881E-18 -3.931004E-18  3.998129E-18
         3   2 -4.192057E-03 -4.192057E-03  3.593191E-03 -1.292878E-17  1.716570E-19  1.181702E-18
         3   3 -4.192057E-03 -4.192057E-03  3.593191E-03 -4.118855E-17  6.396991E-17 -5.448788E-18
         3   4 -4.192057E-03 -4.192057E-03  3.593191E-03 -4.853016E-17  1.387426E-17  6.633922E-18
         3   5 -4.192057E-03 -4.192057E-03  3.593191E-03  1.042940E-16 -1.367235E-18  2.396502E-17
         3   6 -4.192057E-03 -4.192057E-03  3.593191E-03  2.224074E-17  2.087637E-18 -6.680526E-19
         3   7 -4.192057E-03 -4.192057E-03  3.593191E-03  8.745145E-17  4.514593E-17  1.468005E-17
         3   8 -4.192057E-03 -4.192057E-03  3.593191E-03  6.261956E-18 -5.813431E-18  4.621376E-18
         4   1 -4.192057E-03 -4.192057E-03  3.593191E-03  1.296792E-16 -4.845368E-18  5.504286E-17
         4   2 -4.192057E-03 -4.192057E-03  3.593191E-03  1.522303E-16 -8.448692E-18  2.744137E-17
         4   3 -4.192057E-03 -4.192057E-03  3.593191E-03  1.659553E-16 -4.403758E-18  1.079456E-16
         4   4 -4.192057E-03 -4.192057E-03  3.593191E-03  1.885065E-16 -2.437724E-17  7.953436E-17
         4   5 -4.192057E-03 -4.192057E-03  3.593191E-03  7.320011E-17 -1.446148E-17 -9.098410E-18
         4   6 -4.192057E-03 -4.192057E-03  3.593191E-03  7.276825E-17 -1.791635E-17 -1.835662E-17
         4   7 -4.192057E-03 -4.192057E-03  3.593191E-03  1.103400E-16  3.974542E-18  4.142910E-17
         4   8 -4.192057E-03 -4.192057E-03  3.593191E-03  1.099081E-16 -1.610690E-17  3.184700E-17
         5   1 -4.192057E-03 -4.192057E-03  3.593191E-03 -1.117435E-16  1.369407E-17  5.703520E-17
         5   2 -4.192057E-03 -4.192057E-03  3.593191E-03 -6.521071E-17  1.617726E-17  2.392148E-17
         5   3 -4.192057E-03 -4.192057E-03  3.593191E-03 -1.615153E-16  7.426698E-17  7.798036E-17
         5   4 -4.192057E-03 -4.192057E-03  3.593191E-03 -1.145506E-16  8.635903E-17  6.747166E-17
         5   5 -4.192057E-03 -4.192057E-03  3.593191E-03 -5.441424E-17 -4.589145E-18  1.030507E-17
         5   6 -4.192057E-03 -4.192057E-03  3.593191E-03  8.205322E-18 -5.344899E-18 -4.655886E-17
         5   7 -4.192057E-03 -4.192057E-03  3.593191E-03 -6.909744E-17  3.258634E-17  3.081838E-17
         5   8 -4.192057E-03 -4.192057E-03  3.593191E-03 -6.046026E-18  4.381467E-17 -1.430012E-18
         6   1 -4.192057E-03 -4.192057E-03  3.593191E-03  1.104479E-16 -5.656313E-17 -1.111483E-17
         6   2 -4.192057E-03 -4.192057E-03  3.593191E-03  1.609755E-16 -2.320202E-17 -8.523515E-17
         6   3 -4.192057E-03 -4.192057E-03  3.593191E-03  2.016782E-16 -3.867069E-17 -2.601396E-17
         6   4 -4.192057E-03 -4.192057E-03  3.593191E-03  2.502623E-16 -4.121970E-18 -1.542786E-16
         6   5 -4.192057E-03 -4.192057E-03  3.593191E-03 -1.770622E-17 -6.694079E-17  1.015566E-17
         6   6 -4.192057E-03 -4.192057E-03  3.593191E-03  3.498058E-17 -2.947702E-17 -2.033339E-17
         6   7 -4.192057E-03 -4.192057E-03  3.593191E-03 -3.454872E-18 -1.089735E-17 -4.959403E-18
         6   8 -4.192057E-03 -4.192057E-03  3.593191E-03  4.750449E-17  3.056111E-17 -9.310079E-17
         7   1 -4.192057E-03 -4.192057E-03  3.593191E-03 -1.453206E-16  1.117730E-18 -7.807831E-17
         7   2 -4.192057E-03 -4.192057E-03  3.593191E-03 -6.310540E-17  3.368260E-17 -3.778963E-17
         7   3 -4.192057E-03 -4.192057E-03  3.593191E-03 -1.662657E-17 -1.136084E-17 -1.804990E-17
         7   4 -4.192057E-03 -4.192057E-03  3.593191E-03  6.558859E-17 -1.465377E-17 -6.695779E-18
         7   5 -4.192057E-03 -4.192057E-03  3.593191E-03 -1.058594E-16 -2.831534E-17 -6.854062E-17
         7   6 -4.192057E-03 -4.192057E-03  3.593191E-03 -7.406382E-17  4.384484E-18 -2.166365E-17
         7   7 -4.192057E-03 -4.192057E-03  3.593191E-03 -1.954162E-17 -3.910716E-17 -2.898051E-18
         7   8 -4.192057E-03 -4.192057E-03  3.593191E-03  1.230798E-17 -4.261601E-17  8.782407E-18
         8   1 -4.192057E-03 -4.192057E-03  3.593191E-03  4.664077E-17 -5.658787E-17 -1.309534E-17
         8   2 -4.192057E-03 -4.192057E-03  3.593191E-03  1.158462E-16 -2.182322E-17 -6.882898E-17
         8   3 -4.192057E-03 -4.192057E-03  3.593191E-03 -7.255232E-17 -3.129179E-18  2.883441E-18
         8   4 -4.192057E-03 -4.192057E-03  3.593191E-03 -3.238943E-18 -1.219822E-17 -1.616938E-17
         8   5 -4.192057E-03 -4.192057E-03  3.593191E-03  4.145847E-17 -1.887192E-17 -4.883634E-18
         8   6 -4.192057E-03 -4.192057E-03  3.593191E-03  5.139122E-17  1.718831E-17 -6.063434E-17
         8   7 -4.192057E-03 -4.192057E-03  3.593191E-03 -2.072923E-17  3.841563E-17  8.935855E-18
         8   8 -4.192057E-03 -4.192057E-03  3.593191E-03 -1.036462E-17  2.697137E-17 -4.601479E-18
         9   1 -4.192057E-03 -4.192057E-03  3.593191E-03 -1.926091E-16 -3.118596E-17  7.121645E-21
         9   2 -4.192057E-03 -4.192057E-03  3.593191E-03 -1.902339E-16 -5.166449E-18  1.247384E-16
         9   3 -4.192057E-03 -4.192057E-03  3.593191E-03 -5.441424E-17 -5.261177E-17 -8.565964E-19
         9   4 -4.192057E-03 -4.192057E-03  3.593191E-03 -5.419831E-17 -1.331259E-17  2.568115E-17
         9   5 -4.192057E-03 -4.192057E-03  3.593191E-03 -2.936641E-17 -1.743868E-17 -1.205006E-17
         9   6 -4.192057E-03 -4.192057E-03  3.593191E-03 -1.554692E-17  1.408703E-17  8.207931E-17
         9   7 -4.192057E-03 -4.192057E-03  3.593191E-03 -2.591154E-17 -6.403672E-17 -1.550493E-17
         9   8 -4.192057E-03 -4.192057E-03  3.593191E-03 -1.036462E-17 -2.819242E-17 -1.767928E-17

 displacements (vx,vy,vz) for set NALL and time  0.8857813E+00

         1  0.000000E+00  0.000000E+00  0.000000E+00
         2 -2.190405E+00  0.000000E+00  0.000000E+00
         3 -1.219152E+01  0.000000E+00  0.000000E+00
         4 -1.438192E+01  0.000000E+00  0.000000E+00
         5 -2.438303E+01  0.000000E+00  0.000000E+00
         6 -2.657344E+01  0.000000E+00  0.000000E+00
         7  0.000000E+00 -2.190405E+00  0.000000E+00
         8 -2.190405E+00 -2.190405E+00  0.000000E+00
         9 -1.219152E+01 -2.190405E+00  0.000000E+00
        10 -1.438192E+01 -2.190405E+00  0.000000E+00
        11 -2.438303E+01 -2.190405E+00  0.000000E+00
        12 -2.657344E+01 -2.190405E+00  0.000000E+00
        13  0.000000E+00 -1.219152E+01  0.000000E+00
        14 -2.190405E+00 -1.219152E+01  0.000000E+00
        15 -1.219152E+01 -1.219152E+01  0.000000E+00
        16 -1.438192E+01 -1.219152E+01  0.000000E+00
        17 -2.438303E+01 -1.219152E+01  0.000000E+00
        18 -2.657344E+01 -1.219152E+01  0.000000E+00
        19  0.000000E+00 -1.438192E+01  0.000000E+00
        20 -2.190405E+00 -1.438192E+01  0.000000E+00
        21 -1.219152E+01 -1.438192E+01  0.000000E+00
        22 -1.438192E+01 -1.438192E+01  0.000000E+00
        23 -2.438303E+01 -1.438192E+01  0.000000E+00
        24 -2.657344E+01 -1.438192E+01  0.000000E+00
        25  0.000000E+00 -2.438303E+01  0.000000E+00
        26 -2.190405E+00 -2.438303E+01  0.000000E+00
        27 -1.219152E+01 -2.438303E+01  0.000000E+00
        28 -1.438192E+01 -2.438303E+01  0.000000E+00
        29 -2.438303E+01 -2.438303E+01  0.000000E+00
        30 -2.657344E+01 -2.438303E+01  0.000000E+00
        31  0.000000E+00 -2.657344E+01  0.000000E+00
        32 -2.190405E+00 -2.657344E+01  0.000000E+00
        33 -1.219152E+01 -2.657344E+01  0.000000E+00
        34 -1.438192E+01 -2.657344E+01  0.000000E+00
        35 -2.438303E+01 -2.657344E+01  0.000000E+00
        36 -2.657344E+01 -2.657344E+01  0.000000E+00
        37  0.000000E+00  0.000000E+00  2.617833E+00
        38 -2.190405E+00  0.000000E+00  2.617833E+00
        39 -1.219152E+01  0.000000E+00  2.617833E+00
        40 -1.438192E+01  0.000000E+00  2.617833E+00
        41 -2.438303E+01  0.000000E+00  2.617833E+00
        42 -2.657344E+01  0.000000E+00  2.617833E+00
        43  0.000000E+00 -2.190405E+00  2.617833E+00
        44 -2.190405E+00 -2.190405E+00  2.617833E+00
        45 -1.219152E+01 -2.190405E+00  2.617833E+00
        46 -1.438192E+01 -2.190405E+00  2.617833E+00
        47 -2.438303E+01 -2.190405E+00  2.617833E+00
        48 -2.657344E+01 -2.190405E+00  2.617833E+00
        49  0.000000E+00 -1.219152E+01  2.617833E+00
        50 -2.190405E+00 -1.219152E+01  2.617833E+00
        51 -1.219152E+01 -1.219152E+01  2.617833E+00
        52 -1.438192E+01 -1.219152E+01  2.617833E+00
        53 -2.438303E+01 -1.219152E+01  2.617833E+00
        54 -2.657344E+01 -1.219152E+01  2.617833E+00
        55  0.000000E+00 -1.438192E+01  2.617833E+00
        56 -2.190405E+00 -1.438192E+01  2.617833E+00
        57 -1.219152E+01 -1.438192E+01  2.617833E+00
        58 -1.438192E+01 -1.438192E+01  2.617833E+00
        59 -2.438303E+01 -1.438192E+01  2.617833E+00
        60 -2.657344E+01 -1.438192E+01  2.617833E+00
        61  0.000000E+00 -2.438303E+01  2.617833E+00
        62 -2.190405E+00 -2.438303E+01  2.617833E+00
        63 -1.219152E+01 -2.438303E+01  2.617833E+00
        64 -1.438192E+01 -2.438303E+01  2.617833E+00
        65 -2.438303E+01 -2.438303E+01  2.617833E+00
        66 -2.657344E+01 -2.438303E+01  2.617833E+00
        67  0.000000E+00 -2.657344E+01  2.617833E+00
        68 -2.190405E+00 -2.657344E+01  2.617833E+00
        69 -1.219152E+01 -2.657344E+01  2.617833E+00
        70 -1.438192E+01 -2.657344E+01  2.617833E+00
        71 -2.438303E+01 -2.657344E+01  2.617833E+00
        72 -2.657344E+01 -2.657344E+01  2.617833E+00

 stresses (elem, integ.pnt.,sxx,syy,szz,sxy,sxz,syz) for set EALL and time  0.8857813E+00

         1   1 -1.306478E+03 -1.306478E+03  2.256321E-10 -3.977185E-12 -4.459027E-13  1.024146E-12
         1   2 -1.306478E+03 -1.306478E+03  2.256321E-10 -1.153854E-11 -3.650971E-12  8.202582E-13
         1   3 -1.306478E+03 -1.306478E+03  2.143505E-10 -7.287946E-12  2.872813E-13  3.695036E-12
         1   4 -1.306478E+03 -1.306478E+03  2.106667E-10 -1.484930E-11  4.886927E-13  4.314308E-12
         1   5 -1.306478E+03 -1.306478E+03  2.242507E-10 -1.888202E-12  1.536716E-12  1.180497E-12
         1   6 -1.306478E+03 -1.306478E+03  2.258623E-10 -4.810215E-12 -1.668353E-12 -4.066634E-13
         1   7 -1.306478E+03 -1.306478E+03  2.201064E-10 -4.083984E-12  8.431962E-13  3.833873E-12
         1   8 -1.306478E+03 -1.306478E+03  2.182645E-10 -7.005997E-12  1.044608E-12  3.087387E-12
         2   1 -1.306478E+03 -1.306478E+03  2.254019E-10  1.392015E-11  1.777838E-12 -2.258701E-14
         2   2 -1.306478E+03 -1.306478E+03  2.260926E-10  7.905242E-12 -9.631088E-13  1.931464E-12
         2   3 -1.306478E+03 -1.306478E+03  2.122784E-10  1.233739E-11 -5.824295E-12  1.159610E-12
         2   4 -1.306478E+03 -1.306478E+03  2.180343E-10  6.407924E-12 -8.241232E-12  6.653704E-12
         2   5 -1.306478E+03 -1.306478E+03  2.221785E-10  3.938737E-12  3.180654E-12 -1.273396E-12
         2   6 -1.306478E+03 -1.306478E+03  2.309275E-10 -1.734411E-12  5.535489E-13  2.522142E-12
         2   7 -1.306478E+03 -1.306478E+03  2.099760E-10  7.279402E-12 -3.082866E-12 -1.262263E-13
         2   8 -1.306478E+03 -1.306478E+03  2.233297E-10  1.674604E-12 -5.044438E-12  7.235677E-12
         3   1 -1.306478E+03 -1.306478E+03  2.329997E-10 -4.271949E-15  2.155686E-12 -3.639970E-13
         3   2 -1.306478E+03 -1.306478E+03  2.150412E-10 -3.558534E-12  8.596475E-13  1.474686E-12
         3   3 -1.306478E+03 -1.306478E+03  2.300066E-10 -1.572077E-11  3.215030E-12 -3.034887E-12
         3   4 -1.306478E+03 -1.306478E+03  2.046805E-10 -2.016360E-11  4.127842E-13  6.689490E-12
         3   5 -1.306478E+03 -1.306478E+03  2.247111E-10  5.280129E-12  4.596500E-12  1.364622E-12
         3   6 -1.306478E+03 -1.306478E+03  2.230995E-10  9.056533E-13  3.895939E-12  2.628942E-13
         3   7 -1.306478E+03 -1.306478E+03  2.198762E-10  8.202143E-13  2.806780E-12 -1.297512E-12
         3   8 -1.306478E+03 -1.306478E+03  2.108969E-10 -4.921286E-12  4.248711E-13  5.495071E-12
         4   1 -1.306478E+03 -1.306478E+03  2.173436E-10  1.476386E-11 -7.133748E-13  9.798719E-12
         4   2 -1.306478E+03 -1.306478E+03  2.249414E-10  2.280367E-11 -3.718511E-13  6.764986E-12
         4   3 -1.306478E+03 -1.306478E+03  2.000758E-10  2.405962E-11 -3.866549E-13  1.789020E-11
         4   4 -1.306478E+03 -1.306478E+03  2.150412E-10  3.209943E-11 -1.919133E-12  1.150253E-11
         4   5 -1.306478E+03 -1.306478E+03  2.341509E-10  8.415740E-12 -2.993477E-12 -2.007771E-12
         4   6 -1.306478E+03 -1.306478E+03  2.355323E-10  1.387529E-11 -2.627871E-12 -2.029195E-12
         4   7 -1.306478E+03 -1.306478E+03  2.127388E-10  1.238011E-11 -1.329123E-14  6.469022E-12
         4   8 -1.306478E+03 -1.306478E+03  2.212576E-10  1.783966E-11 -1.563283E-12  2.393099E-12
         5   1 -1.306478E+03 -1.306478E+03  2.327694E-10 -2.122304E-11  1.366289E-12  1.257311E-11
         5   2 -1.306478E+03 -1.306478E+03  2.085946E-10 -1.659225E-11  3.065151E-12  2.893726E-12
         5   3 -1.306478E+03 -1.306478E+03  2.187250E-10 -3.062133E-11  1.348515E-11  1.621603E-11
         5   4 -1.306478E+03 -1.306478E+03  1.899454E-10 -2.592219E-11  1.628740E-11  8.679801E-12
         5   5 -1.306478E+03 -1.306478E+03  2.440510E-10 -1.606253E-11 -2.296536E-12  4.294619E-12
         5   6 -1.306478E+03 -1.306478E+03  2.247111E-10 -9.637518E-12 -5.889181E-13 -7.348899E-12
         5   7 -1.306478E+03 -1.306478E+03  2.329997E-10 -2.255589E-11  8.014001E-12  8.007595E-12
         5   8 -1.306478E+03 -1.306478E+03  2.085946E-10 -1.606253E-11  1.067613E-11 -1.148789E-12
         6   1 -1.306478E+03 -1.306478E+03  2.039898E-10  2.927140E-11 -9.526030E-12 -5.804708E-13
         6   2 -1.306478E+03 -1.306478E+03  2.085946E-10  3.415851E-11 -3.501202E-12 -1.509230E-11
         6   3 -1.306478E+03 -1.306478E+03  2.214878E-10  3.226176E-11 -5.998401E-12 -4.083278E-12
         6   4 -1.306478E+03 -1.306478E+03  2.412882E-10  3.735392E-11  2.365960E-13 -1.947081E-11
         6   5 -1.306478E+03 -1.306478E+03  2.115876E-10  8.954006E-12 -1.003767E-11  3.075557E-12
         6   6 -1.306478E+03 -1.306478E+03  2.141202E-10  1.168805E-11 -2.366520E-12 -5.919301E-12
         6   7 -1.306478E+03 -1.306478E+03  2.263228E-10  9.842571E-12 -7.304292E-13 -1.820537E-13
         6   8 -1.306478E+03 -1.306478E+03  2.435906E-10  1.326013E-11  5.504567E-12 -9.990889E-12
         7   1 -1.306478E+03 -1.306478E+03  1.874128E-10 -2.528140E-11  9.642420E-13 -1.312939E-11
         7   2 -1.306478E+03 -1.306478E+03  2.079039E-10 -1.031249E-11  9.088565E-12 -1.813578E-12
         7   3 -1.306478E+03 -1.306478E+03  2.125086E-10 -2.725504E-12 -1.971973E-12 -2.761082E-12
         7   4 -1.306478E+03 -1.306478E+03  2.336904E-10  1.224341E-11 -2.050786E-12 -3.248845E-13
         7   5 -1.306478E+03 -1.306478E+03  2.244809E-10 -1.420850E-11 -4.477538E-12 -1.174432E-11
         7   6 -1.306478E+03 -1.306478E+03  2.290856E-10 -1.042356E-11  3.624893E-12 -1.000666E-12
         7   7 -1.306478E+03 -1.306478E+03  2.323090E-10 -2.998908E-12 -7.287910E-12 -1.866406E-12
         7   8 -1.306478E+03 -1.306478E+03  2.373742E-10  7.860387E-13 -7.366723E-12  6.631674E-13
         8   1 -1.306478E+03 -1.306478E+03  2.111272E-10  8.407196E-12 -7.366571E-12 -2.052968E-12
         8   2 -1.306478E+03 -1.306478E+03  1.899454E-10  2.192364E-11 -7.725370E-13 -9.372839E-12
         8   3 -1.306478E+03 -1.306478E+03  2.350718E-10 -1.387529E-11  4.423541E-12  4.690532E-13
         8   4 -1.306478E+03 -1.306478E+03  2.072131E-10 -5.638973E-13  7.716180E-12 -2.421939E-12
         8   5 -1.306478E+03 -1.306478E+03  2.295461E-10  1.654099E-11 -2.744586E-12 -8.548431E-13
         8   6 -1.306478E+03 -1.306478E+03  2.184947E-10  2.535829E-11  4.164701E-12 -1.059051E-11
         8   7 -1.306478E+03 -1.306478E+03  2.454325E-10  9.569166E-13  6.977275E-12  1.457010E-12
         8   8 -1.306478E+03 -1.306478E+03  2.286252E-10  9.569166E-12  1.033997E-11 -3.864977E-12
         9   1 -1.306478E+03 -1.306478E+03  2.053713E-10 -2.706707E-11 -7.002787E-12  9.845689E-13
         9   2 -1.306478E+03 -1.306478E+03  2.385254E-10 -2.262424E-11 -8.903885E-13  1.501827E-11
         9   3 -1.306478E+03 -1.306478E+03  2.016875E-10 -1.175640E-11 -1.389416E-11 -9.770031E-13
         9   4 -1.306478E+03 -1.306478E+03  2.302368E-10 -7.518631E-12 -3.105510E-12  2.977300E-12
         9   5 -1.306478E+03 -1.306478E+03  2.138900E-10 -1.722450E-11 -3.838945E-12 -3.104917E-12
         9   6 -1.306478E+03 -1.306478E+03  2.258623E-10 -5.331393E-12  2.606220E-12  8.734202E-12
         9   7 -1.306478E+03 -1.306478E+03  2.205669E-10 -1.613088E-11 -1.172035E-11 -4.996433E-12
         9   8 -1.306478E+03 -1.306478E+03  2.272437E-10 -5.194690E-12 -1.772374E-12 -2.807689E-12

 strains (elem, integ.pnt.,exx,eyy,ezz,exy,exz,eyz) forset EALL and time  0.8857813E+00

         1   1 -4.371213E-03 -4.371213E-03  3.746754E-03 -2.512426E-17 -2.675696E-18  6.317438E-18
         1   2 -4.371213E-03 -4.371213E-03  3.746754E-03 -7.289003E-17 -2.242968E-17  5.010166E-18
         1   3 -4.371213E-03 -4.371213E-03  3.746754E-03 -4.603865E-17  1.791662E-18  2.277909E-17
         1   4 -4.371213E-03 -4.371213E-03  3.746754E-03 -9.380442E-17  3.033032E-18  2.654524E-17
         1   5 -4.371213E-03 -4.371213E-03  3.746754E-03 -1.192795E-17  9.744035E-18  7.296870E-18
         1   6 -4.371213E-03 -4.371213E-03  3.746754E-03 -3.038659E-17 -1.000995E-17 -2.675648E-18
         1   7 -4.371213E-03 -4.371213E-03  3.746754E-03 -2.579891E-17  5.274084E-18  2.365057E-17
         1   8 -4.371213E-03 -4.371213E-03  3.746754E-03 -4.425755E-17  6.515454E-18  1.885943E-17
         2   1 -4.371213E-03 -4.371213E-03  3.746754E-03  8.793490E-17  1.100962E-17 -1.848092E-19
         2   2 -4.371213E-03 -4.371213E-03  3.746754E-03  4.993817E-17 -5.883809E-18  1.192469E-17
         2   3 -4.371213E-03 -4.371213E-03  3.746754E-03  7.793647E-17 -3.577795E-17  7.101495E-18
         2   4 -4.371213E-03 -4.371213E-03  3.746754E-03  4.047947E-17 -5.067440E-17  4.102932E-17
         2   5 -4.371213E-03 -4.371213E-03  3.746754E-03  2.488138E-17  1.979730E-17 -8.020258E-18
         2   6 -4.371213E-03 -4.371213E-03  3.746754E-03 -1.095644E-17  3.605509E-18  1.562466E-17
         2   7 -4.371213E-03 -4.371213E-03  3.746754E-03  4.598468E-17 -1.856236E-17 -9.498445E-19
         2   8 -4.371213E-03 -4.371213E-03  3.746754E-03  1.057863E-17 -3.065223E-17  4.467498E-17
         3   1 -4.371213E-03 -4.371213E-03  3.746754E-03 -2.698631E-20  1.337658E-17 -2.182062E-18
         3   2 -4.371213E-03 -4.371213E-03  3.746754E-03 -2.247960E-17  5.388632E-18  9.045610E-18
         3   3 -4.371213E-03 -4.371213E-03  3.746754E-03 -9.930963E-17  1.980047E-17 -1.864371E-17
         3   4 -4.371213E-03 -4.371213E-03  3.746754E-03 -1.273754E-16  2.529230E-18  4.118631E-17
         3   5 -4.371213E-03 -4.371213E-03  3.746754E-03  3.335508E-17  2.866659E-17  8.645653E-18
         3   6 -4.371213E-03 -4.371213E-03  3.746754E-03  5.721098E-18  2.434878E-17  1.455459E-18
         3   7 -4.371213E-03 -4.371213E-03  3.746754E-03  5.181372E-18  1.724307E-17 -7.762025E-18
         3   8 -4.371213E-03 -4.371213E-03  3.746754E-03 -3.108823E-17  2.562512E-18  3.370498E-17
         4   1 -4.371213E-03 -4.371213E-03  3.746754E-03  9.326470E-17 -4.482059E-18  5.996421E-17
         4   2 -4.371213E-03 -4.371213E-03  3.746754E-03  1.440529E-16 -2.377127E-18  4.136751E-17
         4   3 -4.371213E-03 -4.371213E-03  3.746754E-03  1.519869E-16 -2.366431E-18  1.098349E-16
         4   4 -4.371213E-03 -4.371213E-03  3.746754E-03  2.027752E-16 -1.181164E-17  7.056670E-17
         4   5 -4.371213E-03 -4.371213E-03  3.746754E-03  5.316304E-17 -1.876554E-17 -1.397052E-17
         4   6 -4.371213E-03 -4.371213E-03  3.746754E-03  8.765154E-17 -1.651218E-17 -1.372901E-17
         4   7 -4.371213E-03 -4.371213E-03  3.746754E-03  7.820633E-17 -2.579874E-20  3.827499E-17
         4   8 -4.371213E-03 -4.371213E-03  3.746754E-03  1.126948E-16 -9.578953E-18  1.352717E-17
         5   1 -4.371213E-03 -4.371213E-03  3.746754E-03 -1.340680E-16  8.283040E-18  7.719178E-17
         5   2 -4.371213E-03 -4.371213E-03  3.746754E-03 -1.048148E-16  1.875373E-17  1.746152E-17
         5   3 -4.371213E-03 -4.371213E-03  3.746754E-03 -1.934379E-16  8.290512E-17  9.964439E-17
         5   4 -4.371213E-03 -4.371213E-03  3.746754E-03 -1.637529E-16  1.001764E-16  5.312470E-17
         5   5 -4.371213E-03 -4.371213E-03  3.746754E-03 -1.014685E-16 -1.466910E-17  2.533986E-17
         5   6 -4.371213E-03 -4.371213E-03  3.746754E-03 -6.088112E-17 -4.144436E-18 -4.668110E-17
         5   7 -4.371213E-03 -4.371213E-03  3.746754E-03 -1.424877E-16  4.861799E-17  4.822425E-17
         5   8 -4.371213E-03 -4.371213E-03  3.746754E-03 -1.014685E-16  6.502567E-17 -8.469362E-18
         6   1 -4.371213E-03 -4.371213E-03  3.746754E-03  1.849102E-16 -5.870509E-17 -3.438226E-18
         6   2 -4.371213E-03 -4.371213E-03  3.746754E-03  2.157826E-16 -2.157192E-17 -9.267219E-17
         6   3 -4.371213E-03 -4.371213E-03  3.746754E-03  2.038006E-16 -3.675545E-17 -2.502728E-17
         6   4 -4.371213E-03 -4.371213E-03  3.746754E-03  2.359683E-16  1.673059E-18 -1.196585E-16
         6   5 -4.371213E-03 -4.371213E-03  3.746754E-03  5.656331E-17 -6.183942E-17  1.947486E-17
         6   6 -4.371213E-03 -4.371213E-03  3.746754E-03  7.383455E-17 -1.455940E-17 -3.518762E-17
         6   7 -4.371213E-03 -4.371213E-03  3.746754E-03  6.217646E-17 -3.698681E-18 -6.029535E-19
         6   8 -4.371213E-03 -4.371213E-03  3.746754E-03  8.376551E-17  3.472983E-17 -6.028753E-17
         7   1 -4.371213E-03 -4.371213E-03  3.746754E-03 -1.597050E-16  5.741287E-18 -8.088868E-17
         7   2 -4.371213E-03 -4.371213E-03  3.746754E-03 -6.514496E-17  5.581439E-17 -1.113980E-17
         7   3 -4.371213E-03 -4.371213E-03  3.746754E-03 -1.721727E-17 -1.235039E-17 -1.698509E-17
         7   4 -4.371213E-03 -4.371213E-03  3.746754E-03  7.734277E-17 -1.283615E-17 -1.964455E-18
         7   5 -4.371213E-03 -4.371213E-03  3.746754E-03 -8.975647E-17 -2.834902E-17 -7.226169E-17
         7   6 -4.371213E-03 -4.371213E-03  3.746754E-03 -6.584660E-17  2.158915E-17 -6.029792E-18
         7   7 -4.371213E-03 -4.371213E-03  3.746754E-03 -1.894439E-17 -4.565105E-17 -1.138057E-17
         7   8 -4.371213E-03 -4.371213E-03  3.746754E-03  4.965481E-18 -4.613681E-17  4.225006E-18
         8   1 -4.371213E-03 -4.371213E-03  3.746754E-03  5.310906E-17 -4.521647E-17 -1.260582E-17
         8   2 -4.371213E-03 -4.371213E-03  3.746754E-03  1.384938E-16 -4.575086E-18 -5.781441E-17
         8   3 -4.371213E-03 -4.371213E-03  3.746754E-03 -8.765154E-17  2.735681E-17  2.938293E-18
         8   4 -4.371213E-03 -4.371213E-03  3.746754E-03 -3.562193E-18  4.765052E-17 -1.497375E-17
         8   5 -4.371213E-03 -4.371213E-03  3.746754E-03  1.044910E-16 -1.622050E-17 -5.093329E-18
         8   6 -4.371213E-03 -4.371213E-03  3.746754E-03  1.601907E-16  2.636390E-17 -6.544933E-17
         8   7 -4.371213E-03 -4.371213E-03  3.746754E-03  6.044934E-18  4.335419E-17  9.155444E-18
         8   8 -4.371213E-03 -4.371213E-03  3.746754E-03  6.044934E-17  6.407967E-17 -2.399924E-17
         9   1 -4.371213E-03 -4.371213E-03  3.746754E-03 -1.709853E-16 -4.303309E-17  5.913043E-18
         9   2 -4.371213E-03 -4.371213E-03  3.746754E-03 -1.429195E-16 -5.360197E-18  9.234637E-17
         9   3 -4.371213E-03 -4.371213E-03  3.746754E-03 -7.426633E-17 -8.556625E-17 -6.176825E-18
         9   4 -4.371213E-03 -4.371213E-03  3.746754E-03 -4.749591E-17 -1.907197E-17  1.813445E-17
         9   5 -4.371213E-03 -4.371213E-03  3.746754E-03 -1.088088E-16 -2.318552E-17 -1.972597E-17
         9   6 -4.371213E-03 -4.371213E-03  3.746754E-03 -3.367892E-17  1.653833E-17  5.303054E-17
         9   7 -4.371213E-03 -4.371213E-03  3.746754E-03 -1.019003E-16 -7.197712E-17 -3.138406E-17
         9   8 -4.371213E-03 -4.371213E-03  3.746754E-03 -3.281536E-17 -1.066422E-17 -1.810450E-17

 displacements (vx,vy,vz) for set NALL and time  0.8947813E+00

         1  0.000000E+00  0.000000E+00  0.000000E+00
         2 -2.280372E+00  0.000000E+00  0.000000E+00
         3 -1.228153E+01  0.000000E+00  0.000000E+00
         4 -1.456190E+01  0.000000E+00  0.000000E+00
         5 -2.456307E+01  0.000000E+00  0.000000E+00
         6 -2.684344E+01  0.000000E+00  0.000000E+00
         7  0.000000E+00 -2.280372E+00  0.000000E+00
         8 -2.280372E+00 -2.280372E+00  0.000000E+00
         9 -1.228153E+01 -2.280372E+00  0.000000E+00
        10 -1.456190E+01 -2.280372E+00  0.000000E+00
        11 -2.456307E+01 -2.280372E+00  0.000000E+00
        12 -2.684344E+01 -2.280372E+00  0.000000E+00
        13  0.000000E+00 -1.228153E+01  0.000000E+00
        14 -2.280372E+00 -1.228153E+01  0.000000E+00
        15 -1.228153E+01 -1.228153E+01  0.000000E+00
        16 -1.456190E+01 -1.228153E+01  0.000000E+00
        17 -2.456307E+01 -1.228153E+01  0.000000E+00
        18 -2.684344E+01 -1.228153E+01  0.000000E+00
        19  0.000000E+00 -1.456190E+01  0.000000E+00
        20 -2.280372E+00 -1.456190E+01  0.000000E+00
        21 -1.228153E+01 -1.456190E+01  0.000000E+00
        22 -1.456190E+01 -1.456190E+01  0.000000E+00
        23 -2.456307E+01 -1.456190E+01  0.000000E+00
        24 -2.684344E+01 -1.456190E+01  0.000000E+00
        25  0.000000E+00 -2.456307E+01  0.000000E+00
        26 -2.280372E+00 -2.456307E+01  0.000000E+00
        27 -1.228153E+01 -2.456307E+01  0.000000E+00
        28 -1.456190E+01 -2.456307E+01  0.000000E+00
        29 -2.456307E+01 -2.456307E+01  0.000000E+00
        30 -2.684344E+01 -2.456307E+01  0.000000E+00
        31  0.000000E+00 -2.684344E+01  0.000000E+00
        32 -2.280372E+00 -2.684344E+01  0.000000E+00
        33 -1.228153E+01 -2.684344E+01  0.000000E+00
        34 -1.456190E+01 -2.684344E+01  0.000000E+00
        35 -2.456307E+01 -2.684344E+01  0.000000E+00
        36 -2.684344E+01 -2.684344E+01  0.000000E+00
        37  0.000000E+00  0.000000E+00  2.724903E+00
        38 -2.280372E+00  0.000000E+00  2.724903E+00
        39 -1.228153E+01  0.000000E+00  2.724903E+00
        40 -1.456190E+01  0.000000E+00  2.724903E+00
        41 -2.456307E+01  0.000000E+00  2.724903E+00
        42 -2.684344E+01  0.000000E+00  2.724903E+00
        43  0.000000E+00 -2.280372E+00  2.724903E+00
        44 -2.280372E+00 -2.280372E+00  2.724903E+00
        45 -1.228153E+01 -2.280372E+00  2.724903E+00
        46 -1.456190E+01 -2.280372E+00  2.724903E+00
        47 -2.456307E+01 -2.280372E+00  2.724903E+00
        48 -2.684344E+01 -2.280372E+00  2.724903E+00
        49  0.000000E+00 -1.228153E+01  2.724903E+00
        50 -2.280372E+00 -1.228153E+01  2.724903E+00
        51 -1.228153E+01 -1.228153E+01  2.724903E+00
        52 -1.456190E+01 -1.228153E+01  2.724903E+00
        53 -2.456307E+01 -1.228153E+01  2.724903E+00
        54 -2.684344E+01 -1.228153E+01  2.724903E+00
        55  0.000000E+00 -1.456190E+01  2.724903E+00
        56 -2.280372E+00 -1.456190E+01  2.724903E+00
        57 -1.228153E+01 -1.456190E+01  2.724903E+00
        58 -1.456190E+01 -1.456190E+01  2.724903E+00
        59 -2.456307E+01 -1.456190E+01  2.724903E+00
        60 -2.684344E+01 -1.456190E+01  2.724903E+00
        61  0.000000E+00 -2.456307E+01  2.724903E+00
        62 -2.280372E+00 -2.456307E+01  2.724903E+00
        63 -1.228153E+01 -2.456307E+01  2.724903E+00
        64 -1.456190E+01 -2.456307E+01  2.724903E+00
        65 -2.456307E+01 -2.456307E+01  2.724903E+00
        66 -2.684344E+01 -2.456307E+01  2.724903E+00
        67  0.000000E+00 -2.684344E+01  2.724903E+00
        68 -2.280372E+00 -2.684344E+01  2.724903E+00
        69 -1.228153E+01 -2.684344E+01  2.724903E+00
        70 -1.456190E+01 -2.684344E+01  2.724903E+00
        71 -2.456307E+01 -2.684344E+01  2.724903E+00
        72 -2.684344E+01 -2.684344E+01  2.724903E+00

 stresses (elem, integ.pnt.,sxx,syy,szz,sxy,sxz,syz) for set EALL and time  0.8947813E+00

         1   1 -1.359810E+03 -1.359810E+03  1.948805E-10 -3.823757E-12 -1.212201E-12  1.266376E-12
         1   2 -1.359810E+03 -1.359810E+03  2.017911E-10 -1.432202E-11 -7.153838E-12  4.240886E-13
         1   3 -1.359810E+03 -1.359810E+03  1.810592E-10 -3.729870E-12 -3.172782E-14  3.622013E-12
         1   4 -1.359810E+03 -1.359810E+03  1.856663E-10 -1.422813E-11 -1.844430E-12  1.404875E-12
         1   5 -1.359810E+03 -1.359810E+03  1.870484E-10 -2.483735E-12  1.375415E-12  2.325735E-12
         1   6 -1.359810E+03 -1.359810E+03  1.909644E-10 -7.365853E-12 -4.566221E-12  6.715620E-13
         1   7 -1.359810E+03 -1.359810E+03  1.822109E-10 -4.335867E-12  1.722294E-12  4.646345E-12
         1   8 -1.359810E+03 -1.359810E+03  1.835931E-10 -9.217985E-12 -9.040840E-14  1.652348E-12
         2   1 -1.359810E+03 -1.359810E+03  1.951108E-10  1.499416E-11  2.774721E-12 -3.263693E-13
         2   2 -1.359810E+03 -1.359810E+03  1.997179E-10  7.329578E-12 -1.603788E-12  1.274916E-12
         2   3 -1.359810E+03 -1.359810E+03  1.849752E-10  1.734347E-11 -4.545131E-12 -1.998960E-12
         2   4 -1.359810E+03 -1.359810E+03  1.962626E-10  9.695954E-12 -9.694258E-12  1.447904E-12
         2   5 -1.359810E+03 -1.359810E+03  1.822109E-10  4.378543E-12  3.139419E-12  4.377591E-13
         2   6 -1.359810E+03 -1.359810E+03  1.905037E-10 -4.429754E-12 -1.405473E-12  4.568068E-12
         2   7 -1.359810E+03 -1.359810E+03  1.702325E-10  9.252125E-12 -1.504804E-12 -1.199803E-12
         2   8 -1.359810E+03 -1.359810E+03  1.852056E-10  5.121103E-13 -6.759015E-12  4.743355E-12
         3   1 -1.359810E+03 -1.359810E+03  2.022518E-10 -4.523641E-13  4.091878E-12  2.044904E-13
         3   2 -1.359810E+03 -1.359810E+03  1.847448E-10 -3.490885E-12  1.202062E-12  6.938691E-13
         3   3 -1.359810E+03 -1.359810E+03  2.029429E-10 -1.249549E-11  8.859023E-12 -1.012735E-12
         3   4 -1.359810E+03 -1.359810E+03  1.792163E-10 -1.587542E-11  1.993521E-12  3.248674E-12
         3   5 -1.359810E+03 -1.359810E+03  1.932680E-10  8.134018E-12  4.764832E-12  2.045419E-12
         3   6 -1.359810E+03 -1.359810E+03  1.842841E-10 -3.328717E-13  1.647334E-12  2.744600E-14
         3   7 -1.359810E+03 -1.359810E+03  1.856663E-10  7.169544E-13  6.746627E-12  8.194365E-13
         3   8 -1.359810E+03 -1.359810E+03  1.700021E-10 -7.067122E-12 -4.881900E-14  2.599672E-12
         4   1 -1.359810E+03 -1.359810E+03  1.822109E-10  1.397634E-11 -9.496710E-13  7.766441E-12
         4   2 -1.359810E+03 -1.359810E+03  2.008697E-10  2.365096E-11 -2.694507E-12  9.066074E-12
         4   3 -1.359810E+03 -1.359810E+03  1.688503E-10  2.749605E-11 -1.937882E-12  1.477205E-11
         4   4 -1.359810E+03 -1.359810E+03  1.923466E-10  3.717067E-11 -8.032766E-12  1.292792E-11
         4   5 -1.359810E+03 -1.359810E+03  1.937287E-10  1.301614E-11 -1.815810E-12 -3.375384E-12
         4   6 -1.359810E+03 -1.359810E+03  2.040947E-10  1.669479E-11 -3.562835E-12  1.338578E-13
         4   7 -1.359810E+03 -1.359810E+03  1.704628E-10  2.182443E-11 -1.130337E-12  3.490118E-12
         4   8 -1.359810E+03 -1.359810E+03  1.861270E-10  2.550309E-11 -7.225221E-12  3.268870E-12
         5   1 -1.359810E+03 -1.359810E+03  1.987965E-10 -2.642489E-11  5.321224E-13  1.047035E-11
         5   2 -1.359810E+03 -1.359810E+03  1.868180E-10 -1.744589E-11  1.993557E-13  6.203373E-12
         5   3 -1.359810E+03 -1.359810E+03  1.934983E-10 -3.332131E-11  1.015595E-11  1.211667E-11
         5   4 -1.359810E+03 -1.359810E+03  1.776038E-10 -2.425696E-11  5.777437E-12  6.113632E-12
         5   5 -1.359810E+03 -1.359810E+03  2.015608E-10 -1.782144E-11 -2.626925E-13  2.993458E-12
         5   6 -1.359810E+03 -1.359810E+03  1.865877E-10 -1.427081E-11 -4.553469E-13 -2.638890E-12
         5   7 -1.359810E+03 -1.359810E+03  1.877395E-10 -2.662973E-11  8.151289E-12  4.990058E-12
         5   8 -1.359810E+03 -1.359810E+03  1.690807E-10 -2.301082E-11  4.017977E-12 -2.568760E-12
         6   1 -1.359810E+03 -1.359810E+03  1.766824E-10  2.359121E-11 -4.860749E-12 -5.256016E-14
         6   2 -1.359810E+03 -1.359810E+03  1.826716E-10  3.209224E-11 -2.426298E-12 -1.307913E-11
         6   3 -1.359810E+03 -1.359810E+03  1.951108E-10  3.297990E-11  4.313891E-12 -6.480374E-13
         6   4 -1.359810E+03 -1.359810E+03  2.126178E-10  4.113952E-11  1.231421E-12 -1.844718E-11
         6   5 -1.359810E+03 -1.359810E+03  1.796770E-10  1.338315E-11 -8.254330E-12  3.050025E-12
         6   6 -1.359810E+03 -1.359810E+03  1.759913E-10  1.420252E-11 -6.205187E-12 -5.950749E-12
         6   7 -1.359810E+03 -1.359810E+03  1.886609E-10  1.666065E-11  5.381934E-12  1.999182E-12
         6   8 -1.359810E+03 -1.359810E+03  1.967233E-10  1.761659E-11  2.299464E-12 -1.140622E-11
         7   1 -1.359810E+03 -1.359810E+03  1.580236E-10 -2.933752E-11  2.076834E-13 -9.597691E-12
         7   2 -1.359810E+03 -1.359810E+03  1.826716E-10 -1.545719E-11  6.335406E-12 -1.188825E-12
         7   3 -1.359810E+03 -1.359810E+03  1.794467E-10 -4.209973E-12 -2.419482E-12 -2.241796E-12
         7   4 -1.359810E+03 -1.359810E+03  2.057072E-10  9.670349E-12 -4.144614E-12  4.049522E-13
         7   5 -1.359810E+03 -1.359810E+03  1.849752E-10 -2.234508E-11 -5.308424E-12 -9.667747E-12
         7   6 -1.359810E+03 -1.359810E+03  1.981054E-10 -1.925535E-11  8.083529E-13 -6.963175E-14
         7   7 -1.359810E+03 -1.359810E+03  1.895823E-10 -4.865048E-12 -7.238553E-12 -2.241796E-12
         7   8 -1.359810E+03 -1.359810E+03  2.050161E-10 -1.775316E-12 -9.016228E-12  1.121323E-12
         8   1 -1.359810E+03 -1.359810E+03  1.900430E-10  9.900798E-12 -3.961582E-12  8.140339E-13
         8   2 -1.359810E+03 -1.359810E+03  1.642432E-10  1.870910E-11  3.131602E-12 -2.120106E-12
         8   3 -1.359810E+03 -1.359810E+03  2.034036E-10 -1.331487E-11  4.924080E-12  8.840901E-13
         8   4 -1.359810E+03 -1.359810E+03  1.729967E-10 -4.489500E-12  6.850624E-12 -1.159005E-12
         8   5 -1.359810E+03 -1.359810E+03  2.038643E-10  1.884566E-11 -1.768529E-13  1.469409E-12
         8   6 -1.359810E+03 -1.359810E+03  1.826716E-10  2.055269E-11  6.986387E-12 -4.392152E-12
         8   7 -1.359810E+03 -1.359810E+03  2.061679E-10 -1.365627E-12  7.017930E-12  1.329297E-12
         8   8 -1.359810E+03 -1.359810E+03  1.801377E-10  4.096882E-13  8.979502E-12 -3.236078E-12
         9   1 -1.359810E+03 -1.359810E+03  1.746092E-10 -2.799536E-11 -6.536906E-12  8.911691E-13
         9   2 -1.359810E+03 -1.359810E+03  2.128482E-10 -2.891716E-11 -8.623585E-13  1.500503E-11
         9   3 -1.359810E+03 -1.359810E+03  1.663164E-10 -6.418449E-12 -1.145211E-11  5.049543E-14
         9   4 -1.359810E+03 -1.359810E+03  1.976447E-10 -7.510951E-12 -3.255546E-12  2.202274E-12
         9   5 -1.359810E+03 -1.359810E+03  1.829020E-10 -1.256377E-11 -5.304447E-12 -1.445812E-12
         9   6 -1.359810E+03 -1.359810E+03  1.994876E-10 -1.024221E-11  4.926985E-13  9.689352E-12
         9   7 -1.359810E+03 -1.359810E+03  1.803681E-10 -6.008760E-12 -1.211204E-11 -2.426598E-12
         9   8 -1.359810E+03 -1.359810E+03  1.895823E-10 -4.096882E-12 -3.355026E-12 -2.036369E-12

 strains (elem, integ.pnt.,exx,eyy,ezz,exy,exz,eyz) forset EALL and time  0.8947813E+00

         1   1 -4.550345E-03 -4.550345E-03  3.900295E-03 -2.417537E-17 -7.369486E-18  7.845696E-18
         1   2 -4.550345E-03 -4.550345E-03  3.900295E-03 -9.054970E-17 -4.398329E-17  2.621094E-18
         1   3 -4.550345E-03 -4.550345E-03  3.900295E-03 -2.358177E-17 -1.279771E-19  2.236171E-17
         1   4 -4.550345E-03 -4.550345E-03  3.900295E-03 -8.995610E-17 -1.129829E-17  8.664936E-18
         1   5 -4.550345E-03 -4.550345E-03  3.900295E-03 -1.570320E-17  8.848012E-18  1.448507E-17
         1   6 -4.550345E-03 -4.550345E-03  3.900295E-03 -4.656996E-17 -2.776580E-17  4.172097E-18
         1   7 -4.550345E-03 -4.550345E-03  3.900295E-03 -2.741314E-17  1.086509E-17  2.878524E-17
         1   8 -4.550345E-03 -4.550345E-03  3.900295E-03 -5.827990E-17 -3.052223E-19  1.021594E-17
         2   1 -4.550345E-03 -4.550345E-03  3.900295E-03  9.479927E-17  1.711402E-17 -1.981962E-18
         2   2 -4.550345E-03 -4.550345E-03  3.900295E-03  4.634061E-17 -9.867415E-18  7.982292E-18
         2   3 -4.550345E-03 -4.550345E-03  3.900295E-03  1.096526E-16 -2.789686E-17 -1.228887E-17
         2   4 -4.550345E-03 -4.550345E-03  3.900295E-03  6.130182E-17 -5.962703E-17  9.047829E-18
         2   5 -4.550345E-03 -4.550345E-03  3.900295E-03  2.768295E-17  1.939971E-17  2.807098E-18
         2   6 -4.550345E-03 -4.550345E-03  3.900295E-03 -2.800673E-17 -8.607022E-18  2.862139E-17
         2   7 -4.550345E-03 -4.550345E-03  3.900295E-03  5.849575E-17 -8.856794E-18 -7.283959E-18
         2   8 -4.550345E-03 -4.550345E-03  3.900295E-03  3.237772E-18 -4.123452E-17  2.969973E-17
         3   1 -4.550345E-03 -4.550345E-03  3.900295E-03 -2.860032E-18  2.524024E-17  1.330395E-18
         3   2 -4.550345E-03 -4.550345E-03  3.900295E-03 -2.207081E-17  7.432497E-18  4.250235E-18
         3   3 -4.550345E-03 -4.550345E-03  3.900295E-03 -7.900164E-17  5.452118E-17 -6.170444E-18
         3   4 -4.550345E-03 -4.550345E-03  3.900295E-03 -1.003709E-16  1.221429E-17  1.999425E-17
         3   5 -4.550345E-03 -4.550345E-03  3.900295E-03  5.142662E-17  2.945788E-17  1.286722E-17
         3   6 -4.550345E-03 -4.550345E-03  3.900295E-03 -2.104552E-18  1.024710E-17  7.329883E-20
         3   7 -4.550345E-03 -4.550345E-03  3.900295E-03  4.532881E-18  4.131150E-17  5.312415E-18
         3   8 -4.550345E-03 -4.550345E-03  3.900295E-03 -4.468126E-17 -5.636828E-19  1.592581E-17
         4   1 -4.550345E-03 -4.550345E-03  3.900295E-03  8.836420E-17 -5.884960E-18  4.743796E-17
         4   2 -4.550345E-03 -4.550345E-03  3.900295E-03  1.495311E-16 -1.663706E-17  5.551050E-17
         4   3 -4.550345E-03 -4.550345E-03  3.900295E-03  1.738414E-16 -1.190976E-17  9.060825E-17
         4   4 -4.550345E-03 -4.550345E-03  3.900295E-03  2.350083E-16 -4.946791E-17  7.930813E-17
         4   5 -4.550345E-03 -4.550345E-03  3.900295E-03  8.229338E-17 -1.131358E-17 -2.237703E-17
         4   6 -4.550345E-03 -4.550345E-03  3.900295E-03  1.055514E-16 -2.207917E-17 -5.067174E-19
         4   7 -4.550345E-03 -4.550345E-03  3.900295E-03  1.379831E-16 -6.848590E-18  1.992986E-17
         4   8 -4.550345E-03 -4.550345E-03  3.900295E-03  1.612411E-16 -4.440675E-17  1.881199E-17
         5   1 -4.550345E-03 -4.550345E-03  3.900295E-03 -1.670690E-16  3.250318E-18  6.423335E-17
         5   2 -4.550345E-03 -4.550345E-03  3.900295E-03 -1.103001E-16  1.199729E-18  3.788650E-17
         5   3 -4.550345E-03 -4.550345E-03  3.900295E-03 -2.106710E-16  6.250218E-17  7.437837E-17
         5   4 -4.550345E-03 -4.550345E-03  3.900295E-03 -1.533625E-16  3.552075E-17  3.733326E-17
         5   5 -4.550345E-03 -4.550345E-03  3.900295E-03 -1.126745E-16 -1.727382E-18  1.738042E-17
         5   6 -4.550345E-03 -4.550345E-03  3.900295E-03 -9.022592E-17 -2.914565E-18 -1.752461E-17
         5   7 -4.550345E-03 -4.550345E-03  3.900295E-03 -1.683642E-16  4.992357E-17  2.968396E-17
         5   8 -4.550345E-03 -4.550345E-03  3.900295E-03 -1.454839E-16  2.445309E-17 -1.709337E-17
         6   1 -4.550345E-03 -4.550345E-03  3.900295E-03  1.491534E-16 -3.008112E-17 -2.152810E-19
         6   2 -4.550345E-03 -4.550345E-03  3.900295E-03  2.029004E-16 -1.507944E-17 -8.031933E-17
         6   3 -4.550345E-03 -4.550345E-03  3.900295E-03  2.085125E-16  2.662432E-17 -3.884756E-18
         6   4 -4.550345E-03 -4.550345E-03  3.900295E-03  2.601010E-16  7.629387E-18 -1.133986E-16
         6   5 -4.550345E-03 -4.550345E-03  3.900295E-03  8.461378E-17 -5.134251E-17  1.919657E-17
         6   6 -4.550345E-03 -4.550345E-03  3.900295E-03  8.979422E-17 -3.871520E-17 -3.563591E-17
         6   7 -4.550345E-03 -4.550345E-03  3.900295E-03  1.053355E-16  3.331812E-17  1.272102E-17
         6   8 -4.550345E-03 -4.550345E-03  3.900295E-03  1.113794E-16  1.432319E-17 -6.925570E-17
         7   1 -4.550345E-03 -4.550345E-03  3.900295E-03 -1.854839E-16  1.066688E-18 -5.914331E-17
         7   2 -4.550345E-03 -4.550345E-03  3.900295E-03 -9.772676E-17  3.882721E-17 -7.297992E-18
         7   3 -4.550345E-03 -4.550345E-03  3.900295E-03 -2.661719E-17 -1.509471E-17 -1.381449E-17
         7   4 -4.550345E-03 -4.550345E-03  3.900295E-03  6.113993E-17 -2.572539E-17  2.523250E-18
         7   5 -4.550345E-03 -4.550345E-03  3.900295E-03 -1.412748E-16 -3.350399E-17 -5.957501E-17
         7   6 -4.550345E-03 -4.550345E-03  3.900295E-03 -1.217402E-16  4.189072E-18 -3.259564E-19
         7   7 -4.550345E-03 -4.550345E-03  3.900295E-03 -3.075884E-17 -4.529935E-17 -1.381449E-17
         7   8 -4.550345E-03 -4.550345E-03  3.900295E-03 -1.122428E-17 -5.625381E-17  7.012994E-18
         8   1 -4.550345E-03 -4.550345E-03  3.900295E-03  6.259693E-17 -2.426164E-17  5.020838E-18
         8   2 -4.550345E-03 -4.550345E-03  3.900295E-03  1.182866E-16  1.944828E-17 -1.313466E-17
         8   3 -4.550345E-03 -4.550345E-03  3.900295E-03 -8.418208E-17  3.041913E-17  5.452541E-18
         8   4 -4.550345E-03 -4.550345E-03  3.900295E-03 -2.838447E-17  4.229096E-17 -7.212348E-18
         8   5 -4.550345E-03 -4.550345E-03  3.900295E-03  1.191500E-16 -5.266947E-19  9.076761E-18
         8   6 -4.550345E-03 -4.550345E-03  3.900295E-03  1.299426E-16  4.361493E-17 -2.733018E-17
         8   7 -4.550345E-03 -4.550345E-03  3.900295E-03 -8.634059E-18  4.352729E-17  8.213355E-18
         8   8 -4.550345E-03 -4.550345E-03  3.900295E-03  2.590218E-18  5.561498E-17 -2.020800E-17
         9   1 -4.550345E-03 -4.550345E-03  3.900295E-03 -1.769982E-16 -4.020329E-17  5.408548E-18
         9   2 -4.550345E-03 -4.550345E-03  3.900295E-03 -1.828262E-16 -5.235345E-18  9.227643E-17
         9   3 -4.550345E-03 -4.550345E-03  3.900295E-03 -4.058008E-17 -7.059627E-17  2.281124E-19
         9   4 -4.550345E-03 -4.550345E-03  3.900295E-03 -4.748733E-17 -2.008702E-17  1.338271E-17
         9   5 -4.550345E-03 -4.550345E-03  3.900295E-03 -7.943334E-17 -3.239068E-17 -9.223405E-18
         9   6 -4.550345E-03 -4.550345E-03  3.900295E-03 -6.475544E-17  3.332745E-18  5.900721E-17
         9   7 -4.550345E-03 -4.550345E-03  3.900295E-03 -3.798986E-17 -7.473227E-17 -1.526725E-17
         9   8 -4.550345E-03 -4.550345E-03  3.900295E-03 -2.590218E-17 -2.076940E-17 -1.324861E-17

 displacements (vx,vy,vz) for set NALL and time  0.9037813E+00

         1  0.000000E+00  0.000000E+00  0.000000E+00
         2 -2.370344E+00  0.000000E+00  0.000000E+00
         3 -1.237155E+01  0.000000E+00  0.000000E+00
         4 -1.474189E+01  0.000000E+00  0.000000E+00
         5 -2.474309E+01  0.000000E+00  0.000000E+00
         6 -2.711344E+01  0.000000E+00  0.000000E+00
         7  0.000000E+00 -2.370344E+00  0.000000E+00
         8 -2.370344E+00 -2.370344E+00  0.000000E+00
         9 -1.237155E+01 -2.370344E+00  0.000000E+00
        10 -1.474189E+01 -2.370344E+00  0.000000E+00
        11 -2.474309E+01 -2.370344E+00  0.000000E+00
        12 -2.711344E+01 -2.370344E+00  0.000000E+00
        13  0.000000E+00 -1.237155E+01  0.000000E+00
        14 -2.370344E+00 -1.237155E+01  0.000000E+00
        15 -1.237155E+01 -1.237155E+01  0.000000E+00
        16 -1.474189E+01 -1.237155E+01  0.000000E+00
        17 -2.474309E+01 -1.237155E+01  0.000000E+00
        18 -2.711344E+01 -1.237155E+01  0.000000E+00
        19  0.000000E+00 -1.474189E+01  0.000000E+00
        20 -2.370344E+00 -1.474189E+01  0.000000E+00
        21 -1.237155E+01 -1.474189E+01  0.000000E+00
        22 -1.474189E+01 -1.474189E+01  0.000000E+00
        23 -2.474309E+01 -1.474189E+01  0.000000E+00
        24 -2.711344E+01 -1.474189E+01  0.000000E+00
        25  0.000000E+00 -2.474309E+01  0.000000E+00
        26 -2.370344E+00 -2.474309E+01  0.000000E+00
        27 -1.237155E+01 -2.474309E+01  0.000000E+00
        28 -1.474189E+01 -2.474309E+01  0.000000E+00
        29 -2.474309E+01 -2.474309E+01  0.000000E+00
        30 -2.711344E+01 -2.474309E+01  0.000000E+00
        31  0.000000E+00 -2.711344E+01  0.000000E+00
        32 -2.370344E+00 -2.711344E+01  0.000000E+00
        33 -1.237155E+01 -2.711344E+01  0.000000E+00
        34 -1.474189E+01 -2.711344E+01  0.000000E+00
        35 -2.474309E+01 -2.711344E+01  0.000000E+00
        36 -2.711344E+01 -2.711344E+01  0.000000E+00
        37  0.000000E+00  0.000000E+00  2.831942E+00
        38 -2.370344E+00  0.000000E+00  2.831942E+00
        39 -1.237155E+01  0.000000E+00  2.831942E+00
        40 -1.474189E+01  0.000000E+00  2.831942E+00
        41 -2.474309E+01  0.000000E+00  2.831942E+00
        42 -2.711344E+01  0.000000E+00  2.831942E+00
        43  0.000000E+00 -2.370344E+00  2.831942E+00
        44 -2.370344E+00 -2.370344E+00  2.831942E+00
        45 -1.237155E+01 -2.370344E+00  2.831942E+00
        46 -1.474189E+01 -2.370344E+00  2.831942E+00
        47 -2.474309E+01 -2.370344E+00  2.831942E+00
        48 -2.711344E+01 -2.370344E+00  2.831942E+00
        49  0.000000E+00 -1.237155E+01  2.831942E+00
        50 -2.370344E+00 -1.237155E+01  2.831942E+00
        51 -1.237155E+01 -1.237155E+01  2.831942E+00
        52 -1.474189E+01 -1.237155E+01  2.831942E+00
        53 -2.474309E+01 -1.237155E+01  2.831942E+00
        54 -2.711344E+01 -1.237155E+01  2.831942E+00
        55  0.000000E+00 -1.474189E+01  2.831942E+00
        56 -2.370344E+00 -1.474189E+01  2.831942E+00
        57 -1.237155E+01 -1.474189E+01  2.831942E+00
        58 -1.474189E+01 -1.474189E+01  2.831942E+00
        59 -2.474309E+01 -1.474189E+01  2.831942E+00
        60 -2.711344E+01 -1.474189E+01  2.831942E+00
        61  0.000000E+00 -2.474309E+01  2.831942E+00
        62 -2.370344E+00 -2.474309E+01  2.831942E+00
        63 -1.237155E+01 -2.474309E+01  2.831942E+00
        64 -1.474189E+01 -2.474309E+01  2.831942E+00
        65 -2.474309E+01 -2.474309E+01  2.831942E+00
        66 -2.711344E+01 -2.474309E+01  2.831942E+00
        67  0.000000E+00 -2.711344E+01  2.831942E+00
        68 -2.370344E+00 -2.711344E+01  2.831942E+00
        69 -1.237155E+01 -2.711344E+01  2.831942E+00
        70 -1.474189E+01 -2.711344E+01  2.831942E+00
        71 -2.474309E+01 -2.711344E+01  2.831942E+00
        72 -2.711344E+01 -2.711344E+01  2.831942E+00

 stresses (elem, integ.pnt.,sxx,syy,szz,sxy,sxz,syz) for set EALL and time  0.9037813E+00

         1   1 -1.413119E+03 -1.413119E+03  1.677848E-10 -4.623465E-12 -6.420872E-13  8.790179E-13
         1   2 -1.413119E+03 -1.413119E+03  1.684762E-10 -1.413258E-11 -4.630909E-12  1.791026E-13
         1   3 -1.413119E+03 -1.413119E+03  1.567220E-10 -7.748407E-12  5.035390E-13  1.597093E-12
         1   4 -1.413119E+03 -1.413119E+03  1.558001E-10 -1.725753E-11  5.298100E-13 -1.427178E-13
         1   5 -1.413119E+03 -1.413119E+03  1.606401E-10 -3.137732E-12  1.580092E-12  2.623775E-12
         1   6 -1.413119E+03 -1.413119E+03  1.594877E-10 -7.213373E-12 -2.408730E-12  1.047141E-12
         1   7 -1.413119E+03 -1.413119E+03  1.585658E-10 -7.656748E-12  1.848999E-12  3.341851E-12
         1   8 -1.413119E+03 -1.413119E+03  1.548782E-10 -1.173239E-11  1.875270E-12  7.253208E-13
         2   1 -1.413119E+03 -1.413119E+03  1.664019E-10  1.694844E-11  5.958095E-12 -6.742137E-13
         2   2 -1.413119E+03 -1.413119E+03  1.634058E-10  1.174731E-11  4.399346E-12  1.657133E-12
         2   3 -1.413119E+03 -1.413119E+03  1.578744E-10  1.907366E-11 -3.215128E-12 -2.495673E-12
         2   4 -1.413119E+03 -1.413119E+03  1.624839E-10  1.395779E-11 -6.893076E-12  3.375736E-12
         2   5 -1.413119E+03 -1.413119E+03  1.601791E-10  4.877127E-12  3.592690E-12 -7.349764E-13
         2   6 -1.413119E+03 -1.413119E+03  1.647886E-10 -2.967203E-12  1.876314E-12  4.402248E-12
         2   7 -1.413119E+03 -1.413119E+03  1.475031E-10  1.190292E-11 -3.052653E-12 -2.521408E-12
         2   8 -1.413119E+03 -1.413119E+03  1.594877E-10  4.126799E-12 -5.854899E-12  6.131835E-12
         3   1 -1.413119E+03 -1.413119E+03  1.659410E-10 -5.047656E-12  8.314290E-13  8.409802E-13
         3   2 -1.413119E+03 -1.413119E+03  1.546478E-10 -3.888059E-12  1.483817E-13  6.340582E-13
         3   3 -1.413119E+03 -1.413119E+03  1.664019E-10 -1.474222E-11  6.684440E-12  3.187861E-12
         3   4 -1.413119E+03 -1.413119E+03  1.493469E-10 -1.378726E-11  1.850566E-12  4.784884E-12
         3   5 -1.413119E+03 -1.413119E+03  1.696285E-10  5.277870E-12  2.241379E-12  6.933370E-13
         3   6 -1.413119E+03 -1.413119E+03  1.627143E-10 -8.611710E-13  1.943640E-12 -1.859440E-12
         3   7 -1.413119E+03 -1.413119E+03  1.608706E-10 -1.944030E-12  6.140028E-12  3.048975E-12
         3   8 -1.413119E+03 -1.413119E+03  1.472726E-10 -8.355916E-12  8.157610E-13  2.350419E-12
         4   1 -1.413119E+03 -1.413119E+03  1.594877E-10  1.850239E-11  9.495991E-14  1.036230E-11
         4   2 -1.413119E+03 -1.413119E+03  1.670933E-10  2.760010E-11  3.319732E-12  1.128883E-11
         4   3 -1.413119E+03 -1.413119E+03  1.435850E-10  2.835896E-11 -1.056227E-12  1.421539E-11
         4   4 -1.413119E+03 -1.413119E+03  1.560306E-10  3.745667E-11 -2.868930E-12  1.332922E-11
         4   5 -1.413119E+03 -1.413119E+03  1.737771E-10  1.621730E-11 -2.864975E-12 -1.329870E-12
         4   6 -1.413119E+03 -1.413119E+03  1.774647E-10  1.841712E-11  3.510397E-13  1.466364E-12
         4   7 -1.413119E+03 -1.413119E+03  1.470421E-10  2.344772E-11 -2.054395E-12  2.908527E-12
         4   8 -1.413119E+03 -1.413119E+03  1.558001E-10  2.564755E-11 -3.910883E-12  3.331609E-12
         5   1 -1.413119E+03 -1.413119E+03  1.756209E-10 -2.902402E-11  4.408695E-12  9.499866E-12
         5   2 -1.413119E+03 -1.413119E+03  1.451984E-10 -2.569871E-11  1.064369E-11  5.815872E-12
         5   3 -1.413119E+03 -1.413119E+03  1.677848E-10 -4.010840E-11  1.325584E-11  8.273884E-12
         5   4 -1.413119E+03 -1.413119E+03  1.320614E-10 -3.676603E-11  1.637334E-11  7.628421E-12
         5   5 -1.413119E+03 -1.413119E+03  1.862226E-10 -2.039526E-11 -9.260151E-13  4.508644E-12
         5   6 -1.413119E+03 -1.413119E+03  1.611010E-10 -2.162307E-11  5.773103E-12 -1.384661E-12
         5   7 -1.413119E+03 -1.413119E+03  1.712419E-10 -2.783032E-11  5.974222E-12  3.562886E-12
         5   8 -1.413119E+03 -1.413119E+03  1.408194E-10 -2.905813E-11  8.496243E-12  4.537758E-13
         6   1 -1.413119E+03 -1.413119E+03  1.445069E-10  2.822253E-11 -1.076940E-11  2.475247E-12
         6   2 -1.413119E+03 -1.413119E+03  1.592572E-10  2.552818E-11 -2.888081E-12 -6.775437E-12
         6   3 -1.413119E+03 -1.413119E+03  1.412803E-10  3.669782E-11 -5.636565E-12  5.102353E-12
         6   4 -1.413119E+03 -1.413119E+03  1.666324E-10  3.366241E-11  1.780943E-13 -9.174707E-12
         6   5 -1.413119E+03 -1.413119E+03  1.666324E-10  1.909924E-11 -9.721571E-12  3.071129E-12
         6   6 -1.413119E+03 -1.413119E+03  1.710114E-10  1.241450E-11 -1.945340E-12 -1.947380E-12
         6   7 -1.413119E+03 -1.413119E+03  1.590268E-10  1.991778E-11 -8.599010E-13  6.188627E-12
         6   8 -1.413119E+03 -1.413119E+03  1.719333E-10  1.336947E-11  4.394310E-12 -4.767217E-12
         7   1 -1.413119E+03 -1.413119E+03  1.295261E-10 -2.836109E-11  2.922017E-13 -9.701856E-12
         7   2 -1.413119E+03 -1.413119E+03  1.537259E-10 -1.337799E-11  6.796477E-12 -1.473631E-12
         7   3 -1.413119E+03 -1.413119E+03  1.518821E-10 -3.804926E-12 -2.314194E-12 -2.626186E-12
         7   4 -1.413119E+03 -1.413119E+03  1.783865E-10  1.117817E-11 -3.925485E-12 -7.250836E-14
         7   5 -1.413119E+03 -1.413119E+03  1.583353E-10 -2.206644E-11 -5.432551E-12 -9.524570E-12
         7   6 -1.413119E+03 -1.413119E+03  1.696285E-10 -1.824659E-11  1.093616E-12 -5.699515E-13
         7   7 -1.413119E+03 -1.413119E+03  1.622534E-10 -5.149973E-12 -7.053684E-12 -2.308787E-12
         7   8 -1.413119E+03 -1.413119E+03  1.774647E-10 -1.330125E-12 -8.664975E-12  4.458626E-13
         8   1 -1.413119E+03 -1.413119E+03  1.652496E-10  1.596151E-11  1.630491E-12  6.539966E-13
         8   2 -1.413119E+03 -1.413119E+03  1.196158E-10  3.357714E-11  1.437195E-11 -3.586546E-12
         8   3 -1.413119E+03 -1.413119E+03  1.871445E-10 -1.268735E-11  9.142020E-12  4.438282E-13
         8   4 -1.413119E+03 -1.413119E+03  1.433546E-10  5.013550E-12  9.387216E-12 -9.287525E-13
         8   5 -1.413119E+03 -1.413119E+03  1.889883E-10  1.937208E-11  9.435146E-13 -1.239554E-12
         8   6 -1.413119E+03 -1.413119E+03  1.500383E-10  1.964493E-11  1.343978E-11 -4.723063E-12
         8   7 -1.413119E+03 -1.413119E+03  1.841484E-10 -4.638386E-12  9.211463E-12 -2.150283E-12
         8   8 -1.413119E+03 -1.413119E+03  1.472726E-10 -4.297328E-12  9.246491E-12 -1.930111E-12
         9   1 -1.413119E+03 -1.413119E+03  1.290652E-10 -3.465147E-11 -1.355541E-11 -3.820205E-12
         9   2 -1.413119E+03 -1.413119E+03  1.654800E-10 -2.619324E-11 -2.486540E-12  4.945040E-12
         9   3 -1.413119E+03 -1.413119E+03  1.442765E-10 -1.787143E-11 -7.828927E-12 -5.976229E-13
         9   4 -1.413119E+03 -1.413119E+03  1.707809E-10 -9.208561E-12 -1.663987E-12  1.197036E-12
         9   5 -1.413119E+03 -1.413119E+03  1.585658E-10 -1.036816E-11 -9.942482E-12 -2.915606E-12
         9   6 -1.413119E+03 -1.413119E+03  1.788475E-10 -9.958888E-12  1.739380E-12  1.781499E-12
         9   7 -1.413119E+03 -1.413119E+03  1.611010E-10 -3.547001E-12 -7.496620E-12 -1.834166E-13
         9   8 -1.413119E+03 -1.413119E+03  1.719333E-10 -2.864886E-12 -1.892129E-12 -2.851040E-12

 strains (elem, integ.pnt.,exx,eyy,ezz,exy,exz,eyz) forset EALL and time  0.9037813E+00

         1   1 -4.729452E-03 -4.729452E-03  4.053816E-03 -2.925608E-17 -3.866828E-18  5.483082E-18
         1   2 -4.729452E-03 -4.729452E-03  4.053816E-03 -8.942729E-17 -2.844247E-17  1.135722E-18
         1   3 -4.729452E-03 -4.729452E-03  4.053816E-03 -4.902989E-17  3.156430E-18  9.907238E-18
         1   4 -4.729452E-03 -4.729452E-03  4.053816E-03 -1.092011E-16  3.318290E-18 -8.470554E-19
         1   5 -4.729452E-03 -4.729452E-03  4.053816E-03 -1.985475E-17  1.006710E-17  1.642340E-17
         1   6 -4.729452E-03 -4.729452E-03  4.053816E-03 -4.564434E-17 -1.450854E-17  6.578664E-18
         1   7 -4.729452E-03 -4.729452E-03  4.053816E-03 -4.844990E-17  1.159299E-17  2.084755E-17
         1   8 -4.729452E-03 -4.729452E-03  4.053816E-03 -7.423949E-17  1.175485E-17  4.595887E-18
         2   1 -4.729452E-03 -4.729452E-03  4.053816E-03  1.072453E-16  3.661327E-17 -4.154866E-18
         2   2 -4.729452E-03 -4.729452E-03  4.053816E-03  7.433390E-17  2.700962E-17  1.031983E-17
         2   3 -4.729452E-03 -4.729452E-03  4.053816E-03  1.206931E-16 -1.979270E-17 -1.537711E-17
         2   4 -4.729452E-03 -4.729452E-03  4.053816E-03  8.832125E-17 -4.245300E-17  2.090789E-17
         2   5 -4.729452E-03 -4.729452E-03  4.053816E-03  3.086118E-17  2.178126E-17 -4.535872E-18
         2   6 -4.729452E-03 -4.729452E-03  4.053816E-03 -1.877568E-17  1.120644E-17  2.753349E-17
         2   7 -4.729452E-03 -4.729452E-03  4.053816E-03  7.531855E-17 -1.874330E-17 -1.554231E-17
         2   8 -4.729452E-03 -4.729452E-03  4.053816E-03  2.611331E-17 -3.600829E-17  3.818876E-17
         3   1 -4.729452E-03 -4.729452E-03  4.053816E-03 -3.194024E-17  5.182768E-18  5.177594E-18
         3   2 -4.729452E-03 -4.729452E-03  4.053816E-03 -2.460262E-17  9.744250E-19  3.808350E-18
         3   3 -4.729452E-03 -4.729452E-03  4.053816E-03 -9.328494E-17  4.114860E-17  1.963703E-17
         3   4 -4.729452E-03 -4.729452E-03  4.053816E-03 -8.724219E-17  1.136648E-17  2.938213E-17
         3   5 -4.729452E-03 -4.729452E-03  4.053816E-03  3.339698E-17  1.403136E-17  4.252770E-18
         3   6 -4.729452E-03 -4.729452E-03  4.053816E-03 -5.449265E-18  1.219695E-17 -1.182614E-17
         3   7 -4.729452E-03 -4.729452E-03  4.053816E-03 -1.230131E-17  3.770431E-17  1.876616E-17
         3   8 -4.729452E-03 -4.729452E-03  4.053816E-03 -5.287405E-17  4.900814E-18  1.411229E-17
         4   1 -4.729452E-03 -4.729452E-03  4.053816E-03  1.170783E-16  4.665045E-19  6.337590E-17
         4   2 -4.729452E-03 -4.729452E-03  4.053816E-03  1.746462E-16  2.033474E-17  6.915978E-17
         4   3 -4.729452E-03 -4.729452E-03  4.053816E-03  1.794481E-16 -6.549284E-18  8.711527E-17
         4   4 -4.729452E-03 -4.729452E-03  4.053816E-03  2.370160E-16 -1.771758E-17  8.173085E-17
         4   5 -4.729452E-03 -4.729452E-03  4.053816E-03  1.026188E-16 -1.809441E-17 -9.942434E-18
         4   6 -4.729452E-03 -4.729452E-03  4.053816E-03  1.165387E-16  1.719877E-18  7.576695E-18
         4   7 -4.729452E-03 -4.729452E-03  4.053816E-03  1.483711E-16 -1.280914E-17  1.617087E-17
         4   8 -4.729452E-03 -4.729452E-03  4.053816E-03  1.622910E-16 -2.424720E-17  1.906871E-17
         5   1 -4.729452E-03 -4.729452E-03  4.053816E-03 -1.836564E-16  2.695151E-17  5.833168E-17
         5   2 -4.729452E-03 -4.729452E-03  4.053816E-03 -1.626147E-16  6.536613E-17  3.554638E-17
         5   3 -4.729452E-03 -4.729452E-03  4.053816E-03 -2.537955E-16  8.137407E-17  5.077824E-17
         5   4 -4.729452E-03 -4.729452E-03  4.053816E-03 -2.326458E-16  1.005814E-16  4.671563E-17
         5   5 -4.729452E-03 -4.729452E-03  4.053816E-03 -1.290559E-16 -6.491561E-18  2.703476E-17
         5   6 -4.729452E-03 -4.729452E-03  4.053816E-03 -1.368251E-16  3.478257E-17 -9.601874E-18
         5   7 -4.729452E-03 -4.729452E-03  4.053816E-03 -1.761030E-16  3.570017E-17  2.120782E-17
         5   8 -4.729452E-03 -4.729452E-03  4.053816E-03 -1.838722E-16  5.123866E-17  1.731614E-18
         6   1 -4.729452E-03 -4.729452E-03  4.053816E-03  1.785848E-16 -6.631892E-17  1.528731E-17
         6   2 -4.729452E-03 -4.729452E-03  4.053816E-03  1.615356E-16 -1.776112E-17 -4.155845E-17
         6   3 -4.729452E-03 -4.729452E-03  4.053816E-03  2.322142E-16 -3.454740E-17  3.147324E-17
         6   4 -4.729452E-03 -4.729452E-03  4.053816E-03  2.130069E-16  1.277467E-18 -5.634256E-17
         6   5 -4.729452E-03 -4.729452E-03  4.053816E-03  1.208550E-16 -5.977161E-17  1.906199E-17
         6   6 -4.729452E-03 -4.729452E-03  4.053816E-03  7.855574E-17 -1.186124E-17 -1.130664E-17
         6   7 -4.729452E-03 -4.729452E-03  4.053816E-03  1.260345E-16 -4.626461E-18  3.826930E-17
         6   8 -4.729452E-03 -4.729452E-03  4.053816E-03  8.459848E-17  2.774541E-17 -2.867907E-17
         7   1 -4.729452E-03 -4.729452E-03  4.053816E-03 -1.794616E-16  1.570768E-18 -5.978577E-17
         7   2 -4.729452E-03 -4.729452E-03  4.053816E-03 -8.465244E-17  4.164444E-17 -9.048882E-18
         7   3 -4.729452E-03 -4.729452E-03  4.053816E-03 -2.407658E-17 -1.444584E-17 -1.619165E-17
         7   4 -4.729452E-03 -4.729452E-03  4.053816E-03  7.073253E-17 -2.437321E-17 -4.163831E-19
         7   5 -4.729452E-03 -4.729452E-03  4.053816E-03 -1.396307E-16 -3.432520E-17 -5.872004E-17
         7   6 -4.729452E-03 -4.729452E-03  4.053816E-03 -1.154597E-16  5.883362E-18 -3.393937E-18
         7   7 -4.729452E-03 -4.729452E-03  4.053816E-03 -3.258768E-17 -4.416430E-17 -1.426267E-17
         7   8 -4.729452E-03 -4.729452E-03  4.053816E-03 -8.416686E-18 -5.409168E-17  2.864624E-18
         8   1 -4.729452E-03 -4.729452E-03  4.053816E-03  1.010002E-16  1.002480E-17  3.955379E-18
         8   2 -4.729452E-03 -4.729452E-03  4.053816E-03  2.124674E-16  8.852658E-17 -2.214459E-17
         8   3 -4.729452E-03 -4.729452E-03  4.053816E-03 -8.028224E-17  5.632896E-17  2.660504E-18
         8   4 -4.729452E-03 -4.729452E-03  4.053816E-03  3.172443E-17  5.783964E-17 -5.770060E-18
         8   5 -4.729452E-03 -4.729452E-03  4.053816E-03  1.225815E-16  5.732497E-18 -7.902615E-18
         8   6 -4.729452E-03 -4.729452E-03  4.053816E-03  1.243080E-16  8.272359E-17 -2.927866E-17
         8   7 -4.729452E-03 -4.729452E-03  4.053816E-03 -2.935049E-17  5.676439E-17 -1.351374E-17
         8   8 -4.729452E-03 -4.729452E-03  4.053816E-03 -2.719237E-17  5.698021E-17 -1.206428E-17
         9   1 -4.729452E-03 -4.729452E-03  4.053816E-03 -2.192655E-16 -8.335966E-17 -2.351022E-17
         9   2 -4.729452E-03 -4.729452E-03  4.053816E-03 -1.657440E-16 -1.516293E-17  3.033756E-17
         9   3 -4.729452E-03 -4.729452E-03  4.053816E-03 -1.130857E-16 -4.823313E-17 -3.655475E-18
         9   4 -4.729452E-03 -4.729452E-03  4.053816E-03 -5.826936E-17 -1.025014E-17  7.245631E-18
         9   5 -4.729452E-03 -4.729452E-03  4.053816E-03 -6.560699E-17 -6.067457E-17 -1.786099E-17
         9   6 -4.729452E-03 -4.729452E-03  4.053816E-03 -6.301724E-17  1.129889E-17  1.049518E-17
         9   7 -4.729452E-03 -4.729452E-03  4.053816E-03 -2.244450E-17 -4.618006E-17 -1.027621E-18
         9   8 -4.729452E-03 -4.729452E-03  4.053816E-03 -1.812825E-17 -1.165006E-17 -1.804554E-17

 displacements (vx,vy,vz) for set NALL and time  0.9127813E+00

         1  0.000000E+00  0.000000E+00  0.000000E+00
         2 -2.460322E+00  0.000000E+00  0.000000E+00
         3 -1.246156E+01  0.000000E+00  0.000000E+00
         4 -1.492188E+01  0.000000E+00  0.000000E+00
         5 -2.492312E+01  0.000000E+00  0.000000E+00
         6 -2.738344E+01  0.000000E+00  0.000000E+00
         7  0.000000E+00 -2.460322E+00  0.000000E+00
         8 -2.460322E+00 -2.460322E+00  0.000000E+00
         9 -1.246156E+01 -2.460322E+00  0.000000E+00
        10 -1.492188E+01 -2.460322E+00  0.000000E+00
        11 -2.492312E+01 -2.460322E+00  0.000000E+00
        12 -2.738344E+01 -2.460322E+00  0.000000E+00
        13  0.000000E+00 -1.246156E+01  0.000000E+00
        14 -2.460322E+00 -1.246156E+01  0.000000E+00
        15 -1.246156E+01 -1.246156E+01  0.000000E+00
        16 -1.492188E+01 -1.246156E+01  0.000000E+00
        17 -2.492312E+01 -1.246156E+01  0.000000E+00
        18 -2.738344E+01 -1.246156E+01  0.000000E+00
        19  0.000000E+00 -1.492188E+01  0.000000E+00
        20 -2.460322E+00 -1.492188E+01  0.000000E+00
        21 -1.246156E+01 -1.492188E+01  0.000000E+00
        22 -1.492188E+01 -1.492188E+01  0.000000E+00
        23 -2.492312E+01 -1.492188E+01  0.000000E+00
        24 -2.738344E+01 -1.492188E+01  0.000000E+00
        25  0.000000E+00 -2.492312E+01  0.000000E+00
        26 -2.460322E+00 -2.492312E+01  0.000000E+00
        27 -1.246156E+01 -2.492312E+01  0.000000E+00
        28 -1.492188E+01 -2.492312E+01  0.000000E+00
        29 -2.492312E+01 -2.492312E+01  0.000000E+00
        30 -2.738344E+01 -2.492312E+01  0.000000E+00
        31  0.000000E+00 -2.738344E+01  0.000000E+00
        32 -2.460322E+00 -2.738344E+01  0.000000E+00
        33 -1.246156E+01 -2.738344E+01  0.000000E+00
        34 -1.492188E+01 -2.738344E+01  0.000000E+00
        35 -2.492312E+01 -2.738344E+01  0.000000E+00
        36 -2.738344E+01 -2.738344E+01  0.000000E+00
        37  0.000000E+00  0.000000E+00  2.938952E+00
        38 -2.460322E+00  0.000000E+00  2.938952E+00
        39 -1.246156E+01  0.000000E+00  2.938952E+00
        40 -1.492188E+01  0.000000E+00  2.938952E+00
        41 -2.492312E+01  0.000000E+00  2.938952E+00
        42 -2.738344E+01  0.000000E+00  2.938952E+00
        43  0.000000E+00 -2.460322E+00  2.938952E+00
        44 -2.460322E+00 -2.460322E+00  2.938952E+00
        45 -1.246156E+01 -2.460322E+00  2.938952E+00
        46 -1.492188E+01 -2.460322E+00  2.938952E+00
        47 -2.492312E+01 -2.460322E+00  2.938952E+00
        48 -2.738344E+01 -2.460322E+00  2.938952E+00
        49  0.000000E+00 -1.246156E+01  2.938952E+00
        50 -2.460322E+00 -1.246156E+01  2.938952E+00
        51 -1.246156E+01 -1.246156E+01  2.938952E+00
        52 -1.492188E+01 -1.246156E+01  2.938952E+00
        53 -2.492312E+01 -1.246156E+01  2.938952E+00
        54 -2.738344E+01 -1.246156E+01  2.938952E+00
        55  0.000000E+00 -1.492188E+01  2.938952E+00
        56 -2.460322E+00 -1.492188E+01  2.938952E+00
        57 -1.246156E+01 -1.492188E+01  2.938952E+00
        58 -1.492188E+01 -1.492188E+01  2.938952E+00
        59 -2.492312E+01 -1.492188E+01  2.938952E+00
        60 -2.738344E+01 -1.492188E+01  2.938952E+00
        61  0.000000E+00 -2.492312E+01  2.938952E+00
        62 -2.460322E+00 -2.492312E+01  2.938952E+00
        63 -1.246156E+01 -2.492312E+01  2.938952E+00
        64 -1.492188E+01 -2.492312E+01  2.938952E+00
        65 -2.492312E+01 -2.492312E+01  2.938952E+00
        66 -2.738344E+01 -2.492312E+01  2.938952E+00
        67  0.000000E+00 -2.738344E+01  2.938952E+00
        68 -2.460322E+00 -2.738344E+01  2.938952E+00
        69 -1.246156E+01 -2.738344E+01  2.938952E+00
        70 -1.492188E+01 -2.738344E+01  2.938952E+00
        71 -2.492312E+01 -2.738344E+01  2.938952E+00
        72 -2.738344E+01 -2.738344E+01  2.938952E+00

 stresses (elem, integ.pnt.,sxx,syy,szz,sxy,sxz,syz) for set EALL and time  0.9127813E+00

         1   1 -1.466404E+03 -1.466404E+03  2.566489E-10 -2.783165E-12 -4.905075E-13  1.738184E-12
         1   2 -1.466404E+03 -1.466404E+03  2.598772E-10 -1.027450E-11 -3.152641E-12  9.405023E-13
         1   3 -1.466404E+03 -1.466404E+03  2.418911E-10 -2.934355E-12 -8.644733E-14  7.763012E-12
         1   4 -1.466404E+03 -1.466404E+03  2.476559E-10 -1.042569E-11 -2.599711E-12  3.867535E-12
         1   5 -1.466404E+03 -1.466404E+03  2.637973E-10 -4.267378E-12  8.761979E-13  4.712694E-13
         1   6 -1.466404E+03 -1.466404E+03  2.605690E-10 -1.153299E-11 -1.785935E-12  5.803862E-13
         1   7 -1.466404E+03 -1.466404E+03  2.490394E-10 -8.611416E-12  2.100281E-12  6.531126E-12
         1   8 -1.466404E+03 -1.466404E+03  2.483476E-10 -1.587703E-11 -4.129827E-13  3.507419E-12
         2   1 -1.466404E+03 -1.466404E+03  2.541124E-10  8.758346E-12  2.859196E-12  3.886487E-13
         2   2 -1.466404E+03 -1.466404E+03  2.601078E-10  5.266081E-12  8.450824E-13  1.859112E-12
         2   3 -1.466404E+03 -1.466404E+03  2.453499E-10  1.723135E-11  3.759060E-13  2.437791E-12
         2   4 -1.466404E+03 -1.466404E+03  2.522677E-10  1.382426E-11 -4.563052E-12  7.669433E-12
         2   5 -1.466404E+03 -1.466404E+03  2.541124E-10  6.763070E-12  2.255768E-13 -6.005857E-13
         2   6 -1.466404E+03 -1.466404E+03  2.681785E-10 -5.962405E-13 -1.954921E-12  1.056483E-12
         2   7 -1.466404E+03 -1.466404E+03  2.393545E-10  2.071510E-11 -2.211260E-12  1.448556E-12
         2   8 -1.466404E+03 -1.466404E+03  2.543430E-10  1.315136E-11 -7.255302E-12  6.884279E-12
         3   1 -1.466404E+03 -1.466404E+03  2.614914E-10 -3.728632E-12  3.180353E-12  8.628000E-13
         3   2 -1.466404E+03 -1.466404E+03  2.474253E-10 -4.001199E-12  5.882756E-13  1.333085E-12
         3   3 -1.466404E+03 -1.466404E+03  2.573407E-10 -1.427570E-11  5.537616E-12  4.575775E-12
         3   4 -1.466404E+03 -1.466404E+03  2.382016E-10 -1.420756E-11  1.264191E-12  8.176774E-12
         3   5 -1.466404E+03 -1.466404E+03  2.651809E-10  1.516154E-12  4.035086E-12 -5.689071E-13
         3   6 -1.466404E+03 -1.466404E+03  2.573407E-10 -1.345800E-12  1.758262E-12 -1.836271E-12
         3   7 -1.466404E+03 -1.466404E+03  2.557266E-10 -4.769924E-12  4.565737E-12  3.135311E-12
         3   8 -1.466404E+03 -1.466404E+03  2.437358E-10 -7.495594E-12  1.521997E-13  4.909458E-12
         4   1 -1.466404E+03 -1.466404E+03  2.402769E-10  1.959502E-11 -3.766456E-13  7.189623E-12
         4   2 -1.466404E+03 -1.466404E+03  2.637973E-10  2.813403E-11  2.465007E-12  1.036278E-11
         4   3 -1.466404E+03 -1.466404E+03  2.195236E-10  4.054861E-11 -1.568779E-12  2.337259E-11
         4   4 -1.466404E+03 -1.466404E+03  2.541124E-10  4.908763E-11 -6.236269E-12  1.215797E-11
         4   5 -1.466404E+03 -1.466404E+03  2.799387E-10  1.763168E-11 -4.246808E-12 -5.931068E-12
         4   6 -1.466404E+03 -1.466404E+03  2.739433E-10  1.594517E-11 -1.396399E-12  1.485070E-12
         4   7 -1.466404E+03 -1.466404E+03  2.439664E-10  2.035735E-11 -1.152259E-12  1.000670E-11
         4   8 -1.466404E+03 -1.466404E+03  2.483476E-10  1.867084E-11 -5.819749E-12  3.385343E-12
         5   1 -1.466404E+03 -1.466404E+03  2.635667E-10 -3.371314E-11  3.521460E-12  8.268991E-12
         5   2 -1.466404E+03 -1.466404E+03  2.354345E-10 -2.715449E-11  1.047453E-11  5.791779E-12
         5   3 -1.466404E+03 -1.466404E+03  2.580325E-10 -4.456472E-11  1.237141E-11  9.179721E-12
         5   4 -1.466404E+03 -1.466404E+03  2.227519E-10 -3.827864E-11  8.973688E-12  1.627393E-11
         5   5 -1.466404E+03 -1.466404E+03  2.790164E-10 -2.275935E-11 -7.695614E-13  2.351894E-12
         5   6 -1.466404E+03 -1.466404E+03  2.725598E-10 -3.039123E-11  6.008370E-12 -3.208214E-12
         5   7 -1.466404E+03 -1.466404E+03  2.515759E-10 -1.976111E-11  5.343912E-12  3.157540E-12
         5   8 -1.466404E+03 -1.466404E+03  2.375098E-10 -2.759742E-11  1.630937E-12  7.239067E-12
         6   1 -1.466404E+03 -1.466404E+03  2.425828E-10  2.672861E-11 -7.139594E-12 -7.460865E-13
         6   2 -1.466404E+03 -1.466404E+03  2.483476E-10  2.097063E-11 -2.043009E-12 -7.316315E-12
         6   3 -1.466404E+03 -1.466404E+03  2.411993E-10  2.930096E-11 -1.406212E-12  1.705878E-12
         6   4 -1.466404E+03 -1.466404E+03  2.483476E-10  2.388369E-11  2.751351E-13 -1.348129E-12
         6   5 -1.466404E+03 -1.466404E+03  2.591855E-10  2.412219E-11 -6.472699E-12  2.692428E-12
         6   6 -1.466404E+03 -1.466404E+03  2.723292E-10  1.308322E-11 -1.691367E-12 -3.357548E-12
         6   7 -1.466404E+03 -1.466404E+03  2.501924E-10  3.134521E-11 -5.435522E-13  4.899197E-12
         6   8 -1.466404E+03 -1.466404E+03  2.649503E-10  2.057881E-11  1.137795E-12  2.491662E-12
         7   1 -1.466404E+03 -1.466404E+03  2.089164E-10 -4.106180E-11  7.225566E-13 -2.075189E-11
         7   2 -1.466404E+03 -1.466404E+03  2.471947E-10 -3.039975E-11  7.292509E-12 -1.434630E-12
         7   3 -1.466404E+03 -1.466404E+03  2.368180E-10 -7.808621E-12 -2.778707E-12 -3.938412E-12
         7   4 -1.466404E+03 -1.466404E+03  2.695621E-10  2.853436E-12 -3.339156E-12  6.495398E-13
         7   5 -1.466404E+03 -1.466404E+03  2.575713E-10 -1.628588E-11 -3.900438E-12 -1.624022E-11
         7   6 -1.466404E+03 -1.466404E+03  2.642585E-10 -1.536597E-11  2.667325E-12  8.660190E-13
         7   7 -1.466404E+03 -1.466404E+03  2.707151E-10 -4.020364E-12 -9.755413E-12  8.285597E-14
         7   8 -1.466404E+03 -1.466404E+03  2.718680E-10 -3.100450E-12 -1.035089E-11  2.267142E-12
         8   1 -1.466404E+03 -1.466404E+03  2.571101E-10  2.371333E-11 -2.554644E-13 -1.512887E-12
         8   2 -1.466404E+03 -1.466404E+03  2.082246E-10  2.936910E-11  1.002527E-11 -1.313360E-11
         8   3 -1.466404E+03 -1.466404E+03  2.700233E-10 -8.313296E-12  5.506265E-12  4.486850E-13
         8   4 -1.466404E+03 -1.466404E+03  2.287473E-10 -2.640493E-12  6.837332E-12 -2.152299E-12
         8   5 -1.466404E+03 -1.466404E+03  2.815529E-10  1.281065E-11  2.214797E-13  3.608158E-13
         8   6 -1.466404E+03 -1.466404E+03  2.531901E-10  5.860192E-12  1.043216E-11 -8.010060E-12
         8   7 -1.466404E+03 -1.466404E+03  2.750963E-10 -6.269043E-12  8.857050E-12  1.831995E-12
         8   8 -1.466404E+03 -1.466404E+03  2.531901E-10 -1.315136E-11  9.557612E-12  2.603605E-12
         9   1 -1.466404E+03 -1.466404E+03  2.264414E-10 -2.071510E-11 -1.555449E-11 -5.346457E-13
         9   2 -1.466404E+03 -1.466404E+03  2.520371E-10 -1.928412E-11 -3.347204E-12 -4.653078E-12
         9   3 -1.466404E+03 -1.466404E+03  2.361263E-10 -7.495594E-12 -4.168658E-12  7.263648E-13
         9   4 -1.466404E+03 -1.466404E+03  2.578019E-10 -5.689838E-12 -1.016132E-12 -6.336862E-13
         9   5 -1.466404E+03 -1.466404E+03  2.524983E-10 -1.008498E-11 -1.357972E-11  2.627143E-12
         9   6 -1.466404E+03 -1.466404E+03  2.843200E-10 -2.044253E-11 -1.600120E-12 -3.916922E-12
         9   7 -1.466404E+03 -1.466404E+03  2.444276E-10  6.814177E-12 -3.853724E-12  3.257649E-12
         9   8 -1.466404E+03 -1.466404E+03  2.716374E-10 -3.270805E-12 -1.261647E-12  2.514183E-13

 strains (elem, integ.pnt.,exx,eyy,ezz,exy,exz,eyz) forset EALL and time  0.9127813E+00

         1   1 -4.908537E-03 -4.908537E-03  4.207317E-03 -1.762599E-17 -2.965926E-18  1.065409E-17
         1   2 -4.908537E-03 -4.908537E-03  4.207317E-03 -6.506918E-17 -1.936471E-17  5.777269E-18
         1   3 -4.908537E-03 -4.908537E-03  4.207317E-03 -1.858349E-17 -4.380326E-19  4.776712E-17
         1   4 -4.908537E-03 -4.908537E-03  4.207317E-03 -6.602667E-17 -1.591978E-17  2.380784E-17
         1   5 -4.908537E-03 -4.908537E-03  4.207317E-03 -2.702562E-17  5.608014E-18  2.706185E-18
         1   6 -4.908537E-03 -4.908537E-03  4.207317E-03 -7.303931E-17 -1.079077E-17  3.518104E-18
         1   7 -4.908537E-03 -4.908537E-03  4.207317E-03 -5.453674E-17  1.328027E-17  4.003499E-17
         1   8 -4.908537E-03 -4.908537E-03  4.207317E-03 -1.005504E-16 -2.201474E-18  2.154867E-17
         2   1 -4.908537E-03 -4.908537E-03  4.207317E-03  5.546726E-17  1.750394E-17  2.352745E-18
         2   2 -4.908537E-03 -4.908537E-03  4.207317E-03  3.335048E-17  5.096965E-18  1.141968E-17
         2   3 -4.908537E-03 -4.908537E-03  4.207317E-03  1.091274E-16  2.215197E-18  1.497549E-17
         2   4 -4.908537E-03 -4.908537E-03  4.207317E-03  8.755007E-17 -2.820886E-17  4.721085E-17
         2   5 -4.908537E-03 -4.908537E-03  4.207317E-03  4.283103E-17  9.820931E-19 -3.853154E-18
         2   6 -4.908537E-03 -4.908537E-03  4.207317E-03 -3.776035E-18 -1.244980E-17  6.383943E-18
         2   7 -4.908537E-03 -4.908537E-03  4.207317E-03  1.311903E-16 -1.399933E-17  8.769592E-18
         2   8 -4.908537E-03 -4.908537E-03  4.207317E-03  8.328855E-17 -4.507071E-17  4.228325E-17
         3   1 -4.908537E-03 -4.908537E-03  4.207317E-03 -2.361371E-17  1.962596E-17  5.257777E-18
         3   2 -4.908537E-03 -4.908537E-03  4.207317E-03 -2.533989E-17  3.658726E-18  8.078463E-18
         3   3 -4.908537E-03 -4.908537E-03  4.207317E-03 -9.040907E-17  3.407243E-17  2.812976E-17
         3   4 -4.908537E-03 -4.908537E-03  4.207317E-03 -8.997752E-17  7.748070E-18  5.023470E-17
         3   5 -4.908537E-03 -4.908537E-03  4.207317E-03  9.601918E-18  2.498808E-17 -3.724940E-18
         3   6 -4.908537E-03 -4.908537E-03  4.207317E-03 -8.523051E-18  1.096280E-17 -1.180553E-17
         3   7 -4.908537E-03 -4.908537E-03  4.207317E-03 -3.020828E-17  2.797541E-17  1.909310E-17
         3   8 -4.908537E-03 -4.908537E-03  4.207317E-03 -4.747016E-17  7.879526E-19  2.974039E-17
         4   1 -4.908537E-03 -4.908537E-03  4.207317E-03  1.240967E-16 -2.481553E-18  4.374490E-17
         4   2 -4.908537E-03 -4.908537E-03  4.207317E-03  1.781749E-16  1.502307E-17  6.346976E-17
         4   3 -4.908537E-03 -4.908537E-03  4.207317E-03  2.567974E-16 -9.647952E-18  1.434322E-16
         4   4 -4.908537E-03 -4.908537E-03  4.207317E-03  3.108756E-16 -3.839976E-17  7.452815E-17
         4   5 -4.908537E-03 -4.908537E-03  4.207317E-03  1.116628E-16 -2.676077E-17 -3.856294E-17
         4   6 -4.908537E-03 -4.908537E-03  4.207317E-03  1.009820E-16 -9.202208E-18  7.783939E-18
         4   7 -4.908537E-03 -4.908537E-03  4.207317E-03  1.289246E-16 -7.034942E-18  5.961398E-17
         4   8 -4.908537E-03 -4.908537E-03  4.207317E-03  1.182438E-16 -3.578675E-17  1.948965E-17
         5   1 -4.908537E-03 -4.908537E-03  4.207317E-03 -2.135078E-16  2.151558E-17  5.069106E-17
         5   2 -4.908537E-03 -4.908537E-03  4.207317E-03 -1.719714E-16  6.434661E-17  3.531034E-17
         5   3 -4.908537E-03 -4.908537E-03  4.207317E-03 -2.822317E-16  7.591084E-17  5.630117E-17
         5   4 -4.908537E-03 -4.908537E-03  4.207317E-03 -2.424215E-16  5.498082E-17  9.988054E-17
         5   5 -4.908537E-03 -4.908537E-03  4.207317E-03 -1.441367E-16 -5.403868E-18  1.355861E-17
         5   6 -4.908537E-03 -4.908537E-03  4.207317E-03 -1.924699E-16  3.634829E-17 -2.113267E-17
         5   7 -4.908537E-03 -4.908537E-03  4.207317E-03 -1.251486E-16  3.180839E-17  1.852140E-17
         5   8 -4.908537E-03 -4.908537E-03  4.207317E-03 -1.747765E-16  8.936405E-18  4.322077E-17
         6   1 -4.908537E-03 -4.908537E-03  4.207317E-03  1.692743E-16 -4.394752E-17 -4.465988E-18
         6   2 -4.908537E-03 -4.908537E-03  4.207317E-03  1.328086E-16 -1.255249E-17 -4.490818E-17
         6   3 -4.908537E-03 -4.908537E-03  4.207317E-03  1.855652E-16 -8.599299E-18  1.063815E-17
         6   4 -4.908537E-03 -4.908537E-03  4.207317E-03  1.512572E-16  1.757826E-18 -8.147514E-18
         6   5 -4.908537E-03 -4.908537E-03  4.207317E-03  1.527676E-16 -3.974791E-17  1.707750E-17
         6   6 -4.908537E-03 -4.908537E-03  4.207317E-03  8.285700E-17 -1.029484E-17 -2.009596E-17
         6   7 -4.908537E-03 -4.908537E-03  4.207317E-03  1.985116E-16 -3.123890E-18  3.067123E-17
         6   8 -4.908537E-03 -4.908537E-03  4.207317E-03  1.303272E-16  7.233235E-18  1.594117E-17
         7   1 -4.908537E-03 -4.908537E-03  4.207317E-03 -2.600475E-16  4.260022E-18 -1.276430E-16
         7   2 -4.908537E-03 -4.908537E-03  4.207317E-03 -1.925239E-16  4.473103E-17 -8.747782E-18
         7   3 -4.908537E-03 -4.908537E-03  4.207317E-03 -4.945258E-17 -1.740820E-17 -2.407171E-17
         7   4 -4.908537E-03 -4.908537E-03  4.207317E-03  1.807103E-17 -2.086058E-17  4.090738E-18
         7   5 -4.908537E-03 -4.908537E-03  4.207317E-03 -1.031397E-16 -2.474130E-17 -9.933140E-17
         7   6 -4.908537E-03 -4.908537E-03  4.207317E-03 -9.731382E-17  1.571622E-17  5.671290E-18
         7   7 -4.908537E-03 -4.908537E-03  4.207317E-03 -2.546127E-17 -6.117612E-17  1.219026E-18
         7   8 -4.908537E-03 -4.908537E-03  4.207317E-03 -1.963538E-17 -6.484427E-17  1.430223E-17
         8   1 -4.908537E-03 -4.908537E-03  4.207317E-03  1.501783E-16 -1.554965E-18 -9.236733E-18
         8   2 -4.908537E-03 -4.908537E-03  4.207317E-03  1.859967E-16  6.177454E-17 -8.071026E-17
         8   3 -4.908537E-03 -4.908537E-03  4.207317E-03 -5.264872E-17  3.405056E-17  2.846580E-18
         8   4 -4.908537E-03 -4.908537E-03  4.207317E-03 -1.672244E-17  4.224995E-17 -1.306529E-17
         8   5 -4.908537E-03 -4.908537E-03  4.207317E-03  8.113081E-17  1.441087E-18  2.525768E-18
         8   6 -4.908537E-03 -4.908537E-03  4.207317E-03  3.711303E-17  6.433904E-17 -4.861574E-17
         8   7 -4.908537E-03 -4.908537E-03  4.207317E-03 -3.970231E-17  5.505561E-17  1.158825E-17
         8   8 -4.908537E-03 -4.908537E-03  4.207317E-03 -8.328855E-17  5.937107E-17  1.676262E-17
         9   1 -4.908537E-03 -4.908537E-03  4.207317E-03 -1.311903E-16 -9.573664E-17 -3.179257E-18
         9   2 -4.908537E-03 -4.908537E-03  4.207317E-03 -1.221278E-16 -2.053960E-17 -2.862464E-17
         9   3 -4.908537E-03 -4.908537E-03  4.207317E-03 -4.747016E-17 -2.567506E-17  4.588587E-18
         9   4 -4.908537E-03 -4.908537E-03  4.207317E-03 -3.603416E-17 -6.255452E-18 -3.864148E-18
         9   5 -4.908537E-03 -4.908537E-03  4.207317E-03 -6.386894E-17 -8.335602E-17  1.661630E-17
         9   6 -4.908537E-03 -4.908537E-03  4.207317E-03 -1.294641E-16 -9.561500E-18 -2.398854E-17
         9   7 -4.908537E-03 -4.908537E-03  4.207317E-03  4.315469E-17 -2.373112E-17  2.050022E-17
         9   8 -4.908537E-03 -4.908537E-03  4.207317E-03 -2.071425E-17 -7.763889E-18  1.688498E-18

 displacements (vx,vy,vz) for set NALL and time  0.9217813E+00

         1  0.000000E+00  0.000000E+00  0.000000E+00
         2 -2.550305E+00  0.000000E+00  0.000000E+00
         3 -1.255157E+01  0.000000E+00  0.000000E+00
         4 -1.510187E+01  0.000000E+00  0.000000E+00
         5 -2.510313E+01  0.000000E+00  0.000000E+00
         6 -2.765344E+01  0.000000E+00  0.000000E+00
         7  0.000000E+00 -2.550305E+00  0.000000E+00
         8 -2.550305E+00 -2.550305E+00  0.000000E+00
         9 -1.255157E+01 -2.550305E+00  0.000000E+00
        10 -1.510187E+01 -2.550305E+00  0.000000E+00
        11 -2.510313E+01 -2.550305E+00  0.000000E+00
        12 -2.765344E+01 -2.550305E+00  0.000000E+00
        13  0.000000E+00 -1.255157E+01  0.000000E+00
        14 -2.550305E+00 -1.255157E+01  0.000000E+00
        15 -1.255157E+01 -1.255157E+01  0.000000E+00
        16 -1.510187E+01 -1.255157E+01  0.000000E+00
        17 -2.510313E+01 -1.255157E+01  0.000000E+00
        18 -2.765344E+01 -1.255157E+01  0.000000E+00
        19  0.000000E+00 -1.510187E+01  0.000000E+00
        20 -2.550305E+00 -1.510187E+01  0.000000E+00
        21 -1.255157E+01 -1.510187E+01  0.000000E+00
        22 -1.510187E+01 -1.510187E+01  0.000000E+00
        23 -2.510313E+01 -1.510187E+01  0.000000E+00
        24 -2.765344E+01 -1.510187E+01  0.000000E+00
        25  0.000000E+00 -2.510313E+01  0.000000E+00
        26 -2.550305E+00 -2.510313E+01  0.000000E+00
        27 -1.255157E+01 -2.510313E+01  0.000000E+00
        28 -1.510187E+01 -2.510313E+01  0.000000E+00
        29 -2.510313E+01 -2.510313E+01  0.000000E+00
        30 -2.765344E+01 -2.510313E+01  0.000000E+00
        31  0.000000E+00 -2.765344E+01  0.000000E+00
        32 -2.550305E+00 -2.765344E+01  0.000000E+00
        33 -1.255157E+01 -2.765344E+01  0.000000E+00
        34 -1.510187E+01 -2.765344E+01  0.000000E+00
        35 -2.510313E+01 -2.765344E+01  0.000000E+00
        36 -2.765344E+01 -2.765344E+01  0.000000E+00
        37  0.000000E+00  0.000000E+00  3.045935E+00
        38 -2.550305E+00  0.000000E+00  3.045935E+00
        39 -1.255157E+01  0.000000E+00  3.045935E+00
        40 -1.510187E+01  0.000000E+00  3.045935E+00
        41 -2.510313E+01  0.000000E+00  3.045935E+00
        42 -2.765344E+01  0.000000E+00  3.045935E+00
        43  0.000000E+00 -2.550305E+00  3.045935E+00
        44 -2.550305E+00 -2.550305E+00  3.045935E+00
        45 -1.255157E+01 -2.550305E+00  3.045935E+00
        46 -1.510187E+01 -2.550305E+00  3.045935E+00
        47 -2.510313E+01 -2.550305E+00  3.045935E+00
        48 -2.765344E+01 -2.550305E+00  3.045935E+00
        49  0.000000E+00 -1.255157E+01  3.045935E+00
        50 -2.550305E+00 -1.255157E+01  3.045935E+00
        51 -1.255157E+01 -1.255157E+01  3.045935E+00
        52 -1.510187E+01 -1.255157E+01  3.045935E+00
        53 -2.510313E+01 -1.255157E+01  3.045935E+00
        54 -2.765344E+01 -1.255157E+01  3.045935E+00
        55  0.000000E+00 -1.510187E+01  3.045935E+00
        56 -2.550305E+00 -1.510187E+01  3.045935E+00
        57 -1.255157E+01 -1.510187E+01  3.045935E+00
        58 -1.510187E+01 -1.510187E+01  3.045935E+00
        59 -2.510313E+01 -1.510187E+01  3.045935E+00
        60 -2.765344E+01 -1.510187E+01  3.045935E+00
        61  0.000000E+00 -2.510313E+01  3.045935E+00
        62 -2.550305E+00 -2.510313E+01  3.045935E+00
        63 -1.255157E+01 -2.510313E+01  3.045935E+00
        64 -1.510187E+01 -2.510313E+01  3.045935E+00
        65 -2.510313E+01 -2.510313E+01  3.045935E+00
        66 -2.765344E+01 -2.510313E+01  3.045935E+00
        67  0.000000E+00 -2.765344E+01  3.045935E+00
        68 -2.550305E+00 -2.765344E+01  3.045935E+00
        69 -1.255157E+01 -2.765344E+01  3.045935E+00
        70 -1.510187E+01 -2.765344E+01  3.045935E+00
        71 -2.510313E+01 -2.765344E+01  3.045935E+00
        72 -2.765344E+01 -2.765344E+01  3.045935E+00

 stresses (elem, integ.pnt.,sxx,syy,szz,sxy,sxz,syz) for set EALL and time  0.9217813E+00

         1   1 -1.519668E+03 -1.519668E+03  2.357862E-10 -3.720559E-12 -7.239679E-13  1.017978E-12
         1   2 -1.519668E+03 -1.519668E+03  2.413233E-10 -1.432064E-11 -4.397537E-12  3.576527E-13
         1   3 -1.519668E+03 -1.519668E+03  2.242507E-10 -3.269582E-12 -2.436918E-13  1.954979E-12
         1   4 -1.519668E+03 -1.519668E+03  2.302492E-10 -1.386967E-11 -3.019666E-12 -8.967901E-13
         1   5 -1.519668E+03 -1.519668E+03  2.297877E-10 -4.373625E-12  1.032640E-12  2.926391E-12
         1   6 -1.519668E+03 -1.519668E+03  2.304799E-10 -1.375905E-11 -2.640929E-12  2.608713E-12
         1   7 -1.519668E+03 -1.519668E+03  2.198672E-10 -6.883779E-12  1.838214E-12  3.828364E-12
         1   8 -1.519668E+03 -1.519668E+03  2.217129E-10 -1.626920E-11 -9.377610E-13  1.354270E-12
         2   1 -1.519668E+03 -1.519668E+03  2.353248E-10  1.079154E-11  6.653426E-12  7.367432E-13
         2   2 -1.519668E+03 -1.519668E+03  2.360169E-10  3.643978E-12  3.851180E-12  1.718199E-12
         2   3 -1.519668E+03 -1.519668E+03  2.228664E-10  2.094064E-11  4.044381E-12  3.031082E-12
         2   4 -1.519668E+03 -1.519668E+03  2.272499E-10  1.387818E-11 -2.505868E-12  5.632627E-12
         2   5 -1.519668E+03 -1.519668E+03  2.341712E-10  7.232648E-12  9.325236E-13  4.418067E-13
         2   6 -1.519668E+03 -1.519668E+03  2.383240E-10 -4.135373E-12 -2.027348E-12  2.477268E-12
         2   7 -1.519668E+03 -1.519668E+03  2.147916E-10  1.953666E-11 -6.399060E-13  2.771173E-12
         2   8 -1.519668E+03 -1.519668E+03  2.221743E-10  8.236710E-12 -6.874902E-12  6.391161E-12
         3   1 -1.519668E+03 -1.519668E+03  2.410926E-10 -7.487918E-13  3.152249E-12  5.774687E-13
         3   2 -1.519668E+03 -1.519668E+03  2.240200E-10 -3.437635E-12  1.786154E-12  1.380121E-12
         3   3 -1.519668E+03 -1.519668E+03  2.364783E-10 -1.355483E-11  6.378405E-12  1.978591E-12
         3   4 -1.519668E+03 -1.519668E+03  2.136380E-10 -1.644789E-11  2.175037E-12  7.271322E-12
         3   5 -1.519668E+03 -1.519668E+03  2.392469E-10  6.245604E-12  4.659270E-12  6.989132E-13
         3   6 -1.519668E+03 -1.519668E+03  2.320948E-10 -1.531620E-13  1.716913E-12 -7.213641E-13
         3   7 -1.519668E+03 -1.519668E+03  2.290956E-10 -4.765039E-13  5.196022E-12  2.135064E-12
         3   8 -1.519668E+03 -1.519668E+03  2.161758E-10 -7.147558E-12  1.132766E-12  5.228535E-12
         4   1 -1.519668E+03 -1.519668E+03  2.237893E-10  1.752003E-11  5.134432E-13  9.851044E-12
         4   2 -1.519668E+03 -1.519668E+03  2.394776E-10  2.528023E-11  6.601760E-12  1.307523E-11
         4   3 -1.519668E+03 -1.519668E+03  2.037174E-10  3.559314E-11 -1.155597E-12  1.857303E-11
         4   4 -1.519668E+03 -1.519668E+03  2.316334E-10  4.335334E-11 -4.238067E-12  9.318474E-12
         4   5 -1.519668E+03 -1.519668E+03  2.544738E-10  1.499285E-11 -4.240241E-12 -2.220710E-12
         4   6 -1.519668E+03 -1.519668E+03  2.438611E-10  1.024483E-11  1.883104E-12  5.215300E-12
         4   7 -1.519668E+03 -1.519668E+03  2.150223E-10  1.568208E-11 -1.233751E-12  6.571335E-12
         4   8 -1.519668E+03 -1.519668E+03  2.159451E-10  1.092555E-11 -4.307464E-12  1.257129E-12
         5   1 -1.519668E+03 -1.519668E+03  2.367091E-10 -3.243630E-11  1.977121E-13  9.937008E-12
         5   2 -1.519668E+03 -1.519668E+03  2.196365E-10 -2.712669E-11  7.711233E-12  8.652013E-12
         5   3 -1.519668E+03 -1.519668E+03  2.272499E-10 -3.914139E-11  1.115936E-11  1.287937E-11
         5   4 -1.519668E+03 -1.519668E+03  2.021025E-10 -3.374669E-11  6.500631E-12  1.739152E-11
         5   5 -1.519668E+03 -1.519668E+03  2.581651E-10 -1.620113E-11 -2.644210E-12  2.857212E-12
         5   6 -1.519668E+03 -1.519668E+03  2.537816E-10 -2.743301E-11  5.088236E-12 -1.559563E-12
         5   7 -1.519668E+03 -1.519668E+03  2.226357E-10 -1.443126E-11  5.330030E-12  5.939682E-12
         5   8 -1.519668E+03 -1.519668E+03  2.104081E-10 -2.559507E-11  4.961561E-13  7.153834E-12
         6   1 -1.519668E+03 -1.519668E+03  2.240200E-10  2.673527E-11 -6.892844E-12  4.572647E-12
         6   2 -1.519668E+03 -1.519668E+03  2.265578E-10  2.370607E-11 -1.883830E-12 -3.397476E-12
         6   3 -1.519668E+03 -1.519668E+03  2.177908E-10  2.763723E-11 -8.780093E-13  5.028011E-12
         6   4 -1.519668E+03 -1.519668E+03  2.210207E-10  2.484627E-11  1.728328E-13  3.082800E-12
         6   5 -1.519668E+03 -1.519668E+03  2.344020E-10  2.409748E-11 -6.677298E-12  4.103229E-12
         6   6 -1.519668E+03 -1.519668E+03  2.512438E-10  1.456740E-11 -1.423087E-12 -3.388142E-12
         6   7 -1.519668E+03 -1.519668E+03  2.198672E-10  3.430828E-11  9.618369E-14  4.523566E-12
         6   8 -1.519668E+03 -1.519668E+03  2.378626E-10  2.545892E-11 -2.540970E-13  3.171194E-12
         7   1 -1.519668E+03 -1.519668E+03  1.951812E-10 -3.404663E-11  1.190381E-12 -1.512071E-11
         7   2 -1.519668E+03 -1.519668E+03  2.279421E-10 -2.253183E-11  8.675442E-12  4.850564E-12
         7   3 -1.519668E+03 -1.519668E+03  2.175601E-10 -6.137115E-12 -2.677053E-12 -2.720774E-12
         7   4 -1.519668E+03 -1.519668E+03  2.461682E-10  5.377687E-12 -4.253316E-12  1.417813E-12
         7   5 -1.519668E+03 -1.519668E+03  2.346327E-10 -1.091704E-11 -3.023370E-12 -1.336910E-11
         7   6 -1.519668E+03 -1.519668E+03  2.367091E-10 -1.174242E-11  4.494530E-12  4.883614E-12
         7   7 -1.519668E+03 -1.519668E+03  2.378626E-10 -3.020694E-12 -8.436991E-12 -1.739781E-12
         7   8 -1.519668E+03 -1.519668E+03  2.360169E-10 -3.846067E-12 -9.943198E-12  1.626003E-12
         8   1 -1.519668E+03 -1.519668E+03  2.288649E-10  1.810715E-11  5.658309E-12 -4.278699E-12
         8   2 -1.519668E+03 -1.519668E+03  1.792621E-10  2.947517E-11  1.789186E-11 -1.115277E-11
         8   3 -1.519668E+03 -1.519668E+03  2.500903E-10 -5.037327E-12  1.141169E-11 -5.274384E-15
         8   4 -1.519668E+03 -1.519668E+03  2.074088E-10  6.143496E-12  9.870456E-12 -1.835305E-12
         8   5 -1.519668E+03 -1.519668E+03  2.611644E-10  1.334211E-11 -5.254783E-14 -2.330972E-12
         8   6 -1.519668E+03 -1.519668E+03  2.244814E-10  6.194550E-12  1.239117E-11 -7.670195E-12
         8   7 -1.519668E+03 -1.519668E+03  2.547045E-10 -1.089152E-12  8.444976E-12  1.171835E-12
         8   8 -1.519668E+03 -1.519668E+03  2.244814E-10 -8.168638E-12  7.254022E-12  2.260427E-12
         9   1 -1.519668E+03 -1.519668E+03  1.995647E-10 -2.505049E-11 -1.804704E-11  1.586030E-12
         9   2 -1.519668E+03 -1.519668E+03  2.228664E-10 -1.786890E-11 -3.562931E-12 -6.823118E-12
         9   3 -1.519668E+03 -1.519668E+03  2.152530E-10 -1.347825E-11 -2.926327E-12  8.154129E-13
         9   4 -1.519668E+03 -1.519668E+03  2.350941E-10 -6.092442E-12 -9.647554E-13 -1.385092E-12
         9   5 -1.519668E+03 -1.519668E+03  2.277113E-10 -1.252524E-11 -1.617662E-11  3.439099E-12
         9   6 -1.519668E+03 -1.519668E+03  2.623179E-10 -2.246375E-11 -2.130364E-12 -6.345520E-12
         9   7 -1.519668E+03 -1.519668E+03  2.187136E-10  6.262622E-12 -2.492597E-12  3.298987E-12
         9   8 -1.519668E+03 -1.519668E+03  2.491674E-10 -3.539743E-12 -5.310251E-13 -1.529160E-12

 strains (elem, integ.pnt.,exx,eyy,ezz,exy,exz,eyz) forset EALL and time  0.9217813E+00

         1   1 -5.087602E-03 -5.087602E-03  4.360802E-03 -2.358247E-17 -4.385920E-18  6.351223E-18
         1   2 -5.087602E-03 -5.087602E-03  4.360802E-03 -9.077026E-17 -2.701107E-17  2.301174E-18
         1   3 -5.087602E-03 -5.087602E-03  4.360802E-03 -2.072399E-17 -1.411117E-18  1.212212E-17
         1   4 -5.087602E-03 -5.087602E-03  4.360802E-03 -8.791177E-17 -1.850807E-17 -5.424815E-18
         1   5 -5.087602E-03 -5.087602E-03  4.360802E-03 -2.772187E-17  6.639394E-18  1.832934E-17
         1   6 -5.087602E-03 -5.087602E-03  4.360802E-03 -8.721064E-17 -1.598575E-17  1.642991E-17
         1   7 -5.087602E-03 -5.087602E-03  4.360802E-03 -4.363229E-17  1.165592E-17  2.388450E-17
         1   8 -5.087602E-03 -5.087602E-03  4.360802E-03 -1.031211E-16 -5.441031E-18  8.703921E-18
         2   1 -5.087602E-03 -5.087602E-03  4.360802E-03  6.840129E-17  4.073045E-17  4.523249E-18
         2   2 -5.087602E-03 -5.087602E-03  4.360802E-03  2.309707E-17  2.347170E-17  1.061384E-17
         2   3 -5.087602E-03 -5.087602E-03  4.360802E-03  1.327306E-16  2.470903E-17  1.865385E-17
         2   4 -5.087602E-03 -5.087602E-03  4.360802E-03  8.796571E-17 -1.563331E-17  3.472190E-17
         2   5 -5.087602E-03 -5.087602E-03  4.360802E-03  4.584356E-17  4.823317E-18  2.672085E-18
         2   6 -5.087602E-03 -5.087602E-03  4.360802E-03 -2.621173E-17 -1.340624E-17  1.537761E-17
         2   7 -5.087602E-03 -5.087602E-03  4.360802E-03  1.238316E-16 -4.691808E-18  1.701842E-17
         2   8 -5.087602E-03 -5.087602E-03  4.360802E-03  5.220773E-17 -4.309253E-17  3.948900E-17
         3   1 -5.087602E-03 -5.087602E-03  4.360802E-03 -4.746157E-18  1.947201E-17  3.562692E-18
         3   2 -5.087602E-03 -5.087602E-03  4.360802E-03 -2.178918E-17  1.105837E-17  8.407721E-18
         3   3 -5.087602E-03 -5.087602E-03  4.360802E-03 -8.591623E-17  3.924317E-17  1.219207E-17
         3   4 -5.087602E-03 -5.087602E-03  4.360802E-03 -1.042537E-16  1.335504E-17  4.469207E-17
         3   5 -5.087602E-03 -5.087602E-03  4.360802E-03  3.958727E-17  2.890610E-17  4.324936E-18
         3   6 -5.087602E-03 -5.087602E-03  4.360802E-03 -9.708049E-19  1.078441E-17 -4.781437E-18
         3   7 -5.087602E-03 -5.087602E-03  4.360802E-03 -3.020282E-18  3.185491E-17  1.317005E-17
         3   8 -5.087602E-03 -5.087602E-03  4.360802E-03 -4.530423E-17  6.829717E-18  3.186952E-17
         4   1 -5.087602E-03 -5.087602E-03  4.360802E-03  1.110493E-16  2.958254E-18  6.013714E-17
         4   2 -5.087602E-03 -5.087602E-03  4.360802E-03  1.602367E-16  4.045559E-17  8.019147E-17
         4   3 -5.087602E-03 -5.087602E-03  4.360802E-03  2.256043E-16 -7.121285E-18  1.138550E-16
         4   4 -5.087602E-03 -5.087602E-03  4.360802E-03  2.747917E-16 -2.610591E-17  5.705395E-17
         4   5 -5.087602E-03 -5.087602E-03  4.360802E-03  9.503101E-17 -2.687815E-17 -1.567218E-17
         4   6 -5.087602E-03 -5.087602E-03  4.360802E-03  6.493606E-17  1.083492E-17  3.086801E-17
         4   7 -5.087602E-03 -5.087602E-03  4.360802E-03  9.939963E-17 -7.610787E-18  3.847716E-17
         4   8 -5.087602E-03 -5.087602E-03  4.360802E-03  6.925075E-17 -2.654148E-17  6.490020E-18
         5   1 -5.087602E-03 -5.087602E-03  4.360802E-03 -2.055949E-16  1.100904E-18  6.090322E-17
         5   2 -5.087602E-03 -5.087602E-03  4.360802E-03 -1.719403E-16  4.737594E-17  5.285239E-17
         5   3 -5.087602E-03 -5.087602E-03  4.360802E-03 -2.480946E-16  6.847647E-17  7.902491E-17
         5   4 -5.087602E-03 -5.087602E-03  4.360802E-03 -2.139007E-16  3.978379E-17  1.066781E-16
         5   5 -5.087602E-03 -5.087602E-03  4.360802E-03 -1.026896E-16 -1.672401E-17  1.648349E-17
         5   6 -5.087602E-03 -5.087602E-03  4.360802E-03 -1.738819E-16  3.089936E-17 -1.122081E-17
         5   7 -5.087602E-03 -5.087602E-03  4.360802E-03 -9.147139E-17  3.188876E-17  3.546812E-17
         5   8 -5.087602E-03 -5.087602E-03  4.360802E-03 -1.622323E-16  2.117413E-18  4.244210E-17
         6   1 -5.087602E-03 -5.087602E-03  4.360802E-03  1.694594E-16 -4.243909E-17  2.814412E-17
         6   2 -5.087602E-03 -5.087602E-03  4.360802E-03  1.502590E-16 -1.158906E-17 -2.092778E-17
         6   3 -5.087602E-03 -5.087602E-03  4.360802E-03  1.751763E-16 -5.379013E-18  3.094867E-17
         6   4 -5.087602E-03 -5.087602E-03  4.360802E-03  1.574861E-16  1.093019E-18  1.898258E-17
         6   5 -5.087602E-03 -5.087602E-03  4.360802E-03  1.527400E-16 -4.106974E-17  2.521018E-17
         6   6 -5.087602E-03 -5.087602E-03  4.360802E-03  9.233433E-17 -8.709575E-18 -2.087743E-17
         6   7 -5.087602E-03 -5.087602E-03  4.360802E-03  2.174603E-16  7.025415E-19  2.779900E-17
         6   8 -5.087602E-03 -5.087602E-03  4.360802E-03  1.613693E-16 -1.454803E-18  1.951679E-17
         7   1 -5.087602E-03 -5.087602E-03  4.360802E-03 -2.158018E-16  7.148868E-18 -9.305148E-17
         7   2 -5.087602E-03 -5.087602E-03  4.360802E-03 -1.428162E-16  5.324862E-17  2.988434E-17
         7   3 -5.087602E-03 -5.087602E-03  4.360802E-03 -3.889961E-17 -1.673657E-17 -1.668150E-17
         7   4 -5.087602E-03 -5.087602E-03  4.360802E-03  3.408604E-17 -2.644462E-17  8.742368E-18
         7   5 -5.087602E-03 -5.087602E-03  4.360802E-03 -6.919681E-17 -1.929789E-17 -8.204929E-17
         7   6 -5.087602E-03 -5.087602E-03  4.360802E-03 -7.442837E-17  2.700411E-17  3.011237E-17
         7   7 -5.087602E-03 -5.087602E-03  4.360802E-03 -1.914643E-17 -5.288871E-17 -1.042547E-17
         7   8 -5.087602E-03 -5.087602E-03  4.360802E-03 -2.437799E-17 -6.216529E-17  1.004907E-17
         8   1 -5.087602E-03 -5.087602E-03  4.360802E-03  1.147707E-16  3.461642E-17 -2.628681E-17
         8   2 -5.087602E-03 -5.087602E-03  4.360802E-03  1.868260E-16  1.099617E-16 -6.851746E-17
         8   3 -5.087602E-03 -5.087602E-03  4.360802E-03 -3.192869E-17  7.015904E-17  3.279302E-20
         8   4 -5.087602E-03 -5.087602E-03  4.360802E-03  3.894006E-17  6.066673E-17 -1.113211E-17
         8   5 -5.087602E-03 -5.087602E-03  4.360802E-03  8.456789E-17 -1.190603E-18 -1.411960E-17
         8   6 -5.087602E-03 -5.087602E-03  4.360802E-03  3.926366E-17  7.544905E-17 -4.660148E-17
         8   7 -5.087602E-03 -5.087602E-03  4.360802E-03 -6.903501E-18  5.153851E-17  7.453845E-18
         8   8 -5.087602E-03 -5.087602E-03  4.360802E-03 -5.177626E-17  4.420354E-17  1.455820E-17
         9   1 -5.087602E-03 -5.087602E-03  4.360802E-03 -1.587805E-16 -1.110561E-16  9.864081E-18
         9   2 -5.087602E-03 -5.087602E-03  4.360802E-03 -1.132606E-16 -2.184990E-17 -4.200557E-17
         9   3 -5.087602E-03 -5.087602E-03  4.360802E-03 -8.543083E-17 -1.800460E-17  5.117924E-18
         9   4 -5.087602E-03 -5.087602E-03  4.360802E-03 -3.861646E-17 -5.923473E-18 -8.512286E-18
         9   5 -5.087602E-03 -5.087602E-03  4.360802E-03 -7.939027E-17 -9.927525E-17  2.153602E-17
         9   6 -5.087602E-03 -5.087602E-03  4.360802E-03 -1.423847E-16 -1.276575E-17 -3.901411E-17
         9   7 -5.087602E-03 -5.087602E-03  4.360802E-03  3.969513E-17 -1.528230E-17  2.067308E-17
         9   8 -5.087602E-03 -5.087602E-03  4.360802E-03 -2.243638E-17 -3.201174E-18 -9.350629E-18

 displacements (vx,vy,vz) for set NALL and time  0.9307813E+00

         1  0.000000E+00  0.000000E+00  0.000000E+00
         2 -2.640297E+00  0.000000E+00  0.000000E+00
         3 -1.264157E+01  0.000000E+00  0.000000E+00
         4 -1.528187E+01  0.000000E+00  0.000000E+00
         5 -2.528314E+01  0.000000E+00  0.000000E+00
         6 -2.792344E+01  0.000000E+00  0.000000E+00
         7  0.000000E+00 -2.640297E+00  0.000000E+00
         8 -2.640297E+00 -2.640297E+00  0.000000E+00
         9 -1.264157E+01 -2.640297E+00  0.000000E+00
        10 -1.528187E+01 -2.640297E+00  0.000000E+00
        11 -2.528314E+01 -2.640297E+00  0.000000E+00
        12 -2.792344E+01 -2.640297E+00  0.000000E+00
        13  0.000000E+00 -1.264157E+01  0.000000E+00
        14 -2.640297E+00 -1.264157E+01  0.000000E+00
        15 -1.264157E+01 -1.264157E+01  0.000000E+00
        16 -1.528187E+01 -1.264157E+01  0.000000E+00
        17 -2.528314E+01 -1.264157E+01  0.000000E+00
        18 -2.792344E+01 -1.264157E+01  0.000000E+00
        19  0.000000E+00 -1.528187E+01  0.000000E+00
        20 -2.640297E+00 -1.528187E+01  0.000000E+00
        21 -1.264157E+01 -1.528187E+01  0.000000E+00
        22 -1.528187E+01 -1.528187E+01  0.000000E+00
        23 -2.528314E+01 -1.528187E+01  0.000000E+00
        24 -2.792344E+01 -1.528187E+01  0.000000E+00
        25  0.000000E+00 -2.528314E+01  0.000000E+00
        26 -2.640297E+00 -2.528314E+01  0.000000E+00
        27 -1.264157E+01 -2.528314E+01  0.000000E+00
        28 -1.528187E+01 -2.528314E+01  0.000000E+00
        29 -2.528314E+01 -2.528314E+01  0.000000E+00
        30 -2.792344E+01 -2.528314E+01  0.000000E+00
        31  0.000000E+00 -2.792344E+01  0.000000E+00
        32 -2.640297E+00 -2.792344E+01  0.000000E+00
        33 -1.264157E+01 -2.792344E+01  0.000000E+00
        34 -1.528187E+01 -2.792344E+01  0.000000E+00
        35 -2.528314E+01 -2.792344E+01  0.000000E+00
        36 -2.792344E+01 -2.792344E+01  0.000000E+00
        37  0.000000E+00  0.000000E+00  3.152891E+00
        38 -2.640297E+00  0.000000E+00  3.152891E+00
        39 -1.264157E+01  0.000000E+00  3.152891E+00
        40 -1.528187E+01  0.000000E+00  3.152891E+00
        41 -2.528314E+01  0.000000E+00  3.152891E+00
        42 -2.792344E+01  0.000000E+00  3.152891E+00
        43  0.000000E+00 -2.640297E+00  3.152891E+00
        44 -2.640297E+00 -2.640297E+00  3.152891E+00
        45 -1.264157E+01 -2.640297E+00  3.152891E+00
        46 -1.528187E+01 -2.640297E+00  3.152891E+00
        47 -2.528314E+01 -2.640297E+00  3.152891E+00
        48 -2.792344E+01 -2.640297E+00  3.152891E+00
        49  0.000000E+00 -1.264157E+01  3.152891E+00
        50 -2.640297E+00 -1.264157E+01  3.152891E+00
        51 -1.264157E+01 -1.264157E+01  3.152891E+00
        52 -1.528187E+01 -1.264157E+01  3.152891E+00
        53 -2.528314E+01 -1.264157E+01  3.152891E+00
        54 -2.792344E+01 -1.264157E+01  3.152891E+00
        55  0.000000E+00 -1.528187E+01  3.152891E+00
        56 -2.640297E+00 -1.528187E+01  3.152891E+00
        57 -1.264157E+01 -1.528187E+01  3.152891E+00
        58 -1.528187E+01 -1.528187E+01  3.152891E+00
        59 -2.528314E+01 -1.528187E+01  3.152891E+00
        60 -2.792344E+01 -1.528187E+01  3.152891E+00
        61  0.000000E+00 -2.528314E+01  3.152891E+00
        62 -2.640297E+00 -2.528314E+01  3.152891E+00
        63 -1.264157E+01 -2.528314E+01  3.152891E+00
        64 -1.528187E+01 -2.528314E+01  3.152891E+00
        65 -2.528314E+01 -2.528314E+01  3.152891E+00
        66 -2.792344E+01 -2.528314E+01  3.152891E+00
        67  0.000000E+00 -2.792344E+01  3.152891E+00
        68 -2.640297E+00 -2.792344E+01  3.152891E+00
        69 -1.264157E+01 -2.792344E+01  3.152891E+00
        70 -1.528187E+01 -2.792344E+01  3.152891E+00
        71 -2.528314E+01 -2.792344E+01  3.152891E+00
        72 -2.792344E+01 -2.792344E+01  3.152891E+00

 stresses (elem, integ.pnt.,sxx,syy,szz,sxy,sxz,syz) for set EALL and time  0.9307813E+00

         1   1 -1.572911E+03 -1.572911E+03  1.073356E-10 -3.725246E-12 -1.700696E-12  1.993870E-12
         1   2 -1.572911E+03 -1.572911E+03  1.174921E-10 -1.645441E-11 -8.638443E-12 -1.316409E-14
         1   3 -1.572911E+03 -1.572911E+03  8.933090E-11 -1.160288E-12  4.737883E-13  6.652604E-12
         1   4 -1.572911E+03 -1.572911E+03  9.879489E-11 -1.388945E-11 -4.281845E-13 -6.677512E-13
         1   5 -1.572911E+03 -1.572911E+03  1.027190E-10 -3.357609E-12  6.883622E-13  2.756981E-12
         1   6 -1.572911E+03 -1.572911E+03  1.015648E-10 -7.896756E-12 -6.249385E-12  5.765126E-13
         1   7 -1.572911E+03 -1.572911E+03  9.764075E-11 -8.041261E-12  2.659061E-12  7.380687E-12
         1   8 -1.572911E+03 -1.572911E+03  9.556328E-11 -1.258041E-11  1.792116E-12 -7.807441E-14
         2   1 -1.572911E+03 -1.572911E+03  1.091822E-10  1.679867E-11  6.775089E-12  1.055107E-12
         2   2 -1.572911E+03 -1.572911E+03  1.121830E-10  8.706408E-12 -8.873011E-13  5.335810E-13
         2   3 -1.572911E+03 -1.572911E+03  9.302416E-11  2.520332E-11  2.794456E-12  5.170905E-12
         2   4 -1.572911E+03 -1.572911E+03  9.948738E-11  1.719606E-11  1.008024E-12  1.746471E-12
         2   5 -1.572911E+03 -1.572911E+03  1.020265E-10  8.755284E-12  2.699382E-12 -1.069029E-13
         2   6 -1.572911E+03 -1.572911E+03  9.902572E-11  8.823287E-12 -4.849167E-12  6.831894E-13
         2   7 -1.572911E+03 -1.572911E+03  9.902572E-11  1.390645E-11  3.684994E-14  3.973867E-12
         2   8 -1.572911E+03 -1.572911E+03  9.925655E-11  1.349844E-11 -1.714554E-12  1.950768E-12
         3   1 -1.572911E+03 -1.572911E+03  1.144913E-10 -4.167260E-12  7.464974E-12 -2.014677E-13
         3   2 -1.572911E+03 -1.572911E+03  9.371665E-11 -4.677277E-12  1.755398E-12  2.005870E-12
         3   3 -1.572911E+03 -1.572911E+03  1.068739E-10 -1.742557E-11  2.631541E-12  1.637506E-12
         3   4 -1.572911E+03 -1.572911E+03  8.263685E-11 -1.769757E-11  5.298567E-13  1.124882E-11
         3   5 -1.572911E+03 -1.572911E+03  1.061814E-10 -6.596214E-12  7.827579E-12 -2.655649E-12
         3   6 -1.572911E+03 -1.572911E+03  1.017957E-10 -2.380077E-12  2.153032E-12 -1.772810E-12
         3   7 -1.572911E+03 -1.572911E+03  1.064123E-10 -9.792318E-12  1.697725E-12 -8.079182E-13
         3   8 -1.572911E+03 -1.572911E+03  9.810241E-11 -5.848190E-12 -8.943521E-13  7.477131E-12
         4   1 -1.572911E+03 -1.572911E+03  9.071587E-11  1.733844E-11  3.168845E-14  5.846733E-12
         4   2 -1.572911E+03 -1.572911E+03  1.126446E-10  2.069817E-11  5.268385E-12  1.040978E-11
         4   3 -1.572911E+03 -1.572911E+03  7.294202E-11  4.018718E-11 -9.483733E-13  1.649527E-11
         4   4 -1.572911E+03 -1.572911E+03  1.043348E-10  4.354691E-11 -1.850346E-12  6.766859E-12
         4   5 -1.572911E+03 -1.572911E+03  1.239553E-10  1.890461E-11 -5.132234E-12 -3.138189E-12
         4   6 -1.572911E+03 -1.572911E+03  1.161071E-10  1.394045E-11  1.044629E-13  5.221803E-12
         4   7 -1.572911E+03 -1.572911E+03  9.325499E-11  2.210072E-11 -2.613343E-12  7.335204E-12
         4   8 -1.572911E+03 -1.572911E+03  9.417831E-11  1.713656E-11 -3.515316E-12  1.263631E-12
         5   1 -1.572911E+03 -1.572911E+03  1.045656E-10 -3.094100E-11  1.133764E-12  4.409500E-12
         5   2 -1.572911E+03 -1.572911E+03  9.302416E-11 -2.815291E-11  7.999266E-12  7.617413E-12
         5   3 -1.572911E+03 -1.572911E+03  9.879489E-11 -3.434112E-11  6.938004E-12  6.756381E-12
         5   4 -1.572911E+03 -1.572911E+03  7.963607E-11 -3.146802E-11  7.568510E-12  1.126892E-11
         5   5 -1.572911E+03 -1.572911E+03  1.239553E-10 -1.564051E-11 -1.544872E-12  6.102648E-13
         5   6 -1.572911E+03 -1.572911E+03  1.151838E-10 -2.128469E-11  5.784751E-12  7.761958E-13
         5   7 -1.572911E+03 -1.572911E+03  1.043348E-10 -1.740857E-11  1.405449E-12  2.922117E-12
         5   8 -1.572911E+03 -1.572911E+03  8.794592E-11 -2.298475E-11  2.176067E-12  4.139061E-12
         6   1 -1.572911E+03 -1.572911E+03  1.029498E-10  2.677587E-11 -5.110203E-12  7.969456E-12
         6   2 -1.572911E+03 -1.572911E+03  9.948738E-11  2.330776E-11 -1.484798E-12  1.361305E-12
         6   3 -1.572911E+03 -1.572911E+03  8.309851E-11  2.203272E-11 -4.191484E-12  8.249680E-12
         6   4 -1.572911E+03 -1.572911E+03  7.940524E-11  1.849660E-11 -8.287895E-13  1.264485E-11
         6   5 -1.572911E+03 -1.572911E+03  1.121830E-10  1.870061E-11 -3.870830E-12  2.694663E-12
         6   6 -1.572911E+03 -1.572911E+03  1.306493E-10  1.421246E-11  4.901645E-13 -3.254422E-12
         6   7 -1.572911E+03 -1.572911E+03  9.233168E-11  2.828892E-11 -2.893456E-12  3.640421E-12
         6   8 -1.572911E+03 -1.572911E+03  1.117213E-10  2.407278E-11  1.029688E-12  8.067890E-12
         7   1 -1.572911E+03 -1.572911E+03  6.717129E-11 -3.737784E-11  9.176967E-13 -1.463326E-11
         7   2 -1.572911E+03 -1.572911E+03  1.006415E-10 -2.875643E-11  8.363351E-12  4.165099E-12
         7   3 -1.572911E+03 -1.572911E+03  8.702260E-11 -7.456867E-12 -2.498307E-12 -3.564391E-12
         7   4 -1.572911E+03 -1.572911E+03  1.163379E-10  1.164538E-12 -2.725990E-12  1.450423E-12
         7   5 -1.572911E+03 -1.572911E+03  1.064123E-10 -1.593802E-11 -4.133621E-12 -1.173213E-11
         7   6 -1.572911E+03 -1.572911E+03  1.117213E-10 -1.785058E-11  3.342683E-12  4.628936E-12
         7   7 -1.572911E+03 -1.572911E+03  1.087205E-10 -5.057664E-12 -9.036782E-12 -5.932046E-13
         7   8 -1.572911E+03 -1.572911E+03  1.110288E-10 -6.970226E-12 -9.264464E-12  2.649850E-12
         8   1 -1.572911E+03 -1.572911E+03  1.080281E-10  1.802059E-11  1.590835E-12  7.270594E-13
         8   2 -1.572911E+03 -1.572911E+03  6.694047E-11  1.926163E-11  1.038288E-11 -9.399536E-12
         8   3 -1.572911E+03 -1.572911E+03  1.161071E-10 -3.740121E-12  1.050200E-11  3.067226E-13
         8   4 -1.572911E+03 -1.572911E+03  7.409617E-11 -2.414078E-12  1.425000E-11 -1.610126E-12
         8   5 -1.572911E+03 -1.572911E+03  1.267252E-10  1.713656E-11 -1.608787E-12  2.981023E-12
         8   6 -1.572911E+03 -1.572911E+03  1.017957E-10  1.094836E-11  7.498511E-12 -7.156532E-12
         8   7 -1.572911E+03 -1.572911E+03  1.225703E-10  4.080133E-12  7.466895E-12  3.751641E-12
         8   8 -1.572911E+03 -1.572911E+03  9.740992E-11 -1.768057E-12  1.128495E-11 -1.063523E-14
         9   1 -1.572911E+03 -1.572911E+03  7.640446E-11 -1.101636E-11 -1.199465E-11 -3.269553E-12
         9   2 -1.572911E+03 -1.572911E+03  9.210085E-11 -1.213839E-11 -3.167581E-12 -1.013277E-11
         9   3 -1.572911E+03 -1.572911E+03  8.286768E-11 -1.496049E-12 -7.132477E-12  9.314210E-14
         9   4 -1.572911E+03 -1.572911E+03  1.008724E-10 -2.686087E-12 -2.088435E-12 -1.721693E-12
         9   5 -1.572911E+03 -1.572911E+03  1.006415E-10 -1.577651E-11 -1.081350E-11 -3.245810E-13
         9   6 -1.572911E+03 -1.572911E+03  1.285719E-10 -2.094468E-11 -2.494329E-12 -5.814492E-12
         9   7 -1.572911E+03 -1.572911E+03  1.008724E-10  1.088035E-12 -5.970467E-12  3.948844E-12
         9   8 -1.572911E+03 -1.572911E+03  1.301877E-10 -4.488146E-12 -3.659760E-13  2.223938E-12

 strains (elem, integ.pnt.,exx,eyy,ezz,exy,exz,eyz) forset EALL and time  0.9307813E+00

         1   1 -5.266652E-03 -5.266652E-03  4.514273E-03 -2.363213E-17 -1.036854E-17  1.231161E-17
         1   2 -5.266652E-03 -5.266652E-03  4.514273E-03 -1.043831E-16 -5.308970E-17 -5.361360E-20
         1   3 -5.266652E-03 -5.266652E-03  4.514273E-03 -7.360605E-18  3.014611E-18  4.099910E-17
         1   4 -5.266652E-03 -5.266652E-03  4.514273E-03 -8.811157E-17 -2.539545E-18 -4.084421E-18
         1   5 -5.266652E-03 -5.266652E-03  4.514273E-03 -2.129992E-17  4.633618E-18  1.710359E-17
         1   6 -5.266652E-03 -5.266652E-03  4.514273E-03 -5.009525E-17 -3.808755E-17  3.649277E-18
         1   7 -5.266652E-03 -5.266652E-03  4.514273E-03 -5.101196E-17  1.673709E-17  4.557538E-17
         1   8 -5.266652E-03 -5.266652E-03  4.514273E-03 -7.980729E-17  1.139863E-17 -3.815303E-19
         2   1 -5.266652E-03 -5.266652E-03  4.514273E-03  1.065670E-16  4.153798E-17  6.444340E-18
         2   2 -5.266652E-03 -5.266652E-03  4.514273E-03  5.523150E-17 -5.645390E-18  3.293068E-18
         2   3 -5.266652E-03 -5.266652E-03  4.514273E-03  1.598842E-16  1.708731E-17  3.178855E-17
         2   4 -5.266652E-03 -5.266652E-03  4.514273E-03  1.090879E-16  6.086849E-18  1.076126E-17
         2   5 -5.266652E-03 -5.266652E-03  4.514273E-03  5.554156E-17  1.594447E-17 -8.525332E-19
         2   6 -5.266652E-03 -5.266652E-03  4.514273E-03  5.597295E-17 -3.053789E-17  4.232271E-18
         2   7 -5.266652E-03 -5.266652E-03  4.514273E-03  8.821941E-17 -2.291462E-19  2.427598E-17
         2   8 -5.266652E-03 -5.266652E-03  4.514273E-03  8.563107E-17 -1.101392E-17  1.203775E-17
         3   1 -5.266652E-03 -5.266652E-03  4.514273E-03 -2.643617E-17  4.597247E-17 -1.348276E-18
         3   2 -5.266652E-03 -5.266652E-03  4.514273E-03 -2.967160E-17  1.081412E-17  1.218281E-17
         3   3 -5.266652E-03 -5.266652E-03  4.514273E-03 -1.105439E-16  1.614957E-17  9.975732E-18
         3   4 -5.266652E-03 -5.266652E-03  4.514273E-03 -1.122694E-16  3.207848E-18  6.909996E-17
         3   5 -5.266652E-03 -5.266652E-03  4.514273E-03 -4.184491E-17  4.821535E-17 -1.675831E-17
         3   6 -5.266652E-03 -5.266652E-03  4.514273E-03 -1.509868E-17  1.327269E-17 -1.154578E-17
         3   7 -5.266652E-03 -5.266652E-03  4.514273E-03 -6.212027E-17  1.025154E-17 -5.380375E-18
         3   8 -5.266652E-03 -5.266652E-03  4.514273E-03 -3.709961E-17 -5.709923E-18  4.540916E-17
         4   1 -5.266652E-03 -5.266652E-03  4.514273E-03  1.099912E-16 -3.448296E-20  3.560599E-17
         4   2 -5.266652E-03 -5.266652E-03  4.514273E-03  1.313046E-16  3.221198E-17  6.385891E-17
         4   3 -5.266652E-03 -5.266652E-03  4.514273E-03  2.549385E-16 -5.915890E-18  1.011774E-16
         4   4 -5.266652E-03 -5.266652E-03  4.514273E-03  2.762519E-16 -1.147005E-17  4.142659E-17
         4   5 -5.266652E-03 -5.266652E-03  4.514273E-03  1.199266E-16 -3.246254E-17 -2.080227E-17
         4   6 -5.266652E-03 -5.266652E-03  4.514273E-03  8.843511E-17 -2.160754E-19  3.125529E-17
         4   7 -5.266652E-03 -5.266652E-03  4.514273E-03  1.402020E-16 -1.637111E-17  4.369065E-17
         4   8 -5.266652E-03 -5.266652E-03  4.514273E-03  1.087105E-16 -2.192527E-17  6.881716E-18
         5   1 -5.266652E-03 -5.266652E-03  4.514273E-03 -1.962828E-16  6.876436E-18  2.698596E-17
         5   2 -5.266652E-03 -5.266652E-03  4.514273E-03 -1.785958E-16  4.915273E-17  4.659603E-17
         5   3 -5.266652E-03 -5.266652E-03  4.514273E-03 -2.178523E-16  4.247572E-17  4.143755E-17
         5   4 -5.266652E-03 -5.266652E-03  4.514273E-03 -1.996261E-16  4.635824E-17  6.908333E-17
         5   5 -5.266652E-03 -5.266652E-03  4.514273E-03 -9.921988E-17 -9.901491E-18  3.141355E-18
         5   6 -5.266652E-03 -5.266652E-03  4.514273E-03 -1.350253E-16  3.523277E-17  3.626829E-18
         5   7 -5.266652E-03 -5.266652E-03  4.514273E-03 -1.104360E-16  7.733889E-18  1.737725E-17
         5   8 -5.266652E-03 -5.266652E-03  4.514273E-03 -1.458101E-16  1.247919E-17  2.433253E-17
         6   1 -5.266652E-03 -5.266652E-03  4.514273E-03  1.698601E-16 -3.140737E-17  4.885040E-17
         6   2 -5.266652E-03 -5.266652E-03  4.514273E-03  1.478592E-16 -9.082896E-18  8.170959E-18
         6   3 -5.266652E-03 -5.266652E-03  4.514273E-03  1.397706E-16 -2.574059E-17  5.057596E-17
         6   4 -5.266652E-03 -5.266652E-03  4.514273E-03  1.173383E-16 -5.033833E-18  7.765104E-17
         6   5 -5.266652E-03 -5.266652E-03  4.514273E-03  1.186325E-16 -2.361616E-17  1.575705E-17
         6   6 -5.266652E-03 -5.266652E-03  4.514273E-03  9.016067E-17  3.237913E-18 -2.083814E-17
         6   7 -5.266652E-03 -5.266652E-03  4.514273E-03  1.794586E-16 -1.755547E-17  2.158083E-17
         6   8 -5.266652E-03 -5.266652E-03  4.514273E-03  1.527123E-16  6.602409E-18  4.888857E-17
         7   1 -5.266652E-03 -5.266652E-03  4.514273E-03 -2.371166E-16  5.429285E-18 -8.999660E-17
         7   2 -5.266652E-03 -5.266652E-03  4.514273E-03 -1.824244E-16  5.127804E-17  2.568791E-17
         7   3 -5.266652E-03 -5.266652E-03  4.514273E-03 -4.730469E-17 -1.567753E-17 -2.183686E-17
         7   4 -5.266652E-03 -5.266652E-03  4.514273E-03  7.387567E-18 -1.707955E-17  8.971515E-18
         7   5 -5.266652E-03 -5.266652E-03  4.514273E-03 -1.011072E-16 -2.629007E-17 -7.183857E-17
         7   6 -5.266652E-03 -5.266652E-03  4.514273E-03 -1.132401E-16  1.974742E-17  2.865602E-17
         7   7 -5.266652E-03 -5.266652E-03  4.514273E-03 -3.208469E-17 -5.673605E-17 -3.247441E-18
         7   8 -5.266652E-03 -5.266652E-03  4.514273E-03 -4.421755E-17 -5.813807E-17  1.646923E-17
         8   1 -5.266652E-03 -5.266652E-03  4.514273E-03  1.143186E-16  9.669868E-18  4.582646E-18
         8   2 -5.266652E-03 -5.266652E-03  4.514273E-03  1.221914E-16  6.380941E-17 -5.778585E-17
         8   3 -5.266652E-03 -5.266652E-03  4.514273E-03 -2.372649E-17  6.453181E-17  1.994302E-18
         8   4 -5.266652E-03 -5.266652E-03  4.514273E-03 -1.531437E-17  8.761122E-17 -9.820856E-18
         8   5 -5.266652E-03 -5.266652E-03  4.514273E-03  1.087105E-16 -1.037107E-17  1.874500E-17
         8   6 -5.266652E-03 -5.266652E-03  4.514273E-03  6.945391E-17  4.570973E-17 -4.371791E-17
         8   7 -5.266652E-03 -5.266652E-03  4.514273E-03  2.588345E-17  4.547282E-17  2.349030E-17
         8   8 -5.266652E-03 -5.266652E-03  4.514273E-03 -1.121616E-17  6.898361E-17  2.828899E-19
         9   1 -5.266652E-03 -5.266652E-03  4.514273E-03 -6.988531E-17 -7.383677E-17 -1.998541E-17
         9   2 -5.266652E-03 -5.266652E-03  4.514273E-03 -7.700325E-17 -1.948154E-17 -6.222175E-17
         9   3 -5.266652E-03 -5.266652E-03  4.514273E-03 -9.490597E-18 -4.386749E-17  7.213465E-19
         9   4 -5.266652E-03 -5.266652E-03  4.514273E-03 -1.703994E-17 -1.280735E-17 -1.042763E-17
         9   5 -5.266652E-03 -5.266652E-03  4.514273E-03 -1.000827E-16 -6.649641E-17 -1.449739E-18
         9   6 -5.266652E-03 -5.266652E-03  4.514273E-03 -1.328684E-16 -1.526876E-17 -3.515621E-17
         9   7 -5.266652E-03 -5.266652E-03  4.514273E-03  6.902252E-18 -3.657062E-17  2.486510E-17
         9   8 -5.266652E-03 -5.266652E-03  4.514273E-03 -2.847179E-17 -2.059355E-18  1.434907E-17

 displacements (vx,vy,vz) for set NALL and time  0.9397813E+00

         1  0.000000E+00  0.000000E+00  0.000000E+00
         2 -2.730299E+00  0.000000E+00  0.000000E+00
         3 -1.273157E+01  0.000000E+00  0.000000E+00
         4 -1.546187E+01  0.000000E+00  0.000000E+00
         5 -2.546314E+01  0.000000E+00  0.000000E+00
         6 -2.819344E+01  0.000000E+00  0.000000E+00
         7  0.000000E+00 -2.730299E+00  0.000000E+00
         8 -2.730299E+00 -2.730299E+00  0.000000E+00
         9 -1.273157E+01 -2.730299E+00  0.000000E+00
        10 -1.546187E+01 -2.730299E+00  0.000000E+00
        11 -2.546314E+01 -2.730299E+00  0.000000E+00
        12 -2.819344E+01 -2.730299E+00  0.000000E+00
        13  0.000000E+00 -1.273157E+01  0.000000E+00
        14 -2.730299E+00 -1.273157E+01  0.000000E+00
        15 -1.273157E+01 -1.273157E+01  0.000000E+00
        16 -1.546187E+01 -1.273157E+01  0.000000E+00
        17 -2.546314E+01 -1.273157E+01  0.000000E+00
        18 -2.819344E+01 -1.273157E+01  0.000000E+00
        19  0.000000E+00 -1.546187E+01  0.000000E+00
        20 -2.730299E+00 -1.546187E+01  0.000000E+00
        21 -1.273157E+01 -1.546187E+01  0.000000E+00
        22 -1.546187E+01 -1.546187E+01  0.000000E+00
        23 -2.546314E+01 -1.546187E+01  0.000000E+00
        24 -2.819344E+01 -1.546187E+01  0.000000E+00
        25  0.000000E+00 -2.546314E+01  0.000000E+00
        26 -2.730299E+00 -2.546314E+01  0.000000E+00
        27 -1.273157E+01 -2.546314E+01  0.000000E+00
        28 -1.546187E+01 -2.546314E+01  0.000000E+00
        29 -2.546314E+01 -2.546314E+01  0.000000E+00
        30 -2.819344E+01 -2.546314E+01  0.000000E+00
        31  0.000000E+00 -2.819344E+01  0.000000E+00
        32 -2.730299E+00 -2.819344E+01  0.000000E+00
        33 -1.273157E+01 -2.819344E+01  0.000000E+00
        34 -1.546187E+01 -2.819344E+01  0.000000E+00
        35 -2.546314E+01 -2.819344E+01  0.000000E+00
        36 -2.819344E+01 -2.819344E+01  0.000000E+00
        37  0.000000E+00  0.000000E+00  3.259823E+00
        38 -2.730299E+00  0.000000E+00  3.259823E+00
        39 -1.273157E+01  0.000000E+00  3.259823E+00
        40 -1.546187E+01  0.000000E+00  3.259823E+00
        41 -2.546314E+01  0.000000E+00  3.259823E+00
        42 -2.819344E+01  0.000000E+00  3.259823E+00
        43  0.000000E+00 -2.730299E+00  3.259823E+00
        44 -2.730299E+00 -2.730299E+00  3.259823E+00
        45 -1.273157E+01 -2.730299E+00  3.259823E+00
        46 -1.546187E+01 -2.730299E+00  3.259823E+00
        47 -2.546314E+01 -2.730299E+00  3.259823E+00
        48 -2.819344E+01 -2.730299E+00  3.259823E+00
        49  0.000000E+00 -1.273157E+01  3.259823E+00
        50 -2.730299E+00 -1.273157E+01  3.259823E+00
        51 -1.273157E+01 -1.273157E+01  3.259823E+00
        52 -1.546187E+01 -1.273157E+01  3.259823E+00
        53 -2.546314E+01 -1.273157E+01  3.259823E+00
        54 -2.819344E+01 -1.273157E+01  3.259823E+00
        55  0.000000E+00 -1.546187E+01  3.259823E+00
        56 -2.730299E+00 -1.546187E+01  3.259823E+00
        57 -1.273157E+01 -1.546187E+01  3.259823E+00
        58 -1.546187E+01 -1.546187E+01  3.259823E+00
        59 -2.546314E+01 -1.546187E+01  3.259823E+00
        60 -2.819344E+01 -1.546187E+01  3.259823E+00
        61  0.000000E+00 -2.546314E+01  3.259823E+00
        62 -2.730299E+00 -2.546314E+01  3.259823E+00
        63 -1.273157E+01 -2.546314E+01  3.259823E+00
        64 -1.546187E+01 -2.546314E+01  3.259823E+00
        65 -2.546314E+01 -2.546314E+01  3.259823E+00
        66 -2.819344E+01 -2.546314E+01  3.259823E+00
        67  0.000000E+00 -2.819344E+01  3.259823E+00
        68 -2.730299E+00 -2.819344E+01  3.259823E+00
        69 -1.273157E+01 -2.819344E+01  3.259823E+00
        70 -1.546187E+01 -2.819344E+01  3.259823E+00
        71 -2.546314E+01 -2.819344E+01  3.259823E+00
        72 -2.819344E+01 -2.819344E+01  3.259823E+00

 stresses (elem, integ.pnt.,sxx,syy,szz,sxy,sxz,syz) for set EALL and time  0.9397813E+00

         1   1 -1.626134E+03 -1.626134E+03  2.071602E-10 -3.369025E-12 -9.819192E-13  2.088050E-12
         1   2 -1.626134E+03 -1.626134E+03  2.117792E-10 -1.332113E-11 -5.115232E-12  6.012976E-13
         1   3 -1.626134E+03 -1.626134E+03  1.884535E-10 -2.581433E-12  7.147243E-13  8.830954E-12
         1   4 -1.626134E+03 -1.626134E+03  1.923796E-10 -1.253354E-11  1.765566E-12  3.788852E-12
         1   5 -1.626134E+03 -1.626134E+03  2.124720E-10 -2.538975E-12  4.180967E-13  1.082466E-12
         1   6 -1.626134E+03 -1.626134E+03  2.097007E-10 -5.443087E-12 -3.715216E-12 -8.203904E-13
         1   7 -1.626134E+03 -1.626134E+03  2.048508E-10 -6.580955E-12  1.694214E-12  7.825370E-12
         1   8 -1.626134E+03 -1.626134E+03  2.011556E-10 -9.476576E-12  2.753813E-12  2.367164E-12
         2   1 -1.626134E+03 -1.626134E+03  2.076221E-10  1.180114E-11  6.754165E-12  1.314144E-12
         2   2 -1.626134E+03 -1.626134E+03  2.071602E-10  4.379520E-12  2.568311E-12  1.104562E-12
         2   3 -1.626134E+03 -1.626134E+03  1.884535E-10  2.085526E-11  2.485529E-12  7.452813E-12
         2   4 -1.626134E+03 -1.626134E+03  1.916867E-10  1.350157E-11  4.026764E-12  5.614470E-12
         2   5 -1.626134E+03 -1.626134E+03  2.117792E-10  4.704322E-12  1.353485E-12 -1.234492E-12
         2   6 -1.626134E+03 -1.626134E+03  2.087769E-10  4.908119E-12 -2.718529E-12 -3.214167E-13
         2   7 -1.626134E+03 -1.626134E+03  2.050817E-10  1.161645E-11 -1.760786E-12  4.869149E-12
         2   8 -1.626134E+03 -1.626134E+03  2.050817E-10  1.188818E-11 -3.596633E-13  4.179867E-12
         3   1 -1.626134E+03 -1.626134E+03  2.092388E-10 -7.833460E-13  4.408598E-12 -4.019574E-14
         3   2 -1.626134E+03 -1.626134E+03  1.956128E-10 -3.194948E-12  1.378670E-12  2.645889E-12
         3   3 -1.626134E+03 -1.626134E+03  1.986152E-10 -1.182025E-11 -1.785373E-12  3.164873E-12
         3   4 -1.626134E+03 -1.626134E+03  1.801393E-10 -1.372235E-11 -4.543067E-13  1.495366E-11
         3   5 -1.626134E+03 -1.626134E+03  2.103935E-10 -4.967560E-12  5.322556E-12 -3.403701E-12
         3   6 -1.626134E+03 -1.626134E+03  2.159363E-10 -8.916133E-13  3.378498E-12 -2.267148E-12
         3   7 -1.626134E+03 -1.626134E+03  2.069293E-10 -3.668352E-12 -1.747876E-12 -2.336611E-13
         3   8 -1.626134E+03 -1.626134E+03  2.080840E-10  6.793244E-13 -8.371462E-13  9.929541E-12
         4   1 -1.626134E+03 -1.626134E+03  1.921486E-10  2.116308E-11 -1.071012E-13  1.082246E-11
         4   2 -1.626134E+03 -1.626134E+03  2.090078E-10  2.412451E-11  7.846460E-12  8.866004E-12
         4   3 -1.626134E+03 -1.626134E+03  1.609707E-10  4.611127E-11  5.040885E-13  2.914214E-11
         4   4 -1.626134E+03 -1.626134E+03  1.960747E-10  4.907270E-11  3.157465E-12  6.081273E-12
         4   5 -1.626134E+03 -1.626134E+03  2.461904E-10  1.210047E-11 -8.407593E-12 -2.786194E-12
         4   6 -1.626134E+03 -1.626134E+03  2.203243E-10  7.846197E-12 -4.365181E-13  2.249470E-12
         4   7 -1.626134E+03 -1.626134E+03  2.039270E-10  9.043506E-12 -8.916811E-13  1.525326E-11
         4   8 -1.626134E+03 -1.626134E+03  1.960747E-10  4.789237E-12  1.770452E-12 -4.301776E-13
         5   1 -1.626134E+03 -1.626134E+03  1.974604E-10 -2.960156E-11 -5.487361E-12  1.684169E-12
         5   2 -1.626134E+03 -1.626134E+03  1.879916E-10 -2.763152E-11  4.828406E-12  4.464942E-12
         5   3 -1.626134E+03 -1.626134E+03  1.981533E-10 -3.817803E-11  2.976628E-12  2.664955E-12
         5   4 -1.626134E+03 -1.626134E+03  1.736728E-10 -3.612308E-11  7.179996E-12  1.374305E-11
         5   5 -1.626134E+03 -1.626134E+03  2.194005E-10 -9.578474E-12 -3.786859E-12  9.206069E-13
         5   6 -1.626134E+03 -1.626134E+03  2.295622E-10 -1.535273E-11  6.187384E-12 -2.165478E-12
         5   7 -1.626134E+03 -1.626134E+03  2.083150E-10 -5.434595E-12 -1.548501E-12  1.691224E-12
         5   8 -1.626134E+03 -1.626134E+03  2.039270E-10 -1.114092E-11  2.479727E-12  6.941996E-12
         6   1 -1.626134E+03 -1.626134E+03  1.967676E-10  2.617097E-11 -4.465448E-12  3.374336E-12
         6   2 -1.626134E+03 -1.626134E+03  1.969985E-10  1.975136E-11 -1.365464E-12 -2.348494E-12
         6   3 -1.626134E+03 -1.626134E+03  1.778299E-10  2.438775E-11 -8.712765E-12  6.281665E-12
         6   4 -1.626134E+03 -1.626134E+03  1.817560E-10  1.779830E-11 -1.777207E-12  1.142621E-11
         6   5 -1.626134E+03 -1.626134E+03  2.113173E-10  1.086919E-11 -3.428818E-12  1.137976E-13
         6   6 -1.626134E+03 -1.626134E+03  2.346430E-10  9.782272E-12 -1.358100E-14 -4.107561E-12
         6   7 -1.626134E+03 -1.626134E+03  1.995390E-10  2.364049E-11 -6.476207E-12  2.845987E-12
         6   8 -1.626134E+03 -1.626134E+03  2.256361E-10  2.228184E-11 -3.813230E-13  1.002644E-11
         7   1 -1.626134E+03 -1.626134E+03  1.575064E-10 -4.232403E-11  1.443076E-12 -2.545789E-11
         7   2 -1.626134E+03 -1.626134E+03  1.983842E-10 -3.735435E-11  9.006950E-12  2.032713E-12
         7   3 -1.626134E+03 -1.626134E+03  1.840655E-10 -1.012406E-11 -1.980779E-12 -4.581164E-12
         7   4 -1.626134E+03 -1.626134E+03  2.113173E-10 -5.154374E-12  1.592084E-12  1.314637E-12
         7   5 -1.626134E+03 -1.626134E+03  2.161672E-10 -4.517507E-12 -2.169637E-12 -1.803738E-11
         7   6 -1.626134E+03 -1.626134E+03  2.122411E-10 -4.993035E-12  5.383291E-12  4.278998E-12
         7   7 -1.626134E+03 -1.626134E+03  2.341811E-10 -1.265242E-12 -1.083157E-11  2.839354E-12
         7   8 -1.626134E+03 -1.626134E+03  2.159363E-10 -1.732277E-12 -7.232431E-12  3.736063E-12
         8   1 -1.626134E+03 -1.626134E+03  2.057746E-10  2.540673E-11 -2.409148E-13  2.955463E-12
         8   2 -1.626134E+03 -1.626134E+03  1.637420E-10  2.554260E-11  8.051981E-12 -1.521400E-11
         8   3 -1.626134E+03 -1.626134E+03  2.085459E-10  6.249785E-12  5.894593E-12  1.554340E-12
         8   4 -1.626134E+03 -1.626134E+03  1.722871E-10  6.198835E-12  1.636799E-11 -4.026866E-12
         8   5 -1.626134E+03 -1.626134E+03  2.180148E-10  6.249785E-12 -4.839729E-12  4.186436E-12
         8   6 -1.626134E+03 -1.626134E+03  2.060055E-10  9.714339E-12  3.067858E-12 -1.202317E-11
         8   7 -1.626134E+03 -1.626134E+03  2.265599E-10  6.249785E-12  3.330030E-12  2.785313E-12
         8   8 -1.626134E+03 -1.626134E+03  2.200933E-10  9.782272E-12  1.397856E-11  4.112707E-13
         9   1 -1.626134E+03 -1.626134E+03  1.718252E-10 -1.372235E-11 -1.147318E-11 -5.579693E-12
         9   2 -1.626134E+03 -1.626134E+03  1.893773E-10 -1.120885E-11 -3.013900E-12 -1.153454E-11
         9   3 -1.626134E+03 -1.626134E+03  1.824488E-10 -5.570460E-12 -1.104407E-11 -9.559877E-13
         9   4 -1.626134E+03 -1.626134E+03  2.027722E-10 -3.940082E-12 -1.726605E-12 -1.140048E-12
         9   5 -1.626134E+03 -1.626134E+03  2.016175E-10 -2.119492E-11 -1.086253E-11 -3.331441E-12
         9   6 -1.626134E+03 -1.626134E+03  2.293312E-10 -1.956454E-11 -1.439978E-12 -7.253122E-12
         9   7 -1.626134E+03 -1.626134E+03  2.094697E-10 -7.064974E-12 -8.304722E-12  1.852713E-12
         9   8 -1.626134E+03 -1.626134E+03  2.401858E-10 -5.298731E-12  1.720711E-13  1.783768E-12

 strains (elem, integ.pnt.,exx,eyy,ezz,exy,exz,eyz) forset EALL and time  0.9397813E+00

         1   1 -5.445689E-03 -5.445689E-03  4.667734E-03 -2.139041E-17 -5.977142E-18  1.280742E-17
         1   2 -5.445689E-03 -5.445689E-03  4.667734E-03 -8.457773E-17 -3.142459E-17  3.629959E-18
         1   3 -5.445689E-03 -5.445689E-03  4.667734E-03 -1.638988E-17  4.441797E-18  5.432127E-17
         1   4 -5.445689E-03 -5.445689E-03  4.667734E-03 -7.957720E-17  1.091149E-17  2.325469E-17
         1   5 -5.445689E-03 -5.445689E-03  4.667734E-03 -1.612031E-17  2.818562E-18  6.489764E-18
         1   6 -5.445689E-03 -5.445689E-03  4.667734E-03 -3.455893E-17 -2.262889E-17 -5.301901E-18
         1   7 -5.445689E-03 -5.445689E-03  4.667734E-03 -4.178342E-17  1.059661E-17  4.800361E-17
         1   8 -5.445689E-03 -5.445689E-03  4.667734E-03 -6.016812E-17  1.712022E-17  1.432283E-17
         2   1 -5.445689E-03 -5.445689E-03  4.667734E-03  7.492711E-17  4.133543E-17  7.975061E-18
         2   2 -5.445689E-03 -5.445689E-03  4.667734E-03  2.780619E-17  1.556450E-17  6.731665E-18
         2   3 -5.445689E-03 -5.445689E-03  4.667734E-03  1.324130E-16  1.510395E-17  4.576884E-17
         2   4 -5.445689E-03 -5.445689E-03  4.667734E-03  8.572340E-17  2.459283E-17  3.449715E-17
         2   5 -5.445689E-03 -5.445689E-03  4.667734E-03  2.986841E-17  7.405257E-18 -8.036931E-18
         2   6 -5.445689E-03 -5.445689E-03  4.667734E-03  3.116234E-17 -1.766479E-17 -2.227701E-18
         2   7 -5.445689E-03 -5.445689E-03  4.667734E-03  7.375447E-17 -1.159148E-17  2.954119E-17
         2   8 -5.445689E-03 -5.445689E-03  4.667734E-03  7.547972E-17 -2.965224E-18  2.548304E-17
         3   1 -5.445689E-03 -5.445689E-03  4.667734E-03 -4.973575E-18  2.720342E-17 -4.002704E-19
         3   2 -5.445689E-03 -5.445689E-03  4.667734E-03 -2.028518E-17  8.549140E-18  1.605740E-17
         3   3 -5.445689E-03 -5.445689E-03  4.667734E-03 -7.504841E-17 -1.100506E-17  1.933229E-17
         3   4 -5.445689E-03 -5.445689E-03  4.667734E-03 -8.712517E-17 -2.810114E-18  9.183503E-17
         3   5 -5.445689E-03 -5.445689E-03  4.667734E-03 -3.153974E-17  3.300716E-17 -2.153174E-17
         3   6 -5.445689E-03 -5.445689E-03  4.667734E-03 -5.660979E-18  2.103823E-17 -1.480939E-17
         3   7 -5.445689E-03 -5.445689E-03  4.667734E-03 -2.329089E-17 -1.080476E-17 -2.014843E-18
         3   8 -5.445689E-03 -5.445689E-03  4.667734E-03  4.313127E-18 -5.197691E-18  6.027726E-17
         4   1 -5.445689E-03 -5.445689E-03  4.667734E-03  1.343674E-16 -1.040837E-18  6.599512E-17
         4   2 -5.445689E-03 -5.445689E-03  4.667734E-03  1.531699E-16  4.792663E-17  5.426585E-17
         4   3 -5.445689E-03 -5.445689E-03  4.667734E-03  2.927670E-16  3.042389E-18  1.787834E-16
         4   4 -5.445689E-03 -5.445689E-03  4.667734E-03  3.115695E-16  1.937836E-17  3.712117E-17
         4   5 -5.445689E-03 -5.445689E-03  4.667734E-03  7.682758E-17 -5.318819E-17 -1.951987E-17
         4   6 -5.445689E-03 -5.445689E-03  4.667734E-03  4.981662E-17 -4.112890E-18  1.267052E-17
         4   7 -5.445689E-03 -5.445689E-03  4.667734E-03  5.741850E-17 -5.725535E-18  9.154315E-17
         4   8 -5.445689E-03 -5.445689E-03  4.667734E-03  3.040755E-17  1.066435E-17 -3.827193E-18
         5   1 -5.445689E-03 -5.445689E-03  4.667734E-03 -1.879445E-16 -3.371621E-17  1.033395E-17
         5   2 -5.445689E-03 -5.445689E-03  4.667734E-03 -1.754364E-16  2.979458E-17  2.717813E-17
         5   3 -5.445689E-03 -5.445689E-03  4.667734E-03 -2.423977E-16  1.811875E-17  1.637233E-17
         5   4 -5.445689E-03 -5.445689E-03  4.667734E-03 -2.293505E-16  4.399752E-17  8.429983E-17
         5   5 -5.445689E-03 -5.445689E-03  4.667734E-03 -6.081509E-17 -2.305033E-17  5.545637E-18
         5   6 -5.445689E-03 -5.445689E-03  4.667734E-03 -9.747667E-17  3.835782E-17 -1.449341E-17
         5   7 -5.445689E-03 -5.445689E-03  4.667734E-03 -3.450502E-17 -1.031070E-17  1.029008E-17
         5   8 -5.445689E-03 -5.445689E-03  4.667734E-03 -7.073528E-17  1.448978E-17  4.157615E-17
         6   1 -5.445689E-03 -5.445689E-03  4.667734E-03  1.661632E-16 -2.744592E-17  2.063061E-17
         6   2 -5.445689E-03 -5.445689E-03  4.667734E-03  1.254042E-16 -8.360331E-18 -1.454732E-17
         6   3 -5.445689E-03 -5.445689E-03  4.667734E-03  1.548413E-16 -5.353905E-17  3.853009E-17
         6   4 -5.445689E-03 -5.445689E-03  4.667734E-03  1.130039E-16 -1.083909E-17  7.026009E-17
         6   5 -5.445689E-03 -5.445689E-03  4.667734E-03  6.901003E-17 -2.094203E-17  1.592715E-19
         6   6 -5.445689E-03 -5.445689E-03  4.667734E-03  6.210903E-17  8.446440E-20 -2.560760E-17
         6   7 -5.445689E-03 -5.445689E-03  4.667734E-03  1.500968E-16 -3.948771E-17  1.698047E-17
         6   8 -5.445689E-03 -5.445689E-03  4.667734E-03  1.414706E-16 -1.963502E-18  6.140864E-17
         7   1 -5.445689E-03 -5.445689E-03  4.667734E-03 -2.687213E-16  8.717559E-18 -1.563954E-16
         7   2 -5.445689E-03 -5.445689E-03  4.667734E-03 -2.371681E-16  5.528585E-17  1.260970E-17
         7   3 -5.445689E-03 -5.445689E-03  4.667734E-03 -6.427907E-17 -1.260756E-17 -2.786420E-17
         7   4 -5.445689E-03 -5.445689E-03  4.667734E-03 -3.272585E-17  9.389386E-18  8.188744E-18
         7   5 -5.445689E-03 -5.445689E-03  4.667734E-03 -2.868230E-17 -1.397985E-17 -1.097754E-16
         7   6 -5.445689E-03 -5.445689E-03  4.667734E-03 -3.170148E-17  3.252105E-17  2.670892E-17
         7   7 -5.445689E-03 -5.445689E-03  4.667734E-03 -8.033199E-18 -6.821438E-17  1.875575E-17
         7   8 -5.445689E-03 -5.445689E-03  4.667734E-03 -1.099847E-17 -4.605569E-17  2.336625E-17
         8   1 -5.445689E-03 -5.445689E-03  4.667734E-03  1.613110E-16 -1.698788E-18  1.825039E-17
         8   2 -5.445689E-03 -5.445689E-03  4.667734E-03  1.621736E-16  4.935785E-17 -9.352136E-17
         8   3 -5.445689E-03 -5.445689E-03  4.667734E-03  3.968077E-17  3.616884E-17  9.624131E-18
         8   4 -5.445689E-03 -5.445689E-03  4.667734E-03  3.935728E-17  1.006501E-16 -2.464639E-17
         8   5 -5.445689E-03 -5.445689E-03  4.667734E-03  3.968077E-17 -3.059118E-17  2.598407E-17
         8   6 -5.445689E-03 -5.445689E-03  4.667734E-03  6.167772E-17  1.809325E-17 -7.348353E-17
         8   7 -5.445689E-03 -5.445689E-03  4.667734E-03  3.968077E-17  2.003915E-17  1.735781E-17
         8   8 -5.445689E-03 -5.445689E-03  4.667734E-03  6.210903E-17  8.559868E-17  3.077768E-18
         9   1 -5.445689E-03 -5.445689E-03  4.667734E-03 -8.712517E-17 -7.056403E-17 -3.422574E-17
         9   2 -5.445689E-03 -5.445689E-03  4.667734E-03 -7.116660E-17 -1.848302E-17 -7.083266E-17
         9   3 -5.445689E-03 -5.445689E-03  4.667734E-03 -3.536764E-17 -6.786813E-17 -5.759099E-18
         9   4 -5.445689E-03 -5.445689E-03  4.667734E-03 -2.501614E-17 -1.050354E-17 -6.836092E-18
         9   5 -5.445689E-03 -5.445689E-03  4.667734E-03 -1.345696E-16 -6.661291E-17 -2.003037E-17
         9   6 -5.445689E-03 -5.445689E-03  4.667734E-03 -1.242181E-16 -8.601353E-18 -4.397623E-17
         9   7 -5.445689E-03 -5.445689E-03  4.667734E-03 -4.485652E-17 -5.065796E-17  1.188677E-17
         9   8 -5.445689E-03 -5.445689E-03  4.667734E-03 -3.364239E-17  1.530877E-18  1.166530E-17

 displacements (vx,vy,vz) for set NALL and time  0.9487813E+00

         1  0.000000E+00  0.000000E+00  0.000000E+00
         2 -2.820314E+00  0.000000E+00  0.000000E+00
         3 -1.282156E+01  0.000000E+00  0.000000E+00
         4 -1.564188E+01  0.000000E+00  0.000000E+00
         5 -2.564312E+01  0.000000E+00  0.000000E+00
         6 -2.846344E+01  0.000000E+00  0.000000E+00
         7  0.000000E+00 -2.820314E+00  0.000000E+00
         8 -2.820314E+00 -2.820314E+00  0.000000E+00
         9 -1.282156E+01 -2.820314E+00  0.000000E+00
        10 -1.564188E+01 -2.820314E+00  0.000000E+00
        11 -2.564312E+01 -2.820314E+00  0.000000E+00
        12 -2.846344E+01 -2.820314E+00  0.000000E+00
        13  0.000000E+00 -1.282156E+01  0.000000E+00
        14 -2.820314E+00 -1.282156E+01  0.000000E+00
        15 -1.282156E+01 -1.282156E+01  0.000000E+00
        16 -1.564188E+01 -1.282156E+01  0.000000E+00
        17 -2.564312E+01 -1.282156E+01  0.000000E+00
        18 -2.846344E+01 -1.282156E+01  0.000000E+00
        19  0.000000E+00 -1.564188E+01  0.000000E+00
        20 -2.820314E+00 -1.564188E+01  0.000000E+00
        21 -1.282156E+01 -1.564188E+01  0.000000E+00
        22 -1.564188E+01 -1.564188E+01  0.000000E+00
        23 -2.564312E+01 -1.564188E+01  0.000000E+00
        24 -2.846344E+01 -1.564188E+01  0.000000E+00
        25  0.000000E+00 -2.564312E+01  0.000000E+00
        26 -2.820314E+00 -2.564312E+01  0.000000E+00
        27 -1.282156E+01 -2.564312E+01  0.000000E+00
        28 -1.564188E+01 -2.564312E+01  0.000000E+00
        29 -2.564312E+01 -2.564312E+01  0.000000E+00
        30 -2.846344E+01 -2.564312E+01  0.000000E+00
        31  0.000000E+00 -2.846344E+01  0.000000E+00
        32 -2.820314E+00 -2.846344E+01  0.000000E+00
        33 -1.282156E+01 -2.846344E+01  0.000000E+00
        34 -1.564188E+01 -2.846344E+01  0.000000E+00
        35 -2.564312E+01 -2.846344E+01  0.000000E+00
        36 -2.846344E+01 -2.846344E+01  0.000000E+00
        37  0.000000E+00  0.000000E+00  3.366735E+00
        38 -2.820314E+00  0.000000E+00  3.366735E+00
        39 -1.282156E+01  0.000000E+00  3.366735E+00
        40 -1.564188E+01  0.000000E+00  3.366735E+00
        41 -2.564312E+01  0.000000E+00  3.366735E+00
        42 -2.846344E+01  0.000000E+00  3.366735E+00
        43  0.000000E+00 -2.820314E+00  3.366735E+00
        44 -2.820314E+00 -2.820314E+00  3.366735E+00
        45 -1.282156E+01 -2.820314E+00  3.366735E+00
        46 -1.564188E+01 -2.820314E+00  3.366735E+00
        47 -2.564312E+01 -2.820314E+00  3.366735E+00
        48 -2.846344E+01 -2.820314E+00  3.366735E+00
        49  0.000000E+00 -1.282156E+01  3.366735E+00
        50 -2.820314E+00 -1.282156E+01  3.366735E+00
        51 -1.282156E+01 -1.282156E+01  3.366735E+00
        52 -1.564188E+01 -1.282156E+01  3.366735E+00
        53 -2.564312E+01 -1.282156E+01  3.366735E+00
        54 -2.846344E+01 -1.282156E+01  3.366735E+00
        55  0.000000E+00 -1.564188E+01  3.366735E+00
        56 -2.820314E+00 -1.564188E+01  3.366735E+00
        57 -1.282156E+01 -1.564188E+01  3.366735E+00
        58 -1.564188E+01 -1.564188E+01  3.366735E+00
        59 -2.564312E+01 -1.564188E+01  3.366735E+00
        60 -2.846344E+01 -1.564188E+01  3.366735E+00
        61  0.000000E+00 -2.564312E+01  3.366735E+00
        62 -2.820314E+00 -2.564312E+01  3.366735E+00
        63 -1.282156E+01 -2.564312E+01  3.366735E+00
        64 -1.564188E+01 -2.564312E+01  3.366735E+00
        65 -2.564312E+01 -2.564312E+01  3.366735E+00
        66 -2.846344E+01 -2.564312E+01  3.366735E+00
        67  0.000000E+00 -2.846344E+01  3.366735E+00
        68 -2.820314E+00 -2.846344E+01  3.366735E+00
        69 -1.282156E+01 -2.846344E+01  3.366735E+00
        70 -1.564188E+01 -2.846344E+01  3.366735E+00
        71 -2.564312E+01 -2.846344E+01  3.366735E+00
        72 -2.846344E+01 -2.846344E+01  3.366735E+00

 stresses (elem, integ.pnt.,sxx,syy,szz,sxy,sxz,syz) for set EALL and time  0.9487813E+00

         1   1 -1.679339E+03 -1.679339E+03  1.860086E-10 -1.005216E-12 -7.232246E-13  1.369191E-12
         1   2 -1.679339E+03 -1.679339E+03  1.927096E-10 -7.138306E-12 -3.422575E-12  6.482014E-13
         1   3 -1.679339E+03 -1.679339E+03  1.739932E-10  2.324297E-12 -3.561095E-13  5.940354E-12
         1   4 -1.679339E+03 -1.679339E+03  1.832358E-10 -3.808793E-12 -2.878131E-12  2.452147E-12
         1   5 -1.679339E+03 -1.679339E+03  1.899368E-10 -2.281883E-12  1.771346E-14  4.852651E-13
         1   6 -1.679339E+03 -1.679339E+03  1.908610E-10 -8.084142E-12 -2.681637E-12  5.442101E-13
         1   7 -1.679339E+03 -1.679339E+03  1.783834E-10 -2.646645E-12  1.169096E-12  5.056428E-12
         1   8 -1.679339E+03 -1.679339E+03  1.816184E-10 -8.448904E-12 -1.352925E-12  2.348156E-12
         2   1 -1.679339E+03 -1.679339E+03  1.841601E-10  2.027398E-12  3.682473E-12  1.572242E-12
         2   2 -1.679339E+03 -1.679339E+03  1.910921E-10 -7.380067E-13  1.709094E-13  1.103631E-13
         2   3 -1.679339E+03 -1.679339E+03  1.760728E-10  1.609194E-11  7.310611E-12  7.080406E-12
         2   4 -1.679339E+03 -1.679339E+03  1.813873E-10  1.334350E-11  5.489151E-12  2.385044E-12
         2   5 -1.679339E+03 -1.679339E+03  1.880882E-10  5.971916E-12 -2.054381E-12  3.590101E-13
         2   6 -1.679339E+03 -1.679339E+03  1.885504E-10  5.293289E-12 -5.732328E-12 -1.869668E-12
         2   7 -1.679339E+03 -1.679339E+03  1.836980E-10  1.509945E-11  9.339345E-13  5.867174E-12
         2   8 -1.679339E+03 -1.679339E+03  1.820805E-10  1.476013E-11 -1.272834E-12  3.349110E-13
         3   1 -1.679339E+03 -1.679339E+03  1.920164E-10 -1.416634E-12  4.810023E-12 -6.067981E-13
         3   2 -1.679339E+03 -1.679339E+03  1.802320E-10 -2.706025E-12  9.569353E-13  1.658846E-12
         3   3 -1.679339E+03 -1.679339E+03  1.857776E-10 -9.738295E-12 -7.684317E-13 -6.943683E-13
         3   4 -1.679339E+03 -1.679339E+03  1.712204E-10 -1.123127E-11 -2.780388E-13  8.850455E-12
         3   5 -1.679339E+03 -1.679339E+03  1.836980E-10 -6.489369E-12  5.597205E-12 -2.175425E-12
         3   6 -1.679339E+03 -1.679339E+03  1.876261E-10 -1.603256E-12  1.796660E-12 -1.018976E-12
         3   7 -1.679339E+03 -1.679339E+03  1.876261E-10 -4.886113E-12 -1.952829E-12 -2.254238E-12
         3   8 -1.679339E+03 -1.679339E+03  1.883193E-10 -2.714507E-13 -5.517059E-13  6.168528E-12
         4   1 -1.679339E+03 -1.679339E+03  1.769970E-10  1.510369E-11 -6.479628E-13  1.119029E-11
         4   2 -1.679339E+03 -1.679339E+03  2.010280E-10  1.550662E-11  3.297074E-12  1.230543E-11
         4   3 -1.679339E+03 -1.679339E+03  1.427992E-10  3.970391E-11 -7.062219E-13  2.691790E-11
         4   4 -1.679339E+03 -1.679339E+03  1.795388E-10  4.010685E-11 -1.800849E-12  1.127210E-11
         4   5 -1.679339E+03 -1.679339E+03  2.174337E-10  1.127369E-11 -6.376151E-12 -2.154530E-12
         4   6 -1.679339E+03 -1.679339E+03  2.068046E-10  4.818251E-12 -2.457385E-12  3.956521E-12
         4   7 -1.679339E+03 -1.679339E+03  1.728378E-10  1.364888E-11 -1.451493E-12  1.336290E-11
         4   8 -1.679339E+03 -1.679339E+03  1.746864E-10  7.193444E-12 -2.581148E-12  2.888165E-12
         5   1 -1.679339E+03 -1.679339E+03  1.793077E-10 -2.456629E-11 -2.591062E-12  4.478691E-13
         5   2 -1.679339E+03 -1.679339E+03  1.823116E-10 -2.144461E-11  3.354953E-12  7.265278E-12
         5   3 -1.679339E+03 -1.679339E+03  1.772281E-10 -2.626286E-11 -1.203186E-12  2.409441E-12
         5   4 -1.679339E+03 -1.679339E+03  1.712204E-10 -2.305635E-11 -6.002032E-12  1.663095E-11
         5   5 -1.679339E+03 -1.679339E+03  1.954824E-10 -1.024727E-11 -6.773454E-13 -2.099554E-12
         5   6 -1.679339E+03 -1.679339E+03  2.132745E-10 -2.049453E-11  5.242398E-12  1.399710E-12
         5   7 -1.679339E+03 -1.679339E+03  1.716825E-10 -2.443057E-12 -2.923414E-12 -5.933467E-13
         5   8 -1.679339E+03 -1.679339E+03  1.811562E-10 -1.289391E-11 -7.442035E-12  1.026108E-11
         6   1 -1.679339E+03 -1.679339E+03  1.936338E-10  1.621918E-11  2.383520E-13  8.343393E-12
         6   2 -1.679339E+03 -1.679339E+03  1.860086E-10  1.509945E-11 -4.446953E-13  5.582589E-12
         6   3 -1.679339E+03 -1.679339E+03  1.756106E-10  1.228315E-11  7.310081E-13  7.082382E-12
         6   4 -1.679339E+03 -1.679339E+03  1.603602E-10  1.082410E-11 -1.230564E-12  2.101679E-11
         6   5 -1.679339E+03 -1.679339E+03  1.892436E-10  1.520124E-11 -5.004389E-13  2.402199E-12
         6   6 -1.679339E+03 -1.679339E+03  2.174337E-10  1.248673E-11 -1.130944E-12 -3.336813E-12
         6   7 -1.679339E+03 -1.679339E+03  1.686786E-10  3.420279E-11 -3.174495E-12  6.507955E-13
         6   8 -1.679339E+03 -1.679339E+03  1.897057E-10  3.162401E-11 -4.855842E-12  1.153224E-11
         7   1 -1.679339E+03 -1.679339E+03  1.485758E-10 -3.681975E-11  4.477746E-13 -2.051583E-11
         7   2 -1.679339E+03 -1.679339E+03  1.832358E-10 -3.583150E-11  4.828473E-12 -5.294670E-13
         7   3 -1.679339E+03 -1.679339E+03  1.661369E-10 -9.946125E-12 -1.425614E-12 -3.842468E-12
         7   4 -1.679339E+03 -1.679339E+03  1.897057E-10 -8.957874E-12  1.989623E-12  3.112067E-13
         7   5 -1.679339E+03 -1.679339E+03  1.917853E-10 -8.805183E-12 -2.730437E-12 -1.382135E-11
         7   6 -1.679339E+03 -1.679339E+03  1.940960E-10 -9.127531E-12  1.630558E-12  2.174710E-12
         7   7 -1.679339E+03 -1.679339E+03  2.077289E-10 -2.290366E-12 -8.739669E-12  2.992124E-12
         7   8 -1.679339E+03 -1.679339E+03  1.989484E-10 -2.612713E-12 -5.359461E-12  2.840243E-12
         8   1 -1.679339E+03 -1.679339E+03  1.878572E-10  2.117316E-11  1.846193E-12  3.263914E-13
         8   2 -1.679339E+03 -1.679339E+03  1.580496E-10  1.645670E-11  6.934021E-12 -1.187285E-11
         8   3 -1.679339E+03 -1.679339E+03  1.834669E-10  1.180811E-11  3.146123E-12  1.167065E-12
         8   4 -1.679339E+03 -1.679339E+03  1.608224E-10  7.176479E-12  1.141275E-11 -1.929210E-12
         8   5 -1.679339E+03 -1.679339E+03  1.970998E-10  2.985958E-12 -3.724589E-12  2.568033E-12
         8   6 -1.679339E+03 -1.679339E+03  1.901678E-10  2.239469E-12  1.818603E-12 -7.344855E-12
         8   7 -1.679339E+03 -1.679339E+03  1.996416E-10  7.329170E-12  6.012507E-13  2.848258E-12
         8   8 -1.679339E+03 -1.679339E+03  1.994105E-10  6.650543E-12  8.377482E-12  2.235504E-12
         9   1 -1.679339E+03 -1.679339E+03  1.663680E-10 -5.293289E-12 -1.141478E-11  1.164151E-12
         9   2 -1.679339E+03 -1.679339E+03  1.700650E-10 -5.361152E-12 -3.148155E-12 -1.594463E-11
         9   3 -1.679339E+03 -1.679339E+03  1.714514E-10 -1.221528E-12 -4.437426E-12  1.164151E-12
         9   4 -1.679339E+03 -1.679339E+03  1.823116E-10 -1.628704E-12 -9.346191E-13 -2.857310E-12
         9   5 -1.679339E+03 -1.679339E+03  1.816184E-10 -2.388766E-11 -1.257602E-11  4.029741E-12
         9   6 -1.679339E+03 -1.679339E+03  2.144298E-10 -2.972386E-11 -3.906568E-12 -1.084618E-11
         9   7 -1.679339E+03 -1.679339E+03  1.788456E-10 -1.085803E-12 -2.476009E-12  3.749516E-12
         9   8 -1.679339E+03 -1.679339E+03  2.192822E-10 -6.650543E-12  1.861246E-13  1.799138E-12

 strains (elem, integ.pnt.,exx,eyy,ezz,exy,exz,eyz) forset EALL and time  0.9487813E+00

         1   1 -5.624719E-03 -5.624719E-03  4.821188E-03 -6.387663E-18 -4.415220E-18  8.389814E-18
         1   2 -5.624719E-03 -5.624719E-03  4.821188E-03 -4.536049E-17 -2.103123E-17  3.987787E-18
         1   3 -5.624719E-03 -5.624719E-03  4.821188E-03  1.476979E-17 -2.119917E-18  3.652787E-17
         1   4 -5.624719E-03 -5.624719E-03  4.821188E-03 -2.420304E-17 -1.764436E-17  1.509208E-17
         1   5 -5.624719E-03 -5.624719E-03  4.821188E-03 -1.450026E-17  2.420371E-19  2.833789E-18
         1   6 -5.624719E-03 -5.624719E-03  4.821188E-03 -5.137083E-17 -1.637397E-17  3.334137E-18
         1   7 -5.624719E-03 -5.624719E-03  4.821188E-03 -1.681815E-17  7.466951E-18  3.097185E-17
         1   8 -5.624719E-03 -5.624719E-03  4.821188E-03 -5.368871E-17 -8.057496E-18  1.443843E-17
         2   1 -5.624719E-03 -5.624719E-03  4.821188E-03  1.288313E-17  2.239491E-17  9.619417E-18
         2   2 -5.624719E-03 -5.624719E-03  4.821188E-03 -4.689677E-18  7.792784E-19  5.869221E-19
         2   3 -5.624719E-03 -5.624719E-03  4.821188E-03  1.022565E-16  4.469431E-17  4.352524E-17
         2   4 -5.624719E-03 -5.624719E-03  4.821188E-03  8.479151E-17  3.348221E-17  1.458829E-17
         2   5 -5.624719E-03 -5.624719E-03  4.821188E-03  3.794865E-17 -1.366478E-17  1.993499E-18
         2   6 -5.624719E-03 -5.624719E-03  4.821188E-03  3.363630E-17 -3.630460E-17 -1.186051E-17
         2   7 -5.624719E-03 -5.624719E-03  4.821188E-03  9.594971E-17  4.594710E-18  3.589932E-17
         2   8 -5.624719E-03 -5.624719E-03  4.821188E-03  9.379353E-17 -8.989181E-18  1.709901E-18
         3   1 -5.624719E-03 -5.624719E-03  4.821188E-03 -9.002023E-18  2.963261E-17 -3.811826E-18
         3   2 -5.624719E-03 -5.624719E-03  4.821188E-03 -1.719548E-17  5.914704E-18  1.008319E-17
         3   3 -5.624719E-03 -5.624719E-03  4.821188E-03 -6.188217E-17 -4.757177E-18 -4.350869E-18
         3   4 -5.624719E-03 -5.624719E-03  4.821188E-03 -7.136933E-17 -1.738535E-18  5.435269E-17
         3   5 -5.624719E-03 -5.624719E-03  4.821188E-03 -4.123681E-17  3.454409E-17 -1.367048E-17
         3   6 -5.624719E-03 -5.624719E-03  4.821188E-03 -1.018792E-17  1.114961E-17 -6.748015E-18
         3   7 -5.624719E-03 -5.624719E-03  4.821188E-03 -3.104889E-17 -1.212895E-17 -1.415562E-17
         3   8 -5.624719E-03 -5.624719E-03  4.821188E-03 -1.724939E-18 -3.504262E-18  3.749283E-17
         4   1 -5.624719E-03 -5.624719E-03  4.821188E-03  9.597666E-17 -4.260210E-18  6.824680E-17
         4   2 -5.624719E-03 -5.624719E-03  4.821188E-03  9.853711E-17  2.002369E-17  7.534496E-17
         4   3 -5.624719E-03 -5.624719E-03  4.821188E-03  2.522992E-16 -4.385512E-18  1.650590E-16
         4   4 -5.624719E-03 -5.624719E-03  4.821188E-03  2.548597E-16 -1.112355E-17  6.898425E-17
         4   5 -5.624719E-03 -5.624719E-03  4.821188E-03  7.163885E-17 -4.026543E-17 -1.564283E-17
         4   6 -5.624719E-03 -5.624719E-03  4.821188E-03  3.061766E-17 -1.614325E-17  2.285777E-17
         4   7 -5.624719E-03 -5.624719E-03  4.821188E-03  8.673207E-17 -9.070004E-18  7.987564E-17
         4   8 -5.624719E-03 -5.624719E-03  4.821188E-03  4.571087E-17 -1.602366E-17  1.628144E-17
         5   1 -5.624719E-03 -5.624719E-03  4.821188E-03 -1.561069E-16 -1.585362E-17  2.632900E-18
         5   2 -5.624719E-03 -5.624719E-03  4.821188E-03 -1.362701E-16  2.074742E-17  4.443442E-17
         5   3 -5.624719E-03 -5.624719E-03  4.821188E-03 -1.668878E-16 -7.471655E-18  1.470747E-17
         5   4 -5.624719E-03 -5.624719E-03  4.821188E-03 -1.465120E-16 -3.701123E-17  1.020848E-16
         5   5 -5.624719E-03 -5.624719E-03  4.821188E-03 -6.511643E-17 -3.806504E-18 -1.338379E-17
         5   6 -5.624719E-03 -5.624719E-03  4.821188E-03 -1.302329E-16  3.263282E-17  7.549732E-18
         5   7 -5.624719E-03 -5.624719E-03  4.821188E-03 -1.552445E-17 -1.822969E-17 -4.112247E-18
         5   8 -5.624719E-03 -5.624719E-03  4.821188E-03 -8.193458E-17 -4.604432E-17  6.210545E-17
         6   1 -5.624719E-03 -5.624719E-03  4.821188E-03  1.030651E-16  1.443520E-18  5.105842E-17
         6   2 -5.624719E-03 -5.624719E-03  4.821188E-03  9.594971E-17 -2.761018E-18  3.393057E-17
         6   3 -5.624719E-03 -5.624719E-03  4.821188E-03  7.805347E-17  4.339711E-18  4.329620E-17
         6   4 -5.624719E-03 -5.624719E-03  4.821188E-03  6.878192E-17 -7.734859E-18  1.289372E-16
         6   5 -5.624719E-03 -5.624719E-03  4.821188E-03  9.659656E-17 -3.172905E-18  1.366877E-17
         6   6 -5.624719E-03 -5.624719E-03  4.821188E-03  7.934717E-17 -7.054017E-18 -2.216075E-17
         6   7 -5.624719E-03 -5.624719E-03  4.821188E-03  2.173423E-16 -2.013591E-17  2.887900E-18
         6   8 -5.624719E-03 -5.624719E-03  4.821188E-03  2.009553E-16 -3.048554E-17  6.937106E-17
         7   1 -5.624719E-03 -5.624719E-03  4.821188E-03 -2.339717E-16  2.606395E-18 -1.259843E-16
         7   2 -5.624719E-03 -5.624719E-03  4.821188E-03 -2.276919E-16  2.957204E-17 -3.154906E-18
         7   3 -5.624719E-03 -5.624719E-03  4.821188E-03 -6.320283E-17 -9.122604E-18 -2.335046E-17
         7   4 -5.624719E-03 -5.624719E-03  4.821188E-03 -5.692297E-17  1.190009E-17  2.019910E-18
         7   5 -5.624719E-03 -5.624719E-03  4.821188E-03 -5.595269E-17 -1.737093E-17 -8.396001E-17
         7   6 -5.624719E-03 -5.624719E-03  4.821188E-03 -5.800106E-17  9.473429E-18  1.378330E-17
         7   7 -5.624719E-03 -5.624719E-03  4.821188E-03 -1.455417E-17 -5.509599E-17  1.953630E-17
         7   8 -5.624719E-03 -5.624719E-03  4.821188E-03 -1.660253E-17 -3.428892E-17  1.788003E-17
         8   1 -5.624719E-03 -5.624719E-03  4.821188E-03  1.345452E-16  1.111244E-17  2.088020E-18
         8   2 -5.624719E-03 -5.624719E-03  4.821188E-03  1.045744E-16  4.243085E-17 -7.288789E-17
         8   3 -5.624719E-03 -5.624719E-03  4.821188E-03  7.503483E-17  1.922864E-17  7.262836E-18
         8   4 -5.624719E-03 -5.624719E-03  4.821188E-03  4.560306E-17  7.011432E-17 -1.167981E-17
         8   5 -5.624719E-03 -5.624719E-03  4.821188E-03  1.897432E-17 -2.386695E-17  1.610524E-17
         8   6 -5.624719E-03 -5.624719E-03  4.821188E-03  1.423074E-17  1.025449E-17 -4.448130E-17
         8   7 -5.624719E-03 -5.624719E-03  4.821188E-03  4.657334E-17  3.196081E-18  1.783018E-17
         8   8 -5.624719E-03 -5.624719E-03  4.821188E-03  4.226099E-17  5.106313E-17  1.448890E-17
         9   1 -5.624719E-03 -5.624719E-03  4.821188E-03 -3.363630E-17 -7.031844E-17  7.280964E-18
         9   2 -5.624719E-03 -5.624719E-03  4.821188E-03 -3.406754E-17 -1.943275E-17 -9.790067E-17
         9   3 -5.624719E-03 -5.624719E-03  4.821188E-03 -7.762223E-18 -2.723594E-17  7.280964E-18
         9   4 -5.624719E-03 -5.624719E-03  4.821188E-03 -1.034963E-17 -5.674203E-18 -1.734037E-17
         9   5 -5.624719E-03 -5.624719E-03  4.821188E-03 -1.517946E-16 -7.761753E-17  2.522008E-17
         9   6 -5.624719E-03 -5.624719E-03  4.821188E-03 -1.888808E-16 -2.425224E-17 -6.583552E-17
         9   7 -5.624719E-03 -5.624719E-03  4.821188E-03 -6.899754E-18 -1.494365E-17  2.349515E-17
         9   8 -5.624719E-03 -5.624719E-03  4.821188E-03 -4.226099E-17  1.443262E-18  1.200120E-17

 displacements (vx,vy,vz) for set NALL and time  0.9577813E+00

         1  0.000000E+00  0.000000E+00  0.000000E+00
         2 -2.910344E+00  0.000000E+00  0.000000E+00
         3 -1.291155E+01  0.000000E+00  0.000000E+00
         4 -1.582189E+01  0.000000E+00  0.000000E+00
         5 -2.582309E+01  0.000000E+00  0.000000E+00
         6 -2.873344E+01  0.000000E+00  0.000000E+00
         7  0.000000E+00 -2.910344E+00  0.000000E+00
         8 -2.910344E+00 -2.910344E+00  0.000000E+00
         9 -1.291155E+01 -2.910344E+00  0.000000E+00
        10 -1.582189E+01 -2.910344E+00  0.000000E+00
        11 -2.582309E+01 -2.910344E+00  0.000000E+00
        12 -2.873344E+01 -2.910344E+00  0.000000E+00
        13  0.000000E+00 -1.291155E+01  0.000000E+00
        14 -2.910344E+00 -1.291155E+01  0.000000E+00
        15 -1.291155E+01 -1.291155E+01  0.000000E+00
        16 -1.582189E+01 -1.291155E+01  0.000000E+00
        17 -2.582309E+01 -1.291155E+01  0.000000E+00
        18 -2.873344E+01 -1.291155E+01  0.000000E+00
        19  0.000000E+00 -1.582189E+01  0.000000E+00
        20 -2.910344E+00 -1.582189E+01  0.000000E+00
        21 -1.291155E+01 -1.582189E+01  0.000000E+00
        22 -1.582189E+01 -1.582189E+01  0.000000E+00
        23 -2.582309E+01 -1.582189E+01  0.000000E+00
        24 -2.873344E+01 -1.582189E+01  0.000000E+00
        25  0.000000E+00 -2.582309E+01  0.000000E+00
        26 -2.910344E+00 -2.582309E+01  0.000000E+00
        27 -1.291155E+01 -2.582309E+01  0.000000E+00
        28 -1.582189E+01 -2.582309E+01  0.000000E+00
        29 -2.582309E+01 -2.582309E+01  0.000000E+00
        30 -2.873344E+01 -2.582309E+01  0.000000E+00
        31  0.000000E+00 -2.873344E+01  0.000000E+00
        32 -2.910344E+00 -2.873344E+01  0.000000E+00
        33 -1.291155E+01 -2.873344E+01  0.000000E+00
        34 -1.582189E+01 -2.873344E+01  0.000000E+00
        35 -2.582309E+01 -2.873344E+01  0.000000E+00
        36 -2.873344E+01 -2.873344E+01  0.000000E+00
        37  0.000000E+00  0.000000E+00  3.473631E+00
        38 -2.910344E+00  0.000000E+00  3.473631E+00
        39 -1.291155E+01  0.000000E+00  3.473631E+00
        40 -1.582189E+01  0.000000E+00  3.473631E+00
        41 -2.582309E+01  0.000000E+00  3.473631E+00
        42 -2.873344E+01  0.000000E+00  3.473631E+00
        43  0.000000E+00 -2.910344E+00  3.473631E+00
        44 -2.910344E+00 -2.910344E+00  3.473631E+00
        45 -1.291155E+01 -2.910344E+00  3.473631E+00
        46 -1.582189E+01 -2.910344E+00  3.473631E+00
        47 -2.582309E+01 -2.910344E+00  3.473631E+00
        48 -2.873344E+01 -2.910344E+00  3.473631E+00
        49  0.000000E+00 -1.291155E+01  3.473631E+00
        50 -2.910344E+00 -1.291155E+01  3.473631E+00
        51 -1.291155E+01 -1.291155E+01  3.473631E+00
        52 -1.582189E+01 -1.291155E+01  3.473631E+00
        53 -2.582309E+01 -1.291155E+01  3.473631E+00
        54 -2.873344E+01 -1.291155E+01  3.473631E+00
        55  0.000000E+00 -1.582189E+01  3.473631E+00
        56 -2.910344E+00 -1.582189E+01  3.473631E+00
        57 -1.291155E+01 -1.582189E+01  3.473631E+00
        58 -1.582189E+01 -1.582189E+01  3.473631E+00
        59 -2.582309E+01 -1.582189E+01  3.473631E+00
        60 -2.873344E+01 -1.582189E+01  3.473631E+00
        61  0.000000E+00 -2.582309E+01  3.473631E+00
        62 -2.910344E+00 -2.582309E+01  3.473631E+00
        63 -1.291155E+01 -2.582309E+01  3.473631E+00
        64 -1.582189E+01 -2.582309E+01  3.473631E+00
        65 -2.582309E+01 -2.582309E+01  3.473631E+00
        66 -2.873344E+01 -2.582309E+01  3.473631E+00
        67  0.000000E+00 -2.873344E+01  3.473631E+00
        68 -2.910344E+00 -2.873344E+01  3.473631E+00
        69 -1.291155E+01 -2.873344E+01  3.473631E+00
        70 -1.582189E+01 -2.873344E+01  3.473631E+00
        71 -2.582309E+01 -2.873344E+01  3.473631E+00
        72 -2.873344E+01 -2.873344E+01  3.473631E+00

 stresses (elem, integ.pnt.,sxx,syy,szz,sxy,sxz,syz) for set EALL and time  0.9577813E+00

         1   1 -1.732527E+03 -1.732527E+03  1.833301E-10 -2.415123E-13 -2.913306E-13  7.372808E-13
         1   2 -1.732527E+03 -1.732527E+03  1.877226E-10 -3.067630E-12 -1.692453E-12  4.134495E-13
         1   3 -1.732527E+03 -1.732527E+03  1.770881E-10  1.893965E-12 -7.356648E-13  3.136704E-12
         1   4 -1.732527E+03 -1.732527E+03  1.863355E-10 -9.321528E-13 -4.930276E-12  3.893677E-13
         1   5 -1.732527E+03 -1.732527E+03  1.851796E-10 -2.906622E-12  3.237464E-13  2.694757E-13
         1   6 -1.732527E+03 -1.732527E+03  1.844860E-10 -9.541855E-12 -1.077376E-12  1.591625E-12
         1   7 -1.732527E+03 -1.732527E+03  1.731579E-10 -4.076050E-12  1.499404E-12  2.738955E-12
         1   8 -1.732527E+03 -1.732527E+03  1.770881E-10 -1.071128E-11 -2.695208E-12  1.567543E-12
         2   1 -1.732527E+03 -1.732527E+03  1.812494E-10 -7.033516E-13  3.550792E-12  6.154342E-13
         2   2 -1.732527E+03 -1.732527E+03  1.849484E-10  1.271117E-13  1.028771E-12  6.866274E-13
         2   3 -1.732527E+03 -1.732527E+03  1.805558E-10  8.838503E-12  7.660925E-12  2.962315E-12
         2   4 -1.732527E+03 -1.732527E+03  1.796311E-10  9.685915E-12  2.581855E-12  5.093643E-12
         2   5 -1.732527E+03 -1.732527E+03  1.803247E-10  6.440328E-12 -8.110567E-13  9.020238E-15
         2   6 -1.732527E+03 -1.732527E+03  1.886473E-10  3.999783E-12 -3.499461E-12 -1.803954E-12
         2   7 -1.732527E+03 -1.732527E+03  1.747762E-10  1.942267E-11  1.354220E-12  2.320873E-12
         2   8 -1.732527E+03 -1.732527E+03  1.777816E-10  1.650758E-11 -3.724851E-12  2.594446E-12
         3   1 -1.732527E+03 -1.732527E+03  1.907280E-10 -2.148188E-12  4.113731E-12 -7.264566E-13
         3   2 -1.732527E+03 -1.732527E+03  1.777816E-10 -3.131186E-12  1.556682E-12  1.130914E-12
         3   3 -1.732527E+03 -1.732527E+03  1.884162E-10 -1.098245E-11  5.461298E-13 -2.661757E-12
         3   4 -1.732527E+03 -1.732527E+03  1.724644E-10 -1.135532E-11 -1.544316E-13  5.623217E-12
         3   5 -1.732527E+03 -1.732527E+03  1.789375E-10 -3.847249E-12  4.721648E-12 -7.611088E-13
         3   6 -1.732527E+03 -1.732527E+03  1.803247E-10 -1.271117E-12  1.796805E-12 -2.422271E-13
         3   7 -1.732527E+03 -1.732527E+03  1.826365E-10 -3.423543E-12  2.922515E-13 -2.696410E-12
         3   8 -1.732527E+03 -1.732527E+03  1.803247E-10 -1.118583E-12 -1.108871E-12  4.241554E-12
         4   1 -1.732527E+03 -1.732527E+03  1.787064E-10  7.995328E-12 -1.292317E-13  4.876005E-12
         4   2 -1.732527E+03 -1.732527E+03  1.935022E-10  6.889456E-12  1.729445E-12  9.971086E-12
         4   3 -1.732527E+03 -1.732527E+03  1.602115E-10  2.123190E-11 -8.598037E-13  1.118106E-11
         4   4 -1.732527E+03 -1.732527E+03  1.766257E-10  2.012603E-11 -1.464038E-12  9.042842E-12
         4   5 -1.732527E+03 -1.732527E+03  1.948893E-10  1.331284E-11 -2.299233E-12 -1.238609E-12
         4   6 -1.732527E+03 -1.732527E+03  1.962765E-10  8.982563E-12 -4.843415E-13  4.342354E-12
         4   7 -1.732527E+03 -1.732527E+03  1.715396E-10  1.710924E-11 -2.635824E-12  5.066443E-12
         4   8 -1.732527E+03 -1.732527E+03  1.738515E-10  1.277897E-11 -3.231301E-12  3.238970E-12
         5   1 -1.732527E+03 -1.732527E+03  1.777816E-10 -1.332131E-11  2.384718E-12 -3.152526E-12
         5   2 -1.732527E+03 -1.732527E+03  1.775504E-10 -1.030453E-11  3.952224E-12  1.094524E-12
         5   3 -1.732527E+03 -1.732527E+03  1.821741E-10 -1.044011E-11 -1.740128E-12 -4.623705E-12
         5   4 -1.732527E+03 -1.732527E+03  1.791687E-10 -7.355533E-12 -4.752542E-12  8.375843E-12
         5   5 -1.732527E+03 -1.732527E+03  1.768569E-10 -1.362638E-11  4.119936E-13 -2.872302E-12
         5   6 -1.732527E+03 -1.732527E+03  1.960453E-10 -1.593134E-11  2.539949E-12  8.659324E-14
         5   7 -1.732527E+03 -1.732527E+03  1.726955E-10  1.627030E-12 -4.791028E-12 -4.623705E-12
         5   8 -1.732527E+03 -1.732527E+03  1.893409E-10 -6.101364E-13 -7.558245E-12  7.109158E-12
         6   1 -1.732527E+03 -1.732527E+03  2.002066E-10  8.118203E-12  1.637102E-12  1.275353E-11
         6   2 -1.732527E+03 -1.732527E+03  1.810182E-10  1.015199E-11  1.133808E-13  1.023243E-11
         6   3 -1.732527E+03 -1.732527E+03  1.770881E-10 -5.965778E-12  2.106194E-12  1.047670E-11
         6   4 -1.732527E+03 -1.732527E+03  1.523512E-10 -4.406540E-12  4.949031E-13  2.219884E-11
         6   5 -1.732527E+03 -1.732527E+03  1.923463E-10  7.253843E-12  2.818857E-12  3.120958E-12
         6   6 -1.732527E+03 -1.732527E+03  2.059862E-10  7.118257E-12  1.470277E-12 -2.133515E-12
         6   7 -1.732527E+03 -1.732527E+03  1.673783E-10  1.355859E-11  3.675695E-13  7.740774E-13
         6   8 -1.732527E+03 -1.732527E+03  1.743138E-10  1.355859E-11 -9.634972E-13  1.026736E-11
         7   1 -1.732527E+03 -1.732527E+03  1.648352E-10 -1.936336E-11 -3.211625E-13 -7.067364E-12
         7   2 -1.732527E+03 -1.732527E+03  1.796311E-10 -1.856679E-11  1.679816E-12 -1.852523E-12
         7   3 -1.732527E+03 -1.732527E+03  1.722332E-10 -5.262426E-12 -5.970179E-13 -5.521432E-13
         7   4 -1.732527E+03 -1.732527E+03  1.842548E-10 -4.465859E-12  1.784891E-12  1.615913E-13
         7   5 -1.732527E+03 -1.732527E+03  1.812494E-10 -1.255864E-11 -3.242849E-12 -5.217980E-12
         7   6 -1.732527E+03 -1.732527E+03  1.881850E-10 -1.128752E-11 -1.217789E-12 -1.401273E-12
         7   7 -1.732527E+03 -1.732527E+03  1.888785E-10 -2.796458E-12 -4.677412E-12  1.157128E-12
         7   8 -1.732527E+03 -1.732527E+03  1.937334E-10 -1.525341E-12 -2.286746E-12  1.068206E-12
         8   1 -1.732527E+03 -1.732527E+03  1.867979E-10  8.677495E-12  4.207823E-12  3.116371E-12
         8   2 -1.732527E+03 -1.732527E+03  1.669159E-10  5.067521E-12  8.892827E-12 -6.467744E-12
         8   3 -1.732527E+03 -1.732527E+03  1.817118E-10  8.270737E-12  5.941919E-12  1.505079E-12
         8   4 -1.732527E+03 -1.732527E+03  1.671471E-10  4.745505E-12  9.724950E-12 -6.048733E-13
         8   5 -1.732527E+03 -1.732527E+03  1.911904E-10 -4.609919E-12 -4.017553E-12  3.850081E-12
         8   6 -1.732527E+03 -1.732527E+03  1.874914E-10 -9.491010E-12  9.476764E-13 -3.782769E-12
         8   7 -1.732527E+03 -1.732527E+03  1.847172E-10  5.694606E-12 -1.267312E-13  1.678341E-12
         8   8 -1.732527E+03 -1.732527E+03  1.865667E-10  8.813081E-13  4.111665E-12  2.067107E-12
         9   1 -1.732527E+03 -1.732527E+03  1.724644E-10  7.457222E-12 -8.259465E-12  1.480237E-12
         9   2 -1.732527E+03 -1.732527E+03  1.618298E-10  9.999457E-12 -2.006954E-12 -1.529330E-11
         9   3 -1.732527E+03 -1.732527E+03  1.805558E-10 -4.067576E-13  7.761033E-14  7.796751E-13
         9   4 -1.732527E+03 -1.732527E+03  1.750074E-10  1.830409E-12  7.781717E-13 -2.433850E-12
         9   5 -1.732527E+03 -1.732527E+03  1.833301E-10 -5.423434E-12 -8.710301E-12  3.471988E-12
         9   6 -1.732527E+03 -1.732527E+03  2.006690E-10 -1.138921E-11 -1.266836E-12 -1.078042E-11
         9   7 -1.732527E+03 -1.732527E+03  1.800935E-10  3.796404E-12  2.835469E-12  3.121707E-12
         9   8 -1.732527E+03 -1.732527E+03  2.015937E-10 -1.898202E-12  3.816255E-12  1.829126E-12

 strains (elem, integ.pnt.,exx,eyy,ezz,exy,exz,eyz) forset EALL and time  0.9577813E+00

         1   1 -5.803749E-03 -5.803749E-03  4.974642E-03 -1.535995E-18 -1.763907E-18  4.516622E-18
         1   2 -5.803749E-03 -5.803749E-03  4.974642E-03 -1.950983E-17 -1.038704E-17  2.602693E-18
         1   3 -5.803749E-03 -5.803749E-03  4.974642E-03  1.204544E-17 -4.418302E-18  1.928373E-17
         1   4 -5.803749E-03 -5.803749E-03  4.974642E-03 -5.928403E-18 -3.023380E-17  2.454483E-18
         1   5 -5.803749E-03 -5.803749E-03  4.974642E-03 -1.848584E-17  2.104110E-18  1.574750E-18
         1   6 -5.803749E-03 -5.803749E-03  4.974642E-03 -6.068528E-17 -6.519021E-18  1.001185E-17
         1   7 -5.803749E-03 -5.803749E-03  4.974642E-03 -2.592329E-17  9.637311E-18  1.677302E-17
         1   8 -5.803749E-03 -5.803749E-03  4.974642E-03 -6.812273E-17 -1.617819E-17  9.863643E-18
         2   1 -5.803749E-03 -5.803749E-03  4.974642E-03 -4.473249E-18  2.163861E-17  3.757422E-18
         2   2 -5.803749E-03 -5.803749E-03  4.974642E-03  8.084185E-19  6.116973E-18  4.100224E-18
         2   3 -5.803749E-03 -5.803749E-03  4.974642E-03  5.621203E-17  4.684174E-17  1.820117E-17
         2   4 -5.803749E-03 -5.803749E-03  4.974642E-03  6.160149E-17  1.558289E-17  3.122237E-17
         2   5 -5.803749E-03 -5.803749E-03  4.974642E-03  4.095987E-17 -5.791626E-18 -5.611666E-20
         2   6 -5.803749E-03 -5.803749E-03  4.974642E-03  2.543824E-17 -2.233726E-17 -1.156281E-17
         2   7 -5.803749E-03 -5.803749E-03  4.974642E-03  1.235264E-16  7.180946E-18  1.417205E-17
         2   8 -5.803749E-03 -5.803749E-03  4.974642E-03  1.049866E-16 -2.407790E-17  1.550456E-17
         3   1 -5.803749E-03 -5.803749E-03  4.974642E-03 -1.366227E-17  2.534331E-17 -4.475587E-18
         3   2 -5.803749E-03 -5.803749E-03  4.974642E-03 -1.991404E-17  9.606093E-18  6.890379E-18
         3   3 -5.803749E-03 -5.803749E-03  4.974642E-03 -6.984736E-17  3.321589E-18 -1.638629E-17
         3   4 -5.803749E-03 -5.803749E-03  4.974642E-03 -7.221872E-17 -9.899769E-19  3.453859E-17
         3   5 -5.803749E-03 -5.803749E-03  4.974642E-03 -2.446813E-17  2.914749E-17 -4.693504E-18
         3   6 -5.803749E-03 -5.803749E-03  4.974642E-03 -8.084185E-18  1.114671E-17 -1.744269E-18
         3   7 -5.803749E-03 -5.803749E-03  4.974642E-03 -2.177341E-17  1.649804E-18 -1.660420E-17
         3   8 -5.803749E-03 -5.803749E-03  4.974642E-03 -7.114083E-18 -6.973327E-18  2.584858E-17
         4   1 -5.803749E-03 -5.803749E-03  4.974642E-03  5.084953E-17 -9.029102E-19  2.970444E-17
         4   2 -5.803749E-03 -5.803749E-03  4.974642E-03  4.381628E-17  1.053621E-17  6.108043E-17
         4   3 -5.803749E-03 -5.803749E-03  4.974642E-03  1.350328E-16 -5.379988E-18  6.850853E-17
         4   4 -5.803749E-03 -5.803749E-03  4.974642E-03  1.279996E-16 -9.098713E-18  5.536761E-17
         4   5 -5.803749E-03 -5.803749E-03  4.974642E-03  8.466837E-17 -1.455051E-17 -8.767170E-18
         4   6 -5.803749E-03 -5.803749E-03  4.974642E-03  5.712824E-17 -3.380864E-18  2.565498E-17
         4   7 -5.803749E-03 -5.803749E-03  4.974642E-03  1.088131E-16 -1.654762E-17  3.003692E-17
         4   8 -5.803749E-03 -5.803749E-03  4.974642E-03  8.127301E-17 -2.021245E-17  1.886426E-17
         5   1 -5.803749E-03 -5.803749E-03  4.974642E-03 -8.472226E-17  1.458766E-17 -1.940204E-17
         5   2 -5.803749E-03 -5.803749E-03  4.974642E-03 -6.553580E-17  2.423479E-17  6.683277E-18
         5   3 -5.803749E-03 -5.803749E-03  4.974642E-03 -6.639811E-17 -1.084906E-17 -2.845633E-17
         5   4 -5.803749E-03 -5.803749E-03  4.974642E-03 -4.678049E-17 -2.938879E-17  5.149749E-17
         5   5 -5.803749E-03 -5.803749E-03  4.974642E-03 -8.666247E-17  2.205349E-18 -1.767742E-17
         5   6 -5.803749E-03 -5.803749E-03  4.974642E-03 -1.013218E-16  1.530173E-17  3.282760E-19
         5   7 -5.803749E-03 -5.803749E-03  4.974642E-03  1.034776E-17 -3.001636E-17 -2.845633E-17
         5   8 -5.803749E-03 -5.803749E-03  4.974642E-03 -3.880409E-18 -4.704704E-17  4.355523E-17
         6   1 -5.803749E-03 -5.803749E-03  4.974642E-03  5.163100E-17  1.013534E-17  7.801642E-17
         6   2 -5.803749E-03 -5.803749E-03  4.974642E-03  6.456569E-17  7.576809E-19  6.238068E-17
         6   3 -5.803749E-03 -5.803749E-03  4.974642E-03 -3.794178E-17  1.290664E-17  6.400383E-17
         6   4 -5.803749E-03 -5.803749E-03  4.974642E-03 -2.802518E-17  2.990038E-18  1.360279E-16
         6   5 -5.803749E-03 -5.803749E-03  4.974642E-03  4.613375E-17  1.757641E-17  1.743096E-17
         6   6 -5.803749E-03 -5.803749E-03  4.974642E-03  4.527144E-17  9.276648E-18 -1.533764E-17
         6   7 -5.803749E-03 -5.803749E-03  4.974642E-03  8.623131E-17  2.048226E-18  2.987219E-18
         6   8 -5.803749E-03 -5.803749E-03  4.974642E-03  8.623131E-17 -6.143749E-18  6.097122E-17
         7   1 -5.803749E-03 -5.803749E-03  4.974642E-03 -1.231491E-16 -2.120185E-18 -4.338174E-17
         7   2 -5.803749E-03 -5.803749E-03  4.974642E-03 -1.180830E-16  1.019472E-17 -1.134194E-17
         7   3 -5.803749E-03 -5.803749E-03  4.974642E-03 -3.346853E-17 -3.871993E-18 -3.284177E-18
         7   4 -5.803749E-03 -5.803749E-03  4.974642E-03 -2.840244E-17  1.078733E-17  1.053809E-18
         7   5 -5.803749E-03 -5.803749E-03  4.974642E-03 -7.987175E-17 -2.049283E-17 -3.169515E-17
         7   6 -5.803749E-03 -5.803749E-03  4.974642E-03 -7.178757E-17 -8.029710E-18 -8.405447E-18
         7   7 -5.803749E-03 -5.803749E-03  4.974642E-03 -1.778521E-17 -2.953107E-17  7.540099E-18
         7   8 -5.803749E-03 -5.803749E-03  4.974642E-03 -9.701022E-18 -1.481786E-17  6.792822E-18
         8   1 -5.803749E-03 -5.803749E-03  4.974642E-03  5.518804E-17  2.551656E-17  1.919348E-17
         8   2 -5.803749E-03 -5.803749E-03  4.974642E-03  3.222895E-17  5.435016E-17 -3.968850E-17
         8   3 -5.803749E-03 -5.803749E-03  4.974642E-03  5.260110E-17  3.629477E-17  9.276880E-18
         8   4 -5.803749E-03 -5.803749E-03  4.974642E-03  3.018096E-17  5.957723E-17 -3.606376E-18
         8   5 -5.803749E-03 -5.803749E-03  4.974642E-03 -2.931865E-17 -2.615840E-17  2.373232E-17
         8   6 -5.803749E-03 -5.803749E-03  4.974642E-03 -6.036192E-17  4.399820E-18 -2.285059E-17
         8   7 -5.803749E-03 -5.803749E-03  4.974642E-03  3.621715E-17 -1.812549E-18  1.036646E-17
         8   8 -5.803749E-03 -5.803749E-03  4.974642E-03  5.605035E-18  2.427242E-17  1.314981E-17
         9   1 -5.803749E-03 -5.803749E-03  4.974642E-03  4.742722E-17 -5.081264E-17  9.214686E-18
         9   2 -5.803749E-03 -5.803749E-03  4.974642E-03  6.359559E-17 -1.233192E-17 -9.391532E-17
         9   3 -5.803749E-03 -5.803749E-03  4.974642E-03 -2.586939E-18  6.009078E-19  4.903121E-18
         9   4 -5.803749E-03 -5.803749E-03  4.974642E-03  1.164123E-17  4.912473E-18 -1.476968E-17
         9   5 -5.803749E-03 -5.803749E-03  4.974642E-03 -3.449252E-17 -5.353496E-17  2.174956E-17
         9   6 -5.803749E-03 -5.803749E-03  4.974642E-03 -7.243430E-17 -7.724576E-18 -6.558232E-17
         9   7 -5.803749E-03 -5.803749E-03  4.974642E-03  2.414477E-17  1.790656E-17  1.959378E-17
         9   8 -5.803749E-03 -5.803749E-03  4.974642E-03 -1.207238E-17  2.394275E-17  1.202937E-17

 displacements (vx,vy,vz) for set NALL and time  0.9667813E+00

         1  0.000000E+00  0.000000E+00  0.000000E+00
         2 -3.000396E+00  0.000000E+00  0.000000E+00
         3 -1.300152E+01  0.000000E+00  0.000000E+00
         4 -1.600192E+01  0.000000E+00  0.000000E+00
         5 -2.600304E+01  0.000000E+00  0.000000E+00
         6 -2.900344E+01  0.000000E+00  0.000000E+00
         7  0.000000E+00 -3.000396E+00  0.000000E+00
         8 -3.000396E+00 -3.000396E+00  0.000000E+00
         9 -1.300152E+01 -3.000396E+00  0.000000E+00
        10 -1.600192E+01 -3.000396E+00  0.000000E+00
        11 -2.600304E+01 -3.000396E+00  0.000000E+00
        12 -2.900344E+01 -3.000396E+00  0.000000E+00
        13  0.000000E+00 -1.300152E+01  0.000000E+00
        14 -3.000396E+00 -1.300152E+01  0.000000E+00
        15 -1.300152E+01 -1.300152E+01  0.000000E+00
        16 -1.600192E+01 -1.300152E+01  0.000000E+00
        17 -2.600304E+01 -1.300152E+01  0.000000E+00
        18 -2.900344E+01 -1.300152E+01  0.000000E+00
        19  0.000000E+00 -1.600192E+01  0.000000E+00
        20 -3.000396E+00 -1.600192E+01  0.000000E+00
        21 -1.300152E+01 -1.600192E+01  0.000000E+00
        22 -1.600192E+01 -1.600192E+01  0.000000E+00
        23 -2.600304E+01 -1.600192E+01  0.000000E+00
        24 -2.900344E+01 -1.600192E+01  0.000000E+00
        25  0.000000E+00 -2.600304E+01  0.000000E+00
        26 -3.000396E+00 -2.600304E+01  0.000000E+00
        27 -1.300152E+01 -2.600304E+01  0.000000E+00
        28 -1.600192E+01 -2.600304E+01  0.000000E+00
        29 -2.600304E+01 -2.600304E+01  0.000000E+00
        30 -2.900344E+01 -2.600304E+01  0.000000E+00
        31  0.000000E+00 -2.900344E+01  0.000000E+00
        32 -3.000396E+00 -2.900344E+01  0.000000E+00
        33 -1.300152E+01 -2.900344E+01  0.000000E+00
        34 -1.600192E+01 -2.900344E+01  0.000000E+00
        35 -2.600304E+01 -2.900344E+01  0.000000E+00
        36 -2.900344E+01 -2.900344E+01  0.000000E+00
        37  0.000000E+00  0.000000E+00  3.580515E+00
        38 -3.000396E+00  0.000000E+00  3.580515E+00
        39 -1.300152E+01  0.000000E+00  3.580515E+00
        40 -1.600192E+01  0.000000E+00  3.580515E+00
        41 -2.600304E+01  0.000000E+00  3.580515E+00
        42 -2.900344E+01  0.000000E+00  3.580515E+00
        43  0.000000E+00 -3.000396E+00  3.580515E+00
        44 -3.000396E+00 -3.000396E+00  3.580515E+00
        45 -1.300152E+01 -3.000396E+00  3.580515E+00
        46 -1.600192E+01 -3.000396E+00  3.580515E+00
        47 -2.600304E+01 -3.000396E+00  3.580515E+00
        48 -2.900344E+01 -3.000396E+00  3.580515E+00
        49  0.000000E+00 -1.300152E+01  3.580515E+00
        50 -3.000396E+00 -1.300152E+01  3.580515E+00
        51 -1.300152E+01 -1.300152E+01  3.580515E+00
        52 -1.600192E+01 -1.300152E+01  3.580515E+00
        53 -2.600304E+01 -1.300152E+01  3.580515E+00
        54 -2.900344E+01 -1.300152E+01  3.580515E+00
        55  0.000000E+00 -1.600192E+01  3.580515E+00
        56 -3.000396E+00 -1.600192E+01  3.580515E+00
        57 -1.300152E+01 -1.600192E+01  3.580515E+00
        58 -1.600192E+01 -1.600192E+01  3.580515E+00
        59 -2.600304E+01 -1.600192E+01  3.580515E+00
        60 -2.900344E+01 -1.600192E+01  3.580515E+00
        61  0.000000E+00 -2.600304E+01  3.580515E+00
        62 -3.000396E+00 -2.600304E+01  3.580515E+00
        63 -1.300152E+01 -2.600304E+01  3.580515E+00
        64 -1.600192E+01 -2.600304E+01  3.580515E+00
        65 -2.600304E+01 -2.600304E+01  3.580515E+00
        66 -2.900344E+01 -2.600304E+01  3.580515E+00
        67  0.000000E+00 -2.900344E+01  3.580515E+00
        68 -3.000396E+00 -2.900344E+01  3.580515E+00
        69 -1.300152E+01 -2.900344E+01  3.580515E+00
        70 -1.600192E+01 -2.900344E+01  3.580515E+00
        71 -2.600304E+01 -2.900344E+01  3.580515E+00
        72 -2.900344E+01 -2.900344E+01  3.580515E+00

 stresses (elem, integ.pnt.,sxx,syy,szz,sxy,sxz,syz) for set EALL and time  0.9667813E+00

         1   1 -1.785702E+03 -1.785702E+03  1.343878E-10  1.295206E-12 -7.591284E-13  9.760965E-13
         1   2 -1.785702E+03 -1.785702E+03  1.436400E-10 -7.407222E-13 -3.241743E-12 -1.744517E-14
         1   3 -1.785702E+03 -1.785702E+03  1.283739E-10  6.861204E-12 -7.279537E-13  4.610259E-12
         1   4 -1.785702E+03 -1.785702E+03  1.431774E-10  4.825276E-12 -5.141491E-12 -1.085801E-12
         1   5 -1.785702E+03 -1.785702E+03  1.364696E-10 -2.048626E-12 -3.867410E-13 -1.150851E-13
         1   6 -1.785702E+03 -1.785702E+03  1.362383E-10 -6.687663E-12 -2.869355E-12  1.104047E-12
         1   7 -1.785702E+03 -1.785702E+03  1.262922E-10 -2.912096E-12  1.783496E-12  3.519077E-12
         1   8 -1.785702E+03 -1.785702E+03  1.313809E-10 -7.584995E-12 -2.630041E-12  3.569090E-14
         2   1 -1.785702E+03 -1.785702E+03  1.320748E-10 -5.070772E-12  1.661496E-12  2.482956E-13
         2   2 -1.785702E+03 -1.785702E+03  1.422522E-10 -3.394624E-12 -1.280862E-12  8.276910E-13
         2   3 -1.785702E+03 -1.785702E+03  1.332313E-10  6.095085E-12  4.517958E-12  1.614390E-12
         2   4 -1.785702E+03 -1.785702E+03  1.399392E-10  7.855888E-12 -2.907993E-12  5.267547E-12
         2   5 -1.785702E+03 -1.785702E+03  1.281426E-10  4.402006E-13 -9.928464E-13 -4.445182E-13
         2   6 -1.785702E+03 -1.785702E+03  1.447965E-10 -2.810512E-12 -4.092831E-12 -1.343726E-12
         2   7 -1.785702E+03 -1.785702E+03  1.205096E-10  1.567791E-11  4.130369E-13  9.916327E-13
         2   8 -1.785702E+03 -1.785702E+03  1.339252E-10  1.242720E-11 -6.697661E-12  3.010895E-12
         3   1 -1.785702E+03 -1.785702E+03  1.443339E-10 -2.145978E-12  5.432063E-12 -4.403689E-13
         3   2 -1.785702E+03 -1.785702E+03  1.330000E-10 -1.942808E-12  5.281327E-13  7.194695E-13
         3   3 -1.785702E+03 -1.785702E+03  1.450279E-10 -8.363812E-12  3.704178E-12 -2.296857E-12
         3   4 -1.785702E+03 -1.785702E+03  1.297618E-10 -8.329950E-12  1.182156E-12  3.519671E-12
         3   5 -1.785702E+03 -1.785702E+03  1.313809E-10 -1.032778E-12  4.686513E-12  1.658431E-13
         3   6 -1.785702E+03 -1.785702E+03  1.299931E-10 -6.264393E-13  1.854060E-13 -1.161886E-13
         3   7 -1.785702E+03 -1.785702E+03  1.341565E-10 -9.142628E-13  1.784719E-12 -1.655617E-12
         3   8 -1.785702E+03 -1.785702E+03  1.288365E-10 -7.788165E-13 -1.227695E-12  2.701769E-12
         4   1 -1.785702E+03 -1.785702E+03  1.288365E-10  6.425236E-12 -3.206991E-13  3.506018E-12
         4   2 -1.785702E+03 -1.785702E+03  1.515044E-10  2.302588E-12  1.200833E-12  1.015095E-11
         4   3 -1.785702E+03 -1.785702E+03  1.089444E-10  2.462584E-11 -1.340639E-12  1.187773E-11
         4   4 -1.785702E+03 -1.785702E+03  1.330000E-10  2.050319E-11 -3.127071E-12  8.697283E-12
         4   5 -1.785702E+03 -1.785702E+03  1.496539E-10  1.318909E-11 -2.730416E-12 -1.603871E-12
         4   6 -1.785702E+03 -1.785702E+03  1.519670E-10  4.639037E-12 -1.197938E-12  5.430380E-12
         4   7 -1.785702E+03 -1.785702E+03  1.228226E-10  1.853922E-11 -3.332479E-12  7.083091E-12
         4   8 -1.785702E+03 -1.785702E+03  1.258296E-10  9.989168E-12 -5.083882E-12  4.081799E-12
         5   1 -1.785702E+03 -1.785702E+03  1.297618E-10 -1.031085E-11  1.135438E-12 -1.201302E-12
         5   2 -1.785702E+03 -1.785702E+03  1.346192E-10 -5.671816E-12  2.755486E-12  3.904717E-12
         5   3 -1.785702E+03 -1.785702E+03  1.318435E-10 -6.569148E-12 -4.359252E-12 -2.602425E-12
         5   4 -1.785702E+03 -1.785702E+03  1.373948E-10 -1.845456E-12 -1.150498E-11  1.237699E-11
         5   5 -1.785702E+03 -1.785702E+03  1.299931E-10 -1.130977E-11  8.453223E-13 -2.670045E-12
         5   6 -1.785702E+03 -1.785702E+03  1.570557E-10 -1.875932E-11  2.298987E-12  2.113418E-12
         5   7 -1.785702E+03 -1.785702E+03  1.126452E-10  6.501425E-12 -4.897732E-12 -4.386420E-12
         5   8 -1.785702E+03 -1.785702E+03  1.397078E-10 -8.804012E-13 -1.207849E-11  1.032692E-11
         6   1 -1.785702E+03 -1.785702E+03  1.482661E-10  4.435868E-12  1.195741E-12  6.611507E-12
         6   2 -1.785702E+03 -1.785702E+03  1.304557E-10  5.756470E-12  6.528056E-13  3.410106E-12
         6   3 -1.785702E+03 -1.785702E+03  1.443339E-10 -8.397673E-12  5.302022E-12  2.013705E-13
         6   4 -1.785702E+03 -1.785702E+03  1.165774E-10 -7.381826E-12  3.280363E-13  1.418557E-11
         6   5 -1.785702E+03 -1.785702E+03  1.325374E-10  9.345798E-12  1.998812E-12  4.095796E-12
         6   6 -1.785702E+03 -1.785702E+03  1.505792E-10  5.417854E-12  1.228195E-12 -2.654020E-12
         6   7 -1.785702E+03 -1.785702E+03  1.207409E-10  1.896249E-11  2.710169E-12 -2.069144E-12
         6   8 -1.785702E+03 -1.785702E+03  1.276800E-10  1.530544E-11 -2.544042E-12  8.047443E-12
         7   1 -1.785702E+03 -1.785702E+03  1.133391E-10 -2.362269E-11  4.066940E-13 -9.502292E-12
         7   2 -1.785702E+03 -1.785702E+03  1.320748E-10 -2.004606E-11  5.120159E-12 -7.760409E-13
         7   3 -1.785702E+03 -1.785702E+03  1.251357E-10 -5.066540E-12 -1.198244E-12 -1.656004E-12
         7   4 -1.785702E+03 -1.785702E+03  1.413270E-10 -1.489910E-12  1.590941E-13  2.748012E-13
         7   5 -1.785702E+03 -1.785702E+03  1.380887E-10 -1.281661E-11 -3.193845E-12 -7.672533E-12
         7   6 -1.785702E+03 -1.785702E+03  1.431774E-10 -1.381553E-11  1.543702E-12  4.871820E-13
         7   7 -1.785702E+03 -1.785702E+03  1.427148E-10 -3.606259E-12 -5.865979E-12  4.539789E-13
         7   8 -1.785702E+03 -1.785702E+03  1.450279E-10 -4.605176E-12 -4.482370E-12  1.923333E-12
         8   1 -1.785702E+03 -1.785702E+03  1.327687E-10  4.876068E-12  1.388494E-12  9.226268E-13
         8   2 -1.785702E+03 -1.785702E+03  1.184278E-10  3.284574E-12  9.558792E-12 -6.194976E-12
         8   3 -1.785702E+03 -1.785702E+03  1.339252E-10  6.501425E-12  3.938639E-12  1.342964E-12
         8   4 -1.785702E+03 -1.785702E+03  1.265235E-10  4.994584E-12  3.798527E-12 -5.247582E-13
         8   5 -1.785702E+03 -1.785702E+03  1.480348E-10 -4.876068E-12 -5.154653E-12  2.290934E-12
         8   6 -1.785702E+03 -1.785702E+03  1.468783E-10 -1.774347E-11  3.225813E-12 -2.182536E-12
         8   7 -1.785702E+03 -1.785702E+03  1.306870E-10  5.417854E-12  5.485006E-13  2.711271E-12
         8   8 -1.785702E+03 -1.785702E+03  1.367009E-10 -7.381826E-12  5.810761E-14  3.404635E-12
         9   1 -1.785702E+03 -1.785702E+03  1.297618E-10  7.991334E-12 -1.491717E-11  1.013617E-11
         9   2 -1.785702E+03 -1.785702E+03  1.188905E-10  1.100502E-11 -3.900843E-12 -1.301337E-11
         9   3 -1.785702E+03 -1.785702E+03  1.369322E-10 -6.772317E-13  4.159431E-12  3.761063E-12
         9   4 -1.785702E+03 -1.785702E+03  1.292992E-10  1.896249E-12  1.357185E-12 -3.096097E-12
         9   5 -1.785702E+03 -1.785702E+03  1.360070E-10 -1.625356E-12 -1.341276E-11  1.126199E-11
         9   6 -1.785702E+03 -1.785702E+03  1.614505E-10 -1.544088E-11 -2.554062E-12 -1.147114E-11
         9   7 -1.785702E+03 -1.785702E+03  1.158835E-10  1.354463E-11  5.992288E-12  4.606660E-12
         9   8 -1.785702E+03 -1.785702E+03  1.452592E-10 -5.417854E-13  4.030716E-12 -7.354260E-13

 strains (elem, integ.pnt.,exx,eyy,ezz,exy,exz,eyz) forset EALL and time  0.9667813E+00

         1   1 -5.982788E-03 -5.982788E-03  5.128104E-03  8.244375E-18 -4.650792E-18  5.955905E-18
         1   2 -5.982788E-03 -5.982788E-03  5.128104E-03 -4.714920E-18 -1.992713E-17 -5.401197E-20
         1   3 -5.982788E-03 -5.982788E-03  5.128104E-03  4.367363E-17 -4.357090E-18  2.831810E-17
         1   4 -5.982788E-03 -5.982788E-03  5.128104E-03  3.071434E-17 -3.151503E-17 -6.627958E-18
         1   5 -5.982788E-03 -5.982788E-03  5.128104E-03 -1.304012E-17 -2.307834E-18 -9.095071E-19
         1   6 -5.982788E-03 -5.982788E-03  5.128104E-03 -4.256900E-17 -1.758418E-17  7.002106E-18
         1   7 -5.982788E-03 -5.982788E-03  5.128104E-03 -1.853637E-17  1.144425E-17  2.145269E-17
         1   8 -5.982788E-03 -5.982788E-03  5.128104E-03 -4.828079E-17 -1.571369E-17  4.281594E-19
         2   1 -5.982788E-03 -5.982788E-03  5.128104E-03 -3.227700E-17  1.009010E-17  1.489492E-18
         2   2 -5.982788E-03 -5.982788E-03  5.128104E-03 -2.160781E-17 -8.015197E-18  4.982791E-18
         2   3 -5.982788E-03 -5.982788E-03  5.128104E-03  3.879706E-17  2.759194E-17  9.895521E-18
         2   4 -5.982788E-03 -5.982788E-03  5.128104E-03  5.000510E-17 -1.810238E-17  3.230209E-17
         2   5 -5.982788E-03 -5.982788E-03  5.128104E-03  2.802010E-18 -6.610289E-18 -2.869500E-18
         2   6 -5.982788E-03 -5.982788E-03  5.128104E-03 -1.788976E-17 -2.568551E-17 -8.680676E-18
         2   7 -5.982788E-03 -5.982788E-03  5.128104E-03  9.979466E-17  1.764914E-18  5.967608E-18
         2   8 -5.982788E-03 -5.982788E-03  5.128104E-03  7.910289E-17 -4.198955E-17  1.811234E-17
         3   1 -5.982788E-03 -5.982788E-03  5.128104E-03 -1.365980E-17  3.339171E-17 -2.678573E-18
         3   2 -5.982788E-03 -5.982788E-03  5.128104E-03 -1.236656E-17  3.216216E-18  4.382787E-18
         3   3 -5.982788E-03 -5.982788E-03  5.128104E-03 -5.323819E-17  2.268515E-17 -1.410215E-17
         3   4 -5.982788E-03 -5.982788E-03  5.128104E-03 -5.302265E-17  7.166331E-18  2.161155E-17
         3   5 -5.982788E-03 -5.982788E-03  5.128104E-03 -6.573946E-18  2.871061E-17  1.135545E-18
         3   6 -5.982788E-03 -5.982788E-03  5.128104E-03 -3.987476E-18  1.013822E-18 -8.755479E-19
         3   7 -5.982788E-03 -5.982788E-03  5.128104E-03 -5.819559E-18  1.056967E-17 -1.007249E-17
         3   8 -5.982788E-03 -5.982788E-03  5.128104E-03 -4.957402E-18 -7.966703E-18  1.645948E-17
         4   1 -5.982788E-03 -5.982788E-03  5.128104E-03  4.089857E-17 -2.095616E-18  2.131720E-17
         4   2 -5.982788E-03 -5.982788E-03  5.128104E-03  1.465667E-17  7.266869E-18  6.222601E-17
         4   3 -5.982788E-03 -5.982788E-03  5.128104E-03  1.567509E-16 -8.347672E-18  7.283107E-17
         4   4 -5.982788E-03 -5.982788E-03  5.128104E-03  1.305090E-16 -1.934017E-17  5.328113E-17
         4   5 -5.982788E-03 -5.982788E-03  5.128104E-03  8.395253E-17 -1.725658E-17 -1.082795E-17
         4   6 -5.982788E-03 -5.982788E-03  5.128104E-03  2.952887E-17 -7.826742E-18  3.253520E-17
         4   7 -5.982788E-03 -5.982788E-03  5.128104E-03  1.180077E-16 -2.087977E-17  4.262577E-17
         4   8 -5.982788E-03 -5.982788E-03  5.128104E-03  6.358407E-17 -3.165673E-17  2.423694E-17
         5   1 -5.982788E-03 -5.982788E-03  5.128104E-03 -6.563169E-17  6.969345E-18 -7.480695E-18
         5   2 -5.982788E-03 -5.982788E-03  5.128104E-03 -3.610282E-17  1.693803E-17  2.392993E-17
         5   3 -5.982788E-03 -5.982788E-03  5.128104E-03 -4.181461E-17 -2.684548E-17 -1.610226E-17
         5   4 -5.982788E-03 -5.982788E-03  5.128104E-03 -1.174689E-17 -7.081548E-17  7.606438E-17
         5   5 -5.982788E-03 -5.982788E-03  5.128104E-03 -7.199010E-17  5.144017E-18 -1.676525E-17
         5   6 -5.982788E-03 -5.982788E-03  5.128104E-03 -1.194087E-16  1.408889E-17  1.264260E-17
         5   7 -5.982788E-03 -5.982788E-03  5.128104E-03  4.138353E-17 -3.021406E-17 -2.732667E-17
         5   8 -5.982788E-03 -5.982788E-03  5.128104E-03 -5.604020E-18 -7.439960E-17  6.319016E-17
         6   1 -5.982788E-03 -5.982788E-03  5.128104E-03  2.823564E-17  7.406924E-18  4.057491E-17
         6   2 -5.982788E-03 -5.982788E-03  5.128104E-03  3.664167E-17  4.066067E-18  2.066769E-17
         6   3 -5.982788E-03 -5.982788E-03  5.128104E-03 -5.345373E-17  3.246688E-17  1.131233E-18
         6   4 -5.982788E-03 -5.982788E-03  5.128104E-03 -4.698755E-17  1.860311E-18  8.697325E-17
         6   5 -5.982788E-03 -5.982788E-03  5.128104E-03  5.948882E-17  1.248871E-17  2.480008E-17
         6   6 -5.982788E-03 -5.982788E-03  5.128104E-03  3.448628E-17  7.746851E-18 -1.751519E-17
         6   7 -5.982788E-03 -5.982788E-03  5.128104E-03  1.207020E-16  1.608210E-17 -1.313482E-17
         6   8 -5.982788E-03 -5.982788E-03  5.128104E-03  9.742373E-17 -1.624879E-17  4.832963E-17
         7   1 -5.982788E-03 -5.982788E-03  5.128104E-03 -1.503655E-16  2.319149E-18 -5.835087E-17
         7   2 -5.982788E-03 -5.982788E-03  5.128104E-03 -1.275992E-16  3.132265E-17 -4.708118E-18
         7   3 -5.982788E-03 -5.982788E-03  5.128104E-03 -3.225006E-17 -7.608095E-18 -1.007008E-17
         7   4 -5.982788E-03 -5.982788E-03  5.128104E-03 -9.483726E-18  7.440493E-19  1.758059E-18
         7   5 -5.982788E-03 -5.982788E-03  5.128104E-03 -8.158159E-17 -2.033353E-17 -4.676098E-17
         7   6 -5.982788E-03 -5.982788E-03  5.128104E-03 -8.794000E-17  8.818146E-18  3.254273E-18
         7   7 -5.982788E-03 -5.982788E-03  5.128104E-03 -2.295493E-17 -3.697740E-17  3.244123E-18
         7   8 -5.982788E-03 -5.982788E-03  5.128104E-03 -2.931333E-17 -2.846360E-17  1.209138E-17
         8   1 -5.982788E-03 -5.982788E-03  5.128104E-03  3.103765E-17  8.212471E-18  5.746740E-18
         8   2 -5.982788E-03 -5.982788E-03  5.128104E-03  2.090730E-17  5.848699E-17 -3.791058E-17
         8   3 -5.982788E-03 -5.982788E-03  5.128104E-03  4.138353E-17  2.404398E-17  8.333210E-18
         8   4 -5.982788E-03 -5.982788E-03  5.128104E-03  3.179203E-17  2.318182E-17 -3.020468E-18
         8   5 -5.982788E-03 -5.982788E-03  5.128104E-03 -3.103765E-17 -3.295035E-17  1.435575E-17
         8   6 -5.982788E-03 -5.982788E-03  5.128104E-03 -1.129426E-16  1.861741E-17 -1.264603E-17
         8   7 -5.982788E-03 -5.982788E-03  5.128104E-03  3.448628E-17  2.655995E-18  1.694222E-17
         8   8 -5.982788E-03 -5.982788E-03  5.128104E-03 -4.698755E-17 -3.615537E-19  2.173127E-17
         9   1 -5.982788E-03 -5.982788E-03  5.128104E-03  5.086726E-17 -9.174112E-17  6.242632E-17
         9   2 -5.982788E-03 -5.982788E-03  5.128104E-03  7.005025E-17 -2.395403E-17 -7.996169E-17
         9   3 -5.982788E-03 -5.982788E-03  5.128104E-03 -4.310784E-18  2.570461E-17  2.319819E-17
         9   4 -5.982788E-03 -5.982788E-03  5.128104E-03  1.207020E-17  8.461468E-18 -1.893685E-17
         9   5 -5.982788E-03 -5.982788E-03  5.128104E-03 -1.034588E-17 -8.235336E-17  6.950968E-17
         9   6 -5.982788E-03 -5.982788E-03  5.128104E-03 -9.828588E-17 -1.553621E-17 -7.015903E-17
         9   7 -5.982788E-03 -5.982788E-03  5.128104E-03  8.621569E-17  3.727522E-17  2.855723E-17
         9   8 -5.982788E-03 -5.982788E-03  5.128104E-03 -3.448628E-18  2.520502E-17 -4.093852E-18

 displacements (vx,vy,vz) for set NALL and time  0.9757813E+00

         1  0.000000E+00  0.000000E+00  0.000000E+00
         2 -3.090477E+00  0.000000E+00  0.000000E+00
         3 -1.309148E+01  0.000000E+00  0.000000E+00
         4 -1.618196E+01  0.000000E+00  0.000000E+00
         5 -2.618296E+01  0.000000E+00  0.000000E+00
         6 -2.927344E+01  0.000000E+00  0.000000E+00
         7  0.000000E+00 -3.090477E+00  0.000000E+00
         8 -3.090477E+00 -3.090477E+00  0.000000E+00
         9 -1.309148E+01 -3.090477E+00  0.000000E+00
        10 -1.618196E+01 -3.090477E+00  0.000000E+00
        11 -2.618296E+01 -3.090477E+00  0.000000E+00
        12 -2.927344E+01 -3.090477E+00  0.000000E+00
        13  0.000000E+00 -1.309148E+01  0.000000E+00
        14 -3.090477E+00 -1.309148E+01  0.000000E+00
        15 -1.309148E+01 -1.309148E+01  0.000000E+00
        16 -1.618196E+01 -1.309148E+01  0.000000E+00
        17 -2.618296E+01 -1.309148E+01  0.000000E+00
        18 -2.927344E+01 -1.309148E+01  0.000000E+00
        19  0.000000E+00 -1.618196E+01  0.000000E+00
        20 -3.090477E+00 -1.618196E+01  0.000000E+00
        21 -1.309148E+01 -1.618196E+01  0.000000E+00
        22 -1.618196E+01 -1.618196E+01  0.000000E+00
        23 -2.618296E+01 -1.618196E+01  0.000000E+00
        24 -2.927344E+01 -1.618196E+01  0.000000E+00
        25  0.000000E+00 -2.618296E+01  0.000000E+00
        26 -3.090477E+00 -2.618296E+01  0.000000E+00
        27 -1.309148E+01 -2.618296E+01  0.000000E+00
        28 -1.618196E+01 -2.618296E+01  0.000000E+00
        29 -2.618296E+01 -2.618296E+01  0.000000E+00
        30 -2.927344E+01 -2.618296E+01  0.000000E+00
        31  0.000000E+00 -2.927344E+01  0.000000E+00
        32 -3.090477E+00 -2.927344E+01  0.000000E+00
        33 -1.309148E+01 -2.927344E+01  0.000000E+00
        34 -1.618196E+01 -2.927344E+01  0.000000E+00
        35 -2.618296E+01 -2.927344E+01  0.000000E+00
        36 -2.927344E+01 -2.927344E+01  0.000000E+00
        37  0.000000E+00  0.000000E+00  3.687399E+00
        38 -3.090477E+00  0.000000E+00  3.687399E+00
        39 -1.309148E+01  0.000000E+00  3.687399E+00
        40 -1.618196E+01  0.000000E+00  3.687399E+00
        41 -2.618296E+01  0.000000E+00  3.687399E+00
        42 -2.927344E+01  0.000000E+00  3.687399E+00
        43  0.000000E+00 -3.090477E+00  3.687399E+00
        44 -3.090477E+00 -3.090477E+00  3.687399E+00
        45 -1.309148E+01 -3.090477E+00  3.687399E+00
        46 -1.618196E+01 -3.090477E+00  3.687399E+00
        47 -2.618296E+01 -3.090477E+00  3.687399E+00
        48 -2.927344E+01 -3.090477E+00  3.687399E+00
        49  0.000000E+00 -1.309148E+01  3.687399E+00
        50 -3.090477E+00 -1.309148E+01  3.687399E+00
        51 -1.309148E+01 -1.309148E+01  3.687399E+00
        52 -1.618196E+01 -1.309148E+01  3.687399E+00
        53 -2.618296E+01 -1.309148E+01  3.687399E+00
        54 -2.927344E+01 -1.309148E+01  3.687399E+00
        55  0.000000E+00 -1.618196E+01  3.687399E+00
        56 -3.090477E+00 -1.618196E+01  3.687399E+00
        57 -1.309148E+01 -1.618196E+01  3.687399E+00
        58 -1.618196E+01 -1.618196E+01  3.687399E+00
        59 -2.618296E+01 -1.618196E+01  3.687399E+00
        60 -2.927344E+01 -1.618196E+01  3.687399E+00
        61  0.000000E+00 -2.618296E+01  3.687399E+00
        62 -3.090477E+00 -2.618296E+01  3.687399E+00
        63 -1.309148E+01 -2.618296E+01  3.687399E+00
        64 -1.618196E+01 -2.618296E+01  3.687399E+00
        65 -2.618296E+01 -2.618296E+01  3.687399E+00
        66 -2.927344E+01 -2.618296E+01  3.687399E+00
        67  0.000000E+00 -2.927344E+01  3.687399E+00
        68 -3.090477E+00 -2.927344E+01  3.687399E+00
        69 -1.309148E+01 -2.927344E+01  3.687399E+00
        70 -1.618196E+01 -2.927344E+01  3.687399E+00
        71 -2.618296E+01 -2.927344E+01  3.687399E+00
        72 -2.927344E+01 -2.927344E+01  3.687399E+00

 stresses (elem, integ.pnt.,sxx,syy,szz,sxy,sxz,syz) for set EALL and time  0.9757813E+00

         1   1 -1.838869E+03 -1.838869E+03  1.555165E-10  5.369989E-13 -9.777989E-13  6.605468E-13
         1   2 -1.838869E+03 -1.838869E+03  1.656992E-10 -4.744195E-12 -3.440710E-12 -3.323870E-13
         1   3 -1.838869E+03 -1.838869E+03  1.501938E-10  7.327710E-12 -2.826181E-13  1.343594E-12
         1   4 -1.838869E+03 -1.838869E+03  1.619964E-10  2.046516E-12 -1.578657E-12 -3.204689E-12
         1   5 -1.838869E+03 -1.838869E+03  1.511195E-10 -6.257940E-13 -1.202888E-12  1.820623E-12
         1   6 -1.838869E+03 -1.838869E+03  1.543594E-10 -4.397472E-12 -3.665800E-12  1.624160E-12
         1   7 -1.838869E+03 -1.838869E+03  1.483424E-10  1.437635E-12  2.714482E-13  2.468643E-12
         1   8 -1.838869E+03 -1.838869E+03  1.529709E-10 -2.334043E-12 -1.059618E-12 -1.248142E-12
         2   1 -1.838869E+03 -1.838869E+03  1.538966E-10 -1.200848E-12  2.495031E-12  2.577433E-13
         2   2 -1.838869E+03 -1.838869E+03  1.640792E-10 -7.272742E-13 -2.513983E-12  3.515917E-13
         2   3 -1.838869E+03 -1.838869E+03  1.513509E-10  1.035097E-11  3.063798E-12  1.877792E-12
         2   4 -1.838869E+03 -1.838869E+03  1.594507E-10  1.090911E-11 -6.141494E-13  3.156076E-12
         2   5 -1.838869E+03 -1.838869E+03  1.457967E-10  5.074006E-13 -4.960616E-13 -7.291874E-13
         2   6 -1.838869E+03 -1.838869E+03  1.587565E-10  3.010577E-12 -5.662702E-12 -1.643863E-12
         2   7 -1.838869E+03 -1.838869E+03  1.467224E-10  1.366599E-11 -4.982171E-13  8.908608E-13
         2   8 -1.838869E+03 -1.838869E+03  1.573679E-10  1.616916E-11 -4.316277E-12  1.152014E-12
         3   1 -1.838869E+03 -1.838869E+03  1.626907E-10 -1.839327E-12  6.170525E-12 -3.820016E-14
         3   2 -1.838869E+03 -1.838869E+03  1.532023E-10 -1.331927E-12  1.371680E-12  2.582371E-13
         3   3 -1.838869E+03 -1.838869E+03  1.599136E-10 -5.750540E-12  3.469774E-12  1.161511E-12
         3   4 -1.838869E+03 -1.838869E+03  1.527394E-10 -5.141659E-12  3.873034E-13  1.468845E-12
         3   5 -1.838869E+03 -1.838869E+03  1.550537E-10 -6.832994E-12  4.311483E-12 -1.362865E-12
         3   6 -1.838869E+03 -1.838869E+03  1.453339E-10 -2.909097E-12  4.058533E-13 -2.135352E-13
         3   7 -1.838869E+03 -1.838869E+03  1.571365E-10 -1.075689E-11  2.109663E-12 -1.894244E-13
         3   8 -1.838869E+03 -1.838869E+03  1.499624E-10 -6.697688E-12  2.882030E-13  9.712504E-13
         4   1 -1.838869E+03 -1.838869E+03  1.515823E-10  4.693455E-13  4.249389E-13  1.974337E-12
         4   2 -1.838869E+03 -1.838869E+03  1.645420E-10 -2.198736E-13  4.214538E-12  8.569469E-12
         4   3 -1.838869E+03 -1.838869E+03  1.423254E-10  1.276535E-11 -1.441697E-12  3.795797E-12
         4   4 -1.838869E+03 -1.838869E+03  1.552851E-10  1.207613E-11 -2.510053E-12  6.783037E-12
         4   5 -1.838869E+03 -1.838869E+03  1.629221E-10  7.120521E-12 -2.267378E-12 -8.970893E-13
         4   6 -1.838869E+03 -1.838869E+03  1.682448E-10 -1.014801E-13  1.522222E-12  5.585098E-12
         4   7 -1.838869E+03 -1.838869E+03  1.432511E-10  1.490066E-11 -4.263773E-12  8.192862E-13
         4   8 -1.838869E+03 -1.838869E+03  1.478796E-10  7.678662E-12 -5.349643E-12  3.903751E-12
         5   1 -1.838869E+03 -1.838869E+03  1.476481E-10 -1.124738E-11 -2.543486E-12  1.574667E-12
         5   2 -1.838869E+03 -1.838869E+03  1.564422E-10 -9.995791E-12  1.090677E-12 -2.212154E-12
         5   3 -1.838869E+03 -1.838869E+03  1.497309E-10 -6.765341E-14  2.934617E-12  3.220987E-12
         5   4 -1.838869E+03 -1.838869E+03  1.610707E-10  1.268501E-12 -1.969312E-12 -8.328738E-13
         5   5 -1.838869E+03 -1.838869E+03  1.580622E-10 -1.055393E-11 -5.606570E-12  1.990217E-12
         5   6 -1.838869E+03 -1.838869E+03  1.682448E-10 -2.022837E-11 -1.998678E-12 -1.105816E-12
         5   7 -1.838869E+03 -1.838869E+03  1.432511E-10  1.623682E-12  5.971501E-13  3.636537E-12
         5   8 -1.838869E+03 -1.838869E+03  1.552851E-10 -8.591983E-12 -4.201696E-12  5.231884E-13
         6   1 -1.838869E+03 -1.838869E+03  1.580622E-10  7.035955E-12  3.014093E-13  1.720365E-12
         6   2 -1.838869E+03 -1.838869E+03  1.541280E-10  8.693463E-12  5.621285E-14  4.568269E-12
         6   3 -1.838869E+03 -1.838869E+03  1.580622E-10  2.638483E-12  1.656292E-12 -1.186965E-12
         6   4 -1.838869E+03 -1.838869E+03  1.451025E-10  4.363645E-12  4.500115E-14  1.005449E-11
         6   5 -1.838869E+03 -1.838869E+03  1.522766E-10  1.528967E-11  8.042108E-13  7.499507E-13
         6   6 -1.838869E+03 -1.838869E+03  1.663934E-10  1.488375E-11  1.382174E-12 -4.542133E-13
         6   7 -1.838869E+03 -1.838869E+03  1.492681E-10  2.219032E-11 -6.638605E-13 -2.367548E-12
         6   8 -1.838869E+03 -1.838869E+03  1.538966E-10  2.191970E-11 -1.994927E-12  5.098135E-12
         7   1 -1.838869E+03 -1.838869E+03  1.437139E-10 -1.413533E-11 -2.918947E-13 -3.642121E-12
         7   2 -1.838869E+03 -1.838869E+03  1.550537E-10 -8.761117E-12  1.371939E-12 -8.946120E-13
         7   3 -1.838869E+03 -1.838869E+03  1.511195E-10 -2.498948E-12 -1.165462E-12 -3.494829E-13
         7   4 -1.838869E+03 -1.838869E+03  1.645420E-10  2.875270E-12 -2.514043E-12  4.714827E-13
         7   5 -1.838869E+03 -1.838869E+03  1.518138E-10 -1.249897E-11 -2.795990E-12 -3.498818E-12
         7   6 -1.838869E+03 -1.838869E+03  1.599136E-10 -1.116281E-11 -1.151860E-12 -6.540031E-13
         7   7 -1.838869E+03 -1.838869E+03  1.529709E-10 -3.298104E-12 -3.035436E-12 -1.747414E-12
         7   8 -1.838869E+03 -1.838869E+03  1.629221E-10 -1.961949E-12 -4.348988E-12 -2.511803E-13
         8   1 -1.838869E+03 -1.838869E+03  1.541280E-10 -5.074006E-12  1.990914E-12 -1.306012E-12
         8   2 -1.838869E+03 -1.838869E+03  1.515823E-10 -6.866821E-12  1.404194E-12 -3.101779E-12
         8   3 -1.838869E+03 -1.838869E+03  1.569051E-10  6.765341E-14  7.538055E-12  3.052796E-13
         8   4 -1.838869E+03 -1.838869E+03  1.494995E-10 -1.911209E-12  7.292858E-12 -6.891712E-13
         8   5 -1.838869E+03 -1.838869E+03  1.555165E-10  1.894295E-12 -1.988306E-12  9.432872E-13
         8   6 -1.838869E+03 -1.838869E+03  1.557480E-10  1.353068E-13 -2.575026E-12 -2.982971E-12
         8   7 -1.838869E+03 -1.838869E+03  1.587565E-10  7.847796E-12  1.493673E-12  2.694691E-12
         8   8 -1.838869E+03 -1.838869E+03  1.538966E-10  6.156460E-12  1.738869E-12 -5.833486E-13
         9   1 -1.838869E+03 -1.838869E+03  1.557480E-10  5.276966E-12 -1.446613E-13  2.941560E-12
         9   2 -1.838869E+03 -1.838869E+03  1.504252E-10  3.044403E-13 -5.825122E-13 -7.291543E-12
         9   3 -1.838869E+03 -1.838869E+03  1.483424E-10  7.035955E-12 -1.051640E-12  1.190157E-12
         9   4 -1.838869E+03 -1.838869E+03  1.522766E-10  1.758989E-12  1.393144E-13 -9.121051E-13
         9   5 -1.838869E+03 -1.838869E+03  1.499624E-10 -1.461314E-11 -3.262082E-12  3.010020E-12
         9   6 -1.838869E+03 -1.838869E+03  1.643106E-10 -1.799581E-11 -3.857560E-12 -4.957386E-12
         9   7 -1.838869E+03 -1.838869E+03  1.455653E-10 -5.412273E-13 -6.328988E-13  1.048449E-12
         9   8 -1.838869E+03 -1.838869E+03  1.673191E-10 -3.653284E-12  2.778310E-13  2.451251E-12

 strains (elem, integ.pnt.,exx,eyy,ezz,exy,exz,eyz) forset EALL and time  0.9757813E+00

         1   1 -6.161851E-03 -6.161851E-03  5.281587E-03  3.421065E-18 -6.025501E-18  4.125535E-18
         1   2 -6.161851E-03 -6.161851E-03  5.281587E-03 -3.022390E-17 -2.117786E-17 -1.941243E-18
         1   3 -6.161851E-03 -6.161851E-03  5.281587E-03  4.668272E-17 -1.709106E-18  8.327788E-18
         1   4 -6.161851E-03 -6.161851E-03  5.281587E-03  1.303776E-17 -9.682612E-18 -1.961226E-17
         1   5 -6.161851E-03 -6.161851E-03  5.281587E-03 -3.986753E-18 -7.442388E-18  1.142795E-17
         1   6 -6.161851E-03 -6.161851E-03  5.281587E-03 -2.801502E-17 -2.259474E-17  1.037478E-17
         1   7 -6.161851E-03 -6.161851E-03  5.281587E-03  9.158757E-18  1.778617E-18  1.541471E-17
         1   8 -6.161851E-03 -6.161851E-03  5.281587E-03 -1.486951E-17 -6.410389E-18 -7.296234E-18
         2   1 -6.161851E-03 -6.161851E-03  5.281587E-03 -7.650255E-18  1.519630E-17  1.538792E-18
         2   2 -6.161851E-03 -6.161851E-03  5.281587E-03 -4.633253E-18 -1.562022E-17  2.065565E-18
         2   3 -6.161851E-03 -6.161851E-03  5.281587E-03  6.594305E-17  1.864673E-17  1.150567E-17
         2   4 -6.161851E-03 -6.161851E-03  5.281587E-03  6.949880E-17 -3.980787E-18  1.931874E-17
         2   5 -6.161851E-03 -6.161851E-03  5.281587E-03  3.232502E-18 -3.631950E-18 -4.673715E-18
         2   6 -6.161851E-03 -6.161851E-03  5.281587E-03  1.917951E-17 -3.541822E-17 -1.049600E-17
         2   7 -6.161851E-03 -6.161851E-03  5.281587E-03  8.706206E-17 -3.835278E-18  5.293168E-18
         2   8 -6.161851E-03 -6.161851E-03  5.281587E-03  1.030091E-16 -2.732479E-17  6.702367E-18
         3   1 -6.161851E-03 -6.161851E-03  5.281587E-03 -1.171782E-17  3.789327E-17 -3.041307E-19
         3   2 -6.161851E-03 -6.161851E-03  5.281587E-03 -8.485319E-18  8.369751E-18  1.562812E-18
         3   3 -6.161851E-03 -6.161851E-03  5.281587E-03 -3.663503E-17  2.132210E-17  7.076750E-18
         3   4 -6.161851E-03 -6.161851E-03  5.281587E-03 -3.275602E-17  2.358089E-18  9.011346E-18
         3   5 -6.161851E-03 -6.161851E-03  5.281587E-03 -4.353103E-17  2.627092E-17 -8.641348E-18
         3   6 -6.161851E-03 -6.161851E-03  5.281587E-03 -1.853301E-17  2.242651E-18 -1.407513E-18
         3   7 -6.161851E-03 -6.161851E-03  5.281587E-03 -6.852905E-17  1.288036E-17 -1.422093E-18
         3   8 -6.161851E-03 -6.161851E-03  5.281587E-03 -4.266903E-17  1.674351E-18  5.876604E-18
         4   1 -6.161851E-03 -6.161851E-03  5.281587E-03  2.990065E-18  2.476085E-18  1.198857E-17
         4   2 -6.161851E-03 -6.161851E-03  5.281587E-03 -1.400751E-18  2.579051E-17  5.254964E-17
         4   3 -6.161851E-03 -6.161851E-03  5.281587E-03  8.132437E-17 -9.017732E-18  2.319458E-17
         4   4 -6.161851E-03 -6.161851E-03  5.281587E-03  7.693355E-17 -1.559049E-17  4.155914E-17
         4   5 -6.161851E-03 -6.161851E-03  5.281587E-03  4.536278E-17 -1.447269E-17 -6.121373E-18
         4   6 -6.161851E-03 -6.161851E-03  5.281587E-03 -6.465005E-19  8.841733E-18  3.373374E-17
         4   7 -6.161851E-03 -6.161851E-03  5.281587E-03  9.492782E-17 -2.678456E-17  4.438134E-18
         4   8 -6.161851E-03 -6.161851E-03  5.281587E-03  4.891853E-17 -3.346507E-17  2.338974E-17
         5   1 -6.161851E-03 -6.161851E-03  5.281587E-03 -7.165380E-17 -1.581592E-17  9.707437E-18
         5   2 -6.161851E-03 -6.161851E-03  5.281587E-03 -6.368030E-17  6.542224E-18 -1.354300E-17
         5   3 -6.161851E-03 -6.161851E-03  5.281587E-03 -4.310003E-19  1.793344E-17  1.983594E-17
         5   4 -6.161851E-03 -6.161851E-03  5.281587E-03  8.081256E-18 -1.223658E-17 -5.057987E-18
         5   5 -6.161851E-03 -6.161851E-03  5.281587E-03 -6.723605E-17 -3.511732E-17  1.232323E-17
         5   6 -6.161851E-03 -6.161851E-03  5.281587E-03 -1.288691E-16 -1.292080E-17 -6.556378E-18
         5   7 -6.161851E-03 -6.161851E-03  5.281587E-03  1.034401E-17  3.219609E-18  2.245174E-17
         5   8 -6.161851E-03 -6.161851E-03  5.281587E-03 -5.473704E-17 -2.630391E-17  3.463138E-18
         6   1 -6.161851E-03 -6.161851E-03  5.281587E-03  4.482403E-17  1.917279E-18  1.053468E-17
         6   2 -6.161851E-03 -6.161851E-03  5.281587E-03  5.538354E-17  4.087776E-19  2.786985E-17
         6   3 -6.161851E-03 -6.161851E-03  5.281587E-03  1.680901E-17  1.006644E-17 -7.351831E-18
         6   4 -6.161851E-03 -6.161851E-03  5.281587E-03  2.779952E-17  1.534368E-19  6.162287E-17
         6   5 -6.161851E-03 -6.161851E-03  5.281587E-03  9.740607E-17  5.182174E-18  4.436132E-18
         6   6 -6.161851E-03 -6.161851E-03  5.281587E-03  9.482007E-17  8.737927E-18 -3.675635E-18
         6   7 -6.161851E-03 -6.161851E-03  5.281587E-03  1.413681E-16 -4.538396E-18 -1.474338E-17
         6   8 -6.161851E-03 -6.161851E-03  5.281587E-03  1.396441E-16 -1.272740E-17  3.047866E-17
         7   1 -6.161851E-03 -6.161851E-03  5.281587E-03 -9.005213E-17 -1.922304E-18 -2.241698E-17
         7   2 -6.161851E-03 -6.161851E-03  5.281587E-03 -5.581454E-17  8.313954E-18 -5.486565E-18
         7   3 -6.161851E-03 -6.161851E-03  5.281587E-03 -1.592007E-17 -7.268906E-18 -2.159967E-18
         7   4 -6.161851E-03 -6.161851E-03  5.281587E-03  1.831751E-17 -1.556566E-17  2.917941E-18
         7   5 -6.161851E-03 -6.161851E-03  5.281587E-03 -7.962731E-17 -1.768533E-17 -2.157484E-17
         7   6 -6.161851E-03 -6.161851E-03  5.281587E-03 -7.111505E-17 -7.570294E-18 -3.949515E-18
         7   7 -6.161851E-03 -6.161851E-03  5.281587E-03 -2.101127E-17 -1.903997E-17 -1.079983E-17
         7   8 -6.161851E-03 -6.161851E-03  5.281587E-03 -1.249901E-17 -2.712123E-17 -1.471263E-18
         8   1 -6.161851E-03 -6.161851E-03  5.281587E-03 -3.232502E-17  1.204797E-17 -7.911442E-18
         8   2 -6.161851E-03 -6.161851E-03  5.281587E-03 -4.374653E-17  8.438341E-18 -1.906059E-17
         8   3 -6.161851E-03 -6.161851E-03  5.281587E-03  4.310003E-19  4.607211E-17  2.001565E-18
         8   4 -6.161851E-03 -6.161851E-03  5.281587E-03 -1.217576E-17  4.456361E-17 -4.218329E-18
         8   5 -6.161851E-03 -6.161851E-03  5.281587E-03  1.206801E-17 -1.298535E-17  6.267362E-18
         8   6 -6.161851E-03 -6.161851E-03  5.281587E-03  8.620006E-19 -1.659497E-17 -1.828276E-17
         8   7 -6.161851E-03 -6.161851E-03  5.281587E-03  4.999604E-17  8.044058E-18  1.704237E-17
         8   8 -6.161851E-03 -6.161851E-03  5.281587E-03  3.922103E-17  9.552559E-18 -3.522238E-18
         9   1 -6.161851E-03 -6.161851E-03  5.281587E-03  3.361802E-17 -1.050433E-18  1.810698E-17
         9   2 -6.161851E-03 -6.161851E-03  5.281587E-03  1.939501E-18 -3.744185E-18 -4.468017E-17
         9   3 -6.161851E-03 -6.161851E-03  5.281587E-03  4.482403E-17 -6.460040E-18  7.331970E-18
         9   4 -6.161851E-03 -6.161851E-03  5.281587E-03  1.120601E-17  8.669657E-19 -5.431889E-18
         9   5 -6.161851E-03 -6.161851E-03  5.281587E-03 -9.309607E-17 -2.066391E-17  1.854791E-17
         9   6 -6.161851E-03 -6.161851E-03  5.281587E-03 -1.146461E-16 -2.432741E-17 -2.983736E-17
         9   7 -6.161851E-03 -6.161851E-03  5.281587E-03 -3.448002E-18 -3.864108E-18  6.479900E-18
         9   8 -6.161851E-03 -6.161851E-03  5.281587E-03 -2.327402E-17  1.738896E-18  1.573968E-17

 displacements (vx,vy,vz) for set NALL and time  0.9847813E+00

         1  0.000000E+00  0.000000E+00  0.000000E+00
         2 -3.180599E+00  0.000000E+00  0.000000E+00
         3 -1.318142E+01  0.000000E+00  0.000000E+00
         4 -1.636202E+01  0.000000E+00  0.000000E+00
         5 -2.636284E+01  0.000000E+00  0.000000E+00
         6 -2.954344E+01  0.000000E+00  0.000000E+00
         7  0.000000E+00 -3.180599E+00  0.000000E+00
         8 -3.180599E+00 -3.180599E+00  0.000000E+00
         9 -1.318142E+01 -3.180599E+00  0.000000E+00
        10 -1.636202E+01 -3.180599E+00  0.000000E+00
        11 -2.636284E+01 -3.180599E+00  0.000000E+00
        12 -2.954344E+01 -3.180599E+00  0.000000E+00
        13  0.000000E+00 -1.318142E+01  0.000000E+00
        14 -3.180599E+00 -1.318142E+01  0.000000E+00
        15 -1.318142E+01 -1.318142E+01  0.000000E+00
        16 -1.636202E+01 -1.318142E+01  0.000000E+00
        17 -2.636284E+01 -1.318142E+01  0.000000E+00
        18 -2.954344E+01 -1.318142E+01  0.000000E+00
        19  0.000000E+00 -1.636202E+01  0.000000E+00
        20 -3.180599E+00 -1.636202E+01  0.000000E+00
        21 -1.318142E+01 -1.636202E+01  0.000000E+00
        22 -1.636202E+01 -1.636202E+01  0.000000E+00
        23 -2.636284E+01 -1.636202E+01  0.000000E+00
        24 -2.954344E+01 -1.636202E+01  0.000000E+00
        25  0.000000E+00 -2.636284E+01  0.000000E+00
        26 -3.180599E+00 -2.636284E+01  0.000000E+00
        27 -1.318142E+01 -2.636284E+01  0.000000E+00
        28 -1.636202E+01 -2.636284E+01  0.000000E+00
        29 -2.636284E+01 -2.636284E+01  0.000000E+00
        30 -2.954344E+01 -2.636284E+01  0.000000E+00
        31  0.000000E+00 -2.954344E+01  0.000000E+00
        32 -3.180599E+00 -2.954344E+01  0.000000E+00
        33 -1.318142E+01 -2.954344E+01  0.000000E+00
        34 -1.636202E+01 -2.954344E+01  0.000000E+00
        35 -2.636284E+01 -2.954344E+01  0.000000E+00
        36 -2.954344E+01 -2.954344E+01  0.000000E+00
        37  0.000000E+00  0.000000E+00  3.794296E+00
        38 -3.180599E+00  0.000000E+00  3.794296E+00
        39 -1.318142E+01  0.000000E+00  3.794296E+00
        40 -1.636202E+01  0.000000E+00  3.794296E+00
        41 -2.636284E+01  0.000000E+00  3.794296E+00
        42 -2.954344E+01  0.000000E+00  3.794296E+00
        43  0.000000E+00 -3.180599E+00  3.794296E+00
        44 -3.180599E+00 -3.180599E+00  3.794296E+00
        45 -1.318142E+01 -3.180599E+00  3.794296E+00
        46 -1.636202E+01 -3.180599E+00  3.794296E+00
        47 -2.636284E+01 -3.180599E+00  3.794296E+00
        48 -2.954344E+01 -3.180599E+00  3.794296E+00
        49  0.000000E+00 -1.318142E+01  3.794296E+00
        50 -3.180599E+00 -1.318142E+01  3.794296E+00
        51 -1.318142E+01 -1.318142E+01  3.794296E+00
        52 -1.636202E+01 -1.318142E+01  3.794296E+00
        53 -2.636284E+01 -1.318142E+01  3.794296E+00
        54 -2.954344E+01 -1.318142E+01  3.794296E+00
        55  0.000000E+00 -1.636202E+01  3.794296E+00
        56 -3.180599E+00 -1.636202E+01  3.794296E+00
        57 -1.318142E+01 -1.636202E+01  3.794296E+00
        58 -1.636202E+01 -1.636202E+01  3.794296E+00
        59 -2.636284E+01 -1.636202E+01  3.794296E+00
        60 -2.954344E+01 -1.636202E+01  3.794296E+00
        61  0.000000E+00 -2.636284E+01  3.794296E+00
        62 -3.180599E+00 -2.636284E+01  3.794296E+00
        63 -1.318142E+01 -2.636284E+01  3.794296E+00
        64 -1.636202E+01 -2.636284E+01  3.794296E+00
        65 -2.636284E+01 -2.636284E+01  3.794296E+00
        66 -2.954344E+01 -2.636284E+01  3.794296E+00
        67  0.000000E+00 -2.954344E+01  3.794296E+00
        68 -3.180599E+00 -2.954344E+01  3.794296E+00
        69 -1.318142E+01 -2.954344E+01  3.794296E+00
        70 -1.636202E+01 -2.954344E+01  3.794296E+00
        71 -2.636284E+01 -2.954344E+01  3.794296E+00
        72 -2.954344E+01 -2.954344E+01  3.794296E+00

 stresses (elem, integ.pnt.,sxx,syy,szz,sxy,sxz,syz) for set EALL and time  0.9847813E+00

         1   1 -1.892034E+03 -1.892034E+03  1.185498E-10  1.520632E-13 -4.426742E-13  4.164374E-13
         1   2 -1.892034E+03 -1.892034E+03  1.224860E-10 -2.918768E-12 -1.215481E-12 -5.571477E-13
         1   3 -1.892034E+03 -1.892034E+03  1.157713E-10  3.645292E-12  2.081161E-13  6.441199E-13
         1   4 -1.892034E+03 -1.892034E+03  1.227175E-10  5.744609E-13  2.431442E-13 -3.847597E-12
         1   5 -1.892034E+03 -1.892034E+03  1.176236E-10 -1.132026E-12 -9.013575E-13  1.264569E-12
         1   6 -1.892034E+03 -1.892034E+03  1.139189E-10 -3.024367E-12 -1.674164E-12  1.238641E-12
         1   7 -1.892034E+03 -1.892034E+03  1.162344E-10 -2.433011E-12  6.493880E-13  1.527279E-12
         1   8 -1.892034E+03 -1.892034E+03  1.157713E-10 -4.325352E-12  7.282011E-13 -2.051809E-12
         2   1 -1.892034E+03 -1.892034E+03  1.136874E-10  5.022309E-12  2.715034E-12 -1.997016E-13
         2   2 -1.892034E+03 -1.892034E+03  1.162344E-10  1.267615E-11  2.031987E-12 -2.167069E-14
         2   3 -1.892034E+03 -1.892034E+03  1.180867E-10  1.194541E-11  2.498896E-12  1.639272E-12
         2   4 -1.892034E+03 -1.892034E+03  1.222545E-10  1.966684E-11  1.520157E-13  1.957210E-12
         2   5 -1.892034E+03 -1.892034E+03  1.160028E-10  4.494311E-12 -3.010252E-13 -2.501773E-12
         2   6 -1.892034E+03 -1.892034E+03  1.187813E-10  9.495500E-12 -1.141699E-12 -2.126726E-12
         2   7 -1.892034E+03 -1.892034E+03  1.173921E-10  1.189472E-11 -3.051298E-13 -6.627988E-13
         2   8 -1.892034E+03 -1.892034E+03  1.213283E-10  1.662557E-11 -2.616982E-12 -1.496237E-13
         3   1 -1.892034E+03 -1.892034E+03  1.132243E-10 -1.472478E-11 -6.105111E-13 -2.732467E-13
         3   2 -1.892034E+03 -1.892034E+03  1.120666E-10 -4.080362E-12 -5.006199E-14 -6.106658E-13
         3   3 -1.892034E+03 -1.892034E+03  1.243383E-10 -1.615249E-11  2.926691E-12  5.674270E-13
         3   4 -1.892034E+03 -1.892034E+03  1.208652E-10 -5.677025E-12  1.175287E-12  2.779150E-13
         3   5 -1.892034E+03 -1.892034E+03  1.153082E-10 -1.079649E-11 -9.557420E-14 -1.822282E-12
         3   6 -1.892034E+03 -1.892034E+03  1.143820E-10 -3.632620E-12  2.897346E-13 -3.194056E-12
         3   7 -1.892034E+03 -1.892034E+03  1.222545E-10 -1.216505E-11  2.109893E-12 -9.553373E-13
         3   8 -1.892034E+03 -1.892034E+03  1.190129E-10 -4.730854E-12  4.986022E-13 -2.270601E-12
         4   1 -1.892034E+03 -1.892034E+03  1.116035E-10  1.157370E-12  5.126100E-13 -3.606116E-13
         4   2 -1.892034E+03 -1.892034E+03  1.215598E-10  5.845984E-12  3.997903E-12  5.852338E-12
         4   3 -1.892034E+03 -1.892034E+03  1.146136E-10  1.088941E-11 -1.024298E-12 -1.854713E-13
         4   4 -1.892034E+03 -1.892034E+03  1.245699E-10  1.557803E-11 -1.777401E-12  2.034279E-12
         4   5 -1.892034E+03 -1.892034E+03  1.197075E-10  7.045594E-12 -1.614235E-12 -1.935302E-12
         4   6 -1.892034E+03 -1.892034E+03  1.210968E-10  5.947360E-12  1.846976E-12  3.896666E-12
         4   7 -1.892034E+03 -1.892034E+03  1.132243E-10  1.148922E-11 -3.118868E-12 -1.795190E-12
         4   8 -1.892034E+03 -1.892034E+03  1.148451E-10  1.034030E-11 -3.889486E-12  1.836907E-13
         5   1 -1.892034E+03 -1.892034E+03  1.143820E-10 -1.699728E-11  1.839826E-13  2.106951E-12
         5   2 -1.892034E+03 -1.892034E+03  1.215598E-10 -1.083028E-11  2.031713E-12  7.327570E-12
         5   3 -1.892034E+03 -1.892034E+03  1.104458E-10 -1.047546E-11 -9.222922E-13  4.944225E-12
         5   4 -1.892034E+03 -1.892034E+03  1.173921E-10 -4.291561E-12 -5.686110E-12  1.129893E-11
         5   5 -1.892034E+03 -1.892034E+03  1.229491E-10 -1.297606E-11 -6.664236E-13 -2.788567E-12
         5   6 -1.892034E+03 -1.892034E+03  1.340631E-10 -1.534148E-11  1.400233E-12  1.596509E-12
         5   7 -1.892034E+03 -1.892034E+03  1.046572E-10 -4.325352E-12 -2.358923E-12 -4.767148E-13
         5   8 -1.892034E+03 -1.892034E+03  1.153082E-10 -6.623196E-12 -7.017656E-12  5.817596E-12
         6   1 -1.892034E+03 -1.892034E+03  1.241068E-10  5.795296E-12  1.731034E-12 -2.109893E-13
         6   2 -1.892034E+03 -1.892034E+03  1.153082E-10  6.099423E-12  4.174809E-13  3.256720E-12
         6   3 -1.892034E+03 -1.892034E+03  1.243383E-10 -2.906096E-12  1.393665E-12 -3.994021E-12
         6   4 -1.892034E+03 -1.892034E+03  1.053519E-10 -2.095093E-12 -2.176261E-13  1.047683E-11
         6   5 -1.892034E+03 -1.892034E+03  1.141505E-10  1.338156E-11  3.493025E-12 -1.425751E-13
         6   6 -1.892034E+03 -1.892034E+03  1.278115E-10  1.311122E-11  2.214501E-12 -3.064306E-13
         6   7 -1.892034E+03 -1.892034E+03  1.134558E-10  1.946409E-11 -5.935636E-13 -3.855550E-12
         6   8 -1.892034E+03 -1.892034E+03  1.169290E-10  1.946409E-11 -3.045529E-12  6.279257E-12
         7   1 -1.892034E+03 -1.892034E+03  1.136874E-10 -1.250297E-11 -4.353028E-13 -5.777579E-13
         7   2 -1.892034E+03 -1.892034E+03  1.222545E-10 -1.157370E-11 -4.123704E-14  1.241222E-12
         7   3 -1.892034E+03 -1.892034E+03  1.143820E-10 -2.906096E-12 -6.479514E-13 -1.730880E-14
         7   4 -1.892034E+03 -1.892034E+03  1.224860E-10 -1.976821E-12 -3.589698E-13 -3.730296E-14
         7   5 -1.892034E+03 -1.892034E+03  1.132243E-10 -1.055994E-11 -2.023488E-12 -2.085266E-13
         7   6 -1.892034E+03 -1.892034E+03  1.208652E-10 -9.799627E-12 -1.594394E-12  5.865829E-13
         7   7 -1.892034E+03 -1.892034E+03  1.141505E-10 -2.449907E-12 -2.673081E-12  1.417541E-13
         7   8 -1.892034E+03 -1.892034E+03  1.204021E-10 -1.689591E-12 -2.419128E-12 -3.066329E-13
         8   1 -1.892034E+03 -1.892034E+03  1.204021E-10  4.595687E-12  4.548842E-12 -2.901924E-12
         8   2 -1.892034E+03 -1.892034E+03  1.069727E-10 -6.758363E-14  3.576813E-12 -7.311750E-12
         8   3 -1.892034E+03 -1.892034E+03  1.197075E-10  2.297843E-12  6.899229E-12  1.805457E-13
         8   4 -1.892034E+03 -1.892034E+03  1.062780E-10 -2.365427E-12  6.023527E-12 -1.151342E-12
         8   5 -1.892034E+03 -1.892034E+03  1.231806E-10  2.703345E-13  1.509866E-13  3.751860E-13
         8   6 -1.892034E+03 -1.892034E+03  1.180867E-10 -3.987434E-12 -4.357335E-13 -3.935935E-12
         8   7 -1.892034E+03 -1.892034E+03  1.238753E-10  2.973680E-12  2.722882E-12  3.527712E-12
         8   8 -1.892034E+03 -1.892034E+03  1.197075E-10 -1.284089E-12  2.057348E-12  1.843902E-12
         9   1 -1.892034E+03 -1.892034E+03  1.204021E-10  8.380370E-12 -4.887887E-12  7.302326E-12
         9   2 -1.892034E+03 -1.892034E+03  1.106773E-10  6.183902E-12 -1.350052E-12 -9.475246E-12
         9   3 -1.892034E+03 -1.892034E+03  1.169290E-10  4.595687E-12  6.956359E-13  2.328341E-12
         9   4 -1.892034E+03 -1.892034E+03  1.146136E-10  2.466803E-12  2.052429E-13 -1.344201E-12
         9   5 -1.892034E+03 -1.892034E+03  1.153082E-10 -9.732043E-12 -6.769176E-12  7.070745E-12
         9   6 -1.892034E+03 -1.892034E+03  1.331370E-10 -1.662557E-11 -3.108743E-12 -6.039056E-12
         9   7 -1.892034E+03 -1.892034E+03  1.062780E-10  4.325352E-12  2.083624E-12  2.376983E-12
         9   8 -1.892034E+03 -1.892034E+03  1.303585E-10 -2.297843E-12  1.313006E-12  1.177137E-12

 strains (elem, integ.pnt.,exx,eyy,ezz,exy,exz,eyz) forset EALL and time  0.9847813E+00

         1   1 -6.340966E-03 -6.340966E-03  5.435114E-03  9.695748E-19 -2.744520E-18  2.609803E-18
         1   2 -6.340966E-03 -6.340966E-03  5.435114E-03 -1.861045E-17 -7.498130E-18 -3.332464E-18
         1   3 -6.340966E-03 -6.340966E-03  5.435114E-03  2.324286E-17  1.305540E-18  4.010300E-18
         1   4 -6.340966E-03 -6.340966E-03  5.435114E-03  3.662838E-18  1.521001E-18 -2.357234E-17
         1   5 -6.340966E-03 -6.340966E-03  5.435114E-03 -7.217946E-18 -5.633229E-18  7.951190E-18
         1   6 -6.340966E-03 -6.340966E-03  5.435114E-03 -1.928377E-17 -1.038684E-17  7.977106E-18
         1   7 -6.340966E-03 -6.340966E-03  5.435114E-03 -1.551320E-17  4.085880E-18  9.567148E-18
         1   8 -6.340966E-03 -6.340966E-03  5.435114E-03 -2.757902E-17  4.570668E-18 -1.226277E-17
         2   1 -6.340966E-03 -6.340966E-03  5.435114E-03  3.202290E-17  1.653345E-17 -1.357912E-18
         2   2 -6.340966E-03 -6.340966E-03  5.435114E-03  8.082483E-17  1.233196E-17 -2.444132E-19
         2   3 -6.340966E-03 -6.340966E-03  5.435114E-03  7.616549E-17  1.522365E-17  9.953794E-18
         2   4 -6.340966E-03 -6.340966E-03  5.435114E-03  1.253983E-16  7.877571E-19  1.193041E-17
         2   5 -6.340966E-03 -6.340966E-03  5.435114E-03  2.865632E-17 -2.461179E-18 -1.585596E-17
         2   6 -6.340966E-03 -6.340966E-03  5.435114E-03  6.054456E-17 -7.632244E-18 -1.350330E-17
         2   7 -6.340966E-03 -6.340966E-03  5.435114E-03  7.584230E-17 -2.435631E-18 -4.544257E-18
         2   8 -6.340966E-03 -6.340966E-03  5.435114E-03  1.060068E-16 -1.665606E-17 -1.344491E-18
         3   1 -6.340966E-03 -6.340966E-03  5.435114E-03 -9.388716E-17 -3.731820E-18 -1.767119E-18
         3   2 -6.340966E-03 -6.340966E-03  5.435114E-03 -2.601692E-17 -2.844433E-19 -3.893412E-18
         3   3 -6.340966E-03 -6.340966E-03  5.435114E-03 -1.029904E-16  1.797950E-17  3.403947E-18
         3   4 -6.340966E-03 -6.340966E-03  5.435114E-03 -3.619746E-17  7.206450E-18  1.575510E-18
         3   5 -6.340966E-03 -6.340966E-03  5.435114E-03 -6.883981E-17 -4.888354E-19 -1.152396E-17
         3   6 -6.340966E-03 -6.340966E-03  5.435114E-03 -2.316206E-17  1.881236E-18 -2.016252E-17
         3   7 -6.340966E-03 -6.340966E-03  5.435114E-03 -7.756599E-17  1.287657E-17 -6.191303E-18
         3   8 -6.340966E-03 -6.340966E-03  5.435114E-03 -3.016455E-17  2.965360E-18 -1.447718E-17
         4   1 -6.340966E-03 -6.340966E-03  5.435114E-03  7.379542E-18  3.040729E-18 -2.307049E-18
         4   2 -6.340966E-03 -6.340966E-03  5.435114E-03  3.727477E-17  2.447911E-17  3.591132E-17
         4   3 -6.340966E-03 -6.340966E-03  5.435114E-03  6.943233E-17 -6.412306E-18 -1.229744E-18
         4   4 -6.340966E-03 -6.340966E-03  5.435114E-03  9.932755E-17 -1.104472E-17  1.242606E-17
         4   5 -6.340966E-03 -6.340966E-03  5.435114E-03  4.492363E-17 -1.035346E-17 -1.222932E-17
         4   6 -6.340966E-03 -6.340966E-03  5.435114E-03  3.792115E-17  1.093679E-17  2.364622E-17
         4   7 -6.340966E-03 -6.340966E-03  5.435114E-03  7.325676E-17 -1.960098E-17 -1.136748E-17
         4   8 -6.340966E-03 -6.340966E-03  5.435114E-03  6.593109E-17 -2.434113E-17  8.073493E-19
         5   1 -6.340966E-03 -6.340966E-03  5.435114E-03 -1.083769E-16  1.076455E-18  1.267815E-17
         5   2 -6.340966E-03 -6.340966E-03  5.435114E-03 -6.905527E-17  1.244203E-17  4.477290E-17
         5   3 -6.340966E-03 -6.340966E-03  5.435114E-03 -6.679293E-17 -5.746762E-18  3.013049E-17
         5   4 -6.340966E-03 -6.340966E-03  5.435114E-03 -2.736356E-17 -3.504947E-17  6.920048E-17
         5   5 -6.340966E-03 -6.340966E-03  5.435114E-03 -8.273705E-17 -4.304957E-18 -1.818897E-17
         5   6 -6.340966E-03 -6.340966E-03  5.435114E-03 -9.781933E-17  8.407246E-18  8.702785E-18
         5   7 -6.340966E-03 -6.340966E-03  5.435114E-03 -2.757902E-17 -1.479442E-17 -3.968542E-18
         5   8 -6.340966E-03 -6.340966E-03  5.435114E-03 -4.223037E-17 -4.345074E-17  3.466457E-17
         6   1 -6.340966E-03 -6.340966E-03  5.435114E-03  3.695157E-17  1.073728E-17 -1.287657E-18
         6   2 -6.340966E-03 -6.340966E-03  5.435114E-03  3.889072E-17  2.657493E-18  1.982668E-17
         6   3 -6.340966E-03 -6.340966E-03  5.435114E-03 -1.852965E-17  8.448121E-18 -2.455745E-17
         6   4 -6.340966E-03 -6.340966E-03  5.435114E-03 -1.335859E-17 -1.463088E-18  6.423891E-17
         6   5 -6.340966E-03 -6.340966E-03  5.435114E-03  8.532258E-17  2.182373E-17 -8.465159E-19
         6   6 -6.340966E-03 -6.340966E-03  5.435114E-03  8.359889E-17  1.395940E-17 -2.644274E-18
         6   7 -6.340966E-03 -6.340966E-03  5.435114E-03  1.241056E-16 -4.108225E-18 -2.368539E-17
         6   8 -6.340966E-03 -6.340966E-03  5.435114E-03  1.241056E-16 -1.919050E-17  3.785985E-17
         7   1 -6.340966E-03 -6.340966E-03  5.435114E-03 -7.972060E-17 -2.763307E-18 -3.556385E-18
         7   2 -6.340966E-03 -6.340966E-03  5.435114E-03 -7.379542E-17 -3.393701E-19  7.608842E-18
         7   3 -6.340966E-03 -6.340966E-03  5.435114E-03 -1.852965E-17 -4.094822E-18 -1.090079E-19
         7   4 -6.340966E-03 -6.340966E-03  5.435114E-03 -1.260447E-17 -2.317268E-18 -2.554867E-19
         7   5 -6.340966E-03 -6.340966E-03  5.435114E-03 -6.733158E-17 -1.276414E-17 -1.302985E-18
         7   6 -6.340966E-03 -6.340966E-03  5.435114E-03 -6.248371E-17 -1.012475E-17  3.501458E-18
         7   7 -6.340966E-03 -6.340966E-03  5.435114E-03 -1.562093E-17 -1.684875E-17  8.516253E-19
         7   8 -6.340966E-03 -6.340966E-03  5.435114E-03 -1.077305E-17 -1.528665E-17 -1.992799E-18
         8   1 -6.340966E-03 -6.340966E-03  5.435114E-03  2.930271E-17  2.776894E-17 -1.770017E-17
         8   2 -6.340966E-03 -6.340966E-03  5.435114E-03 -4.309221E-19  2.178989E-17 -4.481718E-17
         8   3 -6.340966E-03 -6.340966E-03  5.435114E-03  1.465135E-17  4.223719E-17  1.260400E-18
         8   4 -6.340966E-03 -6.340966E-03  5.435114E-03 -1.508227E-17  3.685066E-17 -6.922011E-18
         8   5 -6.340966E-03 -6.340966E-03  5.435114E-03  1.723689E-18  1.439466E-19  2.866553E-18
         8   6 -6.340966E-03 -6.340966E-03  5.435114E-03 -2.542441E-17 -3.465026E-18 -2.361855E-17
         8   7 -6.340966E-03 -6.340966E-03  5.435114E-03  1.896057E-17  1.599694E-17  2.225805E-17
         8   8 -6.340966E-03 -6.340966E-03  5.435114E-03 -8.187521E-18  1.190318E-17  1.193125E-17
         9   1 -6.340966E-03 -6.340966E-03  5.435114E-03  5.343435E-17 -3.015603E-17  4.493002E-17
         9   2 -6.340966E-03 -6.340966E-03  5.435114E-03  3.942938E-17 -8.394463E-18 -5.811871E-17
         9   3 -6.340966E-03 -6.340966E-03  5.435114E-03  2.930271E-17  4.339878E-18  1.433455E-17
         9   4 -6.340966E-03 -6.340966E-03  5.435114E-03  1.572866E-17  1.323423E-18 -8.105769E-18
         9   5 -6.340966E-03 -6.340966E-03  5.435114E-03 -6.205279E-17 -4.196295E-17  4.355379E-17
         9   6 -6.340966E-03 -6.340966E-03  5.435114E-03 -1.060068E-16 -1.944727E-17 -3.653728E-17
         9   7 -6.340966E-03 -6.340966E-03  5.435114E-03  2.757902E-17  1.304007E-17  1.468201E-17
         9   8 -6.340966E-03 -6.340966E-03  5.435114E-03 -1.465135E-17  8.299929E-18  7.845151E-18

 displacements (vx,vy,vz) for set NALL and time  0.9937813E+00

         1  0.000000E+00  0.000000E+00  0.000000E+00
         2 -3.270793E+00  0.000000E+00  0.000000E+00
         3 -1.327132E+01  0.000000E+00  0.000000E+00
         4 -1.654212E+01  0.000000E+00  0.000000E+00
         5 -2.654264E+01  0.000000E+00  0.000000E+00
         6 -2.981344E+01  0.000000E+00  0.000000E+00
         7  0.000000E+00 -3.270793E+00  0.000000E+00
         8 -3.270793E+00 -3.270793E+00  0.000000E+00
         9 -1.327132E+01 -3.270793E+00  0.000000E+00
        10 -1.654212E+01 -3.270793E+00  0.000000E+00
        11 -2.654264E+01 -3.270793E+00  0.000000E+00
        12 -2.981344E+01 -3.270793E+00  0.000000E+00
        13  0.000000E+00 -1.327132E+01  0.000000E+00
        14 -3.270793E+00 -1.327132E+01  0.000000E+00
        15 -1.327132E+01 -1.327132E+01  0.000000E+00
        16 -1.654212E+01 -1.327132E+01  0.000000E+00
        17 -2.654264E+01 -1.327132E+01  0.000000E+00
        18 -2.981344E+01 -1.327132E+01  0.000000E+00
        19  0.000000E+00 -1.654212E+01  0.000000E+00
        20 -3.270793E+00 -1.654212E+01  0.000000E+00
        21 -1.327132E+01 -1.654212E+01  0.000000E+00
        22 -1.654212E+01 -1.654212E+01  0.000000E+00
        23 -2.654264E+01 -1.654212E+01  0.000000E+00
        24 -2.981344E+01 -1.654212E+01  0.000000E+00
        25  0.000000E+00 -2.654264E+01  0.000000E+00
        26 -3.270793E+00 -2.654264E+01  0.000000E+00
        27 -1.327132E+01 -2.654264E+01  0.000000E+00
        28 -1.654212E+01 -2.654264E+01  0.000000E+00
        29 -2.654264E+01 -2.654264E+01  0.000000E+00
        30 -2.981344E+01 -2.654264E+01  0.000000E+00
        31  0.000000E+00 -2.981344E+01  0.000000E+00
        32 -3.270793E+00 -2.981344E+01  0.000000E+00
        33 -1.327132E+01 -2.981344E+01  0.000000E+00
        34 -1.654212E+01 -2.981344E+01  0.000000E+00
        35 -2.654264E+01 -2.981344E+01  0.000000E+00
        36 -2.981344E+01 -2.981344E+01  0.000000E+00
        37  0.000000E+00  0.000000E+00  3.901242E+00
        38 -3.270793E+00  0.000000E+00  3.901242E+00
        39 -1.327132E+01  0.000000E+00  3.901242E+00
        40 -1.654212E+01  0.000000E+00  3.901242E+00
        41 -2.654264E+01  0.000000E+00  3.901242E+00
        42 -2.981344E+01  0.000000E+00  3.901242E+00
        43  0.000000E+00 -3.270793E+00  3.901242E+00
        44 -3.270793E+00 -3.270793E+00  3.901242E+00
        45 -1.327132E+01 -3.270793E+00  3.901242E+00
        46 -1.654212E+01 -3.270793E+00  3.901242E+00
        47 -2.654264E+01 -3.270793E+00  3.901242E+00
        48 -2.981344E+01 -3.270793E+00  3.901242E+00
        49  0.000000E+00 -1.327132E+01  3.901242E+00
        50 -3.270793E+00 -1.327132E+01  3.901242E+00
        51 -1.327132E+01 -1.327132E+01  3.901242E+00
        52 -1.654212E+01 -1.327132E+01  3.901242E+00
        53 -2.654264E+01 -1.327132E+01  3.901242E+00
        54 -2.981344E+01 -1.327132E+01  3.901242E+00
        55  0.000000E+00 -1.654212E+01  3.901242E+00
        56 -3.270793E+00 -1.654212E+01  3.901242E+00
        57 -1.327132E+01 -1.654212E+01  3.901242E+00
        58 -1.654212E+01 -1.654212E+01  3.901242E+00
        59 -2.654264E+01 -1.654212E+01  3.901242E+00
        60 -2.981344E+01 -1.654212E+01  3.901242E+00
        61  0.000000E+00 -2.654264E+01  3.901242E+00
        62 -3.270793E+00 -2.654264E+01  3.901242E+00
        63 -1.327132E+01 -2.654264E+01  3.901242E+00
        64 -1.654212E+01 -2.654264E+01  3.901242E+00
        65 -2.654264E+01 -2.654264E+01  3.901242E+00
        66 -2.981344E+01 -2.654264E+01  3.901242E+00
        67  0.000000E+00 -2.981344E+01  3.901242E+00
        68 -3.270793E+00 -2.981344E+01  3.901242E+00
        69 -1.327132E+01 -2.981344E+01  3.901242E+00
        70 -1.654212E+01 -2.981344E+01  3.901242E+00
        71 -2.654264E+01 -2.981344E+01  3.901242E+00
        72 -2.981344E+01 -2.981344E+01  3.901242E+00

 stresses (elem, integ.pnt.,sxx,syy,szz,sxy,sxz,syz) for set EALL and time  0.9937813E+00

         1   1 -1.945216E+03 -1.945216E+03  8.504306E-10  3.375691E-14 -2.506828E-13  2.347515E-13
         1   2 -1.945216E+03 -1.945216E+03  8.539055E-10 -1.721602E-12 -1.126385E-12  1.221237E-13
         1   3 -1.945216E+03 -1.945216E+03  8.481140E-10  1.907265E-12 -4.683420E-13  5.237330E-13
         1   4 -1.945216E+03 -1.945216E+03  8.539055E-10  1.519061E-13 -2.631325E-12 -6.178443E-13
         1   5 -1.945216E+03 -1.945216E+03  8.490406E-10 -1.113978E-12  4.536960E-15  5.116000E-13
         1   6 -1.945216E+03 -1.945216E+03  8.506623E-10 -4.675332E-12 -8.711648E-13  1.143003E-12
         1   7 -1.945216E+03 -1.945216E+03  8.439441E-10 -6.245028E-13  5.006278E-13  8.005815E-13
         1   8 -1.945216E+03 -1.945216E+03  8.474190E-10 -4.185856E-12 -1.662356E-12  4.030346E-13
         2   1 -1.945216E+03 -1.945216E+03  8.488090E-10  4.135221E-13 -3.089225E-13  2.657705E-13
         2   2 -1.945216E+03 -1.945216E+03  8.539055E-10  8.354834E-13 -2.042812E-12 -9.024213E-13
         2   3 -1.945216E+03 -1.945216E+03  8.527472E-10  5.924337E-12  4.356985E-12 -3.034357E-13
         2   4 -1.945216E+03 -1.945216E+03  8.541372E-10  6.363177E-12  3.551339E-12 -3.019378E-12
         2   5 -1.945216E+03 -1.945216E+03  8.437124E-10  6.413812E-12 -1.727771E-12  1.459680E-12
         2   6 -1.945216E+03 -1.945216E+03  8.453340E-10  8.844310E-12 -3.864483E-12 -1.283141E-12
         2   7 -1.945216E+03 -1.945216E+03  8.506623E-10  9.857017E-12  1.661088E-12  9.255016E-13
         2   8 -1.945216E+03 -1.945216E+03  8.478823E-10  1.235503E-11  6.102458E-13 -3.382636E-12
         3   1 -1.945216E+03 -1.945216E+03  8.506623E-10 -2.430497E-12  2.732084E-12 -1.225349E-12
         3   2 -1.945216E+03 -1.945216E+03  8.497356E-10 -3.375691E-13  3.852031E-13 -2.368878E-13
         3   3 -1.945216E+03 -1.945216E+03  8.543688E-10 -1.704724E-12 -2.048087E-12 -4.430418E-12
         3   4 -1.945216E+03 -1.945216E+03  8.546005E-10  8.439227E-14 -7.170204E-13 -1.443220E-12
         3   5 -1.945216E+03 -1.945216E+03  8.376892E-10 -9.553205E-12  2.046820E-12 -1.311865E-12
         3   6 -1.945216E+03 -1.945216E+03  8.411641E-10 -1.991657E-12 -1.949762E-13  3.147255E-13
         3   7 -1.945216E+03 -1.945216E+03  8.499673E-10 -6.143757E-12 -2.307633E-12 -4.586989E-12
         3   8 -1.945216E+03 -1.945216E+03  8.548322E-10  1.687845E-12 -1.116678E-12 -8.330768E-13
         4   1 -1.945216E+03 -1.945216E+03  8.483456E-10 -1.548598E-12  5.356553E-13 -2.403432E-12
         4   2 -1.945216E+03 -1.945216E+03  8.513572E-10 -1.198370E-12  1.358815E-12  2.316178E-12
         4   3 -1.945216E+03 -1.945216E+03  8.508939E-10 -8.397031E-13 -7.870766E-13 -2.053151E-12
         4   4 -1.945216E+03 -1.945216E+03  8.518206E-10 -4.894751E-13 -2.713620E-12  1.685673E-12
         4   5 -1.945216E+03 -1.945216E+03  8.504306E-10  3.679503E-12  1.178004E-12 -1.136090E-12
         4   6 -1.945216E+03 -1.945216E+03  8.518206E-10  2.700553E-13  1.977082E-12  2.083115E-12
         4   7 -1.945216E+03 -1.945216E+03  8.471873E-10  3.341934E-12 -9.774099E-13 -8.558659E-13
         4   8 -1.945216E+03 -1.945216E+03  8.462607E-10 -6.751381E-14 -2.974010E-12  1.767863E-12
         5   1 -1.945216E+03 -1.945216E+03  8.446390E-10 -4.641575E-12 -4.155679E-12 -9.495528E-14
         5   2 -1.945216E+03 -1.945216E+03  8.592337E-10 -5.738674E-12 -5.442961E-12 -1.069938E-12
         5   3 -1.945216E+03 -1.945216E+03  8.469557E-10  2.835580E-12 -1.387196E-12 -1.636190E-12
         5   4 -1.945216E+03 -1.945216E+03  8.610870E-10  1.822873E-12 -4.084357E-12 -2.230402E-12
         5   5 -1.945216E+03 -1.945216E+03  8.383842E-10 -3.308177E-12 -3.258454E-12  1.863663E-12
         5   6 -1.945216E+03 -1.945216E+03  8.543688E-10 -6.278785E-12 -4.221726E-12  1.696551E-13
         5   7 -1.945216E+03 -1.945216E+03  8.379209E-10  5.131050E-12 -8.541779E-13  1.823160E-13
         5   8 -1.945216E+03 -1.945216E+03  8.532105E-10  2.227956E-12 -3.166031E-12 -1.353855E-12
         6   1 -1.945216E+03 -1.945216E+03  8.539055E-10  3.392569E-12  2.767428E-12 -1.131026E-12
         6   2 -1.945216E+03 -1.945216E+03  8.520522E-10  4.506547E-12  5.956878E-13 -2.385601E-12
         6   3 -1.945216E+03 -1.945216E+03  8.608554E-10  5.738674E-12  3.040689E-12 -5.334395E-12
         6   4 -1.945216E+03 -1.945216E+03  8.580754E-10  7.494033E-12  2.827518E-14 -3.467146E-12
         6   5 -1.945216E+03 -1.945216E+03  8.383842E-10  2.025414E-12  1.171962E-12  7.334810E-13
         6   6 -1.945216E+03 -1.945216E+03  8.423224E-10  3.375691E-12 -1.315031E-12 -3.454260E-13
         6   7 -1.945216E+03 -1.945216E+03  8.467240E-10  7.831602E-12  6.009617E-13 -3.259719E-12
         6   8 -1.945216E+03 -1.945216E+03  8.501989E-10  9.857017E-12 -2.621621E-12 -1.694429E-12
         7   1 -1.945216E+03 -1.945216E+03  8.499673E-10 -1.687845E-14 -1.622949E-13 -2.629215E-13
         7   2 -1.945216E+03 -1.945216E+03  8.508939E-10 -3.375691E-14 -1.162784E-12 -7.258817E-14
         7   3 -1.945216E+03 -1.945216E+03  8.497356E-10 -1.687845E-14 -3.728588E-13 -2.629215E-13
         7   4 -1.945216E+03 -1.945216E+03  8.518206E-10 -3.375691E-14 -2.527085E-12 -1.426443E-13
         7   5 -1.945216E+03 -1.945216E+03  8.481140E-10 -1.147735E-12  4.303340E-13  1.392683E-13
         7   6 -1.945216E+03 -1.945216E+03  8.501989E-10 -2.768066E-12 -5.876693E-13  3.232715E-13
         7   7 -1.945216E+03 -1.945216E+03  8.453340E-10 -6.076243E-13  6.740801E-13  9.098858E-13
         7   8 -1.945216E+03 -1.945216E+03  8.490406E-10 -2.227956E-12 -1.488903E-12  1.269029E-12
         8   1 -1.945216E+03 -1.945216E+03  8.506623E-10 -4.050829E-12 -1.242863E-12  2.416515E-12
         8   2 -1.945216E+03 -1.945216E+03  8.596971E-10 -5.856823E-12 -2.705285E-12  1.827473E-12
         8   3 -1.945216E+03 -1.945216E+03  8.474190E-10  2.430497E-12  4.929250E-13  8.752797E-13
         8   4 -1.945216E+03 -1.945216E+03  8.550638E-10  4.388398E-13 -1.853956E-12 -6.836812E-14
         8   5 -1.945216E+03 -1.945216E+03  8.432491E-10 -2.970608E-12 -1.783056E-12  3.010726E-12
         8   6 -1.945216E+03 -1.945216E+03  8.548322E-10 -6.143757E-12 -2.790113E-12  1.861974E-12
         8   7 -1.945216E+03 -1.945216E+03  8.376892E-10  4.590939E-12 -3.409966E-13  9.790979E-13
         8   8 -1.945216E+03 -1.945216E+03  8.483456E-10  9.451934E-13 -2.933074E-12  2.333795E-13
         9   1 -1.945216E+03 -1.945216E+03  8.590021E-10 -1.485304E-12  1.267657E-12  5.205677E-12
         9   2 -1.945216E+03 -1.945216E+03  8.601604E-10 -4.996022E-12  3.043850E-13  2.323247E-12
         9   3 -1.945216E+03 -1.945216E+03  8.497356E-10  3.510718E-12  2.829677E-12  1.072365E-12
         9   4 -1.945216E+03 -1.945216E+03  8.529789E-10  3.713260E-13  9.748731E-14  7.688238E-13
         9   5 -1.945216E+03 -1.945216E+03  8.462607E-10 -3.240663E-12 -1.342463E-12  4.778166E-12
         9   6 -1.945216E+03 -1.945216E+03  8.522839E-10 -8.911823E-12 -2.673530E-12  2.391404E-12
         9   7 -1.945216E+03 -1.945216E+03  8.356042E-10  3.780774E-12 -1.738759E-13  2.245166E-13
         9   8 -1.945216E+03 -1.945216E+03  8.427857E-10 -1.080221E-12 -2.065392E-12  7.972047E-13

 strains (elem, integ.pnt.,exx,eyy,ezz,exy,exz,eyz) forset EALL and time  0.9937813E+00

         1   1 -6.520189E-03 -6.520189E-03  5.588734E-03  2.154220E-19 -1.527986E-18  1.464606E-18
         1   2 -6.520189E-03 -6.520189E-03  5.588734E-03 -1.098652E-17 -6.913534E-18  8.111148E-19
         1   3 -6.520189E-03 -6.520189E-03  5.588734E-03  1.217134E-17 -2.828071E-18  3.241837E-18
         1   4 -6.520189E-03 -6.520189E-03  5.588734E-03  9.693988E-19 -1.613038E-17 -3.739674E-18
         1   5 -6.520189E-03 -6.520189E-03  5.588734E-03 -7.108924E-18  8.012525E-20  3.208998E-18
         1   6 -6.520189E-03 -6.520189E-03  5.588734E-03 -2.983594E-17 -5.305424E-18  7.243558E-18
         1   7 -6.520189E-03 -6.520189E-03  5.588734E-03 -3.985306E-18  3.277299E-18  4.986229E-18
         1   8 -6.520189E-03 -6.520189E-03  5.588734E-03 -2.671232E-17 -1.002501E-17  2.692769E-18
         2   1 -6.520189E-03 -6.520189E-03  5.588734E-03  2.638919E-18 -1.978202E-18  1.704984E-18
         2   2 -6.520189E-03 -6.520189E-03  5.588734E-03  5.331693E-18 -1.264159E-17 -5.571415E-18
         2   3 -6.520189E-03 -6.520189E-03  5.588734E-03  3.780655E-17  2.662826E-17 -1.795622E-18
         2   4 -6.520189E-03 -6.520189E-03  5.588734E-03  4.060704E-17  2.167355E-17 -1.859131E-17
         2   5 -6.520189E-03 -6.520189E-03  5.588734E-03  4.093017E-17 -1.091821E-17  9.227672E-18
         2   6 -6.520189E-03 -6.520189E-03  5.588734E-03  5.644055E-17 -2.405895E-17 -7.969625E-18
         2   7 -6.520189E-03 -6.520189E-03  5.588734E-03  6.290321E-17  9.599427E-18  5.942488E-18
         2   8 -6.520189E-03 -6.520189E-03  5.588734E-03  7.884444E-17  3.136768E-18 -2.088148E-17
         3   1 -6.520189E-03 -6.520189E-03  5.588734E-03 -1.551038E-17  1.674939E-17 -7.543709E-18
         3   2 -6.520189E-03 -6.520189E-03  5.588734E-03 -2.154220E-18  2.316116E-18 -1.424216E-18
         3   3 -6.520189E-03 -6.520189E-03  5.588734E-03 -1.087881E-17 -1.260875E-17 -2.725482E-17
         3   4 -6.520189E-03 -6.520189E-03  5.588734E-03  5.385549E-19 -4.422718E-18 -8.842481E-18
         3   5 -6.520189E-03 -6.520189E-03  5.588734E-03 -6.096441E-17  1.239990E-17 -8.088831E-18
         3   6 -6.520189E-03 -6.520189E-03  5.588734E-03 -1.270990E-17 -1.387103E-18  2.050447E-18
         3   7 -6.520189E-03 -6.520189E-03  5.588734E-03 -3.920680E-17 -1.424412E-17 -2.823078E-17
         3   8 -6.520189E-03 -6.520189E-03  5.588734E-03  1.077110E-17 -6.919772E-18 -5.000682E-18
         4   1 -6.520189E-03 -6.520189E-03  5.588734E-03 -9.882482E-18  3.330173E-18 -1.473145E-17
         4   2 -6.520189E-03 -6.520189E-03  5.588734E-03 -7.647479E-18  8.392589E-18  1.424511E-17
         4   3 -6.520189E-03 -6.520189E-03  5.588734E-03 -5.358621E-18 -4.853561E-18 -1.257723E-17
         4   4 -6.520189E-03 -6.520189E-03  5.588734E-03 -3.123618E-18 -1.670177E-17  1.036751E-17
         4   5 -6.520189E-03 -6.520189E-03  5.588734E-03  2.348099E-17  7.377870E-18 -6.798931E-18
         4   6 -6.520189E-03 -6.520189E-03  5.588734E-03  1.723376E-18  1.229218E-17  1.282417E-17
         4   7 -6.520189E-03 -6.520189E-03  5.588734E-03  2.132677E-17 -6.052831E-18 -5.075556E-18
         4   8 -6.520189E-03 -6.520189E-03  5.588734E-03 -4.308439E-19 -1.833188E-17  1.088538E-17
         5   1 -6.520189E-03 -6.520189E-03  5.588734E-03 -2.962052E-17 -2.549729E-17 -4.925828E-19
         5   2 -6.520189E-03 -6.520189E-03  5.588734E-03 -3.662173E-17 -3.341405E-17 -6.506336E-18
         5   3 -6.520189E-03 -6.520189E-03  5.588734E-03  1.809544E-17 -8.486838E-18 -9.971149E-18
         5   4 -6.520189E-03 -6.520189E-03  5.588734E-03  1.163279E-17 -2.507433E-17 -1.364120E-17
         5   5 -6.520189E-03 -6.520189E-03  5.588734E-03 -2.111135E-17 -1.981226E-17  1.180617E-17
         5   6 -6.520189E-03 -6.520189E-03  5.588734E-03 -4.006848E-17 -2.573636E-17  1.327991E-18
         5   7 -6.520189E-03 -6.520189E-03  5.588734E-03  3.274414E-17 -5.086064E-18  1.465912E-18
         5   8 -6.520189E-03 -6.520189E-03  5.588734E-03  1.421785E-17 -1.930391E-17 -8.044178E-18
         6   1 -6.520189E-03 -6.520189E-03  5.588734E-03  2.164991E-17  1.690866E-17 -6.830455E-18
         6   2 -6.520189E-03 -6.520189E-03  5.588734E-03  2.875883E-17  3.552494E-18 -1.457152E-17
         6   3 -6.520189E-03 -6.520189E-03  5.588734E-03  3.662173E-17  1.856701E-17 -3.268109E-17
         6   4 -6.520189E-03 -6.520189E-03  5.588734E-03  4.782367E-17  4.072309E-20 -2.122235E-17
         6   5 -6.520189E-03 -6.520189E-03  5.588734E-03  1.292532E-17  6.792369E-18  4.970457E-18
         6   6 -6.520189E-03 -6.520189E-03  5.588734E-03  2.154220E-17 -8.502590E-18 -1.750969E-18
         6   7 -6.520189E-03 -6.520189E-03  5.588734E-03  4.997789E-17  3.194562E-18 -1.958765E-17
         6   8 -6.520189E-03 -6.520189E-03  5.588734E-03  6.290321E-17 -1.662426E-17 -1.004209E-17
         7   1 -6.520189E-03 -6.520189E-03  5.588734E-03 -1.077110E-19 -9.674292E-19 -1.614351E-18
         7   2 -6.520189E-03 -6.520189E-03  5.588734E-03 -2.154220E-19 -7.120419E-18 -4.150821E-19
         7   3 -6.520189E-03 -6.520189E-03  5.588734E-03 -1.077110E-19 -2.230407E-18 -1.614351E-18
         7   4 -6.520189E-03 -6.520189E-03  5.588734E-03 -2.154220E-19 -1.547886E-17 -8.459260E-19
         7   5 -6.520189E-03 -6.520189E-03  5.588734E-03 -7.324346E-18  2.766659E-18  8.669418E-19
         7   6 -6.520189E-03 -6.520189E-03  5.588734E-03 -1.766460E-17 -3.494042E-18  2.105616E-18
         7   7 -6.520189E-03 -6.520189E-03  5.588734E-03 -3.877595E-18  4.364917E-18  5.606225E-18
         7   8 -6.520189E-03 -6.520189E-03  5.588734E-03 -1.421785E-17 -8.937389E-18  7.922008E-18
         8   1 -6.520189E-03 -6.520189E-03  5.588734E-03 -2.585063E-17 -7.651420E-18  1.486674E-17
         8   2 -6.520189E-03 -6.520189E-03  5.588734E-03 -3.737571E-17 -1.664529E-17  1.121869E-17
         8   3 -6.520189E-03 -6.520189E-03  5.588734E-03  1.551038E-17  3.000146E-18  5.388176E-18
         8   4 -6.520189E-03 -6.520189E-03  5.588734E-03  2.800485E-18 -1.143313E-17 -4.413518E-19
         8   5 -6.520189E-03 -6.520189E-03  5.588734E-03 -1.895713E-17 -1.100754E-17  1.853680E-17
         8   6 -6.520189E-03 -6.520189E-03  5.588734E-03 -3.920680E-17 -1.720092E-17  1.138321E-17
         8   7 -6.520189E-03 -6.520189E-03  5.588734E-03  2.929739E-17 -2.212013E-18  6.042323E-18
         8   8 -6.520189E-03 -6.520189E-03  5.588734E-03  6.031815E-18 -1.815324E-17  1.364779E-18
         9   1 -6.520189E-03 -6.520189E-03  5.588734E-03 -9.478566E-18  7.659633E-18  3.196520E-17
         9   2 -6.520189E-03 -6.520189E-03  5.588734E-03 -3.188245E-17  1.735529E-18  1.425529E-17
         9   3 -6.520189E-03 -6.520189E-03  5.588734E-03  2.240388E-17  1.727973E-17  6.545413E-18
         9   4 -6.520189E-03 -6.520189E-03  5.588734E-03  2.369641E-18  4.768209E-19  4.696265E-18
         9   5 -6.520189E-03 -6.520189E-03  5.588734E-03 -2.068051E-17 -8.765297E-18  2.920807E-17
         9   6 -6.520189E-03 -6.520189E-03  5.588734E-03 -5.687140E-17 -1.695133E-17  1.458959E-17
         9   7 -6.520189E-03 -6.520189E-03  5.588734E-03  2.412726E-17 -1.518452E-18  1.203215E-18
         9   8 -6.520189E-03 -6.520189E-03  5.588734E-03 -6.893503E-18 -1.315124E-17  4.790514E-18

 displacements (vx,vy,vz) for set NALL and time  0.1000000E+01

         1  0.000000E+00  0.000000E+00  0.000000E+00
         2 -3.333201E+00  0.000000E+00  0.000000E+00
         3 -1.333340E+01  0.000000E+00  0.000000E+00
         4 -1.666660E+01  0.000000E+00  0.000000E+00
         5 -2.666680E+01  0.000000E+00  0.000000E+00
         6 -3.000000E+01  0.000000E+00  0.000000E+00
         7  0.000000E+00 -3.333201E+00  0.000000E+00
         8 -3.333201E+00 -3.333201E+00  0.000000E+00
         9 -1.333340E+01 -3.333201E+00  0.000000E+00
        10 -1.666660E+01 -3.333201E+00  0.000000E+00
        11 -2.666680E+01 -3.333201E+00  0.000000E+00
        12 -3.000000E+01 -3.333201E+00  0.000000E+00
        13  0.000000E+00 -1.333340E+01  0.000000E+00
        14 -3.333201E+00 -1.333340E+01  0.000000E+00
        15 -1.333340E+01 -1.333340E+01  0.000000E+00
        16 -1.666660E+01 -1.333340E+01  0.000000E+00
        17 -2.666680E+01 -1.333340E+01  0.000000E+00
        18 -3.000000E+01 -1.333340E+01  0.000000E+00
        19  0.000000E+00 -1.666660E+01  0.000000E+00
        20 -3.333201E+00 -1.666660E+01  0.000000E+00
        21 -1.333340E+01 -1.666660E+01  0.000000E+00
        22 -1.666660E+01 -1.666660E+01  0.000000E+00
        23 -2.666680E+01 -1.666660E+01  0.000000E+00
        24 -3.000000E+01 -1.666660E+01  0.000000E+00
        25  0.000000E+00 -2.666680E+01  0.000000E+00
        26 -3.333201E+00 -2.666680E+01  0.000000E+00
        27 -1.333340E+01 -2.666680E+01  0.000000E+00
        28 -1.666660E+01 -2.666680E+01  0.000000E+00
        29 -2.666680E+01 -2.666680E+01  0.000000E+00
        30 -3.000000E+01 -2.666680E+01  0.000000E+00
        31  0.000000E+00 -3.000000E+01  0.000000E+00
        32 -3.333201E+00 -3.000000E+01  0.000000E+00
        33 -1.333340E+01 -3.000000E+01  0.000000E+00
        34 -1.666660E+01 -3.000000E+01  0.000000E+00
        35 -2.666680E+01 -3.000000E+01  0.000000E+00
        36 -3.000000E+01 -3.000000E+01  0.000000E+00
        37  0.000000E+00  0.000000E+00  3.975222E+00
        38 -3.333201E+00  0.000000E+00  3.975222E+00
        39 -1.333340E+01  0.000000E+00  3.975222E+00
        40 -1.666660E+01  0.000000E+00  3.975222E+00
        41 -2.666680E+01  0.000000E+00  3.975222E+00
        42 -3.000000E+01  0.000000E+00  3.975222E+00
        43  0.000000E+00 -3.333201E+00  3.975222E+00
        44 -3.333201E+00 -3.333201E+00  3.975222E+00
        45 -1.333340E+01 -3.333201E+00  3.975222E+00
        46 -1.666660E+01 -3.333201E+00  3.975222E+00
        47 -2.666680E+01 -3.333201E+00  3.975222E+00
        48 -3.000000E+01 -3.333201E+00  3.975222E+00
        49  0.000000E+00 -1.333340E+01  3.975222E+00
        50 -3.333201E+00 -1.333340E+01  3.975222E+00
        51 -1.333340E+01 -1.333340E+01  3.975222E+00
        52 -1.666660E+01 -1.333340E+01  3.975222E+00
        53 -2.666680E+01 -1.333340E+01  3.975222E+00
        54 -3.000000E+01 -1.333340E+01  3.975222E+00
        55  0.000000E+00 -1.666660E+01  3.975222E+00
        56 -3.333201E+00 -1.666660E+01  3.975222E+00
        57 -1.333340E+01 -1.666660E+01  3.975222E+00
        58 -1.666660E+01 -1.666660E+01  3.975222E+00
        59 -2.666680E+01 -1.666660E+01  3.975222E+00
        60 -3.000000E+01 -1.666660E+01  3.975222E+00
        61  0.000000E+00 -2.666680E+01  3.975222E+00
        62 -3.333201E+00 -2.666680E+01  3.975222E+00
        63 -1.333340E+01 -2.666680E+01  3.975222E+00
        64 -1.666660E+01 -2.666680E+01  3.975222E+00
        65 -2.666680E+01 -2.666680E+01  3.975222E+00
        66 -3.000000E+01 -2.666680E+01  3.975222E+00
        67  0.000000E+00 -3.000000E+01  3.975222E+00
        68 -3.333201E+00 -3.000000E+01  3.975222E+00
        69 -1.333340E+01 -3.000000E+01  3.975222E+00
        70 -1.666660E+01 -3.000000E+01  3.975222E+00
        71 -2.666680E+01 -3.000000E+01  3.975222E+00
        72 -3.000000E+01 -3.000000E+01  3.975222E+00

 stresses (elem, integ.pnt.,sxx,syy,szz,sxy,sxz,syz) for set EALL and time  0.1000000E+01

         1   1 -1.981999E+03 -1.981999E+03 -4.588539E-11 -5.312909E-13 -1.153606E-13 -1.772903E-14
         1   2 -1.981999E+03 -1.981999E+03 -4.658063E-11 -5.017748E-13 -1.234070E-12 -8.975943E-14
         1   3 -1.981999E+03 -1.981999E+03 -4.565365E-11 -2.019749E-12  9.267228E-14 -1.228132E-13
         1   4 -1.981999E+03 -1.981999E+03 -4.611714E-11 -1.990233E-12 -4.415058E-13 -2.889816E-13
         1   5 -1.981999E+03 -1.981999E+03 -4.866633E-11 -3.204612E-13  7.106685E-13  3.416809E-14
         1   6 -1.981999E+03 -1.981999E+03 -4.936156E-11  5.397241E-13 -4.080405E-13 -1.070585E-13
         1   7 -1.981999E+03 -1.981999E+03 -4.750760E-11 -2.007099E-12  9.144842E-13 -1.059442E-13
         1   8 -1.981999E+03 -1.981999E+03 -4.843458E-11 -1.146914E-12  3.715491E-13 -3.062806E-13
         2   1 -1.981999E+03 -1.981999E+03 -4.333620E-11 -1.539057E-12  1.789012E-12  3.586077E-13
         2   2 -1.981999E+03 -1.981999E+03 -4.519016E-11 -4.001548E-12 -9.957201E-13  1.592532E-13
         2   3 -1.981999E+03 -1.981999E+03 -4.866633E-11 -1.855302E-12  2.125863E-12  1.225552E-12
         2   4 -1.981999E+03 -1.981999E+03 -5.283773E-11 -4.300926E-12  2.371060E-12  1.352236E-12
         2   5 -1.981999E+03 -1.981999E+03 -4.658063E-11 -4.891250E-13  1.200844E-12  3.932058E-13
         2   6 -1.981999E+03 -1.981999E+03 -4.797109E-11  7.252543E-13 -1.776542E-12 -6.537479E-13
         2   7 -1.981999E+03 -1.981999E+03 -4.542190E-11 -3.373276E-13  6.554447E-13  1.260151E-12
         2   8 -1.981999E+03 -1.981999E+03 -4.889807E-11  9.445172E-13  9.356692E-13  5.483677E-13
         3   1 -1.981999E+03 -1.981999E+03 -4.264097E-11  5.317126E-12  2.424272E-12 -3.001035E-13
         3   2 -1.981999E+03 -1.981999E+03 -4.379969E-11  1.673988E-12 -4.520742E-14 -6.181104E-15
         3   3 -1.981999E+03 -1.981999E+03 -4.727586E-11  5.481573E-12 -1.594852E-12 -1.701226E-12
         3   4 -1.981999E+03 -1.981999E+03 -4.681237E-11  1.534840E-12  1.565513E-13 -1.398386E-12
         3   5 -1.981999E+03 -1.981999E+03 -4.982505E-11 -1.045715E-12  1.849938E-12  1.323725E-13
         3   6 -1.981999E+03 -1.981999E+03 -5.144726E-11 -3.710603E-13 -9.172791E-13  1.371121E-12
         3   7 -1.981999E+03 -1.981999E+03 -4.727586E-11 -9.445172E-13 -1.055142E-12 -1.233722E-12
         3   8 -1.981999E+03 -1.981999E+03 -4.681237E-11 -5.397241E-13  2.058685E-13 -5.803253E-14
         4   1 -1.981999E+03 -1.981999E+03 -4.426318E-11  1.851085E-12 -7.078030E-13  2.759808E-12
         4   2 -1.981999E+03 -1.981999E+03 -4.264097E-11  1.450509E-12 -3.761813E-12  1.302488E-12
         4   3 -1.981999E+03 -1.981999E+03 -5.052028E-11  1.480025E-12  1.490265E-13  4.791436E-12
         4   4 -1.981999E+03 -1.981999E+03 -4.658063E-11  1.079448E-12 -1.304638E-12  8.120955E-13
         4   5 -1.981999E+03 -1.981999E+03 -4.681237E-11  1.011983E-13  3.970388E-13  3.172037E-13
         4   6 -1.981999E+03 -1.981999E+03 -5.005679E-11  1.821569E-12 -2.672296E-12 -2.038180E-13
         4   7 -1.981999E+03 -1.981999E+03 -4.982505E-11 -3.676870E-12  2.026080E-12  2.769169E-12
         4   8 -1.981999E+03 -1.981999E+03 -5.144726E-11 -1.956500E-12  5.286299E-13 -5.891268E-13
         5   1 -1.981999E+03 -1.981999E+03 -4.866633E-11  1.517974E-12 -5.937572E-13 -6.010671E-13
         5   2 -1.981999E+03 -1.981999E+03 -4.959330E-11  2.901017E-12 -2.940638E-12 -4.538905E-12
         5   3 -1.981999E+03 -1.981999E+03 -4.356795E-11  1.889034E-12  3.485508E-12  1.150336E-12
         5   4 -1.981999E+03 -1.981999E+03 -4.333620E-11  3.019082E-12  1.558964E-12 -4.543230E-12
         5   5 -1.981999E+03 -1.981999E+03 -5.098377E-11  7.421206E-13 -1.096719E-12  6.098658E-13
         5   6 -1.981999E+03 -1.981999E+03 -5.330121E-11  2.766086E-12 -3.224675E-12 -2.881017E-12
         5   7 -1.981999E+03 -1.981999E+03 -4.449493E-11 -2.698621E-13  3.713835E-12  2.641494E-12
         5   8 -1.981999E+03 -1.981999E+03 -4.658063E-11  1.551707E-12  1.612151E-12 -2.670634E-12
         6   1 -1.981999E+03 -1.981999E+03 -4.658063E-11 -1.669771E-12  2.161346E-12 -3.658598E-13
         6   2 -1.981999E+03 -1.981999E+03 -4.681237E-11  8.264525E-13 -5.183014E-13  1.277640E-12
         6   3 -1.981999E+03 -1.981999E+03 -4.403144E-11 -6.746551E-13  7.749174E-13 -1.977151E-12
         6   4 -1.981999E+03 -1.981999E+03 -4.379969E-11  2.023965E-12 -1.358124E-13  1.963093E-13
         6   5 -1.981999E+03 -1.981999E+03 -5.376470E-11 -8.770517E-13  1.587013E-12 -1.183215E-12
         6   6 -1.981999E+03 -1.981999E+03 -5.237424E-11  2.766086E-12 -4.796432E-13  6.963771E-13
         6   7 -1.981999E+03 -1.981999E+03 -4.820284E-11  5.397241E-13 -7.542779E-13 -2.444225E-12
         6   8 -1.981999E+03 -1.981999E+03 -4.773935E-11  3.913000E-12 -8.243341E-13 -8.978301E-13
         7   1 -1.981999E+03 -1.981999E+03 -5.144726E-11 -4.132263E-13  1.548851E-13 -2.700171E-12
         7   2 -1.981999E+03 -1.981999E+03 -4.866633E-11  1.770970E-12 -4.214776E-14  2.138482E-13
         7   3 -1.981999E+03 -1.981999E+03 -4.704412E-11  5.312909E-13 -3.859538E-13 -3.803800E-14
         7   4 -1.981999E+03 -1.981999E+03 -4.472667E-11  2.715487E-12 -1.594422E-12 -2.240027E-13
         7   5 -1.981999E+03 -1.981999E+03 -4.750760E-11  2.985349E-12  7.495665E-13 -2.743369E-12
         7   6 -1.981999E+03 -1.981999E+03 -4.889807E-11  3.778069E-12  5.328303E-13  1.900744E-13
         7   7 -1.981999E+03 -1.981999E+03 -4.495842E-11  8.264525E-13 -2.994586E-13  5.887640E-14
         7   8 -1.981999E+03 -1.981999E+03 -4.727586E-11  1.619172E-12 -1.507927E-12  7.680376E-13
         8   1 -1.981999E+03 -1.981999E+03 -4.866633E-11 -3.305810E-12 -1.082381E-12  1.055142E-13
         8   2 -1.981999E+03 -1.981999E+03 -4.148225E-11 -1.568573E-12 -3.963439E-12  3.193127E-13
         8   3 -1.981999E+03 -1.981999E+03 -4.681237E-11 -1.011983E-12  2.127484E-13  2.456265E-13
         8   4 -1.981999E+03 -1.981999E+03 -4.495842E-11  7.421206E-13  8.082256E-13  3.454836E-14
         8   5 -1.981999E+03 -1.981999E+03 -5.492342E-11  5.397241E-13  1.203327E-13 -6.296453E-13
         8   6 -1.981999E+03 -1.981999E+03 -5.052028E-11  7.286275E-12 -2.935866E-12 -1.125182E-12
         8   7 -1.981999E+03 -1.981999E+03 -4.519016E-11  2.158896E-12 -2.007086E-13  2.110284E-13
         8   8 -1.981999E+03 -1.981999E+03 -4.449493E-11  8.972913E-12  4.448785E-14 -1.650388E-12
         9   1 -1.981999E+03 -1.981999E+03 -4.310446E-11  1.097493E-28  2.966562E-12  9.738067E-13
         9   2 -1.981999E+03 -1.981999E+03 -4.472667E-11  8.095862E-13  5.671388E-13  2.243277E-12
         9   3 -1.981999E+03 -1.981999E+03 -4.797109E-11 -8.095862E-13 -2.331732E-12 -6.979284E-15
         9   4 -1.981999E+03 -1.981999E+03 -4.727586E-11 -3.373276E-13 -5.102720E-13  2.331890E-14
         9   5 -1.981999E+03 -1.981999E+03 -5.306947E-11 -8.635586E-12  3.143827E-12 -8.011146E-13
         9   6 -1.981999E+03 -1.981999E+03 -5.538691E-11 -1.889034E-12 -1.838396E-13  1.335052E-12
         9   7 -1.981999E+03 -1.981999E+03 -4.866633E-11 -9.175310E-12 -2.110284E-12 -1.781901E-12
         9   8 -1.981999E+03 -1.981999E+03 -4.797109E-11 -2.158896E-12  5.518493E-13 -6.436039E-13

 strains (elem, integ.pnt.,exx,eyy,ezz,exy,exz,eyz) forset EALL and time  0.1000000E+01

         1   1 -6.644182E-03 -6.644182E-03  5.695013E-03 -3.392470E-18 -6.634824E-19 -1.063590E-19
         1   2 -6.644182E-03 -6.644182E-03  5.695013E-03 -3.203999E-18 -7.542657E-18 -5.519494E-19
         1   3 -6.644182E-03 -6.644182E-03  5.695013E-03 -1.289677E-17  6.150901E-19 -7.525436E-19
         1   4 -6.644182E-03 -6.644182E-03  5.695013E-03 -1.270830E-17 -2.669682E-18 -1.777008E-18
         1   5 -6.644182E-03 -6.644182E-03  5.695013E-03 -2.046251E-18  4.542983E-18  2.207488E-19
         1   6 -6.644182E-03 -6.644182E-03  5.695013E-03  3.446318E-18 -2.336191E-18 -6.609853E-19
         1   7 -6.644182E-03 -6.644182E-03  5.695013E-03 -1.281600E-17  5.793627E-18 -6.408308E-19
         1   8 -6.644182E-03 -6.644182E-03  5.695013E-03 -7.323426E-18  2.455006E-18 -1.886044E-18
         2   1 -6.644182E-03 -6.644182E-03  5.695013E-03 -9.827392E-18  1.096908E-17  2.210475E-18
         2   2 -6.644182E-03 -6.644182E-03  5.695013E-03 -2.555122E-17 -6.154816E-18  9.320568E-19
         2   3 -6.644182E-03 -6.644182E-03  5.695013E-03 -1.184672E-17  1.298990E-17  7.541498E-18
         2   4 -6.644182E-03 -6.644182E-03  5.695013E-03 -2.746285E-17  1.449766E-17  8.269949E-18
         2   5 -6.644182E-03 -6.644182E-03  5.695013E-03 -3.123226E-18  7.261856E-18  2.428546E-18
         2   6 -6.644182E-03 -6.644182E-03  5.695013E-03  4.630990E-18 -1.104671E-17 -4.192966E-18
         2   7 -6.644182E-03 -6.644182E-03  5.695013E-03 -2.153949E-18  3.721844E-18  7.759570E-18
         2   8 -6.644182E-03 -6.644182E-03  5.695013E-03  6.031057E-18  5.445004E-18  3.196432E-18
         3   1 -6.644182E-03 -6.644182E-03  5.695013E-03  3.395162E-17  1.487077E-17 -1.816133E-18
         3   2 -6.644182E-03 -6.644182E-03  5.695013E-03  1.068897E-17 -3.145721E-19  3.848127E-20
         3   3 -6.644182E-03 -6.644182E-03  5.695013E-03  3.500167E-17 -9.793775E-18 -1.043193E-17
         3   4 -6.644182E-03 -6.644182E-03  5.695013E-03  9.800467E-18  9.759694E-19 -8.524469E-18
         3   5 -6.644182E-03 -6.644182E-03  5.695013E-03 -6.677242E-18  1.123997E-17  9.097648E-19
         3   6 -6.644182E-03 -6.644182E-03  5.695013E-03 -2.369344E-18 -5.776227E-18  8.721303E-18
         3   7 -6.644182E-03 -6.644182E-03  5.695013E-03 -6.031057E-18 -6.435077E-18 -7.490636E-18
         3   8 -6.644182E-03 -6.644182E-03  5.695013E-03 -3.446318E-18  1.319139E-18 -7.217763E-20
         4   1 -6.644182E-03 -6.644182E-03  5.695013E-03  1.181979E-17 -4.289906E-18  1.684559E-17
         4   2 -6.644182E-03 -6.644182E-03  5.695013E-03  9.261980E-18 -2.306965E-17  7.929457E-18
         4   3 -6.644182E-03 -6.644182E-03  5.695013E-03  9.450451E-18  1.022816E-18  2.933849E-17
         4   4 -6.644182E-03 -6.644182E-03  5.695013E-03  6.892636E-18 -7.916072E-18  4.913928E-18
         4   5 -6.644182E-03 -6.644182E-03  5.695013E-03  6.461847E-19  2.675600E-18  1.492941E-18
         4   6 -6.644182E-03 -6.644182E-03  5.695013E-03  1.163132E-17 -1.619838E-17 -1.548638E-18
         4   7 -6.644182E-03 -6.644182E-03  5.695013E-03 -2.347804E-17  1.285254E-17  1.657058E-17
         4   8 -6.644182E-03 -6.644182E-03  5.695013E-03 -1.249290E-17  3.644413E-18 -3.917982E-18
         5   1 -6.644182E-03 -6.644182E-03  5.695013E-03  9.692770E-18 -3.672421E-18 -3.626913E-18
         5   2 -6.644182E-03 -6.644182E-03  5.695013E-03  1.852396E-17 -1.810388E-17 -2.782221E-17
         5   3 -6.644182E-03 -6.644182E-03  5.695013E-03  1.206211E-17  2.143045E-17  7.142832E-18
         5   4 -6.644182E-03 -6.644182E-03  5.695013E-03  1.927784E-17  9.583734E-18 -2.784947E-17
         5   5 -6.644182E-03 -6.644182E-03  5.695013E-03  4.738688E-18 -6.826432E-18  4.005602E-18
         5   6 -6.644182E-03 -6.644182E-03  5.695013E-03  1.766238E-17 -1.991167E-17 -1.739139E-17
         5   7 -6.644182E-03 -6.644182E-03  5.695013E-03 -1.723159E-18  2.282650E-17  1.649851E-17
         5   8 -6.644182E-03 -6.644182E-03  5.695013E-03  9.908165E-18  9.902811E-18 -1.610036E-17
         6   1 -6.644182E-03 -6.644182E-03  5.695013E-03 -1.066205E-17  1.325664E-17 -2.273693E-18
         6   2 -6.644182E-03 -6.644182E-03  5.695013E-03  5.277175E-18 -3.221065E-18  7.813239E-18
         6   3 -6.644182E-03 -6.644182E-03  5.695013E-03 -4.307898E-18  4.711918E-18 -1.218186E-17
         6   4 -6.644182E-03 -6.644182E-03  5.695013E-03  1.292369E-17 -8.883491E-19  1.161918E-18
         6   5 -6.644182E-03 -6.644182E-03  5.695013E-03 -5.600267E-18  9.625846E-18 -7.371611E-18
         6   6 -6.644182E-03 -6.644182E-03  5.695013E-03  1.766238E-17 -3.082452E-18  4.117215E-18
         6   7 -6.644182E-03 -6.644182E-03  5.695013E-03  3.446318E-18 -4.840412E-18 -1.512583E-17
         6   8 -6.644182E-03 -6.644182E-03  5.695013E-03  2.498581E-17 -5.271202E-18 -5.680576E-18
         7   1 -6.644182E-03 -6.644182E-03  5.695013E-03 -2.638587E-18  9.863426E-19 -1.656667E-17
         7   2 -6.644182E-03 -6.644182E-03  5.695013E-03  1.130823E-17 -2.252536E-19  1.323644E-18
         7   3 -6.644182E-03 -6.644182E-03  5.695013E-03  3.392470E-18 -2.365328E-18 -1.966562E-19
         7   4 -6.644182E-03 -6.644182E-03  5.695013E-03  1.733929E-17 -9.796452E-18 -1.368792E-18
         7   5 -6.644182E-03 -6.644182E-03  5.695013E-03  1.906245E-17  4.734285E-18 -1.673120E-17
         7   6 -6.644182E-03 -6.644182E-03  5.695013E-03  2.412423E-17  3.401529E-18  1.200734E-18
         7   7 -6.644182E-03 -6.644182E-03  5.695013E-03  5.277175E-18 -1.820149E-18  5.003907E-19
         7   8 -6.644182E-03 -6.644182E-03  5.695013E-03  1.033895E-17 -9.251272E-18  4.754749E-18
         8   1 -6.644182E-03 -6.644182E-03  5.695013E-03 -2.110870E-17 -6.590600E-18  6.435077E-19
         8   2 -6.644182E-03 -6.644182E-03  5.695013E-03 -1.001586E-17 -2.430683E-17  1.859094E-18
         8   3 -6.644182E-03 -6.644182E-03  5.695013E-03 -6.461847E-18  1.276308E-18  1.505087E-18
         8   4 -6.644182E-03 -6.644182E-03  5.695013E-03  4.738688E-18  4.938021E-18  1.100147E-19
         8   5 -6.644182E-03 -6.644182E-03  5.695013E-03  3.446318E-18  9.847196E-19 -3.882462E-18
         8   6 -6.644182E-03 -6.644182E-03  5.695013E-03  4.652530E-17 -1.780848E-17 -7.299434E-18
         8   7 -6.644182E-03 -6.644182E-03  5.695013E-03  1.378527E-17 -1.351262E-18  1.287015E-18
         8   8 -6.644182E-03 -6.644182E-03  5.695013E-03  5.729504E-17  1.565018E-19 -1.053170E-17
         9   1 -6.644182E-03 -6.644182E-03  5.695013E-03  3.467708E-37  1.821340E-17  5.857774E-18
         9   2 -6.644182E-03 -6.644182E-03  5.695013E-03  5.169477E-18  3.458854E-18  1.372187E-17
         9   3 -6.644182E-03 -6.644182E-03  5.695013E-03 -5.169477E-18 -1.430904E-17 -1.732829E-19
         9   4 -6.644182E-03 -6.644182E-03  5.695013E-03 -2.153949E-18 -3.108503E-18  7.155851E-20
         9   5 -6.644182E-03 -6.644182E-03  5.695013E-03 -5.514109E-17  1.922296E-17 -5.415757E-18
         9   6 -6.644182E-03 -6.644182E-03  5.695013E-03 -1.206211E-17 -1.239550E-18  7.943460E-18
         9   7 -6.644182E-03 -6.644182E-03  5.695013E-03 -5.858741E-17 -1.287015E-17 -1.144681E-17
         9   8 -6.644182E-03 -6.644182E-03  5.695013E-03 -1.378527E-17  3.499857E-18 -4.229028E-18
