    1C
    1UUSER                                                              
    1UDATE              11.july.2016                                    
    1UTIME              14:24:17                                        
    1UHOST                                                              
    1UPGM               CalculiX                                        
    1UDIR                                                               
    1UDBN                                                               
    1UMAT    1EL                                                        
    2C                             8                                     1
 -1         1 0.00000E+00 0.00000E+00 0.00000E+00
 -1         2 4.70000E+02-1.71000E+02 0.00000E+00
 -1         3 1.71000E+02 4.70000E+02 0.00000E+00
 -1         4 6.41000E+02 2.99000E+02 0.00000E+00
 -1         5 0.00000E+00 0.00000E+00 7.00000E+02
 -1         6 4.70000E+02-1.71000E+02 7.00000E+02
 -1         7 1.71000E+02 4.70000E+02 7.00000E+02
 -1         8 6.41000E+02 2.99000E+02 7.00000E+02
 -3
    3C                             1                                     1
 -1         1    1    0    1
 -2         1         2         4         3         5         6         8         7
 -3
    1PSTEP                         1           1           1          
  100CL  101 5.00000E-02           8                     0    1           1
 -4  DISP        4    1
 -5  D1          1    2    1    0
 -5  D2          1    2    2    0
 -5  D3          1    2    3    0
 -5  ALL         1    2    0    0    1ALL
 -1         1 0.00000E+00 0.00000E+00 0.00000E+00
 -1         2 1.46600E+00 0.00000E+00 0.00000E+00
 -1         3 0.00000E+00-4.83763E-01 0.00000E+00
 -1         4 1.06436E+00-3.89520E-01 0.00000E+00
 -1         5 0.00000E+00 0.00000E+00-4.56420E-01
 -1         6 1.44033E+00 0.00000E+00-4.44275E-01
 -1         7 0.00000E+00-5.03675E-01-3.68819E-01
 -1         8 1.06525E+00-4.35131E-01-3.59945E-01
 -3
    1PSTEP                         2           1           1          
  100CL  101 5.00000E-02           8                     0    1           1
 -4  STRESS      6    1
 -5  SXX         1    4    1    1
 -5  SYY         1    4    2    2
 -5  SZZ         1    4    3    3
 -5  SXY         1    4    1    2
 -5  SYZ         1    4    2    3
 -5  SZX         1    4    3    1
 -1         1 5.93466E+02-1.41923E+00 3.98069E+01-1.08101E+02-1.79104E-04-2.12264E-05
 -1         2 5.39175E+02 1.76036E+01 3.29371E+01-1.64001E+02 5.78609E-03-2.97214E+00
 -1         3 3.85617E+02-9.60002E+01-2.41793E+01-7.12913E+01-2.28984E+00 1.91781E-03
 -1         4 3.30851E+02-7.76219E+01-3.23801E+01-1.27089E+02-5.24725E+00 1.11495E-01
 -1         5 5.75186E+02-1.77917E+01 2.94522E+01-1.07762E+02 1.25673E+01 6.69969E+00
 -1         6 5.20200E+02-1.02016E+01 1.89378E+01-1.61015E+02 1.20794E+01 3.52538E+00
 -1         7 3.83711E+02-1.01369E+02-2.63685E+01-7.63605E+01 1.04589E+01 6.19608E+00
 -1         8 3.28238E+02-9.44112E+01-3.82178E+01-1.29526E+02 7.00876E+00 6.10329E+00
 -3
    1PSTEP                         3           1           1          
  100CL  101 5.00000E-02           8                     0    1           1
 -4  TOSTRAIN    6    1
 -5  EXX         1    4    1    1
 -5  EYY         1    4    2    2
 -5  EZZ         1    4    3    3
 -5  EXY         1    4    1    2
 -5  EYZ         1    4    2    3
 -5  EZX         1    4    3    1
 -1         1 2.75823E-03-9.08069E-04-6.51793E-04-6.67645E-04-3.33235E-09-9.59193E-10
 -1         2 2.48292E-03-7.30100E-04-6.34455E-04-1.01361E-03 2.77422E-08-1.83807E-05
 -1         3 2.00173E-03-9.72671E-04-5.26724E-04-4.41248E-04-1.42099E-05 2.34763E-09
 -1         4 1.72664E-03-7.94920E-04-5.14052E-04-7.86955E-04-3.25553E-05 6.40681E-07
 -1         5 2.70988E-03-9.45446E-04-6.51793E-04-6.65610E-04 7.80920E-05 4.13238E-05
 -1         6 2.45279E-03-8.15829E-04-6.34455E-04-9.95338E-04 7.50529E-05 2.18279E-05
 -1         7 2.00342E-03-9.92477E-04-5.26724E-04-4.72462E-04 6.50124E-05 3.82622E-05
 -1         8 1.74652E-03-8.63047E-04-5.14052E-04-8.01968E-04 4.35993E-05 3.77852E-05
 -3
    1PSTEP                         4           2           1          
  100CL  102 1.00000E-01           8                     0    2           1
 -4  DISP        4    1
 -5  D1          1    2    1    0
 -5  D2          1    2    2    0
 -5  D3          1    2    3    0
 -5  ALL         1    2    0    0    1ALL
 -1         1 0.00000E+00 0.00000E+00 0.00000E+00
 -1         2 2.91555E+00 0.00000E+00 0.00000E+00
 -1         3 0.00000E+00-9.65141E-01 0.00000E+00
 -1         4 2.11871E+00-7.78745E-01 0.00000E+00
 -1         5 0.00000E+00 0.00000E+00-9.08974E-01
 -1         6 2.86486E+00 0.00000E+00-8.84962E-01
 -1         7 0.00000E+00-1.00489E+00-7.34591E-01
 -1         8 2.12043E+00-8.69550E-01-7.17133E-01
 -3
    1PSTEP                         5           2           1          
  100CL  102 1.00000E-01           8                     0    2           1
 -4  STRESS      6    1
 -5  SXX         1    4    1    1
 -5  SYY         1    4    2    2
 -5  SZZ         1    4    3    3
 -5  SXY         1    4    1    2
 -5  SYZ         1    4    2    3
 -5  SZX         1    4    3    1
 -1         1 1.18712E+03-3.05785E+00 7.90184E+01-2.16046E+02-4.18551E-04 9.50830E-05
 -1         2 1.07881E+03 3.46142E+01 6.52978E+01-3.27276E+02 2.29869E-02-5.88898E+00
 -1         3 7.71212E+02-1.90686E+02-4.78945E+01-1.42452E+02-4.55538E+00 7.78563E-03
 -1         4 6.62130E+02-1.54457E+02-6.43023E+01-2.53279E+02-1.04158E+01 2.34540E-01
 -1         5 1.15070E+03-3.55205E+01 5.85166E+01-2.15360E+02 2.49160E+01 1.33513E+01
 -1         6 1.04099E+03-2.05566E+01 3.75375E+01-3.21314E+02 2.39546E+01 7.01482E+00
 -1         7 7.67413E+02-2.01382E+02-5.22701E+01-1.52572E+02 2.07255E+01 1.23275E+01
 -1         8 6.56879E+02-1.87814E+02-7.59520E+01-2.58181E+02 1.38845E+01 1.21063E+01
 -3
    1PSTEP                         6           2           1          
  100CL  102 1.00000E-01           8                     0    2           1
 -4  TOSTRAIN    6    1
 -5  EXX         1    4    1    1
 -5  EYY         1    4    2    2
 -5  EZZ         1    4    3    3
 -5  EXY         1    4    1    2
 -5  EYZ         1    4    2    3
 -5  EZX         1    4    3    1
 -1         1 5.49296E-03-1.80997E-03-1.29765E-03-1.33126E-03-1.13774E-08-2.70238E-09
 -1         2 4.94532E-03-1.45622E-03-1.26339E-03-2.01951E-03 1.10694E-07-3.63830E-05
 -1         3 3.98851E-03-1.93809E-03-1.04882E-03-8.81502E-04-2.83376E-05 1.03719E-08
 -1         4 3.44172E-03-1.58520E-03-1.02390E-03-1.56873E-03-6.47649E-05 1.25633E-06
 -1         5 5.39725E-03-1.88451E-03-1.29765E-03-1.32725E-03 1.55406E-04 8.20544E-05
 -1         6 4.88569E-03-1.62695E-03-1.26339E-03-1.98343E-03 1.49379E-04 4.34403E-05
 -1         7 3.99184E-03-1.97772E-03-1.04882E-03-9.43493E-04 1.29356E-04 7.59399E-05
 -1         8 3.48101E-03-1.72089E-03-1.02390E-03-1.59879E-03 8.67901E-05 7.49553E-05
 -3
    1PSTEP                         7           3           1          
  100CL  103 1.50000E-01           8                     0    3           1
 -4  DISP        4    1
 -5  D1          1    2    1    0
 -5  D2          1    2    2    0
 -5  D3          1    2    3    0
 -5  ALL         1    2    0    0    1ALL
 -1         1 0.00000E+00 0.00000E+00 0.00000E+00
 -1         2 4.34905E+00 0.00000E+00 0.00000E+00
 -1         3 0.00000E+00-1.44418E+00 0.00000E+00
 -1         4 3.16326E+00-1.16763E+00 0.00000E+00
 -1         5 0.00000E+00 0.00000E+00-1.35774E+00
 -1         6 4.27394E+00 0.00000E+00-1.32213E+00
 -1         7 0.00000E+00-1.50369E+00-1.09737E+00
 -1         8 3.16575E+00-1.30323E+00-1.07161E+00
 -3
    1PSTEP                         8           3           1          
  100CL  103 1.50000E-01           8                     0    3           1
 -4  STRESS      6    1
 -5  SXX         1    4    1    1
 -5  SYY         1    4    2    2
 -5  SZZ         1    4    3    3
 -5  SXY         1    4    1    2
 -5  SYZ         1    4    2    3
 -5  SZX         1    4    3    1
 -1         1 1.78094E+03-4.90568E+00 1.17652E+02-3.23837E+02-6.98383E-04 3.54653E-04
 -1         2 1.61889E+03 5.10613E+01 9.71025E+01-4.89840E+02 5.09400E-02-8.75286E+00
 -1         3 1.15678E+03-2.84096E+02-7.11614E+01-2.13483E+02-6.79731E+00 1.75405E-02
 -1         4 9.93818E+02-2.30516E+02-9.57786E+01-3.78590E+02-1.55085E+01 3.68562E-01
 -1         5 1.72653E+03-5.31861E+01 8.72024E+01-3.22795E+02 3.70533E+01 1.99563E+01
 -1         6 1.56235E+03-3.10500E+01 5.58104E+01-4.80912E+02 3.56317E+01 1.04689E+01
 -1         7 1.15110E+03-3.00079E+02-7.77205E+01-2.28637E+02 3.08059E+01 1.83960E+01
 -1         8 9.85906E+02-2.80225E+02-1.13215E+02-3.85987E+02 2.06307E+01 1.80117E+01
 -3
    1PSTEP                         9           3           1          
  100CL  103 1.50000E-01           8                     0    3           1
 -4  TOSTRAIN    6    1
 -5  EXX         1    4    1    1
 -5  EYY         1    4    2    2
 -5  EZZ         1    4    3    3
 -5  EXY         1    4    1    2
 -5  EYZ         1    4    2    3
 -5  EZX         1    4    3    1
 -1         1 8.20470E-03-2.70583E-03-1.93769E-03-1.99090E-03-2.38554E-08-5.16318E-09
 -1         2 7.38762E-03-2.17839E-03-1.88692E-03-3.01784E-03 2.45748E-07-5.40228E-05
 -1         3 5.96058E-03-2.89643E-03-1.56638E-03-1.32072E-03-4.23851E-05 2.40826E-08
 -1         4 5.14540E-03-2.37090E-03-1.52963E-03-2.34540E-03-9.66414E-05 1.84703E-06
 -1         5 8.06258E-03-2.81732E-03-1.93769E-03-1.98498E-03 2.31967E-04 1.22210E-04
 -1         6 7.29908E-03-2.43342E-03-1.88692E-03-2.96440E-03 2.23000E-04 6.48393E-05
 -1         7 5.96550E-03-2.95588E-03-1.56638E-03-1.41307E-03 1.93054E-04 1.13050E-04
 -1         8 5.20363E-03-2.57361E-03-1.52963E-03-2.39054E-03 1.29583E-04 1.11527E-04
 -3
    1PSTEP                        10           4           1          
  100CL  104 2.00000E-01           8                     0    4           1
 -4  DISP        4    1
 -5  D1          1    2    1    0
 -5  D2          1    2    2    0
 -5  D3          1    2    3    0
 -5  ALL         1    2    0    0    1ALL
 -1         1 0.00000E+00 0.00000E+00 0.00000E+00
 -1         2 5.76686E+00 0.00000E+00 0.00000E+00
 -1         3 0.00000E+00-1.92092E+00 0.00000E+00
 -1         4 4.19820E+00-1.55619E+00 0.00000E+00
 -1         5 0.00000E+00 0.00000E+00-1.80280E+00
 -1         6 5.66794E+00 0.00000E+00-1.75585E+00
 -1         7 0.00000E+00-2.00012E+00-1.45721E+00
 -1         8 4.20142E+00-1.73620E+00-1.42342E+00
 -3
    1PSTEP                        11           4           1          
  100CL  104 2.00000E-01           8                     0    4           1
 -4  STRESS      6    1
 -5  SXX         1    4    1    1
 -5  SYY         1    4    2    2
 -5  SZZ         1    4    3    3
 -5  SXY         1    4    1    2
 -5  SYZ         1    4    2    3
 -5  SZX         1    4    3    1
 -1         1 2.37493E+03-6.95508E+00 1.55724E+02-4.31477E+02-1.00079E-03 7.62118E-04
 -1         2 2.15940E+03 6.69498E+01 1.28364E+02-6.51707E+02 8.90276E-02-1.15660E+01
 -1         3 1.54232E+03-3.76257E+02-9.39903E+01-2.84391E+02-9.01590E+00 3.11203E-02
 -1         4 1.32591E+03-3.05821E+02-1.26821E+02-5.03051E+02-2.05272E+01 5.12683E-01
 -1         5 2.30266E+03-7.07886E+01 1.15519E+02-4.30071E+02 4.89845E+01 2.65166E+01
 -1         6 2.08426E+03-4.16873E+01 7.37624E+01-6.39822E+02 4.71156E+01 1.38887E+01
 -1         7 1.53477E+03-3.97486E+02-1.02730E+02-3.04562E+02 4.07045E+01 2.44040E+01
 -1         8 1.31531E+03-3.71670E+02-1.50019E+02-5.12968E+02 2.72507E+01 2.38226E+01
 -3
    1PSTEP                        12           4           1          
  100CL  104 2.00000E-01           8                     0    4           1
 -4  TOSTRAIN    6    1
 -5  EXX         1    4    1    1
 -5  EYY         1    4    2    2
 -5  EZZ         1    4    3    3
 -5  EXY         1    4    1    2
 -5  EYZ         1    4    2    3
 -5  EZX         1    4    3    1
 -1         1 1.08939E-02-3.59577E-03-2.57204E-03-2.64663E-03-4.05047E-08-8.28107E-09
 -1         2 9.81023E-03-2.89675E-03-2.50513E-03-4.00875E-03 4.29997E-07-7.13144E-05
 -1         3 7.91826E-03-3.84782E-03-2.07949E-03-1.75893E-03-5.63522E-05 4.34880E-08
 -1         4 6.83790E-03-3.15213E-03-2.03129E-03-3.11708E-03-1.28192E-04 2.41082E-06
 -1         5 1.07063E-02-3.74399E-03-2.57204E-03-2.63886E-03 3.07788E-04 1.61809E-04
 -1         6 9.69336E-03-3.23538E-03-2.50513E-03-3.93838E-03 2.95928E-04 8.60299E-05
 -1         7 7.92470E-03-3.92709E-03-2.07949E-03-1.88121E-03 2.56118E-04 1.49614E-04
 -1         8 6.91461E-03-3.42133E-03-2.03129E-03-3.17734E-03 1.71985E-04 1.47520E-04
 -3
    1PSTEP                        13           5           1          
  100CL  105 2.50000E-01           8                     0    5           1
 -4  DISP        4    1
 -5  D1          1    2    1    0
 -5  D2          1    2    2    0
 -5  D3          1    2    3    0
 -5  ALL         1    2    0    0    1ALL
 -1         1 0.00000E+00 0.00000E+00 0.00000E+00
 -1         2 7.16936E+00 0.00000E+00 0.00000E+00
 -1         3 0.00000E+00-2.39541E+00 0.00000E+00
 -1         4 5.22375E+00-1.94442E+00 0.00000E+00
 -1         5 0.00000E+00 0.00000E+00-2.24422E+00
 -1         6 7.04718E+00 0.00000E+00-2.18617E+00
 -1         7 0.00000E+00-2.49423E+00-1.81417E+00
 -1         8 5.22762E+00-2.16845E+00-1.77260E+00
 -3
    1PSTEP                        14           5           1          
  100CL  105 2.50000E-01           8                     0    5           1
 -4  STRESS      6    1
 -5  SXX         1    4    1    1
 -5  SYY         1    4    2    2
 -5  SZZ         1    4    3    3
 -5  SXY         1    4    1    2
 -5  SYZ         1    4    2    3
 -5  SZX         1    4    3    1
 -1         1 2.96907E+03-9.19832E+00 1.93251E+02-5.38967E+02-1.30983E-03 1.32120E-03
 -1         2 2.70031E+03 8.22905E+01 1.59097E+02-8.12890E+02 1.36673E-01-1.43304E+01
 -1         3 1.92785E+03-4.67199E+02-1.16392E+02-3.55182E+02-1.12115E+01 4.84643E-02
 -1         4 1.65839E+03-3.80390E+02-1.57441E+02-6.26686E+02-2.54737E+01 6.66160E-01
 -1         5 2.87908E+03-8.83280E+01 1.43476E+02-5.37190E+02 6.07152E+01 3.30338E+01
 -1         6 2.60671E+03-5.24687E+01 9.14003E+01-7.98060E+02 5.84113E+01 1.72751E+01
 -1         7 1.91843E+03-4.93631E+02-1.27310E+02-3.80354E+02 5.04262E+01 3.03535E+01
 -1         8 1.64508E+03-4.62171E+02-1.86376E+02-6.39150E+02 3.37474E+01 2.95420E+01
 -3
    1PSTEP                        15           5           1          
  100CL  105 2.50000E-01           8                     0    5           1
 -4  TOSTRAIN    6    1
 -5  EXX         1    4    1    1
 -5  EYY         1    4    2    2
 -5  EZZ         1    4    3    3
 -5  EXY         1    4    1    2
 -5  EYZ         1    4    2    3
 -5  EZX         1    4    3    1
 -1         1 1.35611E-02-4.47990E-03-3.20080E-03-3.29852E-03-6.10809E-08-1.20006E-08
 -1         2 1.22135E-02-3.61140E-03-3.11813E-03-4.99239E-03 6.60726E-07-8.82718E-05
 -1         3 9.86181E-03-4.79240E-03-2.58822E-03-2.19611E-03-7.02391E-05 6.85945E-08
 -1         4 8.51940E-03-3.92902E-03-2.52896E-03-3.88388E-03-1.59423E-04 2.94639E-06
 -1         5 1.33288E-02-4.66465E-03-3.20080E-03-3.28895E-03 3.82884E-04 2.00870E-04
 -1         6 1.20689E-02-4.03293E-03-3.11813E-03-4.90551E-03 3.68177E-04 1.07016E-04
 -1         7 9.86970E-03-4.89149E-03-2.58822E-03-2.34794E-03 3.18561E-04 1.85649E-04
 -1         8 8.61416E-03-4.26416E-03-2.52896E-03-3.95927E-03 2.14006E-04 1.82953E-04
 -3
    1PSTEP                        16           6           1          
  100CL  106 3.00000E-01           8                     0    6           1
 -4  DISP        4    1
 -5  D1          1    2    1    0
 -5  D2          1    2    2    0
 -5  D3          1    2    3    0
 -5  ALL         1    2    0    0    1ALL
 -1         1 0.00000E+00 0.00000E+00 0.00000E+00
 -1         2 8.55689E+00 0.00000E+00 0.00000E+00
 -1         3 0.00000E+00-2.86770E+00 0.00000E+00
 -1         4 6.24008E+00-2.33233E+00 0.00000E+00
 -1         5 0.00000E+00 0.00000E+00-2.68206E+00
 -1         6 8.41200E+00 0.00000E+00-2.61315E+00
 -1         7 0.00000E+00-2.98606E+00-2.16830E+00
 -1         8 6.24455E+00-2.60001E+00-2.11920E+00
 -3
    1PSTEP                        17           6           1          
  100CL  106 3.00000E-01           8                     0    6           1
 -4  STRESS      6    1
 -5  SXX         1    4    1    1
 -5  SYY         1    4    2    2
 -5  SZZ         1    4    3    3
 -5  SXY         1    4    1    2
 -5  SYZ         1    4    2    3
 -5  SZX         1    4    3    1
 -1         1 3.56336E+03-1.16280E+01 2.30247E+02-6.46310E+02-1.61129E-03 2.03477E-03
 -1         2 3.24163E+03 9.70934E+01 1.89315E+02-9.73403E+02 1.93337E-01-1.70482E+01
 -1         3 2.31336E+03-5.56948E+02-1.38378E+02-4.25863E+02-1.33845E+01 6.95128E-02
 -1         4 1.99124E+03-4.54242E+02-1.87650E+02-7.49521E+02-3.03501E+01 8.28291E-01
 -1         5 3.45577E+03-1.05804E+02 1.71083E+02-6.44154E+02 7.22506E+01 3.95094E+01
 -1         6 3.12967E+03-6.33943E+01 1.08731E+02-9.55638E+02 6.95236E+01 2.06290E+01
 -1         7 2.30209E+03-5.88543E+02-1.51470E+02-4.56019E+02 5.99754E+01 3.62466E+01
 -1         8 1.97522E+03-5.51751E+02-2.22298E+02-7.64555E+02 4.01237E+01 3.51725E+01
 -3
    1PSTEP                        18           6           1          
  100CL  106 3.00000E-01           8                     0    6           1
 -4  TOSTRAIN    6    1
 -5  EXX         1    4    1    1
 -5  EYY         1    4    2    2
 -5  EZZ         1    4    3    3
 -5  EXY         1    4    1    2
 -5  EYZ         1    4    2    3
 -5  EZX         1    4    3    1
 -1         1 1.62066E-02-5.35835E-03-3.82409E-03-3.94661E-03-8.53555E-08-1.62711E-08
 -1         2 1.45979E-02-4.32244E-03-3.72601E-03-5.96889E-03 9.35393E-07-1.04908E-04
 -1         3 1.17915E-02-5.73030E-03-3.09267E-03-2.63228E-03-8.40464E-05 9.94070E-08
 -1         4 1.01901E-02-4.70164E-03-3.02270E-03-4.64591E-03-1.90343E-04 3.45257E-06
 -1         5 1.59306E-02-5.57940E-03-3.82409E-03-3.93530E-03 4.57273E-04 2.39409E-04
 -1         6 1.44261E-02-4.82620E-03-3.72601E-03-5.86591E-03 4.39761E-04 1.27802E-04
 -1         7 1.18008E-02-5.84920E-03-3.09267E-03-2.81325E-03 3.80399E-04 2.21175E-04
 -1         8 1.03025E-02-5.10222E-03-3.02270E-03-4.73644E-03 2.55651E-04 2.17841E-04
 -3
    1PSTEP                        19           7           1          
  100CL  107 3.50000E-01           8                     0    7           1
 -4  DISP        4    1
 -5  D1          1    2    1    0
 -5  D2          1    2    2    0
 -5  D3          1    2    3    0
 -5  ALL         1    2    0    0    1ALL
 -1         1 0.00000E+00 0.00000E+00 0.00000E+00
 -1         2 9.92978E+00 0.00000E+00 0.00000E+00
 -1         3 0.00000E+00-3.33781E+00 0.00000E+00
 -1         4 7.24738E+00-2.71991E+00 0.00000E+00
 -1         5 0.00000E+00 0.00000E+00-3.11641E+00
 -1         6 9.76271E+00 0.00000E+00-3.03686E+00
 -1         7 0.00000E+00-3.47564E+00-2.51965E+00
 -1         8 7.25239E+00-3.03088E+00-2.46325E+00
 -3
    1PSTEP                        20           7           1          
  100CL  107 3.50000E-01           8                     0    7           1
 -4  STRESS      6    1
 -5  SXX         1    4    1    1
 -5  SYY         1    4    2    2
 -5  SZZ         1    4    3    3
 -5  SXY         1    4    1    2
 -5  SYZ         1    4    2    3
 -5  SZX         1    4    3    1
 -1         1 4.15779E+03-1.42371E+01 2.66729E+02-7.53508E+02-1.89253E-03 2.90500E-03
 -1         2 3.78331E+03 1.11369E+02 2.19030E+02-1.13326E+03 2.58518E-01-1.97212E+01
 -1         3 2.69886E+03-6.45532E+02-1.59957E+02-4.96438E+02-1.55353E+01 9.42075E-02
 -1         4 2.32447E+03-5.27394E+02-2.17459E+02-8.71577E+02-3.51580E+01 9.98411E-01
 -1         5 4.03273E+03-1.23218E+02 1.98346E+02-7.50966E+02 8.35958E+01 4.59451E+01
 -1         6 3.65312E+03-7.44641E+01 1.25760E+02-1.11257E+03 8.04569E+01 2.39514E+01
 -1         7 2.68574E+03-6.82247E+02-1.75222E+02-5.31563E+02 6.93565E+01 4.20852E+01
 -1         8 2.30570E+03-6.40429E+02-2.57794E+02-8.89204E+02 4.63825E+01 4.07169E+01
 -3
    1PSTEP                        21           7           1          
  100CL  107 3.50000E-01           8                     0    7           1
 -4  TOSTRAIN    6    1
 -5  EXX         1    4    1    1
 -5  EYY         1    4    2    2
 -5  EZZ         1    4    3    3
 -5  EXY         1    4    1    2
 -5  EYZ         1    4    2    3
 -5  EZX         1    4    3    1
 -1         1 1.88309E-02-6.23123E-03-4.44201E-03-4.59098E-03-1.13115E-07-2.10461E-08
 -1         2 1.69638E-02-5.02995E-03-4.32886E-03-6.93838E-03 1.25162E-06-1.21236E-04
 -1         3 1.37076E-02-6.66166E-03-3.59291E-03-3.06743E-03-9.77742E-05 1.35929E-07
 -1         4 1.18502E-02-5.47010E-03-3.51256E-03-5.40325E-03-2.20959E-04 3.92826E-06
 -1         5 1.85120E-02-6.48838E-03-4.44201E-03-4.57797E-03 5.30966E-04 2.77443E-04
 -1         6 1.67652E-02-5.61528E-03-4.32886E-03-6.81968E-03 5.10694E-04 1.48392E-04
 -1         7 1.37182E-02-6.80035E-03-3.59291E-03-3.27717E-03 4.41643E-04 2.56207E-04
 -1         8 1.19797E-02-5.93559E-03-3.51256E-03-5.50894E-03 2.96929E-04 2.52202E-04
 -3
    1PSTEP                        22           8           1          
  100CL  108 4.00000E-01           8                     0    8           1
 -4  DISP        4    1
 -5  D1          1    2    1    0
 -5  D2          1    2    2    0
 -5  D3          1    2    3    0
 -5  ALL         1    2    0    0    1ALL
 -1         1 0.00000E+00 0.00000E+00 0.00000E+00
 -1         2 1.12884E+01 0.00000E+00 0.00000E+00
 -1         3 0.00000E+00-3.80580E+00 0.00000E+00
 -1         4 8.24582E+00-3.10716E+00 0.00000E+00
 -1         5 0.00000E+00 0.00000E+00-3.54731E+00
 -1         6 1.10996E+01 0.00000E+00-3.45735E+00
 -1         7 0.00000E+00-3.96302E+00-2.86826E+00
 -1         8 8.25131E+00-3.46107E+00-2.80479E+00
 -3
    1PSTEP                        23           8           1          
  100CL  108 4.00000E-01           8                     0    8           1
 -4  STRESS      6    1
 -5  SXX         1    4    1    1
 -5  SYY         1    4    2    2
 -5  SZZ         1    4    3    3
 -5  SXY         1    4    1    2
 -5  SYZ         1    4    2    3
 -5  SZX         1    4    3    1
 -1         1 4.75235E+03-1.70189E+01 3.02709E+02-8.60563E+02-2.14228E-03 3.93335E-03
 -1         2 4.32536E+03 1.25126E+02 2.48255E+02-1.29247E+03 3.31745E-01-2.23512E+01
 -1         3 3.08436E+03-7.32976E+02-1.81141E+02-5.66914E+02-1.76642E+01 1.22491E-01
 -1         4 2.65806E+03-5.99861E+02-2.46877E+02-9.92878E+02-3.98993E+01 1.17589E+00
 -1         5 4.60995E+03-1.40569E+02 2.25276E+02-8.57629E+02 9.47557E+01 5.23423E+01
 -1         6 4.17705E+03-8.56782E+01 1.42495E+02-1.26887E+03 9.12158E+01 2.72429E+01
 -1         7 3.06939E+03-7.74769E+02-1.98575E+02-6.06992E+02 7.85735E+01 4.78711E+01
 -1         8 2.63652E+03-7.28227E+02-2.92876E+02-1.01312E+03 5.25266E+01 4.61777E+01
 -3
    1PSTEP                        24           8           1          
  100CL  108 4.00000E-01           8                     0    8           1
 -4  TOSTRAIN    6    1
 -5  EXX         1    4    1    1
 -5  EYY         1    4    2    2
 -5  EZZ         1    4    3    3
 -5  EXY         1    4    1    2
 -5  EYZ         1    4    2    3
 -5  EZX         1    4    3    1
 -1         1 2.14345E-02-7.09863E-03-5.05465E-03-5.23167E-03-1.44159E-07-2.62833E-08
 -1         2 1.93115E-02-5.73404E-03-4.92676E-03-7.90100E-03 1.60718E-06-1.37268E-04
 -1         3 1.56103E-02-7.58659E-03-4.08901E-03-3.50158E-03-1.11423E-04 1.78161E-07
 -1         4 1.34998E-02-6.23449E-03-3.99862E-03-6.15600E-03-2.51278E-04 4.37249E-06
 -1         5 2.10733E-02-7.39167E-03-5.05465E-03-5.21701E-03 6.03980E-04 3.14986E-04
 -1         6 1.90866E-02-6.40027E-03-4.92676E-03-7.76695E-03 5.80988E-04 1.68789E-04
 -1         7 1.56221E-02-7.74506E-03-4.08901E-03-3.73971E-03 5.02308E-04 2.90763E-04
 -1         8 1.36461E-02-6.76439E-03-3.99862E-03-6.27686E-03 3.37848E-04 2.86050E-04
 -3
    1PSTEP                        25           9           1          
  100CL  109 4.50000E-01           8                     0    9           1
 -4  DISP        4    1
 -5  D1          1    2    1    0
 -5  D2          1    2    2    0
 -5  D3          1    2    3    0
 -5  ALL         1    2    0    0    1ALL
 -1         1 0.00000E+00 0.00000E+00 0.00000E+00
 -1         2 1.26330E+01 0.00000E+00 0.00000E+00
 -1         3 0.00000E+00-4.27171E+00 0.00000E+00
 -1         4 9.23559E+00-3.49408E+00 0.00000E+00
 -1         5 0.00000E+00 0.00000E+00-3.97484E+00
 -1         6 1.24230E+01 0.00000E+00-3.87467E+00
 -1         7 0.00000E+00-4.44824E+00-3.21420E+00
 -1         8 9.24149E+00-3.89058E+00-3.14386E+00
 -3
    1PSTEP                        26           9           1          
  100CL  109 4.50000E-01           8                     0    9           1
 -4  STRESS      6    1
 -5  SXX         1    4    1    1
 -5  SYY         1    4    2    2
 -5  SZZ         1    4    3    3
 -5  SXY         1    4    1    2
 -5  SYZ         1    4    2    3
 -5  SZX         1    4    3    1
 -1         1 5.34703E+03-1.99671E+01 3.38202E+02-9.67477E+02-2.35057E-03 5.12074E-03
 -1         2 4.86776E+03 1.38375E+02 2.77003E+02-1.45104E+03 4.12577E-01-2.49399E+01
 -1         3 3.46984E+03-8.19306E+02-2.01937E+02-6.37294E+02-1.97715E+01 1.54307E-01
 -1         4 2.99200E+03-6.71660E+02-2.75915E+02-1.11345E+03-4.45756E+01 1.36015E+00
 -1         5 5.18740E+03-1.57857E+02 2.51879E+02-9.64144E+02 1.05735E+02 5.87024E+01
 -1         6 4.70144E+03-9.70365E+01 1.58941E+02-1.42454E+03 1.01804E+02 3.05046E+01
 -1         7 3.45303E+03-8.66135E+02-2.21538E+02-6.82311E+02 8.76306E+01 5.36062E+01
 -1         8 2.96767E+03-8.15162E+02-3.27554E+02-1.13632E+03 5.85585E+01 5.15574E+01
 -3
    1PSTEP                        27           9           1          
  100CL  109 4.50000E-01           8                     0    9           1
 -4  TOSTRAIN    6    1
 -5  EXX         1    4    1    1
 -5  EYY         1    4    2    2
 -5  EZZ         1    4    3    3
 -5  EXY         1    4    1    2
 -5  EYZ         1    4    2    3
 -5  EZX         1    4    3    1
 -1         1 2.40177E-02-7.96068E-03-5.66213E-03-5.86874E-03-1.78300E-07-3.19439E-08
 -1         2 2.16413E-02-6.43478E-03-5.51981E-03-8.85686E-03 1.99998E-06-1.53015E-04
 -1         3 1.74999E-02-8.50522E-03-4.58105E-03-3.93471E-03-1.24994E-04 2.26106E-07
 -1         4 1.51391E-02-6.99490E-03-4.48092E-03-6.90426E-03-2.81307E-04 4.78434E-06
 -1         5 2.36151E-02-8.28939E-03-5.66213E-03-5.85247E-03 6.76328E-04 3.52055E-04
 -1         6 2.13906E-02-7.18128E-03-5.51981E-03-8.70783E-03 6.50655E-04 1.88997E-04
 -1         7 1.75129E-02-8.68343E-03-4.58105E-03-4.20087E-03 5.62404E-04 3.24858E-04
 -1         8 1.53018E-02-7.58870E-03-4.48092E-03-7.04028E-03 3.78413E-04 3.19402E-04
 -3
    1PSTEP                        28          10           1          
  100CL  110 5.00000E-01           8                     0   10           1
 -4  DISP        4    1
 -5  D1          1    2    1    0
 -5  D2          1    2    2    0
 -5  D3          1    2    3    0
 -5  ALL         1    2    0    0    1ALL
 -1         1 0.00000E+00 0.00000E+00 0.00000E+00
 -1         2 1.39639E+01 0.00000E+00 0.00000E+00
 -1         3 0.00000E+00-4.73556E+00 0.00000E+00
 -1         4 1.02168E+01-3.88068E+00 0.00000E+00
 -1         5 0.00000E+00 0.00000E+00-4.39905E+00
 -1         6 1.37332E+01 0.00000E+00-4.28887E+00
 -1         7 0.00000E+00-4.93134E+00-3.55749E+00
 -1         8 1.02231E+01-4.31944E+00-3.48050E+00
 -3
    1PSTEP                        29          10           1          
  100CL  110 5.00000E-01           8                     0   10           1
 -4  STRESS      6    1
 -5  SXX         1    4    1    1
 -5  SYY         1    4    2    2
 -5  SZZ         1    4    3    3
 -5  SXY         1    4    1    2
 -5  SYZ         1    4    2    3
 -5  SZX         1    4    3    1
 -1         1 5.94182E+03-2.30756E+01 3.73221E+02-1.07425E+03-2.50859E-03 6.46751E-03
 -1         2 5.41050E+03 1.51124E+02 3.05285E+02-1.60900E+03 5.00604E-01-2.74890E+01
 -1         3 3.85533E+03-9.04544E+02-2.22355E+02-7.07586E+02-2.18576E+01 1.89600E-01
 -1         4 3.32628E+03-7.42805E+02-3.04582E+02-1.23330E+03-4.91885E+01 1.55062E+00
 -1         5 5.76509E+03-1.75083E+02 2.78164E+02-1.07051E+03 1.16538E+02 6.50268E+01
 -1         6 5.22628E+03-1.08539E+02 1.75105E+02-1.57961E+03 1.12227E+02 3.37372E+01
 -1         7 3.83668E+03-9.56367E+02-2.44121E+02-7.57525E+02 9.65316E+01 5.92921E+01
 -1         8 3.29914E+03-9.01255E+02-3.61837E+02-1.25883E+03 6.44807E+01 5.68584E+01
 -3
    1PSTEP                        30          10           1          
  100CL  110 5.00000E-01           8                     0   10           1
 -4  TOSTRAIN    6    1
 -5  EXX         1    4    1    1
 -5  EYY         1    4    2    2
 -5  EZZ         1    4    3    3
 -5  EXY         1    4    1    2
 -5  EYZ         1    4    2    3
 -5  EZX         1    4    3    1
 -1         1 2.65809E-02-8.81746E-03-6.26452E-03-6.50225E-03-2.15363E-07-3.79927E-08
 -1         2 2.39537E-02-7.13227E-03-6.10807E-03-9.80610E-03 2.42807E-06-1.68488E-04
 -1         3 1.93766E-02-9.41766E-03-5.06910E-03-4.36684E-03-1.38486E-04 2.79761E-07
 -1         4 1.67684E-02-7.75142E-03-4.95953E-03-7.64810E-03-3.11051E-04 5.16300E-06
 -1         5 2.61375E-02-9.18164E-03-6.26452E-03-6.48440E-03 7.48021E-04 3.88662E-04
 -1         6 2.36776E-02-7.95840E-03-6.10807E-03-9.64242E-03 7.19709E-04 2.09020E-04
 -1         7 1.93906E-02-9.61559E-03-5.06910E-03-4.66068E-03 6.21943E-04 3.58506E-04
 -1         8 1.69470E-02-8.40863E-03-4.95953E-03-7.79929E-03 4.18631E-04 3.52272E-04
 -3
    1PSTEP                        31          11           1          
  100CL  111 5.50000E-01           8                     0   11           1
 -4  DISP        4    1
 -5  D1          1    2    1    0
 -5  D2          1    2    2    0
 -5  D3          1    2    3    0
 -5  ALL         1    2    0    0    1ALL
 -1         1 0.00000E+00 0.00000E+00 0.00000E+00
 -1         2 1.52814E+01 0.00000E+00 0.00000E+00
 -1         3 0.00000E+00-5.19740E+00 0.00000E+00
 -1         4 1.11897E+01-4.26695E+00 0.00000E+00
 -1         5 0.00000E+00 0.00000E+00-4.82001E+00
 -1         6 1.50304E+01 0.00000E+00-4.70001E+00
 -1         7 0.00000E+00-5.41235E+00-3.89820E+00
 -1         8 1.11963E+01-4.74764E+00-3.81474E+00
 -3
    1PSTEP                        32          11           1          
  100CL  111 5.50000E-01           8                     0   11           1
 -4  STRESS      6    1
 -5  SXX         1    4    1    1
 -5  SYY         1    4    2    2
 -5  SZZ         1    4    3    3
 -5  SXY         1    4    1    2
 -5  SYZ         1    4    2    3
 -5  SZX         1    4    3    1
 -1         1 6.53672E+03-2.63384E+01 4.07778E+02-1.18089E+03-2.60857E-03 7.97358E-03
 -1         2 5.95355E+03 1.63383E+02 3.33111E+02-1.76634E+03 5.95439E-01-3.00002E+01
 -1         3 4.24081E+03-9.88716E+02-2.42405E+02-7.77792E+02-2.39228E+01 2.28317E-01
 -1         4 3.66090E+03-8.13312E+02-3.32887E+02-1.35246E+03-5.37396E+01 1.74676E+00
 -1         5 6.34299E+03-1.92247E+02 3.04138E+02-1.17674E+03 1.27169E+02 7.13168E+01
 -1         6 5.75154E+03-1.20185E+02 1.90990E+02-1.73408E+03 1.22487E+02 3.69415E+01
 -1         7 4.22032E+03-1.04549E+03-2.66332E+02-8.32640E+02 1.05280E+02 6.49306E+01
 -1         8 3.63093E+03-9.86522E+02-3.95735E+02-1.38067E+03 7.02958E+01 6.20830E+01
 -3
    1PSTEP                        33          11           1          
  100CL  111 5.50000E-01           8                     0   11           1
 -4  TOSTRAIN    6    1
 -5  EXX         1    4    1    1
 -5  EYY         1    4    2    2
 -5  EZZ         1    4    3    3
 -5  EXY         1    4    1    2
 -5  EYZ         1    4    2    3
 -5  EZX         1    4    3    1
 -1         1 2.91244E-02-9.66908E-03-6.86193E-03-7.13223E-03-2.55182E-07-4.43975E-08
 -1         2 2.62489E-02-7.82658E-03-6.69164E-03-1.07488E-02 2.88961E-06-1.83697E-04
 -1         3 2.12406E-02-1.03240E-02-5.55322E-03-4.79797E-03-1.51900E-04 3.39126E-07
 -1         4 1.83877E-02-8.50412E-03-5.43449E-03-8.38763E-03-3.40517E-04 5.50772E-06
 -1         5 2.86411E-02-1.00685E-02-6.86193E-03-7.11284E-03 8.19075E-04 4.24823E-04
 -1         6 2.59479E-02-8.73171E-03-6.69164E-03-1.05708E-02 7.88160E-04 2.28861E-04
 -1         7 2.12557E-02-1.05416E-02-5.55322E-03-5.11913E-03 6.80938E-04 3.91723E-04
 -1         8 1.85819E-02-9.22426E-03-5.43449E-03-8.55397E-03 4.58510E-04 3.84673E-04
 -3
    1PSTEP                        34          12           1          
  100CL  112 6.00000E-01           8                     0   12           1
 -4  DISP        4    1
 -5  D1          1    2    1    0
 -5  D2          1    2    2    0
 -5  D3          1    2    3    0
 -5  ALL         1    2    0    0    1ALL
 -1         1 0.00000E+00 0.00000E+00 0.00000E+00
 -1         2 1.65858E+01 0.00000E+00 0.00000E+00
 -1         3 0.00000E+00-5.65726E+00 0.00000E+00
 -1         4 1.21544E+01-4.65290E+00 0.00000E+00
 -1         5 0.00000E+00 0.00000E+00-5.23776E+00
 -1         6 1.63149E+01 0.00000E+00-5.10813E+00
 -1         7 0.00000E+00-5.89130E+00-4.23635E+00
 -1         8 1.21612E+01-5.17519E+00-4.14661E+00
 -3
    1PSTEP                        35          12           1          
  100CL  112 6.00000E-01           8                     0   12           1
 -4  STRESS      6    1
 -5  SXX         1    4    1    1
 -5  SYY         1    4    2    2
 -5  SZZ         1    4    3    3
 -5  SXY         1    4    1    2
 -5  SYZ         1    4    2    3
 -5  SZX         1    4    3    1
 -1         1 7.13172E+03-2.97502E+01 4.41886E+02-1.28739E+03-2.64370E-03 9.63844E-03
 -1         2 6.49691E+03 1.75160E+02 3.60494E+02-1.92309E+03 6.96722E-01-3.24747E+01
 -1         3 4.62630E+03-1.07184E+03-2.62094E+02-8.47917E+02-2.59674E+01 2.70405E-01
 -1         4 3.99584E+03-8.83195E+02-3.60840E+02-1.47094E+03-5.82303E+01 1.94809E+00
 -1         5 6.92111E+03-2.09349E+02 3.29807E+02-1.28283E+03 1.37632E+02 7.75737E+01
 -1         6 6.27722E+03-1.31974E+02 2.06604E+02-1.88796E+03 1.32589E+02 4.01182E+01
 -1         7 4.60396E+03-1.13352E+03-2.88179E+02-9.07661E+02 1.13880E+02 7.05233E+01
 -1         8 3.96303E+03-1.07098E+03-4.29258E+02-1.50185E+03 7.60060E+01 6.72333E+01
 -3
    1PSTEP                        36          12           1          
  100CL  112 6.00000E-01           8                     0   12           1
 -4  TOSTRAIN    6    1
 -5  EXX         1    4    1    1
 -5  EYY         1    4    2    2
 -5  EZZ         1    4    3    3
 -5  EXY         1    4    1    2
 -5  EYZ         1    4    2    3
 -5  EZX         1    4    3    1
 -1         1 3.16487E-02-1.05156E-02-7.45444E-03-7.75875E-03-2.97604E-07-5.11291E-08
 -1         2 2.85272E-02-8.51779E-03-7.27059E-03-1.16851E-02 3.38287E-06-1.98652E-04
 -1         3 2.30922E-02-1.12244E-02-6.03348E-03-5.22810E-03-1.65238E-04 4.04197E-07
 -1         4 1.99972E-02-9.25309E-03-5.90587E-03-9.12291E-03-3.69711E-04 5.81783E-06
 -1         5 3.11260E-02-1.09501E-02-7.45444E-03-7.73786E-03 8.89500E-04 4.60549E-04
 -1         6 2.82016E-02-9.50131E-03-7.27059E-03-1.14932E-02 8.56020E-04 2.48523E-04
 -1         7 2.31082E-02-1.14617E-02-6.03348E-03-5.57624E-03 7.39399E-04 4.24523E-04
 -1         8 2.02066E-02-1.00357E-02-5.90587E-03-9.30439E-03 4.98055E-04 4.16619E-04
 -3
    1PSTEP                        37          13           1          
  100CL  113 6.50000E-01           8                     0   13           1
 -4  DISP        4    1
 -5  D1          1    2    1    0
 -5  D2          1    2    2    0
 -5  D3          1    2    3    0
 -5  ALL         1    2    0    0    1ALL
 -1         1 0.00000E+00 0.00000E+00 0.00000E+00
 -1         2 1.78773E+01 0.00000E+00 0.00000E+00
 -1         3 0.00000E+00-6.11518E+00 0.00000E+00
 -1         4 1.31111E+01-5.03852E+00 0.00000E+00
 -1         5 0.00000E+00 0.00000E+00-5.65237E+00
 -1         6 1.75870E+01 0.00000E+00-5.51328E+00
 -1         7 0.00000E+00-6.36824E+00-4.57199E+00
 -1         8 1.31180E+01-5.60212E+00-4.47615E+00
 -3
    1PSTEP                        38          13           1          
  100CL  113 6.50000E-01           8                     0   13           1
 -4  STRESS      6    1
 -5  SXX         1    4    1    1
 -5  SYY         1    4    2    2
 -5  SZZ         1    4    3    3
 -5  SXY         1    4    1    2
 -5  SYZ         1    4    2    3
 -5  SZX         1    4    3    1
 -1         1 7.72681E+03-3.33056E+01 4.75555E+02-1.39376E+03-2.60802E-03 1.14612E-02
 -1         2 7.04057E+03 1.86464E+02 3.87443E+02-2.07924E+03 8.04114E-01-3.49142E+01
 -1         3 5.01178E+03-1.15394E+03-2.81430E+02-9.17968E+02-2.79917E+01 3.15812E-01
 -1         4 4.33110E+03-9.52466E+02-3.88448E+02-1.58877E+03-6.26621E+01 2.15412E+00
 -1         5 7.49943E+03-2.26389E+02 3.55180E+02-1.38878E+03 1.47932E+02 8.37987E+01
 -1         6 6.80330E+03-1.43907E+02 2.21952E+02-2.04126E+03 1.42535E+02 4.32682E+01
 -1         7 4.98761E+03-1.22049E+03-3.09671E+02-9.82593E+02 1.22334E+02 7.60716E+01
 -1         8 4.29543E+03-1.15465E+03-4.62413E+02-1.62239E+03 8.16136E+01 7.23115E+01
 -3
    1PSTEP                        39          13           1          
  100CL  113 6.50000E-01           8                     0   13           1
 -4  TOSTRAIN    6    1
 -5  EXX         1    4    1    1
 -5  EYY         1    4    2    2
 -5  EZZ         1    4    3    3
 -5  EXY         1    4    1    2
 -5  EYZ         1    4    2    3
 -5  EZX         1    4    3    1
 -1         1 3.41541E-02-1.13572E-02-8.04214E-03-8.38185E-03-3.42483E-07-5.81607E-08
 -1         2 3.07889E-02-9.20599E-03-7.84499E-03-1.26152E-02 3.90625E-06-2.13364E-04
 -1         3 2.49316E-02-1.21190E-02-6.50995E-03-5.65723E-03-1.78498E-04 4.74971E-07
 -1         4 2.15970E-02-9.99841E-03-6.37371E-03-9.85402E-03-3.98639E-04 6.09272E-06
 -1         5 3.35927E-02-1.18265E-02-8.04214E-03-8.35949E-03 9.59308E-04 4.95853E-04
 -1         6 3.04392E-02-1.02673E-02-7.84499E-03-1.24095E-02 9.23299E-04 2.68011E-04
 -1         7 2.49483E-02-1.23759E-02-6.50995E-03-6.03203E-03 7.97336E-04 4.56917E-04
 -1         8 2.18213E-02-1.08430E-02-6.37371E-03-1.00506E-02 5.37273E-04 4.48123E-04
 -3
    1PSTEP                        40          14           1          
  100CL  114 7.00000E-01           8                     0   14           1
 -4  DISP        4    1
 -5  D1          1    2    1    0
 -5  D2          1    2    2    0
 -5  D3          1    2    3    0
 -5  ALL         1    2    0    0    1ALL
 -1         1 0.00000E+00 0.00000E+00 0.00000E+00
 -1         2 1.91563E+01 0.00000E+00 0.00000E+00
 -1         3 0.00000E+00-6.57118E+00 0.00000E+00
 -1         4 1.40599E+01-5.42383E+00 0.00000E+00
 -1         5 0.00000E+00 0.00000E+00-6.06388E+00
 -1         6 1.88468E+01 0.00000E+00-5.91551E+00
 -1         7 0.00000E+00-6.84319E+00-4.90516E+00
 -1         8 1.40669E+01-6.02842E+00-4.80338E+00
 -3
    1PSTEP                        41          14           1          
  100CL  114 7.00000E-01           8                     0   14           1
 -4  STRESS      6    1
 -5  SXX         1    4    1    1
 -5  SYY         1    4    2    2
 -5  SZZ         1    4    3    3
 -5  SXY         1    4    1    2
 -5  SYZ         1    4    2    3
 -5  SZX         1    4    3    1
 -1         1 8.32199E+03-3.69996E+01 5.08798E+02-1.50000E+03-2.49637E-03 1.34406E-02
 -1         2 7.58451E+03 1.97302E+02 4.13968E+02-2.23482E+03 9.17297E-01-3.73200E+01
 -1         3 5.39728E+03-1.23504E+03-3.00421E+02-9.87947E+02-2.99961E+01 3.64487E-01
 -1         4 4.66667E+03-1.02114E+03-4.15720E+02-1.70596E+03-6.70364E+01 2.36441E+00
 -1         5 8.07794E+03-2.43368E+02 3.80263E+02-1.49459E+03 1.58072E+02 8.99931E+01
 -1         6 7.32977E+03-1.55983E+02 2.37037E+02-2.19399E+03 1.52331E+02 4.63920E+01
 -1         7 5.37126E+03-1.30642E+03-3.30816E+02-1.05744E+03 1.30647E+02 8.15771E+01
 -1         8 4.62812E+03-1.23755E+03-4.95209E+02-1.74230E+03 8.71208E+01 7.73197E+01
 -3
    1PSTEP                        42          14           1          
  100CL  114 7.00000E-01           8                     0   14           1
 -4  TOSTRAIN    6    1
 -5  EXX         1    4    1    1
 -5  EYY         1    4    2    2
 -5  EZZ         1    4    3    3
 -5  EXY         1    4    1    2
 -5  EYZ         1    4    2    3
 -5  EZX         1    4    3    1
 -1         1 3.66409E-02-1.21939E-02-8.62511E-03-9.00157E-03-3.89683E-07-6.54682E-08
 -1         2 3.30344E-02-9.89124E-03-8.41491E-03-1.35390E-02 4.45821E-06-2.27841E-04
 -1         3 2.67589E-02-1.30078E-02-6.98269E-03-6.08537E-03-1.91682E-04 5.51443E-07
 -1         4 2.31874E-02-1.07401E-02-6.83806E-03-1.05811E-02-4.27306E-04 6.33183E-06
 -1         5 3.60414E-02-1.26979E-02-8.62511E-03-8.97777E-03 1.02851E-03 5.30748E-04
 -1         6 3.26609E-02-1.10297E-02-8.41491E-03-1.33200E-02 9.90009E-04 2.87326E-04
 -1         7 2.67764E-02-1.32842E-02-6.98269E-03-6.48650E-03 8.54761E-04 4.88919E-04
 -1         8 2.34261E-02-1.16462E-02-6.83806E-03-1.07928E-02 5.76169E-04 4.79197E-04
 -3
    1PSTEP                        43          15           1          
  100CL  115 7.50000E-01           8                     0   15           1
 -4  DISP        4    1
 -5  D1          1    2    1    0
 -5  D2          1    2    2    0
 -5  D3          1    2    3    0
 -5  ALL         1    2    0    0    1ALL
 -1         1 0.00000E+00 0.00000E+00 0.00000E+00
 -1         2 2.04229E+01 0.00000E+00 0.00000E+00
 -1         3 0.00000E+00-7.02531E+00 0.00000E+00
 -1         4 1.50009E+01-5.80882E+00 0.00000E+00
 -1         5 0.00000E+00 0.00000E+00-6.47235E+00
 -1         6 2.00948E+01 0.00000E+00-6.31485E+00
 -1         7 0.00000E+00-7.31619E+00-5.23590E+00
 -1         8 1.50079E+01-6.45410E+00-5.12835E+00
 -3
    1PSTEP                        44          15           1          
  100CL  115 7.50000E-01           8                     0   15           1
 -4  STRESS      6    1
 -5  SXX         1    4    1    1
 -5  SYY         1    4    2    2
 -5  SZZ         1    4    3    3
 -5  SXY         1    4    1    2
 -5  SYZ         1    4    2    3
 -5  SZX         1    4    3    1
 -1         1 8.91725E+03-4.08273E+01 5.41626E+02-1.60611E+03-2.30427E-03 1.55753E-02
 -1         2 8.12873E+03 2.07682E+02 4.40079E+02-2.38983E+03 1.03597E+00-3.96933E+01
 -1         3 5.78278E+03-1.31516E+03-3.19076E+02-1.05786E+03-3.19808E+01 4.16381E-01
 -1         4 5.00255E+03-1.08923E+03-4.42664E+02-1.82254E+03-7.13545E+01 2.57852E+00
 -1         5 8.65663E+03-2.60286E+02 4.05062E+02-1.60026E+03 1.68055E+02 9.61579E+01
 -1         6 7.85661E+03-1.68201E+02 2.51867E+02-2.34617E+03 1.61978E+02 4.94906E+01
 -1         7 5.75492E+03-1.39131E+03-3.51621E+02-1.13221E+03 1.38820E+02 8.70413E+01
 -1         8 4.96110E+03-1.31968E+03-5.27655E+02-1.86162E+03 9.25297E+01 8.22599E+01
 -3
    1PSTEP                        45          15           1          
  100CL  115 7.50000E-01           8                     0   15           1
 -4  TOSTRAIN    6    1
 -5  EXX         1    4    1    1
 -5  EYY         1    4    2    2
 -5  EZZ         1    4    3    3
 -5  EXY         1    4    1    2
 -5  EYZ         1    4    2    3
 -5  EZX         1    4    3    1
 -1         1 3.91095E-02-1.30258E-02-9.20343E-03-9.61798E-03-4.39075E-07-7.30297E-08
 -1         2 3.52639E-02-1.05736E-02-8.98043E-03-1.44568E-02 5.03733E-06-2.42091E-04
 -1         3 2.85744E-02-1.38909E-02-7.45176E-03-6.51253E-03-2.04791E-04 6.33608E-07
 -1         4 2.47684E-02-1.14784E-02-7.29897E-03-1.13041E-02-4.55718E-04 6.53466E-06
 -1         5 3.84725E-02-1.35642E-02-9.20343E-03-9.59275E-03 1.09712E-03 5.65245E-04
 -1         6 3.48670E-02-1.17887E-02-8.98043E-03-1.42247E-02 1.05616E-03 3.06473E-04
 -1         7 2.85925E-02-1.41869E-02-7.45176E-03-6.93967E-03 9.11682E-04 5.20542E-04
 -1         8 2.50212E-02-1.24455E-02-7.29897E-03-1.15309E-02 6.14749E-04 5.09852E-04
 -3
    1PSTEP                        46          16           1          
  100CL  116 8.00000E-01           8                     0   16           1
 -4  DISP        4    1
 -5  D1          1    2    1    0
 -5  D2          1    2    2    0
 -5  D3          1    2    3    0
 -5  ALL         1    2    0    0    1ALL
 -1         1 0.00000E+00 0.00000E+00 0.00000E+00
 -1         2 2.16775E+01 0.00000E+00 0.00000E+00
 -1         3 0.00000E+00-7.47760E+00 0.00000E+00
 -1         4 1.59342E+01-6.19349E+00 0.00000E+00
 -1         5 0.00000E+00 0.00000E+00-6.87783E+00
 -1         6 2.13310E+01 0.00000E+00-6.71136E+00
 -1         7 0.00000E+00-7.78727E+00-5.56424E+00
 -1         8 1.59412E+01-6.87917E+00-5.45108E+00
 -3
    1PSTEP                        47          16           1          
  100CL  116 8.00000E-01           8                     0   16           1
 -4  STRESS      6    1
 -5  SXX         1    4    1    1
 -5  SYY         1    4    2    2
 -5  SZZ         1    4    3    3
 -5  SXY         1    4    1    2
 -5  SYZ         1    4    2    3
 -5  SZX         1    4    3    1
 -1         1 9.51259E+03-4.47841E+01 5.74048E+02-1.71209E+03-2.02791E-03 1.78633E-02
 -1         2 8.67320E+03 2.17613E+02 4.65786E+02-2.54427E+03 1.15986E+00-4.20355E+01
 -1         3 6.16829E+03-1.39431E+03-3.37400E+02-1.12771E+03-3.39461E+01 4.71445E-01
 -1         4 5.33872E+03-1.15675E+03-4.69287E+02-1.93850E+03-7.56177E+01 2.79605E+00
 -1         5 9.23549E+03-2.77143E+02 4.29584E+02-1.70581E+03 1.77886E+02 1.02294E+02
 -1         6 8.38380E+03-1.80561E+02 2.66444E+02-2.49780E+03 1.71481E+02 5.25645E+01
 -1         7 6.13857E+03-1.47521E+03-3.72094E+02-1.20690E+03 1.46858E+02 9.24654E+01
 -1         8 5.29435E+03-1.40107E+03-5.59759E+02-1.98034E+03 9.78423E+01 8.71340E+01
 -3
    1PSTEP                        48          16           1          
  100CL  116 8.00000E-01           8                     0   16           1
 -4  TOSTRAIN    6    1
 -5  EXX         1    4    1    1
 -5  EYY         1    4    2    2
 -5  EZZ         1    4    3    3
 -5  EXY         1    4    1    2
 -5  EYZ         1    4    2    3
 -5  EZX         1    4    3    1
 -1         1 4.15602E-02-1.38529E-02-9.77718E-03-1.02311E-02-4.90541E-07-8.08255E-08
 -1         2 3.74777E-02-1.12532E-02-9.54161E-03-1.53685E-02 5.64226E-06-2.56123E-04
 -1         3 3.03783E-02-1.47685E-02-7.91721E-03-6.93870E-03-2.17823E-04 7.21460E-07
 -1         4 2.63403E-02-1.22132E-02-7.75650E-03-1.20232E-02-4.83879E-04 6.70077E-06
 -1         5 4.08863E-02-1.44256E-02-9.77718E-03-1.02045E-02 1.16515E-03 5.99355E-04
 -1         6 3.70577E-02-1.25442E-02-9.54161E-03-1.51237E-02 1.12176E-03 3.25453E-04
 -1         7 3.03969E-02-1.50839E-02-7.91721E-03-7.39155E-03 9.68109E-04 5.51796E-04
 -1         8 2.66067E-02-1.32409E-02-7.75650E-03-1.22650E-02 6.53018E-04 5.40101E-04
 -3
    1PSTEP                        49          17           1          
  100CL  117 8.50000E-01           8                     0   17           1
 -4  DISP        4    1
 -5  D1          1    2    1    0
 -5  D2          1    2    2    0
 -5  D3          1    2    3    0
 -5  ALL         1    2    0    0    1ALL
 -1         1 0.00000E+00 0.00000E+00 0.00000E+00
 -1         2 2.29202E+01 0.00000E+00 0.00000E+00
 -1         3 0.00000E+00-7.92806E+00 0.00000E+00
 -1         4 1.68601E+01-6.57785E+00 0.00000E+00
 -1         5 0.00000E+00 0.00000E+00-7.28037E+00
 -1         6 2.25557E+01 0.00000E+00-7.10508E+00
 -1         7 0.00000E+00-8.25646E+00-5.89023E+00
 -1         8 1.68670E+01-7.30365E+00-5.77160E+00
 -3
    1PSTEP                        50          17           1          
  100CL  117 8.50000E-01           8                     0   17           1
 -4  STRESS      6    1
 -5  SXX         1    4    1    1
 -5  SYY         1    4    2    2
 -5  SZZ         1    4    3    3
 -5  SXY         1    4    1    2
 -5  SYZ         1    4    2    3
 -5  SZX         1    4    3    1
 -1         1 1.01080E+04-4.88657E+01 6.06075E+02-1.81794E+03-1.66404E-03 2.03029E-02
 -1         2 9.21793E+03 2.27101E+02 4.91097E+02-2.69817E+03 1.28871E+00-4.43478E+01
 -1         3 6.55381E+03-1.47252E+03-3.55401E+02-1.19750E+03-3.58923E+01 5.29632E-01
 -1         4 5.67517E+03-1.22370E+03-4.95598E+02-2.05388E+03-7.98273E+01 3.01662E+00
 -1         5 9.81452E+03-2.93940E+02 4.53835E+02-1.81122E+03 1.87568E+02 1.08403E+02
 -1         6 8.91135E+03-1.93063E+02 2.80774E+02-2.64890E+03 1.80842E+02 5.56145E+01
 -1         7 6.52224E+03-1.55811E+03-3.92241E+02-1.28152E+03 1.54763E+02 9.78509E+01
 -1         8 5.62788E+03-1.48174E+03-5.91528E+02-2.09850E+03 1.03061E+02 9.19439E+01
 -3
    1PSTEP                        51          17           1          
  100CL  117 8.50000E-01           8                     0   17           1
 -4  TOSTRAIN    6    1
 -5  EXX         1    4    1    1
 -5  EYY         1    4    2    2
 -5  EZZ         1    4    3    3
 -5  EXY         1    4    1    2
 -5  EYZ         1    4    2    3
 -5  EZX         1    4    3    1
 -1         1 4.39932E-02-1.46755E-02-1.03464E-02-1.08410E-02-5.43965E-07-8.88375E-08
 -1         2 3.96761E-02-1.19300E-02-1.00985E-02-1.62744E-02 6.27175E-06-2.69946E-04
 -1         3 3.21707E-02-1.56406E-02-8.37911E-03-7.36389E-03-2.30781E-04 8.14992E-07
 -1         4 2.79030E-02-1.29446E-02-8.21068E-03-1.27384E-02-5.11795E-04 6.82976E-06
 -1         5 4.32829E-02-1.52821E-02-1.03464E-02-1.08130E-02 1.23260E-03 6.33089E-04
 -1         6 3.92333E-02-1.32965E-02-1.00985E-02-1.60170E-02 1.18682E-03 3.44271E-04
 -1         7 3.21897E-02-1.59755E-02-8.37911E-03-7.84214E-03 1.02405E-03 5.82693E-04
 -1         8 2.81828E-02-1.40325E-02-8.21068E-03-1.29953E-02 6.90983E-04 5.69955E-04
 -3
    1PSTEP                        52          18           1          
  100CL  118 9.00000E-01           8                     0   18           1
 -4  DISP        4    1
 -5  D1          1    2    1    0
 -5  D2          1    2    2    0
 -5  D3          1    2    3    0
 -5  ALL         1    2    0    0    1ALL
 -1         1 0.00000E+00 0.00000E+00 0.00000E+00
 -1         2 2.41513E+01 0.00000E+00 0.00000E+00
 -1         3 0.00000E+00-8.37675E+00 0.00000E+00
 -1         4 1.77787E+01-6.96190E+00 0.00000E+00
 -1         5 0.00000E+00 0.00000E+00-7.68000E+00
 -1         6 2.37692E+01 0.00000E+00-7.49604E+00
 -1         7 0.00000E+00-8.72380E+00-6.21390E+00
 -1         8 1.77854E+01-7.72753E+00-6.08993E+00
 -3
    1PSTEP                        53          18           1          
  100CL  118 9.00000E-01           8                     0   18           1
 -4  STRESS      6    1
 -5  SXX         1    4    1    1
 -5  SYY         1    4    2    2
 -5  SZZ         1    4    3    3
 -5  SXY         1    4    1    2
 -5  SYZ         1    4    2    3
 -5  SZX         1    4    3    1
 -1         1 1.07034E+04-5.30676E+01 6.37716E+02-1.92367E+03-1.20996E-03 2.28917E-02
 -1         2 9.76290E+03 2.36155E+02 5.16021E+02-2.85153E+03 1.42226E+00-4.66313E+01
 -1         3 6.93934E+03-1.54981E+03-3.73087E+02-1.26724E+03-3.78198E+01 5.90895E-01
 -1         4 6.01192E+03-1.29011E+03-5.21603E+02-2.16869E+03-8.39844E+01 3.23985E+00
 -1         5 1.03937E+04-3.10677E+02 4.77820E+02-1.91650E+03 1.97104E+02 1.14486E+02
 -1         6 9.43923E+03-2.05706E+02 2.94862E+02-2.79946E+03 1.90064E+02 5.86412E+01
 -1         7 6.90591E+03-1.64005E+03-4.12069E+02-1.35607E+03 1.62538E+02 1.03199E+02
 -1         8 5.96168E+03-1.56169E+03-6.22970E+02-2.21609E+03 1.08186E+02 9.66912E+01
 -3
    1PSTEP                        54          18           1          
  100CL  118 9.00000E-01           8                     0   18           1
 -4  TOSTRAIN    6    1
 -5  EXX         1    4    1    1
 -5  EYY         1    4    2    2
 -5  EZZ         1    4    3    3
 -5  EXY         1    4    1    2
 -5  EYZ         1    4    2    3
 -5  EZX         1    4    3    1
 -1         1 4.64090E-02-1.54934E-02-1.09113E-02-1.14477E-02-5.99242E-07-9.70499E-08
 -1         2 4.18593E-02-1.26041E-02-1.06512E-02-1.71745E-02 6.92460E-06-2.83566E-04
 -1         3 3.39518E-02-1.65074E-02-8.83750E-03-7.78811E-03-2.43665E-04 9.14197E-07
 -1         4 2.94568E-02-1.36727E-02-8.66156E-03-1.34498E-02-5.39471E-04 6.92127E-06
 -1         5 4.56629E-02-1.61339E-02-1.09113E-02-1.14183E-02 1.29949E-03 6.66457E-04
 -1         6 4.13941E-02-1.40455E-02-1.06512E-02-1.69049E-02 1.25136E-03 3.62928E-04
 -1         7 3.39712E-02-1.68616E-02-8.83750E-03-8.29147E-03 1.07952E-03 6.13244E-04
 -1         8 2.97496E-02-1.48204E-02-8.66156E-03-1.37217E-02 7.28648E-04 5.99423E-04
 -3
    1PSTEP                        55          19           1          
  100CL  119 9.50000E-01           8                     0   19           1
 -4  DISP        4    1
 -5  D1          1    2    1    0
 -5  D2          1    2    2    0
 -5  D3          1    2    3    0
 -5  ALL         1    2    0    0    1ALL
 -1         1 0.00000E+00 0.00000E+00 0.00000E+00
 -1         2 2.53711E+01 0.00000E+00 0.00000E+00
 -1         3 0.00000E+00-8.82367E+00 0.00000E+00
 -1         4 1.86900E+01-7.34565E+00 0.00000E+00
 -1         5 0.00000E+00 0.00000E+00-8.07679E+00
 -1         6 2.49716E+01 0.00000E+00-7.88429E+00
 -1         7 0.00000E+00-9.18930E+00-6.53528E+00
 -1         8 1.86964E+01-8.15084E+00-6.40612E+00
 -3
    1PSTEP                        56          19           1          
  100CL  119 9.50000E-01           8                     0   19           1
 -4  STRESS      6    1
 -5  SXX         1    4    1    1
 -5  SYY         1    4    2    2
 -5  SZZ         1    4    3    3
 -5  SXY         1    4    1    2
 -5  SYZ         1    4    2    3
 -5  SZX         1    4    3    1
 -1         1 1.12990E+04-5.73861E+01 6.68981E+02-2.02928E+03-6.63425E-04 2.56275E-02
 -1         2 1.03081E+04 2.44780E+02 5.40567E+02-3.00435E+03 1.56028E+00-4.88871E+01
 -1         3 7.32488E+03-1.62618E+03-3.90462E+02-1.33692E+03-3.97287E+01 6.55188E-01
 -1         4 6.34893E+03-1.35598E+03-5.47309E+02-2.28294E+03-8.80903E+01 3.46541E+00
 -1         5 1.09730E+04-3.27355E+02 5.01546E+02-2.02166E+03 2.06497E+02 1.20544E+02
 -1         6 9.96743E+03-2.18489E+02 3.08711E+02-2.94951E+03 1.99151E+02 6.16452E+01
 -1         7 7.28959E+03-1.72104E+03-4.31585E+02-1.43057E+03 1.70187E+02 1.08511E+02
 -1         8 6.29573E+03-1.64093E+03-6.54092E+02-2.33314E+03 1.13222E+02 1.01378E+02
 -3
    1PSTEP                        57          19           1          
  100CL  119 9.50000E-01           8                     0   19           1
 -4  TOSTRAIN    6    1
 -5  EXX         1    4    1    1
 -5  EYY         1    4    2    2
 -5  EZZ         1    4    3    3
 -5  EXY         1    4    1    2
 -5  EYZ         1    4    2    3
 -5  EZX         1    4    3    1
 -1         1 4.88077E-02-1.63069E-02-1.14717E-02-1.20512E-02-6.56271E-07-1.05448E-07
 -1         2 4.40276E-02-1.32757E-02-1.11998E-02-1.80689E-02 7.59969E-06-2.96991E-04
 -1         3 3.57219E-02-1.73688E-02-9.29245E-03-8.21136E-03-2.56474E-04 1.01907E-06
 -1         4 3.10018E-02-1.43976E-02-9.10919E-03-1.41575E-02-5.66911E-04 6.97499E-06
 -1         5 4.80263E-02-1.69811E-02-1.14717E-02-1.20205E-02 1.36583E-03 6.99469E-04
 -1         6 4.35402E-02-1.47914E-02-1.11998E-02-1.77873E-02 1.31537E-03 3.81429E-04
 -1         7 3.57415E-02-1.77424E-02-9.29245E-03-8.73953E-03 1.13452E-03 6.43460E-04
 -1         8 3.13073E-02-1.56046E-02-9.10919E-03-1.44444E-02 7.66018E-04 6.28516E-04
 -3
    1PSTEP                        58          20           1          
  100CL  120 1.000000000           8                     0   20           1
 -4  DISP        4    1
 -5  D1          1    2    1    0
 -5  D2          1    2    2    0
 -5  D3          1    2    3    0
 -5  ALL         1    2    0    0    1ALL
 -1         1 0.00000E+00 0.00000E+00 0.00000E+00
 -1         2 2.65796E+01 0.00000E+00 0.00000E+00
 -1         3 0.00000E+00-9.26887E+00 0.00000E+00
 -1         4 1.95942E+01-7.72909E+00 0.00000E+00
 -1         5 0.00000E+00 0.00000E+00-8.47076E+00
 -1         6 2.61631E+01 0.00000E+00-8.26986E+00
 -1         7 0.00000E+00-9.65301E+00-6.85441E+00
 -1         8 1.96003E+01-8.57358E+00-6.72017E+00
 -3
    1PSTEP                        59          20           1          
  100CL  120 1.000000000           8                     0   20           1
 -4  STRESS      6    1
 -5  SXX         1    4    1    1
 -5  SYY         1    4    2    2
 -5  SZZ         1    4    3    3
 -5  SXY         1    4    1    2
 -5  SYZ         1    4    2    3
 -5  SZX         1    4    3    1
 -1         1 1.18945E+04-6.18170E+01 6.99880E+02-2.13476E+03-2.26247E-05 2.85078E-02
 -1         2 1.08535E+04 2.52985E+02 5.64742E+02-3.15665E+03 1.70256E+00-5.11162E+01
 -1         3 7.71044E+03-1.70167E+03-4.07535E+02-1.40656E+03-4.16193E+01 7.22467E-01
 -1         4 6.68622E+03-1.42132E+03-5.72722E+02-2.39664E+03-9.21459E+01 3.69297E+00
 -1         5 1.15525E+04-3.43973E+02 5.25018E+02-2.12669E+03 2.15751E+02 1.26577E+02
 -1         6 1.04959E+04-2.31413E+02 3.22327E+02-3.09904E+03 2.08105E+02 6.46273E+01
 -1         7 7.67327E+03-1.80109E+03-4.50795E+02-1.50500E+03 1.77711E+02 1.13788E+02
 -1         8 6.63004E+03-1.71949E+03-6.84901E+02-2.44967E+03 1.18168E+02 1.06006E+02
 -3
    1PSTEP                        60          20           1          
  100CL  120 1.000000000           8                     0   20           1
 -4  TOSTRAIN    6    1
 -5  EXX         1    4    1    1
 -5  EYY         1    4    2    2
 -5  EZZ         1    4    3    3
 -5  EXY         1    4    1    2
 -5  EYZ         1    4    2    3
 -5  EZX         1    4    3    1
 -1         1 5.11897E-02-1.71160E-02-1.20279E-02-1.26516E-02-7.14958E-07-1.14019E-07
 -1         2 4.61812E-02-1.39447E-02-1.17443E-02-1.89577E-02 8.29598E-06-3.10228E-04
 -1         3 3.74810E-02-1.82251E-02-9.74399E-03-8.63364E-03-2.69210E-04 1.12959E-06
 -1         4 3.25381E-02-1.51194E-02-9.55360E-03-1.48615E-02-5.94119E-04 6.99063E-06
 -1         5 5.03734E-02-1.78236E-02-1.20279E-02-1.26196E-02 1.43162E-03 7.32135E-04
 -1         6 4.56719E-02-1.55341E-02-1.17443E-02-1.86643E-02 1.37887E-03 3.99774E-04
 -1         7 3.75007E-02-1.86179E-02-9.74399E-03-9.18635E-03 1.18906E-03 6.73349E-04
 -1         8 3.28560E-02-1.63851E-02-9.55360E-03-1.51634E-02 8.03098E-04 6.57245E-04
 -3
 9999
